FeMn_288_15                             
    1.000000000000000     
     9.7266779999999997    0.0000000000000000    0.0000000000000000
     0.0000000000000000    8.4235500000000005    0.0000000000000000
     0.0000000000000000    0.0000000000000000   45.0000000000000000
   Fe   Mn
   273    15
Direct
  0.0622025308756854  0.7047668561355912  0.4787397755883707
  0.5625925036673032  0.8672893154714283  0.3016429892751611
  0.3124198098701770  0.7012097017162070  0.3463792963016957
  0.9372822112613688  0.2963018007738492  0.7434794998385975
  0.8123721324569749  0.5418525754633363  0.6101714792861317
  0.1875075864780646  0.4678597594660455  0.8329139619433183
  0.8125225302085149  0.3608501980861412  0.1663504520357313
  0.8120226808442812  0.6953301559238197  0.2119598175012331
  0.5627580974149177  0.2178230644479904  0.8329262189537263
  0.1871381754465651  0.9469631420388552  0.2119427908206786
  0.6877660450597727  0.4551047692656456  0.4787552423042463
  0.8123321046591016  0.8672872985776380  0.3016140091899503
  0.4377087167656831  0.1209744185274166  0.4349170487679788
  0.6878707657395503  0.2765370283052815  0.1236697949653230
  0.5619773138003100  0.7015479952185245  0.3463194520440196
  0.9375617198212758  0.1166760424055014  0.3015224834708373
  0.6872594774696708  0.9610679606253368  0.6989455672603280
  0.0626095339432143  0.2108276480793111  0.6989803137075998
  0.8126845236125504  0.2058819485477357  0.4786955166862579
  0.3124752927430581  0.0328841500611477  0.2566487202558463
  0.8126137505181600  0.0505657769463390  0.8753601014884727
  0.8123224214237607  0.7014929569306784  0.3462636503458008
  0.1874519202491726  0.2966691997356199  0.7435408351806020
  0.4375373185491075  0.4609584388335209  0.6989629123488691
  0.1872889279381826  0.4552064225201590  0.4787069721109453
  0.6878700981925309  0.1263764912975791  0.6544018087671618
  0.3130296171746192  0.0462384776566827  0.7434829908077024
  0.5625521288493623  0.2108698796700069  0.6990835937563937
  0.0628306868074562  0.3813483494780997  0.7877774829336209
  0.4374831539451929  0.7959444333037193  0.7434735038088539
  0.9376583103921351  0.1264806069193581  0.6542099151870776
  0.8123848297230399  0.1967039018762766  0.2121251068049750
  0.0630455647450612  0.2079720612213003  0.5653315656174139
  0.1875792598024027  0.6309207532625214  0.7879430875281259
  0.3125186561368888  0.5361471064737112  0.3900979769633068
  0.3127642200874384  0.5417008102714936  0.6101450935132194
  0.3123980217978821  0.0415352786020413  0.6101724418168827
  0.3120326749292677  0.2177747101158187  0.8327898372716527
  0.9386944508510412  0.3015090815090904  0.8752926205332515
  0.6877207174068158  0.7813980014372762  0.2566941360510877
  0.5619988391134757  0.7047035676102374  0.4788173730921517
  0.5628339833344976  0.2061900191850710  0.4785917328188934
  0.0626223040455224  0.7062726355137523  0.5653077728726364
  0.6875289638933140  0.6314349990542034  0.7878175968307267
  0.4374442501267743  0.4574378480563194  0.5654109503408825
  0.8126158558637253  0.3763934698696685  0.6541183229352412
  0.0624918690490935  0.8809809873215947  0.7878699118236463
  0.0625501379470526  0.0366704450712971  0.3901713416109956
  0.5622791587222765  0.5417956735363763  0.6101319506386543
  0.3124667015239930  0.3811416020604211  0.7879846008293458
  0.4377186537310189  0.7818220265384671  0.2566681123046804
  0.4371785950780558  0.4554700264619059  0.4787542265336674
  0.4368520916510256  0.2760608917311528  0.1236557692568385
  0.0625482033499664  0.2061974027169950  0.4788090066079368
  0.9376809993035458  0.9554933885440979  0.5653896155716857
  0.3120155043129455  0.8709314999343470  0.4348223120107006
  0.9374700972015431  0.2815525085285298  0.2566557332303583
  0.1879303018938371  0.1315640336222862  0.7879614118197201
  0.4371169970137104  0.2859890412527770  0.3901750149180047
  0.0626221585865598  0.3610340116400065  0.1665023128522646
  0.8124781968921617  0.2108565023054735  0.6989934943314600
  0.6877093351137761  0.2959253189313464  0.7436076428908850
  0.5622879155195527  0.5369195583556235  0.3901079643700024
  0.6870933655209970  0.9511960687118800  0.3463795710508616
  0.9376492158227544  0.6162369219029764  0.3014263895666524
  0.4375767117793698  0.2957738952696620  0.7434830530570885
  0.9375553655817876  0.2919772066928955  0.6101839197351975
  0.0630110296323964  0.7015440671826394  0.3464253520937290
  0.4375834548671724  0.2915994299420700  0.6101796572547860
  0.9376742338343048  0.9511867989818314  0.3463958100483662
  0.4374502725190033  0.6210796242071663  0.4347817739223708
  0.8124943991914865  0.2014771374325987  0.3462580332930063
  0.5633775164254992  0.5306450052176858  0.2565721963703458
  0.1877122291443568  0.4610041518097696  0.6989313373352770
  0.4372839215788946  0.7910081921859216  0.6101507703697845
  0.1878287327597897  0.7863242681601312  0.3902034084129951
  0.1880194849019294  0.4518573377317194  0.3463780140976888
  0.3124278635671025  0.7168311026028366  0.8328240735722814
  0.6866569264078064  0.4520313625459515  0.3463227917809776
  0.5625549085288177  0.2076775038920111  0.5655261297151840
  0.4375880531767985  0.4462958561100763  0.2120532703792046
  0.5627375187382492  0.8722689096585815  0.5215979990464498
  0.1870257656119705  0.9561677389212350  0.5652440700918469
  0.8120192701137872  0.2078018941273461  0.5654354205359952
  0.1875422582806920  0.1222116528026996  0.5215671302727193
  0.3123775560771092  0.2016424040509515  0.3462996005907808
  0.0625893234616228  0.0318647611919460  0.2565717022438425
  0.3124278412788294  0.7046029697306483  0.4788305482776302
  0.5628264529099897  0.3613334801140046  0.1661399708947057
  0.8126454050305698  0.0269045364533890  0.1237901736087311
  0.8125779948552344  0.0321249073715908  0.2566262055235604
  0.8122130766157355  0.7178993004794550  0.8328172614339587
  0.1877452670447355  0.9673112729677499  0.8325109286116239
  0.1870404332921221  0.1262730018021208  0.6543867214744233
  0.9378648724587446  0.7909753208644439  0.6102159622106010
  0.6875292110553740  0.4608106560084100  0.6989540573101684
  0.5627633408195414  0.7109464337458707  0.6989215026017318
  0.0629811189435620  0.8726886802069942  0.5214764575391583
  0.0626198692795309  0.7109448624969812  0.6989506307573905
  0.3124959527485454  0.0276522792227818  0.1237312220835333
  0.9371414952059838  0.1210347426386964  0.4350128358305816
  0.3121259424081214  0.7065869124557344  0.5653725670261257
  0.4375054839210348  0.9479623176871305  0.2120571175388549
  0.6871432586481635  0.9680292982020705  0.8329646959139124
  0.9373635888763194  0.4458511834552181  0.2118841220905296
  0.6875223785229020  0.1222135427490548  0.5215431146678916
  0.0624801181569358  0.3762936469565461  0.6541116922643510
  0.8119083654889476  0.2182574016157907  0.8328392675105758
  0.5626073352256710  0.5265726930095087  0.1235203628939633
  0.4375388372831356  0.6261595678498779  0.6542379362767043
  0.1870613727944228  0.6160490169151508  0.3015654013510206
  0.5624341860676509  0.0462241134185306  0.7435165075189897
  0.4371667208671380  0.1108478317205853  0.1663259421229436
  0.1871338612589241  0.4457887479365960  0.2119355867495463
  0.1871240525943141  0.3008289705065206  0.8752584022489052
  0.4377656803404960  0.9609394012487072  0.6989403677264252
  0.5623316726179498  0.1967781028058317  0.2118292462379384
  0.9374766293800855  0.6310848536641894  0.7879062241901118
  0.3124216999245902  0.8762239112060214  0.6541817513415096
  0.3124560138848461  0.3709410818945714  0.4347434603912991
  0.8125820398220840  0.3809074770983673  0.7879562146923289
  0.8120798722746673  0.8605310897436810  0.1660919356349387
  0.3123550509172911  0.7109373995154451  0.6989182413371359
  0.9376767258938628  0.4608310294157948  0.6989838783778151
  0.6881398574372554  0.2817081625459101  0.2566602105846609
  0.0623838590960848  0.0462377995702816  0.7435624378252215
  0.0624464166294390  0.5465140614129920  0.7433453239125370
  0.5631241486089528  0.6966341969517178  0.2122514516004442
  0.4371967110167109  0.1307241602404762  0.7877867657688727
  0.9373704426372845  0.8018379272408570  0.8753626353923565
  0.9375279110660844  0.7768985107632023  0.1236961807745950
  0.6875354601289029  0.7903762640264279  0.6101048463982238
  0.9375335807230248  0.7810261018533473  0.2566391661943220
  0.8130058775455150  0.8710592239178594  0.4345856298665415
  0.8134308192175945  0.5512391180639111  0.8754715697027953
  0.0625608220119870  0.5273942148944780  0.1237698021069353
  0.9378807928101313  0.4516467100137017  0.3463123426078877
  0.1869667402569251  0.2815081604984848  0.2566239425896518
  0.4374364397197054  0.1173260373496524  0.3014975280440819
  0.9378494757791970  0.2757665314133816  0.1238301828168821
  0.1870789480628324  0.6262428815487986  0.6540544238481927
  0.0618308461030402  0.5309185922425629  0.2566597294391322
  0.1878514449771416  0.6114108314231408  0.1660916137037770
  0.6874249551187592  0.2867389197615396  0.3900739967172515
  0.9375729831692150  0.7962721022896383  0.7433646686293806
  0.1879292033739211  0.9609478066644784  0.6989302508943810
  0.0620737017244520  0.0266926920380243  0.1238264316551882
  0.6874050767580648  0.6107777084822273  0.1660250092222254
  0.8126778497231533  0.7109702817938162  0.6989575915482310
  0.6873626739487849  0.8008932142536697  0.8754785796399893
  0.1873348262364034  0.2863320611745491  0.3900602438114196
  0.5623847832658205  0.8809624775380618  0.7878709239243384
  0.5626450894871747  0.0414912082531799  0.6102254001547358
  0.0628381973280246  0.2013310280916648  0.3462739957113600
  0.4373967176221223  0.6226800124416318  0.5217086745877347
  0.5619094320149696  0.5510075009624277  0.8755433355018446
  0.6875758600774564  0.4568516481987842  0.5653999209910604
  0.1875450363745583  0.7906016665415588  0.6100859737172051
  0.1881200506380358  0.1110236197276060  0.1665634044039774
  0.9376366454738231  0.4557120372494417  0.4787445894692328
  0.5627548090864889  0.3667772308138961  0.3016471354914197
  0.6874989665340258  0.1209062036552661  0.4346290216337690
  0.1876393211459300  0.9512450480567384  0.3465245276560314
  0.8127638875670012  0.5459514402008222  0.7434785313372020
  0.4377996741677018  0.7771071789517975  0.1235383915808632
  0.4363755976985457  0.3013936997455557  0.8754789979976944
  0.6873315291876465  0.1312426914113133  0.7880361566397041
  0.1871286737418214  0.9549254218040191  0.4787733946017096
  0.3127805114035003  0.2108390137887530  0.6990852344427810
  0.3128515899882388  0.8808336973722503  0.7878650870146470
  0.0627550165616855  0.5363041667399255  0.3901367248763516
  0.4375736691914969  0.4669423815206617  0.8331173104237637
  0.6873959120634258  0.4668944295535899  0.8329642420663467
  0.4370867092071889  0.9547815788981794  0.4789003571061403
  0.4370961135641283  0.4523451310142979  0.3464499771717863
  0.9377266582685184  0.6226129753837732  0.5215561253759945
  0.1873613989913796  0.8019370690603824  0.8752819710522500
  0.6877121914899156  0.9559026103818453  0.5650218841688704
  0.0627087196654892  0.8669840180612179  0.3016626180075854
  0.9377449589728655  0.9461645017572829  0.2119827130686721
  0.3121367556874892  0.2075708741738486  0.5653834124087390
  0.1871814811722823  0.4571861433109496  0.5654097527701474
  0.4374532137392566  0.2816313432554403  0.2567242816623211
  0.9371671117971375  0.9673741472500939  0.8324571312893257
  0.5624835982981250  0.8708308005126753  0.4346381153518328
  0.3123352559327203  0.5462490916548924  0.7435373295493715
  0.5623647949327218  0.3711265424574727  0.4346404635605522
  0.1874132517336946  0.2922807483111891  0.6103117951332202
  0.9377360719096548  0.9550501280660753  0.4787226121755405
  0.9371961432895823  0.4679207518544916  0.8328886666378315
  0.3120067078360124  0.0505813829514344  0.8751800372942726
  0.8121157785308595  0.5265356297488656  0.1236129212498203
  0.3132798395589242  0.8608530194220292  0.1659987447513948
  0.0625451226152575  0.1966907247617446  0.2120622246597841
  0.0623639444861996  0.3734875977242982  0.5214981677403099
  0.6876421148749647  0.2919778761795630  0.6103650225391668
  0.1874405474103814  0.1207145272345308  0.4346770961295174
  0.8123244816705977  0.8726106893691685  0.5214523734856024
  0.5627568384001949  0.3759995666330508  0.6541902932694066
  0.1873128898023077  0.6230697520825270  0.5215754850568691
  0.9371836186921318  0.7863448551956025  0.3902012774490524
  0.4373409634811445  0.9509885419761367  0.3463035108625322
  0.4372569337895172  0.9672450514449344  0.8327450389716796
  0.8130400332767413  0.3734121999849925  0.5215263220119529
  0.5619910466849030  0.2015813656200836  0.3462504908987097
  0.6873094455218774  0.9465925040116585  0.2118757308321165
  0.5625169797193057  0.3808277648965652  0.7880934280008971
  0.0627917550507158  0.5417842778141816  0.6101579534794873
  0.5624631016527184  0.7178283281531505  0.8330022907163164
  0.6878923239399802  0.6263844053336409  0.6540765393291534
  0.6876183933444917  0.6216148582931741  0.4350475895948515
  0.5624139996811803  0.0498239149946388  0.8754384205800375
  0.5623183868978894  0.7061953191530205  0.5655057499121703
  0.6877049720993892  0.4461133942615149  0.2118304804946019
  0.0623639218246405  0.8759971147097599  0.6541106577119823
  0.1871396979643521  0.7813522693957794  0.2567154932190710
  0.3121889367285169  0.8666914775919393  0.3018044244100707
  0.0621433603521916  0.5521642953946786  0.8754757072482684
  0.8128256855319609  0.7060669289381548  0.5654655516052681
  0.8129606175770886  0.5306773584157136  0.2565893846029970
  0.9375077622742658  0.6263503425859459  0.6541011193172517
  0.8124480173380191  0.8812034103178923  0.7878108763016167
  0.1872517047196504  0.1167351534080276  0.3016560109590650
  0.4382315420219994  0.6117685872850410  0.1662013847096240
  0.3120357338292721  0.5307834471068121  0.2565352557765109
  0.3130092216157850  0.5271264144343121  0.1234710411334111
  0.9378817430955227  0.2866543925873347  0.3900923270275808
  0.5626037561644794  0.8603773453367386  0.1660752640364135
  0.8121201267008660  0.0464714761199602  0.7433953676379369
  0.5628798387938643  0.0268042206091326  0.1236638992503066
  0.3120894096014217  0.3733635531770985  0.5215550665297017
  0.3116680705799539  0.2062815858518980  0.4786868272154821
  0.9376718824199556  0.6109051660940903  0.1662451764432093
  0.8122774639650034  0.3665535024107610  0.3014325588656627
  0.1878051588943961  0.2765234963104522  0.1237581505369313
  0.8122568124443688  0.5367456708810771  0.3901846871719290
  0.4375828691260606  0.6307290289326101  0.7878675304441368
  0.0626699335142199  0.8605729681423617  0.1662425022921846
  0.1877478649749378  0.7765245963821608  0.1235793366560816
  0.6873527234610279  0.7961242995175423  0.7434249031033772
  0.3121260819462475  0.3758906784568822  0.6541465987674506
  0.5623159844842527  0.3732685601298207  0.5215885186978407
  0.3124282900577791  0.3663974504895455  0.3016324599065560
  0.8125201099919972  0.3713197750477246  0.4346228144583629
  0.0625296576040881  0.0510112490783936  0.8750943507869240
  0.1872275203563775  0.6212342013055108  0.4347860479694285
  0.0627483708118125  0.2181937512242315  0.8325224832639440
  0.3128183168486736  0.3606876303818129  0.1664579983362760
  0.3124221182947524  0.0365330532070038  0.3901173653042155
  0.8132344534755968  0.7048125691629035  0.4787944357407355
  0.0625358199335844  0.3713839743876994  0.4347365764873756
  0.3131315171356613  0.6961541900442297  0.2120874694486542
  0.6877083886078705  0.1107770367989838  0.1664511238777791
  0.9375538627558252  0.6213083687883486  0.4347357389210513
  0.6878991483379797  0.6165830484306162  0.3014943017373740
  0.6875752540950627  0.7771239501568115  0.1236355505161013
  0.0623958518206482  0.3661290728078970  0.3015831259043710
  0.6876432121580373  0.1174714530816686  0.3014554647891384
  0.5623873291181870  0.0326150300569744  0.2565814043548574
  0.3127067882123362  0.5513980555370505  0.8755214286235099
  0.5623510822944340  0.5458208153729730  0.7434795512062489
  0.9377648668472820  0.1108523130843974  0.1665523999819975
  0.0624405739186025  0.8708059186266287  0.4346707169041015
  0.1875239339775758  0.7961755550797583  0.7433852066579048
  0.5624211477914947  0.0357581667053453  0.3901986212655106
  0.9378729098306140  0.1310992037633815  0.7877652839236038
  0.8125583822211296  0.0365454665073188  0.3902254662634214
  0.9374245327500841  0.4573554095459674  0.5654970992119834
  0.8125228645645804  0.8759528446627300  0.6542242500610469
  0.3117636268452004  0.8724709629323214  0.5215549092474828
  0.5626129178042701  0.8762562999150803  0.6542400666736632
  0.0622264843056110  0.7171091876235999  0.8328069975004464
  0.4374377101901115  0.8008925231139966  0.8754169878723013
  0.8122006565678500  0.0413624467340077  0.6103202515701344
  0.6880272199342072  0.9553923566212048  0.4788907415802282
  0.4374641890810405  0.1258384694638945  0.6541344740749515
  0.4374840547944632  0.6160954724032047  0.3016973908955501
  0.4365390664340235  0.7861515464276022  0.3900584404299429
  0.6884364619874526  0.7868199751655214  0.3901743949413966
  0.3124135297723776  0.1967112076651390  0.2123325828998781
  0.0629942887193746  0.0414634599861414  0.6102728928615270
  0.0617621164060752  0.6953178044840839  0.2120037547875233
  0.9376028188710788  0.1228491679273455  0.5212903772590791
  0.4372320361912383  0.1224527742153239  0.5214178125941503
  0.6878482151585860  0.3007540114882513  0.8752380757021131
  0.6875017402742222  0.6227247863103896  0.5214136353301613
  0.4371030914478410  0.9554282113616221  0.5657215024864086
  0.9374308761319210  0.9611090130619430  0.6988932057773385
 
  0.00000000E+00  0.00000000E+00  0.00000000E+00
  0.00000000E+00  0.00000000E+00  0.00000000E+00
  0.00000000E+00  0.00000000E+00  0.00000000E+00
  0.00000000E+00  0.00000000E+00  0.00000000E+00
  0.00000000E+00  0.00000000E+00  0.00000000E+00
  0.00000000E+00  0.00000000E+00  0.00000000E+00
  0.00000000E+00  0.00000000E+00  0.00000000E+00
  0.00000000E+00  0.00000000E+00  0.00000000E+00
  0.00000000E+00  0.00000000E+00  0.00000000E+00
  0.00000000E+00  0.00000000E+00  0.00000000E+00
  0.00000000E+00  0.00000000E+00  0.00000000E+00
  0.00000000E+00  0.00000000E+00  0.00000000E+00
  0.00000000E+00  0.00000000E+00  0.00000000E+00
  0.00000000E+00  0.00000000E+00  0.00000000E+00
  0.00000000E+00  0.00000000E+00  0.00000000E+00
  0.00000000E+00  0.00000000E+00  0.00000000E+00
  0.00000000E+00  0.00000000E+00  0.00000000E+00
  0.00000000E+00  0.00000000E+00  0.00000000E+00
  0.00000000E+00  0.00000000E+00  0.00000000E+00
  0.00000000E+00  0.00000000E+00  0.00000000E+00
  0.00000000E+00  0.00000000E+00  0.00000000E+00
  0.00000000E+00  0.00000000E+00  0.00000000E+00
  0.00000000E+00  0.00000000E+00  0.00000000E+00
  0.00000000E+00  0.00000000E+00  0.00000000E+00
  0.00000000E+00  0.00000000E+00  0.00000000E+00
  0.00000000E+00  0.00000000E+00  0.00000000E+00
  0.00000000E+00  0.00000000E+00  0.00000000E+00
  0.00000000E+00  0.00000000E+00  0.00000000E+00
  0.00000000E+00  0.00000000E+00  0.00000000E+00
  0.00000000E+00  0.00000000E+00  0.00000000E+00
  0.00000000E+00  0.00000000E+00  0.00000000E+00
  0.00000000E+00  0.00000000E+00  0.00000000E+00
  0.00000000E+00  0.00000000E+00  0.00000000E+00
  0.00000000E+00  0.00000000E+00  0.00000000E+00
  0.00000000E+00  0.00000000E+00  0.00000000E+00
  0.00000000E+00  0.00000000E+00  0.00000000E+00
  0.00000000E+00  0.00000000E+00  0.00000000E+00
  0.00000000E+00  0.00000000E+00  0.00000000E+00
  0.00000000E+00  0.00000000E+00  0.00000000E+00
  0.00000000E+00  0.00000000E+00  0.00000000E+00
  0.00000000E+00  0.00000000E+00  0.00000000E+00
  0.00000000E+00  0.00000000E+00  0.00000000E+00
  0.00000000E+00  0.00000000E+00  0.00000000E+00
  0.00000000E+00  0.00000000E+00  0.00000000E+00
  0.00000000E+00  0.00000000E+00  0.00000000E+00
  0.00000000E+00  0.00000000E+00  0.00000000E+00
  0.00000000E+00  0.00000000E+00  0.00000000E+00
  0.00000000E+00  0.00000000E+00  0.00000000E+00
  0.00000000E+00  0.00000000E+00  0.00000000E+00
  0.00000000E+00  0.00000000E+00  0.00000000E+00
  0.00000000E+00  0.00000000E+00  0.00000000E+00
  0.00000000E+00  0.00000000E+00  0.00000000E+00
  0.00000000E+00  0.00000000E+00  0.00000000E+00
  0.00000000E+00  0.00000000E+00  0.00000000E+00
  0.00000000E+00  0.00000000E+00  0.00000000E+00
  0.00000000E+00  0.00000000E+00  0.00000000E+00
  0.00000000E+00  0.00000000E+00  0.00000000E+00
  0.00000000E+00  0.00000000E+00  0.00000000E+00
  0.00000000E+00  0.00000000E+00  0.00000000E+00
  0.00000000E+00  0.00000000E+00  0.00000000E+00
  0.00000000E+00  0.00000000E+00  0.00000000E+00
  0.00000000E+00  0.00000000E+00  0.00000000E+00
  0.00000000E+00  0.00000000E+00  0.00000000E+00
  0.00000000E+00  0.00000000E+00  0.00000000E+00
  0.00000000E+00  0.00000000E+00  0.00000000E+00
  0.00000000E+00  0.00000000E+00  0.00000000E+00
  0.00000000E+00  0.00000000E+00  0.00000000E+00
  0.00000000E+00  0.00000000E+00  0.00000000E+00
  0.00000000E+00  0.00000000E+00  0.00000000E+00
  0.00000000E+00  0.00000000E+00  0.00000000E+00
  0.00000000E+00  0.00000000E+00  0.00000000E+00
  0.00000000E+00  0.00000000E+00  0.00000000E+00
  0.00000000E+00  0.00000000E+00  0.00000000E+00
  0.00000000E+00  0.00000000E+00  0.00000000E+00
  0.00000000E+00  0.00000000E+00  0.00000000E+00
  0.00000000E+00  0.00000000E+00  0.00000000E+00
  0.00000000E+00  0.00000000E+00  0.00000000E+00
  0.00000000E+00  0.00000000E+00  0.00000000E+00
  0.00000000E+00  0.00000000E+00  0.00000000E+00
  0.00000000E+00  0.00000000E+00  0.00000000E+00
  0.00000000E+00  0.00000000E+00  0.00000000E+00
  0.00000000E+00  0.00000000E+00  0.00000000E+00
  0.00000000E+00  0.00000000E+00  0.00000000E+00
  0.00000000E+00  0.00000000E+00  0.00000000E+00
  0.00000000E+00  0.00000000E+00  0.00000000E+00
  0.00000000E+00  0.00000000E+00  0.00000000E+00
  0.00000000E+00  0.00000000E+00  0.00000000E+00
  0.00000000E+00  0.00000000E+00  0.00000000E+00
  0.00000000E+00  0.00000000E+00  0.00000000E+00
  0.00000000E+00  0.00000000E+00  0.00000000E+00
  0.00000000E+00  0.00000000E+00  0.00000000E+00
  0.00000000E+00  0.00000000E+00  0.00000000E+00
  0.00000000E+00  0.00000000E+00  0.00000000E+00
  0.00000000E+00  0.00000000E+00  0.00000000E+00
  0.00000000E+00  0.00000000E+00  0.00000000E+00
  0.00000000E+00  0.00000000E+00  0.00000000E+00
  0.00000000E+00  0.00000000E+00  0.00000000E+00
  0.00000000E+00  0.00000000E+00  0.00000000E+00
  0.00000000E+00  0.00000000E+00  0.00000000E+00
  0.00000000E+00  0.00000000E+00  0.00000000E+00
  0.00000000E+00  0.00000000E+00  0.00000000E+00
  0.00000000E+00  0.00000000E+00  0.00000000E+00
  0.00000000E+00  0.00000000E+00  0.00000000E+00
  0.00000000E+00  0.00000000E+00  0.00000000E+00
  0.00000000E+00  0.00000000E+00  0.00000000E+00
  0.00000000E+00  0.00000000E+00  0.00000000E+00
  0.00000000E+00  0.00000000E+00  0.00000000E+00
  0.00000000E+00  0.00000000E+00  0.00000000E+00
  0.00000000E+00  0.00000000E+00  0.00000000E+00
  0.00000000E+00  0.00000000E+00  0.00000000E+00
  0.00000000E+00  0.00000000E+00  0.00000000E+00
  0.00000000E+00  0.00000000E+00  0.00000000E+00
  0.00000000E+00  0.00000000E+00  0.00000000E+00
  0.00000000E+00  0.00000000E+00  0.00000000E+00
  0.00000000E+00  0.00000000E+00  0.00000000E+00
  0.00000000E+00  0.00000000E+00  0.00000000E+00
  0.00000000E+00  0.00000000E+00  0.00000000E+00
  0.00000000E+00  0.00000000E+00  0.00000000E+00
  0.00000000E+00  0.00000000E+00  0.00000000E+00
  0.00000000E+00  0.00000000E+00  0.00000000E+00
  0.00000000E+00  0.00000000E+00  0.00000000E+00
  0.00000000E+00  0.00000000E+00  0.00000000E+00
  0.00000000E+00  0.00000000E+00  0.00000000E+00
  0.00000000E+00  0.00000000E+00  0.00000000E+00
  0.00000000E+00  0.00000000E+00  0.00000000E+00
  0.00000000E+00  0.00000000E+00  0.00000000E+00
  0.00000000E+00  0.00000000E+00  0.00000000E+00
  0.00000000E+00  0.00000000E+00  0.00000000E+00
  0.00000000E+00  0.00000000E+00  0.00000000E+00
  0.00000000E+00  0.00000000E+00  0.00000000E+00
  0.00000000E+00  0.00000000E+00  0.00000000E+00
  0.00000000E+00  0.00000000E+00  0.00000000E+00
  0.00000000E+00  0.00000000E+00  0.00000000E+00
  0.00000000E+00  0.00000000E+00  0.00000000E+00
  0.00000000E+00  0.00000000E+00  0.00000000E+00
  0.00000000E+00  0.00000000E+00  0.00000000E+00
  0.00000000E+00  0.00000000E+00  0.00000000E+00
  0.00000000E+00  0.00000000E+00  0.00000000E+00
  0.00000000E+00  0.00000000E+00  0.00000000E+00
  0.00000000E+00  0.00000000E+00  0.00000000E+00
  0.00000000E+00  0.00000000E+00  0.00000000E+00
  0.00000000E+00  0.00000000E+00  0.00000000E+00
  0.00000000E+00  0.00000000E+00  0.00000000E+00
  0.00000000E+00  0.00000000E+00  0.00000000E+00
  0.00000000E+00  0.00000000E+00  0.00000000E+00
  0.00000000E+00  0.00000000E+00  0.00000000E+00
  0.00000000E+00  0.00000000E+00  0.00000000E+00
  0.00000000E+00  0.00000000E+00  0.00000000E+00
  0.00000000E+00  0.00000000E+00  0.00000000E+00
  0.00000000E+00  0.00000000E+00  0.00000000E+00
  0.00000000E+00  0.00000000E+00  0.00000000E+00
  0.00000000E+00  0.00000000E+00  0.00000000E+00
  0.00000000E+00  0.00000000E+00  0.00000000E+00
  0.00000000E+00  0.00000000E+00  0.00000000E+00
  0.00000000E+00  0.00000000E+00  0.00000000E+00
  0.00000000E+00  0.00000000E+00  0.00000000E+00
  0.00000000E+00  0.00000000E+00  0.00000000E+00
  0.00000000E+00  0.00000000E+00  0.00000000E+00
  0.00000000E+00  0.00000000E+00  0.00000000E+00
  0.00000000E+00  0.00000000E+00  0.00000000E+00
  0.00000000E+00  0.00000000E+00  0.00000000E+00
  0.00000000E+00  0.00000000E+00  0.00000000E+00
  0.00000000E+00  0.00000000E+00  0.00000000E+00
  0.00000000E+00  0.00000000E+00  0.00000000E+00
  0.00000000E+00  0.00000000E+00  0.00000000E+00
  0.00000000E+00  0.00000000E+00  0.00000000E+00
  0.00000000E+00  0.00000000E+00  0.00000000E+00
  0.00000000E+00  0.00000000E+00  0.00000000E+00
  0.00000000E+00  0.00000000E+00  0.00000000E+00
  0.00000000E+00  0.00000000E+00  0.00000000E+00
  0.00000000E+00  0.00000000E+00  0.00000000E+00
  0.00000000E+00  0.00000000E+00  0.00000000E+00
  0.00000000E+00  0.00000000E+00  0.00000000E+00
  0.00000000E+00  0.00000000E+00  0.00000000E+00
  0.00000000E+00  0.00000000E+00  0.00000000E+00
  0.00000000E+00  0.00000000E+00  0.00000000E+00
  0.00000000E+00  0.00000000E+00  0.00000000E+00
  0.00000000E+00  0.00000000E+00  0.00000000E+00
  0.00000000E+00  0.00000000E+00  0.00000000E+00
  0.00000000E+00  0.00000000E+00  0.00000000E+00
  0.00000000E+00  0.00000000E+00  0.00000000E+00
  0.00000000E+00  0.00000000E+00  0.00000000E+00
  0.00000000E+00  0.00000000E+00  0.00000000E+00
  0.00000000E+00  0.00000000E+00  0.00000000E+00
  0.00000000E+00  0.00000000E+00  0.00000000E+00
  0.00000000E+00  0.00000000E+00  0.00000000E+00
  0.00000000E+00  0.00000000E+00  0.00000000E+00
  0.00000000E+00  0.00000000E+00  0.00000000E+00
  0.00000000E+00  0.00000000E+00  0.00000000E+00
  0.00000000E+00  0.00000000E+00  0.00000000E+00
  0.00000000E+00  0.00000000E+00  0.00000000E+00
  0.00000000E+00  0.00000000E+00  0.00000000E+00
  0.00000000E+00  0.00000000E+00  0.00000000E+00
  0.00000000E+00  0.00000000E+00  0.00000000E+00
  0.00000000E+00  0.00000000E+00  0.00000000E+00
  0.00000000E+00  0.00000000E+00  0.00000000E+00
  0.00000000E+00  0.00000000E+00  0.00000000E+00
  0.00000000E+00  0.00000000E+00  0.00000000E+00
  0.00000000E+00  0.00000000E+00  0.00000000E+00
  0.00000000E+00  0.00000000E+00  0.00000000E+00
  0.00000000E+00  0.00000000E+00  0.00000000E+00
  0.00000000E+00  0.00000000E+00  0.00000000E+00
  0.00000000E+00  0.00000000E+00  0.00000000E+00
  0.00000000E+00  0.00000000E+00  0.00000000E+00
  0.00000000E+00  0.00000000E+00  0.00000000E+00
  0.00000000E+00  0.00000000E+00  0.00000000E+00
  0.00000000E+00  0.00000000E+00  0.00000000E+00
  0.00000000E+00  0.00000000E+00  0.00000000E+00
  0.00000000E+00  0.00000000E+00  0.00000000E+00
  0.00000000E+00  0.00000000E+00  0.00000000E+00
  0.00000000E+00  0.00000000E+00  0.00000000E+00
  0.00000000E+00  0.00000000E+00  0.00000000E+00
  0.00000000E+00  0.00000000E+00  0.00000000E+00
  0.00000000E+00  0.00000000E+00  0.00000000E+00
  0.00000000E+00  0.00000000E+00  0.00000000E+00
  0.00000000E+00  0.00000000E+00  0.00000000E+00
  0.00000000E+00  0.00000000E+00  0.00000000E+00
  0.00000000E+00  0.00000000E+00  0.00000000E+00
  0.00000000E+00  0.00000000E+00  0.00000000E+00
  0.00000000E+00  0.00000000E+00  0.00000000E+00
  0.00000000E+00  0.00000000E+00  0.00000000E+00
  0.00000000E+00  0.00000000E+00  0.00000000E+00
  0.00000000E+00  0.00000000E+00  0.00000000E+00
  0.00000000E+00  0.00000000E+00  0.00000000E+00
  0.00000000E+00  0.00000000E+00  0.00000000E+00
  0.00000000E+00  0.00000000E+00  0.00000000E+00
  0.00000000E+00  0.00000000E+00  0.00000000E+00
  0.00000000E+00  0.00000000E+00  0.00000000E+00
  0.00000000E+00  0.00000000E+00  0.00000000E+00
  0.00000000E+00  0.00000000E+00  0.00000000E+00
  0.00000000E+00  0.00000000E+00  0.00000000E+00
  0.00000000E+00  0.00000000E+00  0.00000000E+00
  0.00000000E+00  0.00000000E+00  0.00000000E+00
  0.00000000E+00  0.00000000E+00  0.00000000E+00
  0.00000000E+00  0.00000000E+00  0.00000000E+00
  0.00000000E+00  0.00000000E+00  0.00000000E+00
  0.00000000E+00  0.00000000E+00  0.00000000E+00
  0.00000000E+00  0.00000000E+00  0.00000000E+00
  0.00000000E+00  0.00000000E+00  0.00000000E+00
  0.00000000E+00  0.00000000E+00  0.00000000E+00
  0.00000000E+00  0.00000000E+00  0.00000000E+00
  0.00000000E+00  0.00000000E+00  0.00000000E+00
  0.00000000E+00  0.00000000E+00  0.00000000E+00
  0.00000000E+00  0.00000000E+00  0.00000000E+00
  0.00000000E+00  0.00000000E+00  0.00000000E+00
  0.00000000E+00  0.00000000E+00  0.00000000E+00
  0.00000000E+00  0.00000000E+00  0.00000000E+00