FeMn_288_15                             
    1.000000000000000     
     9.7266779999999997    0.0000000000000000    0.0000000000000000
     0.0000000000000000    8.4235500000000005    0.0000000000000000
     0.0000000000000000    0.0000000000000000   45.0000000000000000
   Fe   Mn
   273    15
Direct
  0.0616048334839399  0.7039539454607591  0.4795122741607130
  0.5635911308075434  0.8671846850048509  0.3014028266260917
  0.3108040984306411  0.6995183007745873  0.3466919783947320
  0.9377372797932579  0.2964223142770041  0.7417756231872735
  0.8151043079562114  0.5408407667511484  0.6113801964915571
  0.1871580992652587  0.4671555819427513  0.8337268278757343
  0.8125452637752981  0.3585495913499109  0.1723157339822751
  0.8127368079570837  0.6942994363285645  0.2128919310442803
  0.5616537269076644  0.2194020569577847  0.8332338805369127
  0.1849691790942665  0.9536667616816399  0.2128266507072204
  0.6904895925548882  0.4574215866060075  0.4792981058332174
  0.8133732277656857  0.8690032787247646  0.3002466960714473
  0.4355627714947823  0.1210003645777011  0.4343460159463923
  0.6857180819089620  0.2785880696319489  0.1172852325193055
  0.5585585233176710  0.7006602331137607  0.3462105515896690
  0.9381054900386880  0.1201736500246968  0.3002627933951371
  0.6882167979310118  0.9609864809606417  0.6982512403378480
  0.0621899162007031  0.2115946108389743  0.6979262297484323
  0.8163917584706087  0.2062784532533644  0.4789570338463904
  0.3083670822133639  0.0369299931457237  0.2554529836664954
  0.8083085137428427  0.0446258415332704  0.8784156968355876
  0.8135287344900866  0.7030997130890748  0.3462814094786083
  0.1861748390465741  0.2968753438489223  0.7421489970940822
  0.4360175037775569  0.4608343635979593  0.6984464607178466
  0.1841774805106416  0.4597631183912120  0.4798852082440309
  0.6891830241883469  0.1265770424471883  0.6551824382884384
  0.3120619358382003  0.0457990562817005  0.7422597852270301
  0.5628282590534769  0.2083682640691830  0.6983867240954351
  0.0641263529283852  0.3807830751855114  0.7852903351958529
  0.4357616527599749  0.7972979302723020  0.7420402442551116
  0.9390944028923500  0.1279197991955685  0.6549475729537548
  0.8148635442559014  0.2016462045442070  0.2135000896083134
  0.0646625928092498  0.2114548012812922  0.5658250315141998
  0.1886720760189461  0.6291954348119955  0.7851252549086896
  0.3098168685725979  0.5380994052985023  0.3899922210801811
  0.3103744380152880  0.5421606755710555  0.6108138101666984
  0.3097180792953534  0.0400227221992120  0.6117714152597706
  0.3115914221415380  0.2197116937128096  0.8336857905911983
  0.9406825779296958  0.3069383967643263  0.8787936078117284
  0.6920852503510060  0.7816568662306680  0.2551945492821724
  0.5626151353345001  0.7045355419805372  0.4794583407084642
  0.5625899301930454  0.2061496128657195  0.4790291192862955
  0.0643183299064590  0.7006950597450872  0.5659004659217300
  0.6873731797250847  0.6305559514913359  0.7853737497705781
  0.4345585020980985  0.4606970592073072  0.5661136107783803
  0.8157047959654616  0.3772286643064677  0.6543028331780566
  0.0646543288116076  0.8808374748836094  0.7852794756744137
  0.0648408347584583  0.0344705759642206  0.3904529862757971
  0.5634153788408089  0.5417984797335332  0.6110659512423262
  0.3120261058505039  0.3809643491777835  0.7856758197577661
  0.4386010891352752  0.7840768080650659  0.2556552800791370
  0.4336189934783278  0.4571403195646199  0.4795120566475163
  0.4374454376506913  0.2761836892680653  0.1174075531669971
  0.0616938474168831  0.2081389551463884  0.4788448651884588
  0.9406979984992878  0.9528739979721458  0.5657131248913679
  0.3092142547030898  0.8721550321756935  0.4343628180008433
  0.9395922538727800  0.2828142296765618  0.2548756694790707
  0.1892630198149009  0.1318429440228652  0.7853716665018271
  0.4337362103602265  0.2863546212133486  0.3900041004871044
  0.0631980400128652  0.3562234946310591  0.1724593883671174
  0.8146150969529790  0.2100025093722580  0.6980717929085231
  0.6885719550090273  0.2938530284488943  0.7421123949993751
  0.5608191083336397  0.5401507760596915  0.3901798634125105
  0.6865893450439144  0.9502932016127389  0.3461468181779431
  0.9393486037502043  0.6145200727138123  0.3000440619011450
  0.4366508817136704  0.2941437182762555  0.7422814392226897
  0.9394086553792212  0.2974436630913238  0.6118890078740871
  0.0668079646825019  0.7017147201541587  0.3467974543763868
  0.4368010004721660  0.2945134221457477  0.6114304181499289
  0.9402435740674487  0.9517640269219345  0.3466124809571121
  0.4351820090877578  0.6203242055403538  0.4340803626959810
  0.8136551179802506  0.1982393651871127  0.3453980780936287
  0.5679201762925979  0.5254804538976485  0.2555385559923500
  0.1850919943027295  0.4618699335047483  0.6983644221188734
  0.4362265870593703  0.7877099744330111  0.6114087385498096
  0.1870484396202693  0.7859636427998338  0.3900825535909876
  0.1890470877286193  0.4522477138635146  0.3466243624942704
  0.3133931445781301  0.7178299504398516  0.8331811103277337
  0.6845393828210425  0.4532597207813641  0.3459531340153514
  0.5606621737457634  0.2090654549289854  0.5656302874223050
  0.4383892383078624  0.4418687808418121  0.2121222117177204
  0.5616141819346118  0.8705710597278731  0.5220124092089455
  0.1868608107063428  0.9524214645654823  0.5660117250205617
  0.8138367337290380  0.2097605225359023  0.5656456368513372
  0.1870226991210621  0.1226217983165320  0.5215028184316689
  0.3094329188319553  0.2003617250359156  0.3464565863298366
  0.0631201655650655  0.0365054342698005  0.2551535125376517
  0.3072105607780056  0.7038653414058087  0.4798075716254469
  0.5633525846192116  0.3598841362923954  0.1716662009241868
  0.8147096919217577  0.0219703291078878  0.1176066753339744
  0.8141088694704990  0.0353875697099205  0.2553478598393893
  0.8122104990187491  0.7204988016001249  0.8335447535393472
  0.1907065320306779  0.9691419334104949  0.8318804802983599
  0.1844249241728014  0.1263850819962013  0.6548715102807149
  0.9402361175116680  0.7857540486734118  0.6118009774383031
  0.6903511413337375  0.4603699144365287  0.6982114067171477
  0.5630013980409793  0.7131291278472920  0.6981257109097245
  0.0625112804532901  0.8666670995291931  0.5214539735192523
  0.0622644655432873  0.7091833434754110  0.6983425744562392
  0.3086365476436757  0.0251540067713110  0.1173834237806483
  0.9399234376031430  0.1199616165206148  0.4350448282595995
  0.3089649485909818  0.7022126389584733  0.5659412510711401
  0.4381052867392867  0.9517248148076833  0.2115031552349275
  0.6867902601887086  0.9705878489724623  0.8334242402489070
  0.9373057203226630  0.4427249673091303  0.2136950625321303
  0.6881335466115791  0.1225713618106238  0.5213237716784834
  0.0608495270518575  0.3771149933980089  0.6543995569116714
  0.8121200344195609  0.2202066437075334  0.8331843379609267
  0.5627286323934940  0.5240956865277185  0.1171770979635118
  0.4362095408038327  0.6277372086500629  0.6544328682545969
  0.1844800096599178  0.6156268747994441  0.3012926543913332
  0.5625753680843328  0.0461469674253975  0.7419202990164686
  0.4370599319385397  0.1089056557353213  0.1719401634432245
  0.1813967990078604  0.4404964603011504  0.2131611460139843
  0.1934048549552122  0.3093443319867203  0.8783923420566314
  0.4377701304621169  0.9607666118819046  0.6982134383393961
  0.5647399941947424  0.1991167491739848  0.2129952784112817
  0.9390165436495477  0.6290532267672869  0.7851946748541661
  0.3104891443832841  0.8772916328529734  0.6548304236994318
  0.3097072117179606  0.3723731308035511  0.4342396454818420
  0.8134006156769563  0.3800749443939633  0.7852057507638068
  0.8093739645258803  0.8602257951480821  0.1720472702855031
  0.3109344981884872  0.7114165442778770  0.6982555059369082
  0.9395776867865622  0.4604288383344720  0.6982403551676453
  0.6900544148831189  0.2830965898403994  0.2552529539248893
  0.0620611556917233  0.0460629083515581  0.7419906867384317
  0.0623024706292419  0.5457397612982159  0.7416771157330180
  0.5669520265323955  0.6971711791105845  0.2115035630193248
  0.4359291877473894  0.1307503227227485  0.7853166963611922
  0.9318400554986992  0.7985832241648391  0.8785506609228294
  0.9375195144984000  0.7790925433952925  0.1166164830472972
  0.6887809890317297  0.7858340812453253  0.6118079245037380
  0.9380442600302604  0.7806779241703038  0.2554455176994107
  0.8162895562033039  0.8707979790871655  0.4346065311166370
  0.8153707770775952  0.5578202299196791  0.8787451316798192
  0.0626673062313285  0.5248142041984698  0.1169677092295201
  0.9418935192374467  0.4519802386702658  0.3457604948790522
  0.1825301860265326  0.2807101503405714  0.2551711191347395
  0.4366227533127711  0.1193375216687148  0.3008698787573775
  0.9387908127548507  0.2776450938433053  0.1180850564480826
  0.1843858031244415  0.6265023743985554  0.6542524239866928
  0.0598782583608267  0.5265827408242824  0.2553674210422271
  0.1903156769858640  0.6047712536313680  0.1716953000482815
  0.6877606338100245  0.2873069792817649  0.3904018803854921
  0.9381236503799166  0.7959239979685692  0.7416478159786124
  0.1878037557816716  0.9598545508314432  0.6980727965548871
  0.0655416520409010  0.0240178618347019  0.1186707820730936
  0.6866587412393275  0.6096176863942855  0.1721569221808939
  0.8152329303693294  0.7112100400662512  0.6981382030416338
  0.6853229151021840  0.8017356827443773  0.8791799067358588
  0.1880227151242727  0.2868325643964199  0.3899234550876579
  0.5611682682031862  0.8810824270788767  0.7853415668468349
  0.5627023659888899  0.0398393985883938  0.6121642822391726
  0.0671530516595848  0.1993942331515168  0.3459292930835212
  0.4336476512532638  0.6209912545991837  0.5224087612472675
  0.5556032617908415  0.5532716034135612  0.8791449281562982
  0.6887948911507079  0.4608144327936033  0.5663435004782843
  0.1857794207110351  0.7876185237319983  0.6112140206336837
  0.1866213066474983  0.1102444570626390  0.1718972533698148
  0.9413726167786510  0.4602007321645094  0.4793569109076483
  0.5638168791925813  0.3659575073057004  0.3001430141205004
  0.6886241763974347  0.1210998725100604  0.4344593550024914
  0.1887314276463776  0.9520968476592860  0.3467706695276719
  0.8154172710851172  0.5456814144105445  0.7416417316891939
  0.4379494880669524  0.7787424715169785  0.1166943533139579
  0.4352933976163921  0.3048088852332380  0.8785965212415278
  0.6866050144993736  0.1315160655778201  0.7852752983597934
  0.1842090781285240  0.9536021775274556  0.4786799696395070
  0.3122157568367707  0.2096633837894370  0.6983165720347475
  0.3118755881863566  0.8804384505614428  0.7853548076573195
  0.0654879642620832  0.5391368041234895  0.3904276113951858
  0.4359349610975492  0.4679080507787031  0.8335834906300531
  0.6868202142219915  0.4680494177871493  0.8329460304855018
  0.4349270458388398  0.9551098235376904  0.4791914129336745
  0.4342168569860073  0.4548885792955542  0.3462399740022181
  0.9408047881524304  0.6215442491097071  0.5215593494635582
  0.1917113353845634  0.7952103498713028  0.8790446173749699
  0.6867419214012809  0.9536510899310289  0.5656201258734174
  0.0621867841196927  0.8679470208257860  0.3006121361629257
  0.9365782206228610  0.9520915651401145  0.2127178522961513
  0.3104127173999547  0.2103196235089428  0.5655133081053478
  0.1855906708682867  0.4618920111364510  0.5657909460374807
  0.4384984534755602  0.2801834701927354  0.2556352211838285
  0.9358189660421626  0.9687757608652698  0.8323016449455274
  0.5614942478554021  0.8721366965908466  0.4343761846119568
  0.3095009551910323  0.5460906197239008  0.7422269177050282
  0.5619118921777952  0.3724558622468128  0.4343955155656866
  0.1849480911865904  0.2953672398082151  0.6116773417124250
  0.9399434727110022  0.9534703340893520  0.4790096154244004
  0.9389834881589755  0.4668964872102584  0.8332443547155749
  0.3196916605925136  0.0528833793550588  0.8782525348866038
  0.8123512300385489  0.5250409153433893  0.1175219844489467
  0.3147033445210017  0.8622302950421256  0.1712666028551472
  0.0616170376674855  0.2012203798631043  0.2136342396339436
  0.0632586880105278  0.3771096075238808  0.5218045175244106
  0.6897931323039449  0.2964859905228550  0.6120469200380895
  0.1856967960880308  0.1200104599932320  0.4343626514246750
  0.8157897605863734  0.8685610750623267  0.5212457779303193
  0.5632043944097883  0.3755829942860874  0.6545031115925288
  0.1855807383966077  0.6199779798314257  0.5220004275713290
  0.9405515148427103  0.7855778165110949  0.3903354136756831
  0.4344391338558030  0.9500678385364056  0.3462408578178603
  0.4360984880655584  0.9693982856095649  0.8331023101229814
  0.8160455644513619  0.3755023864743617  0.5217089399613568
  0.5595032734776466  0.2004888756958424  0.3454854659617020
  0.6890869946359608  0.9486748562823810  0.2125638000901647
  0.5614974154651238  0.3803526086090370  0.7855489662432921
  0.0620594560753966  0.5416731538331776  0.6109922364769997
  0.5608562290588814  0.7198203667667499  0.8343396454190420
  0.6906426049173674  0.6274193362910748  0.6542363872870859
  0.6896467100543721  0.6205549910652046  0.4345752882724884
  0.5594629901213229  0.0464300941125152  0.8787856232152413
  0.5603465972022751  0.7024288698859236  0.5663514415344885
  0.6922349097485154  0.4442642670312706  0.2132214043152593
  0.0615824898229752  0.8766614262362297  0.6544706782331711
  0.1823804162249209  0.7843996712228618  0.2559164060734127
  0.3107446955974554  0.8668227036948872  0.3015572584862710
  0.0648681671160895  0.5493302406070286  0.8787834807692659
  0.8160583025991494  0.7012844402337921  0.5661431723798886
  0.8154091721293345  0.5279265073684325  0.2548044120312419
  0.9378664104883768  0.6258079600958406  0.6542126300419068
  0.8131125958637906  0.8814273082588728  0.7852781145363278
  0.1860550507481347  0.1192361668619588  0.3007553121222409
  0.4393583889256781  0.6088516320653923  0.1714257235927802
  0.3074878562159747  0.5254329011364623  0.2554089743046850
  0.3124976922928354  0.5218458573824781  0.1187428250524646
  0.9402644752052252  0.2861995947017671  0.3904093908643091
  0.5638070287269167  0.8587274231577003  0.1717732910578330
  0.8124055068675334  0.0463353292142370  0.7418263125090097
  0.5612662047673950  0.0241653444308722  0.1178841064885083
  0.3094516888463925  0.3768135582892734  0.5222277087144831
  0.3092798217402402  0.2078870245827838  0.4789413263268464
  0.9352162213731803  0.6062445844399934  0.1724768644017491
  0.8127895666264205  0.3654824322182803  0.2996142848494221
  0.1883263910898231  0.2761106923663125  0.1185528254883436
  0.8137191439412417  0.5403113518881583  0.3910109395243075
  0.4359637130457512  0.6295627974298180  0.7856809709004080
  0.0634323187111014  0.8642845779566549  0.1716513079242006
  0.1863914305485878  0.7814698118092930  0.1169762287652151
  0.6888664577689237  0.7979764304594898  0.7418215894932678
  0.3091451510642640  0.3758334061959672  0.6545096429157847
  0.5609220058099283  0.3746468267886559  0.5221923418877139
  0.3105704996935215  0.3642964240161563  0.3012543956593098
  0.8146682220323989  0.3727037447989985  0.4347841445915991
  0.0609804532861499  0.0527983785434068  0.8784748620105715
  0.1854993226164348  0.6213144970371900  0.4343722750309945
  0.0634538654434808  0.2232064603775636  0.8320319953899626
  0.3124127416063923  0.3587125157154382  0.1716245905246025
  0.3094157949591672  0.0368751999201900  0.3901151901138991
  0.8182729423763069  0.7045511117458116  0.4794700606100732
  0.0633677347606207  0.3723675993570377  0.4347720314527678
  0.3102901791835967  0.6971896287491850  0.2111575238092236
  0.6886693894283981  0.1080797217807726  0.1722275799907631
  0.9395895443489752  0.6212816782731346  0.4347668211815205
  0.6874944801895303  0.6147593371414464  0.3003909679523382
  0.6882639446751463  0.7766115913006574  0.1170452146471127
  0.0621483134239208  0.3660002053996515  0.2999410993467858
  0.6885304255421489  0.1209016478230515  0.3001782519711771
  0.5651553508273783  0.0367709175873407  0.2553353100781565
  0.3155262688304868  0.5477665563002777  0.8786454355057634
  0.5617672002328729  0.5455000917888247  0.7423094212185591
  0.9393456774891680  0.1107064882098268  0.1721483909153892
  0.0625192947457358  0.8715715850727136  0.4346960093763136
  0.1864727555945609  0.7957656375725348  0.7420027782465088
  0.5611747185029551  0.0355102122638160  0.3906097574759456
  0.9392139834355193  0.1319627294054957  0.7851505363105928
  0.8145793286843505  0.0342844952894835  0.3904587570032780
  0.9406599132870920  0.4619893909448857  0.5663566559511728
  0.8140898070155645  0.8749413387569476  0.6548512704848608
  0.3099098764983538  0.8680617857492288  0.5220271823924294
  0.5626377404209986  0.8770340809933032  0.6549069403497546
  0.0620984844961750  0.7174234881489931  0.8337399237103471
  0.4404487238358589  0.7998316290447404  0.8793289272951296
  0.8153340189800719  0.0399678925901425  0.6123246621720284
  0.6910449810715484  0.9553353623228700  0.4792586184484793
  0.4359673064673161  0.1248235606234929  0.6548892687562173
  0.4393570528739717  0.6158341998630068  0.3027607070871975
  0.4334062386846890  0.7843795293290559  0.3895222434899169
  0.6887267269040641  0.7847185130978650  0.3902368294981298
  0.3067764158909095  0.1994347062401139  0.2134907895362574
  0.0633934079294316  0.0395987940577982  0.6124256526779867
  0.0584421397637334  0.6924354163096257  0.2137953759154600
  0.9390727328463799  0.1216811315405741  0.5209502319934594
  0.4359717276196405  0.1224749155589750  0.5218412962153526
  0.6815347584456815  0.3014078856314557  0.8795972595124375
  0.6899841830855284  0.6220567456192497  0.5217681420083464
  0.4348691947421721  0.9542546669344310  0.5657913347099996
  0.9378239000616957  0.9605014186117087  0.6976139308701053
 
  0.00000000E+00  0.00000000E+00  0.00000000E+00
  0.00000000E+00  0.00000000E+00  0.00000000E+00
  0.00000000E+00  0.00000000E+00  0.00000000E+00
  0.00000000E+00  0.00000000E+00  0.00000000E+00
  0.00000000E+00  0.00000000E+00  0.00000000E+00
  0.00000000E+00  0.00000000E+00  0.00000000E+00
  0.00000000E+00  0.00000000E+00  0.00000000E+00
  0.00000000E+00  0.00000000E+00  0.00000000E+00
  0.00000000E+00  0.00000000E+00  0.00000000E+00
  0.00000000E+00  0.00000000E+00  0.00000000E+00
  0.00000000E+00  0.00000000E+00  0.00000000E+00
  0.00000000E+00  0.00000000E+00  0.00000000E+00
  0.00000000E+00  0.00000000E+00  0.00000000E+00
  0.00000000E+00  0.00000000E+00  0.00000000E+00
  0.00000000E+00  0.00000000E+00  0.00000000E+00
  0.00000000E+00  0.00000000E+00  0.00000000E+00
  0.00000000E+00  0.00000000E+00  0.00000000E+00
  0.00000000E+00  0.00000000E+00  0.00000000E+00
  0.00000000E+00  0.00000000E+00  0.00000000E+00
  0.00000000E+00  0.00000000E+00  0.00000000E+00
  0.00000000E+00  0.00000000E+00  0.00000000E+00
  0.00000000E+00  0.00000000E+00  0.00000000E+00
  0.00000000E+00  0.00000000E+00  0.00000000E+00
  0.00000000E+00  0.00000000E+00  0.00000000E+00
  0.00000000E+00  0.00000000E+00  0.00000000E+00
  0.00000000E+00  0.00000000E+00  0.00000000E+00
  0.00000000E+00  0.00000000E+00  0.00000000E+00
  0.00000000E+00  0.00000000E+00  0.00000000E+00
  0.00000000E+00  0.00000000E+00  0.00000000E+00
  0.00000000E+00  0.00000000E+00  0.00000000E+00
  0.00000000E+00  0.00000000E+00  0.00000000E+00
  0.00000000E+00  0.00000000E+00  0.00000000E+00
  0.00000000E+00  0.00000000E+00  0.00000000E+00
  0.00000000E+00  0.00000000E+00  0.00000000E+00
  0.00000000E+00  0.00000000E+00  0.00000000E+00
  0.00000000E+00  0.00000000E+00  0.00000000E+00
  0.00000000E+00  0.00000000E+00  0.00000000E+00
  0.00000000E+00  0.00000000E+00  0.00000000E+00
  0.00000000E+00  0.00000000E+00  0.00000000E+00
  0.00000000E+00  0.00000000E+00  0.00000000E+00
  0.00000000E+00  0.00000000E+00  0.00000000E+00
  0.00000000E+00  0.00000000E+00  0.00000000E+00
  0.00000000E+00  0.00000000E+00  0.00000000E+00
  0.00000000E+00  0.00000000E+00  0.00000000E+00
  0.00000000E+00  0.00000000E+00  0.00000000E+00
  0.00000000E+00  0.00000000E+00  0.00000000E+00
  0.00000000E+00  0.00000000E+00  0.00000000E+00
  0.00000000E+00  0.00000000E+00  0.00000000E+00
  0.00000000E+00  0.00000000E+00  0.00000000E+00
  0.00000000E+00  0.00000000E+00  0.00000000E+00
  0.00000000E+00  0.00000000E+00  0.00000000E+00
  0.00000000E+00  0.00000000E+00  0.00000000E+00
  0.00000000E+00  0.00000000E+00  0.00000000E+00
  0.00000000E+00  0.00000000E+00  0.00000000E+00
  0.00000000E+00  0.00000000E+00  0.00000000E+00
  0.00000000E+00  0.00000000E+00  0.00000000E+00
  0.00000000E+00  0.00000000E+00  0.00000000E+00
  0.00000000E+00  0.00000000E+00  0.00000000E+00
  0.00000000E+00  0.00000000E+00  0.00000000E+00
  0.00000000E+00  0.00000000E+00  0.00000000E+00
  0.00000000E+00  0.00000000E+00  0.00000000E+00
  0.00000000E+00  0.00000000E+00  0.00000000E+00
  0.00000000E+00  0.00000000E+00  0.00000000E+00
  0.00000000E+00  0.00000000E+00  0.00000000E+00
  0.00000000E+00  0.00000000E+00  0.00000000E+00
  0.00000000E+00  0.00000000E+00  0.00000000E+00
  0.00000000E+00  0.00000000E+00  0.00000000E+00
  0.00000000E+00  0.00000000E+00  0.00000000E+00
  0.00000000E+00  0.00000000E+00  0.00000000E+00
  0.00000000E+00  0.00000000E+00  0.00000000E+00
  0.00000000E+00  0.00000000E+00  0.00000000E+00
  0.00000000E+00  0.00000000E+00  0.00000000E+00
  0.00000000E+00  0.00000000E+00  0.00000000E+00
  0.00000000E+00  0.00000000E+00  0.00000000E+00
  0.00000000E+00  0.00000000E+00  0.00000000E+00
  0.00000000E+00  0.00000000E+00  0.00000000E+00
  0.00000000E+00  0.00000000E+00  0.00000000E+00
  0.00000000E+00  0.00000000E+00  0.00000000E+00
  0.00000000E+00  0.00000000E+00  0.00000000E+00
  0.00000000E+00  0.00000000E+00  0.00000000E+00
  0.00000000E+00  0.00000000E+00  0.00000000E+00
  0.00000000E+00  0.00000000E+00  0.00000000E+00
  0.00000000E+00  0.00000000E+00  0.00000000E+00
  0.00000000E+00  0.00000000E+00  0.00000000E+00
  0.00000000E+00  0.00000000E+00  0.00000000E+00
  0.00000000E+00  0.00000000E+00  0.00000000E+00
  0.00000000E+00  0.00000000E+00  0.00000000E+00
  0.00000000E+00  0.00000000E+00  0.00000000E+00
  0.00000000E+00  0.00000000E+00  0.00000000E+00
  0.00000000E+00  0.00000000E+00  0.00000000E+00
  0.00000000E+00  0.00000000E+00  0.00000000E+00
  0.00000000E+00  0.00000000E+00  0.00000000E+00
  0.00000000E+00  0.00000000E+00  0.00000000E+00
  0.00000000E+00  0.00000000E+00  0.00000000E+00
  0.00000000E+00  0.00000000E+00  0.00000000E+00
  0.00000000E+00  0.00000000E+00  0.00000000E+00
  0.00000000E+00  0.00000000E+00  0.00000000E+00
  0.00000000E+00  0.00000000E+00  0.00000000E+00
  0.00000000E+00  0.00000000E+00  0.00000000E+00
  0.00000000E+00  0.00000000E+00  0.00000000E+00
  0.00000000E+00  0.00000000E+00  0.00000000E+00
  0.00000000E+00  0.00000000E+00  0.00000000E+00
  0.00000000E+00  0.00000000E+00  0.00000000E+00
  0.00000000E+00  0.00000000E+00  0.00000000E+00
  0.00000000E+00  0.00000000E+00  0.00000000E+00
  0.00000000E+00  0.00000000E+00  0.00000000E+00
  0.00000000E+00  0.00000000E+00  0.00000000E+00
  0.00000000E+00  0.00000000E+00  0.00000000E+00
  0.00000000E+00  0.00000000E+00  0.00000000E+00
  0.00000000E+00  0.00000000E+00  0.00000000E+00
  0.00000000E+00  0.00000000E+00  0.00000000E+00
  0.00000000E+00  0.00000000E+00  0.00000000E+00
  0.00000000E+00  0.00000000E+00  0.00000000E+00
  0.00000000E+00  0.00000000E+00  0.00000000E+00
  0.00000000E+00  0.00000000E+00  0.00000000E+00
  0.00000000E+00  0.00000000E+00  0.00000000E+00
  0.00000000E+00  0.00000000E+00  0.00000000E+00
  0.00000000E+00  0.00000000E+00  0.00000000E+00
  0.00000000E+00  0.00000000E+00  0.00000000E+00
  0.00000000E+00  0.00000000E+00  0.00000000E+00
  0.00000000E+00  0.00000000E+00  0.00000000E+00
  0.00000000E+00  0.00000000E+00  0.00000000E+00
  0.00000000E+00  0.00000000E+00  0.00000000E+00
  0.00000000E+00  0.00000000E+00  0.00000000E+00
  0.00000000E+00  0.00000000E+00  0.00000000E+00
  0.00000000E+00  0.00000000E+00  0.00000000E+00
  0.00000000E+00  0.00000000E+00  0.00000000E+00
  0.00000000E+00  0.00000000E+00  0.00000000E+00
  0.00000000E+00  0.00000000E+00  0.00000000E+00
  0.00000000E+00  0.00000000E+00  0.00000000E+00
  0.00000000E+00  0.00000000E+00  0.00000000E+00
  0.00000000E+00  0.00000000E+00  0.00000000E+00
  0.00000000E+00  0.00000000E+00  0.00000000E+00
  0.00000000E+00  0.00000000E+00  0.00000000E+00
  0.00000000E+00  0.00000000E+00  0.00000000E+00
  0.00000000E+00  0.00000000E+00  0.00000000E+00
  0.00000000E+00  0.00000000E+00  0.00000000E+00
  0.00000000E+00  0.00000000E+00  0.00000000E+00
  0.00000000E+00  0.00000000E+00  0.00000000E+00
  0.00000000E+00  0.00000000E+00  0.00000000E+00
  0.00000000E+00  0.00000000E+00  0.00000000E+00
  0.00000000E+00  0.00000000E+00  0.00000000E+00
  0.00000000E+00  0.00000000E+00  0.00000000E+00
  0.00000000E+00  0.00000000E+00  0.00000000E+00
  0.00000000E+00  0.00000000E+00  0.00000000E+00
  0.00000000E+00  0.00000000E+00  0.00000000E+00
  0.00000000E+00  0.00000000E+00  0.00000000E+00
  0.00000000E+00  0.00000000E+00  0.00000000E+00
  0.00000000E+00  0.00000000E+00  0.00000000E+00
  0.00000000E+00  0.00000000E+00  0.00000000E+00
  0.00000000E+00  0.00000000E+00  0.00000000E+00
  0.00000000E+00  0.00000000E+00  0.00000000E+00
  0.00000000E+00  0.00000000E+00  0.00000000E+00
  0.00000000E+00  0.00000000E+00  0.00000000E+00
  0.00000000E+00  0.00000000E+00  0.00000000E+00
  0.00000000E+00  0.00000000E+00  0.00000000E+00
  0.00000000E+00  0.00000000E+00  0.00000000E+00
  0.00000000E+00  0.00000000E+00  0.00000000E+00
  0.00000000E+00  0.00000000E+00  0.00000000E+00
  0.00000000E+00  0.00000000E+00  0.00000000E+00
  0.00000000E+00  0.00000000E+00  0.00000000E+00
  0.00000000E+00  0.00000000E+00  0.00000000E+00
  0.00000000E+00  0.00000000E+00  0.00000000E+00
  0.00000000E+00  0.00000000E+00  0.00000000E+00
  0.00000000E+00  0.00000000E+00  0.00000000E+00
  0.00000000E+00  0.00000000E+00  0.00000000E+00
  0.00000000E+00  0.00000000E+00  0.00000000E+00
  0.00000000E+00  0.00000000E+00  0.00000000E+00
  0.00000000E+00  0.00000000E+00  0.00000000E+00
  0.00000000E+00  0.00000000E+00  0.00000000E+00
  0.00000000E+00  0.00000000E+00  0.00000000E+00
  0.00000000E+00  0.00000000E+00  0.00000000E+00
  0.00000000E+00  0.00000000E+00  0.00000000E+00
  0.00000000E+00  0.00000000E+00  0.00000000E+00
  0.00000000E+00  0.00000000E+00  0.00000000E+00
  0.00000000E+00  0.00000000E+00  0.00000000E+00
  0.00000000E+00  0.00000000E+00  0.00000000E+00
  0.00000000E+00  0.00000000E+00  0.00000000E+00
  0.00000000E+00  0.00000000E+00  0.00000000E+00
  0.00000000E+00  0.00000000E+00  0.00000000E+00
  0.00000000E+00  0.00000000E+00  0.00000000E+00
  0.00000000E+00  0.00000000E+00  0.00000000E+00
  0.00000000E+00  0.00000000E+00  0.00000000E+00
  0.00000000E+00  0.00000000E+00  0.00000000E+00
  0.00000000E+00  0.00000000E+00  0.00000000E+00
  0.00000000E+00  0.00000000E+00  0.00000000E+00
  0.00000000E+00  0.00000000E+00  0.00000000E+00
  0.00000000E+00  0.00000000E+00  0.00000000E+00
  0.00000000E+00  0.00000000E+00  0.00000000E+00
  0.00000000E+00  0.00000000E+00  0.00000000E+00
  0.00000000E+00  0.00000000E+00  0.00000000E+00
  0.00000000E+00  0.00000000E+00  0.00000000E+00
  0.00000000E+00  0.00000000E+00  0.00000000E+00
  0.00000000E+00  0.00000000E+00  0.00000000E+00
  0.00000000E+00  0.00000000E+00  0.00000000E+00
  0.00000000E+00  0.00000000E+00  0.00000000E+00
  0.00000000E+00  0.00000000E+00  0.00000000E+00
  0.00000000E+00  0.00000000E+00  0.00000000E+00
  0.00000000E+00  0.00000000E+00  0.00000000E+00
  0.00000000E+00  0.00000000E+00  0.00000000E+00
  0.00000000E+00  0.00000000E+00  0.00000000E+00
  0.00000000E+00  0.00000000E+00  0.00000000E+00
  0.00000000E+00  0.00000000E+00  0.00000000E+00
  0.00000000E+00  0.00000000E+00  0.00000000E+00
  0.00000000E+00  0.00000000E+00  0.00000000E+00
  0.00000000E+00  0.00000000E+00  0.00000000E+00
  0.00000000E+00  0.00000000E+00  0.00000000E+00
  0.00000000E+00  0.00000000E+00  0.00000000E+00
  0.00000000E+00  0.00000000E+00  0.00000000E+00
  0.00000000E+00  0.00000000E+00  0.00000000E+00
  0.00000000E+00  0.00000000E+00  0.00000000E+00
  0.00000000E+00  0.00000000E+00  0.00000000E+00
  0.00000000E+00  0.00000000E+00  0.00000000E+00
  0.00000000E+00  0.00000000E+00  0.00000000E+00
  0.00000000E+00  0.00000000E+00  0.00000000E+00
  0.00000000E+00  0.00000000E+00  0.00000000E+00
  0.00000000E+00  0.00000000E+00  0.00000000E+00
  0.00000000E+00  0.00000000E+00  0.00000000E+00
  0.00000000E+00  0.00000000E+00  0.00000000E+00
  0.00000000E+00  0.00000000E+00  0.00000000E+00
  0.00000000E+00  0.00000000E+00  0.00000000E+00
  0.00000000E+00  0.00000000E+00  0.00000000E+00
  0.00000000E+00  0.00000000E+00  0.00000000E+00
  0.00000000E+00  0.00000000E+00  0.00000000E+00
  0.00000000E+00  0.00000000E+00  0.00000000E+00
  0.00000000E+00  0.00000000E+00  0.00000000E+00
  0.00000000E+00  0.00000000E+00  0.00000000E+00
  0.00000000E+00  0.00000000E+00  0.00000000E+00
  0.00000000E+00  0.00000000E+00  0.00000000E+00
  0.00000000E+00  0.00000000E+00  0.00000000E+00
  0.00000000E+00  0.00000000E+00  0.00000000E+00
  0.00000000E+00  0.00000000E+00  0.00000000E+00
  0.00000000E+00  0.00000000E+00  0.00000000E+00
  0.00000000E+00  0.00000000E+00  0.00000000E+00
  0.00000000E+00  0.00000000E+00  0.00000000E+00
  0.00000000E+00  0.00000000E+00  0.00000000E+00
  0.00000000E+00  0.00000000E+00  0.00000000E+00
  0.00000000E+00  0.00000000E+00  0.00000000E+00
  0.00000000E+00  0.00000000E+00  0.00000000E+00
  0.00000000E+00  0.00000000E+00  0.00000000E+00
  0.00000000E+00  0.00000000E+00  0.00000000E+00
  0.00000000E+00  0.00000000E+00  0.00000000E+00
  0.00000000E+00  0.00000000E+00  0.00000000E+00
  0.00000000E+00  0.00000000E+00  0.00000000E+00
  0.00000000E+00  0.00000000E+00  0.00000000E+00
  0.00000000E+00  0.00000000E+00  0.00000000E+00
  0.00000000E+00  0.00000000E+00  0.00000000E+00