CuInSe2gb                               
   1.00000000000000     
     9.7266780392896699    0.0000000000000000    0.0000000000000000
     0.0000000000000000    8.4235502764570693    0.0000000000000000
     0.0000000000000000    0.0000000000000000   45.0000000000000000
   Fe   Mn
   281     7
Direct
  0.0571845518268205  0.7014497655035969  0.2114847541352146
  0.3163011783849477  0.7197749705532842  0.8756866857498963
  0.6884721439725696  0.9575408991238537  0.6113354549145121
  0.4381183718811597  0.4575507805399006  0.6113715942097874
  0.4362019542500172  0.2871057894710979  0.2557364347819860
  0.0616294264856585  0.3867572397439278  0.8342803126400798
  0.3111242044073717  0.8865748554861963  0.8340932020750698
  0.4426928690414361  0.6267290313811027  0.7002175227206345
  0.0639888131301721  0.2130086308502963  0.7444115222375605
  0.1822435542068148  0.4514262894965408  0.2113182506096484
  0.5639686067239430  0.2089623186218991  0.4778280121322023
  0.0640302212728667  0.8743497148251996  0.5666450257581814
  0.5654972981089780  0.2200222376254195  0.8756194686423064
  0.8102419760563603  0.5296707181584731  0.1247774399281914
  0.4322189646049266  0.9512942855406268  0.2113190380550863
  0.5642340216938581  0.3744339292571103  0.5666142282943827
  0.8119663346020344  0.0420943755046088  0.3885604970080669
  0.6863139472995268  0.7904619004257997  0.5221072066118639
  0.4388910607364135  0.4588814643656585  0.4778107596638366
  0.4389048408513597  0.9623851264791573  0.7443833579343245
  0.4389116737565353  0.6247530322551971  0.5666988935997191
  0.0602999385433979  0.5296227343670984  0.1247903768415068
  0.3102559986901537  0.0296531925154331  0.1247632250075526
  0.6871094372196151  0.9587212165462817  0.3444025700649192
  0.6837283891230264  0.7809188685612681  0.1245712623513130
  0.0577403023189810  0.3734249905239834  0.2997734326315215
  0.6884433333192573  0.4710854169037964  0.8753314147969264
  0.4321655625716527  0.4512444818578459  0.2113222465015889
  0.8110619865395837  0.3751863592246268  0.4331012489345010
  0.5632536949022008  0.7076557015861512  0.6113526281489609
  0.5633330242100094  0.5410619932225817  0.6554656908731032
  0.9360975207956410  0.1251765900080266  0.4331302231343300
  0.5613324407894245  0.5377686881520206  0.2556886791641365
  0.6871017151269180  0.4587383668056037  0.3443980032216666
  0.1882785476082494  0.6138078039738830  0.1660994693362860
  0.1932627970221893  0.7984881754650290  0.7884888585008123
  0.4431498594224413  0.1257524794645269  0.7000687949385910
  0.9329303710549576  0.6235994879058087  0.2997742987979818
  0.3151311717422165  0.2197584421884298  0.8757615103554736
  0.3140328569057190  0.8743057691332876  0.5666337137117691
  0.8162132542937468  0.2191953744200659  0.8756213088568761
  0.8130779951180592  0.5417619566625069  0.6555129248329596
  0.5602333636751550  0.5296551257851485  0.1247895869440203
  0.5627186191265702  0.8636727843454349  0.1662527356081391
  0.1861806866981170  0.2871352190610393  0.2557499238822386
  0.8110609369200226  0.8751579703427897  0.4331247591302782
  0.5669636744527763  0.3766668482470137  0.7001780132844866
  0.0602992405689346  0.0296869259595054  0.1247722369664668
  0.3131420085578422  0.5411646696670136  0.6554617067697158
  0.5621300550703147  0.2086663602542099  0.3443609878432857
  0.1883963689477624  0.9573931204913869  0.6113593100238340
  0.3075995390611695  0.3734777961161662  0.2997766882127012
  0.4380154869328169  0.7914740649800794  0.6554577324741390
  0.6888941316999991  0.4626807295112131  0.7444958615257853
  0.0626575246948014  0.3637318162735940  0.1662516070305876
  0.6922440359104862  0.6266267876283764  0.7001450188639554
  0.3119558559641334  0.5421242383372108  0.3885759952310668
  0.0653274374798456  0.7192868484327222  0.8756087187370521
  0.9368310261256119  0.6372459659712980  0.8339319994125942
  0.3178664399511918  0.5494151104384335  0.7887373094941296
  0.3071873612705293  0.2014418207931351  0.2114913266704518
  0.0639860389903639  0.7089074326267829  0.4778100993233499
  0.5572103599238797  0.2015296323568516  0.2114830170128943
  0.3143917015171103  0.2122101496502102  0.7442884161767497
  0.0679388138739879  0.3763365646398991  0.7001413353919649
  0.1866112661985907  0.6361318731897280  0.8337684055228611
  0.0669991289729301  0.0482610647954494  0.7889092708552669
  0.4391262731430233  0.1245789947242068  0.5666692223704582
  0.9381393469267072  0.2914709182709737  0.6555868692715041
  0.8071793573008466  0.2014049525957530  0.2114916431979751
  0.9322253782598511  0.9513553205793700  0.2113087624112600
  0.9393050805901343  0.6244873890956874  0.5666462569989870
  0.8116656473169273  0.3870683783585115  0.8341722123289356
  0.1925280774839484  0.6269459733669486  0.7001174838092731
  0.5671762665878801  0.8765006250281144  0.7001708610018600
  0.6881061533903972  0.2914761217910347  0.6555018591347160
  0.3127460529447016  0.2078310289534805  0.6113534823010984
  0.4386977513198940  0.4627778420408679  0.7443108866605418
  0.4369183034007252  0.7920597764660837  0.3885514715416320
  0.6898036552878699  0.9626364322031434  0.7443844690217497
  0.8071653945510296  0.7014220790545548  0.2114911861568665
  0.8136335936693296  0.7078028988630116  0.6113145540911616
  0.4336771718562343  0.7809580401681376  0.1245718437862997
  0.3134326008417147  0.7127881476937479  0.7443732596748188
  0.3172010853132789  0.0485898303418641  0.7888133191730441
  0.8119460414894260  0.5421598120671994  0.3885759837267516
  0.6864068218417314  0.2902897152584704  0.5220137752984855
  0.6924182062123686  0.7978407877592727  0.7885976824152101
  0.1861557907560978  0.7870779291535783  0.2557410096766616
  0.6882293166157967  0.1139237725299406  0.1661173811873272
  0.6889469284022629  0.9589570839042806  0.4778175166984718
  0.9370885138158863  0.9587483237337651  0.3443854158157840
  0.8113746847241821  0.0400771197204540  0.5219509920120737
  0.6861448721268967  0.6251466266028792  0.4331319596197106
  0.4371075144372030  0.4587824186732802  0.3443952661652143
  0.8141776036161720  0.2121542392132778  0.7444353069205092
  0.4383949895871980  0.9708892441267771  0.8753703912237704
  0.5643567542964761  0.8746633091363921  0.5666218997926374
  0.8101933757528451  0.0296893214310428  0.1247664309769059
  0.4328320790907360  0.6236415905106033  0.2997740924637486
  0.8146415449487665  0.7195392748485069  0.8760381553924472
  0.6882968830048702  0.4576594841855364  0.6113223356357665
  0.5601250536196627  0.3868435801236795  0.8340677003555184
  0.8077859672363479  0.3734438594413542  0.2997952172265632
  0.1869632425687042  0.2921363328186889  0.3885910487825447
  0.8176028856123647  0.5496028072629843  0.7889421366118281
  0.1863469300362339  0.7903854294321266  0.5220476879628354
  0.3077444733868800  0.8734692109770062  0.2997949372481033
  0.1821838641361895  0.9514078688968305  0.2113257527077897
  0.1889404008604581  0.4629433128015727  0.7444664565576290
  0.4362419041262500  0.2902926820684231  0.5220206626857906
  0.0621103171422040  0.7087036027158046  0.3443521151791374
  0.1881862096634950  0.7910922645266486  0.6555304611078475
  0.4426375580099340  0.7983959525169676  0.7886106752793675
  0.6860533869030560  0.1252480413747563  0.4331116224003009
  0.9363248788672180  0.7902418358511621  0.5220869318976712
  0.6882099277718496  0.6138583948139957  0.1661156444081934
  0.8121564758309632  0.7086616632920081  0.3443612114953415
  0.9392010569689329  0.4626215012077678  0.7444784886502501
  0.1871093756759513  0.4587002764609338  0.3443933597219234
  0.5675079016690920  0.5491143220178156  0.7888352139191139
  0.5626659706401248  0.3636945305191904  0.1662583235506451
  0.5621281620340546  0.7086699768096200  0.3443635771642859
  0.5577439887213981  0.3733968562455786  0.2997788695162569
  0.1886261428796934  0.4711590314165193  0.8754464904388279
  0.1882309337052012  0.1139149987635879  0.1661188537084591
  0.4425272992166617  0.2989456562681049  0.7885208409492515
  0.6861011084523058  0.7871017766393480  0.2557507460068260
  0.9365351817960466  0.1365477180204142  0.8339565044229507
  0.4388236552844942  0.9589241191383935  0.4778215961102114
  0.5656617878939151  0.7194544869138252  0.8756814277324562
  0.1888671394048221  0.4590198749234273  0.4778420999975858
  0.9336840200871372  0.2809503610706575  0.1245574366116215
  0.3118988405577090  0.0421285952851586  0.3885715018502953
  0.0633508119932373  0.0413966264719964  0.6554345014233904
  0.5610279931817024  0.3751420685958307  0.4331201796226176
  0.9360081992926634  0.6252331774541527  0.4331124582361717
  0.3127078324754155  0.3637031273863363  0.1662519539257490
  0.9427106455852438  0.1258535582654602  0.7001717018234346
  0.5630783384579342  0.0410686750053982  0.6556067152167615
  0.5613552433408270  0.5407767720736403  0.5219644566755612
  0.1828577555531744  0.1235897839102928  0.2997563140175481
  0.4383266987021766  0.1138928478840565  0.1661198305848296
  0.6828702344733705  0.6235900772946027  0.2997523941713330
  0.9328528996315744  0.1236424022799684  0.2997779889137874
  0.8139077528795212  0.3744225747644349  0.5667019519054982
  0.0576983691231027  0.8734069059959024  0.2997966696410231
  0.1890990069593770  0.6246160691668124  0.5666740195214910
  0.9417167743188704  0.7976595443778649  0.7885812962451074
  0.3104225057890957  0.3863946336674924  0.8340903795380044
  0.9393236809415382  0.4711466673892640  0.8754075814754286
  0.4366057977803489  0.6360221051004922  0.8339672160342388
  0.0621865951594878  0.2086321935683560  0.3443584455112821
  0.1890814649225804  0.9705010180782147  0.8753862084610328
  0.9336885879663733  0.7809613793625573  0.1245717651383374
  0.6869662206650889  0.7921273945804432  0.3885722423020531
  0.9378739164642649  0.7914776651114147  0.6555426858884419
  0.9382961193383722  0.1138325556631386  0.1661310473118701
  0.4379199185828940  0.2914609625722972  0.6555292133041780
  0.0572293764799752  0.2014175926777952  0.2114837481933741
  0.6822201173200884  0.9513629950460503  0.2113282708797348
  0.1828371436121689  0.6235010395083422  0.2997408575753988
  0.8176043493670985  0.8761155030702101  0.7001639895741388
  0.9431412224197274  0.6266103595824937  0.7001653496683492
  0.1926717419751872  0.1258707525424214  0.7000614641046311
  0.9389635472909750  0.4589308994340835  0.4778502599566443
  0.8135526957226498  0.2078877648899897  0.6112730306018163
  0.1860366920441740  0.6252202261524745  0.4331316039318219
  0.4329074469062681  0.1234832177437236  0.2997625130534707
  0.6828158939519923  0.1234492520019032  0.2997372635616440
  0.5618885761090269  0.5421353822212198  0.3885756947135495
  0.8122027704454963  0.2085639727537061  0.3443422237108507
  0.4395523122262115  0.4717495535425148  0.8752825812855253
  0.5606044709044760  0.8859801244056668  0.8341274703395187
  0.3139238949634659  0.2089793201548420  0.4778254281163344
  0.1889425104471534  0.9590440874457057  0.4778725690383228
  0.0613580578199940  0.8860687674639426  0.8339738074743344
  0.0612724532646238  0.5403256215278017  0.5220668678294296
  0.9389456375768120  0.9590092846162163  0.4778504337325924
  0.0630771211706220  0.7075634800493138  0.6113235461164702
  0.5613684725455552  0.0404551463182255  0.5220480015251908
  0.6930827122007637  0.2984771559711526  0.7886125108246433
  0.8126924281053303  0.3636579269084690  0.1662585121585763
  0.4360601452298131  0.1252488931767883  0.4331176976397403
  0.0639275643028204  0.2090490540911681  0.4778246080502115
  0.3131336286117037  0.0415677493018933  0.6553767933416474
  0.4362547629938162  0.7906116149407024  0.5220865831415892
  0.1869121567965852  0.1371695175529418  0.8338161879997843
  0.1837580585949778  0.2809821264190907  0.1245560410130262
  0.9371336224424546  0.4587430841292047  0.3443813239624135
  0.3127051429786792  0.8636255997124584  0.1662536820443235
  0.3071447193654139  0.7013702817084679  0.2114927561120386
  0.9383103012149649  0.6138044736040900  0.1661235629214072
  0.1884022988303705  0.4581294838825055  0.6113752488412838
  0.0679546030191796  0.8769926596037639  0.7002564040809844
  0.0632517578242723  0.5413291160153523  0.6555635975216523
  0.3102200523598027  0.5296826408251107  0.1247971875728995
  0.9369248098404601  0.7921303521410640  0.3885664873325851
  0.9418426136417694  0.2988500656330401  0.7887465207777973
  0.1879555372509490  0.2911942971093814  0.6555611514670603
  0.9383287501205200  0.9576291203448910  0.6113913695811485
  0.8152863169045402  0.7129130569967450  0.7443359848905658
  0.6860735530459392  0.2870932885202709  0.2557380429919304
  0.0643029086195799  0.7130148043737199  0.7443461799064035
  0.6821288042220404  0.4513561247835267  0.2113231056657879
  0.8138634108254933  0.2088760775773010  0.4778229648207721
  0.5639311838148040  0.7088194851699141  0.4778361686435527
  0.0626999577025593  0.8637089643754686  0.1662547372909720
  0.9364143014705795  0.2903336188051007  0.5220528203230742
  0.6881092485205754  0.7918219457852110  0.6555886534638605
  0.0610154733535507  0.8751049207650949  0.4330935194950270
  0.0656993070945949  0.2199478483330536  0.8757659488474425
  0.8131060705612940  0.0412902946750269  0.6554624066786561
  0.5602913264825800  0.0296933165833274  0.1247767936073083
  0.3111013424863734  0.3752008185276838  0.4330998209799085
  0.3144105082872147  0.3745658602591745  0.5666519322055870
  0.3138328910209727  0.7089075887138542  0.4777840973238316
  0.0612416976100643  0.0404731570114554  0.5220699079149819
  0.3171981103617501  0.8766061397867185  0.7001124350376339
  0.0613651302142084  0.5377625671801544  0.2557069838291476
  0.6871828002606337  0.1371772438306915  0.8338005584898880
  0.8113278740148746  0.0377859097379338  0.2556774160731937
  0.1860370857669172  0.1251617615890058  0.4331291420057966
  0.6919989868524320  0.1262326125632463  0.7001159628549545
  0.1863793173645895  0.2902882897013788  0.5220632942162533
  0.4362201018100798  0.7871055631167561  0.2557455898066041
  0.8112923896646342  0.5377612649039771  0.2556849336623628
  0.0633292510924308  0.2075706325922749  0.6112157094769681
  0.1870020568619172  0.7921735835522122  0.3885935955987523
  0.3113115314224034  0.5402152105990878  0.5220680129233632
  0.8126935091538804  0.8636245007507828  0.1662647220323643
  0.6870030231870922  0.2921199055615464  0.3885921127835845
  0.1890719222512735  0.1243074294841835  0.5666962401939211
  0.6885223988722173  0.9712599125079072  0.8758428473646418
  0.6891260316188641  0.1244462625362415  0.5666238909536124
  0.4371201968083785  0.9587440684942261  0.3443882462304789
  0.1891321542050649  0.9620853630723454  0.7442436651161697
  0.9361534262741085  0.7871092965957692  0.2557380816373877
  0.5610560081198589  0.8752259986259477  0.4331167182721541
  0.3110782765533696  0.8751761462179920  0.4331265954181006
  0.8112555502694577  0.5403380440008080  0.5220647963625886
  0.9322362010272726  0.4513702444574175  0.2113195436249025
  0.3112853911107237  0.5377536041536712  0.2556863934744990
  0.5619444531085336  0.0420750280905087  0.3885852884265728
  0.9381431671690884  0.4582529159771240  0.6113369657868379
  0.0618807167953306  0.0421186221944244  0.3885697090344541
  0.0618956247187030  0.5420756612690868  0.3885721576701566
  0.4369089520908516  0.2920991996194995  0.3885718073778803
  0.6888505336635763  0.4589749230707725  0.4778215458131124
  0.0641185464704586  0.3744362643109979  0.5666696213423629
  0.5572720135036473  0.7014532195492061  0.2114944456522660
  0.9362389923172058  0.2871149944832283  0.2557458193781531
  0.8177747512012880  0.0489181684084537  0.7887479313445740
  0.1871609815438392  0.9587484709844307  0.3443922422984724
  0.5577492800551409  0.8734255724087931  0.2997878858405538
  0.0610807440836366  0.3751572782542445  0.4331240185469482
  0.3122242466691358  0.7086246615860837  0.3443529886969207
  0.3121558265506802  0.2086099657444276  0.3443685569142452
  0.9392027400722974  0.1242456929010632  0.5666410600757757
  0.4378347635843235  0.9574317495584206  0.6113144485941583
  0.5613617302935825  0.0378055507486303  0.2557094037446776
  0.1837891111798305  0.7808979136348669  0.1245637425410496
  0.0613323961676804  0.0377708561321408  0.2556865902980782
  0.6890646368820875  0.6246492513845979  0.5666286178941978
  0.4382647677210870  0.6137525146938682  0.1661121945656407
  0.3112794996464338  0.0401334785567037  0.5220055985202949
  0.6837511894435024  0.2808959304186633  0.1245664580942674
  0.8139069231465843  0.7088718379543122  0.4778355832487752
  0.4370801234964566  0.1371680314023970  0.8339469693854531
  0.3176494274104030  0.3766622845607722  0.7001910030805419
  0.6872804652000499  0.6375683737879329  0.8338872388883701
  0.5642242047507120  0.7126660206044660  0.7444758004647080
  0.9370118174258056  0.2921034971442957  0.3885791814771621
  0.9391855386432568  0.9716370491578504  0.8756026845472059
  0.9390156682120954  0.9616189327042227  0.7442965972076944
  0.8142303884786981  0.8746207922005959  0.5666428084395715
  0.8077249242100081  0.8734348803157869  0.2997944692242893
  0.3113016045703890  0.0378278312180443  0.2557005814086689
  0.4336538997875635  0.2809408120377225  0.1245758511187876
  0.3127080242740067  0.7074218668866992  0.6113318889484816
  0.4359920523843941  0.6251120192461925  0.4331271801642874
  0.1932014632606323  0.2976869491827384  0.7884737325121939
  0.5682720865263096  0.0482562431255505  0.7885941940560478
  0.0673818135954489  0.5495523984700383  0.7886622093656236
  0.8178312454892177  0.3760675470450093  0.7001588791630687
  0.5642280523363778  0.2129173389401020  0.7443423220770298
  0.5631206142703957  0.2078258305650145  0.6112316601610939
  0.8104449717124436  0.8866504227042256  0.8342806405585764
 
  0.00000000E+00  0.00000000E+00  0.00000000E+00
  0.00000000E+00  0.00000000E+00  0.00000000E+00
  0.00000000E+00  0.00000000E+00  0.00000000E+00
  0.00000000E+00  0.00000000E+00  0.00000000E+00
  0.00000000E+00  0.00000000E+00  0.00000000E+00
  0.00000000E+00  0.00000000E+00  0.00000000E+00
  0.00000000E+00  0.00000000E+00  0.00000000E+00
  0.00000000E+00  0.00000000E+00  0.00000000E+00
  0.00000000E+00  0.00000000E+00  0.00000000E+00
  0.00000000E+00  0.00000000E+00  0.00000000E+00
  0.00000000E+00  0.00000000E+00  0.00000000E+00
  0.00000000E+00  0.00000000E+00  0.00000000E+00
  0.00000000E+00  0.00000000E+00  0.00000000E+00
  0.00000000E+00  0.00000000E+00  0.00000000E+00
  0.00000000E+00  0.00000000E+00  0.00000000E+00
  0.00000000E+00  0.00000000E+00  0.00000000E+00
  0.00000000E+00  0.00000000E+00  0.00000000E+00
  0.00000000E+00  0.00000000E+00  0.00000000E+00
  0.00000000E+00  0.00000000E+00  0.00000000E+00
  0.00000000E+00  0.00000000E+00  0.00000000E+00
  0.00000000E+00  0.00000000E+00  0.00000000E+00
  0.00000000E+00  0.00000000E+00  0.00000000E+00
  0.00000000E+00  0.00000000E+00  0.00000000E+00
  0.00000000E+00  0.00000000E+00  0.00000000E+00
  0.00000000E+00  0.00000000E+00  0.00000000E+00
  0.00000000E+00  0.00000000E+00  0.00000000E+00
  0.00000000E+00  0.00000000E+00  0.00000000E+00
  0.00000000E+00  0.00000000E+00  0.00000000E+00
  0.00000000E+00  0.00000000E+00  0.00000000E+00
  0.00000000E+00  0.00000000E+00  0.00000000E+00
  0.00000000E+00  0.00000000E+00  0.00000000E+00
  0.00000000E+00  0.00000000E+00  0.00000000E+00
  0.00000000E+00  0.00000000E+00  0.00000000E+00
  0.00000000E+00  0.00000000E+00  0.00000000E+00
  0.00000000E+00  0.00000000E+00  0.00000000E+00
  0.00000000E+00  0.00000000E+00  0.00000000E+00
  0.00000000E+00  0.00000000E+00  0.00000000E+00
  0.00000000E+00  0.00000000E+00  0.00000000E+00
  0.00000000E+00  0.00000000E+00  0.00000000E+00
  0.00000000E+00  0.00000000E+00  0.00000000E+00
  0.00000000E+00  0.00000000E+00  0.00000000E+00
  0.00000000E+00  0.00000000E+00  0.00000000E+00
  0.00000000E+00  0.00000000E+00  0.00000000E+00
  0.00000000E+00  0.00000000E+00  0.00000000E+00
  0.00000000E+00  0.00000000E+00  0.00000000E+00
  0.00000000E+00  0.00000000E+00  0.00000000E+00
  0.00000000E+00  0.00000000E+00  0.00000000E+00
  0.00000000E+00  0.00000000E+00  0.00000000E+00
  0.00000000E+00  0.00000000E+00  0.00000000E+00
  0.00000000E+00  0.00000000E+00  0.00000000E+00
  0.00000000E+00  0.00000000E+00  0.00000000E+00
  0.00000000E+00  0.00000000E+00  0.00000000E+00
  0.00000000E+00  0.00000000E+00  0.00000000E+00
  0.00000000E+00  0.00000000E+00  0.00000000E+00
  0.00000000E+00  0.00000000E+00  0.00000000E+00
  0.00000000E+00  0.00000000E+00  0.00000000E+00
  0.00000000E+00  0.00000000E+00  0.00000000E+00
  0.00000000E+00  0.00000000E+00  0.00000000E+00
  0.00000000E+00  0.00000000E+00  0.00000000E+00
  0.00000000E+00  0.00000000E+00  0.00000000E+00
  0.00000000E+00  0.00000000E+00  0.00000000E+00
  0.00000000E+00  0.00000000E+00  0.00000000E+00
  0.00000000E+00  0.00000000E+00  0.00000000E+00
  0.00000000E+00  0.00000000E+00  0.00000000E+00
  0.00000000E+00  0.00000000E+00  0.00000000E+00
  0.00000000E+00  0.00000000E+00  0.00000000E+00
  0.00000000E+00  0.00000000E+00  0.00000000E+00
  0.00000000E+00  0.00000000E+00  0.00000000E+00
  0.00000000E+00  0.00000000E+00  0.00000000E+00
  0.00000000E+00  0.00000000E+00  0.00000000E+00
  0.00000000E+00  0.00000000E+00  0.00000000E+00
  0.00000000E+00  0.00000000E+00  0.00000000E+00
  0.00000000E+00  0.00000000E+00  0.00000000E+00
  0.00000000E+00  0.00000000E+00  0.00000000E+00
  0.00000000E+00  0.00000000E+00  0.00000000E+00
  0.00000000E+00  0.00000000E+00  0.00000000E+00
  0.00000000E+00  0.00000000E+00  0.00000000E+00
  0.00000000E+00  0.00000000E+00  0.00000000E+00
  0.00000000E+00  0.00000000E+00  0.00000000E+00
  0.00000000E+00  0.00000000E+00  0.00000000E+00
  0.00000000E+00  0.00000000E+00  0.00000000E+00
  0.00000000E+00  0.00000000E+00  0.00000000E+00
  0.00000000E+00  0.00000000E+00  0.00000000E+00
  0.00000000E+00  0.00000000E+00  0.00000000E+00
  0.00000000E+00  0.00000000E+00  0.00000000E+00
  0.00000000E+00  0.00000000E+00  0.00000000E+00
  0.00000000E+00  0.00000000E+00  0.00000000E+00
  0.00000000E+00  0.00000000E+00  0.00000000E+00
  0.00000000E+00  0.00000000E+00  0.00000000E+00
  0.00000000E+00  0.00000000E+00  0.00000000E+00
  0.00000000E+00  0.00000000E+00  0.00000000E+00
  0.00000000E+00  0.00000000E+00  0.00000000E+00
  0.00000000E+00  0.00000000E+00  0.00000000E+00
  0.00000000E+00  0.00000000E+00  0.00000000E+00
  0.00000000E+00  0.00000000E+00  0.00000000E+00
  0.00000000E+00  0.00000000E+00  0.00000000E+00
  0.00000000E+00  0.00000000E+00  0.00000000E+00
  0.00000000E+00  0.00000000E+00  0.00000000E+00
  0.00000000E+00  0.00000000E+00  0.00000000E+00
  0.00000000E+00  0.00000000E+00  0.00000000E+00
  0.00000000E+00  0.00000000E+00  0.00000000E+00
  0.00000000E+00  0.00000000E+00  0.00000000E+00
  0.00000000E+00  0.00000000E+00  0.00000000E+00
  0.00000000E+00  0.00000000E+00  0.00000000E+00
  0.00000000E+00  0.00000000E+00  0.00000000E+00
  0.00000000E+00  0.00000000E+00  0.00000000E+00
  0.00000000E+00  0.00000000E+00  0.00000000E+00
  0.00000000E+00  0.00000000E+00  0.00000000E+00
  0.00000000E+00  0.00000000E+00  0.00000000E+00
  0.00000000E+00  0.00000000E+00  0.00000000E+00
  0.00000000E+00  0.00000000E+00  0.00000000E+00
  0.00000000E+00  0.00000000E+00  0.00000000E+00
  0.00000000E+00  0.00000000E+00  0.00000000E+00
  0.00000000E+00  0.00000000E+00  0.00000000E+00
  0.00000000E+00  0.00000000E+00  0.00000000E+00
  0.00000000E+00  0.00000000E+00  0.00000000E+00
  0.00000000E+00  0.00000000E+00  0.00000000E+00
  0.00000000E+00  0.00000000E+00  0.00000000E+00
  0.00000000E+00  0.00000000E+00  0.00000000E+00
  0.00000000E+00  0.00000000E+00  0.00000000E+00
  0.00000000E+00  0.00000000E+00  0.00000000E+00
  0.00000000E+00  0.00000000E+00  0.00000000E+00
  0.00000000E+00  0.00000000E+00  0.00000000E+00
  0.00000000E+00  0.00000000E+00  0.00000000E+00
  0.00000000E+00  0.00000000E+00  0.00000000E+00
  0.00000000E+00  0.00000000E+00  0.00000000E+00
  0.00000000E+00  0.00000000E+00  0.00000000E+00
  0.00000000E+00  0.00000000E+00  0.00000000E+00
  0.00000000E+00  0.00000000E+00  0.00000000E+00
  0.00000000E+00  0.00000000E+00  0.00000000E+00
  0.00000000E+00  0.00000000E+00  0.00000000E+00
  0.00000000E+00  0.00000000E+00  0.00000000E+00
  0.00000000E+00  0.00000000E+00  0.00000000E+00
  0.00000000E+00  0.00000000E+00  0.00000000E+00
  0.00000000E+00  0.00000000E+00  0.00000000E+00
  0.00000000E+00  0.00000000E+00  0.00000000E+00
  0.00000000E+00  0.00000000E+00  0.00000000E+00
  0.00000000E+00  0.00000000E+00  0.00000000E+00
  0.00000000E+00  0.00000000E+00  0.00000000E+00
  0.00000000E+00  0.00000000E+00  0.00000000E+00
  0.00000000E+00  0.00000000E+00  0.00000000E+00
  0.00000000E+00  0.00000000E+00  0.00000000E+00
  0.00000000E+00  0.00000000E+00  0.00000000E+00
  0.00000000E+00  0.00000000E+00  0.00000000E+00
  0.00000000E+00  0.00000000E+00  0.00000000E+00
  0.00000000E+00  0.00000000E+00  0.00000000E+00
  0.00000000E+00  0.00000000E+00  0.00000000E+00
  0.00000000E+00  0.00000000E+00  0.00000000E+00
  0.00000000E+00  0.00000000E+00  0.00000000E+00
  0.00000000E+00  0.00000000E+00  0.00000000E+00
  0.00000000E+00  0.00000000E+00  0.00000000E+00
  0.00000000E+00  0.00000000E+00  0.00000000E+00
  0.00000000E+00  0.00000000E+00  0.00000000E+00
  0.00000000E+00  0.00000000E+00  0.00000000E+00
  0.00000000E+00  0.00000000E+00  0.00000000E+00
  0.00000000E+00  0.00000000E+00  0.00000000E+00
  0.00000000E+00  0.00000000E+00  0.00000000E+00
  0.00000000E+00  0.00000000E+00  0.00000000E+00
  0.00000000E+00  0.00000000E+00  0.00000000E+00
  0.00000000E+00  0.00000000E+00  0.00000000E+00
  0.00000000E+00  0.00000000E+00  0.00000000E+00
  0.00000000E+00  0.00000000E+00  0.00000000E+00
  0.00000000E+00  0.00000000E+00  0.00000000E+00
  0.00000000E+00  0.00000000E+00  0.00000000E+00
  0.00000000E+00  0.00000000E+00  0.00000000E+00
  0.00000000E+00  0.00000000E+00  0.00000000E+00
  0.00000000E+00  0.00000000E+00  0.00000000E+00
  0.00000000E+00  0.00000000E+00  0.00000000E+00
  0.00000000E+00  0.00000000E+00  0.00000000E+00
  0.00000000E+00  0.00000000E+00  0.00000000E+00
  0.00000000E+00  0.00000000E+00  0.00000000E+00
  0.00000000E+00  0.00000000E+00  0.00000000E+00
  0.00000000E+00  0.00000000E+00  0.00000000E+00
  0.00000000E+00  0.00000000E+00  0.00000000E+00
  0.00000000E+00  0.00000000E+00  0.00000000E+00
  0.00000000E+00  0.00000000E+00  0.00000000E+00
  0.00000000E+00  0.00000000E+00  0.00000000E+00
  0.00000000E+00  0.00000000E+00  0.00000000E+00
  0.00000000E+00  0.00000000E+00  0.00000000E+00
  0.00000000E+00  0.00000000E+00  0.00000000E+00
  0.00000000E+00  0.00000000E+00  0.00000000E+00
  0.00000000E+00  0.00000000E+00  0.00000000E+00
  0.00000000E+00  0.00000000E+00  0.00000000E+00
  0.00000000E+00  0.00000000E+00  0.00000000E+00
  0.00000000E+00  0.00000000E+00  0.00000000E+00
  0.00000000E+00  0.00000000E+00  0.00000000E+00
  0.00000000E+00  0.00000000E+00  0.00000000E+00
  0.00000000E+00  0.00000000E+00  0.00000000E+00
  0.00000000E+00  0.00000000E+00  0.00000000E+00
  0.00000000E+00  0.00000000E+00  0.00000000E+00
  0.00000000E+00  0.00000000E+00  0.00000000E+00
  0.00000000E+00  0.00000000E+00  0.00000000E+00
  0.00000000E+00  0.00000000E+00  0.00000000E+00
  0.00000000E+00  0.00000000E+00  0.00000000E+00
  0.00000000E+00  0.00000000E+00  0.00000000E+00
  0.00000000E+00  0.00000000E+00  0.00000000E+00
  0.00000000E+00  0.00000000E+00  0.00000000E+00
  0.00000000E+00  0.00000000E+00  0.00000000E+00
  0.00000000E+00  0.00000000E+00  0.00000000E+00
  0.00000000E+00  0.00000000E+00  0.00000000E+00
  0.00000000E+00  0.00000000E+00  0.00000000E+00
  0.00000000E+00  0.00000000E+00  0.00000000E+00
  0.00000000E+00  0.00000000E+00  0.00000000E+00
  0.00000000E+00  0.00000000E+00  0.00000000E+00
  0.00000000E+00  0.00000000E+00  0.00000000E+00
  0.00000000E+00  0.00000000E+00  0.00000000E+00
  0.00000000E+00  0.00000000E+00  0.00000000E+00
  0.00000000E+00  0.00000000E+00  0.00000000E+00
  0.00000000E+00  0.00000000E+00  0.00000000E+00
  0.00000000E+00  0.00000000E+00  0.00000000E+00
  0.00000000E+00  0.00000000E+00  0.00000000E+00
  0.00000000E+00  0.00000000E+00  0.00000000E+00
  0.00000000E+00  0.00000000E+00  0.00000000E+00
  0.00000000E+00  0.00000000E+00  0.00000000E+00
  0.00000000E+00  0.00000000E+00  0.00000000E+00
  0.00000000E+00  0.00000000E+00  0.00000000E+00
  0.00000000E+00  0.00000000E+00  0.00000000E+00
  0.00000000E+00  0.00000000E+00  0.00000000E+00
  0.00000000E+00  0.00000000E+00  0.00000000E+00
  0.00000000E+00  0.00000000E+00  0.00000000E+00
  0.00000000E+00  0.00000000E+00  0.00000000E+00
  0.00000000E+00  0.00000000E+00  0.00000000E+00
  0.00000000E+00  0.00000000E+00  0.00000000E+00
  0.00000000E+00  0.00000000E+00  0.00000000E+00
  0.00000000E+00  0.00000000E+00  0.00000000E+00
  0.00000000E+00  0.00000000E+00  0.00000000E+00
  0.00000000E+00  0.00000000E+00  0.00000000E+00
  0.00000000E+00  0.00000000E+00  0.00000000E+00
  0.00000000E+00  0.00000000E+00  0.00000000E+00
  0.00000000E+00  0.00000000E+00  0.00000000E+00
  0.00000000E+00  0.00000000E+00  0.00000000E+00
  0.00000000E+00  0.00000000E+00  0.00000000E+00
  0.00000000E+00  0.00000000E+00  0.00000000E+00
  0.00000000E+00  0.00000000E+00  0.00000000E+00
  0.00000000E+00  0.00000000E+00  0.00000000E+00
  0.00000000E+00  0.00000000E+00  0.00000000E+00
  0.00000000E+00  0.00000000E+00  0.00000000E+00
  0.00000000E+00  0.00000000E+00  0.00000000E+00
  0.00000000E+00  0.00000000E+00  0.00000000E+00
  0.00000000E+00  0.00000000E+00  0.00000000E+00
  0.00000000E+00  0.00000000E+00  0.00000000E+00
  0.00000000E+00  0.00000000E+00  0.00000000E+00
  0.00000000E+00  0.00000000E+00  0.00000000E+00
  0.00000000E+00  0.00000000E+00  0.00000000E+00
  0.00000000E+00  0.00000000E+00  0.00000000E+00
  0.00000000E+00  0.00000000E+00  0.00000000E+00
  0.00000000E+00  0.00000000E+00  0.00000000E+00