CuInSe2gb                               
   1.00000000000000     
     9.7266780392896699    0.0000000000000000    0.0000000000000000
     0.0000000000000000    8.4235502764570693    0.0000000000000000
     0.0000000000000000    0.0000000000000000   45.0000000000000000
   Fe   Mn
   281     7
Direct
  0.0534688667752183  0.7018432474769073  0.2114372301009042
  0.3176740898295143  0.7242678058465486  0.8763357665048003
  0.6874888569925999  0.9582330474687175  0.6112271160110027
  0.4381939146040303  0.4576743907906820  0.6112355060201338
  0.4399354986299560  0.2882243320275350  0.2554655426619915
  0.0585681863399045  0.3878496359571295  0.8334956331142959
  0.3082215730365640  0.8874949843309401  0.8334898737952247
  0.4470914957468330  0.6265871043878145  0.7001364910442494
  0.0608289742131590  0.2115168343556098  0.7448026075086018
  0.1785851536963190  0.4510157269600615  0.2113172317789494
  0.5679021478484922  0.2106378446941074  0.4774450307347853
  0.0669804426353965  0.8748310653059341  0.5667146608161159
  0.5676765205545022  0.2248274971764183  0.8759953774937825
  0.8094093297597307  0.5333474409521728  0.1242824875272522
  0.4286423582321134  0.9511014819265347  0.2113114800634902
  0.5671008032913912  0.3748990264526086  0.5667503533358709
  0.8122362330329347  0.0418505348333438  0.3885975195666853
  0.6825504305323352  0.7885019197432512  0.5221926165875973
  0.4428596795142338  0.4606628534221667  0.4774329913589846
  0.4351207471655410  0.9617210220981591  0.7445672344319332
  0.4420212035686237  0.6250111193969766  0.5667145320357148
  0.0593348345703800  0.5334455315843385  0.1242626958608042
  0.3094384796020181  0.0333425626277566  0.1242901425487973
  0.6903547694136161  0.9593312752018684  0.3441875703978101
  0.6812212783487201  0.7776088753872739  0.1240962110730547
  0.0529447590688893  0.3738102044619938  0.2998192001039840
  0.6886732991500435  0.4668531294253168  0.8759284544479226
  0.4286639642991386  0.4511276879141277  0.2113064313959654
  0.8083944224485442  0.3750138835129683  0.4331179675140117
  0.5626851486381508  0.7080590934540388  0.6113371987432868
  0.5602141550770865  0.5413060716950613  0.6556738056666552
  0.9334048146750333  0.1250446989564552  0.4331166742267188
  0.5658360937238653  0.5374910053622892  0.2554616661461268
  0.6903136926544301  0.4592822961721992  0.3441831635957240
  0.1913080776226925  0.6124654873285982  0.1668236887059555
  0.1948088991330471  0.7985310791754793  0.7887169102084742
  0.4477525200554562  0.1256389328949899  0.7001139733897007
  0.9278979190131595  0.6236784956724222  0.2997368169604331
  0.3181210381206355  0.2240343975825514  0.8761165885279393
  0.3167828360651223  0.8748422345492730  0.5667768695533688
  0.8182524299723574  0.2238048602647887  0.8762070118511338
  0.8101214233289781  0.5408225586338459  0.6557917192906757
  0.5594328060000272  0.5333396691339295  0.1242760739362193
  0.5662367182006581  0.8624831014863564  0.1666989806325935
  0.1899468857713928  0.2881984076319231  0.2554620353373629
  0.8083766670016469  0.8749732761989665  0.4331105213803386
  0.5722757100482937  0.3762071311595805  0.7000815973437381
  0.0594708215816241  0.0333678324444674  0.1242684232565903
  0.3098040570096685  0.5407211259664106  0.6558111717190168
  0.5653913725657393  0.2093601187573745  0.3441852384329335
  0.1877173668847787  0.9579984192087454  0.6113331066184288
  0.3029944990038742  0.3737809726105971  0.2998144148267221
  0.4346988980367967  0.7906716469514785  0.6557261384056816
  0.6847102680291072  0.4618269163280244  0.7445665159884366
  0.0662933745632262  0.3624590204299566  0.1667036703566472
  0.6978528124472699  0.6257888767011678  0.7003585148935083
  0.3121933187703524  0.5418347590951696  0.3885754527279646
  0.0683998010942986  0.7241537159814374  0.8761170432285791
  0.9336215920948302  0.6378754456391099  0.8335617376111827
  0.3201993790735337  0.5496337746585004  0.7886954578470515
  0.3034306272074710  0.2018629884184937  0.2114378239747206
  0.0678650804377886  0.7107061996298402  0.4774550777578659
  0.5534124719815336  0.2017389188035608  0.2114380063284513
  0.3109138150852273  0.2120326305472020  0.7444178154820920
  0.0722357342910731  0.3759034452624090  0.7004210161930507
  0.1836130115178759  0.6373488630146837  0.8333035896919146
  0.0712029961638608  0.0485894178325783  0.7886735239869903
  0.4417273833199500  0.1249256998079955  0.5667662882413894
  0.9349536102324768  0.2913051814146121  0.6556953952436465
  0.8034446039400017  0.2018784339708565  0.2114221045206186
  0.9286056520115981  0.9510357878547476  0.2113162291075104
  0.9417553345864345  0.6250086104890270  0.5668255775849173
  0.8086042439962072  0.3879555472888163  0.8334783196381810
  0.1973597946167130  0.6263059696469773  0.7000993102000718
  0.5722013850817058  0.8758069611526150  0.7004633599737208
  0.6848041897718198  0.2907888270923539  0.6557602458527928
  0.3127166200935887  0.2081037101870264  0.6112829356963843
  0.4355966416761641  0.4621974279578328  0.7444127132600208
  0.4372329945151252  0.7918574645618641  0.3886121246863002
  0.6851945337712804  0.9619420123405670  0.7445039722315370
  0.8034247344080021  0.7018208010501796  0.2114430530348328
  0.8126486694707056  0.7081895068276801  0.6112259156419219
  0.4313422944850721  0.7776326326910942  0.1241007962970584
  0.3106145382664390  0.7124112097810649  0.7444127539360798
  0.3214356528286847  0.0489902972360224  0.7886800512891851
  0.8121225127390942  0.5417629638236326  0.3885645515036636
  0.6823919105295151  0.2882214770202320  0.5223530513244483
  0.6947076656552961  0.7979724849772066  0.7885842479908727
  0.1899599604052371  0.7882326681240470  0.2554674496705390
  0.6914349049708123  0.1123547326647991  0.1668147295609625
  0.6928463560043161  0.9606597985495584  0.4774594300786670
  0.9403412311338534  0.9593301798849498  0.3441889683084992
  0.8076645316223799  0.0382761055319578  0.5222222594970365
  0.6834427264629627  0.6250275640653071  0.4331026616809633
  0.4403265907284802  0.4592980901959038  0.3441796757831557
  0.8108125769168214  0.2119499350785288  0.7445810227330244
  0.4385973387843737  0.9672308979659899  0.8758868371995217
  0.5666268620475613  0.8750296067126999  0.5668738125064096
  0.8095087788407108  0.0332938514828767  0.1242896338117264
  0.4280245352036439  0.6236335672574322  0.2997247547471855
  0.8176519503702856  0.7242872228454729  0.8760209851462499
  0.6875773191030459  0.4582024570655863  0.6112285168873491
  0.5581976259757564  0.3876136787595070  0.8332285520976174
  0.8028386174035453  0.3737455516650385  0.2997771790221900
  0.1870286681482200  0.2917601067696184  0.3885059994324679
  0.8210558946410822  0.5491661476106781  0.7888159820856506
  0.1824924790642143  0.7883925981736659  0.5223222847827830
  0.3028917161183879  0.8737764285894281  0.2997822268274217
  0.1786828072230844  0.9510196054814201  0.2112983944748860
  0.1856815973286796  0.4613972030698286  0.7446017325725547
  0.4325075280844480  0.2882831676536635  0.5223188824259219
  0.0653562484155624  0.7093886705310458  0.3441874163255870
  0.1848448140260532  0.7907583517583761  0.6558492100058791
  0.4460410080272017  0.7984124606099906  0.7887441461559009
  0.6834260401470703  0.1249844947596897  0.4331081557814879
  0.9324757180341768  0.7882962427885247  0.5223350271445861
  0.6913659211720322  0.6124672250075580  0.1668113555692049
  0.8153435222002497  0.7093727051044918  0.3441787541136166
  0.9350400001400094  0.4617403012999565  0.7445400292688227
  0.1903282234579615  0.4593628603682851  0.3441813871920167
  0.5696581538080898  0.5492201103978168  0.7888344525899108
  0.5663009940115867  0.3624947894621210  0.1667135755921417
  0.5653363458031098  0.7093959434072160  0.3441737524210094
  0.5529554540525746  0.3738347689520506  0.2997969740413700
  0.1902728407683259  0.4672299211529621  0.8759906215349877
  0.1914073138233547  0.1124150973854634  0.1668055736384993
  0.4448660690966029  0.2987537396006855  0.7886981959388190
  0.6899823049643814  0.7882074673749223  0.2554704172795689
  0.9333078198938981  0.1374691075451618  0.8335229648349399
  0.4429302815484553  0.9607624408594397  0.4774479957000249
  0.5672436871817704  0.7234950052516853  0.8761219045473950
  0.1929272400247116  0.4606813579075059  0.4774562949594988
  0.9311105272342691  0.2775837031602985  0.1240953960412418
  0.3122227700231368  0.0418228917619263  0.3885747688671653
  0.0598265721653738  0.0405571139532965  0.6558400812285831
  0.5584576110999138  0.3750495962656768  0.4331083410977243
  0.9335244328393418  0.6249661692038244  0.4330986554516184
  0.3162728875014156  0.3624486944935186  0.1666905345200684
  0.9468702627857916  0.1261292585711863  0.7000682569768405
  0.5599570296663745  0.0413952429137316  0.6556753250265798
  0.5572681419350688  0.5382834878450591  0.5223241874483956
  0.1780746212803181  0.1236213041528595  0.2997401020575084
  0.4412958041108069  0.1123953322475476  0.1668071651900126
  0.6779728486063149  0.6237195949570524  0.2997657631205121
  0.9280762008305535  0.1235379511538954  0.2997057366058571
  0.8168038396046426  0.3746769252254250  0.5667726155980496
  0.0529430217002985  0.8737818567347955  0.2997797488941609
  0.1917464061342820  0.6249260103641886  0.5667455741143710
  0.9460368308719048  0.7977779137227065  0.7886025370170004
  0.3080842601843684  0.3872699128104019  0.8334859419185198
  0.9389973465914639  0.4666696951251511  0.8759284507914672
  0.4337823089715920  0.6374934806815743  0.8334052643241544
  0.0653253254532918  0.2094561780840725  0.3441742699783244
  0.1896209822898327  0.9661171643344828  0.8760182624104744
  0.9312772111915718  0.7775919108904880  0.1240992770506888
  0.6871116168457229  0.7917846069037277  0.3885437721769821
  0.9346925881805584  0.7907189432917135  0.6558158455798497
  0.9413671310831362  0.1124581830799705  0.1667797899340681
  0.4347666646868084  0.2907332849701333  0.6558610777418675
  0.0534110485301095  0.2018485753195357  0.2114356306809088
  0.6786243582584400  0.9510296713803869  0.2113053958884468
  0.1780322943964303  0.6238041376807105  0.2997824265424054
  0.8225708282112332  0.8758505410145203  0.7001044590736758
  0.9471102166849745  0.6258882539308498  0.7001856805584024
  0.1973132127678236  0.1260196593870934  0.7001637139260088
  0.9428303801436747  0.4607927416895721  0.4774538764746677
  0.8126833809737015  0.2080047519479440  0.6113633170038206
  0.1834490256587334  0.6249781604968503  0.4330919289274198
  0.4280210893210452  0.1238707122326338  0.2997773126364453
  0.6780910778405997  0.1238499899901810  0.2997870853882046
  0.5621683816660045  0.5418474644930965  0.3885689188633871
  0.8153333999695895  0.2094093862347806  0.3441867659707796
  0.4392986750348561  0.4672839811997903  0.8760325759080198
  0.5586299561316329  0.8877514871945427  0.8334676201228700
  0.3179257898857248  0.2106936916534094  0.4774405936244300
  0.1928752134407765  0.9607959307881249  0.4774532514173424
  0.0586007886807403  0.8873297385609440  0.8334684500342339
  0.0573439103167263  0.5382281787561811  0.5223483532950474
  0.9428041167909801  0.9607914757856606  0.4774655263605933
  0.0627665662454206  0.7080299074386229  0.6112400093864728
  0.5573988864378210  0.0382111978196716  0.5223445996549405
  0.6962579395978742  0.2984297903539839  0.7886245760573178
  0.8162488865496096  0.3625008302167853  0.1666921009127417
  0.4334452778638780  0.1250399951973437  0.4330976251305108
  0.0679978805434332  0.2107395464476399  0.4774689447752847
  0.3097804224627142  0.0407929493363077  0.6557340735330437
  0.4323837122445606  0.7882385500343140  0.5221852574078645
  0.1838560459251617  0.1385624863651236  0.8335991824974566
  0.1811368944706887  0.2776594150836311  0.1241101333233149
  0.9402902843948440  0.4593287114255877  0.3441804006119162
  0.3162360917668911  0.8624902558376552  0.1667030586504578
  0.3034583365088176  0.7018669792872904  0.2114293481586511
  0.9413312183180763  0.6124269848610420  0.1668167416850896
  0.1876626507981541  0.4583214078889672  0.6112441791508659
  0.0723354344725093  0.8761746617145251  0.6999377136124003
  0.0597786572101337  0.5406577502147427  0.6558049153529342
  0.3094623856456500  0.5334102168962297  0.1242779814685347
  0.9371667297652313  0.7918009655005293  0.3885688563180456
  0.9462606999754929  0.2984483451053798  0.7886208620247401
  0.1848330016302543  0.2910810272232916  0.6557256499028261
  0.9378527750394562  0.9579947888926758  0.6112343385156734
  0.8113048908210628  0.7113873504618594  0.7446153187998842
  0.6900465047426391  0.2881685022514730  0.2554561824535350
  0.0612496607940207  0.7114068986891734  0.7447460805113773
  0.6787065058036184  0.4510667710794940  0.2113105632481563
  0.8179781470063709  0.2106925491445875  0.4774268150717538
  0.5679582845963648  0.7105882780313358  0.4775063818581539
  0.0662171422109463  0.8624771684387303  0.1666966377600030
  0.9323166802082882  0.2884984138110928  0.5222930437133698
  0.6846660898902209  0.7906889765182687  0.6558034794921117
  0.0584072213864568  0.8749839999476483  0.4330918835810875
  0.0684157522323607  0.2239956318185470  0.8761006282952809
  0.8101101373408525  0.0414562661869022  0.6559227394643827
  0.5595097111782669  0.0333361717386745  0.1242855225107403
  0.3083856441704189  0.3750006430305906  0.4331209866298404
  0.3168603268541290  0.3748207188815601  0.5667799297881748
  0.3178882561748317  0.7106003294595288  0.4774622526878980
  0.0572812335539622  0.0382200022433105  0.5223237434321325
  0.3223282717463553  0.8760886955117936  0.7000162867639503
  0.0658174660821848  0.5375606473616853  0.2554470015475607
  0.6836502850891935  0.1376087798083895  0.8334562064135526
  0.8158136414243776  0.0375186713618740  0.2554557702455629
  0.1834676081544562  0.1250380650093467  0.4331079713489169
  0.6984992681420622  0.1263089242257374  0.7001051649642808
  0.1823937146599997  0.2882207651835181  0.5223210420126418
  0.4399399699938185  0.7882272157128634  0.2554601048981964
  0.8159016314702245  0.5375502207754028  0.2554687929528275
  0.0627368260758517  0.2081460098104309  0.6112324295574637
  0.1870432621939530  0.7917768710518210  0.3885210698912715
  0.3074580647081215  0.5384461409191243  0.5223320806547713
  0.8162727087093756  0.8624792849037646  0.1667075736395050
  0.6870779325755403  0.2917826861205352  0.3885465813843380
  0.1915638520292931  0.1250525143241545  0.5669003064504826
  0.6895302055720867  0.9673859872513566  0.8760786432479910
  0.6920800585872230  0.1248684460828116  0.5667055594428816
  0.4403051392356513  0.9592685933670935  0.3441967722195631
  0.1850677828832483  0.9625812200577367  0.7447323756557521
  0.9399971351524720  0.7882285395811715  0.2554517643935121
  0.5583858314709268  0.8749618634679071  0.4330848084668314
  0.3083902153904640  0.8749820240052114  0.4331215642300150
  0.8073878590659672  0.5382789043875483  0.5223122580024810
  0.9286011291246343  0.4510113421265300  0.2113143661858927
  0.3158525307375056  0.5375331243020541  0.2554512013715483
  0.5621133898577758  0.0417995437839129  0.3885585132289618
  0.9377135057792376  0.4581935941208271  0.6113452883082143
  0.0622025684272203  0.0417876666093147  0.3885798328998263
  0.0621233438789976  0.5418392224057640  0.3885603434939308
  0.4371987851869628  0.2918531703226802  0.3885793856530739
  0.6930261925899326  0.4607306026187591  0.4774594565504403
  0.0670363075442867  0.3746287828640962  0.5667523857627856
  0.5534006509586200  0.7018075167366368  0.2114375133764750
  0.9399276863640592  0.2882302583717415  0.2554601974851176
  0.8205280307860203  0.0495440382098139  0.7887877776697378
  0.1902646195551855  0.9593213038831556  0.3441839056169785
  0.5528752011175423  0.8738281808118039  0.2997913147085481
  0.0584082450828685  0.3749954706047219  0.4331078515989574
  0.3153172398212857  0.7094010790617156  0.3441844665079530
  0.3153708579132983  0.2094049712655780  0.3441884535542641
  0.9417270020105964  0.1249775695254313  0.5668631907556356
  0.4381602476619532  0.9580877702814613  0.6112959178268169
  0.5658322203149599  0.0374769496713967  0.2554441499377064
  0.1811128553117860  0.7776301490579191  0.1241048480035553
  0.0658557292698054  0.0375522697842621  0.2554520684589737
  0.6917270562592684  0.6249698106315416  0.5667970720864959
  0.4413672706468348  0.6125404279576531  0.1668257604982790
  0.3071478753549933  0.0383560146106334  0.5222566204674708
  0.6811309692652008  0.2776923477156303  0.1241090273369024
  0.8179369906203904  0.7106876420818758  0.4774480161591587
  0.4337840987049880  0.1377775250870645  0.8335472586658184
  0.3224513246917408  0.3755367396799795  0.7001066253036028
  0.6837869593866586  0.6379267316047231  0.8335463481601748
  0.5610371702110125  0.7129466790024083  0.7445476732553359
  0.9371509670787992  0.2918220806616791  0.3885419286835304
  0.9387879682224438  0.9667214907013600  0.8759488397479928
  0.9349816374065045  0.9616206440374108  0.7445675927961479
  0.8168644105824127  0.8743644162695903  0.5668273182340486
  0.8028640791611411  0.8738740254703439  0.2997834271186557
  0.3159155385042518  0.0375329582238370  0.2554610478891390
  0.4311404983908704  0.2774924744531141  0.1240880533874474
  0.3125048137359820  0.7078878098547128  0.6113714077706393
  0.4333714460037992  0.6250289289499513  0.4330897689558378
  0.1967458513254598  0.2970620354375911  0.7884143759382427
  0.5715587943510521  0.0494880914616055  0.7886464599635884
  0.0709871603941010  0.5501704532394950  0.7887629051597798
  0.8224999452316379  0.3765168479190181  0.7002241024194382
  0.5609094271156422  0.2124967108740940  0.7446874119337029
  0.5625910569517265  0.2067681736625701  0.6112761991103013
  0.8072952562745204  0.8888097369530810  0.8343196764479963
 
  0.00000000E+00  0.00000000E+00  0.00000000E+00
  0.00000000E+00  0.00000000E+00  0.00000000E+00
  0.00000000E+00  0.00000000E+00  0.00000000E+00
  0.00000000E+00  0.00000000E+00  0.00000000E+00
  0.00000000E+00  0.00000000E+00  0.00000000E+00
  0.00000000E+00  0.00000000E+00  0.00000000E+00
  0.00000000E+00  0.00000000E+00  0.00000000E+00
  0.00000000E+00  0.00000000E+00  0.00000000E+00
  0.00000000E+00  0.00000000E+00  0.00000000E+00
  0.00000000E+00  0.00000000E+00  0.00000000E+00
  0.00000000E+00  0.00000000E+00  0.00000000E+00
  0.00000000E+00  0.00000000E+00  0.00000000E+00
  0.00000000E+00  0.00000000E+00  0.00000000E+00
  0.00000000E+00  0.00000000E+00  0.00000000E+00
  0.00000000E+00  0.00000000E+00  0.00000000E+00
  0.00000000E+00  0.00000000E+00  0.00000000E+00
  0.00000000E+00  0.00000000E+00  0.00000000E+00
  0.00000000E+00  0.00000000E+00  0.00000000E+00
  0.00000000E+00  0.00000000E+00  0.00000000E+00
  0.00000000E+00  0.00000000E+00  0.00000000E+00
  0.00000000E+00  0.00000000E+00  0.00000000E+00
  0.00000000E+00  0.00000000E+00  0.00000000E+00
  0.00000000E+00  0.00000000E+00  0.00000000E+00
  0.00000000E+00  0.00000000E+00  0.00000000E+00
  0.00000000E+00  0.00000000E+00  0.00000000E+00
  0.00000000E+00  0.00000000E+00  0.00000000E+00
  0.00000000E+00  0.00000000E+00  0.00000000E+00
  0.00000000E+00  0.00000000E+00  0.00000000E+00
  0.00000000E+00  0.00000000E+00  0.00000000E+00
  0.00000000E+00  0.00000000E+00  0.00000000E+00
  0.00000000E+00  0.00000000E+00  0.00000000E+00
  0.00000000E+00  0.00000000E+00  0.00000000E+00
  0.00000000E+00  0.00000000E+00  0.00000000E+00
  0.00000000E+00  0.00000000E+00  0.00000000E+00
  0.00000000E+00  0.00000000E+00  0.00000000E+00
  0.00000000E+00  0.00000000E+00  0.00000000E+00
  0.00000000E+00  0.00000000E+00  0.00000000E+00
  0.00000000E+00  0.00000000E+00  0.00000000E+00
  0.00000000E+00  0.00000000E+00  0.00000000E+00
  0.00000000E+00  0.00000000E+00  0.00000000E+00
  0.00000000E+00  0.00000000E+00  0.00000000E+00
  0.00000000E+00  0.00000000E+00  0.00000000E+00
  0.00000000E+00  0.00000000E+00  0.00000000E+00
  0.00000000E+00  0.00000000E+00  0.00000000E+00
  0.00000000E+00  0.00000000E+00  0.00000000E+00
  0.00000000E+00  0.00000000E+00  0.00000000E+00
  0.00000000E+00  0.00000000E+00  0.00000000E+00
  0.00000000E+00  0.00000000E+00  0.00000000E+00
  0.00000000E+00  0.00000000E+00  0.00000000E+00
  0.00000000E+00  0.00000000E+00  0.00000000E+00
  0.00000000E+00  0.00000000E+00  0.00000000E+00
  0.00000000E+00  0.00000000E+00  0.00000000E+00
  0.00000000E+00  0.00000000E+00  0.00000000E+00
  0.00000000E+00  0.00000000E+00  0.00000000E+00
  0.00000000E+00  0.00000000E+00  0.00000000E+00
  0.00000000E+00  0.00000000E+00  0.00000000E+00
  0.00000000E+00  0.00000000E+00  0.00000000E+00
  0.00000000E+00  0.00000000E+00  0.00000000E+00
  0.00000000E+00  0.00000000E+00  0.00000000E+00
  0.00000000E+00  0.00000000E+00  0.00000000E+00
  0.00000000E+00  0.00000000E+00  0.00000000E+00
  0.00000000E+00  0.00000000E+00  0.00000000E+00
  0.00000000E+00  0.00000000E+00  0.00000000E+00
  0.00000000E+00  0.00000000E+00  0.00000000E+00
  0.00000000E+00  0.00000000E+00  0.00000000E+00
  0.00000000E+00  0.00000000E+00  0.00000000E+00
  0.00000000E+00  0.00000000E+00  0.00000000E+00
  0.00000000E+00  0.00000000E+00  0.00000000E+00
  0.00000000E+00  0.00000000E+00  0.00000000E+00
  0.00000000E+00  0.00000000E+00  0.00000000E+00
  0.00000000E+00  0.00000000E+00  0.00000000E+00
  0.00000000E+00  0.00000000E+00  0.00000000E+00
  0.00000000E+00  0.00000000E+00  0.00000000E+00
  0.00000000E+00  0.00000000E+00  0.00000000E+00
  0.00000000E+00  0.00000000E+00  0.00000000E+00
  0.00000000E+00  0.00000000E+00  0.00000000E+00
  0.00000000E+00  0.00000000E+00  0.00000000E+00
  0.00000000E+00  0.00000000E+00  0.00000000E+00
  0.00000000E+00  0.00000000E+00  0.00000000E+00
  0.00000000E+00  0.00000000E+00  0.00000000E+00
  0.00000000E+00  0.00000000E+00  0.00000000E+00
  0.00000000E+00  0.00000000E+00  0.00000000E+00
  0.00000000E+00  0.00000000E+00  0.00000000E+00
  0.00000000E+00  0.00000000E+00  0.00000000E+00
  0.00000000E+00  0.00000000E+00  0.00000000E+00
  0.00000000E+00  0.00000000E+00  0.00000000E+00
  0.00000000E+00  0.00000000E+00  0.00000000E+00
  0.00000000E+00  0.00000000E+00  0.00000000E+00
  0.00000000E+00  0.00000000E+00  0.00000000E+00
  0.00000000E+00  0.00000000E+00  0.00000000E+00
  0.00000000E+00  0.00000000E+00  0.00000000E+00
  0.00000000E+00  0.00000000E+00  0.00000000E+00
  0.00000000E+00  0.00000000E+00  0.00000000E+00
  0.00000000E+00  0.00000000E+00  0.00000000E+00
  0.00000000E+00  0.00000000E+00  0.00000000E+00
  0.00000000E+00  0.00000000E+00  0.00000000E+00
  0.00000000E+00  0.00000000E+00  0.00000000E+00
  0.00000000E+00  0.00000000E+00  0.00000000E+00
  0.00000000E+00  0.00000000E+00  0.00000000E+00
  0.00000000E+00  0.00000000E+00  0.00000000E+00
  0.00000000E+00  0.00000000E+00  0.00000000E+00
  0.00000000E+00  0.00000000E+00  0.00000000E+00
  0.00000000E+00  0.00000000E+00  0.00000000E+00
  0.00000000E+00  0.00000000E+00  0.00000000E+00
  0.00000000E+00  0.00000000E+00  0.00000000E+00
  0.00000000E+00  0.00000000E+00  0.00000000E+00
  0.00000000E+00  0.00000000E+00  0.00000000E+00
  0.00000000E+00  0.00000000E+00  0.00000000E+00
  0.00000000E+00  0.00000000E+00  0.00000000E+00
  0.00000000E+00  0.00000000E+00  0.00000000E+00
  0.00000000E+00  0.00000000E+00  0.00000000E+00
  0.00000000E+00  0.00000000E+00  0.00000000E+00
  0.00000000E+00  0.00000000E+00  0.00000000E+00
  0.00000000E+00  0.00000000E+00  0.00000000E+00
  0.00000000E+00  0.00000000E+00  0.00000000E+00
  0.00000000E+00  0.00000000E+00  0.00000000E+00
  0.00000000E+00  0.00000000E+00  0.00000000E+00
  0.00000000E+00  0.00000000E+00  0.00000000E+00
  0.00000000E+00  0.00000000E+00  0.00000000E+00
  0.00000000E+00  0.00000000E+00  0.00000000E+00
  0.00000000E+00  0.00000000E+00  0.00000000E+00
  0.00000000E+00  0.00000000E+00  0.00000000E+00
  0.00000000E+00  0.00000000E+00  0.00000000E+00
  0.00000000E+00  0.00000000E+00  0.00000000E+00
  0.00000000E+00  0.00000000E+00  0.00000000E+00
  0.00000000E+00  0.00000000E+00  0.00000000E+00
  0.00000000E+00  0.00000000E+00  0.00000000E+00
  0.00000000E+00  0.00000000E+00  0.00000000E+00
  0.00000000E+00  0.00000000E+00  0.00000000E+00
  0.00000000E+00  0.00000000E+00  0.00000000E+00
  0.00000000E+00  0.00000000E+00  0.00000000E+00
  0.00000000E+00  0.00000000E+00  0.00000000E+00
  0.00000000E+00  0.00000000E+00  0.00000000E+00
  0.00000000E+00  0.00000000E+00  0.00000000E+00
  0.00000000E+00  0.00000000E+00  0.00000000E+00
  0.00000000E+00  0.00000000E+00  0.00000000E+00
  0.00000000E+00  0.00000000E+00  0.00000000E+00
  0.00000000E+00  0.00000000E+00  0.00000000E+00
  0.00000000E+00  0.00000000E+00  0.00000000E+00
  0.00000000E+00  0.00000000E+00  0.00000000E+00
  0.00000000E+00  0.00000000E+00  0.00000000E+00
  0.00000000E+00  0.00000000E+00  0.00000000E+00
  0.00000000E+00  0.00000000E+00  0.00000000E+00
  0.00000000E+00  0.00000000E+00  0.00000000E+00
  0.00000000E+00  0.00000000E+00  0.00000000E+00
  0.00000000E+00  0.00000000E+00  0.00000000E+00
  0.00000000E+00  0.00000000E+00  0.00000000E+00
  0.00000000E+00  0.00000000E+00  0.00000000E+00
  0.00000000E+00  0.00000000E+00  0.00000000E+00
  0.00000000E+00  0.00000000E+00  0.00000000E+00
  0.00000000E+00  0.00000000E+00  0.00000000E+00
  0.00000000E+00  0.00000000E+00  0.00000000E+00
  0.00000000E+00  0.00000000E+00  0.00000000E+00
  0.00000000E+00  0.00000000E+00  0.00000000E+00
  0.00000000E+00  0.00000000E+00  0.00000000E+00
  0.00000000E+00  0.00000000E+00  0.00000000E+00
  0.00000000E+00  0.00000000E+00  0.00000000E+00
  0.00000000E+00  0.00000000E+00  0.00000000E+00
  0.00000000E+00  0.00000000E+00  0.00000000E+00
  0.00000000E+00  0.00000000E+00  0.00000000E+00
  0.00000000E+00  0.00000000E+00  0.00000000E+00
  0.00000000E+00  0.00000000E+00  0.00000000E+00
  0.00000000E+00  0.00000000E+00  0.00000000E+00
  0.00000000E+00  0.00000000E+00  0.00000000E+00
  0.00000000E+00  0.00000000E+00  0.00000000E+00
  0.00000000E+00  0.00000000E+00  0.00000000E+00
  0.00000000E+00  0.00000000E+00  0.00000000E+00
  0.00000000E+00  0.00000000E+00  0.00000000E+00
  0.00000000E+00  0.00000000E+00  0.00000000E+00
  0.00000000E+00  0.00000000E+00  0.00000000E+00
  0.00000000E+00  0.00000000E+00  0.00000000E+00
  0.00000000E+00  0.00000000E+00  0.00000000E+00
  0.00000000E+00  0.00000000E+00  0.00000000E+00
  0.00000000E+00  0.00000000E+00  0.00000000E+00
  0.00000000E+00  0.00000000E+00  0.00000000E+00
  0.00000000E+00  0.00000000E+00  0.00000000E+00
  0.00000000E+00  0.00000000E+00  0.00000000E+00
  0.00000000E+00  0.00000000E+00  0.00000000E+00
  0.00000000E+00  0.00000000E+00  0.00000000E+00
  0.00000000E+00  0.00000000E+00  0.00000000E+00
  0.00000000E+00  0.00000000E+00  0.00000000E+00
  0.00000000E+00  0.00000000E+00  0.00000000E+00
  0.00000000E+00  0.00000000E+00  0.00000000E+00
  0.00000000E+00  0.00000000E+00  0.00000000E+00
  0.00000000E+00  0.00000000E+00  0.00000000E+00
  0.00000000E+00  0.00000000E+00  0.00000000E+00
  0.00000000E+00  0.00000000E+00  0.00000000E+00
  0.00000000E+00  0.00000000E+00  0.00000000E+00
  0.00000000E+00  0.00000000E+00  0.00000000E+00
  0.00000000E+00  0.00000000E+00  0.00000000E+00
  0.00000000E+00  0.00000000E+00  0.00000000E+00
  0.00000000E+00  0.00000000E+00  0.00000000E+00
  0.00000000E+00  0.00000000E+00  0.00000000E+00
  0.00000000E+00  0.00000000E+00  0.00000000E+00
  0.00000000E+00  0.00000000E+00  0.00000000E+00
  0.00000000E+00  0.00000000E+00  0.00000000E+00
  0.00000000E+00  0.00000000E+00  0.00000000E+00
  0.00000000E+00  0.00000000E+00  0.00000000E+00
  0.00000000E+00  0.00000000E+00  0.00000000E+00
  0.00000000E+00  0.00000000E+00  0.00000000E+00
  0.00000000E+00  0.00000000E+00  0.00000000E+00
  0.00000000E+00  0.00000000E+00  0.00000000E+00
  0.00000000E+00  0.00000000E+00  0.00000000E+00
  0.00000000E+00  0.00000000E+00  0.00000000E+00
  0.00000000E+00  0.00000000E+00  0.00000000E+00
  0.00000000E+00  0.00000000E+00  0.00000000E+00
  0.00000000E+00  0.00000000E+00  0.00000000E+00
  0.00000000E+00  0.00000000E+00  0.00000000E+00
  0.00000000E+00  0.00000000E+00  0.00000000E+00
  0.00000000E+00  0.00000000E+00  0.00000000E+00
  0.00000000E+00  0.00000000E+00  0.00000000E+00
  0.00000000E+00  0.00000000E+00  0.00000000E+00
  0.00000000E+00  0.00000000E+00  0.00000000E+00
  0.00000000E+00  0.00000000E+00  0.00000000E+00
  0.00000000E+00  0.00000000E+00  0.00000000E+00
  0.00000000E+00  0.00000000E+00  0.00000000E+00
  0.00000000E+00  0.00000000E+00  0.00000000E+00
  0.00000000E+00  0.00000000E+00  0.00000000E+00
  0.00000000E+00  0.00000000E+00  0.00000000E+00
  0.00000000E+00  0.00000000E+00  0.00000000E+00
  0.00000000E+00  0.00000000E+00  0.00000000E+00
  0.00000000E+00  0.00000000E+00  0.00000000E+00
  0.00000000E+00  0.00000000E+00  0.00000000E+00
  0.00000000E+00  0.00000000E+00  0.00000000E+00
  0.00000000E+00  0.00000000E+00  0.00000000E+00
  0.00000000E+00  0.00000000E+00  0.00000000E+00
  0.00000000E+00  0.00000000E+00  0.00000000E+00
  0.00000000E+00  0.00000000E+00  0.00000000E+00
  0.00000000E+00  0.00000000E+00  0.00000000E+00
  0.00000000E+00  0.00000000E+00  0.00000000E+00
  0.00000000E+00  0.00000000E+00  0.00000000E+00
  0.00000000E+00  0.00000000E+00  0.00000000E+00
  0.00000000E+00  0.00000000E+00  0.00000000E+00
  0.00000000E+00  0.00000000E+00  0.00000000E+00
  0.00000000E+00  0.00000000E+00  0.00000000E+00
  0.00000000E+00  0.00000000E+00  0.00000000E+00
  0.00000000E+00  0.00000000E+00  0.00000000E+00
  0.00000000E+00  0.00000000E+00  0.00000000E+00
  0.00000000E+00  0.00000000E+00  0.00000000E+00
  0.00000000E+00  0.00000000E+00  0.00000000E+00
  0.00000000E+00  0.00000000E+00  0.00000000E+00
  0.00000000E+00  0.00000000E+00  0.00000000E+00
  0.00000000E+00  0.00000000E+00  0.00000000E+00
  0.00000000E+00  0.00000000E+00  0.00000000E+00
  0.00000000E+00  0.00000000E+00  0.00000000E+00
  0.00000000E+00  0.00000000E+00  0.00000000E+00
  0.00000000E+00  0.00000000E+00  0.00000000E+00