FeMn_288_15                             
    1.000000000000000     
     9.7266779999999997    0.0000000000000000    0.0000000000000000
     0.0000000000000000    8.4235500000000005    0.0000000000000000
     0.0000000000000000    0.0000000000000000   45.0000000000000000
   Fe   Mn
   273    15
Direct
  0.5621863519527658  0.3721957665504330  0.5213244991573797
  0.3127528147721442  0.8717820954085107  0.4349093530928091
  0.6870862055267458  0.9573273407974119  0.6981360775182943
  0.5629087378278256  0.2035607092659665  0.2137281684703603
  0.6870607269578760  0.4571241312198935  0.6981569694729743
  0.9377345942177271  0.2867239210557528  0.2577362249140295
  0.9374902815214302  0.7867256657508470  0.2576832425018011
  0.8126461971333494  0.5399882248462732  0.6099010780053037
  0.6876009206642322  0.1218155284912819  0.4347470923869314
  0.3124395664185454  0.0399165682997333  0.6097731561447560
  0.1878241157833658  0.4563356803544554  0.5652982282135182
  0.4375117447280346  0.1216562896124786  0.4348301369710834
  0.0624871058920419  0.5400054218442925  0.6097749146787783
  0.1875429528606360  0.1239007525981851  0.6536019664550502
  0.9375540945468662  0.4534045269163037  0.2135552418272034
  0.4372255879372970  0.4562650981360336  0.5650684352091166
  0.6874433055929621  0.6202779844189114  0.3018428080182484
  0.6872704715534121  0.9561435559253730  0.5650989621395937
  0.6873716989355944  0.6223661706252264  0.5213222157314394
  0.6876219675494492  0.9544484999723544  0.3463185204345330
  0.0626838967628252  0.2075396641565462  0.8314622253853854
  0.1875603701890050  0.9553281995147720  0.4785990964858286
  0.9364347381918808  0.2914803992370411  0.8734493716037121
  0.8125976512834597  0.3737163654559387  0.6536604320313467
  0.8124314692861565  0.8745022629912935  0.7865416535119291
  0.6872920452008603  0.2877311900428599  0.3901322857604378
  0.6879430713084677  0.7910805072847020  0.7423362766314872
  0.8125319530902363  0.5362256657610567  0.1266338046468177
  0.1875072235947777  0.9559106138078135  0.5652055728404216
  0.6882067119105232  0.2908735487285218  0.7422774707028872
  0.5625788980164822  0.2073718335444735  0.6980801660778547
  0.1869976363828077  0.2911343340551868  0.7422233042675915
  0.9374154065062336  0.7882915620061555  0.3900839314737976
  0.6874368836454706  0.2865241466798306  0.2577471821786757
  0.1875067909108110  0.7870340354221333  0.2577452567734400
  0.6871579446227032  0.4556488444822464  0.4786578183590937
  0.1875428834269679  0.2874570089250367  0.3901384259362898
  0.0623811575331427  0.8744385034566790  0.7864687041142429
  0.1871463427723406  0.4534293484804098  0.2135339287742825
  0.5627331744269762  0.7079735150733749  0.6981595656439661
  0.0624026032394783  0.3707147440111683  0.3018566107150878
  0.5621367679034124  0.8736807608472953  0.6537407456411779
  0.4373735149311428  0.9585104556727148  0.8313649720797094
  0.5626022658803427  0.2060880336697340  0.5651089359740720
  0.5624795001748439  0.5365453105524453  0.1266019708964133
  0.9373505897188763  0.1198779391973904  0.1688909026780262
  0.5625525415239535  0.0412349492541865  0.7423433221386657
  0.9372197212376894  0.1228216338817562  0.5212624595610358
  0.5625391238206913  0.5422449085104490  0.8734253161775706
  0.9374081337995952  0.7903673556912842  0.6096825138371175
  0.5626616678423506  0.7054071260148821  0.4785668835768042
  0.9372018451318035  0.7913168856276556  0.8734565826587601
  0.4374650375724286  0.6192905084954697  0.1688631252186182
  0.9378333611399917  0.6236727378969961  0.6537445144695390
  0.9373161679390000  0.9532237032466933  0.2135242981470966
  0.3124715649458525  0.2076932675793828  0.6981021956012831
  0.5616830908834535  0.8701591883832684  0.1686438160602981
  0.4377739474200585  0.1201692551097508  0.3018255918271493
  0.1877647302737868  0.1224916645137059  0.5213139441333777
  0.1874995831828056  0.7876261010895996  0.3902434083501704
  0.6877202519502873  0.7898709347102342  0.6096611474588028
  0.5626224592802512  0.0397456625472277  0.6098192301272356
  0.0629735120912342  0.3737823108066867  0.6536275412488012
  0.0622696560689296  0.2037314316124403  0.2137338704927881
  0.5626075820493849  0.7061581538852764  0.5650735290427251
  0.4377143842164855  0.2878271846567945  0.3902567050459714
  0.6871326228529300  0.6248680312787457  0.7865248424997472
  0.8125881775802253  0.8697580344093486  0.1688134005809138
  0.3122296062143951  0.3714686661302116  0.4348086207905527
  0.1875229022662381  0.2873460817729825  0.1266345268481996
  0.5625441651136374  0.7032213982363043  0.2136177734042948
  0.1877852129904951  0.9576593894966391  0.6981110054750952
  0.5622326063753799  0.8744539217626868  0.7864571450189058
  0.0624986648180757  0.2077416859984233  0.6981810282763355
  0.1874087382795900  0.6243764003389337  0.7864809831921473
  0.4376375077726370  0.1224922338753561  0.5213151312915835
  0.0624681359477116  0.0369545379597428  0.2576846147787641
  0.8123835396405520  0.0400185217066099  0.6097822887189307
  0.8125785637469440  0.3707816995526554  0.3018922330492659
  0.5624448814427722  0.3703918497276062  0.3018701630124657
  0.0626071924560190  0.2040420136686155  0.3462297131220785
  0.0624985959829036  0.7064032779489203  0.5651672993138342
  0.3123928304282269  0.7027559741494730  0.2136841750632004
  0.5624787847038424  0.2077747123175646  0.8312456050012595
  0.3128166391134093  0.0376894527938328  0.3901768808193131
  0.4372009590474666  0.2915095420288522  0.8735626846718499
  0.1877040302301544  0.4540686682145864  0.3461999604231525
  0.1873015063938648  0.6217973291202610  0.4348258190156797
  0.4373643412982350  0.7896396540855637  0.6098477458409344
  0.6873256426804288  0.1246818255170126  0.7865071038623674
  0.3123344353099394  0.8745048633166534  0.7865068890334360
  0.8125662473131570  0.7062108861804157  0.5652488296531534
  0.5626194285419464  0.2044047027302878  0.3463377799955357
  0.9377205738823948  0.9539022984852604  0.3462568421578016
  0.9376753210179248  0.6219033900269972  0.4347693862550929
  0.6876716454212973  0.7912715226204092  0.8734088543152013
  0.1876702930104193  0.9539993473660203  0.3462831225466766
  0.3125123184038117  0.2032770372620042  0.2135631092490537
  0.1873052437021862  0.9590479817115868  0.8313513533656197
  0.4380403569597920  0.1241669608353041  0.7863178493497607
  0.4375586861368390  0.4541471558714377  0.3462349498101766
  0.8125557824823106  0.0364844977966465  0.2577048871875942
  0.3125310280274188  0.5401225131793417  0.6096921834363210
  0.1878373153237774  0.4579169740353387  0.6980155997713121
  0.3128340939422055  0.2056634375316932  0.4785705955083562
  0.5620928250640223  0.8721544333050233  0.5213400426369060
  0.8128218067057364  0.3714199884028082  0.4347857095528027
  0.3127912279878752  0.5414587953593775  0.7422652807706132
  0.9376471173993586  0.7859900473565472  0.1265204933674209
  0.1870598701809869  0.7904329729311572  0.8734149619126064
  0.9375406146452159  0.2879069925947383  0.3903315319763510
  0.3127192844136343  0.7063318137496601  0.5650750887820534
  0.6877611698742967  0.1205152854844254  0.3019359109757805
  0.9375718392476303  0.2866951492111134  0.1266978693961738
  0.4376731548492135  0.9577259111345434  0.6980365145917409
  0.5624251065464845  0.8699690500201878  0.3018333439181814
  0.5630858681737215  0.0357523230324835  0.1265716779351101
  0.0625960906624137  0.5371236986682836  0.2576959919159256
  0.4376100797023245  0.7878312463140612  0.3902003526751558
  0.1881155045676287  0.1191654526716601  0.1687044147277833
  0.8123745547531356  0.5365631582984799  0.2576984149013986
  0.0627824296720401  0.0413258997795913  0.7423968462739094
  0.0623294527413507  0.5363720956820534  0.1265852312279148
  0.4376711634771612  0.7868468696797282  0.2577210560032869
  0.8121275730025289  0.2049832122728034  0.4785315398232045
  0.1877332459496359  0.4580450210682439  0.8313695119816128
  0.4375068738910819  0.4533730569412675  0.2136498101447958
  0.5627474924032102  0.2050788925951139  0.4785448998770189
  0.0626725977023772  0.8717212001815841  0.4347603221400081
  0.5621980079090603  0.3746461970601211  0.7864434339239750
  0.0622913520562863  0.3697225410227175  0.1688636582484360
  0.1882635991054575  0.4558242850470542  0.4785737369498144
  0.4378214969625550  0.6221991505989743  0.5213758456544083
  0.0616838841125323  0.0359726841899551  0.1266262398496427
  0.9372262857976105  0.9572657636458897  0.6980573651557039
  0.4373102187601559  0.9562462551256921  0.5650729523120660
  0.5623772462054570  0.8714099459752901  0.4347213172757991
  0.1876309685060452  0.7901805923840887  0.6097115138139898
  0.4373177516970141  0.9544776293296522  0.3462989437451834
  0.6874353293776684  0.7866604650282191  0.2577377360864990
  0.3123436882141676  0.5377643677439482  0.3901447189814976
  0.9371975746055362  0.6204541097976458  0.3018079104600015
  0.3122148027478704  0.5411913771583263  0.8734866634790343
  0.8123085197390650  0.0378067359194116  0.3900764663803549
  0.3127545108852558  0.3737007091137653  0.6535569818374961
  0.4374780773866627  0.6238578329423138  0.6537231086535382
  0.6877118839356865  0.1200195669555384  0.1688616764173281
  0.9375715905631192  0.1239457800658217  0.6537083453424228
  0.3125660534209793  0.8703692986898577  0.1685422080464940
  0.6877271434243357  0.6235059819480003  0.6536614480776756
  0.3123459107476338  0.3723549113855532  0.5213405278854193
  0.5630630314327154  0.7078375600167921  0.8312143128118147
  0.8126072801540630  0.2061039469192192  0.5652543618402767
  0.6880527015072491  0.2912102021416992  0.8734451610821244
  0.4374958922713876  0.6217143734953305  0.4348537407003536
  0.0620567868139577  0.7082505344744370  0.8312950360486192
  0.0620930314742442  0.7076020299681216  0.6980854641983770
  0.8121686646600516  0.7049148441541143  0.4785768039450286
  0.0624741785528978  0.8705021650994431  0.3018022187275209
  0.8122518144096111  0.8719120982397919  0.4351165686072369
  0.6876198767412303  0.9582042296190119  0.8312297954567373
  0.0629491080362841  0.3726572864450963  0.5212289655625919
  0.0627606258547941  0.0415593800303545  0.8734523378118638
  0.5625753613206472  0.0415757872255735  0.8734341776937613
  0.0623734257244231  0.5379755888647849  0.3901319273490005
  0.3124818933291316  0.8725847037256358  0.5213609619377396
  0.4374683157952814  0.2879139160464673  0.1266057728257892
  0.8122110398543680  0.0409226270527966  0.7422680645152985
  0.8122252054775660  0.7041446228084551  0.3462503994057953
  0.4376392461269388  0.7911413987014283  0.8733226322178245
  0.6878378201270740  0.9531359130101200  0.2136119620419983
  0.8124080327287880  0.2069768521646834  0.6981572826881597
  0.8123789924773176  0.2033891473194321  0.2136140605821763
  0.5626720320295864  0.3697882952971292  0.1688659807245259
  0.9380099831536123  0.9558272979528034  0.5651935665106890
  0.9377844971134299  0.4561396477630387  0.5648979077844692
  0.8121255150219552  0.0412889266484888  0.8733709635109167
  0.0625931478984109  0.7030617099312334  0.2135819183253883
  0.3128794840685142  0.2042269420952267  0.3463150311923249
  0.5625675732990500  0.5378195589426575  0.3901753577803878
  0.3124523129863264  0.7083210640146752  0.8312982516860382
  0.6875466567098549  0.4539895250546201  0.3462280346181698
  0.3125036663482654  0.8737730066614056  0.6536459822202417
  0.6874949039901737  0.2899318989062460  0.6097164872081178
  0.6874098061108824  0.2867514566307591  0.1267175702163116
  0.3123269312745147  0.8703629462825399  0.3018883792462922
  0.4374292167189157  0.4577071216931903  0.6981491665539936
  0.3121082310141229  0.0418973767590250  0.8736861215188593
  0.1870191583818788  0.7914016246593546  0.7423697860524107
  0.1875583744655869  0.2869345673157062  0.2577790337588212
  0.9377851350482121  0.6226828616009579  0.5213646052760057
  0.8124551761662462  0.2086131660671600  0.8312884372851511
  0.3127605952642354  0.7039218038004527  0.3462610084831840
  0.1872341225952582  0.6232121426141529  0.6536637161314208
  0.5625406869725602  0.0377345471211468  0.3901716507994765
  0.6875039484574478  0.7879642455064474  0.3901556398705400
  0.4373142851481360  0.4555898893338161  0.4785646687821865
  0.8126112249688837  0.0364833908320471  0.1266318194981237
  0.1879116191240307  0.1215520095098492  0.4348044109947360
  0.9375546889799895  0.2912932622932384  0.7423283221119730
  0.4368725712558246  0.4576147181576922  0.8313060186708315
  0.4378502245302227  0.6198761499491748  0.3019306497202909
  0.3122941567444977  0.7079740737150751  0.6981223371784819
  0.3128010971933337  0.0416789801093423  0.7422379847600717
  0.0628475512193386  0.8724455340080097  0.5213409042746274
  0.0629554933251865  0.8741540076930778  0.6536536976930085
  0.8125910411936768  0.7073640261343884  0.6982022464999759
  0.5624981775152696  0.0363202384468042  0.2577514126868701
  0.0627258858321262  0.7055743116123437  0.4786029272445533
  0.8125506088240376  0.3721860353580212  0.5212766970612165
  0.9372323127931907  0.9576961020314171  0.8311680033374512
  0.9372481809568596  0.1207715779888539  0.3018164660565683
  0.8127006687615712  0.3751478500074552  0.7864879359327145
  0.3126675085785998  0.7054490395381998  0.4786519410212565
  0.5625133168812465  0.5365442216259543  0.2576844283712381
  0.8125332465113594  0.3698126205809231  0.1688678545992341
  0.1875290342675818  0.6193032326087909  0.1688338866062853
  0.8120872184864639  0.2041096817036840  0.3461948132584086
  0.6878020672016880  0.4533989596200829  0.2136355358875333
  0.5622512711812357  0.3738258521626910  0.6537021683073089
  0.3125951785508881  0.5368708597425094  0.2576312004872603
  0.9369827786855524  0.6244378588288757  0.7865034104030150
  0.1872315450345680  0.6222560230047786  0.5213577711005569
  0.4374170186819166  0.9552839247745473  0.4785863761619013
  0.9373882349679910  0.4582477449414911  0.8313098590872304
  0.6876905721562595  0.1228810116290192  0.5214116572064302
  0.0625213979077032  0.5419711735492682  0.8733986694071290
  0.8123942266749257  0.5407196658255701  0.7423548495393456
  0.8124882637952414  0.7030979169830733  0.2135159044936338
  0.3125473737771122  0.3692116583028514  0.1686434481857966
  0.4377147341872190  0.1242125134749721  0.6535434142783120
  0.8121808970978190  0.5414087960300993  0.8734846565902787
  0.0630063768471594  0.8697953102516273  0.1686297817119913
  0.3123098833632466  0.3747858891164579  0.7863958571307492
  0.9375437859024900  0.6198366363957044  0.1687997568085525
  0.9371478183921956  0.1242186620105231  0.7865698278231071
  0.0626618034306465  0.0404775772712256  0.6098906758429701
  0.9373532453269331  0.4541776292996160  0.3462586409139819
  0.9374064013368869  0.7907244657368711  0.7422024452015556
  0.9375272836746381  0.2902588822296161  0.6097874465923936
  0.3126260738969019  0.3699933963388119  0.3018807846406434
  0.0624602050243821  0.2058585115595523  0.5649027723110412
  0.6874729466839298  0.1232997550592038  0.6537278384364085
  0.4373378433779133  0.2864682409502401  0.2577386183501165
  0.6874884764377407  0.6200046747607396  0.1688278641897475
  0.8121998506800329  0.7083391105963380  0.8312882027327081
  0.6870916032071044  0.9554638242884127  0.4786403793163939
  0.5625729986693490  0.7042294037021335  0.3463060887875858
  0.5626913587702210  0.5412785116444484  0.7422866449335696
  0.1875697929671657  0.6203538379424051  0.3018226238169446
  0.8128294660112070  0.5380091722699712  0.3901850136939272
  0.1878496495341512  0.2907716727556033  0.8737106658017539
  0.1872218951038332  0.9532533195251376  0.2135217693370056
  0.1862264295036949  0.7862908202446768  0.1265337417751559
  0.4375928368454493  0.2899057972630062  0.6098052511418867
  0.6875832887521326  0.4585818412620401  0.8313830640476976
  0.3125852400834547  0.0367580851316518  0.2576866513128964
  0.3126924521410123  0.2061453337532244  0.5652174115017828
  0.9378000554336040  0.9551053490208120  0.4786157847444782
  0.5624804053344427  0.5399684526250076  0.6097562603804666
  0.6875913541793244  0.6214760450245468  0.4346718781958014
  0.0624765302174954  0.0379462301436993  0.3901462073391810
  0.4384262666831002  0.7866310531506244  0.1265478646909262
  0.3126340044576658  0.5365494682001219  0.1265835400527762
  0.4377571349528988  0.6244034017530621  0.7864285470530646
  0.0622897066612852  0.3745025011034845  0.7865230518759803
  0.5624044384319344  0.3714645503600388  0.4348017047203363
  0.9372666701589549  0.1218497111361029  0.4347194319898872
  0.0626993162062826  0.3715179683539316  0.4348781861183961
  0.4370403683286547  0.1191739332768132  0.1686386579098270
  0.8126897375779186  0.8701380751731379  0.3018199033098797
  0.1875172637203081  0.2898639120958491  0.6096357075702081
  0.6876980558523919  0.7858316488094766  0.1265150306926371
  0.4375398288166278  0.7915066428515239  0.7423605596164956
  0.1869366128716444  0.1240942819363318  0.7860113844166045
  0.6871107765518319  0.4560691122986044  0.5651718283623850
  0.4375652278329231  0.9531794254849693  0.2137216414335938
  0.0624907290908466  0.2048003176232322  0.4786074375289255
  0.0628736787527891  0.5414578319564251  0.7425232612216518
  0.3124211745695675  0.2082476979981485  0.8321202962088297
  0.9370664486629425  0.4570446861112814  0.6979882529240451
  0.9370641009961203  0.4558101520495803  0.4785854329718008
  0.1872737152103773  0.1205700699083960  0.3019067777516927
  0.8125206859150838  0.8724927975578290  0.5212672839684118
  0.3126857971227784  0.0364857411346613  0.1267585420934802
  0.0625641389982834  0.7039305985877988  0.3463718058379450
  0.4370412892487394  0.2906840926543022  0.7424001946543042
  0.8126705759713740  0.8738551297484399  0.6536752844222090
 
  0.00000000E+00  0.00000000E+00  0.00000000E+00
  0.00000000E+00  0.00000000E+00  0.00000000E+00
  0.00000000E+00  0.00000000E+00  0.00000000E+00
  0.00000000E+00  0.00000000E+00  0.00000000E+00
  0.00000000E+00  0.00000000E+00  0.00000000E+00
  0.00000000E+00  0.00000000E+00  0.00000000E+00
  0.00000000E+00  0.00000000E+00  0.00000000E+00
  0.00000000E+00  0.00000000E+00  0.00000000E+00
  0.00000000E+00  0.00000000E+00  0.00000000E+00
  0.00000000E+00  0.00000000E+00  0.00000000E+00
  0.00000000E+00  0.00000000E+00  0.00000000E+00
  0.00000000E+00  0.00000000E+00  0.00000000E+00
  0.00000000E+00  0.00000000E+00  0.00000000E+00
  0.00000000E+00  0.00000000E+00  0.00000000E+00
  0.00000000E+00  0.00000000E+00  0.00000000E+00
  0.00000000E+00  0.00000000E+00  0.00000000E+00
  0.00000000E+00  0.00000000E+00  0.00000000E+00
  0.00000000E+00  0.00000000E+00  0.00000000E+00
  0.00000000E+00  0.00000000E+00  0.00000000E+00
  0.00000000E+00  0.00000000E+00  0.00000000E+00
  0.00000000E+00  0.00000000E+00  0.00000000E+00
  0.00000000E+00  0.00000000E+00  0.00000000E+00
  0.00000000E+00  0.00000000E+00  0.00000000E+00
  0.00000000E+00  0.00000000E+00  0.00000000E+00
  0.00000000E+00  0.00000000E+00  0.00000000E+00
  0.00000000E+00  0.00000000E+00  0.00000000E+00
  0.00000000E+00  0.00000000E+00  0.00000000E+00
  0.00000000E+00  0.00000000E+00  0.00000000E+00
  0.00000000E+00  0.00000000E+00  0.00000000E+00
  0.00000000E+00  0.00000000E+00  0.00000000E+00
  0.00000000E+00  0.00000000E+00  0.00000000E+00
  0.00000000E+00  0.00000000E+00  0.00000000E+00
  0.00000000E+00  0.00000000E+00  0.00000000E+00
  0.00000000E+00  0.00000000E+00  0.00000000E+00
  0.00000000E+00  0.00000000E+00  0.00000000E+00
  0.00000000E+00  0.00000000E+00  0.00000000E+00
  0.00000000E+00  0.00000000E+00  0.00000000E+00
  0.00000000E+00  0.00000000E+00  0.00000000E+00
  0.00000000E+00  0.00000000E+00  0.00000000E+00
  0.00000000E+00  0.00000000E+00  0.00000000E+00
  0.00000000E+00  0.00000000E+00  0.00000000E+00
  0.00000000E+00  0.00000000E+00  0.00000000E+00
  0.00000000E+00  0.00000000E+00  0.00000000E+00
  0.00000000E+00  0.00000000E+00  0.00000000E+00
  0.00000000E+00  0.00000000E+00  0.00000000E+00
  0.00000000E+00  0.00000000E+00  0.00000000E+00
  0.00000000E+00  0.00000000E+00  0.00000000E+00
  0.00000000E+00  0.00000000E+00  0.00000000E+00
  0.00000000E+00  0.00000000E+00  0.00000000E+00
  0.00000000E+00  0.00000000E+00  0.00000000E+00
  0.00000000E+00  0.00000000E+00  0.00000000E+00
  0.00000000E+00  0.00000000E+00  0.00000000E+00
  0.00000000E+00  0.00000000E+00  0.00000000E+00
  0.00000000E+00  0.00000000E+00  0.00000000E+00
  0.00000000E+00  0.00000000E+00  0.00000000E+00
  0.00000000E+00  0.00000000E+00  0.00000000E+00
  0.00000000E+00  0.00000000E+00  0.00000000E+00
  0.00000000E+00  0.00000000E+00  0.00000000E+00
  0.00000000E+00  0.00000000E+00  0.00000000E+00
  0.00000000E+00  0.00000000E+00  0.00000000E+00
  0.00000000E+00  0.00000000E+00  0.00000000E+00
  0.00000000E+00  0.00000000E+00  0.00000000E+00
  0.00000000E+00  0.00000000E+00  0.00000000E+00
  0.00000000E+00  0.00000000E+00  0.00000000E+00
  0.00000000E+00  0.00000000E+00  0.00000000E+00
  0.00000000E+00  0.00000000E+00  0.00000000E+00
  0.00000000E+00  0.00000000E+00  0.00000000E+00
  0.00000000E+00  0.00000000E+00  0.00000000E+00
  0.00000000E+00  0.00000000E+00  0.00000000E+00
  0.00000000E+00  0.00000000E+00  0.00000000E+00
  0.00000000E+00  0.00000000E+00  0.00000000E+00
  0.00000000E+00  0.00000000E+00  0.00000000E+00
  0.00000000E+00  0.00000000E+00  0.00000000E+00
  0.00000000E+00  0.00000000E+00  0.00000000E+00
  0.00000000E+00  0.00000000E+00  0.00000000E+00
  0.00000000E+00  0.00000000E+00  0.00000000E+00
  0.00000000E+00  0.00000000E+00  0.00000000E+00
  0.00000000E+00  0.00000000E+00  0.00000000E+00
  0.00000000E+00  0.00000000E+00  0.00000000E+00
  0.00000000E+00  0.00000000E+00  0.00000000E+00
  0.00000000E+00  0.00000000E+00  0.00000000E+00
  0.00000000E+00  0.00000000E+00  0.00000000E+00
  0.00000000E+00  0.00000000E+00  0.00000000E+00
  0.00000000E+00  0.00000000E+00  0.00000000E+00
  0.00000000E+00  0.00000000E+00  0.00000000E+00
  0.00000000E+00  0.00000000E+00  0.00000000E+00
  0.00000000E+00  0.00000000E+00  0.00000000E+00
  0.00000000E+00  0.00000000E+00  0.00000000E+00
  0.00000000E+00  0.00000000E+00  0.00000000E+00
  0.00000000E+00  0.00000000E+00  0.00000000E+00
  0.00000000E+00  0.00000000E+00  0.00000000E+00
  0.00000000E+00  0.00000000E+00  0.00000000E+00
  0.00000000E+00  0.00000000E+00  0.00000000E+00
  0.00000000E+00  0.00000000E+00  0.00000000E+00
  0.00000000E+00  0.00000000E+00  0.00000000E+00
  0.00000000E+00  0.00000000E+00  0.00000000E+00
  0.00000000E+00  0.00000000E+00  0.00000000E+00
  0.00000000E+00  0.00000000E+00  0.00000000E+00
  0.00000000E+00  0.00000000E+00  0.00000000E+00
  0.00000000E+00  0.00000000E+00  0.00000000E+00
  0.00000000E+00  0.00000000E+00  0.00000000E+00
  0.00000000E+00  0.00000000E+00  0.00000000E+00
  0.00000000E+00  0.00000000E+00  0.00000000E+00
  0.00000000E+00  0.00000000E+00  0.00000000E+00
  0.00000000E+00  0.00000000E+00  0.00000000E+00
  0.00000000E+00  0.00000000E+00  0.00000000E+00
  0.00000000E+00  0.00000000E+00  0.00000000E+00
  0.00000000E+00  0.00000000E+00  0.00000000E+00
  0.00000000E+00  0.00000000E+00  0.00000000E+00
  0.00000000E+00  0.00000000E+00  0.00000000E+00
  0.00000000E+00  0.00000000E+00  0.00000000E+00
  0.00000000E+00  0.00000000E+00  0.00000000E+00
  0.00000000E+00  0.00000000E+00  0.00000000E+00
  0.00000000E+00  0.00000000E+00  0.00000000E+00
  0.00000000E+00  0.00000000E+00  0.00000000E+00
  0.00000000E+00  0.00000000E+00  0.00000000E+00
  0.00000000E+00  0.00000000E+00  0.00000000E+00
  0.00000000E+00  0.00000000E+00  0.00000000E+00
  0.00000000E+00  0.00000000E+00  0.00000000E+00
  0.00000000E+00  0.00000000E+00  0.00000000E+00
  0.00000000E+00  0.00000000E+00  0.00000000E+00
  0.00000000E+00  0.00000000E+00  0.00000000E+00
  0.00000000E+00  0.00000000E+00  0.00000000E+00
  0.00000000E+00  0.00000000E+00  0.00000000E+00
  0.00000000E+00  0.00000000E+00  0.00000000E+00
  0.00000000E+00  0.00000000E+00  0.00000000E+00
  0.00000000E+00  0.00000000E+00  0.00000000E+00
  0.00000000E+00  0.00000000E+00  0.00000000E+00
  0.00000000E+00  0.00000000E+00  0.00000000E+00
  0.00000000E+00  0.00000000E+00  0.00000000E+00
  0.00000000E+00  0.00000000E+00  0.00000000E+00
  0.00000000E+00  0.00000000E+00  0.00000000E+00
  0.00000000E+00  0.00000000E+00  0.00000000E+00
  0.00000000E+00  0.00000000E+00  0.00000000E+00
  0.00000000E+00  0.00000000E+00  0.00000000E+00
  0.00000000E+00  0.00000000E+00  0.00000000E+00
  0.00000000E+00  0.00000000E+00  0.00000000E+00
  0.00000000E+00  0.00000000E+00  0.00000000E+00
  0.00000000E+00  0.00000000E+00  0.00000000E+00
  0.00000000E+00  0.00000000E+00  0.00000000E+00
  0.00000000E+00  0.00000000E+00  0.00000000E+00
  0.00000000E+00  0.00000000E+00  0.00000000E+00
  0.00000000E+00  0.00000000E+00  0.00000000E+00
  0.00000000E+00  0.00000000E+00  0.00000000E+00
  0.00000000E+00  0.00000000E+00  0.00000000E+00
  0.00000000E+00  0.00000000E+00  0.00000000E+00
  0.00000000E+00  0.00000000E+00  0.00000000E+00
  0.00000000E+00  0.00000000E+00  0.00000000E+00
  0.00000000E+00  0.00000000E+00  0.00000000E+00
  0.00000000E+00  0.00000000E+00  0.00000000E+00
  0.00000000E+00  0.00000000E+00  0.00000000E+00
  0.00000000E+00  0.00000000E+00  0.00000000E+00
  0.00000000E+00  0.00000000E+00  0.00000000E+00
  0.00000000E+00  0.00000000E+00  0.00000000E+00
  0.00000000E+00  0.00000000E+00  0.00000000E+00
  0.00000000E+00  0.00000000E+00  0.00000000E+00
  0.00000000E+00  0.00000000E+00  0.00000000E+00
  0.00000000E+00  0.00000000E+00  0.00000000E+00
  0.00000000E+00  0.00000000E+00  0.00000000E+00
  0.00000000E+00  0.00000000E+00  0.00000000E+00
  0.00000000E+00  0.00000000E+00  0.00000000E+00
  0.00000000E+00  0.00000000E+00  0.00000000E+00
  0.00000000E+00  0.00000000E+00  0.00000000E+00
  0.00000000E+00  0.00000000E+00  0.00000000E+00
  0.00000000E+00  0.00000000E+00  0.00000000E+00
  0.00000000E+00  0.00000000E+00  0.00000000E+00
  0.00000000E+00  0.00000000E+00  0.00000000E+00
  0.00000000E+00  0.00000000E+00  0.00000000E+00
  0.00000000E+00  0.00000000E+00  0.00000000E+00
  0.00000000E+00  0.00000000E+00  0.00000000E+00
  0.00000000E+00  0.00000000E+00  0.00000000E+00
  0.00000000E+00  0.00000000E+00  0.00000000E+00
  0.00000000E+00  0.00000000E+00  0.00000000E+00
  0.00000000E+00  0.00000000E+00  0.00000000E+00
  0.00000000E+00  0.00000000E+00  0.00000000E+00
  0.00000000E+00  0.00000000E+00  0.00000000E+00
  0.00000000E+00  0.00000000E+00  0.00000000E+00
  0.00000000E+00  0.00000000E+00  0.00000000E+00
  0.00000000E+00  0.00000000E+00  0.00000000E+00
  0.00000000E+00  0.00000000E+00  0.00000000E+00
  0.00000000E+00  0.00000000E+00  0.00000000E+00
  0.00000000E+00  0.00000000E+00  0.00000000E+00
  0.00000000E+00  0.00000000E+00  0.00000000E+00
  0.00000000E+00  0.00000000E+00  0.00000000E+00
  0.00000000E+00  0.00000000E+00  0.00000000E+00
  0.00000000E+00  0.00000000E+00  0.00000000E+00
  0.00000000E+00  0.00000000E+00  0.00000000E+00
  0.00000000E+00  0.00000000E+00  0.00000000E+00
  0.00000000E+00  0.00000000E+00  0.00000000E+00
  0.00000000E+00  0.00000000E+00  0.00000000E+00
  0.00000000E+00  0.00000000E+00  0.00000000E+00
  0.00000000E+00  0.00000000E+00  0.00000000E+00
  0.00000000E+00  0.00000000E+00  0.00000000E+00
  0.00000000E+00  0.00000000E+00  0.00000000E+00
  0.00000000E+00  0.00000000E+00  0.00000000E+00
  0.00000000E+00  0.00000000E+00  0.00000000E+00
  0.00000000E+00  0.00000000E+00  0.00000000E+00
  0.00000000E+00  0.00000000E+00  0.00000000E+00
  0.00000000E+00  0.00000000E+00  0.00000000E+00
  0.00000000E+00  0.00000000E+00  0.00000000E+00
  0.00000000E+00  0.00000000E+00  0.00000000E+00
  0.00000000E+00  0.00000000E+00  0.00000000E+00
  0.00000000E+00  0.00000000E+00  0.00000000E+00
  0.00000000E+00  0.00000000E+00  0.00000000E+00
  0.00000000E+00  0.00000000E+00  0.00000000E+00
  0.00000000E+00  0.00000000E+00  0.00000000E+00
  0.00000000E+00  0.00000000E+00  0.00000000E+00
  0.00000000E+00  0.00000000E+00  0.00000000E+00
  0.00000000E+00  0.00000000E+00  0.00000000E+00
  0.00000000E+00  0.00000000E+00  0.00000000E+00
  0.00000000E+00  0.00000000E+00  0.00000000E+00
  0.00000000E+00  0.00000000E+00  0.00000000E+00
  0.00000000E+00  0.00000000E+00  0.00000000E+00
  0.00000000E+00  0.00000000E+00  0.00000000E+00
  0.00000000E+00  0.00000000E+00  0.00000000E+00
  0.00000000E+00  0.00000000E+00  0.00000000E+00
  0.00000000E+00  0.00000000E+00  0.00000000E+00
  0.00000000E+00  0.00000000E+00  0.00000000E+00
  0.00000000E+00  0.00000000E+00  0.00000000E+00
  0.00000000E+00  0.00000000E+00  0.00000000E+00
  0.00000000E+00  0.00000000E+00  0.00000000E+00
  0.00000000E+00  0.00000000E+00  0.00000000E+00
  0.00000000E+00  0.00000000E+00  0.00000000E+00
  0.00000000E+00  0.00000000E+00  0.00000000E+00
  0.00000000E+00  0.00000000E+00  0.00000000E+00
  0.00000000E+00  0.00000000E+00  0.00000000E+00
  0.00000000E+00  0.00000000E+00  0.00000000E+00
  0.00000000E+00  0.00000000E+00  0.00000000E+00
  0.00000000E+00  0.00000000E+00  0.00000000E+00
  0.00000000E+00  0.00000000E+00  0.00000000E+00
  0.00000000E+00  0.00000000E+00  0.00000000E+00
  0.00000000E+00  0.00000000E+00  0.00000000E+00
  0.00000000E+00  0.00000000E+00  0.00000000E+00
  0.00000000E+00  0.00000000E+00  0.00000000E+00
  0.00000000E+00  0.00000000E+00  0.00000000E+00
  0.00000000E+00  0.00000000E+00  0.00000000E+00
  0.00000000E+00  0.00000000E+00  0.00000000E+00
  0.00000000E+00  0.00000000E+00  0.00000000E+00
  0.00000000E+00  0.00000000E+00  0.00000000E+00
  0.00000000E+00  0.00000000E+00  0.00000000E+00
  0.00000000E+00  0.00000000E+00  0.00000000E+00
  0.00000000E+00  0.00000000E+00  0.00000000E+00
  0.00000000E+00  0.00000000E+00  0.00000000E+00
  0.00000000E+00  0.00000000E+00  0.00000000E+00
  0.00000000E+00  0.00000000E+00  0.00000000E+00
  0.00000000E+00  0.00000000E+00  0.00000000E+00
  0.00000000E+00  0.00000000E+00  0.00000000E+00