FeMn_288_15                             
    1.000000000000000     
     9.7266779999999997    0.0000000000000000    0.0000000000000000
     0.0000000000000000    8.4235500000000005    0.0000000000000000
     0.0000000000000000    0.0000000000000000   45.0000000000000000
   Fe   Mn
   273    15
Direct
  0.5621815066431534  0.3721814735910347  0.5213248492752374
  0.3127649699378448  0.8717993991220419  0.4349162100691856
  0.6870801891773086  0.9573968764350166  0.6981266825309855
  0.5629082968727790  0.2035437353574143  0.2137377700549913
  0.6870560291707850  0.4572153597090493  0.6981489012800511
  0.9377305431266062  0.2866678680859370  0.2577550190003653
  0.9374851798538645  0.7866916373045111  0.2577004275307688
  0.8126432110070841  0.5400306251041961  0.6098954485962647
  0.6875970204365954  0.1218234517112267  0.4347537829577998
  0.3124394669791423  0.0399517350607525  0.6097617608156255
  0.1878425668596762  0.4562994414612437  0.5652902401527574
  0.4375078141794440  0.1216795628470342  0.4348419232616785
  0.0625033218680522  0.5400470171205269  0.6097669729956985
  0.1875562907464590  0.1239730510218226  0.6535923255406235
  0.9375475110534198  0.4533922942349800  0.2135612885913369
  0.4372148149728682  0.4562668624014408  0.5650602779073822
  0.6874347592708145  0.6202614607558370  0.3018543230229765
  0.6872526749759813  0.9561368400937750  0.5650950476570226
  0.6873878202632164  0.6223686893924482  0.5213177623518257
  0.6876195745326626  0.9543649448755608  0.3463312908007914
  0.0627085555348830  0.2075547694647471  0.8314562782140773
  0.1875755741001694  0.9553670212406415  0.4785991335196706
  0.9364116232990781  0.2915621545728439  0.8734401358365149
  0.8125917881758876  0.3737728203937309  0.6536549658759575
  0.8124254525852068  0.8744875950938552  0.7865266722533349
  0.6872940868541254  0.2876655550746362  0.3901418552154500
  0.6879399424964699  0.7911235053217234  0.7423150135045551
  0.8125254235610497  0.5361499374321687  0.1266615997178280
  0.1875064006453440  0.9558987637586089  0.5651979267711364
  0.6881868015211606  0.2909176302960404  0.7422579049002761
  0.5625801221144207  0.2074578492879961  0.6980712365483701
  0.1870253269579981  0.2911769779055868  0.7422024755247214
  0.9374137793595612  0.7882550272482999  0.3900864839699710
  0.6874350644104016  0.2864663715914867  0.2577673166940975
  0.1875337616361355  0.7870054095830763  0.2577614779113319
  0.6871815124690976  0.4556649785618981  0.4786611029113929
  0.1875530490880139  0.2874239115535436  0.3901496766737049
  0.0623937463350330  0.8744236582370520  0.7864490267979098
  0.1871577738569339  0.4533763606290119  0.2135445085182529
  0.5627270342299064  0.7080480008194663  0.6981505072498605
  0.0624093171892728  0.3706969435799737  0.3018743625918743
  0.5621175113611336  0.8737430886829241  0.6537328531430131
  0.4373845479060134  0.9585093377098256  0.8313506194458473
  0.5625895522406977  0.2060713677752742  0.5651004948082312
  0.5624921592770303  0.5364586740831176  0.1266219394733134
  0.9373179454014253  0.1198596239546990  0.1689062791335068
  0.5625227873315094  0.0412713693801582  0.7423228249170081
  0.9371909627375594  0.1227508545778354  0.5212543716811339
  0.5625149525694968  0.5423244625595541  0.8734183663810290
  0.9374155297647967  0.7903807389020917  0.6096725956453244
  0.5626597671022966  0.7054268858525395  0.4785667809228135
  0.9371991866162475  0.7913483127957847  0.8734399541545749
  0.4374757861951387  0.6192855737602018  0.1688672205983468
  0.9378492373946360  0.6237366860458983  0.6537413701130262
  0.9373104711770180  0.9532068221796112  0.2135272752147550
  0.3124680863877063  0.2077818708894371  0.6980896555938719
  0.5617014688289474  0.8701591938607892  0.1686477717455868
  0.4377926615472231  0.1201389910007858  0.3018377898383022
  0.1877889003470180  0.1224625892567417  0.5213103846371541
  0.1875008788499956  0.7875981276310254  0.3902520353466343
  0.6877133217453457  0.7898914120612264  0.6096485428104236
  0.5626184110209976  0.0397824542032227  0.6098095927831457
  0.0629898570987741  0.3738676651816126  0.6536153044037035
  0.0622736396495346  0.2037092240451736  0.2137388645830399
  0.5626041427320908  0.7061464275846356  0.5650615813955964
  0.4377099931120217  0.2877594190027687  0.3902731688428976
  0.6871106335970713  0.6248543475938338  0.7865070273747385
  0.8125767872415703  0.8697652208771051  0.1688209307345201
  0.3122358445314201  0.3714968706298356  0.4348196815171537
  0.1875118387229766  0.2872707653840598  0.1266560383542294
  0.5625361731138551  0.7032406404003169  0.2136172179797087
  0.1878037886898566  0.9577242305400721  0.6980938775317066
  0.5622252558348461  0.8744337160965014  0.7864464171592144
  0.0625132102778362  0.2078194642404416  0.6981710769962479
  0.1874257857699139  0.6243390674430185  0.7864618117688325
  0.4376419763439529  0.1224725885724030  0.5213129062714472
  0.0624754378683422  0.0369073323550753  0.2576995708073864
  0.8123820872345804  0.0400486063194521  0.6097748746526764
  0.8125687176875177  0.3707394084262223  0.3019082838046134
  0.5624417394837202  0.3703599725071102  0.3018851329973593
  0.0626049272892107  0.2039892701598483  0.3462448983033707
  0.0625071534022590  0.7063866661603763  0.5651561061256614
  0.3124117558202581  0.7027440026521806  0.2136895563416308
  0.5624692822438151  0.2077823826888665  0.8312314336271499
  0.3128218615050400  0.0376400601402725  0.3901871686040528
  0.4372075910842999  0.2916016709250041  0.8735615363275500
  0.1877182485551126  0.4539958968020221  0.3462122537205227
  0.1873157369282004  0.6218242893870985  0.4348343781589075
  0.4373661522370731  0.7896799596045198  0.6098358492102387
  0.6872961751364076  0.1246503778470998  0.7864902426376463
  0.3123479167561753  0.8744743259190043  0.7864928012437931
  0.8125565670576431  0.7061923307739072  0.5652431320049481
  0.5626139856595127  0.2043345973552989  0.3463500132766130
  0.9377127196540366  0.9538536613076041  0.3462656540903588
  0.9376719688757321  0.6219405330320212  0.4347739173381260
  0.6876615361488201  0.7913119816857318  0.8733935740085917
  0.1876723653598905  0.9539439889198015  0.3462962149135996
  0.3125238812590570  0.2032375296833069  0.2135698819129611
  0.1873261435468218  0.9590697968471510  0.8313407564377471
  0.4380240765271670  0.1241447181508609  0.7863016141214607
  0.4375585366987231  0.4540681311172176  0.3462481701352056
  0.8125488684397556  0.0364313547614304  0.2577201014208390
  0.3125311321102797  0.5401677339637919  0.6096843715799358
  0.1878651592469241  0.4580106833686975  0.6980012422702815
  0.3128205780357984  0.2056621475002547  0.4785742930267733
  0.5621117064950656  0.8721536060890394  0.5213368419350479
  0.8128161244227424  0.3714375253227637  0.4347962197947107
  0.3127832872674494  0.5414802483723387  0.7422378195530843
  0.9376344551325929  0.7859406179625505  0.1265360278416164
  0.1870832171824797  0.7905133362375267  0.8734027533459017
  0.9375422285313166  0.2878659399585483  0.3903418935652428
  0.3127203682475015  0.7063410508850156  0.5650634042189893
  0.6877514284372017  0.1204641431036579  0.3019522201874159
  0.9375588150589407  0.2866327132287099  0.1267246352651691
  0.4376643914298154  0.9578094594989107  0.6980191788072118
  0.5624265680216137  0.8699353374849061  0.3018451460599916
  0.5631108440589605  0.0356965899189258  0.1265867699659113
  0.0626025268844978  0.5370703063591737  0.2577160286660317
  0.4376036312735721  0.7877890239319696  0.3902067398230273
  0.1881034530345627  0.1191453827962095  0.1687201290631098
  0.8123732814132874  0.5365153046309769  0.2577197810085919
  0.0627981998480041  0.0413648550800879  0.7423718086355939
  0.0623171971525263  0.5362853791546582  0.1266066523107551
  0.4376790872904794  0.7867931449546912  0.2577397982302451
  0.8121492403251700  0.2049947042999287  0.4785354953374343
  0.1877526121716856  0.4580774576902545  0.8313589212878072
  0.4375144969916991  0.4533551899639059  0.2136537900357591
  0.5627500692862173  0.2050747823704599  0.4785486278517102
  0.0626676417507698  0.8717697323437376  0.4347628833438223
  0.5621667170082344  0.3746209020287861  0.7864303864602423
  0.0622873621789724  0.3697037301611833  0.1688828136827630
  0.1882466765885233  0.4558125050817202  0.4785806033726949
  0.4377994963929123  0.6221979490312811  0.5213720643945666
  0.0616442309596272  0.0358902212261757  0.1266461575883954
  0.9372313159651215  0.9573361176859922  0.6980448377171220
  0.4373108605430285  0.9562249958023640  0.5650634906894172
  0.5623774511800596  0.8714327423856310  0.4347286844642425
  0.1876292764460138  0.7902270107443938  0.6096989475420943
  0.4373145779323310  0.9544143977668367  0.3463116091124709
  0.6874223759989264  0.7866256184357172  0.2577518388259885
  0.3123456625752379  0.5377218929359719  0.3901549473959403
  0.9371917283852610  0.6204351321801612  0.3018210742207155
  0.3122283254785054  0.5412907504659789  0.8734851473057793
  0.8123149679795577  0.0377530635230518  0.3900869557941460
  0.3127552821182175  0.3737930760876690  0.6535452886452776
  0.4374600180082373  0.6239329375341233  0.6537113060774742
  0.6877136451420541  0.1200061966850117  0.1688701019020095
  0.9375815702955295  0.1240245472869690  0.6537024463765758
  0.3125870047084087  0.8703556257420847  0.1685515283785749
  0.6877180955265674  0.6235769769855146  0.6536592722941321
  0.3123643435302908  0.3723601115951543  0.5213378545036622
  0.5630410666991054  0.7078271060734448  0.8312022032206526
  0.8126057917487578  0.2060499527376157  0.5652490447155624
  0.6880160708222711  0.2912660250709374  0.8734348495860192
  0.4375125128254245  0.6217250571920279  0.4348636988527756
  0.0620832641738422  0.7082753029765391  0.8312732234176542
  0.0621034212417519  0.7076886740743624  0.6980762714721689
  0.8121786373222802  0.7049219595430923  0.4785834869114869
  0.0624737317233361  0.8704683457956780  0.3018150913542320
  0.8122318611378837  0.8719296473559477  0.4351224265423096
  0.6876103977140109  0.9582086741474354  0.8312112406299741
  0.0629584765958011  0.3726618112857762  0.5212246173682717
  0.0627929706423121  0.0416200305933249  0.8734447167595359
  0.5625796562407955  0.0416402399799495  0.8734283048321018
  0.0623745358872960  0.5379287633311552  0.3901401993429640
  0.3124807390651686  0.8725853106968195  0.5213570291805046
  0.4374944845005451  0.2878306247774272  0.1266304604538314
  0.8122128883904373  0.0409864405452359  0.7422461562099117
  0.8122165513583932  0.7040988186328162  0.3462560244400941
  0.4376438685700602  0.7911925889773852  0.8733123190559375
  0.6878196863649282  0.9531687857863260  0.2136062495388467
  0.8124078361405315  0.2070479622763199  0.6981551826768450
  0.8123550707270136  0.2033651327837170  0.2136174492702170
  0.5626908218201396  0.3697749262032108  0.1688832303331749
  0.9380122908972253  0.9557798601298353  0.5651883228673128
  0.9377887278272322  0.4561118165004639  0.5648916981058147
  0.8121016706500637  0.0413494900869384  0.8733611555262534
  0.0625975599715786  0.7030285847495591  0.2135830552455034
  0.3128836737590536  0.2041503339498995  0.3463312156479609
  0.5625727035397382  0.5377491563114218  0.3901881133774633
  0.3124748601210792  0.7083376400375464  0.8312823850578712
  0.6875518417969381  0.4539324155857095  0.3462377597101067
  0.3125148662168223  0.8738546815429205  0.6536297147150910
  0.6874889441017404  0.2899270246697783  0.6097064129055111
  0.6874260790648034  0.2866923042401566  0.1267403215650227
  0.3123431814208308  0.8703321423691556  0.3019009463162651
  0.4374092840544262  0.4578013730977413  0.6981361905852784
  0.3121108143393976  0.0419864407649522  0.8736843988739621
  0.1870338946071815  0.7914270462499357  0.7423441019150271
  0.1875732286619431  0.2868803190964687  0.2577964262921349
  0.9377692157601356  0.6226890382693679  0.5213558140163883
  0.8124263127071880  0.2086168617916621  0.8312722327368057
  0.3127645407373346  0.7038673043977663  0.3462686163631363
  0.1872322905198717  0.6232898097759225  0.6536577652752762
  0.5625312191778582  0.0376892595736094  0.3901830569632247
  0.6874974865952067  0.7879192454365397  0.3901619064427816
  0.4372999092587159  0.4556020925294665  0.4785693628740234
  0.8126018404052603  0.0364362712797956  0.1266441401899379
  0.1879404075293449  0.1215569514130958  0.4348122591965001
  0.9375711399495730  0.2913311960415995  0.7423093347101808
  0.4368740103699159  0.4576460178237016  0.8312963383404680
  0.4378501273464417  0.6198331370369933  0.3019423040198613
  0.3122868829543681  0.7080557585973376  0.6981100646419820
  0.3127907160306351  0.0417401463152632  0.7422128235906649
  0.0628340688046612  0.8724358850330916  0.5213386880784610
  0.0629641356236524  0.8741909488541689  0.6536436971451773
  0.8125841412886142  0.7074483433809956  0.6981954457043965
  0.5625020919980797  0.0362584765735593  0.2577740643659747
  0.0627217860158354  0.7055802291178415  0.4786082316319718
  0.8125393379773630  0.3721708906206944  0.5212686529719182
  0.9372558947171866  0.9577238093571518  0.8311523386965429
  0.9372562814013383  0.1207231950854001  0.3018300994337403
  0.8126866562369761  0.3751217346339580  0.7864717383323391
  0.3126762811134833  0.7054633582363802  0.4786590958650594
  0.5625103993545399  0.5365173996658804  0.2577031070517818
  0.8125178849560676  0.3697874917726814  0.1688904563406753
  0.1875393690046677  0.6192632781288515  0.1688450211084344
  0.8120855787355865  0.2040317537208284  0.3462076445108123
  0.6877964214096446  0.4534025098324284  0.2136438301632341
  0.5622308408782154  0.3739017434677781  0.6536904396855608
  0.3126151776895044  0.5368286167801806  0.2576528581110153
  0.9369723231287496  0.6244174705363928  0.7864813763493876
  0.1872458829820971  0.6222435280651383  0.5213503001552449
  0.4374046672420071  0.9552890347192596  0.4785882486784239
  0.9373979521674336  0.4582749556157651  0.8312983406613426
  0.6876840944212080  0.1228406288172052  0.5214077151289138
  0.0625216559195959  0.5421020446814561  0.8733902530580749
  0.8123880929959847  0.5407744668625518  0.7423315876167592
  0.8124763684264642  0.7031011229851648  0.2135170852402843
  0.3125589941908021  0.3691733448560409  0.1686579270464411
  0.4377106077544987  0.1243228945140678  0.6535279227740853
  0.8121380735478018  0.5414785337154421  0.8734776397026844
  0.0629869343839169  0.8697721146834329  0.1686425804434372
  0.3123165726886459  0.3747490160826136  0.7863810343739458
  0.9375225005944212  0.6198336862495865  0.1688173209373681
  0.9371505586591614  0.1242322862290171  0.7865530797429171
  0.0626641610883816  0.0404873990013641  0.6098812988400901
  0.9373466586026501  0.4541182942450929  0.3462705242750277
  0.9374174133335226  0.7907607597806551  0.7421808054808172
  0.9375243654008372  0.2902636168654427  0.6097788524969672
  0.3126417011445625  0.3699562531487852  0.3018981230656444
  0.0624654231068007  0.2058288301598739  0.5648957297083290
  0.6874575484190112  0.1233818344993103  0.6537201768573665
  0.4373450282296624  0.2864175488433628  0.2577557815347973
  0.6874870376463952  0.6199955343437319  0.1688419941226516
  0.8121904232893670  0.7083544623461608  0.8312723515705527
  0.6871043509309335  0.9554633902162648  0.4786446992478740
  0.5625709509930304  0.7041543520514673  0.3463157319341807
  0.5626880145304022  0.5413203878616509  0.7422625148216633
  0.1875879866746796  0.6203291390006596  0.3018346149118764
  0.8128238059795826  0.5379733121728585  0.3901903883752973
  0.1878584016550757  0.2908765125857520  0.8737124259794941
  0.1872292907650817  0.9532461021932395  0.2135284807960370
  0.1862104404231356  0.7862315619855015  0.1265510791262431
  0.4375906723804682  0.2899427874515018  0.6097920249523051
  0.6875621541782551  0.4585899995022453  0.8313723740633788
  0.3126009599008474  0.0367121591299320  0.2577034849875938
  0.3126866813979473  0.2061356377551702  0.5652055343555310
  0.9377770860633688  0.9551229235207293  0.4786218465619788
  0.5624676279118170  0.5400071251120637  0.6097467849634532
  0.6875786811433906  0.6214942672877674  0.4346813283243959
  0.0624708929329115  0.0379135589001389  0.3901517420906199
  0.4384298880611404  0.7865753298805863  0.1265576725334260
  0.3126406951552876  0.5364464517815920  0.1265963609808188
  0.4377291182932447  0.6243681815571308  0.7864101769991988
  0.0623024341397839  0.3744834645469234  0.7865089956343035
  0.5623954818557135  0.3714707741104277  0.4348115796981903
  0.9372473737771236  0.1218604121443199  0.4347276846726852
  0.0627068544324208  0.3715566807201628  0.4348877923781896
  0.4370586193980486  0.1191318491417599  0.1686513499946367
  0.8126780268307751  0.8701197139005143  0.3018326965637082
  0.1875301054120018  0.2898807017529225  0.6096269969316533
  0.6877280840412853  0.7857735024634992  0.1265281305897555
  0.4375275449926834  0.7915379390494143  0.7423424785274827
  0.1869370057856264  0.1240643310978204  0.7859831091184972
  0.6871070866232991  0.4560441559512887  0.5651642937484527
  0.4375823926017333  0.9531683774758425  0.2137312322075673
  0.0624831406637551  0.2048265238970001  0.4786105336993624
  0.0628957827212065  0.5415073188818603  0.7425032605249519
  0.3124425354673365  0.2082510420684132  0.8321235875359384
  0.9370714603520327  0.4571237365368708  0.6979755734348082
  0.9370673250283498  0.4558169145358943  0.4785874435630316
  0.1872839271298275  0.1205228278951208  0.3019274057715671
  0.8125145208104154  0.8724708282075495  0.5212578090028226
  0.3126950155939862  0.0364298648540191  0.1267819230844607
  0.0625556527555209  0.7038758540860836  0.3463805984071811
  0.4370326566861812  0.2907270057055163  0.7423827423777146
  0.8126679155091211  0.8739083789619128  0.6536708083638589
 
  0.00000000E+00  0.00000000E+00  0.00000000E+00
  0.00000000E+00  0.00000000E+00  0.00000000E+00
  0.00000000E+00  0.00000000E+00  0.00000000E+00
  0.00000000E+00  0.00000000E+00  0.00000000E+00
  0.00000000E+00  0.00000000E+00  0.00000000E+00
  0.00000000E+00  0.00000000E+00  0.00000000E+00
  0.00000000E+00  0.00000000E+00  0.00000000E+00
  0.00000000E+00  0.00000000E+00  0.00000000E+00
  0.00000000E+00  0.00000000E+00  0.00000000E+00
  0.00000000E+00  0.00000000E+00  0.00000000E+00
  0.00000000E+00  0.00000000E+00  0.00000000E+00
  0.00000000E+00  0.00000000E+00  0.00000000E+00
  0.00000000E+00  0.00000000E+00  0.00000000E+00
  0.00000000E+00  0.00000000E+00  0.00000000E+00
  0.00000000E+00  0.00000000E+00  0.00000000E+00
  0.00000000E+00  0.00000000E+00  0.00000000E+00
  0.00000000E+00  0.00000000E+00  0.00000000E+00
  0.00000000E+00  0.00000000E+00  0.00000000E+00
  0.00000000E+00  0.00000000E+00  0.00000000E+00
  0.00000000E+00  0.00000000E+00  0.00000000E+00
  0.00000000E+00  0.00000000E+00  0.00000000E+00
  0.00000000E+00  0.00000000E+00  0.00000000E+00
  0.00000000E+00  0.00000000E+00  0.00000000E+00
  0.00000000E+00  0.00000000E+00  0.00000000E+00
  0.00000000E+00  0.00000000E+00  0.00000000E+00
  0.00000000E+00  0.00000000E+00  0.00000000E+00
  0.00000000E+00  0.00000000E+00  0.00000000E+00
  0.00000000E+00  0.00000000E+00  0.00000000E+00
  0.00000000E+00  0.00000000E+00  0.00000000E+00
  0.00000000E+00  0.00000000E+00  0.00000000E+00
  0.00000000E+00  0.00000000E+00  0.00000000E+00
  0.00000000E+00  0.00000000E+00  0.00000000E+00
  0.00000000E+00  0.00000000E+00  0.00000000E+00
  0.00000000E+00  0.00000000E+00  0.00000000E+00
  0.00000000E+00  0.00000000E+00  0.00000000E+00
  0.00000000E+00  0.00000000E+00  0.00000000E+00
  0.00000000E+00  0.00000000E+00  0.00000000E+00
  0.00000000E+00  0.00000000E+00  0.00000000E+00
  0.00000000E+00  0.00000000E+00  0.00000000E+00
  0.00000000E+00  0.00000000E+00  0.00000000E+00
  0.00000000E+00  0.00000000E+00  0.00000000E+00
  0.00000000E+00  0.00000000E+00  0.00000000E+00
  0.00000000E+00  0.00000000E+00  0.00000000E+00
  0.00000000E+00  0.00000000E+00  0.00000000E+00
  0.00000000E+00  0.00000000E+00  0.00000000E+00
  0.00000000E+00  0.00000000E+00  0.00000000E+00
  0.00000000E+00  0.00000000E+00  0.00000000E+00
  0.00000000E+00  0.00000000E+00  0.00000000E+00
  0.00000000E+00  0.00000000E+00  0.00000000E+00
  0.00000000E+00  0.00000000E+00  0.00000000E+00
  0.00000000E+00  0.00000000E+00  0.00000000E+00
  0.00000000E+00  0.00000000E+00  0.00000000E+00
  0.00000000E+00  0.00000000E+00  0.00000000E+00
  0.00000000E+00  0.00000000E+00  0.00000000E+00
  0.00000000E+00  0.00000000E+00  0.00000000E+00
  0.00000000E+00  0.00000000E+00  0.00000000E+00
  0.00000000E+00  0.00000000E+00  0.00000000E+00
  0.00000000E+00  0.00000000E+00  0.00000000E+00
  0.00000000E+00  0.00000000E+00  0.00000000E+00
  0.00000000E+00  0.00000000E+00  0.00000000E+00
  0.00000000E+00  0.00000000E+00  0.00000000E+00
  0.00000000E+00  0.00000000E+00  0.00000000E+00
  0.00000000E+00  0.00000000E+00  0.00000000E+00
  0.00000000E+00  0.00000000E+00  0.00000000E+00
  0.00000000E+00  0.00000000E+00  0.00000000E+00
  0.00000000E+00  0.00000000E+00  0.00000000E+00
  0.00000000E+00  0.00000000E+00  0.00000000E+00
  0.00000000E+00  0.00000000E+00  0.00000000E+00
  0.00000000E+00  0.00000000E+00  0.00000000E+00
  0.00000000E+00  0.00000000E+00  0.00000000E+00
  0.00000000E+00  0.00000000E+00  0.00000000E+00
  0.00000000E+00  0.00000000E+00  0.00000000E+00
  0.00000000E+00  0.00000000E+00  0.00000000E+00
  0.00000000E+00  0.00000000E+00  0.00000000E+00
  0.00000000E+00  0.00000000E+00  0.00000000E+00
  0.00000000E+00  0.00000000E+00  0.00000000E+00
  0.00000000E+00  0.00000000E+00  0.00000000E+00
  0.00000000E+00  0.00000000E+00  0.00000000E+00
  0.00000000E+00  0.00000000E+00  0.00000000E+00
  0.00000000E+00  0.00000000E+00  0.00000000E+00
  0.00000000E+00  0.00000000E+00  0.00000000E+00
  0.00000000E+00  0.00000000E+00  0.00000000E+00
  0.00000000E+00  0.00000000E+00  0.00000000E+00
  0.00000000E+00  0.00000000E+00  0.00000000E+00
  0.00000000E+00  0.00000000E+00  0.00000000E+00
  0.00000000E+00  0.00000000E+00  0.00000000E+00
  0.00000000E+00  0.00000000E+00  0.00000000E+00
  0.00000000E+00  0.00000000E+00  0.00000000E+00
  0.00000000E+00  0.00000000E+00  0.00000000E+00
  0.00000000E+00  0.00000000E+00  0.00000000E+00
  0.00000000E+00  0.00000000E+00  0.00000000E+00
  0.00000000E+00  0.00000000E+00  0.00000000E+00
  0.00000000E+00  0.00000000E+00  0.00000000E+00
  0.00000000E+00  0.00000000E+00  0.00000000E+00
  0.00000000E+00  0.00000000E+00  0.00000000E+00
  0.00000000E+00  0.00000000E+00  0.00000000E+00
  0.00000000E+00  0.00000000E+00  0.00000000E+00
  0.00000000E+00  0.00000000E+00  0.00000000E+00
  0.00000000E+00  0.00000000E+00  0.00000000E+00
  0.00000000E+00  0.00000000E+00  0.00000000E+00
  0.00000000E+00  0.00000000E+00  0.00000000E+00
  0.00000000E+00  0.00000000E+00  0.00000000E+00
  0.00000000E+00  0.00000000E+00  0.00000000E+00
  0.00000000E+00  0.00000000E+00  0.00000000E+00
  0.00000000E+00  0.00000000E+00  0.00000000E+00
  0.00000000E+00  0.00000000E+00  0.00000000E+00
  0.00000000E+00  0.00000000E+00  0.00000000E+00
  0.00000000E+00  0.00000000E+00  0.00000000E+00
  0.00000000E+00  0.00000000E+00  0.00000000E+00
  0.00000000E+00  0.00000000E+00  0.00000000E+00
  0.00000000E+00  0.00000000E+00  0.00000000E+00
  0.00000000E+00  0.00000000E+00  0.00000000E+00
  0.00000000E+00  0.00000000E+00  0.00000000E+00
  0.00000000E+00  0.00000000E+00  0.00000000E+00
  0.00000000E+00  0.00000000E+00  0.00000000E+00
  0.00000000E+00  0.00000000E+00  0.00000000E+00
  0.00000000E+00  0.00000000E+00  0.00000000E+00
  0.00000000E+00  0.00000000E+00  0.00000000E+00
  0.00000000E+00  0.00000000E+00  0.00000000E+00
  0.00000000E+00  0.00000000E+00  0.00000000E+00
  0.00000000E+00  0.00000000E+00  0.00000000E+00
  0.00000000E+00  0.00000000E+00  0.00000000E+00
  0.00000000E+00  0.00000000E+00  0.00000000E+00
  0.00000000E+00  0.00000000E+00  0.00000000E+00
  0.00000000E+00  0.00000000E+00  0.00000000E+00
  0.00000000E+00  0.00000000E+00  0.00000000E+00
  0.00000000E+00  0.00000000E+00  0.00000000E+00
  0.00000000E+00  0.00000000E+00  0.00000000E+00
  0.00000000E+00  0.00000000E+00  0.00000000E+00
  0.00000000E+00  0.00000000E+00  0.00000000E+00
  0.00000000E+00  0.00000000E+00  0.00000000E+00
  0.00000000E+00  0.00000000E+00  0.00000000E+00
  0.00000000E+00  0.00000000E+00  0.00000000E+00
  0.00000000E+00  0.00000000E+00  0.00000000E+00
  0.00000000E+00  0.00000000E+00  0.00000000E+00
  0.00000000E+00  0.00000000E+00  0.00000000E+00
  0.00000000E+00  0.00000000E+00  0.00000000E+00
  0.00000000E+00  0.00000000E+00  0.00000000E+00
  0.00000000E+00  0.00000000E+00  0.00000000E+00
  0.00000000E+00  0.00000000E+00  0.00000000E+00
  0.00000000E+00  0.00000000E+00  0.00000000E+00
  0.00000000E+00  0.00000000E+00  0.00000000E+00
  0.00000000E+00  0.00000000E+00  0.00000000E+00
  0.00000000E+00  0.00000000E+00  0.00000000E+00
  0.00000000E+00  0.00000000E+00  0.00000000E+00
  0.00000000E+00  0.00000000E+00  0.00000000E+00
  0.00000000E+00  0.00000000E+00  0.00000000E+00
  0.00000000E+00  0.00000000E+00  0.00000000E+00
  0.00000000E+00  0.00000000E+00  0.00000000E+00
  0.00000000E+00  0.00000000E+00  0.00000000E+00
  0.00000000E+00  0.00000000E+00  0.00000000E+00
  0.00000000E+00  0.00000000E+00  0.00000000E+00
  0.00000000E+00  0.00000000E+00  0.00000000E+00
  0.00000000E+00  0.00000000E+00  0.00000000E+00
  0.00000000E+00  0.00000000E+00  0.00000000E+00
  0.00000000E+00  0.00000000E+00  0.00000000E+00
  0.00000000E+00  0.00000000E+00  0.00000000E+00
  0.00000000E+00  0.00000000E+00  0.00000000E+00
  0.00000000E+00  0.00000000E+00  0.00000000E+00
  0.00000000E+00  0.00000000E+00  0.00000000E+00
  0.00000000E+00  0.00000000E+00  0.00000000E+00
  0.00000000E+00  0.00000000E+00  0.00000000E+00
  0.00000000E+00  0.00000000E+00  0.00000000E+00
  0.00000000E+00  0.00000000E+00  0.00000000E+00
  0.00000000E+00  0.00000000E+00  0.00000000E+00
  0.00000000E+00  0.00000000E+00  0.00000000E+00
  0.00000000E+00  0.00000000E+00  0.00000000E+00
  0.00000000E+00  0.00000000E+00  0.00000000E+00
  0.00000000E+00  0.00000000E+00  0.00000000E+00
  0.00000000E+00  0.00000000E+00  0.00000000E+00
  0.00000000E+00  0.00000000E+00  0.00000000E+00
  0.00000000E+00  0.00000000E+00  0.00000000E+00
  0.00000000E+00  0.00000000E+00  0.00000000E+00
  0.00000000E+00  0.00000000E+00  0.00000000E+00
  0.00000000E+00  0.00000000E+00  0.00000000E+00
  0.00000000E+00  0.00000000E+00  0.00000000E+00
  0.00000000E+00  0.00000000E+00  0.00000000E+00
  0.00000000E+00  0.00000000E+00  0.00000000E+00
  0.00000000E+00  0.00000000E+00  0.00000000E+00
  0.00000000E+00  0.00000000E+00  0.00000000E+00
  0.00000000E+00  0.00000000E+00  0.00000000E+00
  0.00000000E+00  0.00000000E+00  0.00000000E+00
  0.00000000E+00  0.00000000E+00  0.00000000E+00
  0.00000000E+00  0.00000000E+00  0.00000000E+00
  0.00000000E+00  0.00000000E+00  0.00000000E+00
  0.00000000E+00  0.00000000E+00  0.00000000E+00
  0.00000000E+00  0.00000000E+00  0.00000000E+00
  0.00000000E+00  0.00000000E+00  0.00000000E+00
  0.00000000E+00  0.00000000E+00  0.00000000E+00
  0.00000000E+00  0.00000000E+00  0.00000000E+00
  0.00000000E+00  0.00000000E+00  0.00000000E+00
  0.00000000E+00  0.00000000E+00  0.00000000E+00
  0.00000000E+00  0.00000000E+00  0.00000000E+00
  0.00000000E+00  0.00000000E+00  0.00000000E+00
  0.00000000E+00  0.00000000E+00  0.00000000E+00
  0.00000000E+00  0.00000000E+00  0.00000000E+00
  0.00000000E+00  0.00000000E+00  0.00000000E+00
  0.00000000E+00  0.00000000E+00  0.00000000E+00
  0.00000000E+00  0.00000000E+00  0.00000000E+00
  0.00000000E+00  0.00000000E+00  0.00000000E+00
  0.00000000E+00  0.00000000E+00  0.00000000E+00
  0.00000000E+00  0.00000000E+00  0.00000000E+00
  0.00000000E+00  0.00000000E+00  0.00000000E+00
  0.00000000E+00  0.00000000E+00  0.00000000E+00
  0.00000000E+00  0.00000000E+00  0.00000000E+00
  0.00000000E+00  0.00000000E+00  0.00000000E+00
  0.00000000E+00  0.00000000E+00  0.00000000E+00
  0.00000000E+00  0.00000000E+00  0.00000000E+00
  0.00000000E+00  0.00000000E+00  0.00000000E+00
  0.00000000E+00  0.00000000E+00  0.00000000E+00
  0.00000000E+00  0.00000000E+00  0.00000000E+00
  0.00000000E+00  0.00000000E+00  0.00000000E+00
  0.00000000E+00  0.00000000E+00  0.00000000E+00
  0.00000000E+00  0.00000000E+00  0.00000000E+00
  0.00000000E+00  0.00000000E+00  0.00000000E+00
  0.00000000E+00  0.00000000E+00  0.00000000E+00
  0.00000000E+00  0.00000000E+00  0.00000000E+00
  0.00000000E+00  0.00000000E+00  0.00000000E+00
  0.00000000E+00  0.00000000E+00  0.00000000E+00
  0.00000000E+00  0.00000000E+00  0.00000000E+00
  0.00000000E+00  0.00000000E+00  0.00000000E+00
  0.00000000E+00  0.00000000E+00  0.00000000E+00
  0.00000000E+00  0.00000000E+00  0.00000000E+00
  0.00000000E+00  0.00000000E+00  0.00000000E+00
  0.00000000E+00  0.00000000E+00  0.00000000E+00
  0.00000000E+00  0.00000000E+00  0.00000000E+00
  0.00000000E+00  0.00000000E+00  0.00000000E+00
  0.00000000E+00  0.00000000E+00  0.00000000E+00
  0.00000000E+00  0.00000000E+00  0.00000000E+00
  0.00000000E+00  0.00000000E+00  0.00000000E+00
  0.00000000E+00  0.00000000E+00  0.00000000E+00
  0.00000000E+00  0.00000000E+00  0.00000000E+00
  0.00000000E+00  0.00000000E+00  0.00000000E+00
  0.00000000E+00  0.00000000E+00  0.00000000E+00
  0.00000000E+00  0.00000000E+00  0.00000000E+00
  0.00000000E+00  0.00000000E+00  0.00000000E+00
  0.00000000E+00  0.00000000E+00  0.00000000E+00
  0.00000000E+00  0.00000000E+00  0.00000000E+00
  0.00000000E+00  0.00000000E+00  0.00000000E+00
  0.00000000E+00  0.00000000E+00  0.00000000E+00
  0.00000000E+00  0.00000000E+00  0.00000000E+00
  0.00000000E+00  0.00000000E+00  0.00000000E+00
  0.00000000E+00  0.00000000E+00  0.00000000E+00
  0.00000000E+00  0.00000000E+00  0.00000000E+00
  0.00000000E+00  0.00000000E+00  0.00000000E+00
  0.00000000E+00  0.00000000E+00  0.00000000E+00
  0.00000000E+00  0.00000000E+00  0.00000000E+00