CuInSe2gb                               
   1.00000000000000     
     9.7266780392896699    0.0000000000000000    0.0000000000000000
     0.0000000000000000    8.4235502764570693    0.0000000000000000
     0.0000000000000000    0.0000000000000000   45.0000000000000000
   Fe   Mn
   281     7
Direct
  0.0577724459252119  0.7008606965675908  0.2111113494248566
  0.3160914992693359  0.7204397384279521  0.8757509620679614
  0.6878191769020739  0.9579795565922324  0.6113969110290582
  0.4382826979553324  0.4579224424571591  0.6114685772943641
  0.4366728252603672  0.2868934965839285  0.2555480320244656
  0.0609066061692771  0.3869616185323827  0.8341651528046083
  0.3111781102879189  0.8866478657354685  0.8342408306500414
  0.4422792258566546  0.6263693963330326  0.7003945955188307
  0.0637511209424518  0.2130751043118676  0.7445500673630150
  0.1825591726317365  0.4512951443084308  0.2112794680296311
  0.5638005068665708  0.2092109537532169  0.4778493457575057
  0.0642287797590503  0.8747595283658987  0.5668015934985435
  0.5657568401021330  0.2198588854020950  0.8757018563708963
  0.8101722985542438  0.5302606142185241  0.1245331819989551
  0.4328894681313082  0.9511968115339144  0.2111764945738981
  0.5640560935253262  0.3745629296074842  0.5667648295938620
  0.8117122764783364  0.0420598639121825  0.3883818085687099
  0.6860050328116021  0.7908260539323348  0.5221273150781151
  0.4388432925230170  0.4590395737615974  0.4777871830182783
  0.4378900064274364  0.9626605265683669  0.7444944005422438
  0.4391232004470677  0.6247087137855226  0.5668012516905758
  0.5673751285512040  0.8764678679921012  0.7003716415076319
  0.3099478895043690  0.0308591762340323  0.1244992200303204
  0.6866184435924622  0.9578463480348448  0.3440583700353005
  0.6868261652553072  0.7792831115348394  0.1245531293209232
  0.0575603655999008  0.3733258671987492  0.2995860120961325
  0.6889335795724029  0.4712858324068229  0.8754679548270798
  0.4329926920596038  0.4513559156738005  0.2111485203163439
  0.8107110507539551  0.3753354603695041  0.4330134202674992
  0.5633704348875430  0.7077642706132781  0.6114742057641971
  0.5629457074773702  0.5413188570577129  0.6557921062826412
  0.8142361735322629  0.8639133439004200  0.1659983870181592
  0.5611561304722528  0.5370322964189528  0.2555365852079197
  0.6866012138741079  0.4580080727013141  0.3441053817646910
  0.1882891568134022  0.6127837813074296  0.1662360469043145
  0.1919023777509461  0.7992457785828332  0.7887625968012754
  0.4424364899790116  0.1263338584517426  0.7004144047392602
  0.9328373259617390  0.6233695166882788  0.2996754403857150
  0.3153233073266750  0.2199533661088432  0.8757136531704951
  0.3142351804162417  0.8744487358539935  0.5667496883189412
  0.8153576451254962  0.2200924782456468  0.8756972896124782
  0.8128886351025485  0.5415404332692123  0.6557807135451958
  0.5597916553180793  0.5301847269650234  0.1244108517359651
  0.5668987685675763  0.0495390157479717  0.7889833311297183
  0.1866414004723750  0.2870775077824634  0.2555013726940703
  0.8107029383360950  0.8752727706442488  0.4330224743417205
  0.5672521173871169  0.3766672891718476  0.7004580187922740
  0.0602607359912823  0.0296887130162170  0.1244437623857402
  0.3129076765933450  0.5412358142964437  0.6557613803470075
  0.5617268132559724  0.2079213946874887  0.3441749280863495
  0.1890093129631903  0.9580149181884847  0.6114585490575715
  0.3076745717140652  0.3736500321576577  0.2996178227133120
  0.4378989191994131  0.7916221518932242  0.6557774973501429
  0.1918137069926092  0.2984396758245653  0.7888635776057351
  0.0644320850754673  0.3635983397655768  0.1660220980838517
  0.6921683494691054  0.6265115197629809  0.7003723855370084
  0.3115364009664354  0.5417055461983086  0.3883886986917585
  0.0654479874179665  0.7199381056556026  0.8758698615216116
  0.9363837205079322  0.6367115236745868  0.8342885956049951
  0.3173521559631548  0.5497198295608393  0.7889672901764284
  0.3073642422764198  0.2007003019372185  0.2111746944608575
  0.0639669721097247  0.7089707064469734  0.4778399706021834
  0.5575805927756622  0.2011015750817604  0.2110723803977812
  0.3136571751379220  0.2133435959277652  0.7443799953154211
  0.0673963121247585  0.3767176653261205  0.7003965221875097
  0.1862092176592459  0.6368685522333896  0.8340575811297815
  0.0668522965051570  0.0494084955904323  0.7889426281228756
  0.4391982191866281  0.1247304340232315  0.5668293697001139
  0.9382825392416361  0.2915056762687570  0.6557101122857275
  0.8075642322968093  0.2015784639093962  0.2110659922066813
  0.9326938495105300  0.9515827314474025  0.2112140373068496
  0.9391565895347919  0.6249938569116413  0.5667439802512536
  0.8109081247046606  0.3867463094824147  0.8342306986341067
  0.1923436199620681  0.6268320406392013  0.7003508467795293
  0.8111041360234733  0.8865947169139987  0.8342765674502355
  0.6880462793248416  0.2913647765753083  0.6558856813484836
  0.3134934944018932  0.2085082689763932  0.6114831958040382
  0.4382286709725004  0.4626591027280052  0.7444045361550321
  0.4366182670073057  0.7915887802476023  0.3884046651251648
  0.6877857456885353  0.9626432043595958  0.7445421595262832
  0.8075440041516325  0.7011008128619571  0.2111399430824144
  0.8128939132893467  0.7076030283144036  0.6114229370219429
  0.4370108520356130  0.7792711122336444  0.1246892330406934
  0.3131744202832279  0.7129958250921038  0.7444023234594940
  0.3172166246753909  0.0494044010200106  0.7889706269178919
  0.8115152979389880  0.5418414197865848  0.3884218979406785
  0.6861700992985186  0.2908549821755491  0.5221351981433662
  0.6919729747490784  0.7994810387428181  0.7889122881543316
  0.1866417231790646  0.7877727051030252  0.2555270960181482
  0.6888062739110145  0.1127173408176408  0.1661718597662785
  0.6889444680509388  0.9592543268428571  0.4778680870668445
  0.9367662888333936  0.9582914476296994  0.3440810127271349
  0.8110985226006003  0.0404687106894607  0.5220583881204524
  0.6850560820320037  0.6251214134571994  0.4330559396579429
  0.4367675039988936  0.4583727639478666  0.3441680378833618
  0.8133357848721180  0.2131935939023631  0.7445290448167203
  0.4390458498741899  0.9715184144247305  0.8755226767167095
  0.5642335022845187  0.8743101041597342  0.5667371835174667
  0.8101707847197978  0.0298260872023269  0.1243903448407251
  0.4323321740557413  0.6234222095224720  0.2996792784633870
  0.8151771360217493  0.7205234200196892  0.8758670169070074
  0.6877782104586175  0.4578087002639400  0.6113953963432183
  0.5611737239917950  0.3868244504944404  0.8340878604417967
  0.8074628963294587  0.3731630846211744  0.2996314433039467
  0.1863580880109026  0.2917482104853174  0.3883700974999860
  0.8165908722189784  0.5494742356690805  0.7890696662443929
  0.1864324182029621  0.7904662946667439  0.5220815190484882
  0.3075835590769816  0.8733271512348540  0.2996630583898631
  0.1825648342850472  0.9514041846633603  0.2112235009756643
  0.1887561421022832  0.4628471779956533  0.7444761213149731
  0.4360053525189351  0.2904939544083174  0.5220558482697730
  0.0620665552866119  0.7086439275737938  0.3442053181022166
  0.1879653802776416  0.7912472557184872  0.6557255698491600
  0.4418450401701737  0.7994400621223023  0.7887986480838249
  0.6850152430276161  0.1251639994495076  0.4330442421096329
  0.9362096341624163  0.7903242014400729  0.5221459540187292
  0.6887840275340266  0.6137437377732810  0.1661387201836408
  0.8117406174929147  0.7086814421970506  0.3442567946907628
  0.9382627417086186  0.4630139401438718  0.7444244668445884
  0.1867308706496349  0.4582758304003223  0.3441446601994800
  0.5673713808418934  0.5493424026554724  0.7889651866585847
  0.5646394524620025  0.3637372500140297  0.1658376132942175
  0.5614271755615357  0.7084483971584798  0.3442912728598007
  0.5578779016172926  0.3734271963700527  0.2996098502594756
  0.1888955798483160  0.4712995974946732  0.8755676146673456
  0.1889962467179749  0.1130919157821521  0.1660487577434637
  0.4418769253131319  0.2988874244790803  0.7888707111192743
  0.6862343562167992  0.7872752861665715  0.2555233333519585
  0.9366922998580984  0.1366533405873438  0.8341417034902664
  0.4388453770653388  0.9592498808913779  0.4777895236617452
  0.5654854121535856  0.7201893451406397  0.8757297150204464
  0.1886656353303442  0.4588814526881007  0.4777618849484004
  0.9361665629051459  0.2796043322319385  0.1245443339525603
  0.3115212087371968  0.0416777774833674  0.3884243520319800
  0.0630274257287246  0.0411253892846863  0.6557950383258799
  0.5610019551429257  0.3751379769891288  0.4330428425036399
  0.6876067961862263  0.4626225536928699  0.7445139032589689
  0.5635665166635925  0.2134480556730139  0.7444092808538908
  0.9424835242067779  0.1266795798200279  0.7004118712801619
  0.5629021297597337  0.0412903069631128  0.6557971677625833
  0.5610468691484033  0.5407542843711343  0.5220730069888097
  0.1826492905963571  0.1231899193753072  0.2995600409593671
  0.4382145761142278  0.1126087216234927  0.1661496750578351
  0.6823136047464050  0.6233844002835588  0.2996589151656378
  0.9324660698517138  0.1229261449238814  0.2996668882599998
  0.8140980190055863  0.3749471169203528  0.5668564358709618
  0.0577744088331952  0.8732887243167043  0.2996142078544060
  0.1891865645112564  0.6248579883819524  0.5668195500904806
  0.9410907773026893  0.7990578801195994  0.7889418989198015
  0.3112200782158219  0.3868154585755589  0.8341772198618437
  0.9392317494460304  0.4715365590961069  0.8755561387779106
  0.4365586486339593  0.6371934520522713  0.8341294343350520
  0.0615960953285934  0.2085374916653210  0.3441803112179697
  0.1888818579025073  0.9711071762445941  0.8755084521064835
  0.9365337160080516  0.7794190740216743  0.1245688787198344
  0.6863316028834323  0.7917301574550700  0.3883720206695943
  0.9381132825585090  0.7912066194988604  0.6558564103858172
  0.9388562640337631  0.1127394610269845  0.1661086745125688
  0.4377860824623611  0.2915338391249379  0.6558478786332492
  0.0581092111668457  0.2010678780252343  0.2110483869884583
  0.6828373512759071  0.9515099641359982  0.2112965624325697
  0.1825087136460438  0.6235347277517835  0.2996815241939630
  0.8171934677600545  0.8764912168702109  0.7003767946138211
  0.9424497675611966  0.6265023635257922  0.7005083708174407
  0.1922924898548523  0.1269094414607981  0.7004179402489786
  0.9391031313737763  0.4586195499187669  0.4778273621437703
  0.8131664637204948  0.2076360257965980  0.6114410478206300
  0.1866943561740497  0.6253153007357297  0.4330310341310104
  0.4326680050048646  0.1235367314911347  0.2997008229225747
  0.6823783451109882  0.1230704777369158  0.2996728374928863
  0.5612966328713352  0.5416870421656693  0.3884298769611170
  0.8118041877804775  0.2080872931981265  0.3442355358466213
  0.4392259285747128  0.4715564236831593  0.8754778546562653
  0.5611230540937662  0.8866180320124361  0.8342311751713400
  0.3141317674662129  0.2094600927063175  0.4778327669848468
  0.1885433540863637  0.9590956199823548  0.4778075896458528
  0.0610369745253925  0.8867618564817867  0.8342261611889912
  0.0611269698124912  0.5406489897787795  0.5220621455173996
  0.9390562992644830  0.9588321756946910  0.4778215348147486
  0.0636156197220490  0.7077105969040086  0.6114326075978558
  0.5609444910511762  0.0410103919919211  0.5220953489363968
  0.6918879807450193  0.2988837282377426  0.7887887149582318
  0.8144460057337858  0.3635374310824686  0.1659941863897960
  0.4357725509198772  0.1251232399432626  0.4330141747238155
  0.0639124934360016  0.2091076699538854  0.4778689880424665
  0.3132080708587758  0.0414040817422980  0.6558024780493820
  0.4361207179972684  0.7907635409959347  0.5220892791336548
  0.1867578297477483  0.1367766136421309  0.8341197028580672
  0.1866740716330610  0.2789470444196206  0.1244402619234047
  0.9367092925004019  0.4584970692001027  0.3441114426937009
  0.5650163285383987  0.8636712650358384  0.1659886065253715
  0.3075431652444779  0.7006689220309161  0.2111131657455854
  0.9382610444090580  0.6137786006515178  0.1662018325357335
  0.1888628311875890  0.4577323850048989  0.6114585355465366
  0.0673867672861842  0.8766274619483750  0.7002912573326496
  0.0630969203724654  0.5412328606492427  0.6558587735370561
  0.3104856482391167  0.5303917989974405  0.1241135951903401
  0.9362439575345847  0.7919928433747486  0.3884300741114163
  0.9415734090225526  0.2985192468346823  0.7888784215593639
  0.1879856806191925  0.2915061721264080  0.6558421871661757
  0.3141262452958891  0.8633807113666194  0.1659553963434595
  0.8134949765568129  0.7130679400722149  0.7445751092189070
  0.6862779128361421  0.2875183876960254  0.2554460893110116
  0.0638725573673307  0.7130161865519457  0.7444610997018634
  0.6826044690739906  0.4510572422148699  0.2112387312907787
  0.8138617612003435  0.2089429863999899  0.4778057766966506
  0.5639032972881169  0.7091540128812108  0.4778635446860975
  0.0638315801335502  0.8635398278247056  0.1659997782248649
  0.9361886540375063  0.2908212316739631  0.5221266500833354
  0.6878501158280501  0.7913742417431961  0.6557654437170833
  0.0613807433877263  0.8747038583345144  0.4329602982614391
  0.0656180636581466  0.2195296520712957  0.8758288083010367
  0.8129907033086469  0.0413222555740950  0.6558170018573375
  0.5599517332922407  0.0297595745844922  0.1244185112685084
  0.3107351654257146  0.3750428202746293  0.4330963819878749
  0.3140726817461309  0.3746559477792439  0.5667507349550833
  0.3139442584417915  0.7093152164430189  0.4778302007156957
  0.0611856839939013  0.0406680964704462  0.5219916897277992
  0.3172538205425515  0.8764714175554270  0.7004079837870426
  0.0617190473584439  0.5369823081408189  0.2555212169077063
  0.6865496737964263  0.1372666972386355  0.8340976829064188
  0.8114569164873598  0.0366949612527469  0.2555758124921268
  0.1868782863422178  0.1250758991107450  0.4329958499848133
  0.6923514007073857  0.1266059728360978  0.7004609402109938
  0.1862890655088012  0.2907664078011161  0.5221954368736083
  0.4366131945653769  0.7873178603760538  0.2554991423912982
  0.4388554982567687  0.6126572462914242  0.1660684414061009
  0.0635488896558672  0.2080860213820269  0.6114380245891199
  0.1862997348854528  0.7915697068369340  0.3883617079177697
  0.3113283608469319  0.5407286569740903  0.5221048383488409
  0.8171312605193307  0.3765089192184070  0.7003186288004394
  0.6863898742327260  0.2920173656505040  0.3884181263248542
  0.1890434631702755  0.1247887546378255  0.5668160173437513
  0.6889840595760774  0.9716588787771087  0.8755048604696423
  0.6891230940911554  0.1247356348283325  0.5668475668189717
  0.4367929150487227  0.9585261843906161  0.3441826568032976
  0.1883810228027495  0.9627866739470228  0.7445344132982336
  0.9369113393954536  0.7875848455172942  0.2555269799907561
  0.5610624244788782  0.8750838284067648  0.4330075505321350
  0.3107692123307775  0.8749118959203193  0.4330261133138906
  0.8111246308174508  0.5404925738745973  0.5221059367208022
  0.9327551452560120  0.4512832324788817  0.2113401410912432
  0.3117229290220611  0.5366810301526954  0.2556536525878020
  0.5611896901944010  0.0417253208483039  0.3884042581467507
  0.9384330812977633  0.4577890210827809  0.6114642710753466
  0.0614792826430850  0.0418666778766569  0.3884223437072613
  0.0613386988126183  0.5417954271808834  0.3884025771173852
  0.4366012225462799  0.2916546882353397  0.3883928245094004
  0.6888288771367092  0.4591496610558356  0.4778698884692146
  0.0642445066210096  0.3749898771507025  0.5668601644082724
  0.5576614079763380  0.7009808556253233  0.2111627337667277
  0.9367221968530990  0.2870433043688069  0.2555219414093562
  0.8165853746819822  0.0493387696967349  0.7889266137241687
  0.1869420129532271  0.9581234807471659  0.3441331176600967
  0.5577248721024413  0.8733314801265353  0.2996888695161622
  0.0613543964631238  0.3749171157273917  0.4330400697685959
  0.3119001190505371  0.7080557928601958  0.3441697588241386
  0.3119625608505674  0.2080024795136088  0.3441547802009031
  0.9391508666268401  0.1249385141829361  0.5667239641030605
  0.4382613240071815  0.9579189792089915  0.6114605264383239
  0.5608421321594350  0.0371049656613158  0.2555444125017496
  0.1859348741388070  0.7791732642500484  0.1246372644482590
  0.0620336064018688  0.0370327339183847  0.2555347819745702
  0.6889341911480765  0.6247785458826086  0.5668353795923645
  0.0605711699458613  0.5299854026647585  0.1244332049106649
  0.3112949050807169  0.0411368390839859  0.5220784368573714
  0.6873101572878337  0.2800168864754823  0.1245866584833439
  0.8138448934317145  0.7090401728569072  0.4778251168949865
  0.4367481220042945  0.1367334633613435  0.8339779229599671
  0.3175746741213711  0.3763159016432095  0.7003887630785905
  0.6868473805676661  0.6371193325791366  0.8341115689753054
  0.5632896659614020  0.7127941682046479  0.7444753887218747
  0.9361589349083720  0.2921685217264342  0.3884088511786478
  0.9392551274747460  0.9713428442531702  0.8755058433410754
  0.5635152602108727  0.2083707911352699  0.6114352795690547
  0.8140299211111526  0.8748274732194696  0.5668356693391779
  0.8076013951146216  0.8732450391488401  0.2995945485212224
  0.3111858859530658  0.0369425417823407  0.2555117457277475
  0.4366818883499253  0.2796035148155541  0.1241991694390166
  0.3132867388896374  0.7077496567919104  0.6114112908260914
  0.4355126030388365  0.6251395211414696  0.4330039100590240
  0.9358264673785397  0.6252791304578158  0.4330650200147625
  0.9383254801992243  0.9582314355807723  0.6115245095335357
  0.0672655868798976  0.5493583068433022  0.7888090507953258
  0.9356712349989678  0.1251832143477998  0.4330718318105197
  0.3149384326241008  0.3633791758486828  0.1656173547116039
  0.9376089374234433  0.9631492890808868  0.7446186844189117
  0.8119330605560401  0.5367901470167871  0.2553983299895736
 
  0.00000000E+00  0.00000000E+00  0.00000000E+00
  0.00000000E+00  0.00000000E+00  0.00000000E+00
  0.00000000E+00  0.00000000E+00  0.00000000E+00
  0.00000000E+00  0.00000000E+00  0.00000000E+00
  0.00000000E+00  0.00000000E+00  0.00000000E+00
  0.00000000E+00  0.00000000E+00  0.00000000E+00
  0.00000000E+00  0.00000000E+00  0.00000000E+00
  0.00000000E+00  0.00000000E+00  0.00000000E+00
  0.00000000E+00  0.00000000E+00  0.00000000E+00
  0.00000000E+00  0.00000000E+00  0.00000000E+00
  0.00000000E+00  0.00000000E+00  0.00000000E+00
  0.00000000E+00  0.00000000E+00  0.00000000E+00
  0.00000000E+00  0.00000000E+00  0.00000000E+00
  0.00000000E+00  0.00000000E+00  0.00000000E+00
  0.00000000E+00  0.00000000E+00  0.00000000E+00
  0.00000000E+00  0.00000000E+00  0.00000000E+00
  0.00000000E+00  0.00000000E+00  0.00000000E+00
  0.00000000E+00  0.00000000E+00  0.00000000E+00
  0.00000000E+00  0.00000000E+00  0.00000000E+00
  0.00000000E+00  0.00000000E+00  0.00000000E+00
  0.00000000E+00  0.00000000E+00  0.00000000E+00
  0.00000000E+00  0.00000000E+00  0.00000000E+00
  0.00000000E+00  0.00000000E+00  0.00000000E+00
  0.00000000E+00  0.00000000E+00  0.00000000E+00
  0.00000000E+00  0.00000000E+00  0.00000000E+00
  0.00000000E+00  0.00000000E+00  0.00000000E+00
  0.00000000E+00  0.00000000E+00  0.00000000E+00
  0.00000000E+00  0.00000000E+00  0.00000000E+00
  0.00000000E+00  0.00000000E+00  0.00000000E+00
  0.00000000E+00  0.00000000E+00  0.00000000E+00
  0.00000000E+00  0.00000000E+00  0.00000000E+00
  0.00000000E+00  0.00000000E+00  0.00000000E+00
  0.00000000E+00  0.00000000E+00  0.00000000E+00
  0.00000000E+00  0.00000000E+00  0.00000000E+00
  0.00000000E+00  0.00000000E+00  0.00000000E+00
  0.00000000E+00  0.00000000E+00  0.00000000E+00
  0.00000000E+00  0.00000000E+00  0.00000000E+00
  0.00000000E+00  0.00000000E+00  0.00000000E+00
  0.00000000E+00  0.00000000E+00  0.00000000E+00
  0.00000000E+00  0.00000000E+00  0.00000000E+00
  0.00000000E+00  0.00000000E+00  0.00000000E+00
  0.00000000E+00  0.00000000E+00  0.00000000E+00
  0.00000000E+00  0.00000000E+00  0.00000000E+00
  0.00000000E+00  0.00000000E+00  0.00000000E+00
  0.00000000E+00  0.00000000E+00  0.00000000E+00
  0.00000000E+00  0.00000000E+00  0.00000000E+00
  0.00000000E+00  0.00000000E+00  0.00000000E+00
  0.00000000E+00  0.00000000E+00  0.00000000E+00
  0.00000000E+00  0.00000000E+00  0.00000000E+00
  0.00000000E+00  0.00000000E+00  0.00000000E+00
  0.00000000E+00  0.00000000E+00  0.00000000E+00
  0.00000000E+00  0.00000000E+00  0.00000000E+00
  0.00000000E+00  0.00000000E+00  0.00000000E+00
  0.00000000E+00  0.00000000E+00  0.00000000E+00
  0.00000000E+00  0.00000000E+00  0.00000000E+00
  0.00000000E+00  0.00000000E+00  0.00000000E+00
  0.00000000E+00  0.00000000E+00  0.00000000E+00
  0.00000000E+00  0.00000000E+00  0.00000000E+00
  0.00000000E+00  0.00000000E+00  0.00000000E+00
  0.00000000E+00  0.00000000E+00  0.00000000E+00
  0.00000000E+00  0.00000000E+00  0.00000000E+00
  0.00000000E+00  0.00000000E+00  0.00000000E+00
  0.00000000E+00  0.00000000E+00  0.00000000E+00
  0.00000000E+00  0.00000000E+00  0.00000000E+00
  0.00000000E+00  0.00000000E+00  0.00000000E+00
  0.00000000E+00  0.00000000E+00  0.00000000E+00
  0.00000000E+00  0.00000000E+00  0.00000000E+00
  0.00000000E+00  0.00000000E+00  0.00000000E+00
  0.00000000E+00  0.00000000E+00  0.00000000E+00
  0.00000000E+00  0.00000000E+00  0.00000000E+00
  0.00000000E+00  0.00000000E+00  0.00000000E+00
  0.00000000E+00  0.00000000E+00  0.00000000E+00
  0.00000000E+00  0.00000000E+00  0.00000000E+00
  0.00000000E+00  0.00000000E+00  0.00000000E+00
  0.00000000E+00  0.00000000E+00  0.00000000E+00
  0.00000000E+00  0.00000000E+00  0.00000000E+00
  0.00000000E+00  0.00000000E+00  0.00000000E+00
  0.00000000E+00  0.00000000E+00  0.00000000E+00
  0.00000000E+00  0.00000000E+00  0.00000000E+00
  0.00000000E+00  0.00000000E+00  0.00000000E+00
  0.00000000E+00  0.00000000E+00  0.00000000E+00
  0.00000000E+00  0.00000000E+00  0.00000000E+00
  0.00000000E+00  0.00000000E+00  0.00000000E+00
  0.00000000E+00  0.00000000E+00  0.00000000E+00
  0.00000000E+00  0.00000000E+00  0.00000000E+00
  0.00000000E+00  0.00000000E+00  0.00000000E+00
  0.00000000E+00  0.00000000E+00  0.00000000E+00
  0.00000000E+00  0.00000000E+00  0.00000000E+00
  0.00000000E+00  0.00000000E+00  0.00000000E+00
  0.00000000E+00  0.00000000E+00  0.00000000E+00
  0.00000000E+00  0.00000000E+00  0.00000000E+00
  0.00000000E+00  0.00000000E+00  0.00000000E+00
  0.00000000E+00  0.00000000E+00  0.00000000E+00
  0.00000000E+00  0.00000000E+00  0.00000000E+00
  0.00000000E+00  0.00000000E+00  0.00000000E+00
  0.00000000E+00  0.00000000E+00  0.00000000E+00
  0.00000000E+00  0.00000000E+00  0.00000000E+00
  0.00000000E+00  0.00000000E+00  0.00000000E+00
  0.00000000E+00  0.00000000E+00  0.00000000E+00
  0.00000000E+00  0.00000000E+00  0.00000000E+00
  0.00000000E+00  0.00000000E+00  0.00000000E+00
  0.00000000E+00  0.00000000E+00  0.00000000E+00
  0.00000000E+00  0.00000000E+00  0.00000000E+00
  0.00000000E+00  0.00000000E+00  0.00000000E+00
  0.00000000E+00  0.00000000E+00  0.00000000E+00
  0.00000000E+00  0.00000000E+00  0.00000000E+00
  0.00000000E+00  0.00000000E+00  0.00000000E+00
  0.00000000E+00  0.00000000E+00  0.00000000E+00
  0.00000000E+00  0.00000000E+00  0.00000000E+00
  0.00000000E+00  0.00000000E+00  0.00000000E+00
  0.00000000E+00  0.00000000E+00  0.00000000E+00
  0.00000000E+00  0.00000000E+00  0.00000000E+00
  0.00000000E+00  0.00000000E+00  0.00000000E+00
  0.00000000E+00  0.00000000E+00  0.00000000E+00
  0.00000000E+00  0.00000000E+00  0.00000000E+00
  0.00000000E+00  0.00000000E+00  0.00000000E+00
  0.00000000E+00  0.00000000E+00  0.00000000E+00
  0.00000000E+00  0.00000000E+00  0.00000000E+00
  0.00000000E+00  0.00000000E+00  0.00000000E+00
  0.00000000E+00  0.00000000E+00  0.00000000E+00
  0.00000000E+00  0.00000000E+00  0.00000000E+00
  0.00000000E+00  0.00000000E+00  0.00000000E+00
  0.00000000E+00  0.00000000E+00  0.00000000E+00
  0.00000000E+00  0.00000000E+00  0.00000000E+00
  0.00000000E+00  0.00000000E+00  0.00000000E+00
  0.00000000E+00  0.00000000E+00  0.00000000E+00
  0.00000000E+00  0.00000000E+00  0.00000000E+00
  0.00000000E+00  0.00000000E+00  0.00000000E+00
  0.00000000E+00  0.00000000E+00  0.00000000E+00
  0.00000000E+00  0.00000000E+00  0.00000000E+00
  0.00000000E+00  0.00000000E+00  0.00000000E+00
  0.00000000E+00  0.00000000E+00  0.00000000E+00
  0.00000000E+00  0.00000000E+00  0.00000000E+00
  0.00000000E+00  0.00000000E+00  0.00000000E+00
  0.00000000E+00  0.00000000E+00  0.00000000E+00
  0.00000000E+00  0.00000000E+00  0.00000000E+00
  0.00000000E+00  0.00000000E+00  0.00000000E+00
  0.00000000E+00  0.00000000E+00  0.00000000E+00
  0.00000000E+00  0.00000000E+00  0.00000000E+00
  0.00000000E+00  0.00000000E+00  0.00000000E+00
  0.00000000E+00  0.00000000E+00  0.00000000E+00
  0.00000000E+00  0.00000000E+00  0.00000000E+00
  0.00000000E+00  0.00000000E+00  0.00000000E+00
  0.00000000E+00  0.00000000E+00  0.00000000E+00
  0.00000000E+00  0.00000000E+00  0.00000000E+00
  0.00000000E+00  0.00000000E+00  0.00000000E+00
  0.00000000E+00  0.00000000E+00  0.00000000E+00
  0.00000000E+00  0.00000000E+00  0.00000000E+00
  0.00000000E+00  0.00000000E+00  0.00000000E+00
  0.00000000E+00  0.00000000E+00  0.00000000E+00
  0.00000000E+00  0.00000000E+00  0.00000000E+00
  0.00000000E+00  0.00000000E+00  0.00000000E+00
  0.00000000E+00  0.00000000E+00  0.00000000E+00
  0.00000000E+00  0.00000000E+00  0.00000000E+00
  0.00000000E+00  0.00000000E+00  0.00000000E+00
  0.00000000E+00  0.00000000E+00  0.00000000E+00
  0.00000000E+00  0.00000000E+00  0.00000000E+00
  0.00000000E+00  0.00000000E+00  0.00000000E+00
  0.00000000E+00  0.00000000E+00  0.00000000E+00
  0.00000000E+00  0.00000000E+00  0.00000000E+00
  0.00000000E+00  0.00000000E+00  0.00000000E+00
  0.00000000E+00  0.00000000E+00  0.00000000E+00
  0.00000000E+00  0.00000000E+00  0.00000000E+00
  0.00000000E+00  0.00000000E+00  0.00000000E+00
  0.00000000E+00  0.00000000E+00  0.00000000E+00
  0.00000000E+00  0.00000000E+00  0.00000000E+00
  0.00000000E+00  0.00000000E+00  0.00000000E+00
  0.00000000E+00  0.00000000E+00  0.00000000E+00
  0.00000000E+00  0.00000000E+00  0.00000000E+00
  0.00000000E+00  0.00000000E+00  0.00000000E+00
  0.00000000E+00  0.00000000E+00  0.00000000E+00
  0.00000000E+00  0.00000000E+00  0.00000000E+00
  0.00000000E+00  0.00000000E+00  0.00000000E+00
  0.00000000E+00  0.00000000E+00  0.00000000E+00
  0.00000000E+00  0.00000000E+00  0.00000000E+00
  0.00000000E+00  0.00000000E+00  0.00000000E+00
  0.00000000E+00  0.00000000E+00  0.00000000E+00
  0.00000000E+00  0.00000000E+00  0.00000000E+00
  0.00000000E+00  0.00000000E+00  0.00000000E+00
  0.00000000E+00  0.00000000E+00  0.00000000E+00
  0.00000000E+00  0.00000000E+00  0.00000000E+00
  0.00000000E+00  0.00000000E+00  0.00000000E+00
  0.00000000E+00  0.00000000E+00  0.00000000E+00
  0.00000000E+00  0.00000000E+00  0.00000000E+00
  0.00000000E+00  0.00000000E+00  0.00000000E+00
  0.00000000E+00  0.00000000E+00  0.00000000E+00
  0.00000000E+00  0.00000000E+00  0.00000000E+00
  0.00000000E+00  0.00000000E+00  0.00000000E+00
  0.00000000E+00  0.00000000E+00  0.00000000E+00
  0.00000000E+00  0.00000000E+00  0.00000000E+00
  0.00000000E+00  0.00000000E+00  0.00000000E+00
  0.00000000E+00  0.00000000E+00  0.00000000E+00
  0.00000000E+00  0.00000000E+00  0.00000000E+00
  0.00000000E+00  0.00000000E+00  0.00000000E+00
  0.00000000E+00  0.00000000E+00  0.00000000E+00
  0.00000000E+00  0.00000000E+00  0.00000000E+00
  0.00000000E+00  0.00000000E+00  0.00000000E+00
  0.00000000E+00  0.00000000E+00  0.00000000E+00
  0.00000000E+00  0.00000000E+00  0.00000000E+00
  0.00000000E+00  0.00000000E+00  0.00000000E+00
  0.00000000E+00  0.00000000E+00  0.00000000E+00
  0.00000000E+00  0.00000000E+00  0.00000000E+00
  0.00000000E+00  0.00000000E+00  0.00000000E+00
  0.00000000E+00  0.00000000E+00  0.00000000E+00
  0.00000000E+00  0.00000000E+00  0.00000000E+00
  0.00000000E+00  0.00000000E+00  0.00000000E+00
  0.00000000E+00  0.00000000E+00  0.00000000E+00
  0.00000000E+00  0.00000000E+00  0.00000000E+00
  0.00000000E+00  0.00000000E+00  0.00000000E+00
  0.00000000E+00  0.00000000E+00  0.00000000E+00
  0.00000000E+00  0.00000000E+00  0.00000000E+00
  0.00000000E+00  0.00000000E+00  0.00000000E+00
  0.00000000E+00  0.00000000E+00  0.00000000E+00
  0.00000000E+00  0.00000000E+00  0.00000000E+00
  0.00000000E+00  0.00000000E+00  0.00000000E+00
  0.00000000E+00  0.00000000E+00  0.00000000E+00
  0.00000000E+00  0.00000000E+00  0.00000000E+00
  0.00000000E+00  0.00000000E+00  0.00000000E+00
  0.00000000E+00  0.00000000E+00  0.00000000E+00
  0.00000000E+00  0.00000000E+00  0.00000000E+00
  0.00000000E+00  0.00000000E+00  0.00000000E+00
  0.00000000E+00  0.00000000E+00  0.00000000E+00
  0.00000000E+00  0.00000000E+00  0.00000000E+00
  0.00000000E+00  0.00000000E+00  0.00000000E+00
  0.00000000E+00  0.00000000E+00  0.00000000E+00
  0.00000000E+00  0.00000000E+00  0.00000000E+00
  0.00000000E+00  0.00000000E+00  0.00000000E+00
  0.00000000E+00  0.00000000E+00  0.00000000E+00
  0.00000000E+00  0.00000000E+00  0.00000000E+00
  0.00000000E+00  0.00000000E+00  0.00000000E+00
  0.00000000E+00  0.00000000E+00  0.00000000E+00
  0.00000000E+00  0.00000000E+00  0.00000000E+00
  0.00000000E+00  0.00000000E+00  0.00000000E+00
  0.00000000E+00  0.00000000E+00  0.00000000E+00
  0.00000000E+00  0.00000000E+00  0.00000000E+00
  0.00000000E+00  0.00000000E+00  0.00000000E+00
  0.00000000E+00  0.00000000E+00  0.00000000E+00
  0.00000000E+00  0.00000000E+00  0.00000000E+00
  0.00000000E+00  0.00000000E+00  0.00000000E+00
  0.00000000E+00  0.00000000E+00  0.00000000E+00
  0.00000000E+00  0.00000000E+00  0.00000000E+00
  0.00000000E+00  0.00000000E+00  0.00000000E+00
  0.00000000E+00  0.00000000E+00  0.00000000E+00
  0.00000000E+00  0.00000000E+00  0.00000000E+00
  0.00000000E+00  0.00000000E+00  0.00000000E+00
  0.00000000E+00  0.00000000E+00  0.00000000E+00
  0.00000000E+00  0.00000000E+00  0.00000000E+00