CuInSe2gb                               
   1.00000000000000     
     9.7266780392896699    0.0000000000000000    0.0000000000000000
     0.0000000000000000    8.4235502764570693    0.0000000000000000
     0.0000000000000000    0.0000000000000000   45.0000000000000000
   Fe   Mn
   281     7
Direct
  0.0537478689931070  0.7011203613069210  0.2112475570727597
  0.3182214393410103  0.7237116101319043  0.8762559241873329
  0.6884855809689556  0.9587215190726307  0.6115513977064291
  0.4384163289322513  0.4585395880367224  0.6115547149967522
  0.4406271913007560  0.2872787206724942  0.2550575352998659
  0.0586231871042364  0.3882380792542658  0.8335587075033281
  0.3086500219741568  0.8876992642454572  0.8335216521786600
  0.4470201654664775  0.6262929135673578  0.7003670255696892
  0.0597518795909858  0.2127886378302595  0.7449332091511540
  0.1787511792244349  0.4516470078057299  0.2113929478577344
  0.5678058294070696  0.2105935818844049  0.4774491172889609
  0.0666040765949963  0.8752137204262270  0.5668210498737352
  0.5681027528429280  0.2239714203819527  0.8761060885399758
  0.8085163307592411  0.5276897831791144  0.1239736674897470
  0.4286367903172605  0.9514172467115727  0.2113680915322716
  0.5667984366515114  0.3750303027148797  0.5667829161536233
  0.8110685441214953  0.0418029684168737  0.3882923845281301
  0.6820929078092944  0.7888698563251701  0.5223031352437613
  0.4427610905737067  0.4607837652984549  0.4774492940345159
  0.4340908649428448  0.9625882026559152  0.7447888615148770
  0.4416371011889056  0.6250229759055536  0.5668612779675342
  0.5717816004658135  0.8760784018958407  0.7005783949374572
  0.3075320201311110  0.0263944476201021  0.1238766313707329
  0.6896739463366243  0.9589521418715200  0.3439685700674713
  0.6860220421946639  0.7826254499384059  0.1241553578619674
  0.0527989466503829  0.3737951836434446  0.2995572759475191
  0.6897923877872936  0.4679726902518248  0.8761002792830576
  0.4291921357182255  0.4515517623282653  0.2115290578707484
  0.8088152941132410  0.3753542478545175  0.4330484670192138
  0.5634538041469709  0.7084149976168015  0.6115040058043646
  0.5597959902895155  0.5407017855749847  0.6558810180247866
  0.8169464682018521  0.8625218044886916  0.1665724697988568
  0.5656818558319580  0.5375165863578915  0.2551864028818153
  0.6894263113797315  0.4588280467232594  0.3439305335610602
  0.1914377036906458  0.6113206547135366  0.1665095293365595
  0.1945177425175939  0.7995175897772404  0.7888445894679349
  0.4473400361096767  0.1260244447184450  0.7004089468359462
  0.9279116435515415  0.6235363651398725  0.2996192966871531
  0.3175752230169599  0.2236529008522770  0.8761315407493327
  0.3164777606800199  0.8750398797028961  0.5668919237280827
  0.8174892822159364  0.2238769207319051  0.8762251384463631
  0.8096585537533960  0.5406040762333791  0.6558238366021261
  0.5587488050982916  0.5277892158476060  0.1238634442869329
  0.5692269427890383  0.0498513802063511  0.7889672323806735
  0.1908002716629790  0.2872024449064925  0.2552518446977900
  0.8088692342707813  0.8752730257834707  0.4330155492923266
  0.5723192358730604  0.3762031976951517  0.7004105346954285
  0.0576431739522695  0.0263838239701582  0.1239978822006273
  0.3097989422454313  0.5406700263250727  0.6559331873107225
  0.5650029260395292  0.2090321054578941  0.3440044824044591
  0.1878582899449840  0.9582786862591818  0.6113420120843394
  0.3028198099828202  0.3738534656787149  0.2996095135527129
  0.4347718505042050  0.7906324029868774  0.6559968060819199
  0.1950445076907426  0.2988508350930890  0.7887935955589922
  0.0674703807077987  0.3624597696757919  0.1665880999036825
  0.6970728420952788  0.6263056719735175  0.7004522283345551
  0.3113155560770114  0.5414395559180228  0.3884402538969715
  0.0676776845080652  0.7235068394748930  0.8761985722654615
  0.9336476722180332  0.6377426119436267  0.8339367859062199
  0.3197785487917567  0.5496488411856442  0.7889177765761635
  0.3046581967773512  0.2006084128891002  0.2112054548733067
  0.0679224103567521  0.7105645736654571  0.4774620996668617
  0.5542115419098069  0.2008367119450603  0.2111330315470535
  0.3096523221341117  0.2122785560742881  0.7448958227081162
  0.0721036133758991  0.3762084333027774  0.7005968331893714
  0.1832898237714725  0.6375541267819071  0.8335639242599372
  0.0693999238675271  0.0494297168468777  0.7890496608214309
  0.4416508973295030  0.1248516825310308  0.5669108916604275
  0.9348364205910518  0.2907546233856874  0.6558179656962572
  0.8041298821546617  0.2010676153322190  0.2112450862747124
  0.9287567175469538  0.9515314315016680  0.2112874254554474
  0.9414778502939120  0.6253041977202892  0.5668209543326010
  0.8084210835388957  0.3876323840372948  0.8335253169389731
  0.1967592407049553  0.6257021702098461  0.7003210560261524
  0.8086015387521812  0.8877804282270215  0.8335389463233299
  0.6850828994188267  0.2906846813535696  0.6560510425746194
  0.3131245339489431  0.2083389332102342  0.6115799232407825
  0.4346259794172904  0.4627673631795505  0.7448855130919756
  0.4360272877653838  0.7911485736126859  0.3883838746704818
  0.6843355924971212  0.9626361995346080  0.7449080271224715
  0.8039461879741931  0.7008859338275807  0.2112935116008533
  0.8137234267706737  0.7085750477719285  0.6115843053269944
  0.4367970415341597  0.7832148886741243  0.1242046860702607
  0.3097644313349611  0.7120470027290396  0.7448234670478486
  0.3201536996338940  0.0495612044964883  0.7888486183587387
  0.8111594446061871  0.5419860728707937  0.3883094763133551
  0.6822108873552842  0.2890511451972118  0.5224408388380644
  0.6950023724081912  0.7992059498874278  0.7888822934412013
  0.1906313509756692  0.7874210245095791  0.2552965875027371
  0.6915420263192504  0.1122602961557420  0.1664259627723372
  0.6926480647741931  0.9607288358933419  0.4773579588442452
  0.9404338123286284  0.9592777291688774  0.3441136500880639
  0.8072486809083741  0.0391417180255912  0.5225287444296851
  0.6837637577156856  0.6248186095954207  0.4329913870749349
  0.4396608873479844  0.4585791722557451  0.3440217259820073
  0.8103283460142764  0.2119861386223834  0.7446062992147869
  0.4396281311900925  0.9679016764682689  0.8760922157657635
  0.5664730748037466  0.8750699231038936  0.5668566295898589
  0.8076880829924012  0.0270266803316040  0.1239004448222096
  0.4284452941117267  0.6235590297179912  0.2994150912940503
  0.8171042370756700  0.7238733850995882  0.8763181170765598
  0.6881177358619769  0.4584415710666969  0.6115648749226774
  0.5584763991311863  0.3876789436104148  0.8334307661433025
  0.8029489183333671  0.3735946617203662  0.2994781621993438
  0.1859590925055489  0.2910988853139108  0.3883636304525770
  0.8199173479379210  0.5497317057669830  0.7889572567355752
  0.1826543936171322  0.7894798726686008  0.5224720252442773
  0.3028780959644428  0.8738723664000159  0.2995752466585110
  0.1789753256383900  0.9512027067093849  0.2112328373170747
  0.1844559668603985  0.4626270523165150  0.7449830632384086
  0.4324136468256007  0.2892507854910275  0.5223798748132306
  0.0648534771788854  0.7085744412349920  0.3438455345786779
  0.1849825512363376  0.7906116268789369  0.6558608996140251
  0.4446002779092793  0.7991912537956838  0.7888472273067267
  0.6837382165425671  0.1249056869298767  0.4329346463736817
  0.9323394115888730  0.7889483443019849  0.5224759451420808
  0.6917331662663360  0.6125193212271963  0.1667163259789420
  0.8144716038708475  0.7083199500906928  0.3438387692025660
  0.9343998555300949  0.4626737542287468  0.7449428383001201
  0.1898820871665552  0.4588383394115280  0.3439608319782073
  0.5697775164984874  0.5496188645385998  0.7890779084852028
  0.5664048138244517  0.3624662328827949  0.1664709033762617
  0.5647096264978021  0.7088326122371048  0.3439289265930255
  0.5530464506334075  0.3735551314842708  0.2995802409870014
  0.1897123691396152  0.4681011695385590  0.8760854052310937
  0.1924882370482538  0.1120148375563653  0.1665857015879009
  0.4446223680195460  0.2990616049346060  0.7888170880650345
  0.6910180536033015  0.7874680262420984  0.2554130216131579
  0.9336858024824056  0.1379432250533156  0.8335456735736905
  0.4427120321169285  0.9607208485982172  0.4774176835941069
  0.5675161540222828  0.7247141241862424  0.8762416057549534
  0.1926897644893970  0.4608999441581526  0.4774787027717838
  0.9356419863919172  0.2823613915966088  0.1242455473763096
  0.3113402324611874  0.0413411503392042  0.3884210230304202
  0.0601532375543542  0.0406352147074899  0.6560675598007738
  0.5586992794238552  0.3752169999815446  0.4330372081597697
  0.6840512031417728  0.4627112209633806  0.7449759385593712
  0.5601162108527072  0.2123993052423042  0.7448427645482282
  0.9471612117191910  0.1263726716646169  0.7003672386069549
  0.5597421179883065  0.0406772165363712  0.6558231132402373
  0.5573598545042279  0.5392087877430902  0.5224612133648284
  0.1778747275783649  0.1237763277045601  0.2995464351722125
  0.4414649568057833  0.1121549305329965  0.1664896035102338
  0.6777591670889431  0.6235528153807389  0.2996227787781981
  0.9280768333089561  0.1235323762794183  0.2996329880571802
  0.8166802176748299  0.3751281023867864  0.5669102852669142
  0.0528218332144048  0.8738231723318242  0.2995254190252372
  0.1917627148816883  0.6248889901462353  0.5668854460568995
  0.9447691623851634  0.7995908044753371  0.7888407454637760
  0.3084946597564623  0.3874114085473798  0.8335107026045168
  0.9397045839531317  0.4684743627021227  0.8761175295707065
  0.4337200438462236  0.6377247797053566  0.8335267470023771
  0.0646601312519192  0.2083939335190118  0.3438311050480880
  0.1897213413906130  0.9680551192895691  0.8761128611892294
  0.9356595732879670  0.7822575404080511  0.1241622415113008
  0.6864981435882733  0.7915522794873546  0.3884373349927589
  0.9346024392715994  0.7906940368619770  0.6558701082926870
  0.9415271344921663  0.1122129661601805  0.1664370856111737
  0.4351445332186764  0.2908084478525799  0.6560919798899811
  0.0546728355046146  0.2009845192645704  0.2112047940522548
  0.6788497767311559  0.9515900847837674  0.2113233298083030
  0.1783221010537986  0.6236661489238445  0.2994147153274572
  0.8221043645474183  0.8762012861220264  0.7004280597718562
  0.9469773202532297  0.6258671268938292  0.7005629509752559
  0.1973266738563647  0.1259916339859162  0.7004275298110472
  0.9426699486360669  0.4606047508080096  0.4772826761501817
  0.8137979321351658  0.2082858366420544  0.6115632302827191
  0.1834979838338080  0.6246997415096494  0.4330964747546407
  0.4279761762641480  0.1234727928780493  0.2995052388417319
  0.6781657154065246  0.1236206536009334  0.2994293099404591
  0.5613534269332583  0.5415415742486601  0.3884934133635762
  0.8144615116754230  0.2085007184741829  0.3439575782371523
  0.4395866790523341  0.4676551198555020  0.8759300473006740
  0.5585147798537862  0.8876170888353234  0.8335148295876459
  0.3175892082645235  0.2104430188438599  0.4772310759915463
  0.1926261128603138  0.9608459831953187  0.4773783021232398
  0.0585047428066280  0.8877790129929564  0.8334968670811427
  0.0574684478907661  0.5391786675969910  0.5223852542109576
  0.9425982984124751  0.9605864824489535  0.4771866594087441
  0.0632231284062393  0.7084937906645750  0.6115620626941898
  0.5573784236329233  0.0387922256835451  0.5223703149043446
  0.6954848044634243  0.2989258092469815  0.7887720578563421
  0.8175359400585844  0.3617405734568454  0.1666280808233605
  0.4336542127600568  0.1246990276492691  0.4329922094417871
  0.0679201534468750  0.2106359248687013  0.4774068576003070
  0.3097586518930218  0.0407148126996366  0.6558896705676471
  0.4323414413746866  0.7888720530178653  0.5223187803192134
  0.1835470697148353  0.1378340077043205  0.8336129181480718
  0.1861756975364555  0.2827436557107684  0.1242382486610821
  0.9396939825787020  0.4593095022288739  0.3439857742512832
  0.5673763730067285  0.8621234744120162  0.1665840096969938
  0.3040114991880034  0.7010797054421938  0.2112221822169886
  0.9414815160633677  0.6122587506502047  0.1666099298884202
  0.1881558504709139  0.4582573954996734  0.6114252119705763
  0.0722287884903544  0.8763612040879032  0.7003751705333445
  0.0597490876736763  0.5406267154097674  0.6559427014548592
  0.3083144267085514  0.5262582901870111  0.1239687395097566
  0.9363973978244290  0.7912622947345228  0.3884566674397184
  0.9450889837253112  0.2989858297043353  0.7887891401683235
  0.1849563525844390  0.2905558021285528  0.6559449893261912
  0.3168461624774189  0.8618865262570504  0.1666217730112937
  0.8100163753841626  0.7119525512371675  0.7448545939781923
  0.6912342684632936  0.2872962832796467  0.2552735389796260
  0.0594648778498715  0.7123907270535953  0.7449953013286684
  0.6789065309599407  0.4515870169563193  0.2112310309568939
  0.8176971584337780  0.2107325310391401  0.4774223210327899
  0.5677357845557597  0.7107928802276567  0.4774728692815504
  0.0668697014958283  0.8624603657822425  0.1666388540063149
  0.9322224774669129  0.2886754782460753  0.5223493819830674
  0.6848384077122384  0.7906372041939042  0.6559145542303427
  0.0584306762127261  0.8749537625402782  0.4329498382741359
  0.0681898730310764  0.2232805606003446  0.8761601136877801
  0.8097648397004397  0.0404715260546508  0.6559916417458463
  0.5588336797833501  0.0266310292866222  0.1239943292237324
  0.3088456862139439  0.3752085330472136  0.4328399850875118
  0.3165921016238360  0.3750156028866126  0.5668605139845114
  0.3175750300188254  0.7105058566078601  0.4773304444493211
  0.0571127273495362  0.0389635725513035  0.5225036525370808
  0.3219409928651864  0.8762775328309924  0.7005369188836912
  0.0654627888801343  0.5376465866074822  0.2551975868298378
  0.6834312382348715  0.1376639385949945  0.8335352255948567
  0.8151746612884593  0.0378819835589643  0.2551615028963783
  0.1833983750378192  0.1250423071434228  0.4331447580460722
  0.6969659114139550  0.1262545039133111  0.7005028572512492
  0.1823838316537577  0.2892593984656295  0.5224876766289079
  0.4410330727630686  0.7875951257814362  0.2553126316428067
  0.4415985153152309  0.6110917281303236  0.1665118631084574
  0.0630728797794169  0.2083521154364978  0.6114911803767440
  0.1862565748499184  0.7911666624783238  0.3882671305573904
  0.3069807249610612  0.5387677086079129  0.5223585330655603
  0.8219190465421388  0.3762878514320450  0.7003998385432382
  0.6862836729568167  0.2910902774927266  0.3884109268033489
  0.1917428418296755  0.1249270856024466  0.5668535558867897
  0.6898293199803790  0.9684999776156015  0.8761134759348435
  0.6918250283703073  0.1249344202082787  0.5668961451814143
  0.4401159510287548  0.9589320280456316  0.3440324696550318
  0.1837345552690707  0.9626126492786243  0.7447920764570237
  0.9405013254604369  0.7877757982483947  0.2551555686568977
  0.5586247013265675  0.8751602502658351  0.4330189233031633
  0.3087186776722168  0.8752101847817061  0.4330160532228368
  0.8072846064200373  0.5391674743079758  0.5225082405014262
  0.9292843222632805  0.4514025016774572  0.2112432985270277
  0.3154899277335577  0.5377684242812920  0.2551212816819075
  0.5615642321186251  0.0415269123955913  0.3884394097500937
  0.9381799494688954  0.4581792454266597  0.6116277050579527
  0.0615490609130962  0.0414416306890322  0.3884048156266005
  0.0613134811612968  0.5416018055749624  0.3884102970468407
  0.4360374935991557  0.2910902337612508  0.3883883523235808
  0.6926427700771165  0.4606739770967626  0.4773333162209962
  0.0665654799148351  0.3750103937555360  0.5668903711415447
  0.5543532890523467  0.7008574877129466  0.2111595254485922
  0.9404570038450073  0.2872797980058145  0.2552064422939600
  0.8193639833761743  0.0496449049880131  0.7890676495852926
  0.1897955592874508  0.9589341713422618  0.3439312478628720
  0.5528879580842593  0.8738531008849201  0.2996066351754991
  0.0585496283310351  0.3748558823155839  0.4328441870622233
  0.3146919052882475  0.7086504198842694  0.3439505559594774
  0.3144164808774944  0.2089613623643015  0.3438972179148833
  0.9415739153456707  0.1251933323723892  0.5668304101302941
  0.4385661974704148  0.9588834201806143  0.6115605821803809
  0.5652332119731868  0.0377054952781227  0.2551359672325498
  0.1860146699498673  0.7830235335950966  0.1242462915630778
  0.0654776651441089  0.0376381743380941  0.2551286671963398
  0.6916651954207410  0.6249128290350374  0.5669143271029493
  0.0572762942683133  0.5270733102864308  0.1240813539357373
  0.3071160376215057  0.0386154345617743  0.5222756627819065
  0.6873152151181405  0.2821324809400942  0.1242409074369226
  0.8178551037529216  0.7106914337684045  0.4774674837562516
  0.4334439004526673  0.1376688078180265  0.8335254863151449
  0.3223128025009038  0.3763278250237276  0.7003852491556021
  0.6836412243536359  0.6377263592793299  0.8335210343471954
  0.5598868304465714  0.7119783872723018  0.7448740378666918
  0.9365706038254868  0.2914319575071227  0.3884629235118248
  0.9396877414457705  0.9683004779827482  0.8761730535988740
  0.5632211197833861  0.2084570587305419  0.6114839029196317
  0.8164965275628988  0.8750692100123922  0.5668908164707368
  0.8030663116009212  0.8735749437359495  0.2994996600213697
  0.3156772184760082  0.0377007875651095  0.2553325428565441
  0.4362289534024794  0.2832182588392194  0.1240322981773413
  0.3134673250674702  0.7083052152681876  0.6115870228172907
  0.4336356243681401  0.6248755479760192  0.4329356544632190
  0.9330665244922203  0.6247669975491988  0.4330874622054068
  0.9383936264546436  0.9570559228787979  0.6115675543411788
  0.0706771276979633  0.5493964852741987  0.7887973697021331
  0.9334301794322167  0.1248468718627385  0.4330753961937622
  0.3185963812579715  0.3627583555810266  0.1658324435708804
  0.9334922771412214  0.9621926887206305  0.7447138980414708
  0.8163719235320869  0.5378751337375914  0.2553091932318847
 
  0.00000000E+00  0.00000000E+00  0.00000000E+00
  0.00000000E+00  0.00000000E+00  0.00000000E+00
  0.00000000E+00  0.00000000E+00  0.00000000E+00
  0.00000000E+00  0.00000000E+00  0.00000000E+00
  0.00000000E+00  0.00000000E+00  0.00000000E+00
  0.00000000E+00  0.00000000E+00  0.00000000E+00
  0.00000000E+00  0.00000000E+00  0.00000000E+00
  0.00000000E+00  0.00000000E+00  0.00000000E+00
  0.00000000E+00  0.00000000E+00  0.00000000E+00
  0.00000000E+00  0.00000000E+00  0.00000000E+00
  0.00000000E+00  0.00000000E+00  0.00000000E+00
  0.00000000E+00  0.00000000E+00  0.00000000E+00
  0.00000000E+00  0.00000000E+00  0.00000000E+00
  0.00000000E+00  0.00000000E+00  0.00000000E+00
  0.00000000E+00  0.00000000E+00  0.00000000E+00
  0.00000000E+00  0.00000000E+00  0.00000000E+00
  0.00000000E+00  0.00000000E+00  0.00000000E+00
  0.00000000E+00  0.00000000E+00  0.00000000E+00
  0.00000000E+00  0.00000000E+00  0.00000000E+00
  0.00000000E+00  0.00000000E+00  0.00000000E+00
  0.00000000E+00  0.00000000E+00  0.00000000E+00
  0.00000000E+00  0.00000000E+00  0.00000000E+00
  0.00000000E+00  0.00000000E+00  0.00000000E+00
  0.00000000E+00  0.00000000E+00  0.00000000E+00
  0.00000000E+00  0.00000000E+00  0.00000000E+00
  0.00000000E+00  0.00000000E+00  0.00000000E+00
  0.00000000E+00  0.00000000E+00  0.00000000E+00
  0.00000000E+00  0.00000000E+00  0.00000000E+00
  0.00000000E+00  0.00000000E+00  0.00000000E+00
  0.00000000E+00  0.00000000E+00  0.00000000E+00
  0.00000000E+00  0.00000000E+00  0.00000000E+00
  0.00000000E+00  0.00000000E+00  0.00000000E+00
  0.00000000E+00  0.00000000E+00  0.00000000E+00
  0.00000000E+00  0.00000000E+00  0.00000000E+00
  0.00000000E+00  0.00000000E+00  0.00000000E+00
  0.00000000E+00  0.00000000E+00  0.00000000E+00
  0.00000000E+00  0.00000000E+00  0.00000000E+00
  0.00000000E+00  0.00000000E+00  0.00000000E+00
  0.00000000E+00  0.00000000E+00  0.00000000E+00
  0.00000000E+00  0.00000000E+00  0.00000000E+00
  0.00000000E+00  0.00000000E+00  0.00000000E+00
  0.00000000E+00  0.00000000E+00  0.00000000E+00
  0.00000000E+00  0.00000000E+00  0.00000000E+00
  0.00000000E+00  0.00000000E+00  0.00000000E+00
  0.00000000E+00  0.00000000E+00  0.00000000E+00
  0.00000000E+00  0.00000000E+00  0.00000000E+00
  0.00000000E+00  0.00000000E+00  0.00000000E+00
  0.00000000E+00  0.00000000E+00  0.00000000E+00
  0.00000000E+00  0.00000000E+00  0.00000000E+00
  0.00000000E+00  0.00000000E+00  0.00000000E+00
  0.00000000E+00  0.00000000E+00  0.00000000E+00
  0.00000000E+00  0.00000000E+00  0.00000000E+00
  0.00000000E+00  0.00000000E+00  0.00000000E+00
  0.00000000E+00  0.00000000E+00  0.00000000E+00
  0.00000000E+00  0.00000000E+00  0.00000000E+00
  0.00000000E+00  0.00000000E+00  0.00000000E+00
  0.00000000E+00  0.00000000E+00  0.00000000E+00
  0.00000000E+00  0.00000000E+00  0.00000000E+00
  0.00000000E+00  0.00000000E+00  0.00000000E+00
  0.00000000E+00  0.00000000E+00  0.00000000E+00
  0.00000000E+00  0.00000000E+00  0.00000000E+00
  0.00000000E+00  0.00000000E+00  0.00000000E+00
  0.00000000E+00  0.00000000E+00  0.00000000E+00
  0.00000000E+00  0.00000000E+00  0.00000000E+00
  0.00000000E+00  0.00000000E+00  0.00000000E+00
  0.00000000E+00  0.00000000E+00  0.00000000E+00
  0.00000000E+00  0.00000000E+00  0.00000000E+00
  0.00000000E+00  0.00000000E+00  0.00000000E+00
  0.00000000E+00  0.00000000E+00  0.00000000E+00
  0.00000000E+00  0.00000000E+00  0.00000000E+00
  0.00000000E+00  0.00000000E+00  0.00000000E+00
  0.00000000E+00  0.00000000E+00  0.00000000E+00
  0.00000000E+00  0.00000000E+00  0.00000000E+00
  0.00000000E+00  0.00000000E+00  0.00000000E+00
  0.00000000E+00  0.00000000E+00  0.00000000E+00
  0.00000000E+00  0.00000000E+00  0.00000000E+00
  0.00000000E+00  0.00000000E+00  0.00000000E+00
  0.00000000E+00  0.00000000E+00  0.00000000E+00
  0.00000000E+00  0.00000000E+00  0.00000000E+00
  0.00000000E+00  0.00000000E+00  0.00000000E+00
  0.00000000E+00  0.00000000E+00  0.00000000E+00
  0.00000000E+00  0.00000000E+00  0.00000000E+00
  0.00000000E+00  0.00000000E+00  0.00000000E+00
  0.00000000E+00  0.00000000E+00  0.00000000E+00
  0.00000000E+00  0.00000000E+00  0.00000000E+00
  0.00000000E+00  0.00000000E+00  0.00000000E+00
  0.00000000E+00  0.00000000E+00  0.00000000E+00
  0.00000000E+00  0.00000000E+00  0.00000000E+00
  0.00000000E+00  0.00000000E+00  0.00000000E+00
  0.00000000E+00  0.00000000E+00  0.00000000E+00
  0.00000000E+00  0.00000000E+00  0.00000000E+00
  0.00000000E+00  0.00000000E+00  0.00000000E+00
  0.00000000E+00  0.00000000E+00  0.00000000E+00
  0.00000000E+00  0.00000000E+00  0.00000000E+00
  0.00000000E+00  0.00000000E+00  0.00000000E+00
  0.00000000E+00  0.00000000E+00  0.00000000E+00
  0.00000000E+00  0.00000000E+00  0.00000000E+00
  0.00000000E+00  0.00000000E+00  0.00000000E+00
  0.00000000E+00  0.00000000E+00  0.00000000E+00
  0.00000000E+00  0.00000000E+00  0.00000000E+00
  0.00000000E+00  0.00000000E+00  0.00000000E+00
  0.00000000E+00  0.00000000E+00  0.00000000E+00
  0.00000000E+00  0.00000000E+00  0.00000000E+00
  0.00000000E+00  0.00000000E+00  0.00000000E+00
  0.00000000E+00  0.00000000E+00  0.00000000E+00
  0.00000000E+00  0.00000000E+00  0.00000000E+00
  0.00000000E+00  0.00000000E+00  0.00000000E+00
  0.00000000E+00  0.00000000E+00  0.00000000E+00
  0.00000000E+00  0.00000000E+00  0.00000000E+00
  0.00000000E+00  0.00000000E+00  0.00000000E+00
  0.00000000E+00  0.00000000E+00  0.00000000E+00
  0.00000000E+00  0.00000000E+00  0.00000000E+00
  0.00000000E+00  0.00000000E+00  0.00000000E+00
  0.00000000E+00  0.00000000E+00  0.00000000E+00
  0.00000000E+00  0.00000000E+00  0.00000000E+00
  0.00000000E+00  0.00000000E+00  0.00000000E+00
  0.00000000E+00  0.00000000E+00  0.00000000E+00
  0.00000000E+00  0.00000000E+00  0.00000000E+00
  0.00000000E+00  0.00000000E+00  0.00000000E+00
  0.00000000E+00  0.00000000E+00  0.00000000E+00
  0.00000000E+00  0.00000000E+00  0.00000000E+00
  0.00000000E+00  0.00000000E+00  0.00000000E+00
  0.00000000E+00  0.00000000E+00  0.00000000E+00
  0.00000000E+00  0.00000000E+00  0.00000000E+00
  0.00000000E+00  0.00000000E+00  0.00000000E+00
  0.00000000E+00  0.00000000E+00  0.00000000E+00
  0.00000000E+00  0.00000000E+00  0.00000000E+00
  0.00000000E+00  0.00000000E+00  0.00000000E+00
  0.00000000E+00  0.00000000E+00  0.00000000E+00
  0.00000000E+00  0.00000000E+00  0.00000000E+00
  0.00000000E+00  0.00000000E+00  0.00000000E+00
  0.00000000E+00  0.00000000E+00  0.00000000E+00
  0.00000000E+00  0.00000000E+00  0.00000000E+00
  0.00000000E+00  0.00000000E+00  0.00000000E+00
  0.00000000E+00  0.00000000E+00  0.00000000E+00
  0.00000000E+00  0.00000000E+00  0.00000000E+00
  0.00000000E+00  0.00000000E+00  0.00000000E+00
  0.00000000E+00  0.00000000E+00  0.00000000E+00
  0.00000000E+00  0.00000000E+00  0.00000000E+00
  0.00000000E+00  0.00000000E+00  0.00000000E+00
  0.00000000E+00  0.00000000E+00  0.00000000E+00
  0.00000000E+00  0.00000000E+00  0.00000000E+00
  0.00000000E+00  0.00000000E+00  0.00000000E+00
  0.00000000E+00  0.00000000E+00  0.00000000E+00
  0.00000000E+00  0.00000000E+00  0.00000000E+00
  0.00000000E+00  0.00000000E+00  0.00000000E+00
  0.00000000E+00  0.00000000E+00  0.00000000E+00
  0.00000000E+00  0.00000000E+00  0.00000000E+00
  0.00000000E+00  0.00000000E+00  0.00000000E+00
  0.00000000E+00  0.00000000E+00  0.00000000E+00
  0.00000000E+00  0.00000000E+00  0.00000000E+00
  0.00000000E+00  0.00000000E+00  0.00000000E+00
  0.00000000E+00  0.00000000E+00  0.00000000E+00
  0.00000000E+00  0.00000000E+00  0.00000000E+00
  0.00000000E+00  0.00000000E+00  0.00000000E+00
  0.00000000E+00  0.00000000E+00  0.00000000E+00
  0.00000000E+00  0.00000000E+00  0.00000000E+00
  0.00000000E+00  0.00000000E+00  0.00000000E+00
  0.00000000E+00  0.00000000E+00  0.00000000E+00
  0.00000000E+00  0.00000000E+00  0.00000000E+00
  0.00000000E+00  0.00000000E+00  0.00000000E+00
  0.00000000E+00  0.00000000E+00  0.00000000E+00
  0.00000000E+00  0.00000000E+00  0.00000000E+00
  0.00000000E+00  0.00000000E+00  0.00000000E+00
  0.00000000E+00  0.00000000E+00  0.00000000E+00
  0.00000000E+00  0.00000000E+00  0.00000000E+00
  0.00000000E+00  0.00000000E+00  0.00000000E+00
  0.00000000E+00  0.00000000E+00  0.00000000E+00
  0.00000000E+00  0.00000000E+00  0.00000000E+00
  0.00000000E+00  0.00000000E+00  0.00000000E+00
  0.00000000E+00  0.00000000E+00  0.00000000E+00
  0.00000000E+00  0.00000000E+00  0.00000000E+00
  0.00000000E+00  0.00000000E+00  0.00000000E+00
  0.00000000E+00  0.00000000E+00  0.00000000E+00
  0.00000000E+00  0.00000000E+00  0.00000000E+00
  0.00000000E+00  0.00000000E+00  0.00000000E+00
  0.00000000E+00  0.00000000E+00  0.00000000E+00
  0.00000000E+00  0.00000000E+00  0.00000000E+00
  0.00000000E+00  0.00000000E+00  0.00000000E+00
  0.00000000E+00  0.00000000E+00  0.00000000E+00
  0.00000000E+00  0.00000000E+00  0.00000000E+00
  0.00000000E+00  0.00000000E+00  0.00000000E+00
  0.00000000E+00  0.00000000E+00  0.00000000E+00
  0.00000000E+00  0.00000000E+00  0.00000000E+00
  0.00000000E+00  0.00000000E+00  0.00000000E+00
  0.00000000E+00  0.00000000E+00  0.00000000E+00
  0.00000000E+00  0.00000000E+00  0.00000000E+00
  0.00000000E+00  0.00000000E+00  0.00000000E+00
  0.00000000E+00  0.00000000E+00  0.00000000E+00
  0.00000000E+00  0.00000000E+00  0.00000000E+00
  0.00000000E+00  0.00000000E+00  0.00000000E+00
  0.00000000E+00  0.00000000E+00  0.00000000E+00
  0.00000000E+00  0.00000000E+00  0.00000000E+00
  0.00000000E+00  0.00000000E+00  0.00000000E+00
  0.00000000E+00  0.00000000E+00  0.00000000E+00
  0.00000000E+00  0.00000000E+00  0.00000000E+00
  0.00000000E+00  0.00000000E+00  0.00000000E+00
  0.00000000E+00  0.00000000E+00  0.00000000E+00
  0.00000000E+00  0.00000000E+00  0.00000000E+00
  0.00000000E+00  0.00000000E+00  0.00000000E+00
  0.00000000E+00  0.00000000E+00  0.00000000E+00
  0.00000000E+00  0.00000000E+00  0.00000000E+00
  0.00000000E+00  0.00000000E+00  0.00000000E+00
  0.00000000E+00  0.00000000E+00  0.00000000E+00
  0.00000000E+00  0.00000000E+00  0.00000000E+00
  0.00000000E+00  0.00000000E+00  0.00000000E+00
  0.00000000E+00  0.00000000E+00  0.00000000E+00
  0.00000000E+00  0.00000000E+00  0.00000000E+00
  0.00000000E+00  0.00000000E+00  0.00000000E+00
  0.00000000E+00  0.00000000E+00  0.00000000E+00
  0.00000000E+00  0.00000000E+00  0.00000000E+00
  0.00000000E+00  0.00000000E+00  0.00000000E+00
  0.00000000E+00  0.00000000E+00  0.00000000E+00
  0.00000000E+00  0.00000000E+00  0.00000000E+00
  0.00000000E+00  0.00000000E+00  0.00000000E+00
  0.00000000E+00  0.00000000E+00  0.00000000E+00
  0.00000000E+00  0.00000000E+00  0.00000000E+00
  0.00000000E+00  0.00000000E+00  0.00000000E+00
  0.00000000E+00  0.00000000E+00  0.00000000E+00
  0.00000000E+00  0.00000000E+00  0.00000000E+00
  0.00000000E+00  0.00000000E+00  0.00000000E+00
  0.00000000E+00  0.00000000E+00  0.00000000E+00
  0.00000000E+00  0.00000000E+00  0.00000000E+00
  0.00000000E+00  0.00000000E+00  0.00000000E+00
  0.00000000E+00  0.00000000E+00  0.00000000E+00
  0.00000000E+00  0.00000000E+00  0.00000000E+00
  0.00000000E+00  0.00000000E+00  0.00000000E+00
  0.00000000E+00  0.00000000E+00  0.00000000E+00
  0.00000000E+00  0.00000000E+00  0.00000000E+00
  0.00000000E+00  0.00000000E+00  0.00000000E+00
  0.00000000E+00  0.00000000E+00  0.00000000E+00
  0.00000000E+00  0.00000000E+00  0.00000000E+00
  0.00000000E+00  0.00000000E+00  0.00000000E+00
  0.00000000E+00  0.00000000E+00  0.00000000E+00
  0.00000000E+00  0.00000000E+00  0.00000000E+00
  0.00000000E+00  0.00000000E+00  0.00000000E+00
  0.00000000E+00  0.00000000E+00  0.00000000E+00
  0.00000000E+00  0.00000000E+00  0.00000000E+00
  0.00000000E+00  0.00000000E+00  0.00000000E+00
  0.00000000E+00  0.00000000E+00  0.00000000E+00
  0.00000000E+00  0.00000000E+00  0.00000000E+00
  0.00000000E+00  0.00000000E+00  0.00000000E+00
  0.00000000E+00  0.00000000E+00  0.00000000E+00
  0.00000000E+00  0.00000000E+00  0.00000000E+00
  0.00000000E+00  0.00000000E+00  0.00000000E+00
  0.00000000E+00  0.00000000E+00  0.00000000E+00
  0.00000000E+00  0.00000000E+00  0.00000000E+00