CuInSe2gb                               
   1.00000000000000     
     9.7266780392896699    0.0000000000000000    0.0000000000000000
     0.0000000000000000    8.4235502764570693    0.0000000000000000
     0.0000000000000000    0.0000000000000000   45.0000000000000000
   Fe   Mn
   281     7
Direct
  0.0577505603172115  0.7008411244178641  0.2110262095871072
  0.3160204604526604  0.7203711747817558  0.8757364112278900
  0.6883514571932149  0.9579502305650138  0.6114258770749355
  0.4383824012818164  0.4580276527697220  0.6114955265044910
  0.4367442204448125  0.2867864972994644  0.2555443950589960
  0.0609761178213084  0.3866611076328134  0.8341550912466739
  0.3112259283481310  0.8867050520550487  0.8342406805743857
  0.4423624351037930  0.6265773536817253  0.7003899781595768
  0.0637084637542776  0.2132810972577546  0.7445149348035132
  0.1825502432577983  0.4511495286200578  0.2111305583549648
  0.5638300447854502  0.2087370972668421  0.4778579852842950
  0.0642315971969389  0.8746198736921111  0.5668530345772328
  0.5657086058002714  0.2198296425131469  0.8756918765002950
  0.8100350807178531  0.5303611091725042  0.1243908304339384
  0.4329913419343269  0.9511759245429733  0.2112189276406665
  0.5642495909952677  0.3747065650265461  0.5667821661059417
  0.8116341020943217  0.0418226099937211  0.3883861040335554
  0.6860202594500870  0.7908122313223976  0.5221351624357545
  0.4393484349663071  0.4589173644129498  0.4778293144716905
  0.4380764497971650  0.9628266234893671  0.7444901475859579
  0.4393441598296574  0.6248210592447297  0.5668867558486061
  0.5673697252517192  0.8764666053186557  0.7003530512720656
  0.3107272296400432  0.0306001145103517  0.1241269142929214
  0.6866777775376111  0.9579430288214046  0.3439978873580045
  0.6875943660273407  0.7798974139609580  0.1245649738319288
  0.0574550226632548  0.3733326631847965  0.2995514390109005
  0.6889148231050364  0.4712762118549924  0.8754833621110059
  0.4328453679714411  0.4511600523540228  0.2111498141341505
  0.8109453767736364  0.3751113540247455  0.4330221897256332
  0.5632608229758881  0.7079006095831870  0.6114286766948683
  0.5630695876566374  0.5412734791003638  0.6557870702381631
  0.8145654794878222  0.8636445269290497  0.1659488477661186
  0.5610626685369279  0.5369318967978719  0.2555490938914454
  0.6866262216025540  0.4581865332293434  0.3441092429372964
  0.1889321439676049  0.6132229530398255  0.1660988948627519
  0.1917786771038098  0.7992627833534620  0.7887341189073929
  0.4425370525180759  0.1265111265354253  0.7004224645221649
  0.9329459669217247  0.6231689539650050  0.2996680400424739
  0.3153950978182803  0.2199447634982606  0.8756917231559064
  0.3140961437269857  0.8745377840244772  0.5667886192978104
  0.8153832094719989  0.2199970383635535  0.8756983524428993
  0.8128476321019886  0.5416770670503172  0.6557798253618722
  0.5600082494609337  0.5298369144599347  0.1244714437071336
  0.5668570805256720  0.0496312499612100  0.7889238810987460
  0.1866871318820255  0.2867941035710181  0.2555208278985683
  0.8106060192190049  0.8752348769548119  0.4330359365184483
  0.5672655350947116  0.3765537384002448  0.7004697055447974
  0.0609958217152351  0.0300617160575316  0.1244312904190094
  0.3129460946738375  0.5413287605850797  0.6557880209218776
  0.5615141822005746  0.2082789448956245  0.3441957437618496
  0.1884969219231069  0.9580278649127388  0.6114491033375284
  0.3075624713732589  0.3734441596959672  0.2996035191944793
  0.4379080214717708  0.7915968657246042  0.6558081807318764
  0.1917920968025628  0.2984547297184648  0.7888869804018712
  0.0640243575382799  0.3633253782878762  0.1659928222025582
  0.6920692950302650  0.6266176149837172  0.7003641779453538
  0.3115128911456173  0.5416956604589103  0.3884161544926928
  0.0654134546046220  0.7198700077969606  0.8758820472940911
  0.9362613013340639  0.6367829515240875  0.8342838515938455
  0.3173387000481042  0.5496722000657877  0.7889672005201576
  0.3073895491053197  0.2008248844683113  0.2111000525929672
  0.0634384737530518  0.7090177330466989  0.4779171605517199
  0.5576831824676758  0.2011572974414976  0.2110837655405862
  0.3138136952295977  0.2134636799647227  0.7444360937314611
  0.0672782194497891  0.3769212462222584  0.7003710407700141
  0.1862943306674997  0.6367224474095089  0.8340377972950811
  0.0669236721893966  0.0492682305487121  0.7889468251631396
  0.4390011590647758  0.1245417395712231  0.5667840785982878
  0.9381615997258351  0.2916372247937459  0.6557272689629164
  0.8076421541829593  0.2014786330012580  0.2111115121100568
  0.9327363462112763  0.9513097659734497  0.2112370191195903
  0.9388223184951930  0.6251577389300431  0.5668674838062531
  0.8108855198306323  0.3866003487731758  0.8342002262881527
  0.1922049214072408  0.6267054723537955  0.7003578801969038
  0.8111492534900021  0.8864977355107396  0.8343005492767818
  0.6880035952024668  0.2914203045348501  0.6558021648979777
  0.3134886337521788  0.2079955081861775  0.6114868222075361
  0.4382185063351030  0.4626456171435226  0.7444154841804622
  0.4365330765156957  0.7916385592950378  0.3884058175546766
  0.6877003472700218  0.9627980173081443  0.7445311517712838
  0.8075149990021310  0.7011967073954047  0.2111119470752031
  0.8132986404288517  0.7079317311293496  0.6113703451566338
  0.4367212257497673  0.7793505380076292  0.1241975598320958
  0.3130695229393165  0.7130287578020034  0.7444056997659755
  0.3172324620821003  0.0495588281299180  0.7889802493353562
  0.8114295091847321  0.5417364650462442  0.3884220675953966
  0.6860640835545077  0.2909881704917627  0.5220923219142840
  0.6920182392410433  0.7993825225090174  0.7888916804365655
  0.1864526691003933  0.7878891000461329  0.2555493523596467
  0.6888052886244285  0.1139177108040903  0.1661872530983778
  0.6888192310588993  0.9591463428599166  0.4778742826754229
  0.9369004580755474  0.9582282609581008  0.3440850459194847
  0.8110543710994222  0.0406627896135575  0.5221061262372851
  0.6849890009027244  0.6251709188013949  0.4331172669489072
  0.4368382986922547  0.4583193459519557  0.3441303958363215
  0.8131064471356720  0.2134447045319856  0.7445002402638188
  0.4390844944754277  0.9715028099351377  0.8754978987411411
  0.5641859949905704  0.8745571727915518  0.5667699083271347
  0.8105595033044460  0.0299385087778505  0.1245342414940371
  0.4324198793250549  0.6235456098201440  0.2996742551003306
  0.8151864357317887  0.7204280014550833  0.8758379948786623
  0.6881445635014719  0.4578086256453170  0.6114192392524663
  0.5611541485022340  0.3868540252161601  0.8340717374099158
  0.8075300115907296  0.3731270819369125  0.2996196732809287
  0.1862535737464351  0.2917723698921733  0.3883644339977015
  0.8165267308072836  0.5495300380183190  0.7890663363847075
  0.1862921013670736  0.7906791483671710  0.5221971002237139
  0.3077933687636172  0.8735116302897159  0.2996868991126988
  0.1823595774198441  0.9516238971455622  0.2113119226494301
  0.1885803675051660  0.4629216457810198  0.7444754524873272
  0.4358861661750909  0.2906083322369221  0.5220660050372756
  0.0620315345602967  0.7087104678325528  0.3442011046986240
  0.1882123442845036  0.7911517224632929  0.6557114635611413
  0.4417881154553145  0.7995234872736127  0.7887920536154577
  0.6850614886136093  0.1248319562216129  0.4330619189613575
  0.9361700380542568  0.7900208532664676  0.5221905585654422
  0.6885307125811985  0.6127951593475207  0.1661305769518005
  0.8117938492161412  0.7085517758712769  0.3442192703165904
  0.9382998768228621  0.4627881190585944  0.7444543049858992
  0.1869014590195480  0.4582742246994313  0.3441083490360720
  0.5672984699089443  0.5492672055277973  0.7889854399064669
  0.5648208297395566  0.3636028671758821  0.1659340656397157
  0.5615047263983833  0.7082225655576847  0.3442834147715350
  0.5579497938972273  0.3732334896204354  0.2995876289669723
  0.1889142708457504  0.4712325475980744  0.8755806457595487
  0.1884669567996908  0.1125312149834803  0.1661742513488365
  0.4417787465868073  0.2988206204132192  0.7888319489662202
  0.6860972401407606  0.7871737075836327  0.2555010829576916
  0.9367337335110666  0.1366709358161655  0.8341326231897628
  0.4392192301012776  0.9590569672346072  0.4777811001866433
  0.5654897470174828  0.7201106815767504  0.8757112773806794
  0.3139851616073285  0.3634238431215547  0.1659701953426895
  0.9364633250956150  0.2795919228798873  0.1245624903773696
  0.3115389061315079  0.0418123754980037  0.3883940507325213
  0.0629476972361371  0.0409873131467654  0.6557668412633978
  0.5611696195005879  0.3750523341577534  0.4329874266138564
  0.6877014034284372  0.4624876488082006  0.7444937433192143
  0.5635394844850654  0.2134592118230893  0.7444436327409611
  0.9425583639413737  0.1269589871327295  0.7003906754878608
  0.5631190439820642  0.0411156170506559  0.6558093778984143
  0.5610684767376017  0.5409869471604077  0.5221118788748760
  0.1827245712419179  0.1233610219720160  0.2995310846257500
  0.4388985989140121  0.1124265276639453  0.1660222735231757
  0.6822194986927252  0.6234332288583664  0.2997074156085280
  0.9325657054209273  0.1229306824797684  0.2996533991861792
  0.8140067665696136  0.3747470013259258  0.5668984739434105
  0.0577776593458417  0.8732381917201102  0.2996210979061573
  0.1889827800351450  0.6247330324548568  0.5669118445413369
  0.9411049355281045  0.7990502357050309  0.7889349062455949
  0.3112867459181375  0.3866884009102571  0.8341872134070258
  0.9392298802156861  0.4714560535135883  0.8755708875553013
  0.4366234993952828  0.6370709907272435  0.8341047875088405
  0.0616691535387525  0.2085231111860376  0.3441567262778521
  0.1889148215823553  0.9710799396599096  0.8754957227576953
  0.9362150963267726  0.7797194607460338  0.1245377142142808
  0.6863170196750770  0.7918652651291425  0.3884063088910610
  0.9381351596481041  0.7915011929732164  0.6557632470345780
  0.9388526608210264  0.1138412681380432  0.1661601686772224
  0.4377735979295103  0.2914835972710454  0.6558425788191418
  0.0580112442143073  0.2010369202306707  0.2111244013202623
  0.6826937582429735  0.9513378363900151  0.2112452193176589
  0.1824899017727692  0.6234357203736403  0.2996645877347662
  0.8171208826229890  0.8765810130589665  0.7003644515940665
  0.9425212070518992  0.6268175474515399  0.7004300299610731
  0.1922562312461070  0.1268640177356244  0.7003811485247747
  0.9386671267570511  0.4586441358357943  0.4778584380435608
  0.8131934474803898  0.2079013632513751  0.6114183619757616
  0.1868938242036485  0.6253072034486489  0.4329729922306734
  0.4326203788990019  0.1234167083031446  0.2996610031518123
  0.6822818076757651  0.1228445751397517  0.2995747211784299
  0.5611639655008236  0.5415042469322544  0.3884387952566631
  0.8120070085386991  0.2083466340563634  0.3443084412741183
  0.4391546921712036  0.4714290364862210  0.8754951850337883
  0.5611703665563216  0.8865929469723831  0.8342427264489499
  0.3139975140286136  0.2088818324652607  0.4778695613151728
  0.1884762124524240  0.9589758856111268  0.4778200131731714
  0.0610452005304757  0.8868813123826049  0.8342045146797359
  0.0610690577507558  0.5404795166851125  0.5220788043860771
  0.9386339882155287  0.9588956745937490  0.4778079526308373
  0.0632946223152673  0.7080113698025616  0.6114345670003869
  0.5609318896563950  0.0409498598260437  0.5220892516004837
  0.6919717209939048  0.2987845989793873  0.7887691742132571
  0.8141469735590360  0.3637047191758413  0.1660565105803948
  0.4360254170670657  0.1249530675770854  0.4330310178407912
  0.0636250811051920  0.2089277925784065  0.4779202752019785
  0.3130778463816597  0.0412628595021130  0.6557688489082673
  0.4362925750823315  0.7905030579510294  0.5220752006882043
  0.1867165052350991  0.1368425955045597  0.8341110243063007
  0.1858261871409011  0.2794606984770806  0.1246423264112554
  0.9367392495563410  0.4584669579107246  0.3440529568090234
  0.5647188770461261  0.8638260142053479  0.1659396603053142
  0.3074999540233492  0.7005443419256914  0.2111744145072394
  0.9384759650247892  0.6129519827680705  0.1661504601770420
  0.1882827502856479  0.4578839649252286  0.6114355172023129
  0.0673230044664123  0.8768368512410080  0.7002893181402552
  0.0630311047755891  0.5414574021525485  0.6558793101491006
  0.3101380320194778  0.5308806332908735  0.1244403893688742
  0.9364297157537317  0.7921242930903928  0.3883894310188537
  0.9416409656806773  0.2986422575718276  0.7888263353649461
  0.1879765404571521  0.2915192759969694  0.6558508919079065
  0.9385829553863908  0.9580508613722036  0.6115319555628940
  0.8135917555510281  0.7129323626450347  0.7445638763578483
  0.6862589611208335  0.2874527685709710  0.2554874179745119
  0.0639163734261848  0.7130345823153629  0.7444325194467577
  0.6826447296906127  0.4513769606936283  0.2112527572499575
  0.8140010187008639  0.2085512757947200  0.4778263850190133
  0.5638749062068533  0.7095264616465887  0.4778602984491450
  0.0639913032095984  0.8638812559360910  0.1660584607831474
  0.9364622497513867  0.2904991447276907  0.5221387731921761
  0.6876215972704522  0.7914663943235098  0.6558304380360829
  0.0615217740645199  0.8748142333739031  0.4329710720704787
  0.0656469080189716  0.2194458220029585  0.8758072667463283
  0.8130437083601890  0.0412353803583234  0.6557461427893849
  0.5600376100697989  0.0302537186618630  0.1243987982755565
  0.3106016713963206  0.3751336258252493  0.4330524456255608
  0.3139657804617013  0.3746061783593385  0.5667976249317488
  0.3141194959583493  0.7092885278143466  0.4777976266542094
  0.0613438192190039  0.0405024075843786  0.5220036192282812
  0.3172487139516880  0.8766379769130441  0.7004067581463803
  0.0615929981072578  0.5368703164288939  0.2555143853660289
  0.6866042849338024  0.1372479147818559  0.8341108186034039
  0.8113332698726773  0.0368930956931429  0.2555909775656906
  0.1866242056156963  0.1251582061058373  0.4330645867281359
  0.6923155630483183  0.1266212777419970  0.7003571674729927
  0.1863213648512719  0.2905349771928280  0.5222552105111803
  0.4364685815209214  0.7874475204151613  0.2555393019117405
  0.4382853660824707  0.6128914144505951  0.1661714746228997
  0.0632781957295784  0.2079962294133916  0.6114045909524198
  0.1862004647217028  0.7918767056315953  0.3882593861659352
  0.3113000171655706  0.5406689588264448  0.5220871877614539
  0.8171292580355088  0.3765401273672969  0.7003554436284861
  0.6863293546779901  0.2919917415428336  0.3883959413209993
  0.1892810783935905  0.1242837627919019  0.5668819288318854
  0.6889802352522123  0.9716313351751220  0.8755020268669109
  0.6890306766291725  0.1247401986916411  0.5668577084091504
  0.4368336666158437  0.9585467284929043  0.3441586254388259
  0.1883357986620503  0.9627556857192303  0.7445102324444386
  0.9367545062661183  0.7873270658279665  0.2554814305747082
  0.5609974226067869  0.8751680015335482  0.4329987965414274
  0.3107728730506403  0.8750859417956446  0.4330775166847332
  0.8110293568334030  0.5405159806156165  0.5221084258405526
  0.9327031590088193  0.4514489542872152  0.2112894931451569
  0.3116191511137322  0.5367697114617622  0.2555204331985470
  0.5613671813808058  0.0416147012448914  0.3884085307575482
  0.9384881129869594  0.4578049200685956  0.6115032644309105
  0.0614233522416767  0.0419997502016238  0.3884274795278934
  0.0615030503241096  0.5418315789180403  0.3884138039492155
  0.4368051255115716  0.2915736510695603  0.3882992897437276
  0.6887774714927651  0.4591226567481732  0.4779003023085474
  0.0642308683481306  0.3748835691530643  0.5669328102941370
  0.5577611402347337  0.7008287096323372  0.2111375167622139
  0.9366479522807857  0.2872580385114097  0.2555799009913253
  0.8165945909250539  0.0494802575128420  0.7889199635260359
  0.1868237631247507  0.9580955309405643  0.3441638381153606
  0.5577223261096093  0.8734784689308833  0.2996726185548548
  0.0613132600269548  0.3747153200623218  0.4329465014138715
  0.3118493008101328  0.7080143230976588  0.3441389281537517
  0.3120097875889062  0.2081287526977803  0.3441487835865366
  0.9390347750295043  0.1248968952415332  0.5668026601996589
  0.4381631774457097  0.9580581244796557  0.6114775791295992
  0.5607671046836068  0.0371172158155075  0.2555635816176303
  0.1866938584872804  0.7790153528662188  0.1243463139561602
  0.0619993667069646  0.0371299075194067  0.2555314825884921
  0.6890994832417373  0.6247115361174377  0.5669025686114662
  0.0603465086838789  0.5298233510143580  0.1244075012039705
  0.3111024676207766  0.0409582511238975  0.5220619863991094
  0.6866039778160813  0.2795863802304704  0.1245567999668925
  0.8138800666977977  0.7092236973863949  0.4778535369649539
  0.4367428031846011  0.1367600752108198  0.8339933510279274
  0.3174802775205119  0.3763118644519314  0.7003686485759004
  0.6869375776262076  0.6370725127124902  0.8341022057926066
  0.5632782080704914  0.7127780388017296  0.7444918747760183
  0.9361624271401768  0.2920023371644685  0.3883701316866393
  0.9392630601787630  0.9712215627025782  0.8755106839890192
  0.5636096449375578  0.2082269519415691  0.6114591355192961
  0.8140410558736046  0.8747556171968079  0.5669067211693704
  0.8074539992597496  0.8734407252275042  0.2995879229842446
  0.3113179840085104  0.0368483953772239  0.2556166690366973
  0.4371860350123086  0.2797320537808657  0.1246630486204454
  0.3133146378472444  0.7080308490367407  0.6114697011358168
  0.4357836329061555  0.6251432847235343  0.4330235458652753
  0.9360626230424113  0.6251140173072111  0.4331882843500449
  0.3148903861105279  0.8633623500527399  0.1656364761622731
  0.0672661369501809  0.5492641939814871  0.7887941834395994
  0.9356264537324001  0.1251878703403138  0.4330769135603903
  0.1889452129188164  0.4592722136617251  0.4777072861289390
  0.9375787514396534  0.9631005893421709  0.7446226313073130
  0.8118973589223216  0.5366414781276204  0.2553956565193792
 
  0.00000000E+00  0.00000000E+00  0.00000000E+00
  0.00000000E+00  0.00000000E+00  0.00000000E+00
  0.00000000E+00  0.00000000E+00  0.00000000E+00
  0.00000000E+00  0.00000000E+00  0.00000000E+00
  0.00000000E+00  0.00000000E+00  0.00000000E+00
  0.00000000E+00  0.00000000E+00  0.00000000E+00
  0.00000000E+00  0.00000000E+00  0.00000000E+00
  0.00000000E+00  0.00000000E+00  0.00000000E+00
  0.00000000E+00  0.00000000E+00  0.00000000E+00
  0.00000000E+00  0.00000000E+00  0.00000000E+00
  0.00000000E+00  0.00000000E+00  0.00000000E+00
  0.00000000E+00  0.00000000E+00  0.00000000E+00
  0.00000000E+00  0.00000000E+00  0.00000000E+00
  0.00000000E+00  0.00000000E+00  0.00000000E+00
  0.00000000E+00  0.00000000E+00  0.00000000E+00
  0.00000000E+00  0.00000000E+00  0.00000000E+00
  0.00000000E+00  0.00000000E+00  0.00000000E+00
  0.00000000E+00  0.00000000E+00  0.00000000E+00
  0.00000000E+00  0.00000000E+00  0.00000000E+00
  0.00000000E+00  0.00000000E+00  0.00000000E+00
  0.00000000E+00  0.00000000E+00  0.00000000E+00
  0.00000000E+00  0.00000000E+00  0.00000000E+00
  0.00000000E+00  0.00000000E+00  0.00000000E+00
  0.00000000E+00  0.00000000E+00  0.00000000E+00
  0.00000000E+00  0.00000000E+00  0.00000000E+00
  0.00000000E+00  0.00000000E+00  0.00000000E+00
  0.00000000E+00  0.00000000E+00  0.00000000E+00
  0.00000000E+00  0.00000000E+00  0.00000000E+00
  0.00000000E+00  0.00000000E+00  0.00000000E+00
  0.00000000E+00  0.00000000E+00  0.00000000E+00
  0.00000000E+00  0.00000000E+00  0.00000000E+00
  0.00000000E+00  0.00000000E+00  0.00000000E+00
  0.00000000E+00  0.00000000E+00  0.00000000E+00
  0.00000000E+00  0.00000000E+00  0.00000000E+00
  0.00000000E+00  0.00000000E+00  0.00000000E+00
  0.00000000E+00  0.00000000E+00  0.00000000E+00
  0.00000000E+00  0.00000000E+00  0.00000000E+00
  0.00000000E+00  0.00000000E+00  0.00000000E+00
  0.00000000E+00  0.00000000E+00  0.00000000E+00
  0.00000000E+00  0.00000000E+00  0.00000000E+00
  0.00000000E+00  0.00000000E+00  0.00000000E+00
  0.00000000E+00  0.00000000E+00  0.00000000E+00
  0.00000000E+00  0.00000000E+00  0.00000000E+00
  0.00000000E+00  0.00000000E+00  0.00000000E+00
  0.00000000E+00  0.00000000E+00  0.00000000E+00
  0.00000000E+00  0.00000000E+00  0.00000000E+00
  0.00000000E+00  0.00000000E+00  0.00000000E+00
  0.00000000E+00  0.00000000E+00  0.00000000E+00
  0.00000000E+00  0.00000000E+00  0.00000000E+00
  0.00000000E+00  0.00000000E+00  0.00000000E+00
  0.00000000E+00  0.00000000E+00  0.00000000E+00
  0.00000000E+00  0.00000000E+00  0.00000000E+00
  0.00000000E+00  0.00000000E+00  0.00000000E+00
  0.00000000E+00  0.00000000E+00  0.00000000E+00
  0.00000000E+00  0.00000000E+00  0.00000000E+00
  0.00000000E+00  0.00000000E+00  0.00000000E+00
  0.00000000E+00  0.00000000E+00  0.00000000E+00
  0.00000000E+00  0.00000000E+00  0.00000000E+00
  0.00000000E+00  0.00000000E+00  0.00000000E+00
  0.00000000E+00  0.00000000E+00  0.00000000E+00
  0.00000000E+00  0.00000000E+00  0.00000000E+00
  0.00000000E+00  0.00000000E+00  0.00000000E+00
  0.00000000E+00  0.00000000E+00  0.00000000E+00
  0.00000000E+00  0.00000000E+00  0.00000000E+00
  0.00000000E+00  0.00000000E+00  0.00000000E+00
  0.00000000E+00  0.00000000E+00  0.00000000E+00
  0.00000000E+00  0.00000000E+00  0.00000000E+00
  0.00000000E+00  0.00000000E+00  0.00000000E+00
  0.00000000E+00  0.00000000E+00  0.00000000E+00
  0.00000000E+00  0.00000000E+00  0.00000000E+00
  0.00000000E+00  0.00000000E+00  0.00000000E+00
  0.00000000E+00  0.00000000E+00  0.00000000E+00
  0.00000000E+00  0.00000000E+00  0.00000000E+00
  0.00000000E+00  0.00000000E+00  0.00000000E+00
  0.00000000E+00  0.00000000E+00  0.00000000E+00
  0.00000000E+00  0.00000000E+00  0.00000000E+00
  0.00000000E+00  0.00000000E+00  0.00000000E+00
  0.00000000E+00  0.00000000E+00  0.00000000E+00
  0.00000000E+00  0.00000000E+00  0.00000000E+00
  0.00000000E+00  0.00000000E+00  0.00000000E+00
  0.00000000E+00  0.00000000E+00  0.00000000E+00
  0.00000000E+00  0.00000000E+00  0.00000000E+00
  0.00000000E+00  0.00000000E+00  0.00000000E+00
  0.00000000E+00  0.00000000E+00  0.00000000E+00
  0.00000000E+00  0.00000000E+00  0.00000000E+00
  0.00000000E+00  0.00000000E+00  0.00000000E+00
  0.00000000E+00  0.00000000E+00  0.00000000E+00
  0.00000000E+00  0.00000000E+00  0.00000000E+00
  0.00000000E+00  0.00000000E+00  0.00000000E+00
  0.00000000E+00  0.00000000E+00  0.00000000E+00
  0.00000000E+00  0.00000000E+00  0.00000000E+00
  0.00000000E+00  0.00000000E+00  0.00000000E+00
  0.00000000E+00  0.00000000E+00  0.00000000E+00
  0.00000000E+00  0.00000000E+00  0.00000000E+00
  0.00000000E+00  0.00000000E+00  0.00000000E+00
  0.00000000E+00  0.00000000E+00  0.00000000E+00
  0.00000000E+00  0.00000000E+00  0.00000000E+00
  0.00000000E+00  0.00000000E+00  0.00000000E+00
  0.00000000E+00  0.00000000E+00  0.00000000E+00
  0.00000000E+00  0.00000000E+00  0.00000000E+00
  0.00000000E+00  0.00000000E+00  0.00000000E+00
  0.00000000E+00  0.00000000E+00  0.00000000E+00
  0.00000000E+00  0.00000000E+00  0.00000000E+00
  0.00000000E+00  0.00000000E+00  0.00000000E+00
  0.00000000E+00  0.00000000E+00  0.00000000E+00
  0.00000000E+00  0.00000000E+00  0.00000000E+00
  0.00000000E+00  0.00000000E+00  0.00000000E+00
  0.00000000E+00  0.00000000E+00  0.00000000E+00
  0.00000000E+00  0.00000000E+00  0.00000000E+00
  0.00000000E+00  0.00000000E+00  0.00000000E+00
  0.00000000E+00  0.00000000E+00  0.00000000E+00
  0.00000000E+00  0.00000000E+00  0.00000000E+00
  0.00000000E+00  0.00000000E+00  0.00000000E+00
  0.00000000E+00  0.00000000E+00  0.00000000E+00
  0.00000000E+00  0.00000000E+00  0.00000000E+00
  0.00000000E+00  0.00000000E+00  0.00000000E+00
  0.00000000E+00  0.00000000E+00  0.00000000E+00
  0.00000000E+00  0.00000000E+00  0.00000000E+00
  0.00000000E+00  0.00000000E+00  0.00000000E+00
  0.00000000E+00  0.00000000E+00  0.00000000E+00
  0.00000000E+00  0.00000000E+00  0.00000000E+00
  0.00000000E+00  0.00000000E+00  0.00000000E+00
  0.00000000E+00  0.00000000E+00  0.00000000E+00
  0.00000000E+00  0.00000000E+00  0.00000000E+00
  0.00000000E+00  0.00000000E+00  0.00000000E+00
  0.00000000E+00  0.00000000E+00  0.00000000E+00
  0.00000000E+00  0.00000000E+00  0.00000000E+00
  0.00000000E+00  0.00000000E+00  0.00000000E+00
  0.00000000E+00  0.00000000E+00  0.00000000E+00
  0.00000000E+00  0.00000000E+00  0.00000000E+00
  0.00000000E+00  0.00000000E+00  0.00000000E+00
  0.00000000E+00  0.00000000E+00  0.00000000E+00
  0.00000000E+00  0.00000000E+00  0.00000000E+00
  0.00000000E+00  0.00000000E+00  0.00000000E+00
  0.00000000E+00  0.00000000E+00  0.00000000E+00
  0.00000000E+00  0.00000000E+00  0.00000000E+00
  0.00000000E+00  0.00000000E+00  0.00000000E+00
  0.00000000E+00  0.00000000E+00  0.00000000E+00
  0.00000000E+00  0.00000000E+00  0.00000000E+00
  0.00000000E+00  0.00000000E+00  0.00000000E+00
  0.00000000E+00  0.00000000E+00  0.00000000E+00
  0.00000000E+00  0.00000000E+00  0.00000000E+00
  0.00000000E+00  0.00000000E+00  0.00000000E+00
  0.00000000E+00  0.00000000E+00  0.00000000E+00
  0.00000000E+00  0.00000000E+00  0.00000000E+00
  0.00000000E+00  0.00000000E+00  0.00000000E+00
  0.00000000E+00  0.00000000E+00  0.00000000E+00
  0.00000000E+00  0.00000000E+00  0.00000000E+00
  0.00000000E+00  0.00000000E+00  0.00000000E+00
  0.00000000E+00  0.00000000E+00  0.00000000E+00
  0.00000000E+00  0.00000000E+00  0.00000000E+00
  0.00000000E+00  0.00000000E+00  0.00000000E+00
  0.00000000E+00  0.00000000E+00  0.00000000E+00
  0.00000000E+00  0.00000000E+00  0.00000000E+00
  0.00000000E+00  0.00000000E+00  0.00000000E+00
  0.00000000E+00  0.00000000E+00  0.00000000E+00
  0.00000000E+00  0.00000000E+00  0.00000000E+00
  0.00000000E+00  0.00000000E+00  0.00000000E+00
  0.00000000E+00  0.00000000E+00  0.00000000E+00
  0.00000000E+00  0.00000000E+00  0.00000000E+00
  0.00000000E+00  0.00000000E+00  0.00000000E+00
  0.00000000E+00  0.00000000E+00  0.00000000E+00
  0.00000000E+00  0.00000000E+00  0.00000000E+00
  0.00000000E+00  0.00000000E+00  0.00000000E+00
  0.00000000E+00  0.00000000E+00  0.00000000E+00
  0.00000000E+00  0.00000000E+00  0.00000000E+00
  0.00000000E+00  0.00000000E+00  0.00000000E+00
  0.00000000E+00  0.00000000E+00  0.00000000E+00
  0.00000000E+00  0.00000000E+00  0.00000000E+00
  0.00000000E+00  0.00000000E+00  0.00000000E+00
  0.00000000E+00  0.00000000E+00  0.00000000E+00
  0.00000000E+00  0.00000000E+00  0.00000000E+00
  0.00000000E+00  0.00000000E+00  0.00000000E+00
  0.00000000E+00  0.00000000E+00  0.00000000E+00
  0.00000000E+00  0.00000000E+00  0.00000000E+00
  0.00000000E+00  0.00000000E+00  0.00000000E+00
  0.00000000E+00  0.00000000E+00  0.00000000E+00
  0.00000000E+00  0.00000000E+00  0.00000000E+00
  0.00000000E+00  0.00000000E+00  0.00000000E+00
  0.00000000E+00  0.00000000E+00  0.00000000E+00
  0.00000000E+00  0.00000000E+00  0.00000000E+00
  0.00000000E+00  0.00000000E+00  0.00000000E+00
  0.00000000E+00  0.00000000E+00  0.00000000E+00
  0.00000000E+00  0.00000000E+00  0.00000000E+00
  0.00000000E+00  0.00000000E+00  0.00000000E+00
  0.00000000E+00  0.00000000E+00  0.00000000E+00
  0.00000000E+00  0.00000000E+00  0.00000000E+00
  0.00000000E+00  0.00000000E+00  0.00000000E+00
  0.00000000E+00  0.00000000E+00  0.00000000E+00
  0.00000000E+00  0.00000000E+00  0.00000000E+00
  0.00000000E+00  0.00000000E+00  0.00000000E+00
  0.00000000E+00  0.00000000E+00  0.00000000E+00
  0.00000000E+00  0.00000000E+00  0.00000000E+00
  0.00000000E+00  0.00000000E+00  0.00000000E+00
  0.00000000E+00  0.00000000E+00  0.00000000E+00
  0.00000000E+00  0.00000000E+00  0.00000000E+00
  0.00000000E+00  0.00000000E+00  0.00000000E+00
  0.00000000E+00  0.00000000E+00  0.00000000E+00
  0.00000000E+00  0.00000000E+00  0.00000000E+00
  0.00000000E+00  0.00000000E+00  0.00000000E+00
  0.00000000E+00  0.00000000E+00  0.00000000E+00
  0.00000000E+00  0.00000000E+00  0.00000000E+00
  0.00000000E+00  0.00000000E+00  0.00000000E+00
  0.00000000E+00  0.00000000E+00  0.00000000E+00
  0.00000000E+00  0.00000000E+00  0.00000000E+00
  0.00000000E+00  0.00000000E+00  0.00000000E+00
  0.00000000E+00  0.00000000E+00  0.00000000E+00
  0.00000000E+00  0.00000000E+00  0.00000000E+00
  0.00000000E+00  0.00000000E+00  0.00000000E+00
  0.00000000E+00  0.00000000E+00  0.00000000E+00
  0.00000000E+00  0.00000000E+00  0.00000000E+00
  0.00000000E+00  0.00000000E+00  0.00000000E+00
  0.00000000E+00  0.00000000E+00  0.00000000E+00
  0.00000000E+00  0.00000000E+00  0.00000000E+00
  0.00000000E+00  0.00000000E+00  0.00000000E+00
  0.00000000E+00  0.00000000E+00  0.00000000E+00
  0.00000000E+00  0.00000000E+00  0.00000000E+00
  0.00000000E+00  0.00000000E+00  0.00000000E+00
  0.00000000E+00  0.00000000E+00  0.00000000E+00
  0.00000000E+00  0.00000000E+00  0.00000000E+00
  0.00000000E+00  0.00000000E+00  0.00000000E+00
  0.00000000E+00  0.00000000E+00  0.00000000E+00
  0.00000000E+00  0.00000000E+00  0.00000000E+00
  0.00000000E+00  0.00000000E+00  0.00000000E+00
  0.00000000E+00  0.00000000E+00  0.00000000E+00
  0.00000000E+00  0.00000000E+00  0.00000000E+00
  0.00000000E+00  0.00000000E+00  0.00000000E+00
  0.00000000E+00  0.00000000E+00  0.00000000E+00
  0.00000000E+00  0.00000000E+00  0.00000000E+00
  0.00000000E+00  0.00000000E+00  0.00000000E+00
  0.00000000E+00  0.00000000E+00  0.00000000E+00
  0.00000000E+00  0.00000000E+00  0.00000000E+00
  0.00000000E+00  0.00000000E+00  0.00000000E+00
  0.00000000E+00  0.00000000E+00  0.00000000E+00
  0.00000000E+00  0.00000000E+00  0.00000000E+00
  0.00000000E+00  0.00000000E+00  0.00000000E+00
  0.00000000E+00  0.00000000E+00  0.00000000E+00
  0.00000000E+00  0.00000000E+00  0.00000000E+00
  0.00000000E+00  0.00000000E+00  0.00000000E+00
  0.00000000E+00  0.00000000E+00  0.00000000E+00
  0.00000000E+00  0.00000000E+00  0.00000000E+00
  0.00000000E+00  0.00000000E+00  0.00000000E+00
  0.00000000E+00  0.00000000E+00  0.00000000E+00
  0.00000000E+00  0.00000000E+00  0.00000000E+00
  0.00000000E+00  0.00000000E+00  0.00000000E+00
  0.00000000E+00  0.00000000E+00  0.00000000E+00
  0.00000000E+00  0.00000000E+00  0.00000000E+00