CuInSe2gb                               
   1.00000000000000     
     9.7266780392896699    0.0000000000000000    0.0000000000000000
     0.0000000000000000    8.4235502764570693    0.0000000000000000
     0.0000000000000000    0.0000000000000000   45.0000000000000000
   Fe   Mn
   281     7
Direct
  0.0541430165879026  0.7011930064740804  0.2111973391594807
  0.3182333285107226  0.7237710912021265  0.8762419168176918
  0.6884226704458694  0.9586971281126176  0.6115522509339057
  0.4384401713390144  0.4584101763362027  0.6116226014782737
  0.4408127182558491  0.2872290802888965  0.2550605918826193
  0.0586278878961190  0.3885666691743417  0.8335592376159988
  0.3086012152415235  0.8876517373817677  0.8334888768710528
  0.4469655460018339  0.6263134263297158  0.7004108916299735
  0.0598317683602450  0.2126511763798190  0.7449151880451688
  0.1792497814824574  0.4510030932994860  0.2112727268562452
  0.5674091403811700  0.2102417087814798  0.4774071454543204
  0.0665275304589624  0.8750740585709242  0.5669293519603805
  0.5682602904054809  0.2238489955636320  0.8761374467424716
  0.8078200281905519  0.5273946659400828  0.1238931548140037
  0.4292150772757116  0.9514430167418024  0.2113791348691502
  0.5665491192325555  0.3749899598281001  0.5668636828580905
  0.8111116351078334  0.0419641196943245  0.3882392796340186
  0.6822946894687630  0.7890537805779898  0.5224760957664414
  0.4426623252416264  0.4607506624879916  0.4774453194610939
  0.4337760969676041  0.9626325508078301  0.7447844008606817
  0.4414257752732887  0.6249241957549381  0.5668604072027105
  0.5716436836247253  0.8764860939664565  0.7005478458737232
  0.3093996247183367  0.0263208554503129  0.1240122976841259
  0.6896285917024643  0.9589909076132602  0.3439330065650588
  0.6871790938554749  0.7823903618708085  0.1242662412093105
  0.0528677576850081  0.3738096339579415  0.2995345532684576
  0.6898199270293131  0.4678743337439550  0.8760906166036878
  0.4285034383476701  0.4513972825867291  0.2113775305721169
  0.8086256316163927  0.3753674275686377  0.4330847919816676
  0.5633294604307540  0.7085230423681425  0.6115392523798916
  0.5596284621225734  0.5406857750454631  0.6558773786559183
  0.8173904321994495  0.8619584099801854  0.1665586193564471
  0.5654672675542353  0.5377336616999270  0.2551538428567915
  0.6896568903641037  0.4589396121788905  0.3439522894519390
  0.1924204159440116  0.6121250744032259  0.1665063335173917
  0.1945823115255424  0.7994119201623079  0.7888365401233849
  0.4471919151505870  0.1261037144703007  0.7004178834144512
  0.9278601422705354  0.6236483846270832  0.2996443362091019
  0.3174591861717149  0.2235717640344548  0.8761550841153891
  0.3167472030665478  0.8748463377011617  0.5669051700391716
  0.8174667570981962  0.2237941655519863  0.8762030949962269
  0.8097019784084691  0.5406687433079405  0.6558366034908529
  0.5587357190238869  0.5269956011675681  0.1240405493005695
  0.5694189540951636  0.0497027125292415  0.7890071279225073
  0.1903664716975147  0.2871012825855759  0.2552086713057307
  0.8089739993224654  0.8751944806114950  0.4329951499916295
  0.5722185225929500  0.3763274365621402  0.7003863973411830
  0.0579906452005309  0.0276082248884796  0.1240413726660695
  0.3097816720866614  0.5405443964729759  0.6559851313980374
  0.5651708208325876  0.2091122009892007  0.3440125510563125
  0.1882343967022279  0.9584835921297579  0.6113468112471014
  0.3029335941277548  0.3739111008111303  0.2995630910848863
  0.4346867119171189  0.7906115272986258  0.6559651008461251
  0.1948610999022252  0.2990052938479698  0.7887994623590803
  0.0668059266737569  0.3623417742703509  0.1665559264892102
  0.6971180469910100  0.6263398770515808  0.7004507956106099
  0.3112415107895213  0.5411843694651245  0.3884185889994841
  0.0676308810927568  0.7232806606166072  0.8761993358308029
  0.9337259057049214  0.6375838008127509  0.8339335557335473
  0.3197860221729535  0.5496668889284561  0.7889047678356083
  0.3047403902173653  0.2006455167691840  0.2111307533769916
  0.0681114640573942  0.7099264569987693  0.4774780308497426
  0.5542476683461022  0.2006818809284948  0.2111472962011684
  0.3096427614243904  0.2123207967057653  0.7449169581870602
  0.0719907533018680  0.3764750608400462  0.7005309192390007
  0.1832380160532590  0.6376344514643832  0.8335855353513136
  0.0694908286729451  0.0495444849200216  0.7890001983604622
  0.4416797904962242  0.1250565283086726  0.5669178873324350
  0.9348512702614065  0.2907754066852959  0.6558629913229062
  0.8043533497844911  0.2010283842106381  0.2112117352550800
  0.9291904730220562  0.9514963189638977  0.2112290706172291
  0.9414834090558472  0.6250488810926397  0.5668461977893063
  0.8084721196038696  0.3876186285984008  0.8335218312685554
  0.1970871921287437  0.6263275083193075  0.7003441826268850
  0.8086381869324109  0.8878016816564067  0.8335510725347828
  0.6850239520334974  0.2906281203453504  0.6560628386135604
  0.3132489527236052  0.2083257703323415  0.6115393597375202
  0.4346026835983806  0.4628086333919808  0.7448760317590158
  0.4359941086122771  0.7909937666465287  0.3883845855921403
  0.6845532826986379  0.9626392003587257  0.7448386156233722
  0.8035405719034413  0.7009345277039275  0.2113194698454220
  0.8134301208829275  0.7083333652666775  0.6116249081202662
  0.4360613521118348  0.7832496007002029  0.1240262148660309
  0.3098362868424351  0.7120416190954636  0.7448256695386825
  0.3201621860098853  0.0495102390618195  0.7888667133616781
  0.8112180853633251  0.5421130168266697  0.3883108467993234
  0.6822537235535812  0.2891278189924807  0.5224950510817125
  0.6949753411599194  0.7993079553012911  0.7888909584508534
  0.1908633042158288  0.7874861677031715  0.2552883973553217
  0.6918115663857843  0.1123347752240124  0.1666379588006458
  0.6925988402806419  0.9606483035608283  0.4774287424619962
  0.9402724085256368  0.9591729205045376  0.3440578934657840
  0.8073412201659617  0.0391235567464383  0.5225366245522848
  0.6837367433864484  0.6245621234914007  0.4329175005666471
  0.4398753281522843  0.4589938137474606  0.3440135058015350
  0.8106417881422621  0.2115187822479526  0.7446200782375995
  0.4396100907713647  0.9678483868747110  0.8760770383764146
  0.5666195217258978  0.8747751559294187  0.5668177595240953
  0.8092710153944171  0.0281813510579764  0.1239922078872561
  0.4282116639537501  0.6233294669350186  0.2994441526069673
  0.8169230772070689  0.7237780667030991  0.8763464339719842
  0.6884883344593496  0.4585676868015438  0.6115445012172319
  0.5585327696583469  0.3876215844570430  0.8334895451108487
  0.8029434844392854  0.3734814815926301  0.2995024188480620
  0.1861020024085833  0.2912497838931556  0.3883748416172057
  0.8200041382997572  0.5495977769418688  0.7889243750291489
  0.1823862143049302  0.7892603905242013  0.5225243582100133
  0.3026857402195525  0.8738446502829637  0.2996121280875205
  0.1786455882423270  0.9515153768539368  0.2113310910632419
  0.1844229372911295  0.4625308053469508  0.7449352283216424
  0.4323255756787745  0.2890371153493428  0.5223474088798791
  0.0648281926412714  0.7082822973472617  0.3438420031044749
  0.1848122454959682  0.7905532922463213  0.6559299684121593
  0.4447859685499793  0.7992242050619744  0.7888268691261973
  0.6839240977931592  0.1249164104912969  0.4329218975452365
  0.9323220538166543  0.7891921855447016  0.5225278996614251
  0.6919839411429718  0.6121490902583799  0.1665280275422795
  0.8145876165505863  0.7087752146704064  0.3438448584328574
  0.9343161341551045  0.4626062868158149  0.7449278676676604
  0.1899442656197463  0.4588199458233850  0.3440172302876328
  0.5699075518079056  0.5498755319441543  0.7890386817687165
  0.5670567166859368  0.3620338538734617  0.1665525397880634
  0.5648150288499775  0.7091393696924555  0.3439749185524899
  0.5529743755306236  0.3737965870338769  0.2995733875902460
  0.1894976390409302  0.4679917734310042  0.8760721063466776
  0.1915339983328219  0.1115681475700135  0.1664998019051608
  0.4446472981101544  0.2990667052876716  0.7888155059691551
  0.6911329066128238  0.7873299712305462  0.2554145729583180
  0.9338639008298630  0.1377573716533333  0.8335650631123195
  0.4426788497544913  0.9606906597537519  0.4773964264119847
  0.5675277714064245  0.7247332297639761  0.8762493094351601
  0.3168877697355050  0.3621331147242279  0.1666102441230530
  0.9354062006502349  0.2822857802422593  0.1241896094737176
  0.3112816239523913  0.0415743438445593  0.3884055598127980
  0.0601894513172661  0.0405335934613232  0.6560449936154724
  0.5587582453532706  0.3750686653032819  0.4331400092336760
  0.6839738515977177  0.4627200361744142  0.7449721472862312
  0.5600707752159179  0.2125947777718361  0.7448405786777222
  0.9472162649251302  0.1262951444003283  0.7003856521067023
  0.5597321238657480  0.0406582201443762  0.6558629898920945
  0.5573970212419318  0.5389409591704211  0.5224027652102641
  0.1779540091997183  0.1237904801661799  0.2995517152476265
  0.4417747621233964  0.1112921003775395  0.1665234996378152
  0.6777713458121355  0.6235867622849315  0.2995838203766912
  0.9279926593520382  0.1234834807612099  0.2996102877197031
  0.8165366503880925  0.3750384997465473  0.5668974588125507
  0.0530789422305206  0.8737086783087092  0.2995053725220959
  0.1916674740969330  0.6248262891368263  0.5668837403634058
  0.9448104189327012  0.7996339253405815  0.7888403633005666
  0.3084953588666967  0.3873709859185664  0.8335286843980928
  0.9397157597279086  0.4683726022358926  0.8761169882381088
  0.4336318748551436  0.6376776757349516  0.8335237113935414
  0.0648372347313662  0.2085506149316681  0.3437537839126903
  0.1897735974877564  0.9678805258902873  0.8761166820066040
  0.9355146437207623  0.7825064117627751  0.1242146232589142
  0.6862659047780812  0.7912714526398648  0.3884233881686477
  0.9347962285297102  0.7905931628742430  0.6559085040512460
  0.9416548738805653  0.1122876285534031  0.1665779194599187
  0.4350844299548832  0.2907908852903925  0.6560798372290035
  0.0542446789337426  0.2009202741377885  0.2112237059489939
  0.6789040301662738  0.9513504133300734  0.2112728765105525
  0.1783166553610872  0.6234677840961990  0.2993926635468798
  0.8220519981406864  0.8762354168278779  0.7004015235369061
  0.9467691848010460  0.6264727839006651  0.7004878966566199
  0.1971227511110963  0.1263081020987316  0.7003566091209943
  0.9426136285636610  0.4605675834778751  0.4772606099893597
  0.8134721336437321  0.2083625044943787  0.6115754220989756
  0.1836062145575004  0.6246506145245921  0.4331484651212119
  0.4280055029352202  0.1236469121950011  0.2994459962839461
  0.6783057158871630  0.1235722498483238  0.2994183032364469
  0.5614805493123552  0.5415274986190486  0.3884410851527358
  0.8145085467661821  0.2083479558596911  0.3439430659933129
  0.4397634046794403  0.4678610208435491  0.8759321658892455
  0.5585984637793163  0.8874982535377386  0.8334537745973438
  0.3172643108100556  0.2104891290227255  0.4772794826252172
  0.1924341773005478  0.9605039824961420  0.4773673783200453
  0.0585760029941890  0.8875980634938772  0.8334846708686443
  0.0571399133798205  0.5394395659064078  0.5225392623433062
  0.9421935745650514  0.9607167665887856  0.4772085047772908
  0.0634564470532003  0.7082578987726474  0.6115830422484640
  0.5574534028580790  0.0385856435747151  0.5223677730170255
  0.6950749854875861  0.2990502244386569  0.7887764730152463
  0.8166685199432042  0.3623627834410236  0.1666895460154667
  0.4337201969420804  0.1246315733078964  0.4329564198449405
  0.0680299351474597  0.2106537126178429  0.4774696220746161
  0.3099204749202963  0.0407260516555572  0.6559160131897457
  0.4323767950723155  0.7891544667528242  0.5223745871189416
  0.1836953338662080  0.1377144755289542  0.8336070233760415
  0.1856482138716654  0.2829813097865626  0.1242553351327516
  0.9399567563292597  0.4595906405774705  0.3440447237131313
  0.5665413223053625  0.8625971161469168  0.1664749234464807
  0.3038222933028872  0.7008973173883170  0.2112723447375233
  0.9413139202976885  0.6119773598938886  0.1664625427734676
  0.1885999627400761  0.4587662654834060  0.6115473906977986
  0.0722585791994467  0.8764801645262152  0.7003550558417269
  0.0598204151272315  0.5405487084637417  0.6559086110746806
  0.3073377189031931  0.5269627280117221  0.1238987942301752
  0.9362550944386666  0.7914037617969318  0.3884178545767242
  0.9448036917665639  0.2987757183439628  0.7887706376003584
  0.1846607790044000  0.2905459837169737  0.6559077640899116
  0.9381206955220732  0.9583344572074236  0.6114980435923636
  0.8099436358446379  0.7121611493584530  0.7448078630010438
  0.6909005028144291  0.2874142645093776  0.2552418619300859
  0.0592440918520597  0.7121822882360823  0.7449973815572735
  0.6789305613798603  0.4514487674220610  0.2113128628330756
  0.8175431353809017  0.2103870317180396  0.4774244774002264
  0.5674453521219889  0.7105849835246011  0.4774747764021920
  0.0673713658933117  0.8626167205068562  0.1665877195583370
  0.9324671944357968  0.2889262904371503  0.5225162033199621
  0.6846336148723214  0.7904068464494797  0.6559128325119641
  0.0583720920480344  0.8749796763209374  0.4330073402020533
  0.0681347945922651  0.2231509335124578  0.8761591047338508
  0.8098824919093415  0.0405103865245498  0.6559731330369968
  0.5596392261906625  0.0279549386773432  0.1239055337519936
  0.3088583277219957  0.3751772251560904  0.4328870416257023
  0.3164969401001373  0.3748734728449194  0.5668669176878799
  0.3172001024088899  0.7101874896202007  0.4772593012935026
  0.0571080367618694  0.0389719141906326  0.5224853510288272
  0.3219290200270021  0.8763711362831537  0.7005214011365516
  0.0654420360008576  0.5376676288893458  0.2550848759777289
  0.6835011774212054  0.1376846410778458  0.8335151551001236
  0.8153414110728877  0.0375127915076502  0.2550978678733636
  0.1835714211463136  0.1250818788148045  0.4331489394632556
  0.6972693422340331  0.1262813903345602  0.7004203323449497
  0.1824745662662854  0.2891098161609724  0.5225360792412512
  0.4405495493648219  0.7875073594988155  0.2552169629481339
  0.4412534617375889  0.6120284846911183  0.1665620602573945
  0.0633932969658886  0.2083686808498321  0.6115827557327104
  0.1859894222310274  0.7914174401730144  0.3881962467222542
  0.3071333776762747  0.5386571610740014  0.5224692665420188
  0.8218780728638307  0.3765775673684400  0.7002915626973351
  0.6865760332264277  0.2910078182684810  0.3884320970661662
  0.1915052277965976  0.1250289764599008  0.5668816713127818
  0.6898111155642824  0.9683175186898306  0.8761090721787953
  0.6914434605337014  0.1249737920062100  0.5668953467224539
  0.4400600296432471  0.9589100175352530  0.3440441372376923
  0.1840333588296000  0.9627208939521339  0.7447723035482662
  0.9405135628523315  0.7875322046101145  0.2551085718618587
  0.5589380805881372  0.8748652728737455  0.4330184533519881
  0.3086748477954651  0.8752584346389277  0.4328844493838938
  0.8073454093971589  0.5392747461986589  0.5225096099186862
  0.9288650014023567  0.4513778988004069  0.2113130190628409
  0.3154006672899330  0.5379041836922368  0.2552369424460039
  0.5612666094824410  0.0414917267404027  0.3884325418214210
  0.9381759677078683  0.4581337957286347  0.6116263754579381
  0.0612183418234741  0.0414628271333957  0.3883819644707767
  0.0611902671205415  0.5413706822476837  0.3883975992410120
  0.4363316891735094  0.2909770575775088  0.3883644758220778
  0.6928809541663159  0.4607640331265603  0.4773942534769682
  0.0666394891723781  0.3749687251413522  0.5668801213855802
  0.5539826619761631  0.7009588012779927  0.2111745181799815
  0.9406270016841766  0.2874710270801974  0.2552238429301461
  0.8193078587498068  0.0496124257309865  0.7890786318515557
  0.1901355126462996  0.9589220089469800  0.3440431583635518
  0.5529344654720002  0.8738001419333655  0.2996236459986771
  0.0585832034400206  0.3750986808538937  0.4329641197706038
  0.3148302735855916  0.7090027679741707  0.3439323400480406
  0.3145178909532039  0.2088319249502433  0.3439070642642140
  0.9416437696971636  0.1251885013180873  0.5668044981569409
  0.4386199638197092  0.9587887699932487  0.6115639184373759
  0.5651567074198439  0.0375613587674113  0.2551278696880430
  0.1865654372696837  0.7825534078863244  0.1242260616641124
  0.0653959720109424  0.0375951785333822  0.2551728710134810
  0.6915885818807135  0.6250002200484066  0.5669046806851400
  0.0572548134976013  0.5264587508103966  0.1240604574737349
  0.3073035190253882  0.0383448340786980  0.5223035486205126
  0.6861007470560663  0.2825902395878834  0.1241766341719297
  0.8177272325022107  0.7107595302327969  0.4774636343147095
  0.4335607076476956  0.1376060566752868  0.8335187067158727
  0.3223389568156737  0.3764551962023518  0.7004253253074578
  0.6835808998244400  0.6377227435714805  0.8335159692629539
  0.5599025477658941  0.7120489043008897  0.7448515576659291
  0.9362257292627048  0.2913007396291095  0.3884384240695639
  0.9397664417210474  0.9682670574162597  0.8761418709129101
  0.5628266904507884  0.2079583290166804  0.6113566567348105
  0.8168076735776781  0.8751454850378644  0.5669165687389756
  0.8031632310904275  0.8733941503256787  0.2994342135031178
  0.3154183559710186  0.0373843882343135  0.2551772244318919
  0.4366663783247211  0.2831601306017763  0.1242426492258266
  0.3134438525443795  0.7084603184969105  0.6115911113828044
  0.4336100504061198  0.6249905125173907  0.4330131925050876
  0.9336692690439121  0.6243449628658682  0.4331265565251658
  0.3182790811260123  0.8624454951159505  0.1658022461024865
  0.0705668610566662  0.5493976333237272  0.7887667439036297
  0.9334297747530906  0.1246030621267488  0.4330426575705599
  0.1930460722764308  0.4610414374707725  0.4773612877003447
  0.9333096762623379  0.9621420393569946  0.7447326176839972
  0.8159648233533738  0.5382694968254114  0.2553600075784111
 
  0.00000000E+00  0.00000000E+00  0.00000000E+00
  0.00000000E+00  0.00000000E+00  0.00000000E+00
  0.00000000E+00  0.00000000E+00  0.00000000E+00
  0.00000000E+00  0.00000000E+00  0.00000000E+00
  0.00000000E+00  0.00000000E+00  0.00000000E+00
  0.00000000E+00  0.00000000E+00  0.00000000E+00
  0.00000000E+00  0.00000000E+00  0.00000000E+00
  0.00000000E+00  0.00000000E+00  0.00000000E+00
  0.00000000E+00  0.00000000E+00  0.00000000E+00
  0.00000000E+00  0.00000000E+00  0.00000000E+00
  0.00000000E+00  0.00000000E+00  0.00000000E+00
  0.00000000E+00  0.00000000E+00  0.00000000E+00
  0.00000000E+00  0.00000000E+00  0.00000000E+00
  0.00000000E+00  0.00000000E+00  0.00000000E+00
  0.00000000E+00  0.00000000E+00  0.00000000E+00
  0.00000000E+00  0.00000000E+00  0.00000000E+00
  0.00000000E+00  0.00000000E+00  0.00000000E+00
  0.00000000E+00  0.00000000E+00  0.00000000E+00
  0.00000000E+00  0.00000000E+00  0.00000000E+00
  0.00000000E+00  0.00000000E+00  0.00000000E+00
  0.00000000E+00  0.00000000E+00  0.00000000E+00
  0.00000000E+00  0.00000000E+00  0.00000000E+00
  0.00000000E+00  0.00000000E+00  0.00000000E+00
  0.00000000E+00  0.00000000E+00  0.00000000E+00
  0.00000000E+00  0.00000000E+00  0.00000000E+00
  0.00000000E+00  0.00000000E+00  0.00000000E+00
  0.00000000E+00  0.00000000E+00  0.00000000E+00
  0.00000000E+00  0.00000000E+00  0.00000000E+00
  0.00000000E+00  0.00000000E+00  0.00000000E+00
  0.00000000E+00  0.00000000E+00  0.00000000E+00
  0.00000000E+00  0.00000000E+00  0.00000000E+00
  0.00000000E+00  0.00000000E+00  0.00000000E+00
  0.00000000E+00  0.00000000E+00  0.00000000E+00
  0.00000000E+00  0.00000000E+00  0.00000000E+00
  0.00000000E+00  0.00000000E+00  0.00000000E+00
  0.00000000E+00  0.00000000E+00  0.00000000E+00
  0.00000000E+00  0.00000000E+00  0.00000000E+00
  0.00000000E+00  0.00000000E+00  0.00000000E+00
  0.00000000E+00  0.00000000E+00  0.00000000E+00
  0.00000000E+00  0.00000000E+00  0.00000000E+00
  0.00000000E+00  0.00000000E+00  0.00000000E+00
  0.00000000E+00  0.00000000E+00  0.00000000E+00
  0.00000000E+00  0.00000000E+00  0.00000000E+00
  0.00000000E+00  0.00000000E+00  0.00000000E+00
  0.00000000E+00  0.00000000E+00  0.00000000E+00
  0.00000000E+00  0.00000000E+00  0.00000000E+00
  0.00000000E+00  0.00000000E+00  0.00000000E+00
  0.00000000E+00  0.00000000E+00  0.00000000E+00
  0.00000000E+00  0.00000000E+00  0.00000000E+00
  0.00000000E+00  0.00000000E+00  0.00000000E+00
  0.00000000E+00  0.00000000E+00  0.00000000E+00
  0.00000000E+00  0.00000000E+00  0.00000000E+00
  0.00000000E+00  0.00000000E+00  0.00000000E+00
  0.00000000E+00  0.00000000E+00  0.00000000E+00
  0.00000000E+00  0.00000000E+00  0.00000000E+00
  0.00000000E+00  0.00000000E+00  0.00000000E+00
  0.00000000E+00  0.00000000E+00  0.00000000E+00
  0.00000000E+00  0.00000000E+00  0.00000000E+00
  0.00000000E+00  0.00000000E+00  0.00000000E+00
  0.00000000E+00  0.00000000E+00  0.00000000E+00
  0.00000000E+00  0.00000000E+00  0.00000000E+00
  0.00000000E+00  0.00000000E+00  0.00000000E+00
  0.00000000E+00  0.00000000E+00  0.00000000E+00
  0.00000000E+00  0.00000000E+00  0.00000000E+00
  0.00000000E+00  0.00000000E+00  0.00000000E+00
  0.00000000E+00  0.00000000E+00  0.00000000E+00
  0.00000000E+00  0.00000000E+00  0.00000000E+00
  0.00000000E+00  0.00000000E+00  0.00000000E+00
  0.00000000E+00  0.00000000E+00  0.00000000E+00
  0.00000000E+00  0.00000000E+00  0.00000000E+00
  0.00000000E+00  0.00000000E+00  0.00000000E+00
  0.00000000E+00  0.00000000E+00  0.00000000E+00
  0.00000000E+00  0.00000000E+00  0.00000000E+00
  0.00000000E+00  0.00000000E+00  0.00000000E+00
  0.00000000E+00  0.00000000E+00  0.00000000E+00
  0.00000000E+00  0.00000000E+00  0.00000000E+00
  0.00000000E+00  0.00000000E+00  0.00000000E+00
  0.00000000E+00  0.00000000E+00  0.00000000E+00
  0.00000000E+00  0.00000000E+00  0.00000000E+00
  0.00000000E+00  0.00000000E+00  0.00000000E+00
  0.00000000E+00  0.00000000E+00  0.00000000E+00
  0.00000000E+00  0.00000000E+00  0.00000000E+00
  0.00000000E+00  0.00000000E+00  0.00000000E+00
  0.00000000E+00  0.00000000E+00  0.00000000E+00
  0.00000000E+00  0.00000000E+00  0.00000000E+00
  0.00000000E+00  0.00000000E+00  0.00000000E+00
  0.00000000E+00  0.00000000E+00  0.00000000E+00
  0.00000000E+00  0.00000000E+00  0.00000000E+00
  0.00000000E+00  0.00000000E+00  0.00000000E+00
  0.00000000E+00  0.00000000E+00  0.00000000E+00
  0.00000000E+00  0.00000000E+00  0.00000000E+00
  0.00000000E+00  0.00000000E+00  0.00000000E+00
  0.00000000E+00  0.00000000E+00  0.00000000E+00
  0.00000000E+00  0.00000000E+00  0.00000000E+00
  0.00000000E+00  0.00000000E+00  0.00000000E+00
  0.00000000E+00  0.00000000E+00  0.00000000E+00
  0.00000000E+00  0.00000000E+00  0.00000000E+00
  0.00000000E+00  0.00000000E+00  0.00000000E+00
  0.00000000E+00  0.00000000E+00  0.00000000E+00
  0.00000000E+00  0.00000000E+00  0.00000000E+00
  0.00000000E+00  0.00000000E+00  0.00000000E+00
  0.00000000E+00  0.00000000E+00  0.00000000E+00
  0.00000000E+00  0.00000000E+00  0.00000000E+00
  0.00000000E+00  0.00000000E+00  0.00000000E+00
  0.00000000E+00  0.00000000E+00  0.00000000E+00
  0.00000000E+00  0.00000000E+00  0.00000000E+00
  0.00000000E+00  0.00000000E+00  0.00000000E+00
  0.00000000E+00  0.00000000E+00  0.00000000E+00
  0.00000000E+00  0.00000000E+00  0.00000000E+00
  0.00000000E+00  0.00000000E+00  0.00000000E+00
  0.00000000E+00  0.00000000E+00  0.00000000E+00
  0.00000000E+00  0.00000000E+00  0.00000000E+00
  0.00000000E+00  0.00000000E+00  0.00000000E+00
  0.00000000E+00  0.00000000E+00  0.00000000E+00
  0.00000000E+00  0.00000000E+00  0.00000000E+00
  0.00000000E+00  0.00000000E+00  0.00000000E+00
  0.00000000E+00  0.00000000E+00  0.00000000E+00
  0.00000000E+00  0.00000000E+00  0.00000000E+00
  0.00000000E+00  0.00000000E+00  0.00000000E+00
  0.00000000E+00  0.00000000E+00  0.00000000E+00
  0.00000000E+00  0.00000000E+00  0.00000000E+00
  0.00000000E+00  0.00000000E+00  0.00000000E+00
  0.00000000E+00  0.00000000E+00  0.00000000E+00
  0.00000000E+00  0.00000000E+00  0.00000000E+00
  0.00000000E+00  0.00000000E+00  0.00000000E+00
  0.00000000E+00  0.00000000E+00  0.00000000E+00
  0.00000000E+00  0.00000000E+00  0.00000000E+00
  0.00000000E+00  0.00000000E+00  0.00000000E+00
  0.00000000E+00  0.00000000E+00  0.00000000E+00
  0.00000000E+00  0.00000000E+00  0.00000000E+00
  0.00000000E+00  0.00000000E+00  0.00000000E+00
  0.00000000E+00  0.00000000E+00  0.00000000E+00
  0.00000000E+00  0.00000000E+00  0.00000000E+00
  0.00000000E+00  0.00000000E+00  0.00000000E+00
  0.00000000E+00  0.00000000E+00  0.00000000E+00
  0.00000000E+00  0.00000000E+00  0.00000000E+00
  0.00000000E+00  0.00000000E+00  0.00000000E+00
  0.00000000E+00  0.00000000E+00  0.00000000E+00
  0.00000000E+00  0.00000000E+00  0.00000000E+00
  0.00000000E+00  0.00000000E+00  0.00000000E+00
  0.00000000E+00  0.00000000E+00  0.00000000E+00
  0.00000000E+00  0.00000000E+00  0.00000000E+00
  0.00000000E+00  0.00000000E+00  0.00000000E+00
  0.00000000E+00  0.00000000E+00  0.00000000E+00
  0.00000000E+00  0.00000000E+00  0.00000000E+00
  0.00000000E+00  0.00000000E+00  0.00000000E+00
  0.00000000E+00  0.00000000E+00  0.00000000E+00
  0.00000000E+00  0.00000000E+00  0.00000000E+00
  0.00000000E+00  0.00000000E+00  0.00000000E+00
  0.00000000E+00  0.00000000E+00  0.00000000E+00
  0.00000000E+00  0.00000000E+00  0.00000000E+00
  0.00000000E+00  0.00000000E+00  0.00000000E+00
  0.00000000E+00  0.00000000E+00  0.00000000E+00
  0.00000000E+00  0.00000000E+00  0.00000000E+00
  0.00000000E+00  0.00000000E+00  0.00000000E+00
  0.00000000E+00  0.00000000E+00  0.00000000E+00
  0.00000000E+00  0.00000000E+00  0.00000000E+00
  0.00000000E+00  0.00000000E+00  0.00000000E+00
  0.00000000E+00  0.00000000E+00  0.00000000E+00
  0.00000000E+00  0.00000000E+00  0.00000000E+00
  0.00000000E+00  0.00000000E+00  0.00000000E+00
  0.00000000E+00  0.00000000E+00  0.00000000E+00
  0.00000000E+00  0.00000000E+00  0.00000000E+00
  0.00000000E+00  0.00000000E+00  0.00000000E+00
  0.00000000E+00  0.00000000E+00  0.00000000E+00
  0.00000000E+00  0.00000000E+00  0.00000000E+00
  0.00000000E+00  0.00000000E+00  0.00000000E+00
  0.00000000E+00  0.00000000E+00  0.00000000E+00
  0.00000000E+00  0.00000000E+00  0.00000000E+00
  0.00000000E+00  0.00000000E+00  0.00000000E+00
  0.00000000E+00  0.00000000E+00  0.00000000E+00
  0.00000000E+00  0.00000000E+00  0.00000000E+00
  0.00000000E+00  0.00000000E+00  0.00000000E+00
  0.00000000E+00  0.00000000E+00  0.00000000E+00
  0.00000000E+00  0.00000000E+00  0.00000000E+00
  0.00000000E+00  0.00000000E+00  0.00000000E+00
  0.00000000E+00  0.00000000E+00  0.00000000E+00
  0.00000000E+00  0.00000000E+00  0.00000000E+00
  0.00000000E+00  0.00000000E+00  0.00000000E+00
  0.00000000E+00  0.00000000E+00  0.00000000E+00
  0.00000000E+00  0.00000000E+00  0.00000000E+00
  0.00000000E+00  0.00000000E+00  0.00000000E+00
  0.00000000E+00  0.00000000E+00  0.00000000E+00
  0.00000000E+00  0.00000000E+00  0.00000000E+00
  0.00000000E+00  0.00000000E+00  0.00000000E+00
  0.00000000E+00  0.00000000E+00  0.00000000E+00
  0.00000000E+00  0.00000000E+00  0.00000000E+00
  0.00000000E+00  0.00000000E+00  0.00000000E+00
  0.00000000E+00  0.00000000E+00  0.00000000E+00
  0.00000000E+00  0.00000000E+00  0.00000000E+00
  0.00000000E+00  0.00000000E+00  0.00000000E+00
  0.00000000E+00  0.00000000E+00  0.00000000E+00
  0.00000000E+00  0.00000000E+00  0.00000000E+00
  0.00000000E+00  0.00000000E+00  0.00000000E+00
  0.00000000E+00  0.00000000E+00  0.00000000E+00
  0.00000000E+00  0.00000000E+00  0.00000000E+00
  0.00000000E+00  0.00000000E+00  0.00000000E+00
  0.00000000E+00  0.00000000E+00  0.00000000E+00
  0.00000000E+00  0.00000000E+00  0.00000000E+00
  0.00000000E+00  0.00000000E+00  0.00000000E+00
  0.00000000E+00  0.00000000E+00  0.00000000E+00
  0.00000000E+00  0.00000000E+00  0.00000000E+00
  0.00000000E+00  0.00000000E+00  0.00000000E+00
  0.00000000E+00  0.00000000E+00  0.00000000E+00
  0.00000000E+00  0.00000000E+00  0.00000000E+00
  0.00000000E+00  0.00000000E+00  0.00000000E+00
  0.00000000E+00  0.00000000E+00  0.00000000E+00
  0.00000000E+00  0.00000000E+00  0.00000000E+00
  0.00000000E+00  0.00000000E+00  0.00000000E+00
  0.00000000E+00  0.00000000E+00  0.00000000E+00
  0.00000000E+00  0.00000000E+00  0.00000000E+00
  0.00000000E+00  0.00000000E+00  0.00000000E+00
  0.00000000E+00  0.00000000E+00  0.00000000E+00
  0.00000000E+00  0.00000000E+00  0.00000000E+00
  0.00000000E+00  0.00000000E+00  0.00000000E+00
  0.00000000E+00  0.00000000E+00  0.00000000E+00
  0.00000000E+00  0.00000000E+00  0.00000000E+00
  0.00000000E+00  0.00000000E+00  0.00000000E+00
  0.00000000E+00  0.00000000E+00  0.00000000E+00
  0.00000000E+00  0.00000000E+00  0.00000000E+00
  0.00000000E+00  0.00000000E+00  0.00000000E+00
  0.00000000E+00  0.00000000E+00  0.00000000E+00
  0.00000000E+00  0.00000000E+00  0.00000000E+00
  0.00000000E+00  0.00000000E+00  0.00000000E+00
  0.00000000E+00  0.00000000E+00  0.00000000E+00
  0.00000000E+00  0.00000000E+00  0.00000000E+00
  0.00000000E+00  0.00000000E+00  0.00000000E+00
  0.00000000E+00  0.00000000E+00  0.00000000E+00
  0.00000000E+00  0.00000000E+00  0.00000000E+00
  0.00000000E+00  0.00000000E+00  0.00000000E+00
  0.00000000E+00  0.00000000E+00  0.00000000E+00
  0.00000000E+00  0.00000000E+00  0.00000000E+00
  0.00000000E+00  0.00000000E+00  0.00000000E+00
  0.00000000E+00  0.00000000E+00  0.00000000E+00
  0.00000000E+00  0.00000000E+00  0.00000000E+00
  0.00000000E+00  0.00000000E+00  0.00000000E+00
  0.00000000E+00  0.00000000E+00  0.00000000E+00
  0.00000000E+00  0.00000000E+00  0.00000000E+00
  0.00000000E+00  0.00000000E+00  0.00000000E+00
  0.00000000E+00  0.00000000E+00  0.00000000E+00
  0.00000000E+00  0.00000000E+00  0.00000000E+00
  0.00000000E+00  0.00000000E+00  0.00000000E+00
  0.00000000E+00  0.00000000E+00  0.00000000E+00
  0.00000000E+00  0.00000000E+00  0.00000000E+00
  0.00000000E+00  0.00000000E+00  0.00000000E+00
  0.00000000E+00  0.00000000E+00  0.00000000E+00
  0.00000000E+00  0.00000000E+00  0.00000000E+00