FeMn_288_15                             
    1.000000000000000     
     9.7266779999999997    0.0000000000000000    0.0000000000000000
     0.0000000000000000    8.4235500000000005    0.0000000000000000
     0.0000000000000000    0.0000000000000000   45.0000000000000000
   Fe   Mn
   273    15
Direct
  0.5627168480933015  0.2082445334560597  0.8312544579037366
  0.8126322561457778  0.3721666179172489  0.5213921681388726
  0.5626892224190573  0.5368514053174017  0.2577085406376548
  0.8112883407506623  0.8701280557118549  0.1686339732724634
  0.5623547613146920  0.2072401663742054  0.6980926546679759
  0.1876921428062392  0.6247338364455848  0.7864268835738650
  0.3122398120769491  0.5362371532622968  0.1266455000038101
  0.8130884139565413  0.7056735411233485  0.5650411886887435
  0.1877833425841168  0.4533278107944560  0.2136848938950847
  0.6875607605643217  0.6197948246825551  0.3018914755295097
  0.4377564508450528  0.7914436308457040  0.8733343671010038
  0.0627354580429342  0.2078881566367383  0.8312602601049174
  0.1874973698884374  0.2880522867468088  0.3901866495280836
  0.3116573205797378  0.0352958000600575  0.1267542002978617
  0.1878619704218580  0.4581539058066019  0.8311576619476372
  0.5626690918716470  0.3743636174699964  0.7863043872631836
  0.1872851669417372  0.1250926620954279  0.7862739369376490
  0.6873762675234227  0.9580811173648529  0.8311331905870373
  0.3125912592346541  0.7027248621907120  0.2136454630301720
  0.3121828129093911  0.0418448104112321  0.8736152389767923
  0.6876277307290731  0.2896779519922559  0.6098805915300796
  0.5622225743420319  0.3723945767905173  0.5213411868775332
  0.3124906076528404  0.5380878704873120  0.3901722580606475
  0.8129903425144561  0.7054381969512491  0.4786186355968766
  0.8129382995949385  0.2061236356477108  0.5650928617768658
  0.0626421247079338  0.5399481090966403  0.6097360497752743
  0.0624245882854395  0.7029128353246481  0.2135485148390465
  0.3124244698602424  0.7048634937350629  0.4785029065412603
  0.4376860286669405  0.7876591186900230  0.3901599682896733
  0.4374296939568829  0.7869656622723810  0.2577650630865168
  0.0621430328237233  0.2042278542999953  0.3462669888907445
  0.5624763213937211  0.3700975155960238  0.3019264918100850
  0.1876002476489750  0.1235248053722656  0.6536916384802521
  0.8125652123080178  0.8746581583290108  0.7864099916878655
  0.3126483789149156  0.8715308196100545  0.4348311833122132
  0.3125036717319069  0.7075925497783218  0.6981664074418058
  0.3124017621389155  0.0368493167196602  0.2577318794376453
  0.6875289960974308  0.7871543762940718  0.2578261724330526
  0.1874496016417869  0.1217184328263195  0.4348219240746858
  0.0624175202972099  0.7059097348140312  0.5651621985086337
  0.8125005777183140  0.3702364494540380  0.3018992856450159
  0.4373168132825258  0.9586729934376248  0.8312116166517159
  0.0624831918671251  0.3734282342369094  0.6537000063817771
  0.1875390664366597  0.2899426657093306  0.6097296417880440
  0.8125123264914390  0.7074931253873752  0.6981233702918913
  0.8126378342087035  0.7075250303841897  0.8311476601343072
  0.3125293211369423  0.5412547100584139  0.7422250461367252
  0.1874842595457421  0.4553649881332644  0.4786768337088312
  0.9370083081408233  0.2912028334480676  0.8732491657275204
  0.9374240131995196  0.9578010915059307  0.6980618237587581
  0.8124769864770752  0.8727029116345768  0.5213049617209370
  0.6876734578261482  0.9557039111698241  0.5651582986011985
  0.3122734903792581  0.3701044381835410  0.1689097209253751
  0.8125722592462193  0.5363736626314816  0.1266494249682781
  0.9375996006960750  0.6215622662265013  0.4347195361583482
  0.6882521912788303  0.7867578761277232  0.1265697559482751
  0.8126133488769197  0.2086643465015885  0.8311634779384426
  0.1871769987506948  0.2868414840455076  0.1266169925422515
  0.8119436164952338  0.0413543911926013  0.8732702725995505
  0.9375906392899671  0.2881042455822666  0.3902486461723609
  0.1876323409162004  0.2910973078667659  0.7422070085534606
  0.1873756047485914  0.7913051210756129  0.7422856822669008
  0.5625247334449102  0.5421006588514131  0.8732525223254999
  0.0628159392482181  0.0411524735193422  0.8735111635676802
  0.3123545638879304  0.5397152944908052  0.6097935911033199
  0.3124993152856338  0.5368843165119720  0.2577356348706745
  0.1879819578086435  0.7863058647074039  0.1266157434443902
  0.6876154612637608  0.9574828938478367  0.6983066103184117
  0.1874932849887376  0.6206305537904008  0.3018437147310769
  0.4374997407431517  0.6236106853500125  0.6537170633231379
  0.5628188036297465  0.5395743245774607  0.6097306970165557
  0.6873303095168533  0.4573990073502379  0.6980532192918242
  0.3126022929653131  0.3709292830902409  0.3019397357358291
  0.3133886205835077  0.8698749646151238  0.1687415469802160
  0.4376510339802109  0.9573867487788007  0.6981214334516651
  0.4380140635209893  0.4563064677061793  0.5651733684604537
  0.5622841011435142  0.0367225066667405  0.2577314816833937
  0.5627561973488059  0.2042567901261323  0.3463254266242592
  0.0622159953228544  0.5412255690456929  0.7423062085673932
  0.4371056716639197  0.4531279020392833  0.2136288803965390
  0.6874543497630639  0.4585239880165840  0.8311257856054090
  0.9375123326514012  0.7867037088837232  0.2577712490800343
  0.1875045065073605  0.7880764295722708  0.3902222079234242
  0.4371394815777445  0.2918976942131370  0.8734509263061299
  0.8127307429759906  0.3701410989720400  0.1688515516419881
  0.0621143070509849  0.2054759859327239  0.4785425309148582
  0.8126870926704792  0.2055874417544378  0.4785931202242702
  0.8124648397441769  0.8702751633665093  0.3019432341031092
  0.8125265986339499  0.2041433923260988  0.3463352263701134
  0.1875125100822482  0.2867911138768388  0.2578049112646943
  0.3129165725920032  0.8748901124274673  0.7863481900923541
  0.4374210707908702  0.2911325803718369  0.7421745214083799
  0.0624207008722514  0.7075743999808909  0.6980938647461435
  0.8126467299382587  0.3715380462066876  0.4347358833647729
  0.3126766466059492  0.0401307742240055  0.6098202486261484
  0.5626857551155537  0.8718092232840241  0.4348149595359052
  0.4376048054455063  0.6197258439341475  0.1688913121410128
  0.3120379758296481  0.2036667694339769  0.2138426224125972
  0.0626246336932872  0.0364525409909674  0.2577639820237013
  0.9371567552178941  0.7878642656526189  0.3901497911781769
  0.0626764604017434  0.0366711501981005  0.1266990420278331
  0.8124179337204578  0.5368296951226981  0.2577545682987614
  0.5626239711103768  0.0377619232519536  0.3902584227859216
  0.5625325527484383  0.0400248817049028  0.6098189197041084
  0.3128354754652040  0.2055955667391946  0.4784938750898521
  0.0623406944395524  0.8736079750073933  0.6536076395954132
  0.6876186245931990  0.4559327911811327  0.5651385447026147
  0.5622945185091616  0.3715102671499358  0.4347599958521329
  0.8123556904776078  0.5377922807631355  0.3901569402753073
  0.4371169697244485  0.9530025303618113  0.2135684166720894
  0.5626257072218074  0.8705632591209177  0.1686456601457597
  0.8124292646840076  0.8737350408054426  0.6537049526428337
  0.9380112886796358  0.1222083393330198  0.5212941928729496
  0.8124779712436793  0.8717492185074852  0.4347461163990838
  0.3122969979636410  0.3738983972263029  0.6537466495445012
  0.1875926210059323  0.6192502076581431  0.1688572107453537
  0.8124027704956431  0.0378469178032909  0.3902438737225126
  0.6874967391200112  0.1237739703974316  0.6537404907775979
  0.6876291731443723  0.4548005016804522  0.4786675023375409
  0.5623549918478530  0.2054013269387766  0.4786979068352113
  0.8125889900535275  0.7041865525258546  0.3463543117335680
  0.6872733956932585  0.1248370085001863  0.7863956791434757
  0.9376856288183723  0.1245882070967468  0.7864635662056620
  0.0623849680746460  0.2029962331371663  0.2137128744055675
  0.5620266866017960  0.7054172797313099  0.4786434278096272
  0.0626745856017897  0.2075127773187747  0.6981119092590616
  0.1874264119396269  0.9577927801724895  0.6982703638082614
  0.1879963931757948  0.2911969341487429  0.8734663625044264
  0.8126083934153558  0.0365212824997234  0.2577561693689032
  0.8126406546658547  0.7033830272326991  0.2136638796169759
  0.9375637967888921  0.2916841920797623  0.7422456974848928
  0.0625797167075788  0.0402436247702904  0.6097884020370573
  0.9379060333130927  0.6220859717140313  0.5213032893709626
  0.8125439337553045  0.5411794355199694  0.7422278878710837
  0.6874641118062406  0.2914669704736029  0.7422626690562013
  0.4375209788175654  0.4574627833080445  0.6981734474074091
  0.0618674756935990  0.7089924120752700  0.8312864616675001
  0.9375776098242901  0.4539058805271508  0.3463264663148857
  0.6874533912292276  0.6218005297215347  0.4350122093712034
  0.0625588521903116  0.8702690982421777  0.3018584122667711
  0.5626374315725116  0.7041127604341394  0.3463627781251882
  0.0625385620645962  0.7048622895365224  0.4785287745259751
  0.3127429860749922  0.7088934746674829  0.8312348952084950
  0.6874549914010588  0.4539248750461033  0.3462246737594499
  0.5629844363929644  0.7081713633228304  0.8311360513768411
  0.1873490550961005  0.4540622432105467  0.3463358254674245
  0.5629908433450380  0.0415878822309731  0.8733160052163006
  0.3125375106828058  0.2042730018395864  0.3462675522836465
  0.6875852614508079  0.7874503599139119  0.3902393203386746
  0.9374145435034260  0.4572455670581544  0.6981326963982044
  0.9375054623350063  0.4536454181875900  0.2137176762809352
  0.9379724070060160  0.1205220463610280  0.3019755568468390
  0.9374309465275951  0.2865890607463087  0.2577952817320197
  0.1878204631959764  0.4575912613921351  0.6979728373528941
  0.6872235707525355  0.7917827916930793  0.8733443162187576
  0.3123308528180228  0.7060274573621276  0.5651418174188917
  0.9370080499274858  0.4554987762552806  0.4786164175113521
  0.3123595123284788  0.3745832665952442  0.7862933682214163
  0.9373552656914840  0.7862762102320257  0.1266543714054925
  0.4367975715400040  0.1221688030073619  0.5213180388526933
  0.4370931025663372  0.1206081324489489  0.3019955067032689
  0.4375303164366882  0.6246328835435599  0.7864239802841256
  0.4374194485467282  0.6214733877500765  0.4347287489521421
  0.6869710335844927  0.1188902845417448  0.1686869980356761
  0.0624996463780540  0.8748327685481648  0.7862927194054291
  0.4377095264944845  0.2868469809639825  0.2578343396467809
  0.5621545148673940  0.8750971736044991  0.7863930979382034
  0.9370069284080575  0.4587488292897707  0.8312432644262590
  0.8125917013036282  0.2074777277892221  0.6981326905064639
  0.6876282850552360  0.4535666840287699  0.2136168263371973
  0.0625987329196615  0.5381724087066541  0.3901601165904415
  0.0623806235125042  0.3708211066177640  0.3019664013993975
  0.1874089317329911  0.1205265893425913  0.3018948537311567
  0.0618593206957376  0.5418569642900235  0.8732844574970601
  0.6875133051546233  0.2877464606414833  0.3902924623214102
  0.9376010343426286  0.6234503021309478  0.6537281700122899
  0.9374058307605021  0.6193449400615589  0.1688730790467561
  0.5625027043182105  0.8728151004542742  0.5213707075285435
  0.9381881303748364  0.1200624231476016  0.1688839177972639
  0.5621206631326033  0.7057950914843207  0.5650690299431456
  0.9375501655214827  0.7907427126254301  0.7422116681713444
  0.6875236276299893  0.6236581169863155  0.6535985584519717
  0.0625496318727857  0.0411989265331054  0.7422161263506624
  0.3125514964305167  0.2074766063265347  0.6981119710218634
  0.4375809918072324  0.9542753165855551  0.3462866471780168
  0.4372949432623369  0.4577396486641122  0.8311131316965936
  0.0625808080332023  0.3745197141569130  0.7864147091608675
  0.4377897465191706  0.1244252405219437  0.7863690368440762
  0.9374987335754691  0.9577758276565049  0.8311295328960617
  0.4372158060982661  0.6202372300093977  0.3018732977613567
  0.6873997092682137  0.9549016474270560  0.4785703464539031
  0.3131006468980683  0.8722018703859512  0.5212124217695093
  0.4377782277540557  0.9559709293803695  0.5651609788659842
  0.4373184645482687  0.2878010399894506  0.3902464286158573
  0.6876679935374044  0.1222547232208842  0.5213249301601145
  0.0624384488477893  0.8695579577232607  0.1688816128115185
  0.8123747143129872  0.0412893097559936  0.7422301793195940
  0.1875319072729954  0.7865836717503707  0.2577484426366691
  0.9378588330288681  0.9530428587390979  0.2135754535435030
  0.4381613056602056  0.1189639962478587  0.1687202688494072
  0.6874702415193732  0.9543706329558861  0.3463396473440334
  0.4376064921314389  0.1235533181238549  0.6537136468217970
  0.8126929830122356  0.3735684014248257  0.6537893811370119
  0.0623428097909479  0.2062690052319987  0.5652330167243224
  0.4370879867119941  0.6220758866887880  0.5212884158802118
  0.4375475994678382  0.4542730380122917  0.3463373643258150
  0.0623894646562887  0.5363263034040004  0.2577677835458462
  0.9370218862283868  0.9557086646252293  0.4784843014260908
  0.1868578111499282  0.1199173416011849  0.1689745174858474
  0.5624897312696364  0.3690082611704663  0.1687049875430826
  0.5623386467751551  0.7026783149790197  0.2137143648349737
  0.6875591918495918  0.1217816268339501  0.4348682721361633
  0.4380536777123572  0.2875408531268008  0.1267429994189799
  0.1875065534084014  0.1231550875484848  0.5212699136797985
  0.0621399658981015  0.8717619839158265  0.4348976853881377
  0.8124798142739124  0.3745757779119291  0.7863475807429818
  0.9378100835868168  0.2869893054704897  0.1265982415078673
  0.6874096307807045  0.2864425284032007  0.2577620144475036
  0.6871827516197235  0.6248223548642359  0.7864335958688734
  0.3128106297978776  0.3722603379551138  0.5213468005388084
  0.3126049966968878  0.8737810469187152  0.6536602101193723
  0.8124836502097522  0.0400749557456718  0.6098115144836015
  0.0622601731408046  0.3723151142070875  0.5213265748712461
  0.3123558497815616  0.2064491161069806  0.5652177229854046
  0.5625779438218849  0.2033008196681004  0.2136043509438065
  0.1874632763975939  0.7898668741567443  0.6097590883327437
  0.5628083226405571  0.5408774512092170  0.7422521318116999
  0.4375715454548804  0.2897293548883004  0.6097644626007758
  0.5624516245631607  0.5377227968164753  0.3901899223325839
  0.9374086096782345  0.1234711926966491  0.6537592583525879
  0.4363339691051035  0.7862012596962998  0.1266181688622607
  0.1874615132512712  0.6227750347265402  0.5212442756030855
  0.1874861785798536  0.6218826754249045  0.4348153002861503
  0.0624435638102653  0.3717429653616789  0.4348363953502696
  0.6868924707160771  0.2881229876525971  0.1266918768728011
  0.6875227777296279  0.7907960098693168  0.7422164902020293
  0.6880079496789919  0.2912555953186016  0.8732586203504916
  0.1875392082016100  0.7920493393362006  0.8734997985736703
  0.3125568201548235  0.3713448509695223  0.4349037592533038
  0.5623626123141975  0.8703139906769535  0.3019369790925081
  0.3130354007339279  0.5410606273540060  0.8732328437247477
  0.8123076728418893  0.5397889902445546  0.6097654140512074
  0.9374089389500312  0.2899329140256086  0.6097949953945128
  0.1875204889141484  0.9532256373961693  0.2136133280724265
  0.5626553125188504  0.7075694773269076  0.6981137807222403
  0.9374105651568712  0.7913737891084891  0.8734238365737339
  0.6874207207192302  0.7894768889373481  0.6097507154801031
  0.5625795045182469  0.3735562156921933  0.6537749250860267
  0.1875016900470127  0.9542206013609290  0.3463015000153633
  0.0625001248067103  0.5357591168058327  0.1265368663130022
  0.8125083162896998  0.5417220462400895  0.8733971762862983
  0.5626523880353163  0.5365837019191919  0.1266568793598338
  0.6873266619803373  0.6195030307564477  0.1689924959633244
  0.9369437998301697  0.9560045654504098  0.5651746232939525
  0.8130323300990857  0.2036504753085730  0.2137724736936472
  0.4379809483151006  0.9555489269405393  0.4784937434991132
  0.0618980767581660  0.8722753785048978  0.5212253863767534
  0.9368445085330476  0.4564701949348774  0.5651757966474961
  0.9376799951526050  0.6202679064756664  0.3018977008576677
  0.1874548049624309  0.6237308146244809  0.6536809774940971
  0.8129844280751130  0.0352410152834560  0.1266488135236472
  0.4375305622366681  0.7911198416171923  0.7422477238101127
  0.3123105204664688  0.0377389455325066  0.3901870973988271
  0.5629122030643766  0.0411631551755956  0.7422335843249525
  0.0622627127816476  0.7040707485886362  0.3462841787198938
  0.5626459671887292  0.8733942768259224  0.6537563894146258
  0.1876492748036219  0.4563676382870434  0.5650766815786258
  0.0625717830188482  0.0379216260295425  0.3902350824132808
  0.4377892482286465  0.4554956508430997  0.4785759227043498
  0.9374171311438709  0.9544828241258948  0.3463082373646741
  0.4372299910362643  0.1213040149795226  0.4348281302959971
  0.3125533502460296  0.8703048460042365  0.3018694038434565
  0.9377244023996469  0.1215786136858826  0.4348148152445572
  0.6874301119405909  0.9534930621163136  0.2138348402473312
  0.6874733119945817  0.1201878935273566  0.3018899933002032
  0.1875339296387560  0.9553846927963708  0.4787451001013018
  0.0625450130841861  0.3697592464214920  0.1682394124408860
  0.3124102594416301  0.7041279831574592  0.3463652513701770
  0.1870142347177222  0.9578562767916680  0.8318260283837200
  0.3125267309954041  0.2091346869845256  0.8317706162156170
  0.1876502279792299  0.9555629304638229  0.5648318002938414
  0.5623055445168746  0.2061952437786562  0.5650992122087789
  0.6875614619905343  0.6224480427044673  0.5211484727398674
  0.4372211354324079  0.7901222325582958  0.6098618636161762
  0.9379952170492074  0.7902958962812974  0.6099251562422426
  0.5627163073262872  0.0363343419488719  0.1268028617370943
  0.9375674479141094  0.6248842693066183  0.7861551808479605
  0.3122700882310585  0.0412317623514107  0.7422660916870327
 
  0.00000000E+00  0.00000000E+00  0.00000000E+00
  0.00000000E+00  0.00000000E+00  0.00000000E+00
  0.00000000E+00  0.00000000E+00  0.00000000E+00
  0.00000000E+00  0.00000000E+00  0.00000000E+00
  0.00000000E+00  0.00000000E+00  0.00000000E+00
  0.00000000E+00  0.00000000E+00  0.00000000E+00
  0.00000000E+00  0.00000000E+00  0.00000000E+00
  0.00000000E+00  0.00000000E+00  0.00000000E+00
  0.00000000E+00  0.00000000E+00  0.00000000E+00
  0.00000000E+00  0.00000000E+00  0.00000000E+00
  0.00000000E+00  0.00000000E+00  0.00000000E+00
  0.00000000E+00  0.00000000E+00  0.00000000E+00
  0.00000000E+00  0.00000000E+00  0.00000000E+00
  0.00000000E+00  0.00000000E+00  0.00000000E+00
  0.00000000E+00  0.00000000E+00  0.00000000E+00
  0.00000000E+00  0.00000000E+00  0.00000000E+00
  0.00000000E+00  0.00000000E+00  0.00000000E+00
  0.00000000E+00  0.00000000E+00  0.00000000E+00
  0.00000000E+00  0.00000000E+00  0.00000000E+00
  0.00000000E+00  0.00000000E+00  0.00000000E+00
  0.00000000E+00  0.00000000E+00  0.00000000E+00
  0.00000000E+00  0.00000000E+00  0.00000000E+00
  0.00000000E+00  0.00000000E+00  0.00000000E+00
  0.00000000E+00  0.00000000E+00  0.00000000E+00
  0.00000000E+00  0.00000000E+00  0.00000000E+00
  0.00000000E+00  0.00000000E+00  0.00000000E+00
  0.00000000E+00  0.00000000E+00  0.00000000E+00
  0.00000000E+00  0.00000000E+00  0.00000000E+00
  0.00000000E+00  0.00000000E+00  0.00000000E+00
  0.00000000E+00  0.00000000E+00  0.00000000E+00
  0.00000000E+00  0.00000000E+00  0.00000000E+00
  0.00000000E+00  0.00000000E+00  0.00000000E+00
  0.00000000E+00  0.00000000E+00  0.00000000E+00
  0.00000000E+00  0.00000000E+00  0.00000000E+00
  0.00000000E+00  0.00000000E+00  0.00000000E+00
  0.00000000E+00  0.00000000E+00  0.00000000E+00
  0.00000000E+00  0.00000000E+00  0.00000000E+00
  0.00000000E+00  0.00000000E+00  0.00000000E+00
  0.00000000E+00  0.00000000E+00  0.00000000E+00
  0.00000000E+00  0.00000000E+00  0.00000000E+00
  0.00000000E+00  0.00000000E+00  0.00000000E+00
  0.00000000E+00  0.00000000E+00  0.00000000E+00
  0.00000000E+00  0.00000000E+00  0.00000000E+00
  0.00000000E+00  0.00000000E+00  0.00000000E+00
  0.00000000E+00  0.00000000E+00  0.00000000E+00
  0.00000000E+00  0.00000000E+00  0.00000000E+00
  0.00000000E+00  0.00000000E+00  0.00000000E+00
  0.00000000E+00  0.00000000E+00  0.00000000E+00
  0.00000000E+00  0.00000000E+00  0.00000000E+00
  0.00000000E+00  0.00000000E+00  0.00000000E+00
  0.00000000E+00  0.00000000E+00  0.00000000E+00
  0.00000000E+00  0.00000000E+00  0.00000000E+00
  0.00000000E+00  0.00000000E+00  0.00000000E+00
  0.00000000E+00  0.00000000E+00  0.00000000E+00
  0.00000000E+00  0.00000000E+00  0.00000000E+00
  0.00000000E+00  0.00000000E+00  0.00000000E+00
  0.00000000E+00  0.00000000E+00  0.00000000E+00
  0.00000000E+00  0.00000000E+00  0.00000000E+00
  0.00000000E+00  0.00000000E+00  0.00000000E+00
  0.00000000E+00  0.00000000E+00  0.00000000E+00
  0.00000000E+00  0.00000000E+00  0.00000000E+00
  0.00000000E+00  0.00000000E+00  0.00000000E+00
  0.00000000E+00  0.00000000E+00  0.00000000E+00
  0.00000000E+00  0.00000000E+00  0.00000000E+00
  0.00000000E+00  0.00000000E+00  0.00000000E+00
  0.00000000E+00  0.00000000E+00  0.00000000E+00
  0.00000000E+00  0.00000000E+00  0.00000000E+00
  0.00000000E+00  0.00000000E+00  0.00000000E+00
  0.00000000E+00  0.00000000E+00  0.00000000E+00
  0.00000000E+00  0.00000000E+00  0.00000000E+00
  0.00000000E+00  0.00000000E+00  0.00000000E+00
  0.00000000E+00  0.00000000E+00  0.00000000E+00
  0.00000000E+00  0.00000000E+00  0.00000000E+00
  0.00000000E+00  0.00000000E+00  0.00000000E+00
  0.00000000E+00  0.00000000E+00  0.00000000E+00
  0.00000000E+00  0.00000000E+00  0.00000000E+00
  0.00000000E+00  0.00000000E+00  0.00000000E+00
  0.00000000E+00  0.00000000E+00  0.00000000E+00
  0.00000000E+00  0.00000000E+00  0.00000000E+00
  0.00000000E+00  0.00000000E+00  0.00000000E+00
  0.00000000E+00  0.00000000E+00  0.00000000E+00
  0.00000000E+00  0.00000000E+00  0.00000000E+00
  0.00000000E+00  0.00000000E+00  0.00000000E+00
  0.00000000E+00  0.00000000E+00  0.00000000E+00
  0.00000000E+00  0.00000000E+00  0.00000000E+00
  0.00000000E+00  0.00000000E+00  0.00000000E+00
  0.00000000E+00  0.00000000E+00  0.00000000E+00
  0.00000000E+00  0.00000000E+00  0.00000000E+00
  0.00000000E+00  0.00000000E+00  0.00000000E+00
  0.00000000E+00  0.00000000E+00  0.00000000E+00
  0.00000000E+00  0.00000000E+00  0.00000000E+00
  0.00000000E+00  0.00000000E+00  0.00000000E+00
  0.00000000E+00  0.00000000E+00  0.00000000E+00
  0.00000000E+00  0.00000000E+00  0.00000000E+00
  0.00000000E+00  0.00000000E+00  0.00000000E+00
  0.00000000E+00  0.00000000E+00  0.00000000E+00
  0.00000000E+00  0.00000000E+00  0.00000000E+00
  0.00000000E+00  0.00000000E+00  0.00000000E+00
  0.00000000E+00  0.00000000E+00  0.00000000E+00
  0.00000000E+00  0.00000000E+00  0.00000000E+00
  0.00000000E+00  0.00000000E+00  0.00000000E+00
  0.00000000E+00  0.00000000E+00  0.00000000E+00
  0.00000000E+00  0.00000000E+00  0.00000000E+00
  0.00000000E+00  0.00000000E+00  0.00000000E+00
  0.00000000E+00  0.00000000E+00  0.00000000E+00
  0.00000000E+00  0.00000000E+00  0.00000000E+00
  0.00000000E+00  0.00000000E+00  0.00000000E+00
  0.00000000E+00  0.00000000E+00  0.00000000E+00
  0.00000000E+00  0.00000000E+00  0.00000000E+00
  0.00000000E+00  0.00000000E+00  0.00000000E+00
  0.00000000E+00  0.00000000E+00  0.00000000E+00
  0.00000000E+00  0.00000000E+00  0.00000000E+00
  0.00000000E+00  0.00000000E+00  0.00000000E+00
  0.00000000E+00  0.00000000E+00  0.00000000E+00
  0.00000000E+00  0.00000000E+00  0.00000000E+00
  0.00000000E+00  0.00000000E+00  0.00000000E+00
  0.00000000E+00  0.00000000E+00  0.00000000E+00
  0.00000000E+00  0.00000000E+00  0.00000000E+00
  0.00000000E+00  0.00000000E+00  0.00000000E+00
  0.00000000E+00  0.00000000E+00  0.00000000E+00
  0.00000000E+00  0.00000000E+00  0.00000000E+00
  0.00000000E+00  0.00000000E+00  0.00000000E+00
  0.00000000E+00  0.00000000E+00  0.00000000E+00
  0.00000000E+00  0.00000000E+00  0.00000000E+00
  0.00000000E+00  0.00000000E+00  0.00000000E+00
  0.00000000E+00  0.00000000E+00  0.00000000E+00
  0.00000000E+00  0.00000000E+00  0.00000000E+00
  0.00000000E+00  0.00000000E+00  0.00000000E+00
  0.00000000E+00  0.00000000E+00  0.00000000E+00
  0.00000000E+00  0.00000000E+00  0.00000000E+00
  0.00000000E+00  0.00000000E+00  0.00000000E+00
  0.00000000E+00  0.00000000E+00  0.00000000E+00
  0.00000000E+00  0.00000000E+00  0.00000000E+00
  0.00000000E+00  0.00000000E+00  0.00000000E+00
  0.00000000E+00  0.00000000E+00  0.00000000E+00
  0.00000000E+00  0.00000000E+00  0.00000000E+00
  0.00000000E+00  0.00000000E+00  0.00000000E+00
  0.00000000E+00  0.00000000E+00  0.00000000E+00
  0.00000000E+00  0.00000000E+00  0.00000000E+00
  0.00000000E+00  0.00000000E+00  0.00000000E+00
  0.00000000E+00  0.00000000E+00  0.00000000E+00
  0.00000000E+00  0.00000000E+00  0.00000000E+00
  0.00000000E+00  0.00000000E+00  0.00000000E+00
  0.00000000E+00  0.00000000E+00  0.00000000E+00
  0.00000000E+00  0.00000000E+00  0.00000000E+00
  0.00000000E+00  0.00000000E+00  0.00000000E+00
  0.00000000E+00  0.00000000E+00  0.00000000E+00
  0.00000000E+00  0.00000000E+00  0.00000000E+00
  0.00000000E+00  0.00000000E+00  0.00000000E+00
  0.00000000E+00  0.00000000E+00  0.00000000E+00
  0.00000000E+00  0.00000000E+00  0.00000000E+00
  0.00000000E+00  0.00000000E+00  0.00000000E+00
  0.00000000E+00  0.00000000E+00  0.00000000E+00
  0.00000000E+00  0.00000000E+00  0.00000000E+00
  0.00000000E+00  0.00000000E+00  0.00000000E+00
  0.00000000E+00  0.00000000E+00  0.00000000E+00
  0.00000000E+00  0.00000000E+00  0.00000000E+00
  0.00000000E+00  0.00000000E+00  0.00000000E+00
  0.00000000E+00  0.00000000E+00  0.00000000E+00
  0.00000000E+00  0.00000000E+00  0.00000000E+00
  0.00000000E+00  0.00000000E+00  0.00000000E+00
  0.00000000E+00  0.00000000E+00  0.00000000E+00
  0.00000000E+00  0.00000000E+00  0.00000000E+00
  0.00000000E+00  0.00000000E+00  0.00000000E+00
  0.00000000E+00  0.00000000E+00  0.00000000E+00
  0.00000000E+00  0.00000000E+00  0.00000000E+00
  0.00000000E+00  0.00000000E+00  0.00000000E+00
  0.00000000E+00  0.00000000E+00  0.00000000E+00
  0.00000000E+00  0.00000000E+00  0.00000000E+00
  0.00000000E+00  0.00000000E+00  0.00000000E+00
  0.00000000E+00  0.00000000E+00  0.00000000E+00
  0.00000000E+00  0.00000000E+00  0.00000000E+00
  0.00000000E+00  0.00000000E+00  0.00000000E+00
  0.00000000E+00  0.00000000E+00  0.00000000E+00
  0.00000000E+00  0.00000000E+00  0.00000000E+00
  0.00000000E+00  0.00000000E+00  0.00000000E+00
  0.00000000E+00  0.00000000E+00  0.00000000E+00
  0.00000000E+00  0.00000000E+00  0.00000000E+00
  0.00000000E+00  0.00000000E+00  0.00000000E+00
  0.00000000E+00  0.00000000E+00  0.00000000E+00
  0.00000000E+00  0.00000000E+00  0.00000000E+00
  0.00000000E+00  0.00000000E+00  0.00000000E+00
  0.00000000E+00  0.00000000E+00  0.00000000E+00
  0.00000000E+00  0.00000000E+00  0.00000000E+00
  0.00000000E+00  0.00000000E+00  0.00000000E+00
  0.00000000E+00  0.00000000E+00  0.00000000E+00
  0.00000000E+00  0.00000000E+00  0.00000000E+00
  0.00000000E+00  0.00000000E+00  0.00000000E+00
  0.00000000E+00  0.00000000E+00  0.00000000E+00
  0.00000000E+00  0.00000000E+00  0.00000000E+00
  0.00000000E+00  0.00000000E+00  0.00000000E+00
  0.00000000E+00  0.00000000E+00  0.00000000E+00
  0.00000000E+00  0.00000000E+00  0.00000000E+00
  0.00000000E+00  0.00000000E+00  0.00000000E+00
  0.00000000E+00  0.00000000E+00  0.00000000E+00
  0.00000000E+00  0.00000000E+00  0.00000000E+00
  0.00000000E+00  0.00000000E+00  0.00000000E+00
  0.00000000E+00  0.00000000E+00  0.00000000E+00
  0.00000000E+00  0.00000000E+00  0.00000000E+00
  0.00000000E+00  0.00000000E+00  0.00000000E+00
  0.00000000E+00  0.00000000E+00  0.00000000E+00
  0.00000000E+00  0.00000000E+00  0.00000000E+00
  0.00000000E+00  0.00000000E+00  0.00000000E+00
  0.00000000E+00  0.00000000E+00  0.00000000E+00
  0.00000000E+00  0.00000000E+00  0.00000000E+00
  0.00000000E+00  0.00000000E+00  0.00000000E+00
  0.00000000E+00  0.00000000E+00  0.00000000E+00
  0.00000000E+00  0.00000000E+00  0.00000000E+00
  0.00000000E+00  0.00000000E+00  0.00000000E+00
  0.00000000E+00  0.00000000E+00  0.00000000E+00
  0.00000000E+00  0.00000000E+00  0.00000000E+00
  0.00000000E+00  0.00000000E+00  0.00000000E+00
  0.00000000E+00  0.00000000E+00  0.00000000E+00
  0.00000000E+00  0.00000000E+00  0.00000000E+00
  0.00000000E+00  0.00000000E+00  0.00000000E+00
  0.00000000E+00  0.00000000E+00  0.00000000E+00
  0.00000000E+00  0.00000000E+00  0.00000000E+00
  0.00000000E+00  0.00000000E+00  0.00000000E+00
  0.00000000E+00  0.00000000E+00  0.00000000E+00
  0.00000000E+00  0.00000000E+00  0.00000000E+00
  0.00000000E+00  0.00000000E+00  0.00000000E+00
  0.00000000E+00  0.00000000E+00  0.00000000E+00
  0.00000000E+00  0.00000000E+00  0.00000000E+00
  0.00000000E+00  0.00000000E+00  0.00000000E+00
  0.00000000E+00  0.00000000E+00  0.00000000E+00
  0.00000000E+00  0.00000000E+00  0.00000000E+00
  0.00000000E+00  0.00000000E+00  0.00000000E+00
  0.00000000E+00  0.00000000E+00  0.00000000E+00
  0.00000000E+00  0.00000000E+00  0.00000000E+00
  0.00000000E+00  0.00000000E+00  0.00000000E+00
  0.00000000E+00  0.00000000E+00  0.00000000E+00
  0.00000000E+00  0.00000000E+00  0.00000000E+00
  0.00000000E+00  0.00000000E+00  0.00000000E+00
  0.00000000E+00  0.00000000E+00  0.00000000E+00
  0.00000000E+00  0.00000000E+00  0.00000000E+00
  0.00000000E+00  0.00000000E+00  0.00000000E+00
  0.00000000E+00  0.00000000E+00  0.00000000E+00
  0.00000000E+00  0.00000000E+00  0.00000000E+00
  0.00000000E+00  0.00000000E+00  0.00000000E+00
  0.00000000E+00  0.00000000E+00  0.00000000E+00
  0.00000000E+00  0.00000000E+00  0.00000000E+00
  0.00000000E+00  0.00000000E+00  0.00000000E+00
  0.00000000E+00  0.00000000E+00  0.00000000E+00
  0.00000000E+00  0.00000000E+00  0.00000000E+00
  0.00000000E+00  0.00000000E+00  0.00000000E+00
  0.00000000E+00  0.00000000E+00  0.00000000E+00
  0.00000000E+00  0.00000000E+00  0.00000000E+00