FeMn_288_15                             
    1.000000000000000     
     9.7266779999999997    0.0000000000000000    0.0000000000000000
     0.0000000000000000    8.4235500000000005    0.0000000000000000
     0.0000000000000000    0.0000000000000000   45.0000000000000000
   Fe   Mn
   273    15
Direct
  0.5627126860740398  0.2085718100801805  0.8311613194186029
  0.8126386695759947  0.3721864764302780  0.5213865030626131
  0.5626729184632699  0.5364261812037948  0.2577745438828784
  0.8112844081965876  0.8698948551147968  0.1687320231178445
  0.5623546114160513  0.2075433954853990  0.6980360804957614
  0.1877056139812869  0.6251310533473982  0.7863533414122879
  0.3122313755439832  0.5360365116548291  0.1267453926807054
  0.8130986682665028  0.7057557647150345  0.5650134878046186
  0.1877675499482642  0.4528834713373127  0.2137681524161595
  0.6875340926867599  0.6194688465183946  0.3019408171984351
  0.4377223406329900  0.7917437716491837  0.8732445723633602
  0.0627107821894530  0.2082244049718742  0.8311710146733876
  0.1875014437775976  0.2878937477157326  0.3902231854993820
  0.3116184130851132  0.0351283045258822  0.1268483930988940
  0.1878217892321534  0.4584839210377021  0.8310750542988852
  0.5626602513648277  0.3747870512780339  0.7862257025886459
  0.1872874372950603  0.1255600228152616  0.7862027110923361
  0.6873712778764599  0.9584136067651583  0.8310418220456458
  0.3125635853137786  0.7022846804096353  0.2137198690268029
  0.3121791493376934  0.0421678527453907  0.8735324837842063
  0.6876474669761159  0.2897754871185828  0.6098421782706713
  0.5622120678249118  0.3724108063883838  0.5213353444295968
  0.3124967580839154  0.5379403632180687  0.3902074575591760
  0.8130113897720448  0.7054143549437648  0.4786256300482964
  0.8129609923312768  0.2062116687328743  0.5650652625932627
  0.0626398265600024  0.5400529157759567  0.6096957445771537
  0.0624070084723328  0.7024935104196095  0.2136278666163280
  0.3124446530325429  0.7047999865590494  0.4785100945709550
  0.4376855692387840  0.7875106882609547  0.3901943228729102
  0.4374217041503103  0.7865457182135118  0.2578308151706954
  0.0621287210555653  0.2039920342715039  0.3463110351991546
  0.5624786932226691  0.3697554274948112  0.3019793232481621
  0.1876106194986844  0.1236955461237025  0.6536441833926866
  0.8125806903486067  0.8751198657747500  0.7863345293299125
  0.3126620531945151  0.8714387367371389  0.4348536779367594
  0.3125057199759755  0.7078933974263095  0.6981149308156082
  0.3124136747055994  0.0364262626961094  0.2577976613370639
  0.6875241946699095  0.7867294390516305  0.2578916745620393
  0.1874544495928953  0.1216474793327568  0.4348491659988540
  0.0624151645311155  0.7059866390483772  0.5651367977772188
  0.8124929672458862  0.3699277263778969  0.3019552541440049
  0.4373138561396019  0.9589968947655813  0.8311238751333870
  0.0624765487488617  0.3735872085826323  0.6536484884604130
  0.1875407978968060  0.2900536952255156  0.6096934552602918
  0.8125143597404572  0.7078125369394068  0.6980671443073687
  0.8126452327618466  0.7078610560931607  0.8310520859893146
  0.3125267768474997  0.5416710717122696  0.7421604040073846
  0.1874802847008588  0.4553073294091606  0.4786848059406013
  0.9370337098767746  0.2914663187764517  0.8731534242484226
  0.9374208771722431  0.9581068947435717  0.6980051551855303
  0.8124867380968528  0.8727275789629270  0.5212929979707106
  0.6876780386681529  0.9557886231932001  0.5651238158990919
  0.3122572025605382  0.3698349992047130  0.1690082408042925
  0.8125980802733438  0.5361794208529940  0.1267453368815819
  0.9376083799218314  0.6214702101504944  0.4347478311773053
  0.6883047156071546  0.7865692949473980  0.1266643697956057
  0.8126166044397133  0.2089897376655559  0.8310695881416300
  0.1872132739303353  0.2866543803544016  0.1267113706771016
  0.8119659053863704  0.0416059040340377  0.8731779672261485
  0.9375867256160708  0.2879269787802466  0.3902880546557662
  0.1876290228756625  0.2914787195504051  0.7421360501304581
  0.1873721427510331  0.7916777976939431  0.7422114906633581
  0.5625180172651626  0.5423873259589790  0.8731558362597672
  0.0628205846975114  0.0414014923157264  0.8734264406181650
  0.3123620510003167  0.5398346110781040  0.6097517789614296
  0.3124913459503367  0.5364691079458117  0.2578023717210191
  0.1879579870480286  0.7860976191409472  0.1267172648539676
  0.6876226381315934  0.9577903875383155  0.6982524044684990
  0.1874785762584506  0.6203028201002793  0.3018958387597889
  0.4375065479875598  0.6237769300835890  0.6536628216197691
  0.5628305751634198  0.5396915944458214  0.6096899265609491
  0.6873325095633379  0.4576956526488767  0.6979903920305887
  0.3126023721672546  0.3705931442364376  0.3019980148493382
  0.3133830663494427  0.8696488310323794  0.1688388001661740
  0.4376489923449844  0.9576710915332217  0.6980690854523436
  0.4380351310158604  0.4563997868074690  0.5651494608347589
  0.5622893693380001  0.0363057793429991  0.2577973922065050
  0.5627626960031565  0.2040363355333318  0.3463717193507668
  0.0622109734216394  0.5415982383905851  0.7422399760663089
  0.4371020619354273  0.4527002087393194  0.2137049161225121
  0.6874487327026972  0.4588782596882920  0.8310286294228910
  0.9374985690807818  0.7862954178951955  0.2578387694972781
  0.1875049103977458  0.7879075878147427  0.3902631732388828
  0.4371689662203703  0.2921718480945739  0.8733627390694992
  0.8127312812184205  0.3698630441147843  0.1689377066015812
  0.0621222299351898  0.2054709124055395  0.4785481091555225
  0.8126811204564354  0.2055565113509891  0.4785983372653640
  0.8124605698497109  0.8699508225362045  0.3019939124995132
  0.8125179047124539  0.2039217115737679  0.3463826791584546
  0.1874923000366330  0.2863919684151320  0.2578802586142526
  0.3128978164022154  0.8753050638145004  0.7862694815958061
  0.4374268253943021  0.2915333123496474  0.7421080293136308
  0.0624107038046011  0.7078515093013013  0.6980339162842838
  0.8126417290473732  0.3714588584923319  0.4347599575001470
  0.3126844754079428  0.0402548128666385  0.6097822094684006
  0.5626796501534900  0.8717571435115520  0.4348396623013041
  0.4376070495769178  0.6194712336906808  0.1689828225464425
  0.3120244425033648  0.2032369395285556  0.2139258710315854
  0.0626201452805398  0.0360396351576570  0.2578311314459805
  0.9371679591243857  0.7876960501103263  0.3901852919183792
  0.0626622802996605  0.0364596107777541  0.1267979671097727
  0.8124254240642456  0.5364228309733580  0.2578232937129865
  0.5626085611482403  0.0376335043538973  0.3902963824420985
  0.5625369655140172  0.0401498366272283  0.6097781304812332
  0.3128376235318793  0.2055808000617549  0.4785035212673353
  0.0623506664870129  0.8737661353935429  0.6535541877035784
  0.6876256467006207  0.4560165994309762  0.5651100374089343
  0.5623163586605113  0.3714336193426802  0.4347857738671480
  0.8123527906047880  0.5376514793326993  0.3901927460831180
  0.4371124833238695  0.9525868462494481  0.2136425004468157
  0.5626475067903537  0.8703209339328530  0.1687361018742446
  0.8124298039452799  0.8739287120737007  0.6536560046061780
  0.9380019555879763  0.1222506855441506  0.5212875291086461
  0.8124962078806648  0.8716799620376238  0.4347703589332793
  0.3123179875043718  0.3740596742694171  0.6536983955488439
  0.1875580754206277  0.6190078790976051  0.1689528182962468
  0.8124120908224380  0.0376931997656374  0.3902811809151642
  0.6875064958324499  0.1239539149983517  0.6536895292268382
  0.6876335583484128  0.4547842076798950  0.4786700989108393
  0.5623595083905675  0.2053613895990428  0.4787033906413575
  0.8125831212362048  0.7039861897158973  0.3463998330814915
  0.6872676453369315  0.1252733786742699  0.7863175013282550
  0.9377081129058934  0.1249881132123612  0.7863905070175302
  0.0623726954602114  0.2025580791813366  0.2137959849274174
  0.5620181998279168  0.7053884561449201  0.4786475213613819
  0.0626909820489800  0.2078204038557202  0.6980561396152858
  0.1874284688941319  0.9580951973312809  0.6982171691790054
  0.1879605685750858  0.2914463190462326  0.8733744618743380
  0.8126188184642897  0.0361300142880181  0.2578183120562681
  0.8126463233433473  0.7029449572870493  0.2137343290758128
  0.9375601784253730  0.2920326720234669  0.7421807912674394
  0.0625815285584321  0.0403592171538768  0.6097478298201685
  0.9379146871028220  0.6221225597495526  0.5212964974532144
  0.8125278342978054  0.5415512549283260  0.7421565596706386
  0.6874722059575599  0.2918552811911724  0.7421923894762738
  0.4375216079587795  0.4577720726831440  0.6981202238668300
  0.0618811072703178  0.7092992246899750  0.8311912608346866
  0.9375846118364148  0.4536738271307649  0.3463779600734576
  0.6874629774507803  0.6217390372091585  0.4350336664813590
  0.0625521500154457  0.8699483828917635  0.3019130740437738
  0.5626300803231642  0.7038859044184316  0.3464129992844692
  0.0625166958123347  0.7048101873355138  0.4785377299187097
  0.3127171746006584  0.7092060142863515  0.8311523922325329
  0.6874324274994484  0.4537001000881700  0.3462734045719844
  0.5630053996977612  0.7085043780211184  0.8310440786599502
  0.1873343958566361  0.4538333797730488  0.3463870165868327
  0.5629635748709924  0.0418581243206691  0.8732291903437049
  0.3125433336093411  0.2040356436257530  0.3463179202628594
  0.6875789196429947  0.7873021143076390  0.3902747169985681
  0.9374232406668578  0.4575501686416026  0.6980773394782221
  0.9375143380586980  0.4532253241979827  0.2137929947127857
  0.9379693505534736  0.1202112642886100  0.3020282610789161
  0.9374185994132608  0.2862033331072344  0.2578651497957632
  0.1878220001717711  0.4578888320954478  0.6979134326022859
  0.6872298890279657  0.7920547205447027  0.8732522726600082
  0.3123224629446410  0.7061041799691218  0.5651141480462974
  0.9370223702029431  0.4554570537737815  0.4786203401583410
  0.3123574264645173  0.3750410097216694  0.7862184534614650
  0.9373533524033132  0.7860738030329368  0.1267500901119200
  0.4368114355402365  0.1221907569342010  0.5213116094470281
  0.4370825548812354  0.1203052242162981  0.3020481303679337
  0.4375202716582190  0.6250731635066017  0.7863531934633633
  0.4374212674671271  0.6213958519773900  0.4347578323047738
  0.6870094678335299  0.1186283157230675  0.1687817200515528
  0.0625140145014187  0.8752819205456982  0.7862200884807738
  0.4377129947856375  0.2864260423443112  0.2579017467044382
  0.5621587488313805  0.8755364863249696  0.7863180250334956
  0.9370393436835501  0.4590682958688664  0.8311446522272798
  0.8126005891704645  0.2077694186581072  0.6980807130118928
  0.6876455372997363  0.4531701644395605  0.2136884864132382
  0.0626003016738517  0.5380198148086461  0.3901977183606195
  0.0623722739768368  0.3705048846414634  0.3020300644119870
  0.1874020902418181  0.1201821549482773  0.3019496333673106
  0.0618561695406670  0.5421344787905550  0.8731992204345835
  0.6875197898224424  0.2875855852371525  0.3903290311573658
  0.9376043357994918  0.6236139895610124  0.6536747085751218
  0.9374163477247381  0.6190958445447828  0.1689651213205548
  0.5625020689064298  0.8728479238052824  0.5213602820417703
  0.9381703484178610  0.1198225483047210  0.1689844515231737
  0.5621223138634094  0.7058897918905255  0.5650454785419168
  0.9375510826193562  0.7911199162676837  0.7421411444438314
  0.6875351462209373  0.6238220652905365  0.6535435823983753
  0.0625363519528270  0.0415935715169910  0.7421432904116121
  0.3125635963324353  0.2077733922683430  0.6980584415112914
  0.4375683319026438  0.9540541890241632  0.3463384700143571
  0.4373107314353666  0.4580306327190587  0.8310208303340044
  0.0625975040116743  0.3749294487944818  0.7863441882741450
  0.4377893990591553  0.1248591094113847  0.7862971700324345
  0.9375054181480014  0.9581020990320326  0.8310346635620349
  0.4371988071669461  0.6198978244718643  0.3019282604490974
  0.6874048292156405  0.9548636059409064  0.4785733592672087
  0.3131154156484842  0.8721996775785531  0.5212041046683968
  0.4377723335692070  0.9560552070136522  0.5651319742518115
  0.4373189376709253  0.2876522124014144  0.3902876154024872
  0.6876614291488024  0.1222734235912255  0.5213152384229640
  0.0624328429258482  0.8692941430429766  0.1689747763764108
  0.8123757501202952  0.0416676038301173  0.7421654434098348
  0.1875222528205190  0.7861854242929723  0.2578161355065354
  0.9378678134510214  0.9526436607541526  0.2136504265974513
  0.4381503677750998  0.1187137444148143  0.1688173792576174
  0.6874697994581970  0.9541364013629647  0.3463851067656673
  0.4376109739534706  0.1237077172920789  0.6536605539154623
  0.8127130266350451  0.3737432979705047  0.6537405142466705
  0.0623307877795971  0.2063600110135998  0.5652024407942692
  0.4370876702414820  0.6221064604430697  0.5212819761902063
  0.4375594664399942  0.4540456980149762  0.3463869535008457
  0.0623801188200867  0.5359128642206532  0.2578355812196932
  0.9369985040235816  0.9556435524524366  0.4784898327076242
  0.1868579601050420  0.1196726003141102  0.1690721413874139
  0.5624875271522528  0.3687839340513613  0.1688011798690920
  0.5623566553773826  0.7022181140343141  0.2137889008129161
  0.6875678462862205  0.1216938481256834  0.4348899635367007
  0.4380104748508808  0.2873907145041584  0.1268428796104559
  0.1875116459288628  0.1232006396515392  0.5212664807511769
  0.0621260626054446  0.8716788175861310  0.4349155301737683
  0.8124847935782523  0.3750064309383367  0.7862684592551070
  0.9377543946973063  0.2867836784061328  0.1266889504031479
  0.6873973122051154  0.2860363629765381  0.2578289982687954
  0.6871914833025341  0.6252461571304946  0.7863535481829276
  0.3128124329888919  0.3722906443272672  0.5213382526036753
  0.3126044862736212  0.8739598918913070  0.6536082849828526
  0.8124940381546329  0.0402012588684074  0.6097722511372446
  0.0622668672973813  0.3723332116914432  0.5213168671371174
  0.3123620468287938  0.2065373719666320  0.5651890982418883
  0.5625946083111124  0.2028744610820546  0.2136733787964867
  0.1874582838498072  0.7899779665893809  0.6097190576567039
  0.5628082430431446  0.5412836726812322  0.7421883549380971
  0.4375758552794387  0.2898421557016204  0.6097225942293476
  0.5624465839501269  0.5375881416129094  0.3902282806996127
  0.9373989483762076  0.1236232378704501  0.6537054953604742
  0.4362968818444061  0.7859889548630544  0.1267205398225671
  0.1874609395321662  0.6227609666860991  0.5212396119673892
  0.1874797875646829  0.6218017538965555  0.4348423909955225
  0.0624432301667132  0.3716448699183947  0.4348587648699156
  0.6869786781247150  0.2879292884495954  0.1267884009524922
  0.6875188752705054  0.7911780569236265  0.7421480297828884
  0.6879792849613341  0.2915357488809048  0.8731617611428830
  0.1875442587538420  0.7923393587907885  0.8734224869032342
  0.3125642947129209  0.3712761263048503  0.4349256756268541
  0.5623547490194877  0.8699944854519109  0.3019852058594227
  0.3130089035558551  0.5413307827636475  0.8731436986933713
  0.8123012881560063  0.5399029600855363  0.6097224115589120
  0.9374033326892823  0.2900257169149048  0.6097548931161276
  0.1875039419924476  0.9528034567621060  0.2136915283918553
  0.5626656658370690  0.7078711732346421  0.6980561209082272
  0.9374273022067613  0.7916614074594329  0.8733358528775098
  0.6874291537428935  0.7895902700392305  0.6097131781866318
  0.5625752933351640  0.3737441517270515  0.6537258968257491
  0.1875013783114357  0.9539975247035225  0.3463583941394868
  0.0624614862467609  0.5354942379075091  0.1266259899896059
  0.8125137788021408  0.5420511011616661  0.8732934016564152
  0.5626711116620796  0.5363505495622068  0.1267529737426343
  0.6873283382027695  0.6192673081552362  0.1690922624812873
  0.9369185173524366  0.9560940031186150  0.5651450434878059
  0.8130468796968990  0.2032350919372151  0.2138517149860878
  0.4379959921275990  0.9554772047698232  0.4784976957485148
  0.0618753417219136  0.8722809183963679  0.5212228765130061
  0.9368461271990687  0.4565434970264372  0.5651507708000780
  0.9376726383556310  0.6199462439278116  0.3019538270667854
  0.1874572126192531  0.6239090845070263  0.6536312628584305
  0.8130151100990555  0.0350161275930441  0.1267355596797299
  0.4375380662080841  0.7915060409926296  0.7421833924218105
  0.3123145635466583  0.0375903717184837  0.3902298816438657
  0.5629065561814741  0.0415639307105732  0.7421648588725441
  0.0622675836977674  0.7038232733810273  0.3463337504978509
  0.5626521309367635  0.8735646218570574  0.6537075137566386
  0.1876519252095324  0.4564256377385091  0.5650501865375467
  0.0625698245531126  0.0377730257678409  0.3902840078592064
  0.4377930229279667  0.4554572648831581  0.4785807813014780
  0.9374118663255034  0.9542464903054749  0.3463539923144432
  0.4372181406176277  0.1212441931084037  0.4348571530306849
  0.3125469588603531  0.8699815417621434  0.3019232352495205
  0.9377294438808362  0.1215173154923039  0.4348401048830431
  0.6874373840531305  0.9530836908387300  0.2139108911026752
  0.6874695944300796  0.1198362243726764  0.3019393081130798
  0.1875418827452361  0.9553311438109302  0.4787461108978853
  0.0625237693560813  0.3695424803460439  0.1683321287643635
  0.3124067327266563  0.7039060290870718  0.3464086471117115
  0.1869961907189546  0.9581472756918032  0.8317402953090066
  0.3125282210682669  0.2093743179884368  0.8316779244971033
  0.1876596575305055  0.9556572939326631  0.5648106282216643
  0.5623010806888038  0.2062850639953833  0.5650746487981759
  0.6875612143262414  0.6224724269827829  0.5211420591287742
  0.4372290751030065  0.7902439469179932  0.6098264485993635
  0.9379975553146167  0.7904128881454164  0.6098838561492038
  0.5627402883024304  0.0361025339012001  0.1269033450652357
  0.9375705226151290  0.6253495411236741  0.7860766058878900
  0.3122680222565907  0.0416220592587311  0.7422003192917147
 
  0.00000000E+00  0.00000000E+00  0.00000000E+00
  0.00000000E+00  0.00000000E+00  0.00000000E+00
  0.00000000E+00  0.00000000E+00  0.00000000E+00
  0.00000000E+00  0.00000000E+00  0.00000000E+00
  0.00000000E+00  0.00000000E+00  0.00000000E+00
  0.00000000E+00  0.00000000E+00  0.00000000E+00
  0.00000000E+00  0.00000000E+00  0.00000000E+00
  0.00000000E+00  0.00000000E+00  0.00000000E+00
  0.00000000E+00  0.00000000E+00  0.00000000E+00
  0.00000000E+00  0.00000000E+00  0.00000000E+00
  0.00000000E+00  0.00000000E+00  0.00000000E+00
  0.00000000E+00  0.00000000E+00  0.00000000E+00
  0.00000000E+00  0.00000000E+00  0.00000000E+00
  0.00000000E+00  0.00000000E+00  0.00000000E+00
  0.00000000E+00  0.00000000E+00  0.00000000E+00
  0.00000000E+00  0.00000000E+00  0.00000000E+00
  0.00000000E+00  0.00000000E+00  0.00000000E+00
  0.00000000E+00  0.00000000E+00  0.00000000E+00
  0.00000000E+00  0.00000000E+00  0.00000000E+00
  0.00000000E+00  0.00000000E+00  0.00000000E+00
  0.00000000E+00  0.00000000E+00  0.00000000E+00
  0.00000000E+00  0.00000000E+00  0.00000000E+00
  0.00000000E+00  0.00000000E+00  0.00000000E+00
  0.00000000E+00  0.00000000E+00  0.00000000E+00
  0.00000000E+00  0.00000000E+00  0.00000000E+00
  0.00000000E+00  0.00000000E+00  0.00000000E+00
  0.00000000E+00  0.00000000E+00  0.00000000E+00
  0.00000000E+00  0.00000000E+00  0.00000000E+00
  0.00000000E+00  0.00000000E+00  0.00000000E+00
  0.00000000E+00  0.00000000E+00  0.00000000E+00
  0.00000000E+00  0.00000000E+00  0.00000000E+00
  0.00000000E+00  0.00000000E+00  0.00000000E+00
  0.00000000E+00  0.00000000E+00  0.00000000E+00
  0.00000000E+00  0.00000000E+00  0.00000000E+00
  0.00000000E+00  0.00000000E+00  0.00000000E+00
  0.00000000E+00  0.00000000E+00  0.00000000E+00
  0.00000000E+00  0.00000000E+00  0.00000000E+00
  0.00000000E+00  0.00000000E+00  0.00000000E+00
  0.00000000E+00  0.00000000E+00  0.00000000E+00
  0.00000000E+00  0.00000000E+00  0.00000000E+00
  0.00000000E+00  0.00000000E+00  0.00000000E+00
  0.00000000E+00  0.00000000E+00  0.00000000E+00
  0.00000000E+00  0.00000000E+00  0.00000000E+00
  0.00000000E+00  0.00000000E+00  0.00000000E+00
  0.00000000E+00  0.00000000E+00  0.00000000E+00
  0.00000000E+00  0.00000000E+00  0.00000000E+00
  0.00000000E+00  0.00000000E+00  0.00000000E+00
  0.00000000E+00  0.00000000E+00  0.00000000E+00
  0.00000000E+00  0.00000000E+00  0.00000000E+00
  0.00000000E+00  0.00000000E+00  0.00000000E+00
  0.00000000E+00  0.00000000E+00  0.00000000E+00
  0.00000000E+00  0.00000000E+00  0.00000000E+00
  0.00000000E+00  0.00000000E+00  0.00000000E+00
  0.00000000E+00  0.00000000E+00  0.00000000E+00
  0.00000000E+00  0.00000000E+00  0.00000000E+00
  0.00000000E+00  0.00000000E+00  0.00000000E+00
  0.00000000E+00  0.00000000E+00  0.00000000E+00
  0.00000000E+00  0.00000000E+00  0.00000000E+00
  0.00000000E+00  0.00000000E+00  0.00000000E+00
  0.00000000E+00  0.00000000E+00  0.00000000E+00
  0.00000000E+00  0.00000000E+00  0.00000000E+00
  0.00000000E+00  0.00000000E+00  0.00000000E+00
  0.00000000E+00  0.00000000E+00  0.00000000E+00
  0.00000000E+00  0.00000000E+00  0.00000000E+00
  0.00000000E+00  0.00000000E+00  0.00000000E+00
  0.00000000E+00  0.00000000E+00  0.00000000E+00
  0.00000000E+00  0.00000000E+00  0.00000000E+00
  0.00000000E+00  0.00000000E+00  0.00000000E+00
  0.00000000E+00  0.00000000E+00  0.00000000E+00
  0.00000000E+00  0.00000000E+00  0.00000000E+00
  0.00000000E+00  0.00000000E+00  0.00000000E+00
  0.00000000E+00  0.00000000E+00  0.00000000E+00
  0.00000000E+00  0.00000000E+00  0.00000000E+00
  0.00000000E+00  0.00000000E+00  0.00000000E+00
  0.00000000E+00  0.00000000E+00  0.00000000E+00
  0.00000000E+00  0.00000000E+00  0.00000000E+00
  0.00000000E+00  0.00000000E+00  0.00000000E+00
  0.00000000E+00  0.00000000E+00  0.00000000E+00
  0.00000000E+00  0.00000000E+00  0.00000000E+00
  0.00000000E+00  0.00000000E+00  0.00000000E+00
  0.00000000E+00  0.00000000E+00  0.00000000E+00
  0.00000000E+00  0.00000000E+00  0.00000000E+00
  0.00000000E+00  0.00000000E+00  0.00000000E+00
  0.00000000E+00  0.00000000E+00  0.00000000E+00
  0.00000000E+00  0.00000000E+00  0.00000000E+00
  0.00000000E+00  0.00000000E+00  0.00000000E+00
  0.00000000E+00  0.00000000E+00  0.00000000E+00
  0.00000000E+00  0.00000000E+00  0.00000000E+00
  0.00000000E+00  0.00000000E+00  0.00000000E+00
  0.00000000E+00  0.00000000E+00  0.00000000E+00
  0.00000000E+00  0.00000000E+00  0.00000000E+00
  0.00000000E+00  0.00000000E+00  0.00000000E+00
  0.00000000E+00  0.00000000E+00  0.00000000E+00
  0.00000000E+00  0.00000000E+00  0.00000000E+00
  0.00000000E+00  0.00000000E+00  0.00000000E+00
  0.00000000E+00  0.00000000E+00  0.00000000E+00
  0.00000000E+00  0.00000000E+00  0.00000000E+00
  0.00000000E+00  0.00000000E+00  0.00000000E+00
  0.00000000E+00  0.00000000E+00  0.00000000E+00
  0.00000000E+00  0.00000000E+00  0.00000000E+00
  0.00000000E+00  0.00000000E+00  0.00000000E+00
  0.00000000E+00  0.00000000E+00  0.00000000E+00
  0.00000000E+00  0.00000000E+00  0.00000000E+00
  0.00000000E+00  0.00000000E+00  0.00000000E+00
  0.00000000E+00  0.00000000E+00  0.00000000E+00
  0.00000000E+00  0.00000000E+00  0.00000000E+00
  0.00000000E+00  0.00000000E+00  0.00000000E+00
  0.00000000E+00  0.00000000E+00  0.00000000E+00
  0.00000000E+00  0.00000000E+00  0.00000000E+00
  0.00000000E+00  0.00000000E+00  0.00000000E+00
  0.00000000E+00  0.00000000E+00  0.00000000E+00
  0.00000000E+00  0.00000000E+00  0.00000000E+00
  0.00000000E+00  0.00000000E+00  0.00000000E+00
  0.00000000E+00  0.00000000E+00  0.00000000E+00
  0.00000000E+00  0.00000000E+00  0.00000000E+00
  0.00000000E+00  0.00000000E+00  0.00000000E+00
  0.00000000E+00  0.00000000E+00  0.00000000E+00
  0.00000000E+00  0.00000000E+00  0.00000000E+00
  0.00000000E+00  0.00000000E+00  0.00000000E+00
  0.00000000E+00  0.00000000E+00  0.00000000E+00
  0.00000000E+00  0.00000000E+00  0.00000000E+00
  0.00000000E+00  0.00000000E+00  0.00000000E+00
  0.00000000E+00  0.00000000E+00  0.00000000E+00
  0.00000000E+00  0.00000000E+00  0.00000000E+00
  0.00000000E+00  0.00000000E+00  0.00000000E+00
  0.00000000E+00  0.00000000E+00  0.00000000E+00
  0.00000000E+00  0.00000000E+00  0.00000000E+00
  0.00000000E+00  0.00000000E+00  0.00000000E+00
  0.00000000E+00  0.00000000E+00  0.00000000E+00
  0.00000000E+00  0.00000000E+00  0.00000000E+00
  0.00000000E+00  0.00000000E+00  0.00000000E+00
  0.00000000E+00  0.00000000E+00  0.00000000E+00
  0.00000000E+00  0.00000000E+00  0.00000000E+00
  0.00000000E+00  0.00000000E+00  0.00000000E+00
  0.00000000E+00  0.00000000E+00  0.00000000E+00
  0.00000000E+00  0.00000000E+00  0.00000000E+00
  0.00000000E+00  0.00000000E+00  0.00000000E+00
  0.00000000E+00  0.00000000E+00  0.00000000E+00
  0.00000000E+00  0.00000000E+00  0.00000000E+00
  0.00000000E+00  0.00000000E+00  0.00000000E+00
  0.00000000E+00  0.00000000E+00  0.00000000E+00
  0.00000000E+00  0.00000000E+00  0.00000000E+00
  0.00000000E+00  0.00000000E+00  0.00000000E+00
  0.00000000E+00  0.00000000E+00  0.00000000E+00
  0.00000000E+00  0.00000000E+00  0.00000000E+00
  0.00000000E+00  0.00000000E+00  0.00000000E+00
  0.00000000E+00  0.00000000E+00  0.00000000E+00
  0.00000000E+00  0.00000000E+00  0.00000000E+00
  0.00000000E+00  0.00000000E+00  0.00000000E+00
  0.00000000E+00  0.00000000E+00  0.00000000E+00
  0.00000000E+00  0.00000000E+00  0.00000000E+00
  0.00000000E+00  0.00000000E+00  0.00000000E+00
  0.00000000E+00  0.00000000E+00  0.00000000E+00
  0.00000000E+00  0.00000000E+00  0.00000000E+00
  0.00000000E+00  0.00000000E+00  0.00000000E+00
  0.00000000E+00  0.00000000E+00  0.00000000E+00
  0.00000000E+00  0.00000000E+00  0.00000000E+00
  0.00000000E+00  0.00000000E+00  0.00000000E+00
  0.00000000E+00  0.00000000E+00  0.00000000E+00
  0.00000000E+00  0.00000000E+00  0.00000000E+00
  0.00000000E+00  0.00000000E+00  0.00000000E+00
  0.00000000E+00  0.00000000E+00  0.00000000E+00
  0.00000000E+00  0.00000000E+00  0.00000000E+00
  0.00000000E+00  0.00000000E+00  0.00000000E+00
  0.00000000E+00  0.00000000E+00  0.00000000E+00
  0.00000000E+00  0.00000000E+00  0.00000000E+00
  0.00000000E+00  0.00000000E+00  0.00000000E+00
  0.00000000E+00  0.00000000E+00  0.00000000E+00
  0.00000000E+00  0.00000000E+00  0.00000000E+00
  0.00000000E+00  0.00000000E+00  0.00000000E+00
  0.00000000E+00  0.00000000E+00  0.00000000E+00
  0.00000000E+00  0.00000000E+00  0.00000000E+00
  0.00000000E+00  0.00000000E+00  0.00000000E+00
  0.00000000E+00  0.00000000E+00  0.00000000E+00
  0.00000000E+00  0.00000000E+00  0.00000000E+00
  0.00000000E+00  0.00000000E+00  0.00000000E+00
  0.00000000E+00  0.00000000E+00  0.00000000E+00
  0.00000000E+00  0.00000000E+00  0.00000000E+00
  0.00000000E+00  0.00000000E+00  0.00000000E+00
  0.00000000E+00  0.00000000E+00  0.00000000E+00
  0.00000000E+00  0.00000000E+00  0.00000000E+00
  0.00000000E+00  0.00000000E+00  0.00000000E+00
  0.00000000E+00  0.00000000E+00  0.00000000E+00
  0.00000000E+00  0.00000000E+00  0.00000000E+00
  0.00000000E+00  0.00000000E+00  0.00000000E+00
  0.00000000E+00  0.00000000E+00  0.00000000E+00
  0.00000000E+00  0.00000000E+00  0.00000000E+00
  0.00000000E+00  0.00000000E+00  0.00000000E+00
  0.00000000E+00  0.00000000E+00  0.00000000E+00
  0.00000000E+00  0.00000000E+00  0.00000000E+00
  0.00000000E+00  0.00000000E+00  0.00000000E+00
  0.00000000E+00  0.00000000E+00  0.00000000E+00
  0.00000000E+00  0.00000000E+00  0.00000000E+00
  0.00000000E+00  0.00000000E+00  0.00000000E+00
  0.00000000E+00  0.00000000E+00  0.00000000E+00
  0.00000000E+00  0.00000000E+00  0.00000000E+00
  0.00000000E+00  0.00000000E+00  0.00000000E+00
  0.00000000E+00  0.00000000E+00  0.00000000E+00
  0.00000000E+00  0.00000000E+00  0.00000000E+00
  0.00000000E+00  0.00000000E+00  0.00000000E+00
  0.00000000E+00  0.00000000E+00  0.00000000E+00
  0.00000000E+00  0.00000000E+00  0.00000000E+00
  0.00000000E+00  0.00000000E+00  0.00000000E+00
  0.00000000E+00  0.00000000E+00  0.00000000E+00
  0.00000000E+00  0.00000000E+00  0.00000000E+00
  0.00000000E+00  0.00000000E+00  0.00000000E+00
  0.00000000E+00  0.00000000E+00  0.00000000E+00
  0.00000000E+00  0.00000000E+00  0.00000000E+00
  0.00000000E+00  0.00000000E+00  0.00000000E+00
  0.00000000E+00  0.00000000E+00  0.00000000E+00
  0.00000000E+00  0.00000000E+00  0.00000000E+00
  0.00000000E+00  0.00000000E+00  0.00000000E+00
  0.00000000E+00  0.00000000E+00  0.00000000E+00
  0.00000000E+00  0.00000000E+00  0.00000000E+00
  0.00000000E+00  0.00000000E+00  0.00000000E+00
  0.00000000E+00  0.00000000E+00  0.00000000E+00
  0.00000000E+00  0.00000000E+00  0.00000000E+00
  0.00000000E+00  0.00000000E+00  0.00000000E+00
  0.00000000E+00  0.00000000E+00  0.00000000E+00
  0.00000000E+00  0.00000000E+00  0.00000000E+00
  0.00000000E+00  0.00000000E+00  0.00000000E+00
  0.00000000E+00  0.00000000E+00  0.00000000E+00
  0.00000000E+00  0.00000000E+00  0.00000000E+00
  0.00000000E+00  0.00000000E+00  0.00000000E+00
  0.00000000E+00  0.00000000E+00  0.00000000E+00
  0.00000000E+00  0.00000000E+00  0.00000000E+00
  0.00000000E+00  0.00000000E+00  0.00000000E+00
  0.00000000E+00  0.00000000E+00  0.00000000E+00
  0.00000000E+00  0.00000000E+00  0.00000000E+00
  0.00000000E+00  0.00000000E+00  0.00000000E+00
  0.00000000E+00  0.00000000E+00  0.00000000E+00
  0.00000000E+00  0.00000000E+00  0.00000000E+00
  0.00000000E+00  0.00000000E+00  0.00000000E+00
  0.00000000E+00  0.00000000E+00  0.00000000E+00
  0.00000000E+00  0.00000000E+00  0.00000000E+00
  0.00000000E+00  0.00000000E+00  0.00000000E+00
  0.00000000E+00  0.00000000E+00  0.00000000E+00
  0.00000000E+00  0.00000000E+00  0.00000000E+00
  0.00000000E+00  0.00000000E+00  0.00000000E+00
  0.00000000E+00  0.00000000E+00  0.00000000E+00
  0.00000000E+00  0.00000000E+00  0.00000000E+00
  0.00000000E+00  0.00000000E+00  0.00000000E+00
  0.00000000E+00  0.00000000E+00  0.00000000E+00
  0.00000000E+00  0.00000000E+00  0.00000000E+00
  0.00000000E+00  0.00000000E+00  0.00000000E+00
  0.00000000E+00  0.00000000E+00  0.00000000E+00
  0.00000000E+00  0.00000000E+00  0.00000000E+00