FeMn_288_15                             
    1.000000000000000     
     9.7266779999999997    0.0000000000000000    0.0000000000000000
     0.0000000000000000    8.4235500000000005    0.0000000000000000
     0.0000000000000000    0.0000000000000000   45.0000000000000000
   Fe   Mn
   273    15
Direct
  0.8122084551370564  0.3722723376778292  0.5214981819109074
  0.1875811651745689  0.7933743931046533  0.8728445620336794
  0.3126549476111790  0.0341348180000747  0.1264364935378503
  0.4375233846910513  0.6260548827564366  0.7860645796918633
  0.4379855859030772  0.6214094528346417  0.4351370197577308
  0.1874719743207033  0.7856317760228222  0.2580019191901544
  0.9373830805133841  0.6177014980071566  0.1688825818107696
  0.1873706650444528  0.4547071074744899  0.4789477909721430
  0.0627147481221610  0.5376573992972555  0.3906397876465464
  0.6877219339730686  0.7845303262971992  0.1266168072344152
  0.1876106291658535  0.9586421534357552  0.6978290388159655
  0.5625806281917506  0.5433258136224818  0.8728595348481822
  0.9374539000858410  0.2875963150390113  0.3906888618639586
  0.0625193967412017  0.3708822044149639  0.4350638863010145
  0.5624417615288131  0.7053192134502942  0.4789212857100111
  0.9375769632057438  0.2854381590242287  0.2579912138839819
  0.9376038720231096  0.7872541366739966  0.3906410396931674
  0.8120765077135569  0.5437309032092402  0.8728676084217256
  0.9374794879831596  0.7933189637550597  0.8729209969667987
  0.3128742470252351  0.7066333406372366  0.5651673083858350
  0.3123891969116794  0.5357447071346572  0.2580465684609805
  0.8127911831014516  0.8695143148249735  0.3022568012020466
  0.3129567959916963  0.7057595081253505  0.4789260069969296
  0.8123159934505416  0.3756436786989681  0.7859633571806286
  0.0624497585262168  0.0427939255893259  0.8727777381093411
  0.6872161729764638  0.9517555664804921  0.2137462559238156
  0.0625409200562372  0.2104077216147420  0.8306722517057308
  0.4373911335514618  0.9535336069600078  0.3467971604063790
  0.1870784004991811  0.2934292723309878  0.8727176774055427
  0.6875809851984666  0.7874548071385900  0.3907126032283873
  0.0626886741357760  0.2017256047145047  0.2137056311264137
  0.9375524476236866  0.9587201834893085  0.6977767650678380
  0.3126365069157777  0.2101050206637930  0.8305756171391455
  0.0626352909183088  0.8731967247053487  0.5215720336793163
  0.4373221272116952  0.7855426437539237  0.2580004036265358
  0.5627608993355342  0.2072601996698758  0.6977835792003255
  0.8123077191175944  0.7055008342684393  0.4789194661525514
  0.6874224842803986  0.1194992754565589  0.3023346860248727
  0.6874817479561285  0.4600856117618034  0.8306174883485633
  0.9374899035753422  0.4532571943917369  0.3466754095456293
  0.5623656530124259  0.0345882866467242  0.1266367385133577
  0.4378083416337805  0.2932031479927735  0.8727614897325684
  0.9375231417108423  0.4520671510635829  0.2138163386380406
  0.4374983557189742  0.7935631580002741  0.8728350395166505
  0.4375824502278719  0.2920629045588935  0.7418190229798145
  0.8124690212981671  0.2053464075809163  0.4788843047589186
  0.5622782257539988  0.0404075014190354  0.6096100084283171
  0.5624218731994673  0.8681028609067976  0.1688615174918253
  0.6875738837606866  0.6258598219067042  0.7860749414090218
  0.4374191106044925  0.2905915829660289  0.6096770441312095
  0.8125337013757329  0.8741672344837421  0.6534470197920100
  0.1875265130035586  0.9538781537030485  0.3467396697351184
  0.5625293903776355  0.7016852388766817  0.2137412003005798
  0.5624694097783089  0.2102658059153388  0.8307338896631825
  0.4375310644257812  0.7905208431152074  0.6096860512500746
  0.3126110411797650  0.3745677642152496  0.6535180853930505
  0.6872893532795326  0.4519892644909173  0.2138164556932664
  0.1875184791897610  0.1241497888680195  0.6534532951534954
  0.9369057733784651  0.7850746337820573  0.1265699885085954
  0.4375052413028201  0.6199056812582610  0.3022459947614093
  0.9374165615799090  0.1181451144757381  0.1688184710195072
  0.9377695317428290  0.4550679177480609  0.4789290718429417
  0.1883173647079919  0.7846726504575976  0.1263796208431267
  0.4371282140201866  0.4555515942696460  0.4789088606811084
  0.4376327037617798  0.9602073747310536  0.8306103199811453
  0.4373792118034226  0.4579955945638370  0.6977972915812162
  0.6874202482382427  0.2856979991475132  0.2580321504192101
  0.6875350129141398  0.6195062071211712  0.3022814251339014
  0.8126349402604850  0.5354742083847382  0.2580326622519523
  0.1875045997159905  0.1213132807928788  0.4352121512091489
  0.8124449015754051  0.2063847225801613  0.5651496813724556
  0.9375216014464259  0.7857681070081977  0.2579909711935588
  0.6875769376608780  0.9534350481327616  0.3468308347630126
  0.9376213997637516  0.9549643582894851  0.4788997883013285
  0.1878178015545128  0.1224393202127151  0.5215203187192273
  0.0627654923552823  0.8695274918664688  0.3022707933406932
  0.9376689209385163  0.2935946636639636  0.8728453229977796
  0.9372311085853164  0.1215486915680320  0.4352106887582199
  0.0627395022939942  0.3741991472372643  0.6535155692899804
  0.0625054107424000  0.0345320821020184  0.1265460210643160
  0.6874519034126569  0.1216572981818205  0.4352618997138038
  0.5626732408265249  0.7099034054064310  0.8307692169916054
  0.5621736615982542  0.5371446781642638  0.3907761346550108
  0.8127517809537306  0.5345076229371996  0.1265585734832190
  0.6875006511551082  0.4579692084301297  0.6978593904631585
  0.9371666739656260  0.1223575386274976  0.5215110949956439
  0.8124876811283436  0.7022255294077473  0.2136243229834588
  0.5629893947451834  0.2032397826673940  0.3466989852454442
  0.6877272536663863  0.4554483002885186  0.4789089916450820
  0.4371545394358617  0.6180765855406601  0.1688232206357813
  0.0623674629193137  0.7067017980119663  0.5652048061685624
  0.1875856356260700  0.2856452262640556  0.2580355967165302
  0.0624337870370288  0.7085178750266591  0.6977091266070538
  0.0622467099989193  0.2085148209594784  0.6977979209478875
  0.0629161200722833  0.8740438365639892  0.6535294880800773
  0.0624345414799863  0.7100915381222651  0.8307035261482590
  0.6872951875749448  0.7905727364634606  0.6096864797631084
  0.6872182368651563  0.7923208245211738  0.7418495511758267
  0.3125104073261170  0.0421146901971518  0.7418390672288095
  0.3122812407265735  0.8730171156403799  0.5215458912643277
  0.5625121816217223  0.2054859469862121  0.4789304106060824
  0.1874823102825323  0.9518664086356478  0.2138555790220547
  0.6876277180382827  0.1183903332315481  0.1688606906403306
  0.5622316964322784  0.3696402041831174  0.3022716247912598
  0.9373083480667044  0.1242170714265761  0.6534518770579898
  0.1876084667624894  0.1197450198081853  0.3023749595418622
  0.5627667605578860  0.5356035115193838  0.2580622859975057
  0.4374503270895012  0.2872455209903310  0.3906811716358914
  0.9375278433579479  0.1257547454413916  0.7859927400501188
  0.0627537753288226  0.7021930405784429  0.2137616661748931
  0.1872678404201478  0.7874827647348961  0.3906851333038112
  0.8126591605205672  0.0371359833597397  0.3908127868998970
  0.1872069066855146  0.4585754254779735  0.6978086000611174
  0.3126873878487060  0.0356677657694233  0.2580279258049310
  0.9376023924950869  0.9537904813793145  0.3467749297391108
  0.9374742937177970  0.2900428223102086  0.6097352246235027
  0.9377886262431491  0.4586246756280414  0.6978204173931805
  0.6874314677001754  0.7934271103063085  0.8729552290563432
  0.0622871907426057  0.7055686401702104  0.4789691971158046
  0.6875097369614006  0.9599748979483904  0.8307150212112810
  0.3126049611858586  0.5346294214023070  0.1265995404342219
  0.5624362793030624  0.8725468403036158  0.5214678630304047
  0.8124703730920160  0.0356463247385892  0.2581246123378340
  0.3123470592655396  0.7010519584021664  0.2137410241543374
  0.5621796222250577  0.0418366982135635  0.7419672968184143
  0.0619871376067487  0.3683050399032441  0.1688520950585945
  0.9374849742488937  0.2855751818196557  0.1265531960739192
  0.1876385480661426  0.2899681489450348  0.6097709989101807
  0.5626844429170582  0.8763062386211692  0.7860819081101096
  0.1873046756386608  0.9598022852887681  0.8306534682714161
  0.4377313853693708  0.1173042112757368  0.1689365776544275
  0.4375285001084137  0.4603005099636582  0.8305895086366071
  0.0623451019883118  0.5399317389236238  0.6095106304685535
  0.9369809461060462  0.6214773915195358  0.4353654549570897
  0.1872163166698049  0.4561735998745347  0.5651990367192241
  0.1874606045215110  0.9549087459262032  0.4788532217370373
  0.3121034910461497  0.3698270830605143  0.3022370426050145
  0.0626220777589162  0.0402450604492417  0.6097033043302469
  0.8124132616728690  0.0433810948440589  0.8728808941684731
  0.0623005043939036  0.5355114441491238  0.2579783703911941
  0.6873050918077854  0.9564135809677806  0.5651232989470423
  0.4378098123852516  0.1225417563330042  0.5215226389430417
  0.6873206902691084  0.2907830146976025  0.6096057371610772
  0.8126699216661972  0.2032921489670230  0.3468315711664755
  0.5621649316882573  0.8741935030647222  0.6534389883145016
  0.3126201195819596  0.8715666000493318  0.4351595118476536
  0.9377765932334660  0.2927492247596531  0.7418395859577686
  0.0626809160948409  0.3694618295025142  0.3022042988114277
  0.1872677764038212  0.4600651038582316  0.8306814698626087
  0.4376595590653710  0.7922282444170022  0.7418353123765679
  0.0624687254151744  0.2052535698023134  0.4789447829191213
  0.4374157165850553  0.9552930833668423  0.4789072948986264
  0.4374439723720989  0.2857231907317654  0.2580912912537234
  0.6876295239278128  0.2847425728100507  0.1266317553441320
  0.3125720807330485  0.2053349963515921  0.4788935755213839
  0.9377693284363263  0.6242481575977139  0.6533894611722407
  0.1875621009283792  0.9559847274851824  0.5651274423553003
  0.8128014297554980  0.8679041902453636  0.1688031608586689
  0.6877579218074084  0.7857907324683311  0.2579936428353071
  0.6874402134256425  0.6214749555032349  0.4351532729880008
  0.8124160255119526  0.2100134753245482  0.8306530574626859
  0.9378457588135063  0.4563024301176084  0.5651390479942261
  0.9374921504332773  0.6189958046064652  0.3022666852327252
  0.0626497009961611  0.2060380899372991  0.5650866850361254
  0.5624955477881112  0.2020765184982319  0.2136682583940010
  0.3127546965253331  0.3758595385166720  0.7859915843264302
  0.9374118745966333  0.7924792094454689  0.7418786958518665
  0.1877351446354101  0.4518518039524374  0.2137246148338934
  0.4378323689989553  0.2848875463746905  0.1266984217889805
  0.0622950164387373  0.7035793933816140  0.3467723109833618
  0.5623372605078686  0.0356604100419154  0.2580451926324651
  0.5622753198302907  0.3714051818868813  0.4352456650255129
  0.5624876689212019  0.8719091038627395  0.4353078604770096
  0.8126712573088781  0.8719040230176441  0.4351749679809110
  0.3125091524438530  0.5372217870690527  0.3906644610454104
  0.0625387939800567  0.0355842725193750  0.2580363740207401
  0.6870962511862525  0.6245444513124433  0.6534941957511599
  0.6874917263478119  0.2918623111351925  0.7418509818018640
  0.4375278003394331  0.1242202474259771  0.6534796839163628
  0.3124477654512540  0.2017800394446979  0.2138189524729676
  0.0626865660540141  0.0425658069611620  0.7418865706763285
  0.9373140293615840  0.7901368638043826  0.6096211072928709
  0.3124602090741508  0.8740498149731901  0.6534786236835256
  0.4374296557991418  0.4564140048317160  0.5652421975636014
  0.6874813201328170  0.1256844331392560  0.7860580356185587
  0.1872527867166958  0.2850912848083623  0.1266985772284759
  0.6872959813765962  0.1242061484361927  0.6534416988059550
  0.3129140109536441  0.3723096643338258  0.5215433913331994
  0.4376881186030692  0.6245559852555504  0.6535145551519891
  0.9375069926458025  0.1196354393460178  0.3022710504128876
  0.8123221033079673  0.0406266533807524  0.6096738816251395
  0.4372791701774311  0.1260234320122699  0.7859937191858363
  0.1876398519676628  0.6263336472983351  0.7859203063665658
  0.3124357280783077  0.5406039291266715  0.6096681124250368
  0.5626042107862612  0.5403952797697683  0.6096234944930257
  0.4376751747061234  0.6222715128462819  0.5215388459438605
  0.3125547094174533  0.3678909067928809  0.1689308289592119
  0.3126526418347977  0.0403987222697312  0.6096631519657532
  0.3122509176072506  0.8696898815450442  0.3022447975777678
  0.1873305570503697  0.4537705892138740  0.3467675686160274
  0.9375326613201361  0.9561863889443005  0.5651208311129855
  0.5624889226677555  0.3725066435544988  0.5214837521409017
  0.1881386528578529  0.6183759394285288  0.1688339027188655
  0.0622665178005779  0.8686331962615758  0.1687245891502720
  0.1874599103057755  0.6196668703982313  0.3022387109529344
  0.5624254912338423  0.3756838770272670  0.7859912900261479
  0.4374826767000973  0.1193537125557181  0.3022604008308232
  0.3129059266033397  0.5436022305209264  0.8727644674486431
  0.0623613185381382  0.5340069442658248  0.1265744284539000
  0.8121042314267717  0.8758203737831676  0.7859615852594437
  0.3125388943580854  0.2062093922276626  0.5651987222152497
  0.6875477061057460  0.4564159500549312  0.5652180298789647
  0.0624747614919210  0.5430327417388540  0.8728582877355040
  0.6872016025214481  0.1224653761173162  0.5214840590514993
  0.4379043631324204  0.9518489379860199  0.2138164675631434
  0.0629388756040802  0.5424798538781579  0.7419502827940123
  0.5623533309409593  0.2064082083014536  0.5651171577663318
  0.9377693234822562  0.4597540150597649  0.8307721817021737
  0.1872957555494538  0.1262837490564948  0.7860341070093848
  0.1874060986421706  0.2875811238705795  0.3906667251196799
  0.0624268996660769  0.3723897207728308  0.5215869579992695
  0.4375474068606355  0.9562293316255791  0.5651658680032607
  0.8126868705762289  0.5372531261945791  0.3906250053369963
  0.9372404927771989  0.6261610728225377  0.7860040763646355
  0.8124887660559568  0.3712985873704532  0.4351213199456522
  0.0624210082725612  0.8763389168420112  0.7860716495723391
  0.1873280356843801  0.6243102328234048  0.6534205126221796
  0.0621532831127082  0.8719091922016765  0.4350639783003828
  0.8123222319478940  0.2086238232293768  0.6977308931354693
  0.8127457168012876  0.0346693068387009  0.1265398367905203
  0.3127937792867779  0.8761295469791228  0.7859472346709089
  0.6876554466598689  0.2872691432385561  0.3906890615074946
  0.3125576939374593  0.7100085953424822  0.8307360786142132
  0.6874891406649617  0.9551619685254362  0.4788562446897947
  0.5622287954166229  0.3744791048780259  0.6534874867464130
  0.4376251468430266  0.4518426331374155  0.2137472529888980
  0.8125449888932619  0.5421158361027278  0.7419186118303450
  0.4376418667667679  0.4533283262714738  0.3466976056688497
  0.5620316480203442  0.5420411586280681  0.7418947322494787
  0.5627601294120549  0.7032897777568193  0.3467926850588954
  0.5626051194039187  0.0436477364098427  0.8728559587149319
  0.8124855085137838  0.2020187876009999  0.2137338495933418
  0.4378332506272976  0.1214216998180320  0.4352464168259863
  0.6874539722265364  0.4530068991503032  0.3467529764631840
  0.1875243269428728  0.7901329641478922  0.6096594137512261
  0.0623936656612167  0.0373412211182962  0.3906825003190215
  0.3123325859204431  0.0374271232916911  0.3906620350335381
  0.8123932008611129  0.5404801787218483  0.6096838572604191
  0.6873439802582427  0.6223466875034510  0.5215114886156009
  0.6874992375478054  0.6177330405979923  0.1688022690288923
  0.5625633591242415  0.5338969164464796  0.1266007207722001
  0.3126568669281544  0.3708444866264752  0.4351942106926605
  0.8121788264941454  0.7071332595020856  0.5651068678470242
  0.4372659585812874  0.7874210911684024  0.3906657245052216
  0.3124244115927070  0.5421006234919686  0.7418988963321974
  0.1873554181122469  0.1175177279015073  0.1688844686519551
  0.9375580900644670  0.9596523162407120  0.8306777359164349
  0.5626261454173188  0.0372272901598225  0.3906907693537152
  0.3126532996882734  0.2086201010599248  0.6977182859045336
  0.3126455048401467  0.0435341938150336  0.8728028506587590
  0.1872855710161775  0.2926678510966448  0.7418803100078936
  0.8126327448024443  0.3681934673907502  0.1689155872363257
  0.6874849293424208  0.2932661791763283  0.8728496544010181
  0.5625312567836971  0.7064755391494305  0.5650764957712873
  0.0621286018937208  0.2037148305857540  0.3467567279423946
  0.8125320374118933  0.7033269819295217  0.3467443003641680
  0.8126510936709106  0.8728091342444264  0.5215538296369074
  0.8123866712316300  0.7094741730914568  0.8308505445275710
  0.3123134973550959  0.2034669020851858  0.3467254421412870
  0.5629301706094211  0.3678852375874143  0.1689332521701316
  0.5623981154602364  0.7077817826690289  0.6978328491282778
  0.4372442464372572  0.7847030551292157  0.1264070081059320
  0.1877121696758526  0.7926173064380970  0.7418243625600056
  0.9367606187600833  0.6218381596649889  0.5214625743631170
  0.5620626141876506  0.8693192367153389  0.3022745988163393
  0.3121094338423153  0.7069856703668149  0.6978198779765530
  0.1881547378146527  0.6220559379324933  0.5213485713615110
  0.8127339465889383  0.3693521183486529  0.3022550651230680
  0.6877298509836477  0.9590630906625114  0.6977179619245185
  0.3127930549482135  0.7037322664465381  0.3467957332367106
  0.0624570669955126  0.3761743818010563  0.7857213378510127
  0.8128342335093099  0.7072533661293714  0.6978313985427794
  0.9377741725614778  0.9520951718027992  0.2139138307911667
  0.8123765436151817  0.3749896682411747  0.6534158180494494
  0.1876723969807824  0.6212672866613593  0.4353675947740778
  0.4365348108320201  0.9589891943705764  0.6979481476850994
  0.3125198001468217  0.8678981843841808  0.1681689628835224
  0.8127251025749507  0.0417215319744412  0.7420455795421423
 
  0.00000000E+00  0.00000000E+00  0.00000000E+00
  0.00000000E+00  0.00000000E+00  0.00000000E+00
  0.00000000E+00  0.00000000E+00  0.00000000E+00
  0.00000000E+00  0.00000000E+00  0.00000000E+00
  0.00000000E+00  0.00000000E+00  0.00000000E+00
  0.00000000E+00  0.00000000E+00  0.00000000E+00
  0.00000000E+00  0.00000000E+00  0.00000000E+00
  0.00000000E+00  0.00000000E+00  0.00000000E+00
  0.00000000E+00  0.00000000E+00  0.00000000E+00
  0.00000000E+00  0.00000000E+00  0.00000000E+00
  0.00000000E+00  0.00000000E+00  0.00000000E+00
  0.00000000E+00  0.00000000E+00  0.00000000E+00
  0.00000000E+00  0.00000000E+00  0.00000000E+00
  0.00000000E+00  0.00000000E+00  0.00000000E+00
  0.00000000E+00  0.00000000E+00  0.00000000E+00
  0.00000000E+00  0.00000000E+00  0.00000000E+00
  0.00000000E+00  0.00000000E+00  0.00000000E+00
  0.00000000E+00  0.00000000E+00  0.00000000E+00
  0.00000000E+00  0.00000000E+00  0.00000000E+00
  0.00000000E+00  0.00000000E+00  0.00000000E+00
  0.00000000E+00  0.00000000E+00  0.00000000E+00
  0.00000000E+00  0.00000000E+00  0.00000000E+00
  0.00000000E+00  0.00000000E+00  0.00000000E+00
  0.00000000E+00  0.00000000E+00  0.00000000E+00
  0.00000000E+00  0.00000000E+00  0.00000000E+00
  0.00000000E+00  0.00000000E+00  0.00000000E+00
  0.00000000E+00  0.00000000E+00  0.00000000E+00
  0.00000000E+00  0.00000000E+00  0.00000000E+00
  0.00000000E+00  0.00000000E+00  0.00000000E+00
  0.00000000E+00  0.00000000E+00  0.00000000E+00
  0.00000000E+00  0.00000000E+00  0.00000000E+00
  0.00000000E+00  0.00000000E+00  0.00000000E+00
  0.00000000E+00  0.00000000E+00  0.00000000E+00
  0.00000000E+00  0.00000000E+00  0.00000000E+00
  0.00000000E+00  0.00000000E+00  0.00000000E+00
  0.00000000E+00  0.00000000E+00  0.00000000E+00
  0.00000000E+00  0.00000000E+00  0.00000000E+00
  0.00000000E+00  0.00000000E+00  0.00000000E+00
  0.00000000E+00  0.00000000E+00  0.00000000E+00
  0.00000000E+00  0.00000000E+00  0.00000000E+00
  0.00000000E+00  0.00000000E+00  0.00000000E+00
  0.00000000E+00  0.00000000E+00  0.00000000E+00
  0.00000000E+00  0.00000000E+00  0.00000000E+00
  0.00000000E+00  0.00000000E+00  0.00000000E+00
  0.00000000E+00  0.00000000E+00  0.00000000E+00
  0.00000000E+00  0.00000000E+00  0.00000000E+00
  0.00000000E+00  0.00000000E+00  0.00000000E+00
  0.00000000E+00  0.00000000E+00  0.00000000E+00
  0.00000000E+00  0.00000000E+00  0.00000000E+00
  0.00000000E+00  0.00000000E+00  0.00000000E+00
  0.00000000E+00  0.00000000E+00  0.00000000E+00
  0.00000000E+00  0.00000000E+00  0.00000000E+00
  0.00000000E+00  0.00000000E+00  0.00000000E+00
  0.00000000E+00  0.00000000E+00  0.00000000E+00
  0.00000000E+00  0.00000000E+00  0.00000000E+00
  0.00000000E+00  0.00000000E+00  0.00000000E+00
  0.00000000E+00  0.00000000E+00  0.00000000E+00
  0.00000000E+00  0.00000000E+00  0.00000000E+00
  0.00000000E+00  0.00000000E+00  0.00000000E+00
  0.00000000E+00  0.00000000E+00  0.00000000E+00
  0.00000000E+00  0.00000000E+00  0.00000000E+00
  0.00000000E+00  0.00000000E+00  0.00000000E+00
  0.00000000E+00  0.00000000E+00  0.00000000E+00
  0.00000000E+00  0.00000000E+00  0.00000000E+00
  0.00000000E+00  0.00000000E+00  0.00000000E+00
  0.00000000E+00  0.00000000E+00  0.00000000E+00
  0.00000000E+00  0.00000000E+00  0.00000000E+00
  0.00000000E+00  0.00000000E+00  0.00000000E+00
  0.00000000E+00  0.00000000E+00  0.00000000E+00
  0.00000000E+00  0.00000000E+00  0.00000000E+00
  0.00000000E+00  0.00000000E+00  0.00000000E+00
  0.00000000E+00  0.00000000E+00  0.00000000E+00
  0.00000000E+00  0.00000000E+00  0.00000000E+00
  0.00000000E+00  0.00000000E+00  0.00000000E+00
  0.00000000E+00  0.00000000E+00  0.00000000E+00
  0.00000000E+00  0.00000000E+00  0.00000000E+00
  0.00000000E+00  0.00000000E+00  0.00000000E+00
  0.00000000E+00  0.00000000E+00  0.00000000E+00
  0.00000000E+00  0.00000000E+00  0.00000000E+00
  0.00000000E+00  0.00000000E+00  0.00000000E+00
  0.00000000E+00  0.00000000E+00  0.00000000E+00
  0.00000000E+00  0.00000000E+00  0.00000000E+00
  0.00000000E+00  0.00000000E+00  0.00000000E+00
  0.00000000E+00  0.00000000E+00  0.00000000E+00
  0.00000000E+00  0.00000000E+00  0.00000000E+00
  0.00000000E+00  0.00000000E+00  0.00000000E+00
  0.00000000E+00  0.00000000E+00  0.00000000E+00
  0.00000000E+00  0.00000000E+00  0.00000000E+00
  0.00000000E+00  0.00000000E+00  0.00000000E+00
  0.00000000E+00  0.00000000E+00  0.00000000E+00
  0.00000000E+00  0.00000000E+00  0.00000000E+00
  0.00000000E+00  0.00000000E+00  0.00000000E+00
  0.00000000E+00  0.00000000E+00  0.00000000E+00
  0.00000000E+00  0.00000000E+00  0.00000000E+00
  0.00000000E+00  0.00000000E+00  0.00000000E+00
  0.00000000E+00  0.00000000E+00  0.00000000E+00
  0.00000000E+00  0.00000000E+00  0.00000000E+00
  0.00000000E+00  0.00000000E+00  0.00000000E+00
  0.00000000E+00  0.00000000E+00  0.00000000E+00
  0.00000000E+00  0.00000000E+00  0.00000000E+00
  0.00000000E+00  0.00000000E+00  0.00000000E+00
  0.00000000E+00  0.00000000E+00  0.00000000E+00
  0.00000000E+00  0.00000000E+00  0.00000000E+00
  0.00000000E+00  0.00000000E+00  0.00000000E+00
  0.00000000E+00  0.00000000E+00  0.00000000E+00
  0.00000000E+00  0.00000000E+00  0.00000000E+00
  0.00000000E+00  0.00000000E+00  0.00000000E+00
  0.00000000E+00  0.00000000E+00  0.00000000E+00
  0.00000000E+00  0.00000000E+00  0.00000000E+00
  0.00000000E+00  0.00000000E+00  0.00000000E+00
  0.00000000E+00  0.00000000E+00  0.00000000E+00
  0.00000000E+00  0.00000000E+00  0.00000000E+00
  0.00000000E+00  0.00000000E+00  0.00000000E+00
  0.00000000E+00  0.00000000E+00  0.00000000E+00
  0.00000000E+00  0.00000000E+00  0.00000000E+00
  0.00000000E+00  0.00000000E+00  0.00000000E+00
  0.00000000E+00  0.00000000E+00  0.00000000E+00
  0.00000000E+00  0.00000000E+00  0.00000000E+00
  0.00000000E+00  0.00000000E+00  0.00000000E+00
  0.00000000E+00  0.00000000E+00  0.00000000E+00
  0.00000000E+00  0.00000000E+00  0.00000000E+00
  0.00000000E+00  0.00000000E+00  0.00000000E+00
  0.00000000E+00  0.00000000E+00  0.00000000E+00
  0.00000000E+00  0.00000000E+00  0.00000000E+00
  0.00000000E+00  0.00000000E+00  0.00000000E+00
  0.00000000E+00  0.00000000E+00  0.00000000E+00
  0.00000000E+00  0.00000000E+00  0.00000000E+00
  0.00000000E+00  0.00000000E+00  0.00000000E+00
  0.00000000E+00  0.00000000E+00  0.00000000E+00
  0.00000000E+00  0.00000000E+00  0.00000000E+00
  0.00000000E+00  0.00000000E+00  0.00000000E+00
  0.00000000E+00  0.00000000E+00  0.00000000E+00
  0.00000000E+00  0.00000000E+00  0.00000000E+00
  0.00000000E+00  0.00000000E+00  0.00000000E+00
  0.00000000E+00  0.00000000E+00  0.00000000E+00
  0.00000000E+00  0.00000000E+00  0.00000000E+00
  0.00000000E+00  0.00000000E+00  0.00000000E+00
  0.00000000E+00  0.00000000E+00  0.00000000E+00
  0.00000000E+00  0.00000000E+00  0.00000000E+00
  0.00000000E+00  0.00000000E+00  0.00000000E+00
  0.00000000E+00  0.00000000E+00  0.00000000E+00
  0.00000000E+00  0.00000000E+00  0.00000000E+00
  0.00000000E+00  0.00000000E+00  0.00000000E+00
  0.00000000E+00  0.00000000E+00  0.00000000E+00
  0.00000000E+00  0.00000000E+00  0.00000000E+00
  0.00000000E+00  0.00000000E+00  0.00000000E+00
  0.00000000E+00  0.00000000E+00  0.00000000E+00
  0.00000000E+00  0.00000000E+00  0.00000000E+00
  0.00000000E+00  0.00000000E+00  0.00000000E+00
  0.00000000E+00  0.00000000E+00  0.00000000E+00
  0.00000000E+00  0.00000000E+00  0.00000000E+00
  0.00000000E+00  0.00000000E+00  0.00000000E+00
  0.00000000E+00  0.00000000E+00  0.00000000E+00
  0.00000000E+00  0.00000000E+00  0.00000000E+00
  0.00000000E+00  0.00000000E+00  0.00000000E+00
  0.00000000E+00  0.00000000E+00  0.00000000E+00
  0.00000000E+00  0.00000000E+00  0.00000000E+00
  0.00000000E+00  0.00000000E+00  0.00000000E+00
  0.00000000E+00  0.00000000E+00  0.00000000E+00
  0.00000000E+00  0.00000000E+00  0.00000000E+00
  0.00000000E+00  0.00000000E+00  0.00000000E+00
  0.00000000E+00  0.00000000E+00  0.00000000E+00
  0.00000000E+00  0.00000000E+00  0.00000000E+00
  0.00000000E+00  0.00000000E+00  0.00000000E+00
  0.00000000E+00  0.00000000E+00  0.00000000E+00
  0.00000000E+00  0.00000000E+00  0.00000000E+00
  0.00000000E+00  0.00000000E+00  0.00000000E+00
  0.00000000E+00  0.00000000E+00  0.00000000E+00
  0.00000000E+00  0.00000000E+00  0.00000000E+00
  0.00000000E+00  0.00000000E+00  0.00000000E+00
  0.00000000E+00  0.00000000E+00  0.00000000E+00
  0.00000000E+00  0.00000000E+00  0.00000000E+00
  0.00000000E+00  0.00000000E+00  0.00000000E+00
  0.00000000E+00  0.00000000E+00  0.00000000E+00
  0.00000000E+00  0.00000000E+00  0.00000000E+00
  0.00000000E+00  0.00000000E+00  0.00000000E+00
  0.00000000E+00  0.00000000E+00  0.00000000E+00
  0.00000000E+00  0.00000000E+00  0.00000000E+00
  0.00000000E+00  0.00000000E+00  0.00000000E+00
  0.00000000E+00  0.00000000E+00  0.00000000E+00
  0.00000000E+00  0.00000000E+00  0.00000000E+00
  0.00000000E+00  0.00000000E+00  0.00000000E+00
  0.00000000E+00  0.00000000E+00  0.00000000E+00
  0.00000000E+00  0.00000000E+00  0.00000000E+00
  0.00000000E+00  0.00000000E+00  0.00000000E+00
  0.00000000E+00  0.00000000E+00  0.00000000E+00
  0.00000000E+00  0.00000000E+00  0.00000000E+00
  0.00000000E+00  0.00000000E+00  0.00000000E+00
  0.00000000E+00  0.00000000E+00  0.00000000E+00
  0.00000000E+00  0.00000000E+00  0.00000000E+00
  0.00000000E+00  0.00000000E+00  0.00000000E+00
  0.00000000E+00  0.00000000E+00  0.00000000E+00
  0.00000000E+00  0.00000000E+00  0.00000000E+00
  0.00000000E+00  0.00000000E+00  0.00000000E+00
  0.00000000E+00  0.00000000E+00  0.00000000E+00
  0.00000000E+00  0.00000000E+00  0.00000000E+00
  0.00000000E+00  0.00000000E+00  0.00000000E+00
  0.00000000E+00  0.00000000E+00  0.00000000E+00
  0.00000000E+00  0.00000000E+00  0.00000000E+00
  0.00000000E+00  0.00000000E+00  0.00000000E+00
  0.00000000E+00  0.00000000E+00  0.00000000E+00
  0.00000000E+00  0.00000000E+00  0.00000000E+00
  0.00000000E+00  0.00000000E+00  0.00000000E+00
  0.00000000E+00  0.00000000E+00  0.00000000E+00
  0.00000000E+00  0.00000000E+00  0.00000000E+00
  0.00000000E+00  0.00000000E+00  0.00000000E+00
  0.00000000E+00  0.00000000E+00  0.00000000E+00
  0.00000000E+00  0.00000000E+00  0.00000000E+00
  0.00000000E+00  0.00000000E+00  0.00000000E+00
  0.00000000E+00  0.00000000E+00  0.00000000E+00
  0.00000000E+00  0.00000000E+00  0.00000000E+00
  0.00000000E+00  0.00000000E+00  0.00000000E+00
  0.00000000E+00  0.00000000E+00  0.00000000E+00
  0.00000000E+00  0.00000000E+00  0.00000000E+00
  0.00000000E+00  0.00000000E+00  0.00000000E+00
  0.00000000E+00  0.00000000E+00  0.00000000E+00
  0.00000000E+00  0.00000000E+00  0.00000000E+00
  0.00000000E+00  0.00000000E+00  0.00000000E+00
  0.00000000E+00  0.00000000E+00  0.00000000E+00
  0.00000000E+00  0.00000000E+00  0.00000000E+00
  0.00000000E+00  0.00000000E+00  0.00000000E+00
  0.00000000E+00  0.00000000E+00  0.00000000E+00
  0.00000000E+00  0.00000000E+00  0.00000000E+00
  0.00000000E+00  0.00000000E+00  0.00000000E+00
  0.00000000E+00  0.00000000E+00  0.00000000E+00
  0.00000000E+00  0.00000000E+00  0.00000000E+00
  0.00000000E+00  0.00000000E+00  0.00000000E+00
  0.00000000E+00  0.00000000E+00  0.00000000E+00
  0.00000000E+00  0.00000000E+00  0.00000000E+00
  0.00000000E+00  0.00000000E+00  0.00000000E+00
  0.00000000E+00  0.00000000E+00  0.00000000E+00
  0.00000000E+00  0.00000000E+00  0.00000000E+00
  0.00000000E+00  0.00000000E+00  0.00000000E+00
  0.00000000E+00  0.00000000E+00  0.00000000E+00
  0.00000000E+00  0.00000000E+00  0.00000000E+00
  0.00000000E+00  0.00000000E+00  0.00000000E+00
  0.00000000E+00  0.00000000E+00  0.00000000E+00
  0.00000000E+00  0.00000000E+00  0.00000000E+00
  0.00000000E+00  0.00000000E+00  0.00000000E+00
  0.00000000E+00  0.00000000E+00  0.00000000E+00
  0.00000000E+00  0.00000000E+00  0.00000000E+00
  0.00000000E+00  0.00000000E+00  0.00000000E+00
  0.00000000E+00  0.00000000E+00  0.00000000E+00
  0.00000000E+00  0.00000000E+00  0.00000000E+00
  0.00000000E+00  0.00000000E+00  0.00000000E+00
  0.00000000E+00  0.00000000E+00  0.00000000E+00
  0.00000000E+00  0.00000000E+00  0.00000000E+00