FeMn_288_15                             
    1.000000000000000     
     9.7266779999999997    0.0000000000000000    0.0000000000000000
     0.0000000000000000    8.4235500000000005    0.0000000000000000
     0.0000000000000000    0.0000000000000000   45.0000000000000000
   Fe   Mn
   273    15
Direct
  0.8122199569803568  0.3737990532112953  0.5207914748949707
  0.1867196834274147  0.7968200981206275  0.8739899865377225
  0.3126225848608478  0.0313609638338928  0.1264495626215810
  0.4370478003941328  0.6264008946084434  0.7866884343492858
  0.4384431929290967  0.6209815256119876  0.4344356705197572
  0.1891366014157587  0.7841275645849529  0.2577460239894171
  0.9375605878187587  0.6186078432789285  0.1698494751313432
  0.1869813064135186  0.4556384057702750  0.4784718517941909
  0.0623786060052517  0.5388996520907792  0.3909647409854861
  0.6873904293773890  0.7847480372260924  0.1262720088345137
  0.1866801407508732  0.9578821892046719  0.6968329526717109
  0.5627166034970779  0.5430426437276795  0.8742354823500497
  0.9364042858425478  0.2898471212534771  0.3910506114499178
  0.0621808438787228  0.3740423489215686  0.4347038888761514
  0.5622324642255909  0.7048304111829096  0.4785127562499978
  0.9380866521743411  0.2856361109369615  0.2575407535559522
  0.9367140373829785  0.7844585963128652  0.3909214655147223
  0.8129187892619598  0.5430019023615145  0.8740528912687544
  0.9375737617503606  0.7967731037761768  0.8738943905821530
  0.3108496416861899  0.7078789279900912  0.5640902451183099
  0.3130637213816949  0.5359418170976160  0.2578085943416736
  0.8134410159300748  0.8694294996747592  0.3035330782128158
  0.3127260502206084  0.7052953867608893  0.4786222527671418
  0.8121174628718263  0.3754789889430390  0.7867050273830861
  0.0622743403300524  0.0452046883247629  0.8735817908821043
  0.6853824918997858  0.9514581163651842  0.2135170049270516
  0.0624596805736594  0.2094435199542098  0.8312307045233485
  0.4371120223552758  0.9536141219993245  0.3477622828248897
  0.1863537799787491  0.2908031231751518  0.8737299930197511
  0.6873915037730152  0.7857719353050375  0.3909356465091600
  0.0638440703533792  0.2024671295265774  0.2135932726439881
  0.9372367929940392  0.9593498812749964  0.6966589230320915
  0.3111774102764688  0.2097869512901397  0.8308548663680712
  0.0627656365505335  0.8720942871707996  0.5209579285353068
  0.4371164107154331  0.7837759673803951  0.2573401901082017
  0.5643534101039799  0.2069999860353561  0.6967753157764344
  0.8130099628818630  0.7048599055914315  0.4783555426689003
  0.6866822261785678  0.1196256737528724  0.3033024689878377
  0.6882941888216216  0.4592346225421596  0.8302954936591463
  0.9376788372450033  0.4554870396649700  0.3478863944441458
  0.5612867431658990  0.0336735679166267  0.1264708294225885
  0.4361769343295225  0.2914311897477628  0.8739457422177510
  0.9376026223888857  0.4522949018240764  0.2138109599751995
  0.4371284924797129  0.7960559964913579  0.8741403797608432
  0.4378181392372007  0.2912171894031693  0.7415769236167096
  0.8116960785735652  0.2061962482366284  0.4783669016112397
  0.5625759962568336  0.0430042308595411  0.6092740964245243
  0.5599157883430720  0.8678610427270109  0.1697703272880810
  0.6878622568336634  0.6260868228405055  0.7867328040200646
  0.4357539131650737  0.2911029148673766  0.6097590097638723
  0.8159551026859668  0.8754331489818362  0.6535900734376909
  0.1878293601279347  0.9518390259435450  0.3476684717480100
  0.5611777106849727  0.7021065952325851  0.2135911391474427
  0.5626120687189308  0.2101367363291522  0.8306254979172647
  0.4331628119526169  0.7898560654380431  0.6093291204755827
  0.3108337040153016  0.3743927246611783  0.6531745231043348
  0.6870205878757666  0.4526567414897937  0.2139224726853601
  0.1862058115505394  0.1244621218333562  0.6531127591077860
  0.9378673947686343  0.7853732285550561  0.1263240162698733
  0.4363703751861034  0.6183524411661099  0.3029882707467892
  0.9380460499593289  0.1172179514040923  0.1696547089001276
  0.9381511883453805  0.4564694259925439  0.4783674980724182
  0.1891343626927832  0.7866994440189368  0.1264109195791762
  0.4370354510642237  0.4563808380913785  0.4785392513300902
  0.4367328146967162  0.9611714280832867  0.8305936115502035
  0.4384003359678846  0.4577871607805464  0.6967517181944737
  0.6859047716136201  0.2860462573500811  0.2576241547430340
  0.6876256852914709  0.6197417107763421  0.3030973373996035
  0.8116295129321002  0.5350253443802766  0.2575249104021222
  0.1874972233464238  0.1214459651378717  0.4347785223733420
  0.8132149874589882  0.2066065465546935  0.5646182256289105
  0.9369079963840100  0.7849776026870375  0.2578435726398529
  0.6887477726032691  0.9530983203886390  0.3482250031894635
  0.9379609322558672  0.9530737814626050  0.4784847019753237
  0.1874559053948061  0.1215760443391277  0.5207489602384803
  0.0624185493867961  0.8691074143111882  0.3033758292307187
  0.9387350316761542  0.2908903030502696  0.8737828440201942
  0.9364472195315662  0.1213255869257833  0.4347878087040219
  0.0617498224275950  0.3742405501166058  0.6528788638280746
  0.0633015470567434  0.0326584236521445  0.1264501830480371
  0.6863638789194364  0.1213593934457832  0.4346062426241359
  0.5630568630084901  0.7106799174614035  0.8304493770397227
  0.5627933763569150  0.5372772110558819  0.3910366799368137
  0.8128207999327827  0.5340322991027846  0.1261437810092012
  0.6884081078364050  0.4569641207432616  0.6966423685164578
  0.9370980470440829  0.1219566419879339  0.5209797975259437
  0.8115336172577139  0.7008442578114177  0.2134617208344375
  0.5632105860308221  0.2039989864780536  0.3478126200755106
  0.6878452131289496  0.4560092692791649  0.4784851380655250
  0.4368620411333770  0.6209342500243663  0.1699482593341328
  0.0618355902895643  0.7074317176041355  0.5646512078954353
  0.1879318362023320  0.2869069515355875  0.2575909161836897
  0.0623221557807380  0.7103069138327525  0.6966460392960314
  0.0608424676535580  0.2068206473785978  0.6967506349967891
  0.0629125714793127  0.8738405197295059  0.6531846232992725
  0.0620565549955254  0.7112029906680032  0.8303049324338911
  0.6911032510981804  0.7899149111053267  0.6094207870045225
  0.6875795157373984  0.7928108056688321  0.7414831681126869
  0.3120948444160789  0.0417380153996635  0.7415483644519241
  0.3118597819141464  0.8711599538746569  0.5207617148873142
  0.5629894442489101  0.2060063366537733  0.4782277849266964
  0.1888771944971006  0.9517315099312519  0.2132659566634184
  0.6870603278118407  0.1173735360412613  0.1697273091087204
  0.5610258785856908  0.3695492338255414  0.3030531205119762
  0.9370618575537777  0.1249068408813082  0.6532195393825708
  0.1877575936437896  0.1197603249793155  0.3032955225382943
  0.5622203976239692  0.5354438094230038  0.2578949392350800
  0.4385441443924741  0.2884052625523701  0.3908170722713621
  0.9376178769400605  0.1249192655336303  0.7869139344461840
  0.0641980843941468  0.7011289918879914  0.2132825837692490
  0.1875309620424003  0.7854742089545605  0.3907752365149414
  0.8105490639515025  0.0360001453999540  0.3910135827323689
  0.1864985979126048  0.4591849084912334  0.6967369481769221
  0.3140247410000093  0.0359089350445320  0.2575553949602574
  0.9365123060324053  0.9518923203730306  0.3475843676349522
  0.9380993208519861  0.2900281891757355  0.6097842103638288
  0.9365254441012565  0.4582020391047872  0.6967388354531021
  0.6886299858517868  0.7960014599523708  0.8740883162400969
  0.0621849435118478  0.7053278624198097  0.4783063606768932
  0.6890695810383716  0.9606285567747355  0.8306995392004343
  0.3130211884205976  0.5369662608319608  0.1263392505524783
  0.5627830162852308  0.8709842845222804  0.5207396377078481
  0.8113481624766495  0.0369006760690124  0.2581497730991932
  0.3131680273606572  0.7012512074336991  0.2135198458446465
  0.5622430907023108  0.0424180611523819  0.7416137021496493
  0.0621074930475780  0.3678738686087115  0.1701630758779671
  0.9363237287355876  0.2844545417020754  0.1261599272959150
  0.1850880897866738  0.2901031341416462  0.6098806328777825
  0.5627154146077301  0.8761589346753215  0.7867007755687889
  0.1862255587050948  0.9615612459356205  0.8307174070956039
  0.4362262929055892  0.1148117070529326  0.1698969729772669
  0.4369138040397888  0.4595417119841441  0.8302994353018490
  0.0619146266089603  0.5405809223482974  0.6094669294673868
  0.9371037239432135  0.6215612279161280  0.4347903442198936
  0.1851896054121855  0.4574779531216136  0.5644588162182023
  0.1870845758041825  0.9531132820714847  0.4785983240596382
  0.3127588190072324  0.3707841098775548  0.3029011634993559
  0.0616676284101775  0.0395695185195235  0.6095719615676443
  0.8142122275464196  0.0444999239188037  0.8737385226939867
  0.0631133908435039  0.5338983931341091  0.2576988623282384
  0.6894765861687890  0.9561356143090977  0.5637830972123031
  0.4381042908138864  0.1223206962618666  0.5206598486187982
  0.6907645049775206  0.2912586003127851  0.6095817853917089
  0.8111420908246135  0.2023308300057110  0.3479365077286623
  0.5620159945813862  0.8738282069010490  0.6541517530453330
  0.3129610003532602  0.8701405879898423  0.4346553616763374
  0.9370879892726295  0.2921318612853114  0.7413067957026976
  0.0637548851344052  0.3700245472030437  0.3030947629730063
  0.1869644892825712  0.4587672207872822  0.8306546935060535
  0.4371474955120369  0.7928415794990796  0.7414851936134942
  0.0627980566574558  0.2067857652115132  0.4784750603002666
  0.4375074263898281  0.9543027399778350  0.4784954818212435
  0.4382332290022942  0.2867146321229070  0.2578187216072939
  0.6883949863217317  0.2841465680960363  0.1261791713365557
  0.3125706935112134  0.2064253841885137  0.4784894400670414
  0.9387055991267064  0.6236510392608713  0.6529580600572433
  0.1858637691021246  0.9536101608822074  0.5644685950300095
  0.8129103156517888  0.8681603992180191  0.1696201826887387
  0.6869384414925228  0.7842031873032216  0.2575888221247394
  0.6878985265544547  0.6213695958098696  0.4343234771908683
  0.8138391820207667  0.2093214579422681  0.8308428642343725
  0.9378768431891099  0.4574244843468531  0.5644042084571873
  0.9379605979000822  0.6205527410124698  0.3033102232845736
  0.0618865673935743  0.2060830150069428  0.5647534086608800
  0.5613921554392156  0.2014325687107734  0.2137542861312935
  0.3129594586178290  0.3756046100705204  0.7867019153833054
  0.9380294653414705  0.7926302004203326  0.7414781994218762
  0.1888785501010314  0.4521108327985452  0.2137428209855928
  0.4383072288618116  0.2824972420611496  0.1263057189038313
  0.0628787298364153  0.7028504950731568  0.3479793632163867
  0.5619247255825094  0.0369391900120225  0.2575428011374402
  0.5626378642031946  0.3721159808078030  0.4345741132114798
  0.5633640253622409  0.8715860365755539  0.4345856121187744
  0.8122232253048052  0.8701943409229119  0.4345795745179221
  0.3132774425740685  0.5379963090053556  0.3906955799609264
  0.0626429624129640  0.0367403876150065  0.2577951656877734
  0.6895402842623022  0.6219077245903279  0.6539203361849084
  0.6876360875124884  0.2916757922792625  0.7412852049200713
  0.4357706783066775  0.1262164067878640  0.6537562819887449
  0.3128453792076094  0.2017017813071151  0.2135485152981715
  0.0628019518310118  0.0416634116404864  0.7414015269833107
  0.9403426524357088  0.7906909556486933  0.6093533637604865
  0.3092454530417423  0.8740104534382287  0.6534575699052482
  0.4370163782985174  0.4568957985685449  0.5645195250307252
  0.6878484151598380  0.1257665996714340  0.7868086546331409
  0.1871981012097303  0.2823182074851679  0.1263115498463710
  0.6905411840715991  0.1272203285966752  0.6537803161977126
  0.3121984673449760  0.3738558353294768  0.5203188350766726
  0.4359359861878320  0.6234534333324314  0.6537418085429012
  0.9376588189555675  0.1181165388182622  0.3032113476426611
  0.8167147209822100  0.0416872567977944  0.6095580037496006
  0.4366825595688837  0.1261427850532329  0.7866156283975474
  0.1876503957713852  0.6272353355776830  0.7866171863164788
  0.3091297818860459  0.5408807196552455  0.6096594956975979
  0.5629552124746982  0.5384245394974495  0.6095338153162957
  0.4375398991248578  0.6231844479022655  0.5205266738473067
  0.3126582184115778  0.3670567610594309  0.1703478843837376
  0.3092351942279900  0.0399896181025737  0.6096784784562942
  0.3113500121877332  0.8684113980075715  0.3032793286220408
  0.1881981729961590  0.4558719418415282  0.3479393462683643
  0.9378883277447783  0.9547185296144896  0.5646418952168774
  0.5633998210350883  0.3738135072830289  0.5204001681983305
  0.1886952284911712  0.6210293177921028  0.1699776756930079
  0.0645677095366328  0.8681290718215070  0.1693749142196856
  0.1880902152325250  0.6194346749769480  0.3032087170422979
  0.5622623916913929  0.3755076144406213  0.7866210352770309
  0.4379942724696389  0.1213132524998255  0.3031882526711668
  0.3120867479091956  0.5418808347847414  0.8741039403655878
  0.0613237588884714  0.5354721273461995  0.1261758986309766
  0.8128737351033990  0.8758741830165100  0.7867284824070494
  0.3112922454271372  0.2055905492134958  0.5646902666002059
  0.6899732913353710  0.4568132212846089  0.5640178336317313
  0.0623999827253523  0.5409800250401118  0.8741283240978547
  0.6873056860060985  0.1223095951721891  0.5207706758160338
  0.4375250643449461  0.9514946594719723  0.2134765623333928
  0.0625187193320992  0.5437415894894588  0.7416971938338418
  0.5638729123682100  0.2066810750242656  0.5640095506281643
  0.9379526783996135  0.4583592862442328  0.8307068357641614
  0.1873851725078918  0.1251194280827252  0.7868257002103561
  0.1886520872882927  0.2898386979796505  0.3908640230611216
  0.0621704069147501  0.3734167580957590  0.5207590201682505
  0.4366092461132716  0.9547527040065226  0.5640031974091918
  0.8116012952085017  0.5388966762957186  0.3909235405150298
  0.9373213054349733  0.6267792797707175  0.7867300853130680
  0.8120240018494469  0.3736377407236282  0.4345303225310342
  0.0625135433286972  0.8761179369614130  0.7868193333006795
  0.1856079987683537  0.6248446461391615  0.6528557339423506
  0.0614086192835649  0.8690883836128651  0.4346943640492774
  0.8122407683441573  0.2081500329672089  0.6964134272765274
  0.8130076399438863  0.0345714205055296  0.1261784931618817
  0.3118407031115507  0.8758758750862069  0.7865268516392672
  0.6863587056989068  0.2886925295850442  0.3909221191944867
  0.3117606993418345  0.7105109366445482  0.8303109486908389
  0.6874228239276828  0.9547448956795478  0.4783355640603644
  0.5637604774592243  0.3732694758021818  0.6537910577823975
  0.4367148580192783  0.4526035827425675  0.2138177989380214
  0.8127611403263469  0.5420191209278209  0.7415734108962240
  0.4377763346532896  0.4537756052956322  0.3479936906898914
  0.5624632031582155  0.5422121640824172  0.7415273981475388
  0.5629676625203879  0.7015714506838477  0.3481018328024950
  0.5626220691903020  0.0442205539084541  0.8740198559766069
  0.8120243104408399  0.2033620756754716  0.2136430962475714
  0.4397902778203265  0.1216546486198876  0.4346235830901329
  0.6862914142208595  0.4541318035696097  0.3484321535327621
  0.1847159192214216  0.7900152020563683  0.6094798661075047
  0.0624661230159157  0.0355309124771670  0.3909696106358066
  0.3136158387100315  0.0371044683212702  0.3908064939010010
  0.8158762608990111  0.5387596340427273  0.6096376538660675
  0.6874066748818703  0.6223070960851222  0.5208466217912024
  0.6870316942316542  0.6183458642536372  0.1698954638197589
  0.5631712367504706  0.5347832675467732  0.1261407289470855
  0.3131361090252768  0.3727278727978895  0.4346489883229754
  0.8144139234184786  0.7067110782196284  0.5638971620392204
  0.4380373121899857  0.7857305987205490  0.3909800808950095
  0.3122364971178008  0.5427212978036922  0.7418140146991697
  0.1888580280719868  0.1146384890935231  0.1698235822401259
  0.9379585717977059  0.9610499600633696  0.8308185183752231
  0.5633206208538046  0.0367764729104615  0.3910293764559635
  0.3125681357408377  0.2074416607393023  0.6967563081317966
  0.3109381880192387  0.0456500118960569  0.8738215781226609
  0.1875315025746315  0.2913842662939752  0.7416619325934706
  0.8126775189937380  0.3681363766798045  0.1698058422289559
  0.6887918485395916  0.2915944866324908  0.8739664700979985
  0.5627952647707403  0.7071086811757140  0.5633894297473974
  0.0622534328641905  0.2039675572522904  0.3472841300344131
  0.8122819579117193  0.7032641834440210  0.3481446943624761
  0.8126714473077438  0.8714539297508459  0.5209168664434917
  0.8132305464453876  0.7108993638189075  0.8305710474819014
  0.3134348999920220  0.2044989338343373  0.3478319150561814
  0.5626487654167084  0.3674771145170617  0.1700974159836156
  0.5629923135204391  0.7077020734069003  0.6970595233925984
  0.4359159373113587  0.7864019064485618  0.1264237470872087
  0.1873712427650129  0.7929891399319239  0.7414294577871331
  0.9364295411789867  0.6220683558374100  0.5208065300379280
  0.5627431197938101  0.8696819372343971  0.3031625909765348
  0.3115259018577020  0.7090145183668816  0.6966539103649813
  0.1886013470083754  0.6226675305567003  0.5205299792183308
  0.8120473633114931  0.3693540066772380  0.3030352372893368
  0.6893742839808876  0.9605272884863501  0.6967173248253862
  0.3118456854847475  0.7019617363213810  0.3482395096085609
  0.0625891498671039  0.3759807979027580  0.7866125083458203
  0.8129205307149250  0.7081221645729826  0.6965615412148836
  0.9387096858114047  0.9520616315455720  0.2134077724534189
  0.8137032439560277  0.3738198835698719  0.6533273293054300
  0.1864880581535910  0.6209713606710833  0.4348369690159850
  0.4359063528215756  0.9589338833052340  0.6970497724799499
  0.3124341282683216  0.8683001559530773  0.1688128728556438
  0.8131904934009281  0.0416685843401614  0.7412777907992393
 
  0.00000000E+00  0.00000000E+00  0.00000000E+00
  0.00000000E+00  0.00000000E+00  0.00000000E+00
  0.00000000E+00  0.00000000E+00  0.00000000E+00
  0.00000000E+00  0.00000000E+00  0.00000000E+00
  0.00000000E+00  0.00000000E+00  0.00000000E+00
  0.00000000E+00  0.00000000E+00  0.00000000E+00
  0.00000000E+00  0.00000000E+00  0.00000000E+00
  0.00000000E+00  0.00000000E+00  0.00000000E+00
  0.00000000E+00  0.00000000E+00  0.00000000E+00
  0.00000000E+00  0.00000000E+00  0.00000000E+00
  0.00000000E+00  0.00000000E+00  0.00000000E+00
  0.00000000E+00  0.00000000E+00  0.00000000E+00
  0.00000000E+00  0.00000000E+00  0.00000000E+00
  0.00000000E+00  0.00000000E+00  0.00000000E+00
  0.00000000E+00  0.00000000E+00  0.00000000E+00
  0.00000000E+00  0.00000000E+00  0.00000000E+00
  0.00000000E+00  0.00000000E+00  0.00000000E+00
  0.00000000E+00  0.00000000E+00  0.00000000E+00
  0.00000000E+00  0.00000000E+00  0.00000000E+00
  0.00000000E+00  0.00000000E+00  0.00000000E+00
  0.00000000E+00  0.00000000E+00  0.00000000E+00
  0.00000000E+00  0.00000000E+00  0.00000000E+00
  0.00000000E+00  0.00000000E+00  0.00000000E+00
  0.00000000E+00  0.00000000E+00  0.00000000E+00
  0.00000000E+00  0.00000000E+00  0.00000000E+00
  0.00000000E+00  0.00000000E+00  0.00000000E+00
  0.00000000E+00  0.00000000E+00  0.00000000E+00
  0.00000000E+00  0.00000000E+00  0.00000000E+00
  0.00000000E+00  0.00000000E+00  0.00000000E+00
  0.00000000E+00  0.00000000E+00  0.00000000E+00
  0.00000000E+00  0.00000000E+00  0.00000000E+00
  0.00000000E+00  0.00000000E+00  0.00000000E+00
  0.00000000E+00  0.00000000E+00  0.00000000E+00
  0.00000000E+00  0.00000000E+00  0.00000000E+00
  0.00000000E+00  0.00000000E+00  0.00000000E+00
  0.00000000E+00  0.00000000E+00  0.00000000E+00
  0.00000000E+00  0.00000000E+00  0.00000000E+00
  0.00000000E+00  0.00000000E+00  0.00000000E+00
  0.00000000E+00  0.00000000E+00  0.00000000E+00
  0.00000000E+00  0.00000000E+00  0.00000000E+00
  0.00000000E+00  0.00000000E+00  0.00000000E+00
  0.00000000E+00  0.00000000E+00  0.00000000E+00
  0.00000000E+00  0.00000000E+00  0.00000000E+00
  0.00000000E+00  0.00000000E+00  0.00000000E+00
  0.00000000E+00  0.00000000E+00  0.00000000E+00
  0.00000000E+00  0.00000000E+00  0.00000000E+00
  0.00000000E+00  0.00000000E+00  0.00000000E+00
  0.00000000E+00  0.00000000E+00  0.00000000E+00
  0.00000000E+00  0.00000000E+00  0.00000000E+00
  0.00000000E+00  0.00000000E+00  0.00000000E+00
  0.00000000E+00  0.00000000E+00  0.00000000E+00
  0.00000000E+00  0.00000000E+00  0.00000000E+00
  0.00000000E+00  0.00000000E+00  0.00000000E+00
  0.00000000E+00  0.00000000E+00  0.00000000E+00
  0.00000000E+00  0.00000000E+00  0.00000000E+00
  0.00000000E+00  0.00000000E+00  0.00000000E+00
  0.00000000E+00  0.00000000E+00  0.00000000E+00
  0.00000000E+00  0.00000000E+00  0.00000000E+00
  0.00000000E+00  0.00000000E+00  0.00000000E+00
  0.00000000E+00  0.00000000E+00  0.00000000E+00
  0.00000000E+00  0.00000000E+00  0.00000000E+00
  0.00000000E+00  0.00000000E+00  0.00000000E+00
  0.00000000E+00  0.00000000E+00  0.00000000E+00
  0.00000000E+00  0.00000000E+00  0.00000000E+00
  0.00000000E+00  0.00000000E+00  0.00000000E+00
  0.00000000E+00  0.00000000E+00  0.00000000E+00
  0.00000000E+00  0.00000000E+00  0.00000000E+00
  0.00000000E+00  0.00000000E+00  0.00000000E+00
  0.00000000E+00  0.00000000E+00  0.00000000E+00
  0.00000000E+00  0.00000000E+00  0.00000000E+00
  0.00000000E+00  0.00000000E+00  0.00000000E+00
  0.00000000E+00  0.00000000E+00  0.00000000E+00
  0.00000000E+00  0.00000000E+00  0.00000000E+00
  0.00000000E+00  0.00000000E+00  0.00000000E+00
  0.00000000E+00  0.00000000E+00  0.00000000E+00
  0.00000000E+00  0.00000000E+00  0.00000000E+00
  0.00000000E+00  0.00000000E+00  0.00000000E+00
  0.00000000E+00  0.00000000E+00  0.00000000E+00
  0.00000000E+00  0.00000000E+00  0.00000000E+00
  0.00000000E+00  0.00000000E+00  0.00000000E+00
  0.00000000E+00  0.00000000E+00  0.00000000E+00
  0.00000000E+00  0.00000000E+00  0.00000000E+00
  0.00000000E+00  0.00000000E+00  0.00000000E+00
  0.00000000E+00  0.00000000E+00  0.00000000E+00
  0.00000000E+00  0.00000000E+00  0.00000000E+00
  0.00000000E+00  0.00000000E+00  0.00000000E+00
  0.00000000E+00  0.00000000E+00  0.00000000E+00
  0.00000000E+00  0.00000000E+00  0.00000000E+00
  0.00000000E+00  0.00000000E+00  0.00000000E+00
  0.00000000E+00  0.00000000E+00  0.00000000E+00
  0.00000000E+00  0.00000000E+00  0.00000000E+00
  0.00000000E+00  0.00000000E+00  0.00000000E+00
  0.00000000E+00  0.00000000E+00  0.00000000E+00
  0.00000000E+00  0.00000000E+00  0.00000000E+00
  0.00000000E+00  0.00000000E+00  0.00000000E+00
  0.00000000E+00  0.00000000E+00  0.00000000E+00
  0.00000000E+00  0.00000000E+00  0.00000000E+00
  0.00000000E+00  0.00000000E+00  0.00000000E+00
  0.00000000E+00  0.00000000E+00  0.00000000E+00
  0.00000000E+00  0.00000000E+00  0.00000000E+00
  0.00000000E+00  0.00000000E+00  0.00000000E+00
  0.00000000E+00  0.00000000E+00  0.00000000E+00
  0.00000000E+00  0.00000000E+00  0.00000000E+00
  0.00000000E+00  0.00000000E+00  0.00000000E+00
  0.00000000E+00  0.00000000E+00  0.00000000E+00
  0.00000000E+00  0.00000000E+00  0.00000000E+00
  0.00000000E+00  0.00000000E+00  0.00000000E+00
  0.00000000E+00  0.00000000E+00  0.00000000E+00
  0.00000000E+00  0.00000000E+00  0.00000000E+00
  0.00000000E+00  0.00000000E+00  0.00000000E+00
  0.00000000E+00  0.00000000E+00  0.00000000E+00
  0.00000000E+00  0.00000000E+00  0.00000000E+00
  0.00000000E+00  0.00000000E+00  0.00000000E+00
  0.00000000E+00  0.00000000E+00  0.00000000E+00
  0.00000000E+00  0.00000000E+00  0.00000000E+00
  0.00000000E+00  0.00000000E+00  0.00000000E+00
  0.00000000E+00  0.00000000E+00  0.00000000E+00
  0.00000000E+00  0.00000000E+00  0.00000000E+00
  0.00000000E+00  0.00000000E+00  0.00000000E+00
  0.00000000E+00  0.00000000E+00  0.00000000E+00
  0.00000000E+00  0.00000000E+00  0.00000000E+00
  0.00000000E+00  0.00000000E+00  0.00000000E+00
  0.00000000E+00  0.00000000E+00  0.00000000E+00
  0.00000000E+00  0.00000000E+00  0.00000000E+00
  0.00000000E+00  0.00000000E+00  0.00000000E+00
  0.00000000E+00  0.00000000E+00  0.00000000E+00
  0.00000000E+00  0.00000000E+00  0.00000000E+00
  0.00000000E+00  0.00000000E+00  0.00000000E+00
  0.00000000E+00  0.00000000E+00  0.00000000E+00
  0.00000000E+00  0.00000000E+00  0.00000000E+00
  0.00000000E+00  0.00000000E+00  0.00000000E+00
  0.00000000E+00  0.00000000E+00  0.00000000E+00
  0.00000000E+00  0.00000000E+00  0.00000000E+00
  0.00000000E+00  0.00000000E+00  0.00000000E+00
  0.00000000E+00  0.00000000E+00  0.00000000E+00
  0.00000000E+00  0.00000000E+00  0.00000000E+00
  0.00000000E+00  0.00000000E+00  0.00000000E+00
  0.00000000E+00  0.00000000E+00  0.00000000E+00
  0.00000000E+00  0.00000000E+00  0.00000000E+00
  0.00000000E+00  0.00000000E+00  0.00000000E+00
  0.00000000E+00  0.00000000E+00  0.00000000E+00
  0.00000000E+00  0.00000000E+00  0.00000000E+00
  0.00000000E+00  0.00000000E+00  0.00000000E+00
  0.00000000E+00  0.00000000E+00  0.00000000E+00
  0.00000000E+00  0.00000000E+00  0.00000000E+00
  0.00000000E+00  0.00000000E+00  0.00000000E+00
  0.00000000E+00  0.00000000E+00  0.00000000E+00
  0.00000000E+00  0.00000000E+00  0.00000000E+00
  0.00000000E+00  0.00000000E+00  0.00000000E+00
  0.00000000E+00  0.00000000E+00  0.00000000E+00
  0.00000000E+00  0.00000000E+00  0.00000000E+00
  0.00000000E+00  0.00000000E+00  0.00000000E+00
  0.00000000E+00  0.00000000E+00  0.00000000E+00
  0.00000000E+00  0.00000000E+00  0.00000000E+00
  0.00000000E+00  0.00000000E+00  0.00000000E+00
  0.00000000E+00  0.00000000E+00  0.00000000E+00
  0.00000000E+00  0.00000000E+00  0.00000000E+00
  0.00000000E+00  0.00000000E+00  0.00000000E+00
  0.00000000E+00  0.00000000E+00  0.00000000E+00
  0.00000000E+00  0.00000000E+00  0.00000000E+00
  0.00000000E+00  0.00000000E+00  0.00000000E+00
  0.00000000E+00  0.00000000E+00  0.00000000E+00
  0.00000000E+00  0.00000000E+00  0.00000000E+00
  0.00000000E+00  0.00000000E+00  0.00000000E+00
  0.00000000E+00  0.00000000E+00  0.00000000E+00
  0.00000000E+00  0.00000000E+00  0.00000000E+00
  0.00000000E+00  0.00000000E+00  0.00000000E+00
  0.00000000E+00  0.00000000E+00  0.00000000E+00
  0.00000000E+00  0.00000000E+00  0.00000000E+00
  0.00000000E+00  0.00000000E+00  0.00000000E+00
  0.00000000E+00  0.00000000E+00  0.00000000E+00
  0.00000000E+00  0.00000000E+00  0.00000000E+00
  0.00000000E+00  0.00000000E+00  0.00000000E+00
  0.00000000E+00  0.00000000E+00  0.00000000E+00
  0.00000000E+00  0.00000000E+00  0.00000000E+00
  0.00000000E+00  0.00000000E+00  0.00000000E+00
  0.00000000E+00  0.00000000E+00  0.00000000E+00
  0.00000000E+00  0.00000000E+00  0.00000000E+00
  0.00000000E+00  0.00000000E+00  0.00000000E+00
  0.00000000E+00  0.00000000E+00  0.00000000E+00
  0.00000000E+00  0.00000000E+00  0.00000000E+00
  0.00000000E+00  0.00000000E+00  0.00000000E+00
  0.00000000E+00  0.00000000E+00  0.00000000E+00
  0.00000000E+00  0.00000000E+00  0.00000000E+00
  0.00000000E+00  0.00000000E+00  0.00000000E+00
  0.00000000E+00  0.00000000E+00  0.00000000E+00
  0.00000000E+00  0.00000000E+00  0.00000000E+00
  0.00000000E+00  0.00000000E+00  0.00000000E+00
  0.00000000E+00  0.00000000E+00  0.00000000E+00
  0.00000000E+00  0.00000000E+00  0.00000000E+00
  0.00000000E+00  0.00000000E+00  0.00000000E+00
  0.00000000E+00  0.00000000E+00  0.00000000E+00
  0.00000000E+00  0.00000000E+00  0.00000000E+00
  0.00000000E+00  0.00000000E+00  0.00000000E+00
  0.00000000E+00  0.00000000E+00  0.00000000E+00
  0.00000000E+00  0.00000000E+00  0.00000000E+00
  0.00000000E+00  0.00000000E+00  0.00000000E+00
  0.00000000E+00  0.00000000E+00  0.00000000E+00
  0.00000000E+00  0.00000000E+00  0.00000000E+00
  0.00000000E+00  0.00000000E+00  0.00000000E+00
  0.00000000E+00  0.00000000E+00  0.00000000E+00
  0.00000000E+00  0.00000000E+00  0.00000000E+00
  0.00000000E+00  0.00000000E+00  0.00000000E+00
  0.00000000E+00  0.00000000E+00  0.00000000E+00
  0.00000000E+00  0.00000000E+00  0.00000000E+00
  0.00000000E+00  0.00000000E+00  0.00000000E+00
  0.00000000E+00  0.00000000E+00  0.00000000E+00
  0.00000000E+00  0.00000000E+00  0.00000000E+00
  0.00000000E+00  0.00000000E+00  0.00000000E+00
  0.00000000E+00  0.00000000E+00  0.00000000E+00
  0.00000000E+00  0.00000000E+00  0.00000000E+00
  0.00000000E+00  0.00000000E+00  0.00000000E+00
  0.00000000E+00  0.00000000E+00  0.00000000E+00
  0.00000000E+00  0.00000000E+00  0.00000000E+00
  0.00000000E+00  0.00000000E+00  0.00000000E+00
  0.00000000E+00  0.00000000E+00  0.00000000E+00
  0.00000000E+00  0.00000000E+00  0.00000000E+00
  0.00000000E+00  0.00000000E+00  0.00000000E+00
  0.00000000E+00  0.00000000E+00  0.00000000E+00
  0.00000000E+00  0.00000000E+00  0.00000000E+00
  0.00000000E+00  0.00000000E+00  0.00000000E+00
  0.00000000E+00  0.00000000E+00  0.00000000E+00
  0.00000000E+00  0.00000000E+00  0.00000000E+00
  0.00000000E+00  0.00000000E+00  0.00000000E+00
  0.00000000E+00  0.00000000E+00  0.00000000E+00
  0.00000000E+00  0.00000000E+00  0.00000000E+00
  0.00000000E+00  0.00000000E+00  0.00000000E+00
  0.00000000E+00  0.00000000E+00  0.00000000E+00
  0.00000000E+00  0.00000000E+00  0.00000000E+00
  0.00000000E+00  0.00000000E+00  0.00000000E+00
  0.00000000E+00  0.00000000E+00  0.00000000E+00
  0.00000000E+00  0.00000000E+00  0.00000000E+00
  0.00000000E+00  0.00000000E+00  0.00000000E+00
  0.00000000E+00  0.00000000E+00  0.00000000E+00
  0.00000000E+00  0.00000000E+00  0.00000000E+00
  0.00000000E+00  0.00000000E+00  0.00000000E+00
  0.00000000E+00  0.00000000E+00  0.00000000E+00
  0.00000000E+00  0.00000000E+00  0.00000000E+00
  0.00000000E+00  0.00000000E+00  0.00000000E+00
  0.00000000E+00  0.00000000E+00  0.00000000E+00
  0.00000000E+00  0.00000000E+00  0.00000000E+00
  0.00000000E+00  0.00000000E+00  0.00000000E+00
  0.00000000E+00  0.00000000E+00  0.00000000E+00
  0.00000000E+00  0.00000000E+00  0.00000000E+00
  0.00000000E+00  0.00000000E+00  0.00000000E+00
  0.00000000E+00  0.00000000E+00  0.00000000E+00
  0.00000000E+00  0.00000000E+00  0.00000000E+00