CuInSe2gb                               
   1.00000000000000     
     9.7266780392896699    0.0000000000000000    0.0000000000000000
     0.0000000000000000    8.4235502764570693    0.0000000000000000
     0.0000000000000000    0.0000000000000000   45.0000000000000000
   Fe   Mn
   274    14
Direct
  0.0615322006316879  0.0326140243116898  0.1244855465288334
  0.3142168030210925  0.8742407000198487  0.6550780020703700
  0.1859490966801252  0.1247264650915457  0.7884570799242460
  0.4406100657534694  0.2881174627634818  0.3894144124354620
  0.3152761660755448  0.7118214409320210  0.8336133457626467
  0.8157332080973645  0.2121778098520638  0.8336541171594904
  0.1895847063068648  0.9621592577884152  0.8339426079484654
  0.5616828791696045  0.2063014347681525  0.5657214632813273
  0.0640997529582816  0.0413925019900929  0.7440780073616936
  0.8109572725880255  0.8722679382045002  0.5218017150364859
  0.1889897595542041  0.2913040851608874  0.7441508019522901
  0.9364478946934249  0.4538294193292165  0.3449469976272502
  0.9397230528171074  0.2877655684704581  0.3893057871512367
  0.8123258079641807  0.0453325625908915  0.8755077457091808
  0.1855931664991918  0.7889552211918890  0.6105181601685288
  0.5647640912743043  0.0381425315763500  0.3893666251737606
  0.9413470063602348  0.9618323453424825  0.8337584497392665
  0.3134071542052155  0.5438930719506002  0.8755327717661753
  0.6888209217310133  0.2912053158549096  0.7441091654019270
  0.1846731323822843  0.6157490441156629  0.1663478259305704
  0.8121162184613301  0.2054445333832819  0.4783041418496158
  0.8103396925472927  0.5389011144164845  0.6105895221279042
  0.3126653182497963  0.8717738992932813  0.4343285036987461
  0.8115381817894343  0.0373781093460014  0.2558728179775518
  0.6864920970914569  0.9535351919456045  0.3449040969070918
  0.9333146236097706  0.1157085310029937  0.1665692156876169
  0.0625301622841509  0.8725807795619501  0.5217305850582533
  0.5610578004220332  0.5374284197146798  0.2557788460922423
  0.6869106382097956  0.7939487802732940  0.8755808086694700
  0.5583202799770688  0.3661071411845969  0.1661801624057999
  0.4390371739301961  0.7917338266001203  0.7441401230618058
  0.8115636632447715  0.7063383990695650  0.5657202933104151
  0.5610030211109772  0.8741154439648264  0.7883012410897994
  0.6862668911303160  0.1221427113663836  0.5217360113748865
  0.8141711176992940  0.3740731374770827  0.6550755762859826
  0.9407787200922307  0.4625674771492664  0.8337081120408789
  0.0615878277834293  0.2072433940384469  0.6998353231214156
  0.4366684138214715  0.9571330264656397  0.6998491460513708
  0.3148748476733640  0.2118747068912993  0.8338532313217181
  0.4392497027048170  0.6245591433776929  0.6549842346754787
  0.3106243460223038  0.5391345360914011  0.6105025948433463
  0.9366737961383093  0.4561471595048305  0.5657971713404659
  0.6889605265557568  0.7915624981629719  0.7440894181315871
  0.9342085929627705  0.7836521358783439  0.1248147525975329
  0.6903538900287799  0.7878352724269456  0.3893220492065820
  0.9388341206111646  0.7913485583423323  0.7440979809885351
  0.0619104711348646  0.2039404798725987  0.3448980898943916
  0.6868164615311647  0.4535201445580180  0.3449063221098559
  0.4358747254976323  0.1242334474227120  0.7884898393723406
  0.0632744192263726  0.2030210120377495  0.2115550765309569
  0.0572758212695462  0.3658277316412586  0.1661379792752466
  0.9360639183919507  0.7876750675851003  0.2557612725321088
  0.5617746229170610  0.2074007667753866  0.6998037505276303
  0.6866913826648492  0.9573375147769495  0.6998376762114076
  0.8106031255542331  0.8740043145264700  0.7882628766514852
  0.4367109784104419  0.9562288122216550  0.5657994523437937
  0.8106691728853198  0.3743454537978344  0.7882837646568045
  0.6862788389229302  0.2871579230346840  0.2559144669978731
  0.1865737467893688  0.4563738393039419  0.5657444080794191
  0.0585843550893003  0.8661978846833115  0.1663096261905843
  0.1855151426235757  0.2889662059748265  0.6105593720244497
  0.0618285531954814  0.2065659962993922  0.5657556212149163
  0.3114999508924596  0.2072527903985674  0.6998323444097724
  0.5637914612304573  0.5443108965828719  0.8754783763487497
  0.0616511268898982  0.7063236330154531  0.5657335902573550
  0.6855831375883222  0.6244012426178691  0.7883592354162662
  0.3149162711576460  0.5375133762287120  0.3893708918594772
  0.1868588168029060  0.6225213074538689  0.5217778519275773
  0.5624572483561024  0.8715690720449443  0.4342481876076889
  0.4366645494235477  0.4564693012918900  0.5657893159322301
  0.4389753371050822  0.2916258301768533  0.7441447359025594
  0.8168884051844916  0.8727648502058024  0.3001962820542231
  0.8113639297807109  0.7031095111596087  0.3449595285876241
  0.4405365991879087  0.4613517912497392  0.8337443530337086
  0.6874767515292652  0.9550719183772712  0.4783064021397057
  0.6867804080333240  0.4574683116165491  0.6998659584411704
  0.5619268007072731  0.8725830687412039  0.5217475666445026
  0.5642877636001170  0.3741526886252337  0.6550048402849327
  0.8140964435401099  0.8742971809426469  0.6550592843007319
  0.8117933267520708  0.3711459297826391  0.4341238882162533
  0.8111812452512144  0.5370095583059546  0.2559689810644428
  0.6906014313507056  0.4617343727915246  0.8336352079250202
  0.1857192618819660  0.7835495922213548  0.1243629258616367
  0.6897013948841121  0.2878487949655270  0.3893045287904986
  0.3139522292222623  0.3742999423349502  0.6549879814753390
  0.3115751468358352  0.2036650514030467  0.3449334065398563
  0.8140020029020310  0.5414892417212709  0.7440303680500719
  0.6908131457877168  0.9614949344598003  0.8337959245137528
  0.5641121106876086  0.8742278371149602  0.6550615401329222
  0.3117549276982844  0.7065019832247933  0.5657184662882112
  0.3103109256791266  0.5334085822023097  0.1242625772938872
  0.6885905975488140  0.9540097912281218  0.2117362186729509
  0.3117167639924686  0.2063476294862568  0.5657426700841447
  0.1873330175447494  0.9553644191231467  0.4783453363855710
  0.6869876386891254  0.9562398246065874  0.5657872332003665
  0.4355251118005635  0.7891880741020845  0.6104474189101375
  0.6825622972232247  0.6143643272493563  0.1663443471054549
  0.3165600838196599  0.8723493444139259  0.3001949323405787
  0.3121675168383938  0.7055564686748472  0.4782128725307738
  0.9355207040255643  0.2888548707440728  0.6105160214471282
  0.4418561299422206  0.6222276143066419  0.3002901989280447
  0.8085186076610669  0.8651559354531501  0.1665069284861447
  0.5643181568215406  0.2028359496310727  0.2118124457415216
  0.9341450066700009  0.6145101121498812  0.1665223728472447
  0.4374066693957743  0.9549429646205981  0.4782492620941760
  0.5607844080248024  0.3737256016899034  0.7884049765130345
  0.0616596032552240  0.3728303420726155  0.5217037804228359
  0.3083048953711841  0.3653733904746311  0.1661006570830328
  0.6921743304711746  0.1220852637839817  0.3003215238322829
  0.4409003324321117  0.9616777862006561  0.8337373079358047
  0.1848740508783376  0.2832087083106829  0.1247117427470616
  0.1862532910332800  0.2866319937431720  0.2558754786358888
  0.3127996611262628  0.3712314815705086  0.4342574241334277
  0.5610156556209508  0.0334243953349697  0.1245049905449676
  0.4354492716143145  0.2890740932989880  0.6104930356443367
  0.1865344003420289  0.4535135228711097  0.3449288477317041
  0.4338573276332121  0.2829453930061557  0.1246656940168596
  0.6862718885528203  0.7877523161864586  0.2559561892643321
  0.4368612996114256  0.1230594677191213  0.5216862166347696
  0.1885797364184956  0.2937307150556302  0.8757298067967553
  0.1890890897214455  0.1242476555474739  0.6550605772461445
  0.9392558333012300  0.1243488294633905  0.6550341339062986
  0.8148667153762557  0.5375633437356420  0.3893190079861544
  0.0650620089517647  0.0383107703468167  0.3893580760575344
  0.1835740989052320  0.1144102012183221  0.1665097269808474
  0.0605602472987963  0.5386326369486497  0.6105534639176700
  0.9362781993987483  0.2870534174428738  0.2558001511866005
  0.5603943681102290  0.5392460492481124  0.6104999593093005
  0.9367604976173719  0.9558772067106408  0.5657473588113161
  0.6916760977917158  0.6226488209559952  0.3003832180076008
  0.9374122041786090  0.6214259858584367  0.4341906900904227
  0.9353067729554366  0.6247363167704115  0.7884490551406699
  0.5616105977003524  0.7070923395346838  0.6997924567723269
  0.0648068761114306  0.7128364816456366  0.8337350463900725
  0.9420071766738489  0.1224503962846191  0.3002262760112923
  0.9353847299755489  0.7888586555317151  0.6105560429579682
  0.4363038199665871  0.7877743592460305  0.2560060056796128
  0.3108359902454763  0.3738808807212518  0.7884255213096669
  0.4385423346995147  0.4537606000002078  0.2116183511401738
  0.1869241629981730  0.1224499686041914  0.5217461213291122
  0.8114251666541999  0.7076729226421629  0.6998529591242111
  0.0603760531035376  0.0391732690401144  0.6104660009035248
  0.5654030652347702  0.2119984838045630  0.8336942027265002
  0.3116005293053432  0.8724641130465757  0.5218155284761317
  0.6856597255077395  0.2829465877931288  0.1244081866637396
  0.1884344940710909  0.9549328304083552  0.2117480555822653
  0.6854516261223833  0.2890351085235497  0.6105189919178275
  0.3104501911821080  0.0391291326584440  0.6105326486009385
  0.9356244621372737  0.1252132047829451  0.7883193846990214
  0.4376005283777942  0.7932613813836089  0.8756552218276296
  0.8139271497130200  0.0415310211036756  0.7440580058843566
  0.9363876550979742  0.4574338385527974  0.6998250438631441
  0.1893055840279738  0.6242377009826745  0.6550747456400057
  0.3116530778995159  0.7073885319456710  0.6998473445721926
  0.9344002344543371  0.2830893796436120  0.1244497536084229
  0.4370950188268129  0.4544183584888638  0.4782544883107849
  0.0624124239277472  0.7043800040196194  0.4783405023965502
  0.9372978746809992  0.1212123638995723  0.4345017469232815
  0.4420808889721439  0.1216042861018519  0.3002264313054994
  0.1874143805070509  0.1211523204308727  0.4341187920741455
  0.5636837927820144  0.0442454811921210  0.8755906881132575
  0.1863100412837280  0.9563518115991966  0.5657788880685691
  0.6850817846784150  0.7844391414890769  0.1247314845955861
  0.5618535551385703  0.7036061174188357  0.3449595467430211
  0.3152194361092714  0.0379048453291245  0.3893334018997081
  0.6845222737792162  0.1153953567252252  0.1666853502622982
  0.8142996142147906  0.2030318418998636  0.2116631271862294
  0.0607917802962443  0.5375340836615773  0.2556869777310996
  0.5623520409821749  0.7054537918277801  0.4782464176815336
  0.4347873259679061  0.7838981023107258  0.1242533235882684
  0.5666154268681917  0.3719412940754832  0.3003196434251937
  0.4365089598549728  0.9536698817853250  0.3449060230881474
  0.1863496053969229  0.9573793564421589  0.6998291899151599
  0.4335480017758527  0.6151048996951876  0.1662728014597777
  0.9385432458934712  0.4532661979862685  0.2118263125888199
  0.0606916573463028  0.5324138955898222  0.1243879891241492
  0.8117023576396264  0.3730500206607775  0.5217207959332171
  0.9418158561797981  0.6230776980363355  0.3000880514018948
  0.3114510124387292  0.0370766040835227  0.2558588644313658
  0.6854211728696551  0.7888124636553192  0.6105265475444169
  0.1905487566735098  0.4624895157122075  0.8336901346482667
  0.4344883390970429  0.1140574393687868  0.1666112370037119
  0.3117363507151614  0.3726040525710362  0.5217036888190913
  0.4358712520878121  0.6243920128098805  0.7885451842600761
  0.0611289293664296  0.0373217064772427  0.2558179221945922
  0.5616091306953991  0.7064587355471306  0.5657172122370082
  0.9389204659282485  0.2912049656208884  0.7440266646653355
  0.6857042126093889  0.1247393308416358  0.7884056007597615
  0.1877089164280862  0.4532247842959497  0.2115704485952301
  0.9394984189897033  0.7874313473874377  0.3893337097534769
  0.6878178402210332  0.2940125910447636  0.8756499772860186
  0.5571728716905479  0.8650225129855463  0.1663681470232087
  0.9367284771875073  0.2935168620204153  0.8757225998893402
  0.9370034087229121  0.9533766273804245  0.3448613157888418
  0.6866130746263719  0.6226820251147385  0.5217552682677995
  0.0641738010073407  0.8743008428398711  0.6550337731986374
  0.0607856052858794  0.8742893729126672  0.7884464457203861
  0.0641591218212859  0.3740751237152358  0.6550807507089410
  0.6871125401326759  0.4544983022636008  0.4780850794757041
  0.1857154934168645  0.7878867100745276  0.2559560270241782
  0.4373703512079150  0.1213568596267071  0.4342846148502753
  0.8115202339583242  0.0335670571792164  0.1245572729156520
  0.9365857508883696  0.6224487550128104  0.5217110957275155
  0.4391728211126493  0.1242330384480130  0.6550820161400267
  0.8124134338843626  0.5333522756953619  0.1241174985923231
  0.4369186161580970  0.4538163474401544  0.3449663534102295
  0.8115775320763289  0.2033527781942359  0.3449670472878406
  0.3120584792099847  0.7035237587907813  0.3448846568409396
  0.6891285157410556  0.1244726619895972  0.6550453699213405
  0.5667283450736087  0.8722396184321400  0.3002434709726971
  0.0637566476615519  0.5410767955453727  0.7440673584781999
  0.9389222254352572  0.9542822290890740  0.2116974086899968
  0.8139358454877804  0.7030332773514031  0.2117018563910797
  0.0667047637231692  0.8725122569021387  0.3002805904495033
  0.1916278262805726  0.1225742433701434  0.3001308678377558
  0.0616685985888227  0.7035671398356170  0.3449422728459098
  0.8107209714445405  0.0389529466259808  0.6105152845172687
  0.0625666278201368  0.3710460233430736  0.4341514121145338
  0.5619576390450873  0.2035750905205840  0.3449831895175665
  0.8165270547065560  0.3728304298635798  0.3002455308914508
  0.5617057754771670  0.0380015838854807  0.2559035717081725
  0.5646659380726601  0.5374193893264900  0.3893573856332457
  0.0624956970137523  0.2053528676107644  0.4783057744152432
  0.3111126433625794  0.8739306663528931  0.7881922885107464
  0.9366560441306099  0.9573963529233117  0.6998331881779795
  0.0671801920718188  0.3724658792796136  0.3002749006464434
  0.6887694056349912  0.6243285586588307  0.6550907769304127
  0.6866401671845893  0.4565038620998810  0.5656911389231433
  0.4387170460336171  0.9544640988895470  0.2118069717573887
  0.3121318656147485  0.2052356899394472  0.4782399434284773
  0.8137258367372326  0.5433846027351263  0.8754383356849860
  0.6879860575653624  0.6209818841884650  0.4342017227875061
  0.8115552090750726  0.2071968835344781  0.6998386578108086
  0.8123235691624220  0.7052865676652330  0.4782497497319110
  0.8116837067295899  0.8714759501072842  0.4342264636133819
  0.9369322995180592  0.9547727599113142  0.4783249282215566
  0.5622967922561736  0.2050466629663593  0.4782436240784850
  0.1871141093601510  0.6209033717887458  0.4342855222627534
  0.3141671132746558  0.0414757089267465  0.7440838025804393
  0.9390722905546062  0.6243812235509595  0.6550115439579061
  0.5652451855385540  0.7116379829317979  0.8336036800159936
  0.3169412322654005  0.3720480955399936  0.3003129310432351
  0.3139004588964640  0.5412321330383436  0.7442070387738684
  0.1874761826447432  0.4550420136997532  0.4782259702960992
  0.3142986904632220  0.0451977207670011  0.8755748614204804
  0.1860007227490522  0.4574027093547212  0.6998895071766850
  0.5618723059675534  0.3726965432971177  0.5216912962096373
  0.1894509476088132  0.2879377465520366  0.3893656371910717
  0.3136377943650742  0.2031940162467882  0.2115832113930536
  0.0642830815199862  0.7030797787525069  0.2115109892997693
  0.5622809629976732  0.3712444362621672  0.4342635451353331
  0.4369100249582882  0.6225476894254286  0.5216343278384640
  0.8158615396194202  0.7122964949073857  0.8335054791418748
  0.0611495722368697  0.3749672366222302  0.7882760710865983
  0.4374400745367187  0.2943317594249384  0.8757226873487144
  0.3112227098526707  0.0331229878008285  0.1241068425209474
  0.6875743826211193  0.1216896046398254  0.4342062602538131
  0.1865376515482636  0.9533862160054608  0.3449086426582651
  0.0653126279278702  0.2117931756926419  0.8337234174843610
  0.5605382212618728  0.0390583302399842  0.6105494496203101
  0.6882408375488502  0.4532795142532707  0.2118048246712516
  0.1886864563446987  0.7915754001011861  0.7440657522726722
  0.1918274637204044  0.6224623408906781  0.3002005946673080
  0.4403372478311501  0.7876027020353232  0.3893654005221624
  0.4363108751976990  0.2869740832720549  0.2558099462324950
  0.0637366296044766  0.5432697908155850  0.8755403660499437
  0.5641192441419672  0.0413394523859788  0.7441002301194987
  0.1883195381027645  0.7935153886428363  0.8757216051742676
  0.9372924597924953  0.4547010261993572  0.4782114190435376
  0.5640012942894593  0.5416093375656410  0.7441078579437834
  0.8114164690801063  0.2066644367058554  0.5658107363316126
  0.1858973129492664  0.6246581175424932  0.7884374229114844
  0.0654225805258830  0.5382849588269270  0.3894601289556373
  0.0616273175052376  0.7078667266884056  0.6997814126777768
  0.3108810361322208  0.5369852199472919  0.2557029045965378
  0.3129748621243393  0.7027663570786774  0.2118055641251375
  0.3078404322389642  0.8653063253278090  0.1658182160192342
  0.4369661267938745  0.6211103445281208  0.4341979473794881
  0.8157914167326781  0.0381016672932007  0.3893198143314629
  0.4362467737589891  0.4572760618293589  0.6998668059095901
  0.9370952301885769  0.7921666582471183  0.8754870223956156
  0.0644989382419672  0.0439458928269268  0.8753918558658594
  0.5616693157451190  0.5324352069926435  0.1246104690501933
  0.8074481387260188  0.3657813525605593  0.1657451645779189
  0.0619988613247218  0.8716733171887608  0.4342249463690419
  0.9370017385620767  0.1227926408008020  0.5215508668230282
  0.1907016343478719  0.7869787919464626  0.3891641311269358
  0.5651013172329790  0.7032634560816049  0.2118267465926747
 
  0.00000000E+00  0.00000000E+00  0.00000000E+00
  0.00000000E+00  0.00000000E+00  0.00000000E+00
  0.00000000E+00  0.00000000E+00  0.00000000E+00
  0.00000000E+00  0.00000000E+00  0.00000000E+00
  0.00000000E+00  0.00000000E+00  0.00000000E+00
  0.00000000E+00  0.00000000E+00  0.00000000E+00
  0.00000000E+00  0.00000000E+00  0.00000000E+00
  0.00000000E+00  0.00000000E+00  0.00000000E+00
  0.00000000E+00  0.00000000E+00  0.00000000E+00
  0.00000000E+00  0.00000000E+00  0.00000000E+00
  0.00000000E+00  0.00000000E+00  0.00000000E+00
  0.00000000E+00  0.00000000E+00  0.00000000E+00
  0.00000000E+00  0.00000000E+00  0.00000000E+00
  0.00000000E+00  0.00000000E+00  0.00000000E+00
  0.00000000E+00  0.00000000E+00  0.00000000E+00
  0.00000000E+00  0.00000000E+00  0.00000000E+00
  0.00000000E+00  0.00000000E+00  0.00000000E+00
  0.00000000E+00  0.00000000E+00  0.00000000E+00
  0.00000000E+00  0.00000000E+00  0.00000000E+00
  0.00000000E+00  0.00000000E+00  0.00000000E+00
  0.00000000E+00  0.00000000E+00  0.00000000E+00
  0.00000000E+00  0.00000000E+00  0.00000000E+00
  0.00000000E+00  0.00000000E+00  0.00000000E+00
  0.00000000E+00  0.00000000E+00  0.00000000E+00
  0.00000000E+00  0.00000000E+00  0.00000000E+00
  0.00000000E+00  0.00000000E+00  0.00000000E+00
  0.00000000E+00  0.00000000E+00  0.00000000E+00
  0.00000000E+00  0.00000000E+00  0.00000000E+00
  0.00000000E+00  0.00000000E+00  0.00000000E+00
  0.00000000E+00  0.00000000E+00  0.00000000E+00
  0.00000000E+00  0.00000000E+00  0.00000000E+00
  0.00000000E+00  0.00000000E+00  0.00000000E+00
  0.00000000E+00  0.00000000E+00  0.00000000E+00
  0.00000000E+00  0.00000000E+00  0.00000000E+00
  0.00000000E+00  0.00000000E+00  0.00000000E+00
  0.00000000E+00  0.00000000E+00  0.00000000E+00
  0.00000000E+00  0.00000000E+00  0.00000000E+00
  0.00000000E+00  0.00000000E+00  0.00000000E+00
  0.00000000E+00  0.00000000E+00  0.00000000E+00
  0.00000000E+00  0.00000000E+00  0.00000000E+00
  0.00000000E+00  0.00000000E+00  0.00000000E+00
  0.00000000E+00  0.00000000E+00  0.00000000E+00
  0.00000000E+00  0.00000000E+00  0.00000000E+00
  0.00000000E+00  0.00000000E+00  0.00000000E+00
  0.00000000E+00  0.00000000E+00  0.00000000E+00
  0.00000000E+00  0.00000000E+00  0.00000000E+00
  0.00000000E+00  0.00000000E+00  0.00000000E+00
  0.00000000E+00  0.00000000E+00  0.00000000E+00
  0.00000000E+00  0.00000000E+00  0.00000000E+00
  0.00000000E+00  0.00000000E+00  0.00000000E+00
  0.00000000E+00  0.00000000E+00  0.00000000E+00
  0.00000000E+00  0.00000000E+00  0.00000000E+00
  0.00000000E+00  0.00000000E+00  0.00000000E+00
  0.00000000E+00  0.00000000E+00  0.00000000E+00
  0.00000000E+00  0.00000000E+00  0.00000000E+00
  0.00000000E+00  0.00000000E+00  0.00000000E+00
  0.00000000E+00  0.00000000E+00  0.00000000E+00
  0.00000000E+00  0.00000000E+00  0.00000000E+00
  0.00000000E+00  0.00000000E+00  0.00000000E+00
  0.00000000E+00  0.00000000E+00  0.00000000E+00
  0.00000000E+00  0.00000000E+00  0.00000000E+00
  0.00000000E+00  0.00000000E+00  0.00000000E+00
  0.00000000E+00  0.00000000E+00  0.00000000E+00
  0.00000000E+00  0.00000000E+00  0.00000000E+00
  0.00000000E+00  0.00000000E+00  0.00000000E+00
  0.00000000E+00  0.00000000E+00  0.00000000E+00
  0.00000000E+00  0.00000000E+00  0.00000000E+00
  0.00000000E+00  0.00000000E+00  0.00000000E+00
  0.00000000E+00  0.00000000E+00  0.00000000E+00
  0.00000000E+00  0.00000000E+00  0.00000000E+00
  0.00000000E+00  0.00000000E+00  0.00000000E+00
  0.00000000E+00  0.00000000E+00  0.00000000E+00
  0.00000000E+00  0.00000000E+00  0.00000000E+00
  0.00000000E+00  0.00000000E+00  0.00000000E+00
  0.00000000E+00  0.00000000E+00  0.00000000E+00
  0.00000000E+00  0.00000000E+00  0.00000000E+00
  0.00000000E+00  0.00000000E+00  0.00000000E+00
  0.00000000E+00  0.00000000E+00  0.00000000E+00
  0.00000000E+00  0.00000000E+00  0.00000000E+00
  0.00000000E+00  0.00000000E+00  0.00000000E+00
  0.00000000E+00  0.00000000E+00  0.00000000E+00
  0.00000000E+00  0.00000000E+00  0.00000000E+00
  0.00000000E+00  0.00000000E+00  0.00000000E+00
  0.00000000E+00  0.00000000E+00  0.00000000E+00
  0.00000000E+00  0.00000000E+00  0.00000000E+00
  0.00000000E+00  0.00000000E+00  0.00000000E+00
  0.00000000E+00  0.00000000E+00  0.00000000E+00
  0.00000000E+00  0.00000000E+00  0.00000000E+00
  0.00000000E+00  0.00000000E+00  0.00000000E+00
  0.00000000E+00  0.00000000E+00  0.00000000E+00
  0.00000000E+00  0.00000000E+00  0.00000000E+00
  0.00000000E+00  0.00000000E+00  0.00000000E+00
  0.00000000E+00  0.00000000E+00  0.00000000E+00
  0.00000000E+00  0.00000000E+00  0.00000000E+00
  0.00000000E+00  0.00000000E+00  0.00000000E+00
  0.00000000E+00  0.00000000E+00  0.00000000E+00
  0.00000000E+00  0.00000000E+00  0.00000000E+00
  0.00000000E+00  0.00000000E+00  0.00000000E+00
  0.00000000E+00  0.00000000E+00  0.00000000E+00
  0.00000000E+00  0.00000000E+00  0.00000000E+00
  0.00000000E+00  0.00000000E+00  0.00000000E+00
  0.00000000E+00  0.00000000E+00  0.00000000E+00
  0.00000000E+00  0.00000000E+00  0.00000000E+00
  0.00000000E+00  0.00000000E+00  0.00000000E+00
  0.00000000E+00  0.00000000E+00  0.00000000E+00
  0.00000000E+00  0.00000000E+00  0.00000000E+00
  0.00000000E+00  0.00000000E+00  0.00000000E+00
  0.00000000E+00  0.00000000E+00  0.00000000E+00
  0.00000000E+00  0.00000000E+00  0.00000000E+00
  0.00000000E+00  0.00000000E+00  0.00000000E+00
  0.00000000E+00  0.00000000E+00  0.00000000E+00
  0.00000000E+00  0.00000000E+00  0.00000000E+00
  0.00000000E+00  0.00000000E+00  0.00000000E+00
  0.00000000E+00  0.00000000E+00  0.00000000E+00
  0.00000000E+00  0.00000000E+00  0.00000000E+00
  0.00000000E+00  0.00000000E+00  0.00000000E+00
  0.00000000E+00  0.00000000E+00  0.00000000E+00
  0.00000000E+00  0.00000000E+00  0.00000000E+00
  0.00000000E+00  0.00000000E+00  0.00000000E+00
  0.00000000E+00  0.00000000E+00  0.00000000E+00
  0.00000000E+00  0.00000000E+00  0.00000000E+00
  0.00000000E+00  0.00000000E+00  0.00000000E+00
  0.00000000E+00  0.00000000E+00  0.00000000E+00
  0.00000000E+00  0.00000000E+00  0.00000000E+00
  0.00000000E+00  0.00000000E+00  0.00000000E+00
  0.00000000E+00  0.00000000E+00  0.00000000E+00
  0.00000000E+00  0.00000000E+00  0.00000000E+00
  0.00000000E+00  0.00000000E+00  0.00000000E+00
  0.00000000E+00  0.00000000E+00  0.00000000E+00
  0.00000000E+00  0.00000000E+00  0.00000000E+00
  0.00000000E+00  0.00000000E+00  0.00000000E+00
  0.00000000E+00  0.00000000E+00  0.00000000E+00
  0.00000000E+00  0.00000000E+00  0.00000000E+00
  0.00000000E+00  0.00000000E+00  0.00000000E+00
  0.00000000E+00  0.00000000E+00  0.00000000E+00
  0.00000000E+00  0.00000000E+00  0.00000000E+00
  0.00000000E+00  0.00000000E+00  0.00000000E+00
  0.00000000E+00  0.00000000E+00  0.00000000E+00
  0.00000000E+00  0.00000000E+00  0.00000000E+00
  0.00000000E+00  0.00000000E+00  0.00000000E+00
  0.00000000E+00  0.00000000E+00  0.00000000E+00
  0.00000000E+00  0.00000000E+00  0.00000000E+00
  0.00000000E+00  0.00000000E+00  0.00000000E+00
  0.00000000E+00  0.00000000E+00  0.00000000E+00
  0.00000000E+00  0.00000000E+00  0.00000000E+00
  0.00000000E+00  0.00000000E+00  0.00000000E+00
  0.00000000E+00  0.00000000E+00  0.00000000E+00
  0.00000000E+00  0.00000000E+00  0.00000000E+00
  0.00000000E+00  0.00000000E+00  0.00000000E+00
  0.00000000E+00  0.00000000E+00  0.00000000E+00
  0.00000000E+00  0.00000000E+00  0.00000000E+00
  0.00000000E+00  0.00000000E+00  0.00000000E+00
  0.00000000E+00  0.00000000E+00  0.00000000E+00
  0.00000000E+00  0.00000000E+00  0.00000000E+00
  0.00000000E+00  0.00000000E+00  0.00000000E+00
  0.00000000E+00  0.00000000E+00  0.00000000E+00
  0.00000000E+00  0.00000000E+00  0.00000000E+00
  0.00000000E+00  0.00000000E+00  0.00000000E+00
  0.00000000E+00  0.00000000E+00  0.00000000E+00
  0.00000000E+00  0.00000000E+00  0.00000000E+00
  0.00000000E+00  0.00000000E+00  0.00000000E+00
  0.00000000E+00  0.00000000E+00  0.00000000E+00
  0.00000000E+00  0.00000000E+00  0.00000000E+00
  0.00000000E+00  0.00000000E+00  0.00000000E+00
  0.00000000E+00  0.00000000E+00  0.00000000E+00
  0.00000000E+00  0.00000000E+00  0.00000000E+00
  0.00000000E+00  0.00000000E+00  0.00000000E+00
  0.00000000E+00  0.00000000E+00  0.00000000E+00
  0.00000000E+00  0.00000000E+00  0.00000000E+00
  0.00000000E+00  0.00000000E+00  0.00000000E+00
  0.00000000E+00  0.00000000E+00  0.00000000E+00
  0.00000000E+00  0.00000000E+00  0.00000000E+00
  0.00000000E+00  0.00000000E+00  0.00000000E+00
  0.00000000E+00  0.00000000E+00  0.00000000E+00
  0.00000000E+00  0.00000000E+00  0.00000000E+00
  0.00000000E+00  0.00000000E+00  0.00000000E+00
  0.00000000E+00  0.00000000E+00  0.00000000E+00
  0.00000000E+00  0.00000000E+00  0.00000000E+00
  0.00000000E+00  0.00000000E+00  0.00000000E+00
  0.00000000E+00  0.00000000E+00  0.00000000E+00
  0.00000000E+00  0.00000000E+00  0.00000000E+00
  0.00000000E+00  0.00000000E+00  0.00000000E+00
  0.00000000E+00  0.00000000E+00  0.00000000E+00
  0.00000000E+00  0.00000000E+00  0.00000000E+00
  0.00000000E+00  0.00000000E+00  0.00000000E+00
  0.00000000E+00  0.00000000E+00  0.00000000E+00
  0.00000000E+00  0.00000000E+00  0.00000000E+00
  0.00000000E+00  0.00000000E+00  0.00000000E+00
  0.00000000E+00  0.00000000E+00  0.00000000E+00
  0.00000000E+00  0.00000000E+00  0.00000000E+00
  0.00000000E+00  0.00000000E+00  0.00000000E+00
  0.00000000E+00  0.00000000E+00  0.00000000E+00
  0.00000000E+00  0.00000000E+00  0.00000000E+00
  0.00000000E+00  0.00000000E+00  0.00000000E+00
  0.00000000E+00  0.00000000E+00  0.00000000E+00
  0.00000000E+00  0.00000000E+00  0.00000000E+00
  0.00000000E+00  0.00000000E+00  0.00000000E+00
  0.00000000E+00  0.00000000E+00  0.00000000E+00
  0.00000000E+00  0.00000000E+00  0.00000000E+00
  0.00000000E+00  0.00000000E+00  0.00000000E+00
  0.00000000E+00  0.00000000E+00  0.00000000E+00
  0.00000000E+00  0.00000000E+00  0.00000000E+00
  0.00000000E+00  0.00000000E+00  0.00000000E+00
  0.00000000E+00  0.00000000E+00  0.00000000E+00
  0.00000000E+00  0.00000000E+00  0.00000000E+00
  0.00000000E+00  0.00000000E+00  0.00000000E+00
  0.00000000E+00  0.00000000E+00  0.00000000E+00
  0.00000000E+00  0.00000000E+00  0.00000000E+00
  0.00000000E+00  0.00000000E+00  0.00000000E+00
  0.00000000E+00  0.00000000E+00  0.00000000E+00
  0.00000000E+00  0.00000000E+00  0.00000000E+00
  0.00000000E+00  0.00000000E+00  0.00000000E+00
  0.00000000E+00  0.00000000E+00  0.00000000E+00
  0.00000000E+00  0.00000000E+00  0.00000000E+00
  0.00000000E+00  0.00000000E+00  0.00000000E+00
  0.00000000E+00  0.00000000E+00  0.00000000E+00
  0.00000000E+00  0.00000000E+00  0.00000000E+00
  0.00000000E+00  0.00000000E+00  0.00000000E+00
  0.00000000E+00  0.00000000E+00  0.00000000E+00
  0.00000000E+00  0.00000000E+00  0.00000000E+00
  0.00000000E+00  0.00000000E+00  0.00000000E+00
  0.00000000E+00  0.00000000E+00  0.00000000E+00
  0.00000000E+00  0.00000000E+00  0.00000000E+00
  0.00000000E+00  0.00000000E+00  0.00000000E+00
  0.00000000E+00  0.00000000E+00  0.00000000E+00
  0.00000000E+00  0.00000000E+00  0.00000000E+00
  0.00000000E+00  0.00000000E+00  0.00000000E+00
  0.00000000E+00  0.00000000E+00  0.00000000E+00
  0.00000000E+00  0.00000000E+00  0.00000000E+00
  0.00000000E+00  0.00000000E+00  0.00000000E+00
  0.00000000E+00  0.00000000E+00  0.00000000E+00
  0.00000000E+00  0.00000000E+00  0.00000000E+00
  0.00000000E+00  0.00000000E+00  0.00000000E+00
  0.00000000E+00  0.00000000E+00  0.00000000E+00
  0.00000000E+00  0.00000000E+00  0.00000000E+00
  0.00000000E+00  0.00000000E+00  0.00000000E+00
  0.00000000E+00  0.00000000E+00  0.00000000E+00
  0.00000000E+00  0.00000000E+00  0.00000000E+00
  0.00000000E+00  0.00000000E+00  0.00000000E+00
  0.00000000E+00  0.00000000E+00  0.00000000E+00
  0.00000000E+00  0.00000000E+00  0.00000000E+00
  0.00000000E+00  0.00000000E+00  0.00000000E+00
  0.00000000E+00  0.00000000E+00  0.00000000E+00
  0.00000000E+00  0.00000000E+00  0.00000000E+00
  0.00000000E+00  0.00000000E+00  0.00000000E+00
  0.00000000E+00  0.00000000E+00  0.00000000E+00
  0.00000000E+00  0.00000000E+00  0.00000000E+00