CuInSe2gb                               
   1.00000000000000     
     9.7266780392896699    0.0000000000000000    0.0000000000000000
     0.0000000000000000    8.4235502764570693    0.0000000000000000
     0.0000000000000000    0.0000000000000000   45.0000000000000000
   Fe   Mn
   274    14
Direct
  0.0628455972329144  0.0301760573795586  0.1241623866795548
  0.3163424817578909  0.8748193062092858  0.6551242221028304
  0.1826616373210279  0.1241218552813920  0.7887905578908510
  0.4415843464549957  0.2878905495424205  0.3890929604285556
  0.3178105572630052  0.7139979421317707  0.8332428779978753
  0.8179060509996011  0.2151349380307500  0.8337836411382791
  0.1916824473354119  0.9641026345682642  0.8336999401552405
  0.5622318494482762  0.2065742554557496  0.5656160441977062
  0.0659091121138155  0.0407111307611000  0.7443114613617350
  0.8114342094677437  0.8712559297397795  0.5212986205865161
  0.1905248916702455  0.2911514879675373  0.7444004874938035
  0.9335777722081561  0.4525481988721922  0.3447536057304768
  0.9410644539663700  0.2864379200624064  0.3888620289363477
  0.8123581214974781  0.0408612093741184  0.8758499116453397
  0.1838711348159561  0.7881342171110018  0.6108848384569173
  0.5666010879252688  0.0380110894011606  0.3889567585197328
  0.9424357819391245  0.9650235552764961  0.8340041278211955
  0.3137681675019288  0.5410804665016730  0.8761983864034532
  0.6903467132137462  0.2911019607679655  0.7443587358755435
  0.1823597413360846  0.6136944332440334  0.1665747346955747
  0.8119918298840536  0.2059374868297002  0.4786515403015318
  0.8088591906323488  0.5383755827889004  0.6110443791213964
  0.3117307290912393  0.8715391084407543  0.4342539801400932
  0.8100628687142142  0.0374692716636913  0.2558872278090915
  0.6829810963921947  0.9517329443012494  0.3446330855005532
  0.9305682530168473  0.1151633449935280  0.1667596817680259
  0.0616457995158357  0.8711190784091146  0.5213144545832400
  0.5585284790375611  0.5373335569411115  0.2554891973897814
  0.6845991659735186  0.7978524183920860  0.8759980292277316
  0.5572719896783560  0.3636470691063218  0.1667006141990531
  0.4395734623275545  0.7919037258203452  0.7444660152468366
  0.8113652248489370  0.7062853013897896  0.5654269904183785
  0.5581392567112868  0.8743942099027187  0.7887837377679937
  0.6864621220712774  0.1212277148632272  0.5213015113043102
  0.8163404013688772  0.3747299000146668  0.6551677507255094
  0.9427228198597933  0.4642944868084319  0.8339754090749149
  0.0596504161067588  0.2070034890152307  0.6997704250154555
  0.4342928711015218  0.9570156544472601  0.6998575068073559
  0.3172038045591362  0.2130412524288652  0.8334506224467629
  0.4409738072459564  0.6250985370015688  0.6550370934035870
  0.3090022123956128  0.5383673525213820  0.6109500751955402
  0.9366831249306125  0.4565339188148718  0.5655334416776153
  0.6901293189268476  0.7915968887462300  0.7444395333790434
  0.9346752421874062  0.7879039398473738  0.1244580297490323
  0.6920831938153481  0.7880819162049617  0.3889142969080374
  0.9403287663643179  0.7911489419938660  0.7445637729904124
  0.0588716402677315  0.2027020912954391  0.3448385173404692
  0.6837649033649186  0.4522608660812584  0.3449452936579678
  0.4329561019018966  0.1235769029252253  0.7889998322258089
  0.0659394447849072  0.2032757242618801  0.2112154339829305
  0.0556887486441377  0.3650916134374793  0.1666497751772195
  0.9335021408601865  0.7869142061904293  0.2556107269071728
  0.5594111034738670  0.2067878361548100  0.6999018741060203
  0.6838400467787299  0.9568161797885637  0.6999095852005026
  0.8079227687286870  0.8750726036423219  0.7885933354375276
  0.4369775275014816  0.9567937318715577  0.5649941700571502
  0.8080041113894387  0.3752838882570419  0.7886476374571101
  0.6836096900044688  0.2873770071517663  0.2558642907820535
  0.1871474383751792  0.4570411075062568  0.5654556478707320
  0.0568099420250301  0.8642170564885393  0.1666632920549718
  0.1840770491503413  0.2885505587152495  0.6109839767199322
  0.0620214047336930  0.2068371572621076  0.5652297461604686
  0.3093122040404305  0.2069479699265350  0.6998987568872521
  0.5624792140129128  0.5409923128015779  0.8760474900251115
  0.0623380910851655  0.7064704301588904  0.5655325694856521
  0.6823225171910988  0.6233571767948335  0.7887376119141991
  0.3159817836948291  0.5383790267106781  0.3888584562522774
  0.1867068041724101  0.6214486030132944  0.5213428329435932
  0.5629318573053088  0.8709014022513034  0.4343309304430235
  0.4367035220462516  0.4563230892150454  0.5654808693769277
  0.4396077322773651  0.2917074830885057  0.7444036879519662
  0.8213190386794543  0.8734883962952587  0.3001411411518539
  0.8085844178511343  0.7024945429315648  0.3448907613057984
  0.4425735028991334  0.4628793718908622  0.8333825262209714
  0.6876132990147643  0.9556539557053872  0.4786604821553733
  0.6837989103969807  0.4569269381032132  0.6998365505322026
  0.5620902354933485  0.8715405722284510  0.5212859987425406
  0.5662521263686974  0.3748417532142644  0.6551173092163382
  0.8163495802003902  0.8747436896072496  0.6551194020215378
  0.8117280439208977  0.3716439909100207  0.4340961379397192
  0.8088073110657977  0.5373220906948309  0.2558292875718906
  0.6922267418370558  0.4618703464750042  0.8333991880704588
  0.1860092187098806  0.7873694216206552  0.1239853655596478
  0.6912774301365625  0.2874175997848382  0.3889415136570889
  0.3163961296496363  0.3747175062614736  0.6549538178087054
  0.3090088143036194  0.2027272477449535  0.3446010415505043
  0.8159378504584403  0.5408085885505648  0.7444202763769739
  0.6917206409989337  0.9623080718520473  0.8334734594915943
  0.5660734241435819  0.8750208309204559  0.6550496531957941
  0.3114224107974573  0.7067035274108516  0.5655257838326472
  0.3135416620539729  0.5312866844607413  0.1241098042275284
  0.6905449057724017  0.9548488548973291  0.2115214648437140
  0.3113896313169301  0.2065322189310774  0.5656140045460617
  0.1872089323508278  0.9559128426232809  0.4786317918626208
  0.6874563313700981  0.9567854580611362  0.5655645474874187
  0.4339724403250958  0.7885569867039438  0.6108882575860997
  0.6819702936226504  0.6132889262028356  0.1665820448305113
  0.3198695147054632  0.8723003296888442  0.2999967608060908
  0.3124943757687381  0.7055204782642468  0.4785483212600112
  0.9337078988353966  0.2883654216537637  0.6109451340128942
  0.4463468683899325  0.6231757835150694  0.3001281993967518
  0.8070492308348227  0.8634488217274685  0.1667549423064539
  0.5667258138541668  0.2031615055700902  0.2112142604509661
  0.9320673024334005  0.6128143763346985  0.1667062076307748
  0.5630590959159181  0.5309534703468561  0.1242249827752171
  0.5580878840810496  0.3736746764599083  0.7888310305066912
  0.0614696256700651  0.3720700371003853  0.5213171657514546
  0.3067902182738702  0.3634419998297926  0.1667725053645242
  0.6959496522922610  0.1231774279916965  0.3001977088371802
  0.4427895373386659  0.9634358225171510  0.8333851855314289
  0.1858495175841977  0.2860898517533936  0.1242911504248511
  0.1838887208264766  0.2872692937078708  0.2557943186707094
  0.3126275848072884  0.3718874842944466  0.4342807463088014
  0.5629372447812625  0.0320557721509934  0.1242735012391900
  0.4338882513060635  0.2881017066206505  0.6108527286032762
  0.1837035531857071  0.4523366762331336  0.3447990370895266
  0.4351653266754185  0.2864502878030518  0.1242134252940514
  0.6836110122587924  0.7873659088690073  0.2557681376642234
  0.4367903261992329  0.1216852498559986  0.5212628913635848
  0.1886041860362438  0.2970370122173301  0.8763536216693212
  0.1913682648738230  0.1251567283741443  0.6551673670814441
  0.9414873363057280  0.1250983354148199  0.6551624695712206
  0.8165140263766755  0.5378775694072847  0.3888575626015183
  0.0669736780024917  0.0385438057823998  0.3889588661411655
  0.1833797366767242  0.1121598792665212  0.1664816963019873
  0.0586047289324184  0.5377719709784328  0.6109772001046551
  0.9340006356327711  0.2872873621325585  0.2557801113555782
  0.5589235806339229  0.5383090417672610  0.6110305763315557
  0.9368382877085913  0.9571934158867877  0.5654674195140623
  0.6959868578046892  0.6235066408401880  0.3001251696246872
  0.9372018845820138  0.6205443869131256  0.4344619812264537
  0.9323705903072790  0.6249264535730003  0.7885600042526388
  0.5597414166662277  0.7068604562119191  0.6997838240872610
  0.0665703518828607  0.7171966631882034  0.8341094102413775
  0.9456200244321971  0.1224308366148225  0.3000310838876218
  0.9339024024489987  0.7877342286663591  0.6109975889124922
  0.4330793823410675  0.7871470290924782  0.2556024152342290
  0.3082117181138037  0.3742284324893452  0.7887932767091712
  0.4408804950117824  0.4539461364860470  0.2113584093039008
  0.1866573012595991  0.1214442538026115  0.5212409871991874
  0.8094006100446560  0.7070626931010383  0.6998699825208221
  0.0588304035905461  0.0378669778409324  0.6108439064079806
  0.5662407142032184  0.2135146205006126  0.8332931456996739
  0.3114206225937812  0.8713823566935174  0.5213317625646304
  0.6858341452469727  0.2868853015408662  0.1240462437624628
  0.1916285255368036  0.9548621320726091  0.2117076097546103
  0.6841114457749763  0.2885593436352842  0.6109345933673683
  0.3090756717638734  0.0385027007312207  0.6111012356517727
  0.9328744252774887  0.1251419201146202  0.7887912194178706
  0.4365404640005072  0.7980273525753181  0.8762703269223093
  0.8155503844591337  0.0409894394567375  0.7443804059907708
  0.9342943906289821  0.4573165632972866  0.6997867354080709
  0.1910985902915209  0.6252183601991314  0.6551363397523776
  0.3094477085025502  0.7062581654156608  0.6998621602037146
  0.9351191189083896  0.2869174778841039  0.1241895347174877
  0.4374129091646517  0.4555958931743476  0.4784112354401318
  0.0623433894071408  0.7056246463761801  0.4783490235297745
  0.9368509724237901  0.1200296205219563  0.4344861046873992
  0.4453414521620661  0.1224437145355220  0.3003285332658538
  0.1881339424613873  0.1210652809614645  0.4340218430915041
  0.5630094689009546  0.0409861290051544  0.8760783394441075
  0.1866647925307260  0.9568215420657231  0.5655327905016890
  0.6851401367349395  0.7873948600051647  0.1243937029877642
  0.5591155676224570  0.7023856442550296  0.3448103453780343
  0.3161806034388162  0.0372657705947080  0.3887919985372482
  0.6825570911506764  0.1140453814548199  0.1667551035975444
  0.8163118417345596  0.2030682744459514  0.2111741471990510
  0.0594230527603312  0.5368903980583518  0.2557222711746918
  0.5621405709521995  0.7051563103753304  0.4784369705556591
  0.4349663546496620  0.7858721906334551  0.1241919655486357
  0.5698357630751735  0.3717688251922339  0.3000537885185814
  0.4338118103586641  0.9525078297156985  0.3448784303595858
  0.1839893961973868  0.9568703583194720  0.6999183257975184
  0.4302282822977563  0.6155739150677122  0.1665528262696190
  0.9406449657125993  0.4538291139744451  0.2115868121255122
  0.0623895054358378  0.5306607287099985  0.1241729093941245
  0.8118626794931572  0.3717254228808692  0.5213212219206811
  0.9458368819152267  0.6232368883756305  0.2997421634103435
  0.3097662484981266  0.0369928853058091  0.2556063445691281
  0.6839759417164774  0.7881345854946851  0.6109446451835134
  0.1921958652565966  0.4637888168644232  0.8335700774041357
  0.4321807538007699  0.1128517030015779  0.1666258478426074
  0.3115618107879440  0.3718158819749673  0.5213852266853526
  0.4325311642569971  0.6233424109361005  0.7889214090424918
  0.0588222758412806  0.0372773293121183  0.2557083035592606
  0.5620313506027533  0.7065304029868865  0.5656266356258799
  0.9394561653207110  0.2910278429091766  0.7445178199645131
  0.6820612664400335  0.1236100023909155  0.7886241370362946
  0.1908762669361535  0.4533288505238237  0.2111686701686137
  0.9414509026957958  0.7876463911653843  0.3887637773664563
  0.6847832762142123  0.2992889046570738  0.8761996005549795
  0.5567373347739126  0.8635306166705976  0.1666306465087200
  0.4343511255547738  0.4570354341796912  0.6998243159448748
  0.9340650676324133  0.9512467458373609  0.3448067834141599
  0.6866625926389004  0.6209756561686386  0.5212048369575123
  0.0662209860211525  0.8748160433522492  0.6549477601735650
  0.0581883596503714  0.8753095416499036  0.7886656011270589
  0.0660696960590331  0.3746411493231818  0.6550391275613204
  0.6871626597091260  0.4557691611042095  0.4785395070787546
  0.1836619098650618  0.7872359427209021  0.2556225167955424
  0.4372147296708527  0.1210489168163915  0.4343481941849915
  0.8135104285509112  0.0305133424558457  0.1240803409784994
  0.9366737600932822  0.6217373696680650  0.5213803899745996
  0.4414405586010458  0.1247312140060855  0.6548985797625142
  0.8119919553158709  0.5300719306258785  0.1240545612383609
  0.4337443525126943  0.4521385976094606  0.3449535678128230
  0.8091441025138359  0.2024795754306821  0.3449197462688725
  0.3091441674966696  0.7019538346670896  0.3446970534482584
  0.6911885089454063  0.1250832117033238  0.6550307977013696
  0.5709064100563139  0.8730576231716127  0.3000944444996502
  0.0652676847954147  0.5410849181462817  0.7444234320396346
  0.9413199107426421  0.9537960227903872  0.2112348820736294
  0.8162521921731166  0.7031386930693551  0.2112008631234200
  0.0710155905848087  0.8729906526471914  0.3000762297857572
  0.1958812330461968  0.1227994392069675  0.3000922528426764
  0.0583774522578391  0.7024176642572494  0.3448001821386385
  0.8089412557647390  0.0384140701517076  0.6109631813123092
  0.0627747455087926  0.3721592825449609  0.4342806803887674
  0.5588348449572783  0.2024872796149534  0.3446727238406534
  0.8204107289302894  0.3731134601741133  0.3000168782065452
  0.5603975279468194  0.0370907764159468  0.2555706824194416
  0.5664340137024428  0.5379615839744404  0.3888934037153596
  0.0626539364740863  0.2059634595336895  0.4785112519479994
  0.3097414434048811  0.8734976242787252  0.7884922671092297
  0.9344782989874343  0.9574274539246087  0.6997023844040676
  0.0699177351319006  0.3742817083392409  0.3000601397692307
  0.6912402666091141  0.6249302503321853  0.6552106753201401
  0.6865261286550500  0.4565685796133791  0.5653840047200848
  0.4419652518529772  0.9557409644439755  0.2118458702018424
  0.3123588126534874  0.2057486705026801  0.4786309887425794
  0.8122960596382808  0.5405089712025211  0.8758881344031892
  0.6877429118810499  0.6206243395143544  0.4344451024646499
  0.8098605255150815  0.2069524059312381  0.6998951443397804
  0.8122441347269602  0.7057573391363531  0.4785049773340377
  0.8112315582201819  0.8713643943457536  0.4341002276218411
  0.9373915433847719  0.9552974822707222  0.4785299575288698
  0.5623090299630118  0.2056372425275957  0.4785244490885106
  0.1868732066794798  0.6204422405674918  0.4342720459126050
  0.3150335867581932  0.0416452315177777  0.7442069858011305
  0.9411278783234023  0.6251835284440116  0.6549498426185589
  0.5664085591769485  0.7137469488691194  0.8333713392295669
  0.3205564321148647  0.3724364445930571  0.3000996253662260
  0.3151987084687023  0.5412727948940222  0.7443829252668090
  0.1872567586663425  0.4558449971323395  0.4786582802461139
  0.3144747323876195  0.0419472574766160  0.8761090725739363
  0.1842484792994236  0.4572210526858037  0.6997883472276506
  0.5616943966558609  0.3717404522709257  0.5213592818080354
  0.1913611833369095  0.2875283652172791  0.3887931896897432
  0.3159493837092717  0.2035024802244569  0.2112581852590094
  0.0677037308082748  0.7027966392755242  0.2112724922058767
  0.5620667001581657  0.3719421909258888  0.4342681430126449
  0.4366767199002983  0.6216117127673091  0.5212532577656129
  0.8172252993728480  0.7152420052855808  0.8334473802841159
  0.0582266816213559  0.3757109917577761  0.7886198082017325
  0.4364853866498175  0.2986884870176348  0.8765008985144037
  0.3118239895147955  0.0310333651172728  0.1241966022445300
  0.6874432523101108  0.1205672926771989  0.4341357778274837
  0.1835886417584232  0.9523955332736225  0.3449113573584055
  0.0671433776340429  0.2154985884636499  0.8341907626831964
  0.5593749855986673  0.0387038362156923  0.6111130040751511
  0.6902857111210757  0.4544253156385269  0.2118594717800261
  0.1895628947909837  0.7915781152819854  0.7444865438214491
  0.1956639916501297  0.6223699045032008  0.3001883763115896
  0.4414957299113762  0.7876674628471872  0.3890824611833825
  0.4334878028307315  0.2872783288770340  0.2557764241968370
  0.0637678446234770  0.5409708760274431  0.8760437551989899
  0.5658864600846684  0.0412784273495307  0.7443426461280420
  0.1877425700299465  0.7976316155288717  0.8762225813952335
  0.9371627510428069  0.4552747965378612  0.4784888066558671
  0.5652264901920283  0.5415928702714133  0.7441966811971463
  0.8112683326420262  0.2064111898596465  0.5654145903865163
  0.1838078314546521  0.6228813746070874  0.7886460062230410
  0.0676327147508550  0.5387400745337252  0.3890119499313547
  0.0599086397728666  0.7068612280612621  0.6997330073044248
  0.3088088646157371  0.5370352472214850  0.2555640396010143
  0.3155420374137264  0.7022905522405730  0.2121107277513288
  0.3056724093762765  0.8637883546653419  0.1657469071567484
  0.4365414037833764  0.6213008376298497  0.4343271333442892
  0.8180648958560104  0.0391758456104546  0.3889462257987709
  0.9347941597649069  0.2979603463560779  0.8757420966439236
  0.9370908214490236  0.7954834699304216  0.8757706936857143
  0.0656132637396237  0.0390271657607667  0.8759461994786970
  0.4372039746314439  0.9558089208157675  0.4785660881192474
  0.8060741315514628  0.3642476116535937  0.1660127205478329
  0.0625306376854047  0.8720077605640539  0.4343909579675559
  0.9366481729322390  0.1214292259277625  0.5213688782189168
  0.1927695382675398  0.7874638208044386  0.3888306009323759
  0.5673402343672462  0.7030963470591033  0.2120044705600777
 
  0.00000000E+00  0.00000000E+00  0.00000000E+00
  0.00000000E+00  0.00000000E+00  0.00000000E+00
  0.00000000E+00  0.00000000E+00  0.00000000E+00
  0.00000000E+00  0.00000000E+00  0.00000000E+00
  0.00000000E+00  0.00000000E+00  0.00000000E+00
  0.00000000E+00  0.00000000E+00  0.00000000E+00
  0.00000000E+00  0.00000000E+00  0.00000000E+00
  0.00000000E+00  0.00000000E+00  0.00000000E+00
  0.00000000E+00  0.00000000E+00  0.00000000E+00
  0.00000000E+00  0.00000000E+00  0.00000000E+00
  0.00000000E+00  0.00000000E+00  0.00000000E+00
  0.00000000E+00  0.00000000E+00  0.00000000E+00
  0.00000000E+00  0.00000000E+00  0.00000000E+00
  0.00000000E+00  0.00000000E+00  0.00000000E+00
  0.00000000E+00  0.00000000E+00  0.00000000E+00
  0.00000000E+00  0.00000000E+00  0.00000000E+00
  0.00000000E+00  0.00000000E+00  0.00000000E+00
  0.00000000E+00  0.00000000E+00  0.00000000E+00
  0.00000000E+00  0.00000000E+00  0.00000000E+00
  0.00000000E+00  0.00000000E+00  0.00000000E+00
  0.00000000E+00  0.00000000E+00  0.00000000E+00
  0.00000000E+00  0.00000000E+00  0.00000000E+00
  0.00000000E+00  0.00000000E+00  0.00000000E+00
  0.00000000E+00  0.00000000E+00  0.00000000E+00
  0.00000000E+00  0.00000000E+00  0.00000000E+00
  0.00000000E+00  0.00000000E+00  0.00000000E+00
  0.00000000E+00  0.00000000E+00  0.00000000E+00
  0.00000000E+00  0.00000000E+00  0.00000000E+00
  0.00000000E+00  0.00000000E+00  0.00000000E+00
  0.00000000E+00  0.00000000E+00  0.00000000E+00
  0.00000000E+00  0.00000000E+00  0.00000000E+00
  0.00000000E+00  0.00000000E+00  0.00000000E+00
  0.00000000E+00  0.00000000E+00  0.00000000E+00
  0.00000000E+00  0.00000000E+00  0.00000000E+00
  0.00000000E+00  0.00000000E+00  0.00000000E+00
  0.00000000E+00  0.00000000E+00  0.00000000E+00
  0.00000000E+00  0.00000000E+00  0.00000000E+00
  0.00000000E+00  0.00000000E+00  0.00000000E+00
  0.00000000E+00  0.00000000E+00  0.00000000E+00
  0.00000000E+00  0.00000000E+00  0.00000000E+00
  0.00000000E+00  0.00000000E+00  0.00000000E+00
  0.00000000E+00  0.00000000E+00  0.00000000E+00
  0.00000000E+00  0.00000000E+00  0.00000000E+00
  0.00000000E+00  0.00000000E+00  0.00000000E+00
  0.00000000E+00  0.00000000E+00  0.00000000E+00
  0.00000000E+00  0.00000000E+00  0.00000000E+00
  0.00000000E+00  0.00000000E+00  0.00000000E+00
  0.00000000E+00  0.00000000E+00  0.00000000E+00
  0.00000000E+00  0.00000000E+00  0.00000000E+00
  0.00000000E+00  0.00000000E+00  0.00000000E+00
  0.00000000E+00  0.00000000E+00  0.00000000E+00
  0.00000000E+00  0.00000000E+00  0.00000000E+00
  0.00000000E+00  0.00000000E+00  0.00000000E+00
  0.00000000E+00  0.00000000E+00  0.00000000E+00
  0.00000000E+00  0.00000000E+00  0.00000000E+00
  0.00000000E+00  0.00000000E+00  0.00000000E+00
  0.00000000E+00  0.00000000E+00  0.00000000E+00
  0.00000000E+00  0.00000000E+00  0.00000000E+00
  0.00000000E+00  0.00000000E+00  0.00000000E+00
  0.00000000E+00  0.00000000E+00  0.00000000E+00
  0.00000000E+00  0.00000000E+00  0.00000000E+00
  0.00000000E+00  0.00000000E+00  0.00000000E+00
  0.00000000E+00  0.00000000E+00  0.00000000E+00
  0.00000000E+00  0.00000000E+00  0.00000000E+00
  0.00000000E+00  0.00000000E+00  0.00000000E+00
  0.00000000E+00  0.00000000E+00  0.00000000E+00
  0.00000000E+00  0.00000000E+00  0.00000000E+00
  0.00000000E+00  0.00000000E+00  0.00000000E+00
  0.00000000E+00  0.00000000E+00  0.00000000E+00
  0.00000000E+00  0.00000000E+00  0.00000000E+00
  0.00000000E+00  0.00000000E+00  0.00000000E+00
  0.00000000E+00  0.00000000E+00  0.00000000E+00
  0.00000000E+00  0.00000000E+00  0.00000000E+00
  0.00000000E+00  0.00000000E+00  0.00000000E+00
  0.00000000E+00  0.00000000E+00  0.00000000E+00
  0.00000000E+00  0.00000000E+00  0.00000000E+00
  0.00000000E+00  0.00000000E+00  0.00000000E+00
  0.00000000E+00  0.00000000E+00  0.00000000E+00
  0.00000000E+00  0.00000000E+00  0.00000000E+00
  0.00000000E+00  0.00000000E+00  0.00000000E+00
  0.00000000E+00  0.00000000E+00  0.00000000E+00
  0.00000000E+00  0.00000000E+00  0.00000000E+00
  0.00000000E+00  0.00000000E+00  0.00000000E+00
  0.00000000E+00  0.00000000E+00  0.00000000E+00
  0.00000000E+00  0.00000000E+00  0.00000000E+00
  0.00000000E+00  0.00000000E+00  0.00000000E+00
  0.00000000E+00  0.00000000E+00  0.00000000E+00
  0.00000000E+00  0.00000000E+00  0.00000000E+00
  0.00000000E+00  0.00000000E+00  0.00000000E+00
  0.00000000E+00  0.00000000E+00  0.00000000E+00
  0.00000000E+00  0.00000000E+00  0.00000000E+00
  0.00000000E+00  0.00000000E+00  0.00000000E+00
  0.00000000E+00  0.00000000E+00  0.00000000E+00
  0.00000000E+00  0.00000000E+00  0.00000000E+00
  0.00000000E+00  0.00000000E+00  0.00000000E+00
  0.00000000E+00  0.00000000E+00  0.00000000E+00
  0.00000000E+00  0.00000000E+00  0.00000000E+00
  0.00000000E+00  0.00000000E+00  0.00000000E+00
  0.00000000E+00  0.00000000E+00  0.00000000E+00
  0.00000000E+00  0.00000000E+00  0.00000000E+00
  0.00000000E+00  0.00000000E+00  0.00000000E+00
  0.00000000E+00  0.00000000E+00  0.00000000E+00
  0.00000000E+00  0.00000000E+00  0.00000000E+00
  0.00000000E+00  0.00000000E+00  0.00000000E+00
  0.00000000E+00  0.00000000E+00  0.00000000E+00
  0.00000000E+00  0.00000000E+00  0.00000000E+00
  0.00000000E+00  0.00000000E+00  0.00000000E+00
  0.00000000E+00  0.00000000E+00  0.00000000E+00
  0.00000000E+00  0.00000000E+00  0.00000000E+00
  0.00000000E+00  0.00000000E+00  0.00000000E+00
  0.00000000E+00  0.00000000E+00  0.00000000E+00
  0.00000000E+00  0.00000000E+00  0.00000000E+00
  0.00000000E+00  0.00000000E+00  0.00000000E+00
  0.00000000E+00  0.00000000E+00  0.00000000E+00
  0.00000000E+00  0.00000000E+00  0.00000000E+00
  0.00000000E+00  0.00000000E+00  0.00000000E+00
  0.00000000E+00  0.00000000E+00  0.00000000E+00
  0.00000000E+00  0.00000000E+00  0.00000000E+00
  0.00000000E+00  0.00000000E+00  0.00000000E+00
  0.00000000E+00  0.00000000E+00  0.00000000E+00
  0.00000000E+00  0.00000000E+00  0.00000000E+00
  0.00000000E+00  0.00000000E+00  0.00000000E+00
  0.00000000E+00  0.00000000E+00  0.00000000E+00
  0.00000000E+00  0.00000000E+00  0.00000000E+00
  0.00000000E+00  0.00000000E+00  0.00000000E+00
  0.00000000E+00  0.00000000E+00  0.00000000E+00
  0.00000000E+00  0.00000000E+00  0.00000000E+00
  0.00000000E+00  0.00000000E+00  0.00000000E+00
  0.00000000E+00  0.00000000E+00  0.00000000E+00
  0.00000000E+00  0.00000000E+00  0.00000000E+00
  0.00000000E+00  0.00000000E+00  0.00000000E+00
  0.00000000E+00  0.00000000E+00  0.00000000E+00
  0.00000000E+00  0.00000000E+00  0.00000000E+00
  0.00000000E+00  0.00000000E+00  0.00000000E+00
  0.00000000E+00  0.00000000E+00  0.00000000E+00
  0.00000000E+00  0.00000000E+00  0.00000000E+00
  0.00000000E+00  0.00000000E+00  0.00000000E+00
  0.00000000E+00  0.00000000E+00  0.00000000E+00
  0.00000000E+00  0.00000000E+00  0.00000000E+00
  0.00000000E+00  0.00000000E+00  0.00000000E+00
  0.00000000E+00  0.00000000E+00  0.00000000E+00
  0.00000000E+00  0.00000000E+00  0.00000000E+00
  0.00000000E+00  0.00000000E+00  0.00000000E+00
  0.00000000E+00  0.00000000E+00  0.00000000E+00
  0.00000000E+00  0.00000000E+00  0.00000000E+00
  0.00000000E+00  0.00000000E+00  0.00000000E+00
  0.00000000E+00  0.00000000E+00  0.00000000E+00
  0.00000000E+00  0.00000000E+00  0.00000000E+00
  0.00000000E+00  0.00000000E+00  0.00000000E+00
  0.00000000E+00  0.00000000E+00  0.00000000E+00
  0.00000000E+00  0.00000000E+00  0.00000000E+00
  0.00000000E+00  0.00000000E+00  0.00000000E+00
  0.00000000E+00  0.00000000E+00  0.00000000E+00
  0.00000000E+00  0.00000000E+00  0.00000000E+00
  0.00000000E+00  0.00000000E+00  0.00000000E+00
  0.00000000E+00  0.00000000E+00  0.00000000E+00
  0.00000000E+00  0.00000000E+00  0.00000000E+00
  0.00000000E+00  0.00000000E+00  0.00000000E+00
  0.00000000E+00  0.00000000E+00  0.00000000E+00
  0.00000000E+00  0.00000000E+00  0.00000000E+00
  0.00000000E+00  0.00000000E+00  0.00000000E+00
  0.00000000E+00  0.00000000E+00  0.00000000E+00
  0.00000000E+00  0.00000000E+00  0.00000000E+00
  0.00000000E+00  0.00000000E+00  0.00000000E+00
  0.00000000E+00  0.00000000E+00  0.00000000E+00
  0.00000000E+00  0.00000000E+00  0.00000000E+00
  0.00000000E+00  0.00000000E+00  0.00000000E+00
  0.00000000E+00  0.00000000E+00  0.00000000E+00
  0.00000000E+00  0.00000000E+00  0.00000000E+00
  0.00000000E+00  0.00000000E+00  0.00000000E+00
  0.00000000E+00  0.00000000E+00  0.00000000E+00
  0.00000000E+00  0.00000000E+00  0.00000000E+00
  0.00000000E+00  0.00000000E+00  0.00000000E+00
  0.00000000E+00  0.00000000E+00  0.00000000E+00
  0.00000000E+00  0.00000000E+00  0.00000000E+00
  0.00000000E+00  0.00000000E+00  0.00000000E+00
  0.00000000E+00  0.00000000E+00  0.00000000E+00
  0.00000000E+00  0.00000000E+00  0.00000000E+00
  0.00000000E+00  0.00000000E+00  0.00000000E+00
  0.00000000E+00  0.00000000E+00  0.00000000E+00
  0.00000000E+00  0.00000000E+00  0.00000000E+00
  0.00000000E+00  0.00000000E+00  0.00000000E+00
  0.00000000E+00  0.00000000E+00  0.00000000E+00
  0.00000000E+00  0.00000000E+00  0.00000000E+00
  0.00000000E+00  0.00000000E+00  0.00000000E+00
  0.00000000E+00  0.00000000E+00  0.00000000E+00
  0.00000000E+00  0.00000000E+00  0.00000000E+00
  0.00000000E+00  0.00000000E+00  0.00000000E+00
  0.00000000E+00  0.00000000E+00  0.00000000E+00
  0.00000000E+00  0.00000000E+00  0.00000000E+00
  0.00000000E+00  0.00000000E+00  0.00000000E+00
  0.00000000E+00  0.00000000E+00  0.00000000E+00
  0.00000000E+00  0.00000000E+00  0.00000000E+00
  0.00000000E+00  0.00000000E+00  0.00000000E+00
  0.00000000E+00  0.00000000E+00  0.00000000E+00
  0.00000000E+00  0.00000000E+00  0.00000000E+00
  0.00000000E+00  0.00000000E+00  0.00000000E+00
  0.00000000E+00  0.00000000E+00  0.00000000E+00
  0.00000000E+00  0.00000000E+00  0.00000000E+00
  0.00000000E+00  0.00000000E+00  0.00000000E+00
  0.00000000E+00  0.00000000E+00  0.00000000E+00
  0.00000000E+00  0.00000000E+00  0.00000000E+00
  0.00000000E+00  0.00000000E+00  0.00000000E+00
  0.00000000E+00  0.00000000E+00  0.00000000E+00
  0.00000000E+00  0.00000000E+00  0.00000000E+00
  0.00000000E+00  0.00000000E+00  0.00000000E+00
  0.00000000E+00  0.00000000E+00  0.00000000E+00
  0.00000000E+00  0.00000000E+00  0.00000000E+00
  0.00000000E+00  0.00000000E+00  0.00000000E+00
  0.00000000E+00  0.00000000E+00  0.00000000E+00
  0.00000000E+00  0.00000000E+00  0.00000000E+00
  0.00000000E+00  0.00000000E+00  0.00000000E+00
  0.00000000E+00  0.00000000E+00  0.00000000E+00
  0.00000000E+00  0.00000000E+00  0.00000000E+00
  0.00000000E+00  0.00000000E+00  0.00000000E+00
  0.00000000E+00  0.00000000E+00  0.00000000E+00
  0.00000000E+00  0.00000000E+00  0.00000000E+00
  0.00000000E+00  0.00000000E+00  0.00000000E+00
  0.00000000E+00  0.00000000E+00  0.00000000E+00
  0.00000000E+00  0.00000000E+00  0.00000000E+00
  0.00000000E+00  0.00000000E+00  0.00000000E+00
  0.00000000E+00  0.00000000E+00  0.00000000E+00
  0.00000000E+00  0.00000000E+00  0.00000000E+00
  0.00000000E+00  0.00000000E+00  0.00000000E+00
  0.00000000E+00  0.00000000E+00  0.00000000E+00
  0.00000000E+00  0.00000000E+00  0.00000000E+00
  0.00000000E+00  0.00000000E+00  0.00000000E+00
  0.00000000E+00  0.00000000E+00  0.00000000E+00
  0.00000000E+00  0.00000000E+00  0.00000000E+00
  0.00000000E+00  0.00000000E+00  0.00000000E+00
  0.00000000E+00  0.00000000E+00  0.00000000E+00
  0.00000000E+00  0.00000000E+00  0.00000000E+00
  0.00000000E+00  0.00000000E+00  0.00000000E+00
  0.00000000E+00  0.00000000E+00  0.00000000E+00
  0.00000000E+00  0.00000000E+00  0.00000000E+00
  0.00000000E+00  0.00000000E+00  0.00000000E+00
  0.00000000E+00  0.00000000E+00  0.00000000E+00
  0.00000000E+00  0.00000000E+00  0.00000000E+00
  0.00000000E+00  0.00000000E+00  0.00000000E+00
  0.00000000E+00  0.00000000E+00  0.00000000E+00
  0.00000000E+00  0.00000000E+00  0.00000000E+00
  0.00000000E+00  0.00000000E+00  0.00000000E+00
  0.00000000E+00  0.00000000E+00  0.00000000E+00
  0.00000000E+00  0.00000000E+00  0.00000000E+00
  0.00000000E+00  0.00000000E+00  0.00000000E+00
  0.00000000E+00  0.00000000E+00  0.00000000E+00
  0.00000000E+00  0.00000000E+00  0.00000000E+00