CuInSe2gb                               
   1.00000000000000     
     9.7266780392896699    0.0000000000000000    0.0000000000000000
     0.0000000000000000    8.4235502764570693    0.0000000000000000
     0.0000000000000000    0.0000000000000000   45.0000000000000000
   Fe   Mn
   274    14
Direct
  0.0618929097695567  0.0327401347290303  0.1247133999508919
  0.3148834788114060  0.8753817968245050  0.6546330305199404
  0.1857307383338561  0.1226958172597319  0.7882106832668319
  0.4408783366318007  0.2879408045233581  0.3896187083490697
  0.3160760041437242  0.7116908608353627  0.8328180484075974
  0.8168961403077944  0.2124338463467288  0.8330353954800531
  0.1899482936394031  0.9618000074601928  0.8331828989361403
  0.5617831732357609  0.2066952037510364  0.5655820837925285
  0.0640065672185366  0.0404621727372361  0.7440920768738696
  0.8112841814004688  0.8718123222412957  0.5216283636552947
  0.1893243746878542  0.2901221228412624  0.7440589108983459
  0.9354392357552251  0.4531237690402499  0.3449852379530794
  0.9402136249754396  0.2869170986599551  0.3894776116160541
  0.8126879118241528  0.0417956293035230  0.8749762848995252
  0.1846961438219225  0.7890597237054748  0.6103395404152251
  0.5655160710480491  0.0380088818530606  0.3896013316667578
  0.9414683735609948  0.9625241901689949  0.8332259722045129
  0.3138854525042568  0.5413462616633167  0.8753088015626623
  0.6897964666205109  0.2902901388493536  0.7441289148468690
  0.1835725120898441  0.6148475536835776  0.1666662345725649
  0.8120261049501252  0.2053456332233279  0.4786503298957582
  0.8097050168738852  0.5383852240709592  0.6104915466590103
  0.3126969200835215  0.8709061418362775  0.4347329483905264
  0.8108587673290822  0.0380501766893670  0.2559968162055153
  0.6852536327659191  0.9528703300540292  0.3450196035557053
  0.9333746661335988  0.1147785239346868  0.1670162515886498
  0.0620792903128371  0.8718438230717207  0.5216035201435717
  0.5601133632420877  0.5384457510753238  0.2559497870382424
  0.6857988869011007  0.7944757667776576  0.8751399265408421
  0.5565315930650824  0.3665000831806643  0.1666711788701252
  0.4397920592762101  0.7912502923582296  0.7442015173954780
  0.8117374535737851  0.7064635443456178  0.5655452795749775
  0.5613575411798292  0.8732325671897319  0.7882572398112564
  0.6863774688205297  0.1218704381846356  0.5215941008263124
  0.8151576210965923  0.3739897657607685  0.6548064351531474
  0.9411365272738050  0.4619274266365624  0.8331890288759954
  0.0608561802868278  0.2076149949634246  0.6996806647552313
  0.4362002023940199  0.9582692346032917  0.6996605757240069
  0.3157470877738238  0.2104985251497569  0.8331543222309322
  0.4403580532746234  0.6242912639270607  0.6546479445741474
  0.3098758732472757  0.5383276593115002  0.6103294333917791
  0.9368388973505362  0.4560864917623084  0.5655963024561652
  0.6898575571457810  0.7911857267871145  0.7441595128288873
  0.9344476854756762  0.7855856336185317  0.1246736586540743
  0.6907368075464311  0.7877959128249310  0.3895566085349897
  0.9395892940947175  0.7906966161058747  0.7441669653209436
  0.0604799301075281  0.2033019748277539  0.3449949875889441
  0.6852379679607324  0.4529502170198106  0.3451218405903149
  0.4361487522611237  0.1226386344203368  0.7884635289523116
  0.0639859351701547  0.2047533941645796  0.2117899931577841
  0.0574083428896898  0.3664203221658212  0.1667656195516307
  0.9351910357086627  0.7887175826311221  0.2558442200824153
  0.5613851936722432  0.2074540342260942  0.6996922340388076
  0.6862435026541183  0.9579672697640357  0.6997483958471560
  0.8105878865437863  0.8733251979529094  0.7881668720773648
  0.4366510244447536  0.9568958544842602  0.5655583208535986
  0.8108623986569579  0.3731919534354239  0.7880682472961444
  0.6853502241172811  0.2885205930316544  0.2559893631854905
  0.1870031868940531  0.4564464918670086  0.5655333490926708
  0.0572263420558548  0.8663649898629836  0.1667617585407445
  0.1850766328566389  0.2881623870614599  0.6104953059107759
  0.0623130594722812  0.2066491899100604  0.5655439743839800
  0.3111158853870082  0.2076832316279258  0.6997104731925016
  0.5640781606152692  0.5416293712391271  0.8752198260190469
  0.0619970524168498  0.7064188094427504  0.5655720766491111
  0.6857288345631340  0.6224410925905497  0.7881099750996055
  0.3153291431254360  0.5378532044425888  0.3894861132724174
  0.1870145044292070  0.6219412092797489  0.5216753594146235
  0.5623385691806513  0.8709998210452287  0.4347165579855251
  0.4366927854838519  0.4565313941972984  0.5655787942902698
  0.4398626215704218  0.2906206793238554  0.7441473387027449
  0.8177516545120910  0.8740098942530791  0.3001830821592359
  0.8102870138454104  0.7032525975796569  0.3451305900979568
  0.4410663099144497  0.4610564046863588  0.8330685135422121
  0.6875160365995453  0.9553353378646943  0.4786472047694698
  0.6862016556608275  0.4572721470506377  0.6997675261849391
  0.5618060801326298  0.8722210307601126  0.5216055932653363
  0.5654916994152276  0.3737520925390436  0.6546621786984917
  0.8153110800275900  0.8747265821919478  0.6548553391726885
  0.8117634157911214  0.3705518185241179  0.4345261101908451
  0.8106718978059477  0.5383535376717645  0.2560375888325240
  0.6913195138460508  0.4609254399622160  0.8329154573674683
  0.1859954037693843  0.7854608145451426  0.1243613167320664
  0.6903131360982381  0.2874339298200479  0.3895299082660941
  0.3148363544131684  0.3737445130126907  0.6546602204167635
  0.3102599308251837  0.2033155827773305  0.3449308703065965
  0.8147851440936705  0.5400816997351834  0.7440569021351999
  0.6909545337500497  0.9616326955958842  0.8329899986098118
  0.5652915944633619  0.8749057828385033  0.6547732692908660
  0.3115953143332445  0.7068390606053210  0.5655441737321538
  0.3112481076222982  0.5335306183688677  0.1243799051580268
  0.6885161224669185  0.9554352478691289  0.2121335302040696
  0.3115504643634401  0.2064771255898686  0.5656100360729338
  0.1872890837496434  0.9555051208328473  0.4787284348610497
  0.6872183675363112  0.9567743029076539  0.5655617942230605
  0.4345549943356789  0.7888646760124817  0.6103038873966075
  0.6832760273290487  0.6143755245385323  0.1668215188889370
  0.3170604670677474  0.8731862719355534  0.3001614704443347
  0.3120882964225067  0.7054641622487078  0.4786156187271297
  0.9349646766995796  0.2880977476446346  0.6104792616438802
  0.4424882237231348  0.6236036584607622  0.3003766098974451
  0.5617216265289251  0.5324807503747359  0.1245663053783648
  0.5652017172486633  0.2046320847064349  0.2117842766367916
  0.9336184115007282  0.6147749945382672  0.1668610633116681
  0.4372890040567601  0.9553070625969990  0.4786260760557713
  0.5614500628835146  0.3720157026856399  0.7882340255815378
  0.0616470940092326  0.3724297656501461  0.5216088175664575
  0.3067076867501059  0.3653043016374184  0.1668536595996927
  0.6927051342674576  0.1236085049977004  0.3002967045009783
  0.4418244488233242  0.9612907667963986  0.8330458236234540
  0.1853650325185116  0.2857547327098303  0.1246900501685439
  0.1848942302080647  0.2882753599964756  0.2560773838218399
  0.3125780627399914  0.3705813220958395  0.4346849624967983
  0.5613564987459153  0.0331185423324899  0.1247708232257148
  0.4346640726222595  0.2884063664299783  0.6103780533058374
  0.1855941064648474  0.4536821572470685  0.3450201977107778
  0.4337783615731897  0.2858227239296002  0.1246763696261900
  0.6858027525580985  0.7885339147259225  0.2560098162863391
  0.4366745668279535  0.1221646078295967  0.5215951800177978
  0.1888205425231655  0.2932022160733500  0.8753679513355084
  0.1897994402755634  0.1246336148327939  0.6547299028885466
  0.9402783133334008  0.1242836469430264  0.6548056455958996
  0.8152430933359922  0.5373779078276466  0.3895353310761387
  0.0657000059095003  0.0380199284003186  0.3894823686402274
  0.1833772522537737  0.1147223914271145  0.1668806320230435
  0.0597664986789837  0.5382565425495801  0.6104169847210562
  0.9356906210815549  0.2885191655280603  0.2559008993303404
  0.5597132107744903  0.5383480148527672  0.6103529398982417
  0.9371176817089315  0.9565002882042790  0.5655867061380750
  0.6925823321996324  0.6239393658409159  0.3002566649502885
  0.9373659068286848  0.6205528764427356  0.4347106734965520
  0.9352369816019687  0.6240614665506292  0.7880326723581736
  0.5614522810104186  0.7073721087490107  0.6997355104749667
  0.0650299567890016  0.7138153401428942  0.8333008126706141
  0.9431367163883536  0.1236034087780567  0.3001856692620284
  0.9350157731303486  0.7883825887279391  0.6105145362386486
  0.4349811311111526  0.7889598494051970  0.2560574515352385
  0.3111225467717490  0.3718185707070752  0.7881823424640431
  0.4391042276666698  0.4548320062400487  0.2119026555843062
  0.1869856808067023  0.1220018274548623  0.5216579975474354
  0.8114571162955729  0.7077393439582631  0.6997439483772739
  0.0600039139518135  0.0386205393212019  0.6104293890079703
  0.5655844280895636  0.2112191583316359  0.8328185669806587
  0.3116813278616661  0.8720644225361026  0.5216680492315571
  0.6845745521505083  0.2860224814363420  0.1245198559447608
  0.1884829722332712  0.9557517740692935  0.2120446164961757
  0.6843798616889459  0.2886870120662285  0.6105399680385443
  0.3095345642035246  0.0388139231186347  0.6104528318151291
  0.9358510616627495  0.1238763809909118  0.7882433439601045
  0.4374215595317312  0.7942767821629734  0.8752903857579640
  0.8148041598240549  0.0409040346914545  0.7440363657409623
  0.9359943428634538  0.4574229949755035  0.6997293364127999
  0.1896236090090095  0.6245380361422219  0.6547307004888318
  0.3108387935481743  0.7077538970234574  0.6996779405148883
  0.9355250225525386  0.2858040302478021  0.1246222305664548
  0.4372870846748523  0.4550469573719693  0.4785898127079804
  0.0622561688268544  0.7049795938406668  0.4786556360963307
  0.9369694240446205  0.1205165626429111  0.4349194627427550
  0.4420186277489934  0.1239153816004139  0.3003253807853882
  0.1874106702342506  0.1206218602390906  0.4346015830651538
  0.5639219178687397  0.0411830729141170  0.8753371615988738
  0.1866784373677175  0.9569188472494422  0.5656342995408559
  0.6852848274569961  0.7860636923752470  0.1246114548517522
  0.5601282665239790  0.7029219994491404  0.3451110498901316
  0.3153634011690143  0.0373667247112943  0.3895432821581237
  0.6836304394275268  0.1141054234555898  0.1670067062882180
  0.8150187729696661  0.2041183060689944  0.2119341214080329
  0.0601008999196816  0.5383060603647816  0.2558919919079655
  0.5623676366046765  0.7055175490754343  0.4786273268162036
  0.4332803186415214  0.7852760883251434  0.1245292124216433
  0.5667766818368530  0.3734755677424401  0.3002445152553924
  0.4349296283616694  0.9531358819559603  0.3450649388678660
  0.1854853992181958  0.9582170071735578  0.6997616431421237
  0.4317387513030096  0.6159857946655265  0.1667050961014234
  0.9397109498128264  0.4550852894013447  0.2120261257640396
  0.0615792018980028  0.5322999794820249  0.1245739595392399
  0.8117469622969889  0.3723381817810778  0.5215823193246671
  0.9428607400244080  0.6239127336440180  0.3000289356822245
  0.3102819185285592  0.0376743934292742  0.2559614063134162
  0.6847148476923705  0.7884707100095211  0.6104504356769351
  0.1904849952670884  0.4618435692151625  0.8330865023842421
  0.4327339383235919  0.1151030817651024  0.1668691321486710
  0.3114230093053778  0.3720185838699574  0.5216456792919673
  0.4358516980820175  0.6225649758938354  0.7884078040411386
  0.0599372691425697  0.0384053347876654  0.2559754442675433
  0.5617514781995108  0.7065379513176143  0.5655499792365898
  0.9392730008433020  0.2897167573461373  0.7441008392363883
  0.6850510196689223  0.1233763043981803  0.7881985889325753
  0.1884604711409533  0.4547581383051723  0.2117405489888872
  0.9401892450742608  0.7875277270616484  0.3894701436171128
  0.6867417908181583  0.2948748982570817  0.8753294578508176
  0.5562988004902154  0.8663234487452914  0.1667845757370518
  0.4363598582761026  0.4570080548144543  0.6996798156098064
  0.9359299601880532  0.9527184123189608  0.3450810959517037
  0.6864151807485719  0.6219285938370388  0.5215538031019483
  0.0647848827073509  0.8749019543685553  0.6547497540245039
  0.0608949990936585  0.8736352603016241  0.7882308659581150
  0.0648553538567554  0.3738089656378981  0.6547795487552678
  0.6872400773931361  0.4549388789003441  0.4785834131249763
  0.1851115215326090  0.7890370291080895  0.2560274853845136
  0.4372587272588488  0.1207934531487250  0.4346861949803180
  0.8117763203842780  0.0331562205764148  0.1245429310942751
  0.9366022832086549  0.6219487755281038  0.5215965695338023
  0.4402297106290509  0.1247024615303871  0.6546957665978588
  0.8115936509455766  0.5337317200785056  0.1243615152115917
  0.4352749926662667  0.4535623301723259  0.3450874441124891
  0.8104115402001199  0.2028475756267946  0.3451792229813082
  0.3104228003004006  0.7029263428583555  0.3450100883486928
  0.6902243633192517  0.1245947686961712  0.6548394148530780
  0.5673935440660327  0.8734682313130389  0.3002757555171895
  0.0638770110089849  0.5399830579633628  0.7440367818743819
  0.9405001658396266  0.9552404954917554  0.2119793796939256
  0.8153371926237603  0.7037255246832270  0.2118156013288616
  0.0677289546950647  0.8735034845186779  0.3002705513060588
  0.1926604362532047  0.1240331949238418  0.3002135617724453
  0.0606514770615441  0.7031852824413294  0.3449949020467923
  0.8101532479407986  0.0385922937207701  0.6105028582708442
  0.0626500149500873  0.3707269889487221  0.4346400104700093
  0.5605774609837059  0.2031669146310391  0.3450973651343144
  0.8177294946143252  0.3742022478128590  0.3001651650305019
  0.5606067731834199  0.0385318369374493  0.2559865904944812
  0.5652520601112765  0.5373095634913369  0.3895165850400785
  0.0625045655254965  0.2052938630693931  0.4786535190783453
  0.3116444424982538  0.8725186692476250  0.7880829520834545
  0.9360531912648563  0.9580065525322888  0.6996882216173682
  0.0681859919035044  0.3739656980835238  0.3002165187558595
  0.6903599194963953  0.6243615071979247  0.6547942444570142
  0.6867437683042574  0.4564537936646951  0.5655234278113221
  0.4396222449151552  0.9559335633987274  0.2121667639261920
  0.3122400570632311  0.2049649541712047  0.4786595676677096
  0.8133654039159084  0.5410777448410568  0.8751580435412505
  0.6877126742049969  0.6206905295735378  0.4346821556007365
  0.8113509614353774  0.2074343291464623  0.6997566504458105
  0.8123428558591504  0.7054369967994630  0.4786417510915690
  0.8114245276066917  0.8713993405234820  0.4345813262545140
  0.9370446873430546  0.9548528221538457  0.4787019856337642
  0.5623760387023785  0.2049132473133896  0.4786284542954501
  0.1872697811244367  0.6203379266554691  0.4346935284558910
  0.3142426086695879  0.0412740695536364  0.7440837911886177
  0.9399865991639419  0.6247163133584017  0.6547759287125516
  0.5658926596942714  0.7119177511548120  0.8329501557353546
  0.3174610875735882  0.3729426877761797  0.3002937633088577
  0.5649985903521669  0.7042911016918777  0.2119639835296241
  0.1872420890150308  0.4551006039205762  0.4786528795111766
  0.3149467379130374  0.0421805480253825  0.8751965061200919
  0.1853148499996332  0.4572573415897575  0.6996500907418666
  0.5618557904819874  0.3720314057319583  0.5216123540027127
  0.1902419590313202  0.2876484811652780  0.3895669826019446
  0.3141429155757875  0.2053596691751694  0.2117263476193489
  0.0649324026147129  0.7044367609926837  0.2118266132456861
  0.5621667670797836  0.3706056006589158  0.4346807490551587
  0.4366491171021812  0.6222566874362971  0.5215585499635288
  0.8161388703953728  0.7130950004762088  0.8328351393938087
  0.0612459999003770  0.3733541389733457  0.7880964171986766
  0.4373089138084049  0.2941176664029794  0.8755168550365878
  0.3109206801612200  0.0337247656725524  0.1243810697617902
  0.6878315431282077  0.1204723900603024  0.4346274770779902
  0.1853313475591776  0.9528500075805186  0.3451040252264080
  0.0651552605893440  0.2118869039703926  0.8331759013928084
  0.5595588978488519  0.0389610264283697  0.6104919633043340
  0.6890859310187852  0.4553887882631741  0.2121509881093420
  0.1887867931290050  0.7908785801235106  0.7441068020523491
  0.1923400684416402  0.6236911526477812  0.3003194900710695
  0.4404470406014379  0.7875744144506922  0.3895353078382442
  0.4352307179576769  0.2885770529084628  0.2559860209964978
  0.0648457967227847  0.5411813763108746  0.8751918957529208
  0.5655975831121849  0.0412230301218766  0.7441364893195637
  0.1879713659047554  0.7941402446768664  0.8753665045000580
  0.9371726420858435  0.4547765380420102  0.4786387345763738
  0.5654943295798659  0.5403367400235046  0.7440732999481590
  0.8114420320331480  0.2066771707751815  0.5655345298251567
  0.1858443861651775  0.6224569133071212  0.7881619969713832
  0.0662285809688235  0.5384347744686896  0.3896335957063541
  0.0607756380978327  0.7077089689438650  0.6997033138448285
  0.3092427435261025  0.5379712347021287  0.2557583632907562
  0.3145186721582504  0.7036811024169404  0.2121024579280572
  0.3053882433436279  0.8655863482359284  0.1660841977912922
  0.4368817686675789  0.6209538464070868  0.4347134742953007
  0.8166284190713993  0.0382739862083326  0.3897302898689733
  0.9358541610636517  0.2945339696983850  0.8749720133857739
  0.9379217105687208  0.7923590283828882  0.8749212382226053
  0.0655591031583159  0.0397995125778070  0.8749483921348893
  0.8067805688329509  0.8650665725928914  0.1664021609571283
  0.8071824771707676  0.3656909551275647  0.1665043816994623
  0.0619829111642400  0.8714069018101330  0.4347569287000227
  0.9367564499903084  0.1221664974956748  0.5215337888795620
  0.1919242896798392  0.7872041395674375  0.3893920066147112
  0.3146495654419731  0.5398975548451906  0.7443171585839771
 
  0.00000000E+00  0.00000000E+00  0.00000000E+00
  0.00000000E+00  0.00000000E+00  0.00000000E+00
  0.00000000E+00  0.00000000E+00  0.00000000E+00
  0.00000000E+00  0.00000000E+00  0.00000000E+00
  0.00000000E+00  0.00000000E+00  0.00000000E+00
  0.00000000E+00  0.00000000E+00  0.00000000E+00
  0.00000000E+00  0.00000000E+00  0.00000000E+00
  0.00000000E+00  0.00000000E+00  0.00000000E+00
  0.00000000E+00  0.00000000E+00  0.00000000E+00
  0.00000000E+00  0.00000000E+00  0.00000000E+00
  0.00000000E+00  0.00000000E+00  0.00000000E+00
  0.00000000E+00  0.00000000E+00  0.00000000E+00
  0.00000000E+00  0.00000000E+00  0.00000000E+00
  0.00000000E+00  0.00000000E+00  0.00000000E+00
  0.00000000E+00  0.00000000E+00  0.00000000E+00
  0.00000000E+00  0.00000000E+00  0.00000000E+00
  0.00000000E+00  0.00000000E+00  0.00000000E+00
  0.00000000E+00  0.00000000E+00  0.00000000E+00
  0.00000000E+00  0.00000000E+00  0.00000000E+00
  0.00000000E+00  0.00000000E+00  0.00000000E+00
  0.00000000E+00  0.00000000E+00  0.00000000E+00
  0.00000000E+00  0.00000000E+00  0.00000000E+00
  0.00000000E+00  0.00000000E+00  0.00000000E+00
  0.00000000E+00  0.00000000E+00  0.00000000E+00
  0.00000000E+00  0.00000000E+00  0.00000000E+00
  0.00000000E+00  0.00000000E+00  0.00000000E+00
  0.00000000E+00  0.00000000E+00  0.00000000E+00
  0.00000000E+00  0.00000000E+00  0.00000000E+00
  0.00000000E+00  0.00000000E+00  0.00000000E+00
  0.00000000E+00  0.00000000E+00  0.00000000E+00
  0.00000000E+00  0.00000000E+00  0.00000000E+00
  0.00000000E+00  0.00000000E+00  0.00000000E+00
  0.00000000E+00  0.00000000E+00  0.00000000E+00
  0.00000000E+00  0.00000000E+00  0.00000000E+00
  0.00000000E+00  0.00000000E+00  0.00000000E+00
  0.00000000E+00  0.00000000E+00  0.00000000E+00
  0.00000000E+00  0.00000000E+00  0.00000000E+00
  0.00000000E+00  0.00000000E+00  0.00000000E+00
  0.00000000E+00  0.00000000E+00  0.00000000E+00
  0.00000000E+00  0.00000000E+00  0.00000000E+00
  0.00000000E+00  0.00000000E+00  0.00000000E+00
  0.00000000E+00  0.00000000E+00  0.00000000E+00
  0.00000000E+00  0.00000000E+00  0.00000000E+00
  0.00000000E+00  0.00000000E+00  0.00000000E+00
  0.00000000E+00  0.00000000E+00  0.00000000E+00
  0.00000000E+00  0.00000000E+00  0.00000000E+00
  0.00000000E+00  0.00000000E+00  0.00000000E+00
  0.00000000E+00  0.00000000E+00  0.00000000E+00
  0.00000000E+00  0.00000000E+00  0.00000000E+00
  0.00000000E+00  0.00000000E+00  0.00000000E+00
  0.00000000E+00  0.00000000E+00  0.00000000E+00
  0.00000000E+00  0.00000000E+00  0.00000000E+00
  0.00000000E+00  0.00000000E+00  0.00000000E+00
  0.00000000E+00  0.00000000E+00  0.00000000E+00
  0.00000000E+00  0.00000000E+00  0.00000000E+00
  0.00000000E+00  0.00000000E+00  0.00000000E+00
  0.00000000E+00  0.00000000E+00  0.00000000E+00
  0.00000000E+00  0.00000000E+00  0.00000000E+00
  0.00000000E+00  0.00000000E+00  0.00000000E+00
  0.00000000E+00  0.00000000E+00  0.00000000E+00
  0.00000000E+00  0.00000000E+00  0.00000000E+00
  0.00000000E+00  0.00000000E+00  0.00000000E+00
  0.00000000E+00  0.00000000E+00  0.00000000E+00
  0.00000000E+00  0.00000000E+00  0.00000000E+00
  0.00000000E+00  0.00000000E+00  0.00000000E+00
  0.00000000E+00  0.00000000E+00  0.00000000E+00
  0.00000000E+00  0.00000000E+00  0.00000000E+00
  0.00000000E+00  0.00000000E+00  0.00000000E+00
  0.00000000E+00  0.00000000E+00  0.00000000E+00
  0.00000000E+00  0.00000000E+00  0.00000000E+00
  0.00000000E+00  0.00000000E+00  0.00000000E+00
  0.00000000E+00  0.00000000E+00  0.00000000E+00
  0.00000000E+00  0.00000000E+00  0.00000000E+00
  0.00000000E+00  0.00000000E+00  0.00000000E+00
  0.00000000E+00  0.00000000E+00  0.00000000E+00
  0.00000000E+00  0.00000000E+00  0.00000000E+00
  0.00000000E+00  0.00000000E+00  0.00000000E+00
  0.00000000E+00  0.00000000E+00  0.00000000E+00
  0.00000000E+00  0.00000000E+00  0.00000000E+00
  0.00000000E+00  0.00000000E+00  0.00000000E+00
  0.00000000E+00  0.00000000E+00  0.00000000E+00
  0.00000000E+00  0.00000000E+00  0.00000000E+00
  0.00000000E+00  0.00000000E+00  0.00000000E+00
  0.00000000E+00  0.00000000E+00  0.00000000E+00
  0.00000000E+00  0.00000000E+00  0.00000000E+00
  0.00000000E+00  0.00000000E+00  0.00000000E+00
  0.00000000E+00  0.00000000E+00  0.00000000E+00
  0.00000000E+00  0.00000000E+00  0.00000000E+00
  0.00000000E+00  0.00000000E+00  0.00000000E+00
  0.00000000E+00  0.00000000E+00  0.00000000E+00
  0.00000000E+00  0.00000000E+00  0.00000000E+00
  0.00000000E+00  0.00000000E+00  0.00000000E+00
  0.00000000E+00  0.00000000E+00  0.00000000E+00
  0.00000000E+00  0.00000000E+00  0.00000000E+00
  0.00000000E+00  0.00000000E+00  0.00000000E+00
  0.00000000E+00  0.00000000E+00  0.00000000E+00
  0.00000000E+00  0.00000000E+00  0.00000000E+00
  0.00000000E+00  0.00000000E+00  0.00000000E+00
  0.00000000E+00  0.00000000E+00  0.00000000E+00
  0.00000000E+00  0.00000000E+00  0.00000000E+00
  0.00000000E+00  0.00000000E+00  0.00000000E+00
  0.00000000E+00  0.00000000E+00  0.00000000E+00
  0.00000000E+00  0.00000000E+00  0.00000000E+00
  0.00000000E+00  0.00000000E+00  0.00000000E+00
  0.00000000E+00  0.00000000E+00  0.00000000E+00
  0.00000000E+00  0.00000000E+00  0.00000000E+00
  0.00000000E+00  0.00000000E+00  0.00000000E+00
  0.00000000E+00  0.00000000E+00  0.00000000E+00
  0.00000000E+00  0.00000000E+00  0.00000000E+00
  0.00000000E+00  0.00000000E+00  0.00000000E+00
  0.00000000E+00  0.00000000E+00  0.00000000E+00
  0.00000000E+00  0.00000000E+00  0.00000000E+00
  0.00000000E+00  0.00000000E+00  0.00000000E+00
  0.00000000E+00  0.00000000E+00  0.00000000E+00
  0.00000000E+00  0.00000000E+00  0.00000000E+00
  0.00000000E+00  0.00000000E+00  0.00000000E+00
  0.00000000E+00  0.00000000E+00  0.00000000E+00
  0.00000000E+00  0.00000000E+00  0.00000000E+00
  0.00000000E+00  0.00000000E+00  0.00000000E+00
  0.00000000E+00  0.00000000E+00  0.00000000E+00
  0.00000000E+00  0.00000000E+00  0.00000000E+00
  0.00000000E+00  0.00000000E+00  0.00000000E+00
  0.00000000E+00  0.00000000E+00  0.00000000E+00
  0.00000000E+00  0.00000000E+00  0.00000000E+00
  0.00000000E+00  0.00000000E+00  0.00000000E+00
  0.00000000E+00  0.00000000E+00  0.00000000E+00
  0.00000000E+00  0.00000000E+00  0.00000000E+00
  0.00000000E+00  0.00000000E+00  0.00000000E+00
  0.00000000E+00  0.00000000E+00  0.00000000E+00
  0.00000000E+00  0.00000000E+00  0.00000000E+00
  0.00000000E+00  0.00000000E+00  0.00000000E+00
  0.00000000E+00  0.00000000E+00  0.00000000E+00
  0.00000000E+00  0.00000000E+00  0.00000000E+00
  0.00000000E+00  0.00000000E+00  0.00000000E+00
  0.00000000E+00  0.00000000E+00  0.00000000E+00
  0.00000000E+00  0.00000000E+00  0.00000000E+00
  0.00000000E+00  0.00000000E+00  0.00000000E+00
  0.00000000E+00  0.00000000E+00  0.00000000E+00
  0.00000000E+00  0.00000000E+00  0.00000000E+00
  0.00000000E+00  0.00000000E+00  0.00000000E+00
  0.00000000E+00  0.00000000E+00  0.00000000E+00
  0.00000000E+00  0.00000000E+00  0.00000000E+00
  0.00000000E+00  0.00000000E+00  0.00000000E+00
  0.00000000E+00  0.00000000E+00  0.00000000E+00
  0.00000000E+00  0.00000000E+00  0.00000000E+00
  0.00000000E+00  0.00000000E+00  0.00000000E+00
  0.00000000E+00  0.00000000E+00  0.00000000E+00
  0.00000000E+00  0.00000000E+00  0.00000000E+00
  0.00000000E+00  0.00000000E+00  0.00000000E+00
  0.00000000E+00  0.00000000E+00  0.00000000E+00
  0.00000000E+00  0.00000000E+00  0.00000000E+00
  0.00000000E+00  0.00000000E+00  0.00000000E+00
  0.00000000E+00  0.00000000E+00  0.00000000E+00
  0.00000000E+00  0.00000000E+00  0.00000000E+00
  0.00000000E+00  0.00000000E+00  0.00000000E+00
  0.00000000E+00  0.00000000E+00  0.00000000E+00
  0.00000000E+00  0.00000000E+00  0.00000000E+00
  0.00000000E+00  0.00000000E+00  0.00000000E+00
  0.00000000E+00  0.00000000E+00  0.00000000E+00
  0.00000000E+00  0.00000000E+00  0.00000000E+00
  0.00000000E+00  0.00000000E+00  0.00000000E+00
  0.00000000E+00  0.00000000E+00  0.00000000E+00
  0.00000000E+00  0.00000000E+00  0.00000000E+00
  0.00000000E+00  0.00000000E+00  0.00000000E+00
  0.00000000E+00  0.00000000E+00  0.00000000E+00
  0.00000000E+00  0.00000000E+00  0.00000000E+00
  0.00000000E+00  0.00000000E+00  0.00000000E+00
  0.00000000E+00  0.00000000E+00  0.00000000E+00
  0.00000000E+00  0.00000000E+00  0.00000000E+00
  0.00000000E+00  0.00000000E+00  0.00000000E+00
  0.00000000E+00  0.00000000E+00  0.00000000E+00
  0.00000000E+00  0.00000000E+00  0.00000000E+00
  0.00000000E+00  0.00000000E+00  0.00000000E+00
  0.00000000E+00  0.00000000E+00  0.00000000E+00
  0.00000000E+00  0.00000000E+00  0.00000000E+00
  0.00000000E+00  0.00000000E+00  0.00000000E+00
  0.00000000E+00  0.00000000E+00  0.00000000E+00
  0.00000000E+00  0.00000000E+00  0.00000000E+00
  0.00000000E+00  0.00000000E+00  0.00000000E+00
  0.00000000E+00  0.00000000E+00  0.00000000E+00
  0.00000000E+00  0.00000000E+00  0.00000000E+00
  0.00000000E+00  0.00000000E+00  0.00000000E+00
  0.00000000E+00  0.00000000E+00  0.00000000E+00
  0.00000000E+00  0.00000000E+00  0.00000000E+00
  0.00000000E+00  0.00000000E+00  0.00000000E+00
  0.00000000E+00  0.00000000E+00  0.00000000E+00
  0.00000000E+00  0.00000000E+00  0.00000000E+00
  0.00000000E+00  0.00000000E+00  0.00000000E+00
  0.00000000E+00  0.00000000E+00  0.00000000E+00
  0.00000000E+00  0.00000000E+00  0.00000000E+00
  0.00000000E+00  0.00000000E+00  0.00000000E+00
  0.00000000E+00  0.00000000E+00  0.00000000E+00
  0.00000000E+00  0.00000000E+00  0.00000000E+00
  0.00000000E+00  0.00000000E+00  0.00000000E+00
  0.00000000E+00  0.00000000E+00  0.00000000E+00
  0.00000000E+00  0.00000000E+00  0.00000000E+00
  0.00000000E+00  0.00000000E+00  0.00000000E+00
  0.00000000E+00  0.00000000E+00  0.00000000E+00
  0.00000000E+00  0.00000000E+00  0.00000000E+00
  0.00000000E+00  0.00000000E+00  0.00000000E+00
  0.00000000E+00  0.00000000E+00  0.00000000E+00
  0.00000000E+00  0.00000000E+00  0.00000000E+00
  0.00000000E+00  0.00000000E+00  0.00000000E+00
  0.00000000E+00  0.00000000E+00  0.00000000E+00
  0.00000000E+00  0.00000000E+00  0.00000000E+00
  0.00000000E+00  0.00000000E+00  0.00000000E+00
  0.00000000E+00  0.00000000E+00  0.00000000E+00
  0.00000000E+00  0.00000000E+00  0.00000000E+00
  0.00000000E+00  0.00000000E+00  0.00000000E+00
  0.00000000E+00  0.00000000E+00  0.00000000E+00
  0.00000000E+00  0.00000000E+00  0.00000000E+00
  0.00000000E+00  0.00000000E+00  0.00000000E+00
  0.00000000E+00  0.00000000E+00  0.00000000E+00
  0.00000000E+00  0.00000000E+00  0.00000000E+00
  0.00000000E+00  0.00000000E+00  0.00000000E+00
  0.00000000E+00  0.00000000E+00  0.00000000E+00
  0.00000000E+00  0.00000000E+00  0.00000000E+00
  0.00000000E+00  0.00000000E+00  0.00000000E+00
  0.00000000E+00  0.00000000E+00  0.00000000E+00
  0.00000000E+00  0.00000000E+00  0.00000000E+00
  0.00000000E+00  0.00000000E+00  0.00000000E+00
  0.00000000E+00  0.00000000E+00  0.00000000E+00
  0.00000000E+00  0.00000000E+00  0.00000000E+00
  0.00000000E+00  0.00000000E+00  0.00000000E+00
  0.00000000E+00  0.00000000E+00  0.00000000E+00
  0.00000000E+00  0.00000000E+00  0.00000000E+00
  0.00000000E+00  0.00000000E+00  0.00000000E+00
  0.00000000E+00  0.00000000E+00  0.00000000E+00
  0.00000000E+00  0.00000000E+00  0.00000000E+00
  0.00000000E+00  0.00000000E+00  0.00000000E+00
  0.00000000E+00  0.00000000E+00  0.00000000E+00
  0.00000000E+00  0.00000000E+00  0.00000000E+00
  0.00000000E+00  0.00000000E+00  0.00000000E+00
  0.00000000E+00  0.00000000E+00  0.00000000E+00
  0.00000000E+00  0.00000000E+00  0.00000000E+00
  0.00000000E+00  0.00000000E+00  0.00000000E+00
  0.00000000E+00  0.00000000E+00  0.00000000E+00
  0.00000000E+00  0.00000000E+00  0.00000000E+00
  0.00000000E+00  0.00000000E+00  0.00000000E+00
  0.00000000E+00  0.00000000E+00  0.00000000E+00
  0.00000000E+00  0.00000000E+00  0.00000000E+00
  0.00000000E+00  0.00000000E+00  0.00000000E+00
  0.00000000E+00  0.00000000E+00  0.00000000E+00
  0.00000000E+00  0.00000000E+00  0.00000000E+00
  0.00000000E+00  0.00000000E+00  0.00000000E+00
  0.00000000E+00  0.00000000E+00  0.00000000E+00
  0.00000000E+00  0.00000000E+00  0.00000000E+00