CuInSe2gb                               
   1.00000000000000     
     9.7266780392896699    0.0000000000000000    0.0000000000000000
     0.0000000000000000    8.4235502764570693    0.0000000000000000
     0.0000000000000000    0.0000000000000000   45.0000000000000000
   Fe   Mn
   274    14
Direct
  0.0617880684851803  0.0312886006740773  0.1243755728168719
  0.3167078970439116  0.8750113995559161  0.6548476373532144
  0.1852678543604476  0.1212474589753294  0.7883558261289381
  0.4414100627401387  0.2876430090549019  0.3890593875855657
  0.3175898980227104  0.7122990871134088  0.8327809458495680
  0.8177602698818119  0.2139353096939775  0.8333503089412018
  0.1912039708967131  0.9626232693700564  0.8333006964839922
  0.5624935914944267  0.2071975161106249  0.5654714284786468
  0.0656146567947814  0.0391802236561174  0.7439416643319889
  0.8115304232423907  0.8712884095582785  0.5213292710329293
  0.1908516306958083  0.2902182743639516  0.7439729069993298
  0.9341664426220420  0.4525769985836388  0.3450620434737148
  0.9413018282384241  0.2875133181313791  0.3890707779156805
  0.8125669551087429  0.0387276798261298  0.8754441153009010
  0.1834188744362022  0.7880524940414605  0.6108634617149098
  0.5664210160944957  0.0375901982784232  0.3890985208506857
  0.9416270219720649  0.9630409964113174  0.8335717177112487
  0.3149098139582767  0.5379022608361705  0.8757053540585540
  0.6907394824134488  0.2904678277556598  0.7439139981444033
  0.1824881869567955  0.6141146320812322  0.1667557286799664
  0.8118958200285283  0.2056550459317825  0.4786515495321762
  0.8086631975686025  0.5378371867951395  0.6109053657901301
  0.3122260681008075  0.8707774714247610  0.4344175290910575
  0.8091842687837435  0.0385310427096482  0.2561397934046051
  0.6837435768069697  0.9524469938689659  0.3450516192431101
  0.9312203070076991  0.1148170566152981  0.1673118378148190
  0.0615720229029481  0.8712723131630757  0.5213826824198451
  0.5591548871095607  0.5388909231576331  0.2559480722973463
  0.6845585251245779  0.7945274723986149  0.8754358553979168
  0.5563095620860715  0.3657830870768483  0.1667342637738817
  0.4397677431376672  0.7902115589723326  0.7440986849147849
  0.8114664867168414  0.7066910223660063  0.5654611748200031
  0.5605574454260626  0.8718077544601988  0.7882826216200233
  0.6862605035707767  0.1214622540160595  0.5213398678588070
  0.8163308612365318  0.3748597938758816  0.6549514000391554
  0.9415097681317800  0.4626970564977229  0.8335243352896194
  0.0600972997261101  0.2079011705759664  0.6995394596545642
  0.4350009711947376  0.9581487999745982  0.6995208254658413
  0.3165831430470841  0.2115732886539668  0.8333278179705640
  0.4413896796459739  0.6247331907342425  0.6548860810993168
  0.3087699797801709  0.5379369585356338  0.6108986382295286
  0.9370278314885775  0.4570057812461342  0.5655416626224381
  0.6901314804019250  0.7908403079928360  0.7440028900797475
  0.9336260787301330  0.7887542041899754  0.1246435672304373
  0.6913703623346698  0.7875259460247120  0.3890444108840010
  0.9405419858125174  0.7901006040645271  0.7441405368942815
  0.0592995789334467  0.2026383477034820  0.3449954244243266
  0.8163738399109698  0.0375282597938753  0.3890786386796820
  0.4354114018393977  0.1209957694552248  0.7886295391967297
  0.0649051270166821  0.2055215113141467  0.2117254905965108
  0.0549111804684851  0.3657873431139765  0.1667803375393402
  0.9340016129672908  0.7895343752156242  0.2560483558955657
  0.5601530950855758  0.2079318557342246  0.6996090511068411
  0.6850473539904832  0.9580719266777681  0.6996291595425552
  0.8100603299246341  0.8718695652675854  0.7881693742191169
  0.4367951386225835  0.9571850604994470  0.5654249657578275
  0.8108150231059474  0.3723808485693940  0.7881573770584173
  0.6841618005130861  0.2899300880685787  0.2561394240339130
  0.1868601400601710  0.4572901471753221  0.5654136544251657
  0.0560338407771773  0.8659490177945877  0.1668349775675116
  0.1840000774143572  0.2880275861457291  0.6107827562216919
  0.1912607684137198  0.7877468839436536  0.3891506350969932
  0.3102663152961743  0.2081613435701247  0.6996502735641735
  0.5637243377435279  0.5386000654194602  0.8756202459043185
  0.0617781099993487  0.7063478078345907  0.5655130011697451
  0.6852969786774030  0.6211925329542791  0.7880645051160512
  0.3163441701894463  0.5375028740002372  0.3890681922467340
  0.1865814901446139  0.6211688171869640  0.5212967937804347
  0.5623242942041420  0.8708751400697637  0.4344822641534038
  0.4367496460986623  0.4578687827294078  0.5653771216143332
  0.4399635729944460  0.2910073456332930  0.7439927472110662
  0.8190097801398820  0.8749883255624491  0.3004112373953487
  0.8086744035380483  0.7026607402820921  0.3450702384238474
  0.4416693523658046  0.4622886466028019  0.8331219794371481
  0.6873046059865374  0.9558220502533010  0.4785945481782137
  0.6853321663375141  0.4579268278930638  0.6996159025823921
  0.5616713600831129  0.8716900642078194  0.5213700718245998
  0.5665205516231381  0.3743995897749731  0.6548480716976227
  0.8163252227515970  0.8746026637429526  0.6549465083793716
  0.8125405100129774  0.3717680859730680  0.4343582596032965
  0.8092827199048924  0.5382925036438468  0.2561663918580605
  0.6919836460480498  0.4609800070087778  0.8330663810202532
  0.1861757800517649  0.7885906449051948  0.1242740792223769
  0.6913437693592339  0.2874834614610033  0.3889980572693606
  0.3164676843507019  0.3748096349874641  0.6549606793997922
  0.3095625183513651  0.2028357517100828  0.3450959863860794
  0.8155508530723280  0.5398407299510786  0.7439352406886363
  0.6916616995969999  0.9613313421694658  0.8331233764858715
  0.5661838947244457  0.8743408016599575  0.6549119853916554
  0.3118889702907134  0.7070652783319238  0.5653876728225200
  0.3119613065493391  0.5319912774489053  0.1242967601293978
  0.6891793009011461  0.9561800419647790  0.2119864021841710
  0.3112998288053370  0.2065039707510371  0.5654027513677015
  0.1870457394923744  0.9555234745305178  0.4785762467974105
  0.6878207166614837  0.9574030295174915  0.5653648602960151
  0.4337430507300197  0.7881891098101951  0.6108868304056936
  0.6824085105266933  0.6123375651972187  0.1667458445435360
  0.3188926946917200  0.8748983592772025  0.3004348056144530
  0.3122934314048962  0.7057551661635969  0.4785845796743309
  0.9335983745094658  0.2878304870912280  0.6107756083576720
  0.4441844355450613  0.6248960570426444  0.3005481918137459
  0.8069050865783748  0.8643063797043825  0.1672478614847709
  0.5661238894094085  0.2036091349179109  0.2119319184048561
  0.9326924296995339  0.6131817904529965  0.1668205604423010
  0.4372160039357607  0.9556787677658636  0.4786606088225585
  0.5605917336396877  0.3710678332909549  0.7882995084075881
  0.0612069512120214  0.3717097266592987  0.5213935352515691
  0.3071385068092093  0.3638901110880603  0.1669787603056400
  0.6944901436058182  0.1246689895044423  0.3004541569289716
  0.4426016780276237  0.9617266790645498  0.8330603924203630
  0.1846816985124379  0.2877055580504916  0.1245366924009580
  0.1841548612194978  0.2895427346111987  0.2560234959271063
  0.3119997420360622  0.3707262037751030  0.4344679606429601
  0.5626481980888179  0.0326699688823543  0.1245395051197261
  0.4336634018523581  0.2879741904876024  0.6108629610214034
  0.1839657601083492  0.4528045254487681  0.3450724284645839
  0.4341924459011362  0.2874841106953354  0.1245773980966360
  0.6842366034425321  0.7898064540287407  0.2560558433052170
  0.4366435870889372  0.1213728512338939  0.5213533163857199
  0.1887262817459089  0.2936919279306960  0.8757285952021030
  0.1914504651234837  0.1250711378002888  0.6549159138621266
  0.9416253763365250  0.1249817006391917  0.6548933571380890
  0.8163990914652833  0.5374234254819404  0.3891153753281682
  0.0664689665978579  0.0376580196313011  0.3890787512020107
  0.1830797516362723  0.1125996599908337  0.1665662077411338
  0.0585929292217227  0.5378976378213185  0.6109130676516509
  0.9343488137805877  0.2897215766637699  0.2560663376156515
  0.5586335350057250  0.5383607892862596  0.6107945123908430
  0.9370253917814441  0.9572964009863157  0.5654237223195747
  0.6940043819534043  0.6250127435973000  0.3004166433924871
  0.9370671834654337  0.6206172093953883  0.4344329042960783
  0.9344494087540025  0.6222378946391878  0.7880007809036053
  0.5603113159647121  0.7077048637905051  0.6995899779284642
  0.0656339931220707  0.7151226929202191  0.8335992785970411
  0.9444754503160911  0.1241026925402667  0.3004113204864738
  0.9337901223024654  0.7876283435867160  0.6108950882117644
  0.4343695376563073  0.7899511259856041  0.2561437725787943
  0.3106941563931362  0.3716205235715760  0.7882210185770100
  0.4396981166213751  0.4567385633779139  0.2118434573864583
  0.1867223197012484  0.1208934035598482  0.5212235806035199
  0.8100806345823440  0.7078939689141250  0.6995573320365315
  0.0584892945817463  0.0377414800178558  0.6109094958014540
  0.5657337900527973  0.2126209510551939  0.8329722577973665
  0.3113663339890054  0.8714443611782611  0.5213234494218316
  0.6863111820126319  0.2885576005925832  0.1242834593856987
  0.1890866767386775  0.9567191047132702  0.2120890516889230
  0.6835259752122457  0.2881539736869074  0.6108776851978981
  0.3086737336874353  0.0380050471227776  0.6109343404997664
  0.9357213357590979  0.1224251300100714  0.7882874317275173
  0.4368772184635482  0.7943209648143178  0.8756591184825619
  0.8154513808816211  0.0403129071270164  0.7438574825984889
  0.9350333633556819  0.4581983641605727  0.6995874076994617
  0.1912682475795298  0.6249824164607801  0.6549545485350680
  0.3104711351226316  0.7077922005423087  0.6995673298485621
  0.9344539369506266  0.2878710121974930  0.1243919748668806
  0.4371430703713756  0.4556511229582817  0.4786252357425569
  0.0620593835539228  0.7054657303629189  0.4784691123187905
  0.9371023740300771  0.1206356428226634  0.4345803888382213
  0.4439107891323145  0.1244220398548073  0.3005145097797383
  0.1876871382289953  0.1202425779786603  0.4344358011925047
  0.5632844219466393  0.0376530301733315  0.8758068631423903
  0.1867943951417740  0.9573425862890476  0.5654188213667366
  0.6844352803234182  0.7889663554476981  0.1247757197678579
  0.5596129895488949  0.7026971680536498  0.3450194864676953
  0.3163420780710158  0.0376866880437969  0.3891311560994918
  0.6824121703576631  0.1145367131469401  0.1672202527606716
  0.8147162626857587  0.2049994482293259  0.2116217488041126
  0.0599024462115205  0.5392055713960634  0.2560351670228685
  0.5621293840655139  0.7058538252293511  0.4786193027834822
  0.4345343375718612  0.7880767497958652  0.1244450658107308
  0.5691713921165990  0.3749212186096857  0.3005266838649555
  0.4337658962206129  0.9525453345712168  0.3450975591947314
  0.1853307712827235  0.9582359038702928  0.6996796399283896
  0.4313313088920464  0.6143811183956275  0.1666769942475052
  0.9395347000635883  0.4564856400542321  0.2120490912176873
  0.0615366392878753  0.5310791295231772  0.1243853484537494
  0.8118169219591068  0.3712854480269189  0.5212954514953215
  0.9437655018377679  0.6244482938361152  0.3003882075275316
  0.3098165746766182  0.0390874917108166  0.2557613643096814
  0.6836123316357461  0.7880296822476224  0.6108751842012282
  0.1916600141892678  0.4626496885758801  0.8331751927400907
  0.4320184410215505  0.1129650483836127  0.1666817023772448
  0.3112766206829182  0.3713648737718215  0.5213000168685796
  0.4347171887053446  0.6206440766598063  0.7883440145356976
  0.0590432221698756  0.0384821774001115  0.2561760776090125
  0.5620509169881545  0.7071138782220869  0.5654299850830462
  0.9400359538483635  0.2894137207024880  0.7440131979366282
  0.6838538208605945  0.1213301023320325  0.7882533798922294
  0.1890252212555500  0.4568492078286533  0.2118780021823030
  0.9413707870868143  0.7875432205781938  0.3890553219666215
  0.6868883095117366  0.2959410981887976  0.8757062096894039
  0.5557414361962103  0.8650512654411124  0.1666538353567055
  0.4350906944101855  0.4577466594149112  0.6995155355112880
  0.9341866026216854  0.9522271172433674  0.3449806009389442
  0.6863321781802212  0.6214541925967393  0.5212727479661922
  0.0662042188094269  0.8742215761793485  0.6549065029716351
  0.0605397906135789  0.8722081692617641  0.7882080405835681
  0.0664121466265546  0.3749045408525735  0.6549320702624930
  0.6869470055643329  0.4554291570240206  0.4786655295934072
  0.1842168465830880  0.7895132223180696  0.2560076355283478
  0.4371224935903244  0.1204506584115513  0.4344374043118534
  0.8133822473404426  0.0317224627610789  0.1243609261431184
  0.9365566340864887  0.6212793834181924  0.5213098828740430
  0.0625265637466268  0.8705451183324393  0.4344437091716901
  0.8129679559772400  0.5306306620027283  0.1243344447762002
  0.4335984240999241  0.4526343006088635  0.3450980882643470
  0.8092658845501634  0.2032339158157599  0.3450407406018485
  0.3094082949690253  0.7030307659260993  0.3450178419766710
  0.6912838767191806  0.1249003566138173  0.6549351125445343
  0.5692325502056420  0.8749460020754500  0.3005184838162658
  0.0656562282511388  0.5397959201814655  0.7440015679032371
  0.9403771438435008  0.9554085807367209  0.2116347791699023
  0.8161647595140693  0.7055123668380718  0.2117270013445373
  0.0688156742765217  0.8749659135962911  0.3004792534115980
  0.1941611509256709  0.1248713763391654  0.3005304708114633
  0.0591058618237037  0.7028785927063668  0.3450859576075316
  0.8090501946703290  0.0381057112786100  0.6109154558405705
  0.0619905099155627  0.3707041335590300  0.4344083485641073
  0.5594121137256963  0.2031686984376107  0.3451233459540853
  0.8191241861390040  0.3749893162983945  0.3004117615021628
  0.5594439842226228  0.0389875058102007  0.2559216139226479
  0.5665365206981613  0.5376196764807173  0.3890693574519252
  0.0623220624859058  0.2057383598665595  0.4786349794586869
  0.3114487299309373  0.8710231505687692  0.7880281432174061
  0.9351110787608363  0.9583713965288553  0.6995940945544890
  0.0689503849334052  0.3750024834851394  0.3004934959150039
  0.6914066992438246  0.6250163386053288  0.6549475112936650
  0.6869954238131349  0.4573148523052971  0.5654491295162365
  0.4394823731908951  0.9575419401507416  0.2123643680864187
  0.3123007383097098  0.2058143247310740  0.4786249470657493
  0.8135133811740413  0.5375562004486314  0.8755566729133355
  0.6877707553690354  0.6204462516077796  0.4344180338828202
  0.8105429801450565  0.2075690014157784  0.6996452356348978
  0.8121485141743244  0.7056734711131250  0.4785450643485938
  0.8121137634048350  0.8711921779396131  0.4344025320702478
  0.9370574628914576  0.9553252256315038  0.4786447672127830
  0.5621957180699115  0.2057665451551635  0.4786099763494692
  0.1874544144411504  0.6204556207313091  0.4344797108242005
  0.3152493450007934  0.0406553476815181  0.7438767495219418
  0.9414751938952456  0.6251046186330137  0.6548979989890378
  0.5663022942328199  0.7125299582351297  0.8330767153218375
  0.3189284350595259  0.3746132581730352  0.3004448017372730
  0.5649873705726894  0.7049411159305793  0.2117090541992634
  0.1871736762524522  0.4553813927101719  0.4785170643158517
  0.3148141227903911  0.0390821387617055  0.8755441906413068
  0.1847789624838501  0.4581689780475123  0.6995741865130889
  0.5614392265826605  0.3713730128193406  0.5213482564750738
  0.1912994475728462  0.2877054245160955  0.3891180555296054
  0.4369345821830868  0.6204831500377819  0.4344633888227712
  0.0665939218331120  0.7057297312764160  0.2117182723840289
  0.5624060551216025  0.3712146263363404  0.4344119462203276
  0.4365971391968324  0.6214792833174537  0.5213748031815439
  0.8168579690047237  0.7142877324473166  0.8330490971290605
  0.0608749323784507  0.3729019842086835  0.7881161310499916
  0.4369586103136407  0.2947119524718003  0.8758923244050812
  0.3110925501283522  0.0316947002805504  0.1243760229158426
  0.6874846501278115  0.1201834289924737  0.4344503355686030
  0.1837544291484062  0.9527295178750044  0.3450569656417218
  0.0664286930312645  0.2133392381636496  0.8336497859613685
  0.5585277005489161  0.0381115205794486  0.6108969766526031
  0.6886772081841772  0.4563843959250564  0.2121252371330893
  0.1904088397595545  0.7902984140836372  0.7440055279871021
  0.1940442510291563  0.6245467127823455  0.3005366645092515
  0.4413278144374932  0.7876940486458982  0.3891142568105547
  0.4336414682723490  0.2895696098873440  0.2560815281401945
  0.0649888376583235  0.5381641895019732  0.8755011095315441
  0.5658045425291892  0.0402020955004056  0.7439479691849540
  0.1878988455541779  0.7941874941143351  0.8755946010883078
  0.9369708594228400  0.4554769272775038  0.4785229266180050
  0.5657945740043396  0.5405071314906763  0.7439193814752361
  0.8112702089098528  0.2066741494892201  0.5653833757986533
  0.1853396888468502  0.6202668256795244  0.7880265751942733
  0.0665478593593430  0.5376867998949996  0.3890321576721448
  0.0604819076033815  0.7078553431318784  0.6995223933239109
  0.3089531195577624  0.5385323755181035  0.2556152589103547
  0.3147210208253426  0.7044899247692294  0.2124862847556691
  0.3055973411583724  0.8658743570950541  0.1661352014565681
  0.3155256615056221  0.2057712266955000  0.2121363288633855
  0.6830784677162833  0.4526777654546227  0.3451209521552651
  0.9354661834984116  0.2956983146149583  0.8752364732183391
  0.9374902622798612  0.7929568518752060  0.8752090501493330
  0.0654995397793552  0.0369451285534748  0.8752979315247978
  0.5627196125998624  0.5299209873812403  0.1249192076575308
  0.8051535840511104  0.3666671887710100  0.1664839811131954
  0.4424101671867408  0.1245537526708846  0.6546630411247933
  0.9363842384071148  0.1213836286256295  0.5212958198896178
  0.0633435659951287  0.2065994003288269  0.5656519108620975
  0.3153658603996201  0.5399685269964576  0.7442070689369725
 
  0.00000000E+00  0.00000000E+00  0.00000000E+00
  0.00000000E+00  0.00000000E+00  0.00000000E+00
  0.00000000E+00  0.00000000E+00  0.00000000E+00
  0.00000000E+00  0.00000000E+00  0.00000000E+00
  0.00000000E+00  0.00000000E+00  0.00000000E+00
  0.00000000E+00  0.00000000E+00  0.00000000E+00
  0.00000000E+00  0.00000000E+00  0.00000000E+00
  0.00000000E+00  0.00000000E+00  0.00000000E+00
  0.00000000E+00  0.00000000E+00  0.00000000E+00
  0.00000000E+00  0.00000000E+00  0.00000000E+00
  0.00000000E+00  0.00000000E+00  0.00000000E+00
  0.00000000E+00  0.00000000E+00  0.00000000E+00
  0.00000000E+00  0.00000000E+00  0.00000000E+00
  0.00000000E+00  0.00000000E+00  0.00000000E+00
  0.00000000E+00  0.00000000E+00  0.00000000E+00
  0.00000000E+00  0.00000000E+00  0.00000000E+00
  0.00000000E+00  0.00000000E+00  0.00000000E+00
  0.00000000E+00  0.00000000E+00  0.00000000E+00
  0.00000000E+00  0.00000000E+00  0.00000000E+00
  0.00000000E+00  0.00000000E+00  0.00000000E+00
  0.00000000E+00  0.00000000E+00  0.00000000E+00
  0.00000000E+00  0.00000000E+00  0.00000000E+00
  0.00000000E+00  0.00000000E+00  0.00000000E+00
  0.00000000E+00  0.00000000E+00  0.00000000E+00
  0.00000000E+00  0.00000000E+00  0.00000000E+00
  0.00000000E+00  0.00000000E+00  0.00000000E+00
  0.00000000E+00  0.00000000E+00  0.00000000E+00
  0.00000000E+00  0.00000000E+00  0.00000000E+00
  0.00000000E+00  0.00000000E+00  0.00000000E+00
  0.00000000E+00  0.00000000E+00  0.00000000E+00
  0.00000000E+00  0.00000000E+00  0.00000000E+00
  0.00000000E+00  0.00000000E+00  0.00000000E+00
  0.00000000E+00  0.00000000E+00  0.00000000E+00
  0.00000000E+00  0.00000000E+00  0.00000000E+00
  0.00000000E+00  0.00000000E+00  0.00000000E+00
  0.00000000E+00  0.00000000E+00  0.00000000E+00
  0.00000000E+00  0.00000000E+00  0.00000000E+00
  0.00000000E+00  0.00000000E+00  0.00000000E+00
  0.00000000E+00  0.00000000E+00  0.00000000E+00
  0.00000000E+00  0.00000000E+00  0.00000000E+00
  0.00000000E+00  0.00000000E+00  0.00000000E+00
  0.00000000E+00  0.00000000E+00  0.00000000E+00
  0.00000000E+00  0.00000000E+00  0.00000000E+00
  0.00000000E+00  0.00000000E+00  0.00000000E+00
  0.00000000E+00  0.00000000E+00  0.00000000E+00
  0.00000000E+00  0.00000000E+00  0.00000000E+00
  0.00000000E+00  0.00000000E+00  0.00000000E+00
  0.00000000E+00  0.00000000E+00  0.00000000E+00
  0.00000000E+00  0.00000000E+00  0.00000000E+00
  0.00000000E+00  0.00000000E+00  0.00000000E+00
  0.00000000E+00  0.00000000E+00  0.00000000E+00
  0.00000000E+00  0.00000000E+00  0.00000000E+00
  0.00000000E+00  0.00000000E+00  0.00000000E+00
  0.00000000E+00  0.00000000E+00  0.00000000E+00
  0.00000000E+00  0.00000000E+00  0.00000000E+00
  0.00000000E+00  0.00000000E+00  0.00000000E+00
  0.00000000E+00  0.00000000E+00  0.00000000E+00
  0.00000000E+00  0.00000000E+00  0.00000000E+00
  0.00000000E+00  0.00000000E+00  0.00000000E+00
  0.00000000E+00  0.00000000E+00  0.00000000E+00
  0.00000000E+00  0.00000000E+00  0.00000000E+00
  0.00000000E+00  0.00000000E+00  0.00000000E+00
  0.00000000E+00  0.00000000E+00  0.00000000E+00
  0.00000000E+00  0.00000000E+00  0.00000000E+00
  0.00000000E+00  0.00000000E+00  0.00000000E+00
  0.00000000E+00  0.00000000E+00  0.00000000E+00
  0.00000000E+00  0.00000000E+00  0.00000000E+00
  0.00000000E+00  0.00000000E+00  0.00000000E+00
  0.00000000E+00  0.00000000E+00  0.00000000E+00
  0.00000000E+00  0.00000000E+00  0.00000000E+00
  0.00000000E+00  0.00000000E+00  0.00000000E+00
  0.00000000E+00  0.00000000E+00  0.00000000E+00
  0.00000000E+00  0.00000000E+00  0.00000000E+00
  0.00000000E+00  0.00000000E+00  0.00000000E+00
  0.00000000E+00  0.00000000E+00  0.00000000E+00
  0.00000000E+00  0.00000000E+00  0.00000000E+00
  0.00000000E+00  0.00000000E+00  0.00000000E+00
  0.00000000E+00  0.00000000E+00  0.00000000E+00
  0.00000000E+00  0.00000000E+00  0.00000000E+00
  0.00000000E+00  0.00000000E+00  0.00000000E+00
  0.00000000E+00  0.00000000E+00  0.00000000E+00
  0.00000000E+00  0.00000000E+00  0.00000000E+00
  0.00000000E+00  0.00000000E+00  0.00000000E+00
  0.00000000E+00  0.00000000E+00  0.00000000E+00
  0.00000000E+00  0.00000000E+00  0.00000000E+00
  0.00000000E+00  0.00000000E+00  0.00000000E+00
  0.00000000E+00  0.00000000E+00  0.00000000E+00
  0.00000000E+00  0.00000000E+00  0.00000000E+00
  0.00000000E+00  0.00000000E+00  0.00000000E+00
  0.00000000E+00  0.00000000E+00  0.00000000E+00
  0.00000000E+00  0.00000000E+00  0.00000000E+00
  0.00000000E+00  0.00000000E+00  0.00000000E+00
  0.00000000E+00  0.00000000E+00  0.00000000E+00
  0.00000000E+00  0.00000000E+00  0.00000000E+00
  0.00000000E+00  0.00000000E+00  0.00000000E+00
  0.00000000E+00  0.00000000E+00  0.00000000E+00
  0.00000000E+00  0.00000000E+00  0.00000000E+00
  0.00000000E+00  0.00000000E+00  0.00000000E+00
  0.00000000E+00  0.00000000E+00  0.00000000E+00
  0.00000000E+00  0.00000000E+00  0.00000000E+00
  0.00000000E+00  0.00000000E+00  0.00000000E+00
  0.00000000E+00  0.00000000E+00  0.00000000E+00
  0.00000000E+00  0.00000000E+00  0.00000000E+00
  0.00000000E+00  0.00000000E+00  0.00000000E+00
  0.00000000E+00  0.00000000E+00  0.00000000E+00
  0.00000000E+00  0.00000000E+00  0.00000000E+00
  0.00000000E+00  0.00000000E+00  0.00000000E+00
  0.00000000E+00  0.00000000E+00  0.00000000E+00
  0.00000000E+00  0.00000000E+00  0.00000000E+00
  0.00000000E+00  0.00000000E+00  0.00000000E+00
  0.00000000E+00  0.00000000E+00  0.00000000E+00
  0.00000000E+00  0.00000000E+00  0.00000000E+00
  0.00000000E+00  0.00000000E+00  0.00000000E+00
  0.00000000E+00  0.00000000E+00  0.00000000E+00
  0.00000000E+00  0.00000000E+00  0.00000000E+00
  0.00000000E+00  0.00000000E+00  0.00000000E+00
  0.00000000E+00  0.00000000E+00  0.00000000E+00
  0.00000000E+00  0.00000000E+00  0.00000000E+00
  0.00000000E+00  0.00000000E+00  0.00000000E+00
  0.00000000E+00  0.00000000E+00  0.00000000E+00
  0.00000000E+00  0.00000000E+00  0.00000000E+00
  0.00000000E+00  0.00000000E+00  0.00000000E+00
  0.00000000E+00  0.00000000E+00  0.00000000E+00
  0.00000000E+00  0.00000000E+00  0.00000000E+00
  0.00000000E+00  0.00000000E+00  0.00000000E+00
  0.00000000E+00  0.00000000E+00  0.00000000E+00
  0.00000000E+00  0.00000000E+00  0.00000000E+00
  0.00000000E+00  0.00000000E+00  0.00000000E+00
  0.00000000E+00  0.00000000E+00  0.00000000E+00
  0.00000000E+00  0.00000000E+00  0.00000000E+00
  0.00000000E+00  0.00000000E+00  0.00000000E+00
  0.00000000E+00  0.00000000E+00  0.00000000E+00
  0.00000000E+00  0.00000000E+00  0.00000000E+00
  0.00000000E+00  0.00000000E+00  0.00000000E+00
  0.00000000E+00  0.00000000E+00  0.00000000E+00
  0.00000000E+00  0.00000000E+00  0.00000000E+00
  0.00000000E+00  0.00000000E+00  0.00000000E+00
  0.00000000E+00  0.00000000E+00  0.00000000E+00
  0.00000000E+00  0.00000000E+00  0.00000000E+00
  0.00000000E+00  0.00000000E+00  0.00000000E+00
  0.00000000E+00  0.00000000E+00  0.00000000E+00
  0.00000000E+00  0.00000000E+00  0.00000000E+00
  0.00000000E+00  0.00000000E+00  0.00000000E+00
  0.00000000E+00  0.00000000E+00  0.00000000E+00
  0.00000000E+00  0.00000000E+00  0.00000000E+00
  0.00000000E+00  0.00000000E+00  0.00000000E+00
  0.00000000E+00  0.00000000E+00  0.00000000E+00
  0.00000000E+00  0.00000000E+00  0.00000000E+00
  0.00000000E+00  0.00000000E+00  0.00000000E+00
  0.00000000E+00  0.00000000E+00  0.00000000E+00
  0.00000000E+00  0.00000000E+00  0.00000000E+00
  0.00000000E+00  0.00000000E+00  0.00000000E+00
  0.00000000E+00  0.00000000E+00  0.00000000E+00
  0.00000000E+00  0.00000000E+00  0.00000000E+00
  0.00000000E+00  0.00000000E+00  0.00000000E+00
  0.00000000E+00  0.00000000E+00  0.00000000E+00
  0.00000000E+00  0.00000000E+00  0.00000000E+00
  0.00000000E+00  0.00000000E+00  0.00000000E+00
  0.00000000E+00  0.00000000E+00  0.00000000E+00
  0.00000000E+00  0.00000000E+00  0.00000000E+00
  0.00000000E+00  0.00000000E+00  0.00000000E+00
  0.00000000E+00  0.00000000E+00  0.00000000E+00
  0.00000000E+00  0.00000000E+00  0.00000000E+00
  0.00000000E+00  0.00000000E+00  0.00000000E+00
  0.00000000E+00  0.00000000E+00  0.00000000E+00
  0.00000000E+00  0.00000000E+00  0.00000000E+00
  0.00000000E+00  0.00000000E+00  0.00000000E+00
  0.00000000E+00  0.00000000E+00  0.00000000E+00
  0.00000000E+00  0.00000000E+00  0.00000000E+00
  0.00000000E+00  0.00000000E+00  0.00000000E+00
  0.00000000E+00  0.00000000E+00  0.00000000E+00
  0.00000000E+00  0.00000000E+00  0.00000000E+00
  0.00000000E+00  0.00000000E+00  0.00000000E+00
  0.00000000E+00  0.00000000E+00  0.00000000E+00
  0.00000000E+00  0.00000000E+00  0.00000000E+00
  0.00000000E+00  0.00000000E+00  0.00000000E+00
  0.00000000E+00  0.00000000E+00  0.00000000E+00
  0.00000000E+00  0.00000000E+00  0.00000000E+00
  0.00000000E+00  0.00000000E+00  0.00000000E+00
  0.00000000E+00  0.00000000E+00  0.00000000E+00
  0.00000000E+00  0.00000000E+00  0.00000000E+00
  0.00000000E+00  0.00000000E+00  0.00000000E+00
  0.00000000E+00  0.00000000E+00  0.00000000E+00
  0.00000000E+00  0.00000000E+00  0.00000000E+00
  0.00000000E+00  0.00000000E+00  0.00000000E+00
  0.00000000E+00  0.00000000E+00  0.00000000E+00
  0.00000000E+00  0.00000000E+00  0.00000000E+00
  0.00000000E+00  0.00000000E+00  0.00000000E+00
  0.00000000E+00  0.00000000E+00  0.00000000E+00
  0.00000000E+00  0.00000000E+00  0.00000000E+00
  0.00000000E+00  0.00000000E+00  0.00000000E+00
  0.00000000E+00  0.00000000E+00  0.00000000E+00
  0.00000000E+00  0.00000000E+00  0.00000000E+00
  0.00000000E+00  0.00000000E+00  0.00000000E+00
  0.00000000E+00  0.00000000E+00  0.00000000E+00
  0.00000000E+00  0.00000000E+00  0.00000000E+00
  0.00000000E+00  0.00000000E+00  0.00000000E+00
  0.00000000E+00  0.00000000E+00  0.00000000E+00
  0.00000000E+00  0.00000000E+00  0.00000000E+00
  0.00000000E+00  0.00000000E+00  0.00000000E+00
  0.00000000E+00  0.00000000E+00  0.00000000E+00
  0.00000000E+00  0.00000000E+00  0.00000000E+00
  0.00000000E+00  0.00000000E+00  0.00000000E+00
  0.00000000E+00  0.00000000E+00  0.00000000E+00
  0.00000000E+00  0.00000000E+00  0.00000000E+00
  0.00000000E+00  0.00000000E+00  0.00000000E+00
  0.00000000E+00  0.00000000E+00  0.00000000E+00
  0.00000000E+00  0.00000000E+00  0.00000000E+00
  0.00000000E+00  0.00000000E+00  0.00000000E+00
  0.00000000E+00  0.00000000E+00  0.00000000E+00
  0.00000000E+00  0.00000000E+00  0.00000000E+00
  0.00000000E+00  0.00000000E+00  0.00000000E+00
  0.00000000E+00  0.00000000E+00  0.00000000E+00
  0.00000000E+00  0.00000000E+00  0.00000000E+00
  0.00000000E+00  0.00000000E+00  0.00000000E+00
  0.00000000E+00  0.00000000E+00  0.00000000E+00
  0.00000000E+00  0.00000000E+00  0.00000000E+00
  0.00000000E+00  0.00000000E+00  0.00000000E+00
  0.00000000E+00  0.00000000E+00  0.00000000E+00
  0.00000000E+00  0.00000000E+00  0.00000000E+00
  0.00000000E+00  0.00000000E+00  0.00000000E+00
  0.00000000E+00  0.00000000E+00  0.00000000E+00
  0.00000000E+00  0.00000000E+00  0.00000000E+00
  0.00000000E+00  0.00000000E+00  0.00000000E+00
  0.00000000E+00  0.00000000E+00  0.00000000E+00
  0.00000000E+00  0.00000000E+00  0.00000000E+00
  0.00000000E+00  0.00000000E+00  0.00000000E+00
  0.00000000E+00  0.00000000E+00  0.00000000E+00
  0.00000000E+00  0.00000000E+00  0.00000000E+00
  0.00000000E+00  0.00000000E+00  0.00000000E+00
  0.00000000E+00  0.00000000E+00  0.00000000E+00
  0.00000000E+00  0.00000000E+00  0.00000000E+00
  0.00000000E+00  0.00000000E+00  0.00000000E+00
  0.00000000E+00  0.00000000E+00  0.00000000E+00
  0.00000000E+00  0.00000000E+00  0.00000000E+00
  0.00000000E+00  0.00000000E+00  0.00000000E+00
  0.00000000E+00  0.00000000E+00  0.00000000E+00
  0.00000000E+00  0.00000000E+00  0.00000000E+00
  0.00000000E+00  0.00000000E+00  0.00000000E+00
  0.00000000E+00  0.00000000E+00  0.00000000E+00
  0.00000000E+00  0.00000000E+00  0.00000000E+00
  0.00000000E+00  0.00000000E+00  0.00000000E+00
  0.00000000E+00  0.00000000E+00  0.00000000E+00
  0.00000000E+00  0.00000000E+00  0.00000000E+00
  0.00000000E+00  0.00000000E+00  0.00000000E+00
  0.00000000E+00  0.00000000E+00  0.00000000E+00
  0.00000000E+00  0.00000000E+00  0.00000000E+00