CuInSe2gb                               
   1.00000000000000     
     9.7266780392896699    0.0000000000000000    0.0000000000000000
     0.0000000000000000    8.4235502764570693    0.0000000000000000
     0.0000000000000000    0.0000000000000000   45.0000000000000000
   Fe   Mn
   281     7
Direct
  0.0631755298937408  0.0314884515759636  0.1246556713641539
  0.8136739591252129  0.0449126799661936  0.8752021671441346
  0.1918750335595882  0.1255102948588717  0.7883886430704966
  0.4350632536911657  0.2873078340927392  0.3894515847371744
  0.3142462199951309  0.3626541375745918  0.1667435645636869
  0.8119998965447223  0.2122109504167624  0.8333949934700663
  0.1854754098581305  0.7873260472839498  0.3894176998620604
  0.5632867529919496  0.2071674776293173  0.5657003975569872
  0.0629811216270344  0.0420316468423917  0.7438977479741765
  0.8132118558430300  0.8731864064451443  0.5217346347540081
  0.1883128565097113  0.2921589271367933  0.7438664799194156
  0.9379543490874623  0.4531234109048313  0.3450539693848848
  0.9355878367317529  0.2872323498491883  0.3894308317910320
  0.4382495785806436  0.6231818939879628  0.5216902118060249
  0.1872040871038803  0.7917051665630673  0.6104479981613532
  0.5602096563302553  0.0372471473778956  0.3894395808430524
  0.9360904760446187  0.9624681796242641  0.8336582465719311
  0.3138124552791372  0.5452201706717722  0.8755360990602634
  0.6875848987698761  0.2922960817070835  0.7438293218916261
  0.9381097707130263  0.9530820933210330  0.3450502653098949
  0.8129168582093557  0.2048804836345791  0.4781002912729476
  0.8124892655229784  0.5414051938726493  0.6104579619231615
  0.3125862003937256  0.8709905119545491  0.4341689239053256
  0.8117750262725417  0.0353580725651811  0.2561910041430535
  0.6877667098789135  0.9531393447626542  0.3450699666574044
  0.9399692715561834  0.1144672495898080  0.1667365767672613
  0.9382862236243303  0.1231858725476805  0.5217389593852242
  0.5620542462713084  0.5359305493917399  0.2560588417809916
  0.6908767074974811  0.7943901897476909  0.8753014759161948
  0.5656983044211683  0.3632777949751675  0.1664986270421068
  0.4376745359327110  0.7923199731650008  0.7438718336171741
  0.8132466327687884  0.7072105326661758  0.5657121136635875
  0.5670115545182299  0.8758412547802742  0.7882842149822166
  0.6881183089787741  0.1232844320492708  0.5217197562146748
  0.1868497591323286  0.2852292665681863  0.2560696965680518
  0.9364348466859407  0.4618121131097276  0.8335639861207015
  0.0639332962830053  0.2085221831715695  0.6996602056573198
  0.8105846324840444  0.0372207173822994  0.3894194643181125
  0.3117409069666415  0.2128334970451979  0.8335245858290011
  0.4358188363663790  0.6253884545054292  0.6548887682028905
  0.3124055768998833  0.5414827028849221  0.6104957726601019
  0.9383328960729274  0.4570274696771060  0.5656900094389216
  0.6876403488549333  0.7924388979268554  0.7439362891004989
  0.3107806798773456  0.8752400580342677  0.6549148248821853
  0.6853795782310302  0.7873698899567811  0.3894437490098422
  0.9381917985772025  0.7925645528540500  0.7439341185502186
  0.0628794382047904  0.2030488529079353  0.3450422067003819
  0.4362801061806175  0.7812326013880926  0.1243923686292134
  0.4427256171072301  0.1254030305799359  0.7883854428925653
  0.0580664785968699  0.2021926164825346  0.2118913095929804
  0.0645229462192167  0.3635516044653723  0.1666804930837462
  0.9367711841960331  0.7852242561387835  0.2560937145296024
  0.5641626738197116  0.2081279015437189  0.6996586060746780
  0.6888396771148515  0.9585734521630872  0.6997260492754784
  0.6854153642803261  0.2872862093283790  0.3894319423327109
  0.4382212747464286  0.9572341768131122  0.5656373361720080
  0.8173876859254222  0.3751827287777962  0.7881955668689972
  0.6868817764695029  0.2854345663028729  0.2561841209206344
  0.1881771619697017  0.4569512175785260  0.5656713240716820
  0.0649236366351068  0.8638359377215294  0.1667931353812244
  0.1873119316858702  0.2915560128242124  0.6103965593126647
  0.5625824168115802  0.7030375819990556  0.3450534620326005
  0.3140960050904182  0.2083855535752508  0.6997365654170377
  0.5641337726011875  0.5452291516041838  0.8751647631295429
  0.0632510966128287  0.7071742348242505  0.5656919241006595
  0.6920548975979982  0.6259085597218300  0.7883475454364203
  0.3102408117741666  0.5373710532429690  0.3894454883072849
  0.1882453505854329  0.6232212737242244  0.5217141258787212
  0.5625554018413296  0.8709358752088060  0.4341926855182603
  0.4382866130078308  0.4569762227363200  0.5656584303282097
  0.4379311091706301  0.2921298996462859  0.7438580361908410
  0.8077309520747925  0.8708058430674591  0.3002898585969973
  0.8128861972677276  0.7030253476125656  0.3450510504171008
  0.4365910131221081  0.4627059483353343  0.8335551428584675
  0.6877747702107644  0.9547952926655294  0.4781140580712049
  0.6891180416746552  0.4584097870296807  0.6997386879255698
  0.5631667827806739  0.8732109594267223  0.5217048963873787
  0.5608135464210522  0.3755137495604625  0.6549882727528002
  0.8108331290129727  0.8758051475032909  0.6549258585836105
  0.8127624839863375  0.3710048630237345  0.4341848463803197
  0.8118683865567947  0.5355831017088677  0.2561133829671075
  0.6862666363844107  0.4620001055090380  0.8335469983163571
  0.1885982722472555  0.7824198570830315  0.1243078794388888
  0.0641194541419949  0.0458066128544618  0.8751845290751299
  0.3107661187656651  0.3755227598533594  0.6548880481859215
  0.3126011925953099  0.2029618173947850  0.3450789751665168
  0.8126597138390363  0.5422037081894034  0.7438585421445725
  0.6864892036310153  0.9624816785658639  0.8335991628746809
  0.5609457169283684  0.8754540294987243  0.6549253193691419
  0.3132109709780089  0.7072694529037615  0.5656538511344814
  0.3129638236187566  0.5319345621717644  0.1244563669335118
  0.6833120497979477  0.9513235735434693  0.2117645444523993
  0.3132243390939878  0.2071469466753774  0.5657103974503657
  0.3127618296982461  0.5422366739954355  0.7438595671673036
  0.6883268936408840  0.9572217297445921  0.5657129766076564
  0.4374682612980824  0.7917489071144080  0.6104707425948265
  0.6904616954190043  0.6134845570039883  0.1667104568004306
  0.3076716849838323  0.8707948927917151  0.3004126127907560
  0.3129708045056158  0.7048287627443678  0.4780763625501532
  0.9374241056536237  0.2914044411587643  0.6104902984034731
  0.4325924244845810  0.6207598204800215  0.3003331121688957
  0.8147912351126445  0.8637619846209681  0.1665613231097677
  0.5583166513117179  0.2018677214688571  0.2119348180322608
  0.9394912659526233  0.6142480957999030  0.1667116525411673
  0.9392012016809071  0.7950461027812786  0.8753066172160069
  0.5670772676708948  0.3756453110285063  0.7882147949622350
  0.0632291313847357  0.3732399202368729  0.5217331816467680
  0.5631827710963183  0.3732268240044638  0.5217067030050415
  0.6827898030541293  0.1207094166864354  0.3002786158587930
  0.4359753828337635  0.9622599372472836  0.8336414427155032
  0.1879686732962552  0.9549194002455375  0.4780573175779441
  0.8171376151576835  0.8757063141872696  0.7882568002711440
  0.3126083113454429  0.3710412730343753  0.4341617220296553
  0.9375211271966707  0.7915052195389536  0.6104896315200050
  0.4375547183591930  0.2915136328743528  0.6104605299294682
  0.1877778359434235  0.4531026920291669  0.3450812425604434
  0.4377305688761626  0.2820151660950986  0.1249401950997256
  0.6869338080038051  0.7853500250194929  0.2561529836725187
  0.1887831095560448  0.9588952810466325  0.6996130142857413
  0.1902131193080569  0.2938874742722842  0.8753617002702455
  0.1858041391178977  0.1251096465881193  0.6549263043299066
  0.9357575995889106  0.1254922010036026  0.6548987702010065
  0.3084001022578027  0.2017327806405294  0.2118717520649978
  0.0606067208006176  0.0372762326059154  0.3894194513403805
  0.4389998947033497  0.9586048751976296  0.6997369611132402
  0.0622275552027033  0.5415415291744607  0.6104515717573840
  0.9367949920108025  0.2855496746017048  0.2560914189701198
  0.5627260178128310  0.5413642302807197  0.6104959786804430
  0.9382809772552265  0.9573941613815465  0.5657077965884412
  0.6826317201995750  0.6208385752014165  0.3002648952582067
  0.9379017743735721  0.6211232148477427  0.4341637124425282
  0.9422601508927355  0.6259882324251145  0.7884428122550633
  0.5640923412302535  0.7083080051924472  0.6997129159505738
  0.0616980391754282  0.7118237013878241  0.8335391970498508
  0.9328096771191867  0.1208616777686896  0.3003250038764978
  0.9388574029319212  0.4583703645867735  0.6995945719530220
  0.4366674091547719  0.7855746831192162  0.2560858134909951
  0.3171073645471498  0.3757830255365316  0.7883357673773740
  0.4329546135890401  0.4515588144104971  0.2117961749398346
  0.1882867532536307  0.1232262402045165  0.5217209908375147
  0.8141759446161564  0.7085764194801345  0.6997379069658978
  0.0622450632005801  0.0416173777506641  0.6104441738157600
  0.5623719876313455  0.2124548848776706  0.8335521823526731
  0.3132639079875624  0.8731956634896589  0.5217222191570421
  0.6881675474423495  0.2827434470314623  0.1247997115469168
  0.1831024894867862  0.9510796238287462  0.2118535949977924
  0.6875697774184690  0.2914871167375116  0.6104005283234253
  0.3123333195331187  0.0417566986335267  0.6104779770340116
  0.9417219108442099  0.1255410543863509  0.7883638050135581
  0.4404148461331207  0.7948199242963451  0.8755748307223727
  0.8129627678458197  0.0420266042039851  0.7439530405078314
  0.4382235442849730  0.1231993041320077  0.5216975051629534
  0.1857630132848996  0.6253639399157542  0.6549339791669753
  0.3139196597046617  0.7084535177345382  0.6997125885858575
  0.9377895976370710  0.2809883732115467  0.1249221167959682
  0.4378427429787046  0.4547702785011646  0.4781045863303148
  0.0629954136598593  0.7048410956526893  0.4780868387093899
  0.9379020051901364  0.1210277679870677  0.4341632120949890
  0.4327227439906352  0.1208954463076091  0.3003526026354599
  0.1878069623366016  0.1210348385020533  0.4341690086893312
  0.5642041336622098  0.0461686760073040  0.8751783794177403
  0.1881345486665053  0.9573022351198563  0.5657228909574997
  0.6897170332365271  0.7820439114336311  0.1249039965930198
  0.5642711309051643  0.5313631328654989  0.1249586752672413
  0.3102684388724092  0.0372515781293208  0.3894182922239445
  0.6896422198024044  0.1140118959257568  0.1666267890531975
  0.8089431407862222  0.2022951368610760  0.2120937032419345
  0.0620645226839221  0.5354187953172499  0.2560753152722253
  0.5627246589454283  0.7048912852621972  0.4781075229369538
  0.0632694572622638  0.2070702272775710  0.5656959593257066
  0.5576119676267147  0.3707403265649776  0.3003280580736482
  0.4374141795569039  0.9529616300193325  0.3450843816693060
  0.1866124457753542  0.9628149918676955  0.8335605508637687
  0.4399916645873349  0.6140679529429083  0.1665277711084728
  0.9337073291057396  0.4518467443101856  0.2118191442962009
  0.0627062648272147  0.5304371168484224  0.1247522124192190
  0.8131698653502922  0.3731540960623847  0.5217261530662561
  0.9329029831533153  0.6208616935765805  0.3003012484155588
  0.3118263396437663  0.0354166036449941  0.2561085856052128
  0.0632962080931550  0.8731415244615314  0.5217171286298008
  0.1863226265834248  0.4633674720795555  0.8336366162618818
  0.4413498056042702  0.1130237412485431  0.1666317265014342
  0.3133206172291134  0.3732117957203064  0.5217170824374531
  0.4426826326758203  0.6257947621049533  0.7883006731364430
  0.0620771065485403  0.0357174697354973  0.2560698622414967
  0.5633065256548891  0.7072020638845238  0.5656620581796669
  0.1826505843723146  0.6208853106376198  0.3003325751107205
  0.6923889893519580  0.1255310476319718  0.7883190974635506
  0.1829742192967730  0.4512864301034401  0.2117707351886087
  0.9356640874862719  0.7873060956839971  0.3894445640252768
  0.6901244754082291  0.2948892605327334  0.8754032741245822
  0.6875915966402507  0.7916574965361256  0.6104815448548817
  0.4394281386289404  0.4581327530733220  0.6996760038626579
  0.8111193371301619  0.3753963836349504  0.6548951258549205
  0.6881921395270966  0.6232543759425372  0.5217088348061322
  0.0607445398985276  0.8755950375940865  0.6549347692138318
  0.0667328245884974  0.8752875667495630  0.7882864846267357
  0.0607696911032328  0.3752631779968891  0.6548823245807752
  0.6878675514994702  0.4547714616417486  0.4781153002522162
  0.1869126086143172  0.7852595550324396  0.2561365482120644
  0.4374697681147772  0.1210795972310355  0.4341846540956670
  0.0606325200856477  0.5375297595970727  0.3894306361762814
  0.9382706043260908  0.6232033298266001  0.5217083083203110
  0.0628778466301124  0.8710156426901068  0.4341543099015990
  0.8127182574555121  0.5320119927361616  0.1249199387800627
  0.4375121718458636  0.4532022690468668  0.3450715159664440
  0.8129301226887832  0.2030978411649662  0.3450621517364264
  0.1870700695819134  0.2824410875184649  0.1245178945176895
  0.6858307493224830  0.1253418823807164  0.6548511764303528
  0.5577376050046121  0.8707582257984584  0.3003244900741295
  0.0631435381699287  0.5420259310354282  0.7439428358280875
  0.9374434564272424  0.7806827140009471  0.1249037402723456
  0.8084262700970490  0.7020103546225392  0.2119421623726901
  0.0576866656526671  0.8707067374230882  0.3003920086858743
  0.1825342708364016  0.1210888112424129  0.3003329796462871
  0.0629312250933512  0.7032258705212440  0.3450869852115809
  0.8125058991350509  0.0416764458897499  0.6104710658780300
  0.0629255052485786  0.3710318982624944  0.4341614811211996
  0.5626041661799402  0.2031067123557487  0.3450371351196961
  0.8077939501971088  0.3707472119392823  0.3002766921523277
  0.4378726616568105  0.9548103079906709  0.4780994288711368
  0.5601727424219816  0.5374323843799120  0.3894346320710647
  0.0630773401507695  0.2046869301995764  0.4780818718344355
  0.3171038390484213  0.8757995324690940  0.7882065033779285
  0.9392483255292253  0.9586637977805614  0.6997709189912561
  0.0576436102888736  0.3708369508962822  0.3003934539684739
  0.6859605324040999  0.6254294051909947  0.6549162128885770
  0.6882826147017380  0.4570118472840097  0.5656888301255529
  0.4332905463109235  0.9514878216916756  0.2118273836487566
  0.3129998302135195  0.2048357734403815  0.4780526803806595
  0.4359898893620764  0.1254624286680341  0.6549280427959951
  0.6876364966082794  0.6210703585025372  0.4341903965076212
  0.8140070428885348  0.2083969111465494  0.6996183326463449
  0.8129941983735073  0.7048328944083440  0.4781154546935289
  0.5625380893146863  0.3709938438354369  0.4342002383618361
  0.9379999622314587  0.9547591799724195  0.4780960734064960
  0.5628097000874355  0.2047768391017828  0.4781054873801212
  0.1878390650440797  0.6210753718500206  0.4341471705168320
  0.3127151365771074  0.0418808315043577  0.7439207498324705
  0.9359504106357907  0.6257604408744187  0.6548336161293775
  0.5620311059026266  0.7119878512525464  0.8334537837045471
  0.3077685593458703  0.3708749416819918  0.3003382538902176
  0.5582543063540361  0.7014847445904321  0.2120512863911158
  0.1880000937453570  0.4548583645437094  0.4780774269274258
  0.3143869105488599  0.0450517302692147  0.8753271419134084
  0.1885991562290066  0.4584337678769771  0.6997625072165981
  0.8136583814450765  0.5456991690650099  0.8751181573914941
  0.1855418994499368  0.2873118455149018  0.3894405876492503
  0.4374540147375644  0.6210951295241398  0.4341730072577983
  0.0581876096637832  0.7024752764936861  0.2118012560838111
  0.8134393082183998  0.0307126265770378  0.1249110386763064
  0.8147033306564971  0.3640494976019214  0.1669303068024550
  0.8115665802065070  0.7126470998136547  0.8335102757108823
  0.0668814196731640  0.3756235416635355  0.7883692526892341
  0.4409439504262581  0.2946024943685897  0.8753980577541013
  0.3124655511860777  0.0306860196610261  0.1241966224240484
  0.6876796686012583  0.1210402334551196  0.4341934485404133
  0.1877841829120581  0.9529533888854699  0.3451204158732892
  0.0611335120544474  0.2125678360084917  0.8335896235829180
  0.5625836673113737  0.0419217732278587  0.6105016765428134
  0.6836785113655803  0.4515801650329196  0.2118525687770449
  0.1882794251288085  0.7927136313397605  0.7438508458827346
  0.8128643171082668  0.8710169722006864  0.4341892978593825
  0.4350966844402860  0.7872807830541935  0.3894388141902254
  0.4368831838738030  0.2854890879292528  0.2560547729298679
  0.0646689111580990  0.5452906325141722  0.8753169640232776
  0.5625835632686211  0.0416188970350531  0.7439155634555689
  0.1911422003193309  0.7943973137997208  0.8758999949826770
  0.9379910101159139  0.4548356723568338  0.4781023553057566
  0.8105240364668791  0.5373986946807656  0.3894296672095518
  0.8133005122231747  0.2071178415890064  0.5657229015392019
  0.3126441739369136  0.7031884197486836  0.3450854952659660
  0.9338276257028505  0.9515719043943621  0.2118539413202409
  0.0639310555193822  0.7086963847296727  0.6996948730067853
  0.3119312391784513  0.5355684307363405  0.2560839204908839
  0.3085981703984939  0.7018118934947801  0.2118117758849647
  0.5653663166353083  0.8648385476994485  0.1665916846639698
  0.5628485851562369  0.5421207029499726  0.7438325258860358
  0.6877948154350416  0.4531776271852336  0.3450759697594512
  0.9403810047470601  0.2951286286061597  0.8753277750893901
  0.5621331708809052  0.0356105806339005  0.2560323331719784
  0.1893688852418562  0.1139291139180919  0.1663220519462356
  0.3113392759720601  0.7130259433139207  0.8341874676464732
  0.3163220838578151  0.8628539972266712  0.1661552212272903
  0.9376402554257430  0.2920254150464370  0.7439438941759909
  0.5640639650247521  0.0321909136083003  0.1251326801790986
  0.1903845852262666  0.6127386946226224  0.1661782907701263
  0.1920368900152613  0.6253916577532762  0.7880799432697166
 
  0.00000000E+00  0.00000000E+00  0.00000000E+00
  0.00000000E+00  0.00000000E+00  0.00000000E+00
  0.00000000E+00  0.00000000E+00  0.00000000E+00
  0.00000000E+00  0.00000000E+00  0.00000000E+00
  0.00000000E+00  0.00000000E+00  0.00000000E+00
  0.00000000E+00  0.00000000E+00  0.00000000E+00
  0.00000000E+00  0.00000000E+00  0.00000000E+00
  0.00000000E+00  0.00000000E+00  0.00000000E+00
  0.00000000E+00  0.00000000E+00  0.00000000E+00
  0.00000000E+00  0.00000000E+00  0.00000000E+00
  0.00000000E+00  0.00000000E+00  0.00000000E+00
  0.00000000E+00  0.00000000E+00  0.00000000E+00
  0.00000000E+00  0.00000000E+00  0.00000000E+00
  0.00000000E+00  0.00000000E+00  0.00000000E+00
  0.00000000E+00  0.00000000E+00  0.00000000E+00
  0.00000000E+00  0.00000000E+00  0.00000000E+00
  0.00000000E+00  0.00000000E+00  0.00000000E+00
  0.00000000E+00  0.00000000E+00  0.00000000E+00
  0.00000000E+00  0.00000000E+00  0.00000000E+00
  0.00000000E+00  0.00000000E+00  0.00000000E+00
  0.00000000E+00  0.00000000E+00  0.00000000E+00
  0.00000000E+00  0.00000000E+00  0.00000000E+00
  0.00000000E+00  0.00000000E+00  0.00000000E+00
  0.00000000E+00  0.00000000E+00  0.00000000E+00
  0.00000000E+00  0.00000000E+00  0.00000000E+00
  0.00000000E+00  0.00000000E+00  0.00000000E+00
  0.00000000E+00  0.00000000E+00  0.00000000E+00
  0.00000000E+00  0.00000000E+00  0.00000000E+00
  0.00000000E+00  0.00000000E+00  0.00000000E+00
  0.00000000E+00  0.00000000E+00  0.00000000E+00
  0.00000000E+00  0.00000000E+00  0.00000000E+00
  0.00000000E+00  0.00000000E+00  0.00000000E+00
  0.00000000E+00  0.00000000E+00  0.00000000E+00
  0.00000000E+00  0.00000000E+00  0.00000000E+00
  0.00000000E+00  0.00000000E+00  0.00000000E+00
  0.00000000E+00  0.00000000E+00  0.00000000E+00
  0.00000000E+00  0.00000000E+00  0.00000000E+00
  0.00000000E+00  0.00000000E+00  0.00000000E+00
  0.00000000E+00  0.00000000E+00  0.00000000E+00
  0.00000000E+00  0.00000000E+00  0.00000000E+00
  0.00000000E+00  0.00000000E+00  0.00000000E+00
  0.00000000E+00  0.00000000E+00  0.00000000E+00
  0.00000000E+00  0.00000000E+00  0.00000000E+00
  0.00000000E+00  0.00000000E+00  0.00000000E+00
  0.00000000E+00  0.00000000E+00  0.00000000E+00
  0.00000000E+00  0.00000000E+00  0.00000000E+00
  0.00000000E+00  0.00000000E+00  0.00000000E+00
  0.00000000E+00  0.00000000E+00  0.00000000E+00
  0.00000000E+00  0.00000000E+00  0.00000000E+00
  0.00000000E+00  0.00000000E+00  0.00000000E+00
  0.00000000E+00  0.00000000E+00  0.00000000E+00
  0.00000000E+00  0.00000000E+00  0.00000000E+00
  0.00000000E+00  0.00000000E+00  0.00000000E+00
  0.00000000E+00  0.00000000E+00  0.00000000E+00
  0.00000000E+00  0.00000000E+00  0.00000000E+00
  0.00000000E+00  0.00000000E+00  0.00000000E+00
  0.00000000E+00  0.00000000E+00  0.00000000E+00
  0.00000000E+00  0.00000000E+00  0.00000000E+00
  0.00000000E+00  0.00000000E+00  0.00000000E+00
  0.00000000E+00  0.00000000E+00  0.00000000E+00
  0.00000000E+00  0.00000000E+00  0.00000000E+00
  0.00000000E+00  0.00000000E+00  0.00000000E+00
  0.00000000E+00  0.00000000E+00  0.00000000E+00
  0.00000000E+00  0.00000000E+00  0.00000000E+00
  0.00000000E+00  0.00000000E+00  0.00000000E+00
  0.00000000E+00  0.00000000E+00  0.00000000E+00
  0.00000000E+00  0.00000000E+00  0.00000000E+00
  0.00000000E+00  0.00000000E+00  0.00000000E+00
  0.00000000E+00  0.00000000E+00  0.00000000E+00
  0.00000000E+00  0.00000000E+00  0.00000000E+00
  0.00000000E+00  0.00000000E+00  0.00000000E+00
  0.00000000E+00  0.00000000E+00  0.00000000E+00
  0.00000000E+00  0.00000000E+00  0.00000000E+00
  0.00000000E+00  0.00000000E+00  0.00000000E+00
  0.00000000E+00  0.00000000E+00  0.00000000E+00
  0.00000000E+00  0.00000000E+00  0.00000000E+00
  0.00000000E+00  0.00000000E+00  0.00000000E+00
  0.00000000E+00  0.00000000E+00  0.00000000E+00
  0.00000000E+00  0.00000000E+00  0.00000000E+00
  0.00000000E+00  0.00000000E+00  0.00000000E+00
  0.00000000E+00  0.00000000E+00  0.00000000E+00
  0.00000000E+00  0.00000000E+00  0.00000000E+00
  0.00000000E+00  0.00000000E+00  0.00000000E+00
  0.00000000E+00  0.00000000E+00  0.00000000E+00
  0.00000000E+00  0.00000000E+00  0.00000000E+00
  0.00000000E+00  0.00000000E+00  0.00000000E+00
  0.00000000E+00  0.00000000E+00  0.00000000E+00
  0.00000000E+00  0.00000000E+00  0.00000000E+00
  0.00000000E+00  0.00000000E+00  0.00000000E+00
  0.00000000E+00  0.00000000E+00  0.00000000E+00
  0.00000000E+00  0.00000000E+00  0.00000000E+00
  0.00000000E+00  0.00000000E+00  0.00000000E+00
  0.00000000E+00  0.00000000E+00  0.00000000E+00
  0.00000000E+00  0.00000000E+00  0.00000000E+00
  0.00000000E+00  0.00000000E+00  0.00000000E+00
  0.00000000E+00  0.00000000E+00  0.00000000E+00
  0.00000000E+00  0.00000000E+00  0.00000000E+00
  0.00000000E+00  0.00000000E+00  0.00000000E+00
  0.00000000E+00  0.00000000E+00  0.00000000E+00
  0.00000000E+00  0.00000000E+00  0.00000000E+00
  0.00000000E+00  0.00000000E+00  0.00000000E+00
  0.00000000E+00  0.00000000E+00  0.00000000E+00
  0.00000000E+00  0.00000000E+00  0.00000000E+00
  0.00000000E+00  0.00000000E+00  0.00000000E+00
  0.00000000E+00  0.00000000E+00  0.00000000E+00
  0.00000000E+00  0.00000000E+00  0.00000000E+00
  0.00000000E+00  0.00000000E+00  0.00000000E+00
  0.00000000E+00  0.00000000E+00  0.00000000E+00
  0.00000000E+00  0.00000000E+00  0.00000000E+00
  0.00000000E+00  0.00000000E+00  0.00000000E+00
  0.00000000E+00  0.00000000E+00  0.00000000E+00
  0.00000000E+00  0.00000000E+00  0.00000000E+00
  0.00000000E+00  0.00000000E+00  0.00000000E+00
  0.00000000E+00  0.00000000E+00  0.00000000E+00
  0.00000000E+00  0.00000000E+00  0.00000000E+00
  0.00000000E+00  0.00000000E+00  0.00000000E+00
  0.00000000E+00  0.00000000E+00  0.00000000E+00
  0.00000000E+00  0.00000000E+00  0.00000000E+00
  0.00000000E+00  0.00000000E+00  0.00000000E+00
  0.00000000E+00  0.00000000E+00  0.00000000E+00
  0.00000000E+00  0.00000000E+00  0.00000000E+00
  0.00000000E+00  0.00000000E+00  0.00000000E+00
  0.00000000E+00  0.00000000E+00  0.00000000E+00
  0.00000000E+00  0.00000000E+00  0.00000000E+00
  0.00000000E+00  0.00000000E+00  0.00000000E+00
  0.00000000E+00  0.00000000E+00  0.00000000E+00
  0.00000000E+00  0.00000000E+00  0.00000000E+00
  0.00000000E+00  0.00000000E+00  0.00000000E+00
  0.00000000E+00  0.00000000E+00  0.00000000E+00
  0.00000000E+00  0.00000000E+00  0.00000000E+00
  0.00000000E+00  0.00000000E+00  0.00000000E+00
  0.00000000E+00  0.00000000E+00  0.00000000E+00
  0.00000000E+00  0.00000000E+00  0.00000000E+00
  0.00000000E+00  0.00000000E+00  0.00000000E+00
  0.00000000E+00  0.00000000E+00  0.00000000E+00
  0.00000000E+00  0.00000000E+00  0.00000000E+00
  0.00000000E+00  0.00000000E+00  0.00000000E+00
  0.00000000E+00  0.00000000E+00  0.00000000E+00
  0.00000000E+00  0.00000000E+00  0.00000000E+00
  0.00000000E+00  0.00000000E+00  0.00000000E+00
  0.00000000E+00  0.00000000E+00  0.00000000E+00
  0.00000000E+00  0.00000000E+00  0.00000000E+00
  0.00000000E+00  0.00000000E+00  0.00000000E+00
  0.00000000E+00  0.00000000E+00  0.00000000E+00
  0.00000000E+00  0.00000000E+00  0.00000000E+00
  0.00000000E+00  0.00000000E+00  0.00000000E+00
  0.00000000E+00  0.00000000E+00  0.00000000E+00
  0.00000000E+00  0.00000000E+00  0.00000000E+00
  0.00000000E+00  0.00000000E+00  0.00000000E+00
  0.00000000E+00  0.00000000E+00  0.00000000E+00
  0.00000000E+00  0.00000000E+00  0.00000000E+00
  0.00000000E+00  0.00000000E+00  0.00000000E+00
  0.00000000E+00  0.00000000E+00  0.00000000E+00
  0.00000000E+00  0.00000000E+00  0.00000000E+00
  0.00000000E+00  0.00000000E+00  0.00000000E+00
  0.00000000E+00  0.00000000E+00  0.00000000E+00
  0.00000000E+00  0.00000000E+00  0.00000000E+00
  0.00000000E+00  0.00000000E+00  0.00000000E+00
  0.00000000E+00  0.00000000E+00  0.00000000E+00
  0.00000000E+00  0.00000000E+00  0.00000000E+00
  0.00000000E+00  0.00000000E+00  0.00000000E+00
  0.00000000E+00  0.00000000E+00  0.00000000E+00
  0.00000000E+00  0.00000000E+00  0.00000000E+00
  0.00000000E+00  0.00000000E+00  0.00000000E+00
  0.00000000E+00  0.00000000E+00  0.00000000E+00
  0.00000000E+00  0.00000000E+00  0.00000000E+00
  0.00000000E+00  0.00000000E+00  0.00000000E+00
  0.00000000E+00  0.00000000E+00  0.00000000E+00
  0.00000000E+00  0.00000000E+00  0.00000000E+00
  0.00000000E+00  0.00000000E+00  0.00000000E+00
  0.00000000E+00  0.00000000E+00  0.00000000E+00
  0.00000000E+00  0.00000000E+00  0.00000000E+00
  0.00000000E+00  0.00000000E+00  0.00000000E+00
  0.00000000E+00  0.00000000E+00  0.00000000E+00
  0.00000000E+00  0.00000000E+00  0.00000000E+00
  0.00000000E+00  0.00000000E+00  0.00000000E+00
  0.00000000E+00  0.00000000E+00  0.00000000E+00
  0.00000000E+00  0.00000000E+00  0.00000000E+00
  0.00000000E+00  0.00000000E+00  0.00000000E+00
  0.00000000E+00  0.00000000E+00  0.00000000E+00
  0.00000000E+00  0.00000000E+00  0.00000000E+00
  0.00000000E+00  0.00000000E+00  0.00000000E+00
  0.00000000E+00  0.00000000E+00  0.00000000E+00
  0.00000000E+00  0.00000000E+00  0.00000000E+00
  0.00000000E+00  0.00000000E+00  0.00000000E+00
  0.00000000E+00  0.00000000E+00  0.00000000E+00
  0.00000000E+00  0.00000000E+00  0.00000000E+00
  0.00000000E+00  0.00000000E+00  0.00000000E+00
  0.00000000E+00  0.00000000E+00  0.00000000E+00
  0.00000000E+00  0.00000000E+00  0.00000000E+00
  0.00000000E+00  0.00000000E+00  0.00000000E+00
  0.00000000E+00  0.00000000E+00  0.00000000E+00
  0.00000000E+00  0.00000000E+00  0.00000000E+00
  0.00000000E+00  0.00000000E+00  0.00000000E+00
  0.00000000E+00  0.00000000E+00  0.00000000E+00
  0.00000000E+00  0.00000000E+00  0.00000000E+00
  0.00000000E+00  0.00000000E+00  0.00000000E+00
  0.00000000E+00  0.00000000E+00  0.00000000E+00
  0.00000000E+00  0.00000000E+00  0.00000000E+00
  0.00000000E+00  0.00000000E+00  0.00000000E+00
  0.00000000E+00  0.00000000E+00  0.00000000E+00
  0.00000000E+00  0.00000000E+00  0.00000000E+00
  0.00000000E+00  0.00000000E+00  0.00000000E+00
  0.00000000E+00  0.00000000E+00  0.00000000E+00
  0.00000000E+00  0.00000000E+00  0.00000000E+00
  0.00000000E+00  0.00000000E+00  0.00000000E+00
  0.00000000E+00  0.00000000E+00  0.00000000E+00
  0.00000000E+00  0.00000000E+00  0.00000000E+00
  0.00000000E+00  0.00000000E+00  0.00000000E+00
  0.00000000E+00  0.00000000E+00  0.00000000E+00
  0.00000000E+00  0.00000000E+00  0.00000000E+00
  0.00000000E+00  0.00000000E+00  0.00000000E+00
  0.00000000E+00  0.00000000E+00  0.00000000E+00
  0.00000000E+00  0.00000000E+00  0.00000000E+00
  0.00000000E+00  0.00000000E+00  0.00000000E+00
  0.00000000E+00  0.00000000E+00  0.00000000E+00
  0.00000000E+00  0.00000000E+00  0.00000000E+00
  0.00000000E+00  0.00000000E+00  0.00000000E+00
  0.00000000E+00  0.00000000E+00  0.00000000E+00
  0.00000000E+00  0.00000000E+00  0.00000000E+00
  0.00000000E+00  0.00000000E+00  0.00000000E+00
  0.00000000E+00  0.00000000E+00  0.00000000E+00
  0.00000000E+00  0.00000000E+00  0.00000000E+00
  0.00000000E+00  0.00000000E+00  0.00000000E+00
  0.00000000E+00  0.00000000E+00  0.00000000E+00
  0.00000000E+00  0.00000000E+00  0.00000000E+00
  0.00000000E+00  0.00000000E+00  0.00000000E+00
  0.00000000E+00  0.00000000E+00  0.00000000E+00
  0.00000000E+00  0.00000000E+00  0.00000000E+00
  0.00000000E+00  0.00000000E+00  0.00000000E+00
  0.00000000E+00  0.00000000E+00  0.00000000E+00
  0.00000000E+00  0.00000000E+00  0.00000000E+00
  0.00000000E+00  0.00000000E+00  0.00000000E+00
  0.00000000E+00  0.00000000E+00  0.00000000E+00
  0.00000000E+00  0.00000000E+00  0.00000000E+00
  0.00000000E+00  0.00000000E+00  0.00000000E+00
  0.00000000E+00  0.00000000E+00  0.00000000E+00
  0.00000000E+00  0.00000000E+00  0.00000000E+00
  0.00000000E+00  0.00000000E+00  0.00000000E+00
  0.00000000E+00  0.00000000E+00  0.00000000E+00
  0.00000000E+00  0.00000000E+00  0.00000000E+00
  0.00000000E+00  0.00000000E+00  0.00000000E+00
  0.00000000E+00  0.00000000E+00  0.00000000E+00
  0.00000000E+00  0.00000000E+00  0.00000000E+00
  0.00000000E+00  0.00000000E+00  0.00000000E+00
  0.00000000E+00  0.00000000E+00  0.00000000E+00
  0.00000000E+00  0.00000000E+00  0.00000000E+00