CuInSe2gb                               
   1.00000000000000     
     9.7266780392896699    0.0000000000000000    0.0000000000000000
     0.0000000000000000    8.4235502764570693    0.0000000000000000
     0.0000000000000000    0.0000000000000000   45.0000000000000000
   Fe   Mn
   281     7
Direct
  0.0636857940659630  0.0337421576920804  0.1247352601628809
  0.0631805744717365  0.8729868547437419  0.5216631041826846
  0.1908112441834954  0.1243057168103986  0.7882378959279051
  0.4349410702059630  0.2875490605532001  0.3894343504170487
  0.3106014856162715  0.7113610107485586  0.8334691746711637
  0.8105861123123234  0.2113563008843178  0.8334411327691127
  0.1854870620189174  0.7877554842171995  0.3894747435862894
  0.5629706270851018  0.2066607255601861  0.5654910238942241
  0.0618161791978392  0.0410579954699273  0.7438752783293349
  0.8131215732984179  0.8730254871363095  0.5217359542808805
  0.1869549818857224  0.2912201967951086  0.7438974119161789
  0.9377221040260131  0.4530480943020662  0.3451280407606626
  0.9354910448027826  0.2874511913791812  0.3894319102798972
  0.8127824630412169  0.0433827846117998  0.8752664129071148
  0.1872813175888110  0.7911291304374372  0.6105362421074747
  0.5603998128507174  0.0371213913876960  0.3894886188505781
  0.9355252638963384  0.9612317652366273  0.8334623673561264
  0.3127554842553187  0.5434152719183686  0.8752660834761076
  0.6869801686235555  0.2911495931474534  0.7439221997127460
  0.1904080089114993  0.6150425458441532  0.1666409049929080
  0.8131611705390837  0.2049462428629963  0.4781548533083085
  0.8126155253046893  0.5410774714921590  0.6104150159390791
  0.3129702753983299  0.8710284523641544  0.4340793089710441
  0.8131945255219124  0.0366213531910828  0.2560900269575186
  0.6880431924984364  0.9534060399752774  0.3450986772852616
  0.9411256325002556  0.1145879577932624  0.1666864353703547
  0.9384291619176240  0.1229344489936420  0.5216846175569334
  0.5630153921985456  0.5368986643497937  0.2560378761138731
  0.6880739612574891  0.7933692823313556  0.8753255382976758
  0.5667085750337632  0.3655545817200604  0.1665994336503269
  0.4368779295402633  0.7913414438555630  0.7439085198078815
  0.8130489739391284  0.7073720752855784  0.5655580317761583
  0.5657809577518661  0.8742261396556634  0.7882081986943441
  0.6884003240681534  0.1230694437196891  0.5216817570337460
  0.1884206087135357  0.2869726209613297  0.2560746670720920
  0.9355072065620013  0.4612750051706507  0.8334661227770713
  0.0629483540917241  0.2076570103618019  0.6996384698788134
  0.4381962105677280  0.9575550258110931  0.6996951392161181
  0.3106473083088137  0.2113374266810372  0.8334317472173491
  0.4354440316604247  0.6250768879879727  0.6548595581739617
  0.3126682230535661  0.5409541033464803  0.6104664895439216
  0.9379474383849222  0.4569086882041368  0.5656810648948027
  0.6869372034323903  0.7911005777402113  0.7439076981877240
  0.3105335410669128  0.8750190364091396  0.6548823039769994
  0.6853659906656923  0.7873312639259856  0.3894701525102712
  0.9368409289360318  0.7911863624110812  0.7438861130236440
  0.0629450111157857  0.2032118432108159  0.3450749260663982
  0.8104060972443872  0.0376322015609004  0.3894556239002374
  0.4408146841137540  0.1243319912955682  0.7882534814087619
  0.0608677621800066  0.2032610190299693  0.2117403680378228
  0.0662508739445644  0.3655604218280706  0.1666694969900847
  0.9381424009016226  0.7868150947852309  0.2560491041245907
  0.5633823525332732  0.2077089006800878  0.6996784933342690
  0.6881970923646673  0.9575671558934216  0.6996511467556871
  0.4394069434529218  0.7833582465250953  0.1249308130695055
  0.4383222219616899  0.9566634352336139  0.5657705716044427
  0.8157331188255013  0.3741472518402468  0.7882181798975882
  0.6881220308295164  0.2868028535414725  0.2560974282748277
  0.1882982412822295  0.4567105815091592  0.5657305393923091
  0.0653811786976998  0.8653681954125870  0.1666048506258031
  0.1877187057609058  0.2908745009063840  0.6104495480752256
  0.5629462799816779  0.7034864996970959  0.3450930481830425
  0.3132018800868180  0.2077270426824811  0.6996497193874048
  0.5627176891052914  0.5433560783906698  0.8752653981624899
  0.0628374996964457  0.7067152946566161  0.5657609654209564
  0.6907725214980579  0.6242476982689533  0.7882509738855743
  0.3105555930234640  0.5379138269736120  0.3893826257481049
  0.1877396924698722  0.6230649871457744  0.5216843006347210
  0.5625702134380023  0.8709735221550101  0.4341323111031580
  0.4382994477655835  0.4562777672106454  0.5657011868256258
  0.4369026678367780  0.2912741413963589  0.7438975239321479
  0.8082902248582861  0.8719268635015744  0.3004177342136133
  0.8129761897425541  0.7034040541465305  0.3451831799184206
  0.4354660027884007  0.4612387019074191  0.8334516172464783
  0.6878555227753057  0.9545273422522587  0.4781604645492649
  0.6882191822820837  0.4576227708137111  0.6996607262892962
  0.5629383522593043  0.8732138558735909  0.5216972716767314
  0.5601838247353734  0.3748447283005775  0.6548749657852505
  0.8104000071063603  0.8748098838022793  0.6548417317697665
  0.8127049507809295  0.3710094037105977  0.4342977099758443
  0.8130372057656616  0.5369914107060307  0.2560611909918745
  0.6854775545484385  0.4612409065330851  0.8334615990416996
  0.1904442819299791  0.7817287832689153  0.1249505377808480
  0.0627434797580333  0.0433579907207191  0.8752657865346981
  0.3104749369317510  0.3749827986411517  0.6548620232647046
  0.3127979889948517  0.2030478247522192  0.3450378026024766
  0.8119023444548826  0.5410485411319425  0.7439368125277220
  0.6854769365978198  0.9612441484172387  0.8334574680375849
  0.5602616053170325  0.8749875061393002  0.6548869033084654
  0.3128670368097188  0.7069237437248457  0.5658256344350457
  0.3133856168468019  0.5333292807761507  0.1244972920855211
  0.6855790365810228  0.9539914213171822  0.2119921858484197
  0.3131607826057022  0.2071009663590556  0.5657277933023900
  0.3119305148736728  0.5409642457019941  0.7439060951406787
  0.6881351338653763  0.9570744635316404  0.5656723776388305
  0.4374903879716802  0.7906937029004022  0.6104079162795645
  0.6913095584781850  0.6154084914584066  0.1667590943494568
  0.3082898254144408  0.8718255941563676  0.3003487058053885
  0.3126570356813032  0.7043921930860044  0.4781066282483722
  0.9378530635780586  0.2910860460276069  0.6103623952416771
  0.4333878430113614  0.6218084726132579  0.3003765811110677
  0.8171050150138980  0.8652537618585188  0.1665690145823945
  0.5605314922959993  0.2034505163975692  0.2118555168764585
  0.9404543255220580  0.6166390515094677  0.1667752992000915
  0.9381557140683380  0.7933683686402435  0.8753000070276328
  0.5657744004035761  0.3742055171274822  0.7882258651683739
  0.0633385310445883  0.3725237048378936  0.5216982699625439
  0.5638511979971980  0.3729289576120274  0.5217382941806787
  0.6834256376263893  0.1219596774248447  0.3003552697383495
  0.4354668676659997  0.9612173169961248  0.8334605525930173
  0.1903080042012724  0.2834833255788082  0.1247652627769019
  0.8157233821977236  0.8742363987658879  0.7881849792239258
  0.3127830159303876  0.3709212444997582  0.4341622737430373
  0.9377648407744048  0.7912165490038012  0.6104460321725338
  0.4374656673258682  0.2908031803254659  0.6105075264472967
  0.1879695604950935  0.4530079734317335  0.3451879462977518
  0.4394238850366372  0.2833397518512044  0.1246810260048274
  0.6883217737030044  0.7866106736373250  0.2561045325882148
  0.1882568417924531  0.9577071905208725  0.6996835972374464
  0.1880978141332450  0.2933330999442776  0.8753059518337296
  0.1855636830281409  0.1245486814610413  0.6548262169299235
  0.9355115138975795  0.1247075190316271  0.6548401880765125
  0.3101212201863975  0.2034529418621997  0.2119628170957649
  0.0603591878777413  0.0370434352146464  0.3894496094346114
  0.1908594927832820  0.1158939148177594  0.1669653924208098
  0.0623243774477365  0.5408526310733405  0.6104626309645171
  0.9378556808697438  0.2867249322533625  0.2560350212148760
  0.5623579531484819  0.5408722969385782  0.6104132828655264
  0.9380403435842768  0.9571867060863188  0.5657689653501613
  0.6832047060327696  0.6221337552690948  0.3002919696344042
  0.9376038274544417  0.6208472972906985  0.4342340548431308
  0.9408418529050393  0.6242627537135280  0.7882677176473176
  0.5631530797430413  0.7076555143604610  0.6996890015683406
  0.0606234616715758  0.7112905992215514  0.8334258379668106
  0.9335521189597211  0.1217002780914713  0.3003023115805521
  0.9383264608856141  0.4575231973465672  0.6996936425704119
  0.4382375301194262  0.7866473812001792  0.2560809904606229
  0.3157688240245488  0.3740824366250161  0.7882036845275480
  0.4357128402561217  0.4538404704689679  0.2119314165643041
  0.1876872699630710  0.1233407319893630  0.5216888896506122
  0.8131838782979047  0.7077204248836193  0.6996675246969513
  0.0627336764887457  0.0410043856028146  0.6104567989261175
  0.5606544341983659  0.2113032386143788  0.8334390184335093
  0.3134263772061464  0.8731245159320938  0.5217271193590048
  0.6909522319538560  0.2842117324626979  0.1249259420971391
  0.1857987508141552  0.9538097371964748  0.2120069178721227
  0.6875389882856310  0.2910441737687691  0.6104209574366808
  0.3122786548503172  0.0407957463215119  0.6105002963050176
  0.9407820974209188  0.1243955704293102  0.7882683085422063
  0.4381048391296559  0.7933639211817143  0.8753035661925417
  0.8118778175019100  0.0408708387160924  0.7439471259882631
  0.4378898863295901  0.1228362013081175  0.5217116740054504
  0.1854786010460777  0.6251457028186127  0.6549247007494534
  0.3132742742809406  0.7076742194592016  0.6996920373463643
  0.9393011924562810  0.2838216159777750  0.1250070905233568
  0.4379800660966868  0.4544761451184147  0.4781966789783326
  0.0627536543912697  0.7041442932054874  0.4780948964993560
  0.9376958553708751  0.1210504248801024  0.4341819096566860
  0.4331719113346228  0.1218215652841832  0.3003730354493001
  0.1876278420283690  0.1215143375698023  0.4341478594681647
  0.5627443985393353  0.0434074494475655  0.8752691705247831
  0.1879575161004686  0.9568057848484883  0.5654083340010297
  0.6903954866711207  0.7812231376520691  0.1249187254315181
  0.5638773420368509  0.5338256077928372  0.1246995307712735
  0.3101934649729813  0.0368316277827080  0.3894720615243871
  0.6905641788315579  0.1148383262628708  0.1668830827846887
  0.8105993628080986  0.2033354289320343  0.2119343184507582
  0.0631332813771583  0.5368547016895557  0.2561418575766212
  0.5626426048303317  0.7047936741548158  0.4781480446024301
  0.0630982334925972  0.2068091585359773  0.5656888132576687
  0.5583940506014208  0.3716438272016853  0.3003807528934050
  0.4377933172962533  0.9531355832641650  0.3450428968997857
  0.1855338186065673  0.9612118698995650  0.8334621053381192
  0.4411772908236788  0.6147847384216634  0.1668773308759414
  0.9355497059332571  0.4535774019891380  0.2119941276636299
  0.0649882933565181  0.5340332188232740  0.1247313433596180
  0.8129523035755112  0.3726313911075800  0.5217484264136594
  0.9332748882948075  0.6217970371734447  0.3004289367440089
  0.3131644637072040  0.0365611159833315  0.2561082423473699
  0.6876758790622722  0.7913129092382090  0.6105079686227294
  0.1855369880745403  0.4612374862145277  0.8334497863014066
  0.4410049014840723  0.1147866255263538  0.1668376716992307
  0.3124157215784655  0.3725442820149108  0.5217389924509220
  0.4409119491593089  0.6241689199086332  0.7882184361040474
  0.0628869335790613  0.0363596465039348  0.2560907296545628
  0.5635221843202426  0.7068896963312834  0.5656381586929826
  0.9369103134775653  0.2912445733982925  0.7439303175582157
  0.6907898114924231  0.1243357113083678  0.7882654917985381
  0.1852937747323513  0.4542943103413407  0.2120417011504850
  0.9356117739066561  0.7873764379395709  0.3894135196157030
  0.6880795905011673  0.2933568684252846  0.8752959696773251
  0.3171240198034014  0.8652308785188030  0.1665725242501766
  0.4382879615132690  0.4578130303385297  0.6996989470113724
  0.9379776539794210  0.9533670448300511  0.3450321016186120
  0.6885314342331701  0.6225880996394609  0.5217716985106717
  0.0609644963594448  0.8747524307882696  0.6548360487920392
  0.0658699986355206  0.8742302935540083  0.7882208624520508
  0.0609122907538290  0.3748687596699617  0.6548882325996666
  0.6874309516652528  0.4549537271005135  0.4781365119826392
  0.1881569972450126  0.7865362951722313  0.2560741910650571
  0.4373763327000232  0.1211187767135988  0.4342063899908494
  0.8145717082159133  0.0350082609168427  0.1247619374439791
  0.9380271320069486  0.6234709897002394  0.5217280993322703
  0.0622682215248944  0.8708364480966934  0.4342030892986632
  0.8130012532236776  0.5338855283408408  0.1247554184960903
  0.4380485314375621  0.4532848304748720  0.3450868990682157
  0.8131583046274077  0.2033019719043537  0.3450174725783316
  0.3130247873744144  0.7030428979343900  0.3450886904045509
  0.6855800245711674  0.1246693428335730  0.6548615502306364
  0.5584175524256986  0.8719719098577692  0.3003263743353107
  0.0619886389570165  0.5411668156578485  0.7439526965933545
  0.9356060439226619  0.9539201720027854  0.2119803510918254
  0.8104353035349781  0.7032571192569614  0.2118457763008567
  0.0585177610051462  0.8720521959223567  0.3003776310391355
  0.1832850695905207  0.1217869860406783  0.3003500306883696
  0.0629110183011181  0.7032380408733635  0.3450493024816816
  0.8126274648884753  0.0414171981782279  0.6104828468617587
  0.0624583711996775  0.3711203900805419  0.4342789421715533
  0.5629335721038687  0.2034273400785492  0.3450663158087257
  0.8082230493930119  0.3716412533525449  0.3003159799905710
  0.4384518619205056  0.9546293359675150  0.4781220479688848
  0.5601857077256011  0.5374192077616352  0.3894179812978587
  0.0620869642743155  0.2049356923665419  0.4781058034262736
  0.3157521928124707  0.8741569093260123  0.7882166151525757
  0.9382576817688302  0.9575538345200604  0.6997057377112207
  0.0583367467285733  0.3719492949215919  0.3003994058891051
  0.6854657445341913  0.6250456430256328  0.6548901830085234
  0.6877987338679433  0.4570568251847735  0.5656853571287941
  0.4357551890802726  0.9534369518780752  0.2119716145235353
  0.3134891022022419  0.2051749210893981  0.4780961699578786
  0.4355897368244889  0.1246360445075506  0.6547929623641476
  0.6877665960543181  0.6206088508239712  0.4341169656156932
  0.8133327477551766  0.2076392423657264  0.6996826148269293
  0.8131195671947176  0.7045718822794275  0.4780843802252837
  0.8127965693820451  0.8707474964917219  0.4342579438073608
  0.9372106533356934  0.9549407686000168  0.4780896040712089
  0.5624740544401342  0.2049616223723121  0.4781828930440159
  0.1873455549693653  0.6210823280032527  0.4341336612761948
  0.3119222000100742  0.0410892592111066  0.7438997818005463
  0.9357290958923445  0.6248536287056344  0.6549095767129967
  0.5605984941068292  0.7112558589828257  0.8334176233126205
  0.3084692817702289  0.3716426858791199  0.3003090378143345
  0.5603481218631100  0.7026734347121585  0.2120532457599569
  0.1880189848825589  0.4552597798124659  0.4781377718653107
  0.3127565805348563  0.0434303181513484  0.8752689481235028
  0.1883182871716005  0.4577685576114133  0.6996612375814251
  0.8127481011690509  0.5434076972619063  0.8752633391409126
  0.1851411770604383  0.2876615105397715  0.3893608496612293
  0.4376840380936164  0.6208687261131731  0.4344979771756599
  0.0607662914303195  0.7036016574858728  0.2118249198574518
  0.5625926795419445  0.3709595494658747  0.4341474016036870
  0.8168117637954248  0.3646622019946511  0.1667800219521154
  0.8106402846438659  0.7112220085737379  0.8334551924114750
  0.0657919705491995  0.3741909333954544  0.7882148260598985
  0.4381323231549353  0.2933978803546854  0.8753007797453992
  0.3127112638306475  0.0343395724750274  0.1248549827370398
  0.6877387318128907  0.1207545078220252  0.4342477986516834
  0.1879417823831583  0.9535111587897039  0.3450688413580054
  0.0605423524556475  0.2113240664903463  0.8334269030688307
  0.5626226597332697  0.0407900016392618  0.6104693654149209
  0.6857657367445631  0.4534998282344226  0.2119743702761486
  0.1868734071963949  0.7912799037214779  0.7439117154403290
  0.1831840741625087  0.6218786583799050  0.3004019268413590
  0.4350750968720802  0.7872079204200807  0.3893378637073101
  0.4382541478975223  0.2865180830115003  0.2561552579321560
  0.0627553256962079  0.5433858782585544  0.8752614825565780
  0.5619168645981091  0.0411550741900382  0.7438915011567961
  0.1881186396408911  0.7933753690353590  0.8753040812086242
  0.9375662737759780  0.4546916144388205  0.4781487136172706
  0.8105785513662739  0.5373550767594444  0.3894792386240386
  0.8131888260192087  0.2070428596073372  0.5656232428802574
  0.1908318702753916  0.6241854184963129  0.7882227960046242
  0.0601286456992640  0.5379239754529287  0.3894399550616531
  0.0631942010640795  0.7076918734593223  0.6996686658857956
  0.3129507639151112  0.5366866359407446  0.2560812094162402
  0.3105345370100573  0.7030464176674592  0.2118928245550445
  0.5666595378852285  0.8658330384925602  0.1667187577648162
  0.5618227087850448  0.5411368107049007  0.7439438710866327
  0.6880253679526034  0.4534399034487695  0.3450719212757722
  0.9381322977117312  0.2934014856237985  0.8752988867401469
  0.5630934204986944  0.0365554085404905  0.2559927892015613
  0.6849619634658851  0.2873491556120495  0.3893436178527525
  0.3166335417601531  0.3651735205890939  0.1662809640028163
  0.4383017169299866  0.6232393014760431  0.5215555602423338
  0.5633183439110249  0.0333399295496879  0.1249093016432448
  0.9395457571740468  0.7839315728350535  0.1249670921553373
  0.8103305839477644  0.3747994169524734  0.6547733535561672
  0.1875640946157123  0.9545728676173408  0.4782918237272198
 
  0.00000000E+00  0.00000000E+00  0.00000000E+00
  0.00000000E+00  0.00000000E+00  0.00000000E+00
  0.00000000E+00  0.00000000E+00  0.00000000E+00
  0.00000000E+00  0.00000000E+00  0.00000000E+00
  0.00000000E+00  0.00000000E+00  0.00000000E+00
  0.00000000E+00  0.00000000E+00  0.00000000E+00
  0.00000000E+00  0.00000000E+00  0.00000000E+00
  0.00000000E+00  0.00000000E+00  0.00000000E+00
  0.00000000E+00  0.00000000E+00  0.00000000E+00
  0.00000000E+00  0.00000000E+00  0.00000000E+00
  0.00000000E+00  0.00000000E+00  0.00000000E+00
  0.00000000E+00  0.00000000E+00  0.00000000E+00
  0.00000000E+00  0.00000000E+00  0.00000000E+00
  0.00000000E+00  0.00000000E+00  0.00000000E+00
  0.00000000E+00  0.00000000E+00  0.00000000E+00
  0.00000000E+00  0.00000000E+00  0.00000000E+00
  0.00000000E+00  0.00000000E+00  0.00000000E+00
  0.00000000E+00  0.00000000E+00  0.00000000E+00
  0.00000000E+00  0.00000000E+00  0.00000000E+00
  0.00000000E+00  0.00000000E+00  0.00000000E+00
  0.00000000E+00  0.00000000E+00  0.00000000E+00
  0.00000000E+00  0.00000000E+00  0.00000000E+00
  0.00000000E+00  0.00000000E+00  0.00000000E+00
  0.00000000E+00  0.00000000E+00  0.00000000E+00
  0.00000000E+00  0.00000000E+00  0.00000000E+00
  0.00000000E+00  0.00000000E+00  0.00000000E+00
  0.00000000E+00  0.00000000E+00  0.00000000E+00
  0.00000000E+00  0.00000000E+00  0.00000000E+00
  0.00000000E+00  0.00000000E+00  0.00000000E+00
  0.00000000E+00  0.00000000E+00  0.00000000E+00
  0.00000000E+00  0.00000000E+00  0.00000000E+00
  0.00000000E+00  0.00000000E+00  0.00000000E+00
  0.00000000E+00  0.00000000E+00  0.00000000E+00
  0.00000000E+00  0.00000000E+00  0.00000000E+00
  0.00000000E+00  0.00000000E+00  0.00000000E+00
  0.00000000E+00  0.00000000E+00  0.00000000E+00
  0.00000000E+00  0.00000000E+00  0.00000000E+00
  0.00000000E+00  0.00000000E+00  0.00000000E+00
  0.00000000E+00  0.00000000E+00  0.00000000E+00
  0.00000000E+00  0.00000000E+00  0.00000000E+00
  0.00000000E+00  0.00000000E+00  0.00000000E+00
  0.00000000E+00  0.00000000E+00  0.00000000E+00
  0.00000000E+00  0.00000000E+00  0.00000000E+00
  0.00000000E+00  0.00000000E+00  0.00000000E+00
  0.00000000E+00  0.00000000E+00  0.00000000E+00
  0.00000000E+00  0.00000000E+00  0.00000000E+00
  0.00000000E+00  0.00000000E+00  0.00000000E+00
  0.00000000E+00  0.00000000E+00  0.00000000E+00
  0.00000000E+00  0.00000000E+00  0.00000000E+00
  0.00000000E+00  0.00000000E+00  0.00000000E+00
  0.00000000E+00  0.00000000E+00  0.00000000E+00
  0.00000000E+00  0.00000000E+00  0.00000000E+00
  0.00000000E+00  0.00000000E+00  0.00000000E+00
  0.00000000E+00  0.00000000E+00  0.00000000E+00
  0.00000000E+00  0.00000000E+00  0.00000000E+00
  0.00000000E+00  0.00000000E+00  0.00000000E+00
  0.00000000E+00  0.00000000E+00  0.00000000E+00
  0.00000000E+00  0.00000000E+00  0.00000000E+00
  0.00000000E+00  0.00000000E+00  0.00000000E+00
  0.00000000E+00  0.00000000E+00  0.00000000E+00
  0.00000000E+00  0.00000000E+00  0.00000000E+00
  0.00000000E+00  0.00000000E+00  0.00000000E+00
  0.00000000E+00  0.00000000E+00  0.00000000E+00
  0.00000000E+00  0.00000000E+00  0.00000000E+00
  0.00000000E+00  0.00000000E+00  0.00000000E+00
  0.00000000E+00  0.00000000E+00  0.00000000E+00
  0.00000000E+00  0.00000000E+00  0.00000000E+00
  0.00000000E+00  0.00000000E+00  0.00000000E+00
  0.00000000E+00  0.00000000E+00  0.00000000E+00
  0.00000000E+00  0.00000000E+00  0.00000000E+00
  0.00000000E+00  0.00000000E+00  0.00000000E+00
  0.00000000E+00  0.00000000E+00  0.00000000E+00
  0.00000000E+00  0.00000000E+00  0.00000000E+00
  0.00000000E+00  0.00000000E+00  0.00000000E+00
  0.00000000E+00  0.00000000E+00  0.00000000E+00
  0.00000000E+00  0.00000000E+00  0.00000000E+00
  0.00000000E+00  0.00000000E+00  0.00000000E+00
  0.00000000E+00  0.00000000E+00  0.00000000E+00
  0.00000000E+00  0.00000000E+00  0.00000000E+00
  0.00000000E+00  0.00000000E+00  0.00000000E+00
  0.00000000E+00  0.00000000E+00  0.00000000E+00
  0.00000000E+00  0.00000000E+00  0.00000000E+00
  0.00000000E+00  0.00000000E+00  0.00000000E+00
  0.00000000E+00  0.00000000E+00  0.00000000E+00
  0.00000000E+00  0.00000000E+00  0.00000000E+00
  0.00000000E+00  0.00000000E+00  0.00000000E+00
  0.00000000E+00  0.00000000E+00  0.00000000E+00
  0.00000000E+00  0.00000000E+00  0.00000000E+00
  0.00000000E+00  0.00000000E+00  0.00000000E+00
  0.00000000E+00  0.00000000E+00  0.00000000E+00
  0.00000000E+00  0.00000000E+00  0.00000000E+00
  0.00000000E+00  0.00000000E+00  0.00000000E+00
  0.00000000E+00  0.00000000E+00  0.00000000E+00
  0.00000000E+00  0.00000000E+00  0.00000000E+00
  0.00000000E+00  0.00000000E+00  0.00000000E+00
  0.00000000E+00  0.00000000E+00  0.00000000E+00
  0.00000000E+00  0.00000000E+00  0.00000000E+00
  0.00000000E+00  0.00000000E+00  0.00000000E+00
  0.00000000E+00  0.00000000E+00  0.00000000E+00
  0.00000000E+00  0.00000000E+00  0.00000000E+00
  0.00000000E+00  0.00000000E+00  0.00000000E+00
  0.00000000E+00  0.00000000E+00  0.00000000E+00
  0.00000000E+00  0.00000000E+00  0.00000000E+00
  0.00000000E+00  0.00000000E+00  0.00000000E+00
  0.00000000E+00  0.00000000E+00  0.00000000E+00
  0.00000000E+00  0.00000000E+00  0.00000000E+00
  0.00000000E+00  0.00000000E+00  0.00000000E+00
  0.00000000E+00  0.00000000E+00  0.00000000E+00
  0.00000000E+00  0.00000000E+00  0.00000000E+00
  0.00000000E+00  0.00000000E+00  0.00000000E+00
  0.00000000E+00  0.00000000E+00  0.00000000E+00
  0.00000000E+00  0.00000000E+00  0.00000000E+00
  0.00000000E+00  0.00000000E+00  0.00000000E+00
  0.00000000E+00  0.00000000E+00  0.00000000E+00
  0.00000000E+00  0.00000000E+00  0.00000000E+00
  0.00000000E+00  0.00000000E+00  0.00000000E+00
  0.00000000E+00  0.00000000E+00  0.00000000E+00
  0.00000000E+00  0.00000000E+00  0.00000000E+00
  0.00000000E+00  0.00000000E+00  0.00000000E+00
  0.00000000E+00  0.00000000E+00  0.00000000E+00
  0.00000000E+00  0.00000000E+00  0.00000000E+00
  0.00000000E+00  0.00000000E+00  0.00000000E+00
  0.00000000E+00  0.00000000E+00  0.00000000E+00
  0.00000000E+00  0.00000000E+00  0.00000000E+00
  0.00000000E+00  0.00000000E+00  0.00000000E+00
  0.00000000E+00  0.00000000E+00  0.00000000E+00
  0.00000000E+00  0.00000000E+00  0.00000000E+00
  0.00000000E+00  0.00000000E+00  0.00000000E+00
  0.00000000E+00  0.00000000E+00  0.00000000E+00
  0.00000000E+00  0.00000000E+00  0.00000000E+00
  0.00000000E+00  0.00000000E+00  0.00000000E+00
  0.00000000E+00  0.00000000E+00  0.00000000E+00
  0.00000000E+00  0.00000000E+00  0.00000000E+00
  0.00000000E+00  0.00000000E+00  0.00000000E+00
  0.00000000E+00  0.00000000E+00  0.00000000E+00
  0.00000000E+00  0.00000000E+00  0.00000000E+00
  0.00000000E+00  0.00000000E+00  0.00000000E+00
  0.00000000E+00  0.00000000E+00  0.00000000E+00
  0.00000000E+00  0.00000000E+00  0.00000000E+00
  0.00000000E+00  0.00000000E+00  0.00000000E+00
  0.00000000E+00  0.00000000E+00  0.00000000E+00
  0.00000000E+00  0.00000000E+00  0.00000000E+00
  0.00000000E+00  0.00000000E+00  0.00000000E+00
  0.00000000E+00  0.00000000E+00  0.00000000E+00
  0.00000000E+00  0.00000000E+00  0.00000000E+00
  0.00000000E+00  0.00000000E+00  0.00000000E+00
  0.00000000E+00  0.00000000E+00  0.00000000E+00
  0.00000000E+00  0.00000000E+00  0.00000000E+00
  0.00000000E+00  0.00000000E+00  0.00000000E+00
  0.00000000E+00  0.00000000E+00  0.00000000E+00
  0.00000000E+00  0.00000000E+00  0.00000000E+00
  0.00000000E+00  0.00000000E+00  0.00000000E+00
  0.00000000E+00  0.00000000E+00  0.00000000E+00
  0.00000000E+00  0.00000000E+00  0.00000000E+00
  0.00000000E+00  0.00000000E+00  0.00000000E+00
  0.00000000E+00  0.00000000E+00  0.00000000E+00
  0.00000000E+00  0.00000000E+00  0.00000000E+00
  0.00000000E+00  0.00000000E+00  0.00000000E+00
  0.00000000E+00  0.00000000E+00  0.00000000E+00
  0.00000000E+00  0.00000000E+00  0.00000000E+00
  0.00000000E+00  0.00000000E+00  0.00000000E+00
  0.00000000E+00  0.00000000E+00  0.00000000E+00
  0.00000000E+00  0.00000000E+00  0.00000000E+00
  0.00000000E+00  0.00000000E+00  0.00000000E+00
  0.00000000E+00  0.00000000E+00  0.00000000E+00
  0.00000000E+00  0.00000000E+00  0.00000000E+00
  0.00000000E+00  0.00000000E+00  0.00000000E+00
  0.00000000E+00  0.00000000E+00  0.00000000E+00
  0.00000000E+00  0.00000000E+00  0.00000000E+00
  0.00000000E+00  0.00000000E+00  0.00000000E+00
  0.00000000E+00  0.00000000E+00  0.00000000E+00
  0.00000000E+00  0.00000000E+00  0.00000000E+00
  0.00000000E+00  0.00000000E+00  0.00000000E+00
  0.00000000E+00  0.00000000E+00  0.00000000E+00
  0.00000000E+00  0.00000000E+00  0.00000000E+00
  0.00000000E+00  0.00000000E+00  0.00000000E+00
  0.00000000E+00  0.00000000E+00  0.00000000E+00
  0.00000000E+00  0.00000000E+00  0.00000000E+00
  0.00000000E+00  0.00000000E+00  0.00000000E+00
  0.00000000E+00  0.00000000E+00  0.00000000E+00
  0.00000000E+00  0.00000000E+00  0.00000000E+00
  0.00000000E+00  0.00000000E+00  0.00000000E+00
  0.00000000E+00  0.00000000E+00  0.00000000E+00
  0.00000000E+00  0.00000000E+00  0.00000000E+00
  0.00000000E+00  0.00000000E+00  0.00000000E+00
  0.00000000E+00  0.00000000E+00  0.00000000E+00
  0.00000000E+00  0.00000000E+00  0.00000000E+00
  0.00000000E+00  0.00000000E+00  0.00000000E+00
  0.00000000E+00  0.00000000E+00  0.00000000E+00
  0.00000000E+00  0.00000000E+00  0.00000000E+00
  0.00000000E+00  0.00000000E+00  0.00000000E+00
  0.00000000E+00  0.00000000E+00  0.00000000E+00
  0.00000000E+00  0.00000000E+00  0.00000000E+00
  0.00000000E+00  0.00000000E+00  0.00000000E+00
  0.00000000E+00  0.00000000E+00  0.00000000E+00
  0.00000000E+00  0.00000000E+00  0.00000000E+00
  0.00000000E+00  0.00000000E+00  0.00000000E+00
  0.00000000E+00  0.00000000E+00  0.00000000E+00
  0.00000000E+00  0.00000000E+00  0.00000000E+00
  0.00000000E+00  0.00000000E+00  0.00000000E+00
  0.00000000E+00  0.00000000E+00  0.00000000E+00
  0.00000000E+00  0.00000000E+00  0.00000000E+00
  0.00000000E+00  0.00000000E+00  0.00000000E+00
  0.00000000E+00  0.00000000E+00  0.00000000E+00
  0.00000000E+00  0.00000000E+00  0.00000000E+00
  0.00000000E+00  0.00000000E+00  0.00000000E+00
  0.00000000E+00  0.00000000E+00  0.00000000E+00
  0.00000000E+00  0.00000000E+00  0.00000000E+00
  0.00000000E+00  0.00000000E+00  0.00000000E+00
  0.00000000E+00  0.00000000E+00  0.00000000E+00
  0.00000000E+00  0.00000000E+00  0.00000000E+00
  0.00000000E+00  0.00000000E+00  0.00000000E+00
  0.00000000E+00  0.00000000E+00  0.00000000E+00
  0.00000000E+00  0.00000000E+00  0.00000000E+00
  0.00000000E+00  0.00000000E+00  0.00000000E+00
  0.00000000E+00  0.00000000E+00  0.00000000E+00
  0.00000000E+00  0.00000000E+00  0.00000000E+00
  0.00000000E+00  0.00000000E+00  0.00000000E+00
  0.00000000E+00  0.00000000E+00  0.00000000E+00
  0.00000000E+00  0.00000000E+00  0.00000000E+00
  0.00000000E+00  0.00000000E+00  0.00000000E+00
  0.00000000E+00  0.00000000E+00  0.00000000E+00
  0.00000000E+00  0.00000000E+00  0.00000000E+00
  0.00000000E+00  0.00000000E+00  0.00000000E+00
  0.00000000E+00  0.00000000E+00  0.00000000E+00
  0.00000000E+00  0.00000000E+00  0.00000000E+00
  0.00000000E+00  0.00000000E+00  0.00000000E+00
  0.00000000E+00  0.00000000E+00  0.00000000E+00
  0.00000000E+00  0.00000000E+00  0.00000000E+00
  0.00000000E+00  0.00000000E+00  0.00000000E+00
  0.00000000E+00  0.00000000E+00  0.00000000E+00
  0.00000000E+00  0.00000000E+00  0.00000000E+00
  0.00000000E+00  0.00000000E+00  0.00000000E+00
  0.00000000E+00  0.00000000E+00  0.00000000E+00
  0.00000000E+00  0.00000000E+00  0.00000000E+00
  0.00000000E+00  0.00000000E+00  0.00000000E+00
  0.00000000E+00  0.00000000E+00  0.00000000E+00
  0.00000000E+00  0.00000000E+00  0.00000000E+00
  0.00000000E+00  0.00000000E+00  0.00000000E+00
  0.00000000E+00  0.00000000E+00  0.00000000E+00
  0.00000000E+00  0.00000000E+00  0.00000000E+00
  0.00000000E+00  0.00000000E+00  0.00000000E+00
  0.00000000E+00  0.00000000E+00  0.00000000E+00
  0.00000000E+00  0.00000000E+00  0.00000000E+00
  0.00000000E+00  0.00000000E+00  0.00000000E+00
  0.00000000E+00  0.00000000E+00  0.00000000E+00
  0.00000000E+00  0.00000000E+00  0.00000000E+00