CuInSe2gb                               
   1.00000000000000     
     9.7266780392896699    0.0000000000000000    0.0000000000000000
     0.0000000000000000    8.4235502764570693    0.0000000000000000
     0.0000000000000000    0.0000000000000000   45.0000000000000000
   Fe   Mn
   281     7
Direct
  0.0610943386995982  0.0312378362438158  0.1244172870149157
  0.0632237595864567  0.8715482923062210  0.5212319736470713
  0.1936403597299867  0.1231919224677883  0.7884623205335138
  0.4335878816229904  0.2877414360860153  0.3890532022788295
  0.3084324765321572  0.7127007684559780  0.8331665133192955
  0.8084840962190981  0.2126765386764024  0.8331595206015753
  0.1836134930578441  0.7877390708347107  0.3890544176004718
  0.5627896529740046  0.2073921610224609  0.5653592884443888
  0.0600655973963347  0.0410566785560311  0.7440745739923640
  0.8133329340580566  0.8717341740907014  0.5213242310136323
  0.1850564298432695  0.2907578328226126  0.7440707560240301
  0.9411795270787146  0.4519803735728463  0.3448956565356285
  0.9336804732863097  0.2876341704194962  0.3890504207110493
  0.8134002207214251  0.0419188721904150  0.8755912549093544
  0.1882578524591580  0.7912004461639635  0.6107543862976230
  0.5586846911511404  0.0373630828885732  0.3890275482709882
  0.9334178081276014  0.9627144883671488  0.8331382254910430
  0.3133800083430834  0.5419124606570139  0.8755808867828907
  0.6851434462916683  0.2911887527857127  0.7441230910133709
  0.1917026751827519  0.6124618433186673  0.1668363742626290
  0.8128542686327829  0.2057555422193575  0.4786305907928831
  0.8128824623237015  0.5414113497660004  0.6108566783634012
  0.3131786681029079  0.8707117269087586  0.4343540395410507
  0.8157580600068626  0.0362241815676704  0.2560343460225026
  0.6910515815386179  0.9526080566136211  0.3450906383150725
  0.9426357694446222  0.1125990745705254  0.1667140529305599
  0.9384689883647839  0.1218693152971706  0.5212824483265643
  0.5658542512430452  0.5365748523963073  0.2559754142819592
  0.6889338141628553  0.7938722306789514  0.8756541448029532
  0.5679299708213774  0.3634764693111967  0.1667075243266418
  0.4351492297482773  0.7908513692109084  0.7440682548963202
  0.8133240287696067  0.7078762759526631  0.5653280655135989
  0.5686192213016382  0.8730905051855282  0.7884427466622101
  0.6885574485786202  0.1218866751857080  0.5212718259535322
  0.1912420385461345  0.2872008505592301  0.2558195770686842
  0.9334425690842882  0.4627235765130895  0.8331409309890613
  0.0642680638275288  0.2075895534562372  0.6996907529588319
  0.4395295115251518  0.9575837938032040  0.6996759143166210
  0.3084566790875572  0.2126956233910451  0.8331501785552329
  0.4338224897017435  0.6256437319508925  0.6549032207324230
  0.3133444742742730  0.5411654930760169  0.6107150254591284
  0.9387552575249914  0.4574181573611147  0.5654357091275954
  0.6850604396303226  0.7910855948891987  0.7440945534795053
  0.3086534382694063  0.8751912543100776  0.6549309051027277
  0.6838008639807751  0.7874643462074022  0.3890312494023968
  0.9352399088896436  0.7909774697709421  0.7441198980329904
  0.0663405174425938  0.2017965989913529  0.3449798500396314
  0.8083080899515496  0.0375556669122352  0.3890529820608659
  0.4436555262680490  0.1230397415855102  0.7884615459389041
  0.0588493614541740  0.2049439244818613  0.2119069507622370
  0.0681617788870645  0.3638242436666784  0.1668341001763153
  0.9412653281938858  0.7870878967213163  0.2562433548244986
  0.5643599469558181  0.2076808290768567  0.6996298723063628
  0.6893065410870373  0.9577690013107614  0.6996764359725911
  0.4397097952999551  0.7878783895005878  0.1244355677826776
  0.4387429497744534  0.9573926338981681  0.5654958877096365
  0.8186250722753379  0.3731568787145034  0.7884422781742284
  0.6909180225090554  0.2865752696787162  0.2559845534256529
  0.1887106708219660  0.4577004067456232  0.5654422469263850
  0.0674342075926828  0.8632085638896519  0.1668686099544685
  0.1886208368503545  0.2906590784559833  0.6107298514825550
  0.5662630774085469  0.7024246087974023  0.3450084403651329
  0.3144497987787369  0.2077386084692960  0.6996733330159076
  0.5633606081679091  0.5419667961488218  0.8755926088548387
  0.0636453740714149  0.7070949410288186  0.5654729888515838
  0.6938726693938949  0.6232623399457269  0.7884616955628447
  0.3086272511113285  0.5377986338289922  0.3890517601299672
  0.1880663761604970  0.6217055116771677  0.5213392824694788
  0.5627851880698296  0.8706326725504431  0.4343927123886561
  0.4383437554759670  0.4577189946079722  0.5653443126146118
  0.4351568924205959  0.2908660514316919  0.7441053236427270
  0.8046229587903475  0.8730526369825906  0.3002124492064691
  0.8165024707875981  0.7022991782237205  0.3450776840992103
  0.4334337983035813  0.4626910843238489  0.8331519336586932
  0.6877968685553281  0.9556738555189309  0.4786387648177579
  0.6897652832216939  0.4577062352542320  0.6996710703866593
  0.5632704850390806  0.8721255263137818  0.5213110389524546
  0.5587636126815217  0.3754071273345709  0.6549117949354194
  0.8085230401754103  0.8750323308392328  0.6548307267640683
  0.8127420186133807  0.3702238515993392  0.4344606244196281
  0.8153561235091765  0.5367977186389085  0.2560617259903669
  0.6834375407118768  0.4627224377244132  0.8331507624887355
  0.1904477876543509  0.7865361160097766  0.1246454346585631
  0.0633726713520807  0.0419184939422448  0.8755771252545388
  0.3086508557941091  0.3751192398587087  0.6549448184752404
  0.3161833443114746  0.2020499449714408  0.3449092395184510
  0.8101503150457179  0.5409905617842840  0.7440579523601717
  0.6834506240278179  0.9627204082030927  0.8331553149375167
  0.5585960204009172  0.8751784885339097  0.6549378383905589
  0.3130362573202089  0.7073089428834196  0.5655062812260383
  0.3129381451118636  0.5305665615412435  0.1244104773012366
  0.6832264196552983  0.9551266837201647  0.2119551199980892
  0.3138060964062652  0.2070787190381797  0.5655302653360285
  0.3100523929407184  0.5410677807886978  0.7440749965694992
  0.6884268146208010  0.9577962699792457  0.5653707710481360
  0.4383278400962209  0.7908128594408685  0.6106622296392705
  0.6931809232137586  0.6137006978146160  0.1669686299901270
  0.3044946425625014  0.8731578103503594  0.3002898015910628
  0.3122450266914506  0.7056095769755657  0.4786348380808607
  0.9383520106913369  0.2911064375752041  0.6106740616966569
  0.4294984077990848  0.6231021806585614  0.3003439112767892
  0.8177412813671214  0.8634469965928050  0.1667430152308139
  0.5584409816843803  0.2042361387721422  0.2116270305220122
  0.9427955493575316  0.6140285283655383  0.1668539074552490
  0.9390369343059030  0.7937312894626866  0.8756582058883670
  0.5687025379771418  0.3729427896830431  0.7884401070511823
  0.0634008544926587  0.3720602570278154  0.5213052833538404
  0.5634588122496328  0.3716231499270430  0.5212704573803489
  0.6794809981132653  0.1231069753392907  0.3003197757337028
  0.4334404513061790  0.9626674443828770  0.8331546535661852
  0.1904728584097923  0.2875133686046920  0.1245905865798596
  0.8186741444543401  0.8731697629188521  0.7884342432509726
  0.3119580749123139  0.3707162509331763  0.4342684889198015
  0.9378246203862726  0.7916118434675200  0.6108380615270668
  0.4382290077573024  0.2903736729119425  0.6107578059616958
  0.1913397966277222  0.4516070628527239  0.3449238465977820
  0.4404189205230487  0.2877964086254298  0.1245736950817656
  0.6909556736584935  0.7867481509215527  0.2560917431787852
  0.1894355438206199  0.9576539573227525  0.6996478577549861
  0.1889708007352149  0.2938476389787245  0.8756454392405583
  0.1835835087466898  0.1250898702144079  0.6549038664668677
  0.9334720883509127  0.1253215404097939  0.6548877974144559
  0.3080103561797732  0.2047580138750981  0.2119138060905884
  0.0585681336503351  0.0374704859775979  0.3890256384398404
  0.1932586325239308  0.1140223056218032  0.1672443437344694
  0.0626308047835673  0.5416725761293478  0.6109049136167405
  0.9412204141770494  0.2871266822799635  0.2558211290927166
  0.5632369675158543  0.5411400563498070  0.6107825653661051
  0.9385315513839160  0.9576179107898127  0.5654262560198989
  0.6793591285524241  0.6232947126167616  0.3001800462716463
  0.9378605429447875  0.6204149267276990  0.4344366102691508
  0.9437810211821640  0.6232913516977653  0.7884574805214433
  0.5640947114200213  0.7077049478692582  0.6996924546200793
  0.0584762023709612  0.7127283615907848  0.8331458578978708
  0.9294147705469101  0.1232386036619575  0.3003107953470157
  0.9397333563565299  0.4578420212668673  0.6996798511002703
  0.4407677118864968  0.7867616269060747  0.2560296556503861
  0.3186559925341180  0.3730803428181655  0.7884281577822945
  0.4339729655747893  0.4547991322721917  0.2120178591897898
  0.1882973616169955  0.1219710731444022  0.5212390780684333
  0.8141958794898374  0.7073002633579847  0.6996700116923150
  0.0634468734325981  0.0410361379987349  0.6107321588513923
  0.5584247253858307  0.2126928060262926  0.8331491183296462
  0.3137439431252663  0.8720682965273855  0.5212909704186497
  0.6903187610436436  0.2878041709476635  0.1245999857636387
  0.1841049967079068  0.9548589967142810  0.2118936250068525
  0.6884789837154588  0.2912093214613102  0.6107259098189149
  0.3134946983260409  0.0407299404107991  0.6107506011974431
  0.9436871784905303  0.1230726879997916  0.7884553118361255
  0.4390125738233344  0.7939490795327115  0.8756527090477570
  0.8102518552464025  0.0410301823637398  0.7441126044759778
  0.4383393507738869  0.1217990481047652  0.5213129742274348
  0.1836718615933648  0.6254703423358347  0.6549383812969236
  0.3141299558303077  0.7077162652992279  0.6996749099317893
  0.9391828029071690  0.2868736654853424  0.1246141572076831
  0.4378949532786051  0.4554437853955495  0.4787088718537618
  0.0630186061351611  0.7055019046582285  0.4786077200692054
  0.9380317866084509  0.1203171119536789  0.4344656749203674
  0.4290946520562970  0.1225976958493394  0.3003526100401582
  0.1879934713960622  0.1202002023761460  0.4345133324168214
  0.5634286970712943  0.0419797924029334  0.8755927008372787
  0.1884472681862823  0.9569027233443489  0.5652305168144449
  0.6904467780544952  0.7856322856853287  0.1247346359833777
  0.5625896570743882  0.5309625079904684  0.1244491697953575
  0.3086281197355653  0.0373702569950043  0.3890662486212835
  0.6914279773303310  0.1121674762769154  0.1668568446655309
  0.8084383550098680  0.2054773520543073  0.2119333378956998
  0.0655657561303805  0.5367345920246785  0.2561084549648822
  0.5629022737462615  0.7057150132892781  0.4786697294991690
  0.0634952759637210  0.2075925968064263  0.5654368075569168
  0.5543375304818324  0.3730138311937460  0.3003601023487187
  0.4413291171587221  0.9519253051163055  0.3449395302419523
  0.1834465314020187  0.9627095740537557  0.8331450714949765
  0.4423702345617591  0.6115632846235628  0.1669645968396628
  0.9338017044072046  0.4544066138209104  0.2119430214481264
  0.0626243573399201  0.5323622540642582  0.1245244242212132
  0.8131939339056340  0.3718514953069302  0.5213301179090328
  0.9292093885467377  0.6228962444435250  0.3003743202958973
  0.3156124734010555  0.0365072997509692  0.2560451875281212
  0.6882517382242109  0.7912788463672411  0.6107349333642176
  0.1834367561184950  0.4626690250307091  0.8331515499333453
  0.4425080926943353  0.1120625540820422  0.1667887145276731
  0.3132493131602946  0.3720012733887867  0.5213572638537100
  0.4437348154658824  0.6231381112441273  0.7884402203175425
  0.0660274972110683  0.0371025100881038  0.2558425923149683
  0.5634685758152287  0.7076864709390200  0.5653823324549436
  0.9350981977055230  0.2911089071514437  0.7440985908198877
  0.6935510770357577  0.1231108565402680  0.7884813587892385
  0.1828827564685785  0.4550077595689841  0.2119579264834815
  0.9337816369046191  0.7874369289641213  0.3890317436085889
  0.6889961202345436  0.2938998600279846  0.8756655523351330
  0.3189267807767890  0.8645754220371268  0.1668909492101382
  0.4394380161165836  0.4576055534026112  0.6996121712654025
  0.9414132065829193  0.9520816073722193  0.3449626511896526
  0.6884397959316059  0.6216653047467600  0.5212787410893519
  0.0588415373200479  0.8752245426104504  0.6549207342808111
  0.0686619289879214  0.8731673438160968  0.7884377487566133
  0.0585941926991063  0.3751972366157147  0.6549172864503903
  0.6877011461517613  0.4557022215906605  0.4786459185722535
  0.1910885628209947  0.7864333334489186  0.2561587883806479
  0.4373883907024161  0.1202889405530625  0.4344643920652307
  0.8146176033836340  0.0322573361630101  0.1245279251264675
  0.9383638321263944  0.6215715851456067  0.5212828614044122
  0.0629751261083164  0.8702234616391792  0.4344855383837626
  0.8122148630193456  0.5322200388058360  0.1244599581228687
  0.4413795767655181  0.4519139918679125  0.3449644160906059
  0.8164171395206216  0.2017453989069212  0.3449322319865575
  0.3164481915374007  0.7019023691075050  0.3449449159476151
  0.6839273681551121  0.1255881143744179  0.6549670475727818
  0.5543371750663628  0.8732296823357701  0.3002634955147970
  0.0601942108371765  0.5410419395375609  0.7440903150984849
  0.9338267894284550  0.9545793324413893  0.2119779800027893
  0.8090309810866915  0.7043014523210230  0.2116696351656608
  0.0542930717608612  0.8729141375327348  0.3002716189543307
  0.1792803555151680  0.1233538603324467  0.3002543877595292
  0.0664135991633428  0.7021123030782560  0.3449639754875740
  0.8133988014550479  0.0410872119333533  0.6107338444804742
  0.0632936699191130  0.3706004872522384  0.4343186567113952
  0.5663417367769442  0.2016752357410031  0.3449041736025570
  0.8042942459313336  0.3731195083082898  0.3003495554050737
  0.4378380689341136  0.9558247923173487  0.4786171860329024
  0.5586550556310657  0.5371628877000570  0.3890263805264366
  0.0627184714274826  0.2058853246671310  0.4786000865736694
  0.3186430546931058  0.8730869869898349  0.7884479214301895
  0.9392950761342260  0.9577712312121660  0.6996968171445103
  0.0543208340526437  0.3729565751944167  0.3003753289974819
  0.6835950638018403  0.6249100072783639  0.6549096845663334
  0.6881429945930022  0.4578303784106756  0.5654033515820024
  0.4337973358434073  0.9544218154065883  0.2118938922275654
  0.3127811680376374  0.2058396208194451  0.4786062788958657
  0.4335754152564457  0.1252707515917761  0.6548744040309639
  0.6881945093943235  0.6205084040258179  0.4343652500388649
  0.8142653030323990  0.2076605185761396  0.6996378618177762
  0.8127515721912139  0.7057323600702680  0.4786392298839338
  0.8128141570749838  0.8704665333391209  0.4344604982606346
  0.9377031259115627  0.9558615019009351  0.4785958986932145
  0.5626592210913219  0.2054940933802737  0.4785516529201702
  0.1879604738357048  0.6206342721861796  0.4343089526246022
  0.3101279622414113  0.0410850516413841  0.7440756814503789
  0.9335066574375979  0.6247775524314008  0.6548891812757234
  0.5585091771390089  0.7127175649072487  0.8331656528366729
  0.3043539135615811  0.3730612205504040  0.3003552961788773
  0.5582816128653810  0.7036562697835398  0.2118902594734898
  0.1878936070782689  0.4556985500128137  0.4786350330456185
  0.3134716861162757  0.0419911121152083  0.8755876632211600
  0.1896506580934167  0.4576414381620844  0.6995791577566660
  0.8133768466188415  0.5419514546754499  0.8755825769797333
  0.1835009903506260  0.2877112770306123  0.3890726842342858
  0.4378811099241119  0.6206950837509587  0.4345324571383087
  0.0581008727474522  0.7049611179009949  0.2116507110124103
  0.5633390090277784  0.3697462605825814  0.4343124735343029
  0.8183439360256635  0.3630682777396601  0.1671434036612575
  0.8083767669351545  0.7127456014007953  0.8331791497923394
  0.0686499607331643  0.3730821219857847  0.7884446981947579
  0.4390125987750257  0.2938236234581733  0.8756569615398786
  0.3119894327616726  0.0309523063930907  0.1246692849515478
  0.6877224866580401  0.1204169305022477  0.4344457819506155
  0.1912461999434571  0.9518756707606115  0.3449869352703045
  0.0584793934287445  0.2127014811219362  0.8331575635292858
  0.5630552353041859  0.0411031491611881  0.6107244847930545
  0.6836382589667238  0.4542612569608486  0.2118746664075259
  0.1851467289333665  0.7908462171408006  0.7440693622273872
  0.1793504035857439  0.6231376460298128  0.3003145264063185
  0.4336852953666233  0.7873097533961432  0.3890331141790525
  0.4411698557698858  0.2867535268882752  0.2560443230386049
  0.0634294935193348  0.5418925987457227  0.8755885961006179
  0.5601011279750693  0.0409511050134575  0.7440485610692864
  0.1890473097797325  0.7939235242142375  0.8756502375363071
  0.9376634321907300  0.4556570628089908  0.4786634715235595
  0.8084646328951877  0.5373549612920048  0.3890785555765575
  0.8136763080409662  0.2075819801603754  0.5654158242532665
  0.1937286116533962  0.6230606598968487  0.7884488033978507
  0.0585897125404618  0.5376585107791046  0.3890791431776947
  0.0642519850114431  0.7078257872809184  0.6996963298218906
  0.3155805519946199  0.5364280292120400  0.2560358744189586
  0.3090475324824127  0.7042453241877652  0.2117789965453950
  0.5678770729183042  0.8644121876193219  0.1668967130386156
  0.5599886291078922  0.5410529294820644  0.7440862912496100
  0.6914014307763054  0.4518366421778540  0.3449748105702743
  0.9390333473395861  0.2939204630727698  0.8756474777017910
  0.5661430951453315  0.0366904212270546  0.2558789054556709
  0.6824799684802242  0.2880360065916860  0.3890428996981051
  0.3187102303471117  0.3641433183615100  0.1664655167518252
  0.4381513556420437  0.6216509937283354  0.5212228447888791
  0.5625385553937758  0.0299443376893451  0.1249882515186699
  0.9390464258847695  0.7878830771662344  0.1246120406678878
  0.8082515823686517  0.3751154947561652  0.6546123870106556
  0.1879685229400081  0.9557320122035828  0.4785753471191831
 
  0.00000000E+00  0.00000000E+00  0.00000000E+00
  0.00000000E+00  0.00000000E+00  0.00000000E+00
  0.00000000E+00  0.00000000E+00  0.00000000E+00
  0.00000000E+00  0.00000000E+00  0.00000000E+00
  0.00000000E+00  0.00000000E+00  0.00000000E+00
  0.00000000E+00  0.00000000E+00  0.00000000E+00
  0.00000000E+00  0.00000000E+00  0.00000000E+00
  0.00000000E+00  0.00000000E+00  0.00000000E+00
  0.00000000E+00  0.00000000E+00  0.00000000E+00
  0.00000000E+00  0.00000000E+00  0.00000000E+00
  0.00000000E+00  0.00000000E+00  0.00000000E+00
  0.00000000E+00  0.00000000E+00  0.00000000E+00
  0.00000000E+00  0.00000000E+00  0.00000000E+00
  0.00000000E+00  0.00000000E+00  0.00000000E+00
  0.00000000E+00  0.00000000E+00  0.00000000E+00
  0.00000000E+00  0.00000000E+00  0.00000000E+00
  0.00000000E+00  0.00000000E+00  0.00000000E+00
  0.00000000E+00  0.00000000E+00  0.00000000E+00
  0.00000000E+00  0.00000000E+00  0.00000000E+00
  0.00000000E+00  0.00000000E+00  0.00000000E+00
  0.00000000E+00  0.00000000E+00  0.00000000E+00
  0.00000000E+00  0.00000000E+00  0.00000000E+00
  0.00000000E+00  0.00000000E+00  0.00000000E+00
  0.00000000E+00  0.00000000E+00  0.00000000E+00
  0.00000000E+00  0.00000000E+00  0.00000000E+00
  0.00000000E+00  0.00000000E+00  0.00000000E+00
  0.00000000E+00  0.00000000E+00  0.00000000E+00
  0.00000000E+00  0.00000000E+00  0.00000000E+00
  0.00000000E+00  0.00000000E+00  0.00000000E+00
  0.00000000E+00  0.00000000E+00  0.00000000E+00
  0.00000000E+00  0.00000000E+00  0.00000000E+00
  0.00000000E+00  0.00000000E+00  0.00000000E+00
  0.00000000E+00  0.00000000E+00  0.00000000E+00
  0.00000000E+00  0.00000000E+00  0.00000000E+00
  0.00000000E+00  0.00000000E+00  0.00000000E+00
  0.00000000E+00  0.00000000E+00  0.00000000E+00
  0.00000000E+00  0.00000000E+00  0.00000000E+00
  0.00000000E+00  0.00000000E+00  0.00000000E+00
  0.00000000E+00  0.00000000E+00  0.00000000E+00
  0.00000000E+00  0.00000000E+00  0.00000000E+00
  0.00000000E+00  0.00000000E+00  0.00000000E+00
  0.00000000E+00  0.00000000E+00  0.00000000E+00
  0.00000000E+00  0.00000000E+00  0.00000000E+00
  0.00000000E+00  0.00000000E+00  0.00000000E+00
  0.00000000E+00  0.00000000E+00  0.00000000E+00
  0.00000000E+00  0.00000000E+00  0.00000000E+00
  0.00000000E+00  0.00000000E+00  0.00000000E+00
  0.00000000E+00  0.00000000E+00  0.00000000E+00
  0.00000000E+00  0.00000000E+00  0.00000000E+00
  0.00000000E+00  0.00000000E+00  0.00000000E+00
  0.00000000E+00  0.00000000E+00  0.00000000E+00
  0.00000000E+00  0.00000000E+00  0.00000000E+00
  0.00000000E+00  0.00000000E+00  0.00000000E+00
  0.00000000E+00  0.00000000E+00  0.00000000E+00
  0.00000000E+00  0.00000000E+00  0.00000000E+00
  0.00000000E+00  0.00000000E+00  0.00000000E+00
  0.00000000E+00  0.00000000E+00  0.00000000E+00
  0.00000000E+00  0.00000000E+00  0.00000000E+00
  0.00000000E+00  0.00000000E+00  0.00000000E+00
  0.00000000E+00  0.00000000E+00  0.00000000E+00
  0.00000000E+00  0.00000000E+00  0.00000000E+00
  0.00000000E+00  0.00000000E+00  0.00000000E+00
  0.00000000E+00  0.00000000E+00  0.00000000E+00
  0.00000000E+00  0.00000000E+00  0.00000000E+00
  0.00000000E+00  0.00000000E+00  0.00000000E+00
  0.00000000E+00  0.00000000E+00  0.00000000E+00
  0.00000000E+00  0.00000000E+00  0.00000000E+00
  0.00000000E+00  0.00000000E+00  0.00000000E+00
  0.00000000E+00  0.00000000E+00  0.00000000E+00
  0.00000000E+00  0.00000000E+00  0.00000000E+00
  0.00000000E+00  0.00000000E+00  0.00000000E+00
  0.00000000E+00  0.00000000E+00  0.00000000E+00
  0.00000000E+00  0.00000000E+00  0.00000000E+00
  0.00000000E+00  0.00000000E+00  0.00000000E+00
  0.00000000E+00  0.00000000E+00  0.00000000E+00
  0.00000000E+00  0.00000000E+00  0.00000000E+00
  0.00000000E+00  0.00000000E+00  0.00000000E+00
  0.00000000E+00  0.00000000E+00  0.00000000E+00
  0.00000000E+00  0.00000000E+00  0.00000000E+00
  0.00000000E+00  0.00000000E+00  0.00000000E+00
  0.00000000E+00  0.00000000E+00  0.00000000E+00
  0.00000000E+00  0.00000000E+00  0.00000000E+00
  0.00000000E+00  0.00000000E+00  0.00000000E+00
  0.00000000E+00  0.00000000E+00  0.00000000E+00
  0.00000000E+00  0.00000000E+00  0.00000000E+00
  0.00000000E+00  0.00000000E+00  0.00000000E+00
  0.00000000E+00  0.00000000E+00  0.00000000E+00
  0.00000000E+00  0.00000000E+00  0.00000000E+00
  0.00000000E+00  0.00000000E+00  0.00000000E+00
  0.00000000E+00  0.00000000E+00  0.00000000E+00
  0.00000000E+00  0.00000000E+00  0.00000000E+00
  0.00000000E+00  0.00000000E+00  0.00000000E+00
  0.00000000E+00  0.00000000E+00  0.00000000E+00
  0.00000000E+00  0.00000000E+00  0.00000000E+00
  0.00000000E+00  0.00000000E+00  0.00000000E+00
  0.00000000E+00  0.00000000E+00  0.00000000E+00
  0.00000000E+00  0.00000000E+00  0.00000000E+00
  0.00000000E+00  0.00000000E+00  0.00000000E+00
  0.00000000E+00  0.00000000E+00  0.00000000E+00
  0.00000000E+00  0.00000000E+00  0.00000000E+00
  0.00000000E+00  0.00000000E+00  0.00000000E+00
  0.00000000E+00  0.00000000E+00  0.00000000E+00
  0.00000000E+00  0.00000000E+00  0.00000000E+00
  0.00000000E+00  0.00000000E+00  0.00000000E+00
  0.00000000E+00  0.00000000E+00  0.00000000E+00
  0.00000000E+00  0.00000000E+00  0.00000000E+00
  0.00000000E+00  0.00000000E+00  0.00000000E+00
  0.00000000E+00  0.00000000E+00  0.00000000E+00
  0.00000000E+00  0.00000000E+00  0.00000000E+00
  0.00000000E+00  0.00000000E+00  0.00000000E+00
  0.00000000E+00  0.00000000E+00  0.00000000E+00
  0.00000000E+00  0.00000000E+00  0.00000000E+00
  0.00000000E+00  0.00000000E+00  0.00000000E+00
  0.00000000E+00  0.00000000E+00  0.00000000E+00
  0.00000000E+00  0.00000000E+00  0.00000000E+00
  0.00000000E+00  0.00000000E+00  0.00000000E+00
  0.00000000E+00  0.00000000E+00  0.00000000E+00
  0.00000000E+00  0.00000000E+00  0.00000000E+00
  0.00000000E+00  0.00000000E+00  0.00000000E+00
  0.00000000E+00  0.00000000E+00  0.00000000E+00
  0.00000000E+00  0.00000000E+00  0.00000000E+00
  0.00000000E+00  0.00000000E+00  0.00000000E+00
  0.00000000E+00  0.00000000E+00  0.00000000E+00
  0.00000000E+00  0.00000000E+00  0.00000000E+00
  0.00000000E+00  0.00000000E+00  0.00000000E+00
  0.00000000E+00  0.00000000E+00  0.00000000E+00
  0.00000000E+00  0.00000000E+00  0.00000000E+00
  0.00000000E+00  0.00000000E+00  0.00000000E+00
  0.00000000E+00  0.00000000E+00  0.00000000E+00
  0.00000000E+00  0.00000000E+00  0.00000000E+00
  0.00000000E+00  0.00000000E+00  0.00000000E+00
  0.00000000E+00  0.00000000E+00  0.00000000E+00
  0.00000000E+00  0.00000000E+00  0.00000000E+00
  0.00000000E+00  0.00000000E+00  0.00000000E+00
  0.00000000E+00  0.00000000E+00  0.00000000E+00
  0.00000000E+00  0.00000000E+00  0.00000000E+00
  0.00000000E+00  0.00000000E+00  0.00000000E+00
  0.00000000E+00  0.00000000E+00  0.00000000E+00
  0.00000000E+00  0.00000000E+00  0.00000000E+00
  0.00000000E+00  0.00000000E+00  0.00000000E+00
  0.00000000E+00  0.00000000E+00  0.00000000E+00
  0.00000000E+00  0.00000000E+00  0.00000000E+00
  0.00000000E+00  0.00000000E+00  0.00000000E+00
  0.00000000E+00  0.00000000E+00  0.00000000E+00
  0.00000000E+00  0.00000000E+00  0.00000000E+00
  0.00000000E+00  0.00000000E+00  0.00000000E+00
  0.00000000E+00  0.00000000E+00  0.00000000E+00
  0.00000000E+00  0.00000000E+00  0.00000000E+00
  0.00000000E+00  0.00000000E+00  0.00000000E+00
  0.00000000E+00  0.00000000E+00  0.00000000E+00
  0.00000000E+00  0.00000000E+00  0.00000000E+00
  0.00000000E+00  0.00000000E+00  0.00000000E+00
  0.00000000E+00  0.00000000E+00  0.00000000E+00
  0.00000000E+00  0.00000000E+00  0.00000000E+00
  0.00000000E+00  0.00000000E+00  0.00000000E+00
  0.00000000E+00  0.00000000E+00  0.00000000E+00
  0.00000000E+00  0.00000000E+00  0.00000000E+00
  0.00000000E+00  0.00000000E+00  0.00000000E+00
  0.00000000E+00  0.00000000E+00  0.00000000E+00
  0.00000000E+00  0.00000000E+00  0.00000000E+00
  0.00000000E+00  0.00000000E+00  0.00000000E+00
  0.00000000E+00  0.00000000E+00  0.00000000E+00
  0.00000000E+00  0.00000000E+00  0.00000000E+00
  0.00000000E+00  0.00000000E+00  0.00000000E+00
  0.00000000E+00  0.00000000E+00  0.00000000E+00
  0.00000000E+00  0.00000000E+00  0.00000000E+00
  0.00000000E+00  0.00000000E+00  0.00000000E+00
  0.00000000E+00  0.00000000E+00  0.00000000E+00
  0.00000000E+00  0.00000000E+00  0.00000000E+00
  0.00000000E+00  0.00000000E+00  0.00000000E+00
  0.00000000E+00  0.00000000E+00  0.00000000E+00
  0.00000000E+00  0.00000000E+00  0.00000000E+00
  0.00000000E+00  0.00000000E+00  0.00000000E+00
  0.00000000E+00  0.00000000E+00  0.00000000E+00
  0.00000000E+00  0.00000000E+00  0.00000000E+00
  0.00000000E+00  0.00000000E+00  0.00000000E+00
  0.00000000E+00  0.00000000E+00  0.00000000E+00
  0.00000000E+00  0.00000000E+00  0.00000000E+00
  0.00000000E+00  0.00000000E+00  0.00000000E+00
  0.00000000E+00  0.00000000E+00  0.00000000E+00
  0.00000000E+00  0.00000000E+00  0.00000000E+00
  0.00000000E+00  0.00000000E+00  0.00000000E+00
  0.00000000E+00  0.00000000E+00  0.00000000E+00
  0.00000000E+00  0.00000000E+00  0.00000000E+00
  0.00000000E+00  0.00000000E+00  0.00000000E+00
  0.00000000E+00  0.00000000E+00  0.00000000E+00
  0.00000000E+00  0.00000000E+00  0.00000000E+00
  0.00000000E+00  0.00000000E+00  0.00000000E+00
  0.00000000E+00  0.00000000E+00  0.00000000E+00
  0.00000000E+00  0.00000000E+00  0.00000000E+00
  0.00000000E+00  0.00000000E+00  0.00000000E+00
  0.00000000E+00  0.00000000E+00  0.00000000E+00
  0.00000000E+00  0.00000000E+00  0.00000000E+00
  0.00000000E+00  0.00000000E+00  0.00000000E+00
  0.00000000E+00  0.00000000E+00  0.00000000E+00
  0.00000000E+00  0.00000000E+00  0.00000000E+00
  0.00000000E+00  0.00000000E+00  0.00000000E+00
  0.00000000E+00  0.00000000E+00  0.00000000E+00
  0.00000000E+00  0.00000000E+00  0.00000000E+00
  0.00000000E+00  0.00000000E+00  0.00000000E+00
  0.00000000E+00  0.00000000E+00  0.00000000E+00
  0.00000000E+00  0.00000000E+00  0.00000000E+00
  0.00000000E+00  0.00000000E+00  0.00000000E+00
  0.00000000E+00  0.00000000E+00  0.00000000E+00
  0.00000000E+00  0.00000000E+00  0.00000000E+00
  0.00000000E+00  0.00000000E+00  0.00000000E+00
  0.00000000E+00  0.00000000E+00  0.00000000E+00
  0.00000000E+00  0.00000000E+00  0.00000000E+00
  0.00000000E+00  0.00000000E+00  0.00000000E+00
  0.00000000E+00  0.00000000E+00  0.00000000E+00
  0.00000000E+00  0.00000000E+00  0.00000000E+00
  0.00000000E+00  0.00000000E+00  0.00000000E+00
  0.00000000E+00  0.00000000E+00  0.00000000E+00
  0.00000000E+00  0.00000000E+00  0.00000000E+00
  0.00000000E+00  0.00000000E+00  0.00000000E+00
  0.00000000E+00  0.00000000E+00  0.00000000E+00
  0.00000000E+00  0.00000000E+00  0.00000000E+00
  0.00000000E+00  0.00000000E+00  0.00000000E+00
  0.00000000E+00  0.00000000E+00  0.00000000E+00
  0.00000000E+00  0.00000000E+00  0.00000000E+00
  0.00000000E+00  0.00000000E+00  0.00000000E+00
  0.00000000E+00  0.00000000E+00  0.00000000E+00
  0.00000000E+00  0.00000000E+00  0.00000000E+00
  0.00000000E+00  0.00000000E+00  0.00000000E+00
  0.00000000E+00  0.00000000E+00  0.00000000E+00
  0.00000000E+00  0.00000000E+00  0.00000000E+00
  0.00000000E+00  0.00000000E+00  0.00000000E+00
  0.00000000E+00  0.00000000E+00  0.00000000E+00
  0.00000000E+00  0.00000000E+00  0.00000000E+00
  0.00000000E+00  0.00000000E+00  0.00000000E+00
  0.00000000E+00  0.00000000E+00  0.00000000E+00
  0.00000000E+00  0.00000000E+00  0.00000000E+00
  0.00000000E+00  0.00000000E+00  0.00000000E+00
  0.00000000E+00  0.00000000E+00  0.00000000E+00
  0.00000000E+00  0.00000000E+00  0.00000000E+00
  0.00000000E+00  0.00000000E+00  0.00000000E+00
  0.00000000E+00  0.00000000E+00  0.00000000E+00
  0.00000000E+00  0.00000000E+00  0.00000000E+00
  0.00000000E+00  0.00000000E+00  0.00000000E+00
  0.00000000E+00  0.00000000E+00  0.00000000E+00
  0.00000000E+00  0.00000000E+00  0.00000000E+00
  0.00000000E+00  0.00000000E+00  0.00000000E+00
  0.00000000E+00  0.00000000E+00  0.00000000E+00
  0.00000000E+00  0.00000000E+00  0.00000000E+00
  0.00000000E+00  0.00000000E+00  0.00000000E+00
  0.00000000E+00  0.00000000E+00  0.00000000E+00
  0.00000000E+00  0.00000000E+00  0.00000000E+00