CuInSe2gb                               
   1.00000000000000     
     9.7266780392896699    0.0000000000000000    0.0000000000000000
     0.0000000000000000    8.4235502764570693    0.0000000000000000
     0.0000000000000000    0.0000000000000000   45.0000000000000000
   Fe   Mn
   274    14
Direct
  0.0625971799986328  0.0365817091567279  0.1260072058733490
  0.3123601128214829  0.8710927702325942  0.6537774899893298
  0.1875330500903612  0.1188330410339699  0.7868484500091930
  0.4376175892028356  0.2915640341596351  0.3903406955810807
  0.3130342474661661  0.7059097435116283  0.8317268479890730
  0.8139154604664491  0.2068941991619610  0.8323659406215012
  0.1869192028567997  0.9568924191622813  0.8321289605568253
  0.5626280599222031  0.2060268555470783  0.5652696934255445
  0.0619926790963849  0.0365359976629471  0.7423474353416605
  0.8124131706310767  0.8717232666551693  0.5214054936423625
  0.1878174959975817  0.2868238828923829  0.7422577761995900
  0.9379936907291732  0.4569272589956897  0.3462765964264973
  0.9370739740224014  0.2908317011420088  0.3903569999290377
  0.8125273851757472  0.0380837025510963  0.8743075004693538
  0.1874220104005429  0.7876914825701429  0.6098617916074858
  0.5617881730774934  0.0410246609562414  0.3904106026226446
  0.9390810592113693  0.9576070441287502  0.8325060765579230
  0.3129965991587920  0.5374575390456298  0.8742354115864345
  0.6874611111079343  0.2871007254583341  0.7422542541979306
  0.1881245824369511  0.6208175980126538  0.1680476114807442
  0.8120087287288580  0.2060580204221427  0.4784958440645414
  0.8127704297585373  0.5373856856200949  0.6099038015066900
  0.3121673611595043  0.8736876978437254  0.4348856038221152
  0.8127183819498462  0.0409712371368991  0.2575185822255937
  0.6873700204967769  0.9572330977670848  0.3462161343630337
  0.9369566057695583  0.1210201937086363  0.1683066854599677
  0.9374219727349092  0.1224200229614538  0.5213515835455724
  0.5625102012165700  0.5410703715132903  0.2574107215734801
  0.6874667712545705  0.7887442978377114  0.8742080597167513
  0.5631725660207634  0.3709579567363397  0.1679141649681878
  0.4374300625702519  0.7874200830822312  0.7423579653191377
  0.8129214339517518  0.7059977682297067  0.5651793833260028
  0.5624256145522459  0.8684056677967482  0.7866272353455469
  0.6877436899054611  0.1220568540127179  0.5213681937201429
  0.8127340004369141  0.3704963881224755  0.6538069424079394
  0.9379138441456250  0.4564240897550702  0.8323910009458375
  0.0626635821956391  0.2042777358568794  0.6979413954423100
  0.4372723210567585  0.9543213990102427  0.6979815707655627
  0.3127706822681844  0.2051725212332459  0.8321298471414533
  0.4373542105556661  0.6210449878524721  0.6538399581260881
  0.3121338386071975  0.5374302285498498  0.6098700617308892
  0.9375313331842707  0.4561652254523151  0.5651474643773187
  0.6874146065687275  0.7875528763549259  0.7424193662726124
  0.9371372997573649  0.7890276942144272  0.1263282137010734
  0.6874652588007223  0.7902336132631330  0.3902819564211665
  0.9374699667046985  0.7869260258259221  0.7424560751833529
  0.0629094571212536  0.2072895745091466  0.3462862589955545
  0.8124925064346838  0.0407388422944762  0.3904526092247176
  0.4374389955736301  0.1191131471349453  0.7867534994067789
  0.0620281414513520  0.2070897805655757  0.2130729854507203
  0.0619499622274688  0.3710999226245526  0.1679455598052589
  0.9371355881051865  0.7910079061137644  0.2574190196431562
  0.5623373584166049  0.2045124301856356  0.6980729346213467
  0.6871632394766310  0.9545262039544905  0.6979969927435021
  0.4372205501068598  0.7885640222319744  0.1256907417527875
  0.4373093993788896  0.9561222618302193  0.5649083644243614
  0.8123884722482898  0.3686067677071602  0.7867662440445166
  0.6870169305168267  0.2910625463493796  0.2574353298733610
  0.1876129885474768  0.4561094892385550  0.5651335048930005
  0.0630513602090357  0.8712266220965165  0.1680962978271078
  0.1874230967789797  0.2871288969335554  0.6099338173550457
  0.5627187721332390  0.7072028441850378  0.3463250443129651
  0.3126182330384852  0.2046254900955028  0.6979798138790220
  0.5625014557822655  0.5380395557489310  0.8741075871669617
  0.0627050297864507  0.7056508657661112  0.5651478110309024
  0.6877065187822786  0.6187012774885070  0.7867917523056580
  0.3117843500527336  0.5407247237210626  0.3904077724607016
  0.1881293529139940  0.6221828579209769  0.5213881700875022
  0.5622197812000329  0.8736464759554853  0.4349936557374400
  0.4372331084048247  0.4564607995155316  0.5651482512287599
  0.4376975374908268  0.2875815066668646  0.7422607645597367
  0.8127193001099388  0.8756601045144151  0.3017050783943548
  0.8126434307206502  0.7072871823036144  0.3463757592732377
  0.4381172192297118  0.4553087237118484  0.8320615995442997
  0.6878340581302747  0.9564092366355639  0.4784632155869987
  0.6870882038328393  0.4543919724036651  0.6979666402350857
  0.5625237916731615  0.8720169031991506  0.5212929262652669
  0.5624576498316357  0.3705734203170702  0.6537215333553346
  0.8127283922740451  0.8707148614848162  0.6537887312556081
  0.8126687665208525  0.3738030925637716  0.4348444422264269
  0.8126550523063293  0.5405524316734909  0.2574338676314344
  0.6886990245418241  0.4553650626570300  0.8322070621207035
  0.1878982938715590  0.7885757549275227  0.1257353308206161
  0.6870691880592570  0.2911704820905142  0.3903434707795146
  0.3124661202679105  0.3708445230984599  0.6537449635021245
  0.3122342935714433  0.2074649271842297  0.3462399720032178
  0.8122059882655738  0.5365559005254096  0.7424182902298943
  0.6881255892158155  0.9557869711919832  0.8321564287161849
  0.5625163925195217  0.8711447263193655  0.6536672862717205
  0.3123018487717034  0.7058840597321853  0.5652750518969674
  0.3121326205101890  0.5378312486284234  0.1258670178908276
  0.6871962341718955  0.9577952542134809  0.2131511420085354
  0.3127072733930705  0.2062340871296488  0.5652879240102794
  0.1872668469655091  0.9567686518142327  0.4785131378934480
  0.6878579916510329  0.9563192366623067  0.5652021949125234
  0.4371751936503495  0.7872758133439171  0.6098609421481034
  0.6872573510839032  0.6195099843565546  0.1681105007967521
  0.3124655965820178  0.8749062772422864  0.3016405204588880
  0.3122921715969237  0.7054879989231513  0.4784786251100628
  0.9371854623519033  0.2872740457402151  0.6099801308180807
  0.4376448014870271  0.6249400330390538  0.3017205794348507
  0.8126181463315844  0.8703586752954365  0.1681376613608719
  0.5629432033931879  0.2069574075239885  0.2129900443770437
  0.9376061515038536  0.6195169383144516  0.1681509729258279
  0.9377052538238337  0.7875620189326805  0.8745046983453303
  0.5619387284631601  0.3685618775030213  0.7867134982675151
  0.0625139543027499  0.3721128450503865  0.5213279459240255
  0.3123964269911009  0.3699931333781643  0.1680905881637151
  0.6877857711231269  0.1254998823429559  0.3017580212594980
  0.4388564038930433  0.9555175577749009  0.8319306731749964
  0.1875335754146398  0.2890748489188940  0.1261774535919260
  0.1871343799176866  0.2905259984728905  0.2575124642732897
  0.3122193370560420  0.3737412688853711  0.4348528915444503
  0.5628699653545648  0.0367715562057488  0.1259418205515799
  0.4373253449251955  0.2872944443510400  0.6098220307733203
  0.1873519840308580  0.4574259865141305  0.3463859494051310
  0.4373323781914499  0.2891795267255012  0.1261721583623653
  0.6877350083075261  0.7912587496640209  0.2573622351036988
  0.4367821911347757  0.1223851614264983  0.5213629461800953
  0.1883872181767834  0.2889184363825906  0.8744063134591195
  0.1874920481686258  0.1210210184217326  0.6537674705691265
  0.9377315457596376  0.1206646317574664  0.6537819774462421
  0.3124904081680756  0.2073561778520346  0.2130065316932418
  0.0620016459449295  0.0407828952408059  0.3903135808686171
  0.1872715525045999  0.1196441726484498  0.1679564841491366
  0.0625290684232224  0.5367667559986068  0.6099904615695322
  0.9377012418293310  0.2905375617908724  0.2574319632615480
  0.5625137363187932  0.5372244198307280  0.6097947205280060
  0.9373755336389851  0.9565174723000567  0.5652263131589128
  0.6873484319604357  0.6252463918969151  0.3016908438722345
  0.9374200560416718  0.6239781976578744  0.4348869515890268
  0.9371629694024142  0.6194992338066720  0.7865910451056334
  0.5617911711273662  0.7038292409357423  0.6979539129377240
  0.0624586958140265  0.7078602459459881  0.8323550699030126
  0.9377942089106752  0.1252938982960899  0.3018163684438820
  0.9377336853191250  0.7876280420589293  0.6098862764855505
  0.4373397240850732  0.7913522183613099  0.2574174578933661
  0.3128355442509365  0.3686565537522636  0.7866255380929341
  0.4379421157955389  0.4573828177593405  0.2129850404385034
  0.1877513156749948  0.1222543285129168  0.5213607510518601
  0.8121795653797325  0.7044876592003030  0.6981051671166891
  0.0624572259577210  0.0372270330119017  0.6098344264870037
  0.5624016698491704  0.2053780598147912  0.8319346841334694
  0.3124533643955552  0.8716745860828760  0.5213881269917373
  0.6877829499069131  0.2886346808083581  0.1259539201840965
  0.1872466602433818  0.9581728343683320  0.2132531158459379
  0.6871183274521402  0.2874921206683277  0.6098528355054413
  0.3125544194164585  0.0370453938969730  0.6100251478638520
  0.9375033957447663  0.1187625962607180  0.7870291219463376
  0.4378803790547546  0.7884506548482130  0.8740584857312537
  0.8126300939483442  0.0368498515438760  0.7423464440479357
  0.9375198841103652  0.4546684345958433  0.6980145235208836
  0.1876045396434492  0.6211504886299466  0.6537808509851181
  0.3127629998501345  0.7040096176510465  0.6980583777795560
  0.9371976881171745  0.2886343599763250  0.1259544262701747
  0.4370812332322490  0.4562014297212340  0.4785755098519718
  0.0625526208325479  0.7051375879317930  0.4785527540140310
  0.9372085934345191  0.1238570610087081  0.4348684200749039
  0.4373893081707109  0.1249291222669385  0.3017717885134858
  0.1875146021905497  0.1239848021669670  0.4347807708719875
  0.5628702080718128  0.0375279851948746  0.8741151054304211
  0.1876869024133890  0.9567273795772769  0.5653099409918076
  0.6883031097686148  0.7891707707898400  0.1262579790393481
  0.5630331563566701  0.5363167671922896  0.1259746315760538
  0.3122669486510145  0.0409092178880953  0.3903749314125379
  0.6881042817983848  0.1208475039683335  0.1682486043514331
  0.8125833204675654  0.2071889900356369  0.2130383689601522
  0.0625230133880016  0.5408360993585584  0.2574475981554562
  0.5623822816736075  0.7051823092196771  0.4785391434812833
  0.0626164230499510  0.2058587844941827  0.5651400426632329
  0.5620600262260677  0.3753934525022092  0.3016716047965707
  0.4369989189851549  0.9570922691814377  0.3463115739350895
  0.1875731615572815  0.9546094821274915  0.6980088265532352
  0.4367819371900657  0.6208517398371904  0.1679475406214458
  0.9378735677716994  0.4575012191430524  0.2132886555159203
  0.0615694214614188  0.5362033340945502  0.1259944892335514
  0.8126849212821396  0.3718821778208928  0.5213664910403633
  0.9375947170582501  0.6251397485739881  0.3015760349625635
  0.3126699313699374  0.0403496068391489  0.2574000554517680
  0.6875546053585494  0.7872295896954957  0.6098627956831736
  0.1874058596796843  0.4563972158185204  0.8323206844450215
  0.4377711644207826  0.1196630676040964  0.1679810569217310
  0.3124289268047876  0.3717276695756793  0.5213852119749679
  0.4377501895278196  0.6182897272447813  0.7867761013956019
  0.0622754088470494  0.0406864094485204  0.2574314126051407
  0.5623576574118729  0.7056632386890922  0.5652717980847884
  0.9374906388308737  0.2864394812657303  0.7423355140892602
  0.6863590070422797  0.1186282032412934  0.7865687087294999
  0.1870004794352460  0.4573453241903058  0.2130074420094883
  0.9372704511949808  0.7910988728278173  0.3903649391102203
  0.6870171242010273  0.2897798538505327  0.8744042480806056
  0.5621621418299280  0.8711362409018978  0.1679812262703701
  0.4374002186149216  0.4544209724988758  0.6979398892022380
  0.9384152179468653  0.9572409375474787  0.3462677883659255
  0.6876532964978692  0.6225030444435568  0.5213772828337231
  0.0626369936767716  0.8710241836561470  0.6537208360888268
  0.0628174692365390  0.8691332686746100  0.7868914830304842
  0.0625496318516904  0.3705331231861589  0.6537156662766731
  0.6879644885834001  0.4560144617764814  0.4785256750317822
  0.1875421763742180  0.7913773283308236  0.2574660311853960
  0.4370786399208441  0.1240625880380960  0.4348492418744651
  0.8127677367869791  0.0373162553452448  0.1261259830603536
  0.9369950782666402  0.6220919800034419  0.5213895435912308
  0.0623523136084069  0.8738004670793281  0.4352369041333196
  0.8123578245079301  0.5369024175388256  0.1257539754406251
  0.4367924111546406  0.4571914757675904  0.3463564819076236
  0.8131610015623090  0.2073735580323816  0.3463528105095319
  0.3123364374570637  0.7072584007207314  0.3463409067065996
  0.6876072673797855  0.1207645199293575  0.6537043450456046
  0.5626344104549277  0.8752876218064323  0.3017775248381973
  0.0630299691348122  0.5361975874810869  0.7422440429979068
  0.9382030913514890  0.9578851398236286  0.2131173730887444
  0.8124470263050434  0.7069189625865762  0.2130087269192794
  0.0622361104053940  0.8750363554557798  0.3017973622228989
  0.1875297763291651  0.1251594051286799  0.3017877789785825
  0.0625718385516734  0.7074357718428126  0.3463704481464962
  0.8123538813889956  0.0372827209536032  0.6099195423204032
  0.0623617768471636  0.3738030596274627  0.4348769536726499
  0.5620573747232300  0.2073622311327376  0.3463010633445674
  0.8126091471701538  0.3751898547933191  0.3017069168853602
  0.5629064323464895  0.0412323545387106  0.2574143710165470
  0.5620636431803061  0.5404510973751924  0.3903988233237300
  0.0625965310332812  0.2056123511874819  0.4785198245937148
  0.3128048108482874  0.8682958909598421  0.7865183496347056
  0.9374268415020438  0.9544603762599237  0.6979177482865278
  0.0628478253633560  0.3755053033901419  0.3017774184973196
  0.6875221379338802  0.6209665046733502  0.6537908970889191
  0.6877871258874929  0.4562997772203982  0.5651680124828561
  0.4379815239962019  0.9580369038029384  0.2132096341897460
  0.3119944853443145  0.2058956695558933  0.4784871448627511
  0.4374141902424238  0.1210786041925596  0.6537026321992014
  0.6873315499226549  0.6238212142040954  0.4348415582064078
  0.8124769831436363  0.2046409118827788  0.6979111716240427
  0.8123685354695084  0.7057063555813038  0.4785086034860128
  0.8124049279655429  0.8735541854793548  0.4349275262741361
  0.9371616346426414  0.9561392995585095  0.4786404500925774
  0.5628460040054045  0.2056991801843845  0.4785045707420917
  0.1872740757528960  0.6237033039405164  0.4348771214583884
  0.3122632326717629  0.0372747602202172  0.7422549409168028
  0.9375817026593919  0.6209738254875811  0.6537699962391404
  0.5633745347244346  0.7058430408343933  0.8319961152426748
  0.3122717781434622  0.3747217962303100  0.3018938004901242
  0.5623995153507128  0.7073935004118886  0.2129746490722045
  0.1872081017344573  0.4558244868846836  0.4784914685922627
  0.3139821216629483  0.0386995973671469  0.8739761996085313
  0.1876490726144334  0.4543827416977811  0.6979268560392996
  0.8118738361894887  0.5370834436383637  0.8743831131943127
  0.1872679530086397  0.2910148087616036  0.3903470394259471
  0.4369333159050632  0.6243652250330591  0.4349152051380665
  0.0625594262515311  0.7074273133949268  0.2130421217734428
  0.5619911257956953  0.3739447797309636  0.4351922412010878
  0.4373155410262546  0.6228274496364677  0.5213716312700352
  0.8131981571028682  0.7077141471169252  0.8318403881619957
  0.0628391851294691  0.3692051585153099  0.7867599808308541
  0.4373136456232031  0.2891614364699088  0.8743287715117115
  0.3126567500279132  0.0369514046758146  0.1255561437771840
  0.6871385566058712  0.1231415730781981  0.4348825303644332
  0.1872317672109232  0.9574583155729233  0.3462951419305212
  0.0623269177995087  0.2062390534169739  0.8323890544336555
  0.5622624110811039  0.0367355101292696  0.6100091491334504
  0.6872773210952282  0.4575631918122145  0.2132043509479542
  0.1876717057207289  0.7872697721999522  0.7423933568450928
  0.1874872998927798  0.6249968078970062  0.3018741205958362
  0.4370778830604051  0.7910194852487080  0.3905139906210365
  0.4370922163767113  0.2909803242593611  0.2573595784124910
  0.0633648016078325  0.5381058751535130  0.8744130533305168
  0.5629968338380575  0.0369483991322508  0.7423358195912244
  0.1874543417743931  0.7881782136234036  0.8742478134676903
  0.9373926630924563  0.4556320509312543  0.4784638327104466
  0.8124202051145043  0.5403892993236746  0.3903653855692247
  0.8120161037692321  0.2060139973136862  0.5651339310934385
  0.1872371743034928  0.6188480661580407  0.7867282189964825
  0.0624476341806633  0.5406322011377592  0.3903869313330750
  0.0629102497797137  0.7043723076072268  0.6979887910422042
  0.3124562497997561  0.5412378499192788  0.2572426697933322
  0.3123292602401500  0.7066381919710450  0.2132782666763862
  0.3125651918070400  0.8708367851200839  0.1672789661982630
  0.5633673774702150  0.5374803389749568  0.7420903276975956
  0.6876665232016610  0.4567609050228572  0.3463353697815217
  0.9355396610524473  0.2900078450640525  0.8744280087476306
  0.4373313935712330  0.9557057859850429  0.4786373431972709
  0.0636796738163545  0.0358608961409247  0.8742365234907383
  0.1868163532228996  0.7911054026521884  0.3903475092080880
  0.8125334835536512  0.3711359447519523  0.1675317857075309
  0.5624030828592729  0.3720708332851562  0.5212811368922849
  0.0625696345181805  0.8719011903212431  0.5212955804018988
  0.8118932509510300  0.8687566729935073  0.7865404680150527
  0.3117444202534295  0.5366331747151106  0.7423113201167947
 
  0.00000000E+00  0.00000000E+00  0.00000000E+00
  0.00000000E+00  0.00000000E+00  0.00000000E+00
  0.00000000E+00  0.00000000E+00  0.00000000E+00
  0.00000000E+00  0.00000000E+00  0.00000000E+00
  0.00000000E+00  0.00000000E+00  0.00000000E+00
  0.00000000E+00  0.00000000E+00  0.00000000E+00
  0.00000000E+00  0.00000000E+00  0.00000000E+00
  0.00000000E+00  0.00000000E+00  0.00000000E+00
  0.00000000E+00  0.00000000E+00  0.00000000E+00
  0.00000000E+00  0.00000000E+00  0.00000000E+00
  0.00000000E+00  0.00000000E+00  0.00000000E+00
  0.00000000E+00  0.00000000E+00  0.00000000E+00
  0.00000000E+00  0.00000000E+00  0.00000000E+00
  0.00000000E+00  0.00000000E+00  0.00000000E+00
  0.00000000E+00  0.00000000E+00  0.00000000E+00
  0.00000000E+00  0.00000000E+00  0.00000000E+00
  0.00000000E+00  0.00000000E+00  0.00000000E+00
  0.00000000E+00  0.00000000E+00  0.00000000E+00
  0.00000000E+00  0.00000000E+00  0.00000000E+00
  0.00000000E+00  0.00000000E+00  0.00000000E+00
  0.00000000E+00  0.00000000E+00  0.00000000E+00
  0.00000000E+00  0.00000000E+00  0.00000000E+00
  0.00000000E+00  0.00000000E+00  0.00000000E+00
  0.00000000E+00  0.00000000E+00  0.00000000E+00
  0.00000000E+00  0.00000000E+00  0.00000000E+00
  0.00000000E+00  0.00000000E+00  0.00000000E+00
  0.00000000E+00  0.00000000E+00  0.00000000E+00
  0.00000000E+00  0.00000000E+00  0.00000000E+00
  0.00000000E+00  0.00000000E+00  0.00000000E+00
  0.00000000E+00  0.00000000E+00  0.00000000E+00
  0.00000000E+00  0.00000000E+00  0.00000000E+00
  0.00000000E+00  0.00000000E+00  0.00000000E+00
  0.00000000E+00  0.00000000E+00  0.00000000E+00
  0.00000000E+00  0.00000000E+00  0.00000000E+00
  0.00000000E+00  0.00000000E+00  0.00000000E+00
  0.00000000E+00  0.00000000E+00  0.00000000E+00
  0.00000000E+00  0.00000000E+00  0.00000000E+00
  0.00000000E+00  0.00000000E+00  0.00000000E+00
  0.00000000E+00  0.00000000E+00  0.00000000E+00
  0.00000000E+00  0.00000000E+00  0.00000000E+00
  0.00000000E+00  0.00000000E+00  0.00000000E+00
  0.00000000E+00  0.00000000E+00  0.00000000E+00
  0.00000000E+00  0.00000000E+00  0.00000000E+00
  0.00000000E+00  0.00000000E+00  0.00000000E+00
  0.00000000E+00  0.00000000E+00  0.00000000E+00
  0.00000000E+00  0.00000000E+00  0.00000000E+00
  0.00000000E+00  0.00000000E+00  0.00000000E+00
  0.00000000E+00  0.00000000E+00  0.00000000E+00
  0.00000000E+00  0.00000000E+00  0.00000000E+00
  0.00000000E+00  0.00000000E+00  0.00000000E+00
  0.00000000E+00  0.00000000E+00  0.00000000E+00
  0.00000000E+00  0.00000000E+00  0.00000000E+00
  0.00000000E+00  0.00000000E+00  0.00000000E+00
  0.00000000E+00  0.00000000E+00  0.00000000E+00
  0.00000000E+00  0.00000000E+00  0.00000000E+00
  0.00000000E+00  0.00000000E+00  0.00000000E+00
  0.00000000E+00  0.00000000E+00  0.00000000E+00
  0.00000000E+00  0.00000000E+00  0.00000000E+00
  0.00000000E+00  0.00000000E+00  0.00000000E+00
  0.00000000E+00  0.00000000E+00  0.00000000E+00
  0.00000000E+00  0.00000000E+00  0.00000000E+00
  0.00000000E+00  0.00000000E+00  0.00000000E+00
  0.00000000E+00  0.00000000E+00  0.00000000E+00
  0.00000000E+00  0.00000000E+00  0.00000000E+00
  0.00000000E+00  0.00000000E+00  0.00000000E+00
  0.00000000E+00  0.00000000E+00  0.00000000E+00
  0.00000000E+00  0.00000000E+00  0.00000000E+00
  0.00000000E+00  0.00000000E+00  0.00000000E+00
  0.00000000E+00  0.00000000E+00  0.00000000E+00
  0.00000000E+00  0.00000000E+00  0.00000000E+00
  0.00000000E+00  0.00000000E+00  0.00000000E+00
  0.00000000E+00  0.00000000E+00  0.00000000E+00
  0.00000000E+00  0.00000000E+00  0.00000000E+00
  0.00000000E+00  0.00000000E+00  0.00000000E+00
  0.00000000E+00  0.00000000E+00  0.00000000E+00
  0.00000000E+00  0.00000000E+00  0.00000000E+00
  0.00000000E+00  0.00000000E+00  0.00000000E+00
  0.00000000E+00  0.00000000E+00  0.00000000E+00
  0.00000000E+00  0.00000000E+00  0.00000000E+00
  0.00000000E+00  0.00000000E+00  0.00000000E+00
  0.00000000E+00  0.00000000E+00  0.00000000E+00
  0.00000000E+00  0.00000000E+00  0.00000000E+00
  0.00000000E+00  0.00000000E+00  0.00000000E+00
  0.00000000E+00  0.00000000E+00  0.00000000E+00
  0.00000000E+00  0.00000000E+00  0.00000000E+00
  0.00000000E+00  0.00000000E+00  0.00000000E+00
  0.00000000E+00  0.00000000E+00  0.00000000E+00
  0.00000000E+00  0.00000000E+00  0.00000000E+00
  0.00000000E+00  0.00000000E+00  0.00000000E+00
  0.00000000E+00  0.00000000E+00  0.00000000E+00
  0.00000000E+00  0.00000000E+00  0.00000000E+00
  0.00000000E+00  0.00000000E+00  0.00000000E+00
  0.00000000E+00  0.00000000E+00  0.00000000E+00
  0.00000000E+00  0.00000000E+00  0.00000000E+00
  0.00000000E+00  0.00000000E+00  0.00000000E+00
  0.00000000E+00  0.00000000E+00  0.00000000E+00
  0.00000000E+00  0.00000000E+00  0.00000000E+00
  0.00000000E+00  0.00000000E+00  0.00000000E+00
  0.00000000E+00  0.00000000E+00  0.00000000E+00
  0.00000000E+00  0.00000000E+00  0.00000000E+00
  0.00000000E+00  0.00000000E+00  0.00000000E+00
  0.00000000E+00  0.00000000E+00  0.00000000E+00
  0.00000000E+00  0.00000000E+00  0.00000000E+00
  0.00000000E+00  0.00000000E+00  0.00000000E+00
  0.00000000E+00  0.00000000E+00  0.00000000E+00
  0.00000000E+00  0.00000000E+00  0.00000000E+00
  0.00000000E+00  0.00000000E+00  0.00000000E+00
  0.00000000E+00  0.00000000E+00  0.00000000E+00
  0.00000000E+00  0.00000000E+00  0.00000000E+00
  0.00000000E+00  0.00000000E+00  0.00000000E+00
  0.00000000E+00  0.00000000E+00  0.00000000E+00
  0.00000000E+00  0.00000000E+00  0.00000000E+00
  0.00000000E+00  0.00000000E+00  0.00000000E+00
  0.00000000E+00  0.00000000E+00  0.00000000E+00
  0.00000000E+00  0.00000000E+00  0.00000000E+00
  0.00000000E+00  0.00000000E+00  0.00000000E+00
  0.00000000E+00  0.00000000E+00  0.00000000E+00
  0.00000000E+00  0.00000000E+00  0.00000000E+00
  0.00000000E+00  0.00000000E+00  0.00000000E+00
  0.00000000E+00  0.00000000E+00  0.00000000E+00
  0.00000000E+00  0.00000000E+00  0.00000000E+00
  0.00000000E+00  0.00000000E+00  0.00000000E+00
  0.00000000E+00  0.00000000E+00  0.00000000E+00
  0.00000000E+00  0.00000000E+00  0.00000000E+00
  0.00000000E+00  0.00000000E+00  0.00000000E+00
  0.00000000E+00  0.00000000E+00  0.00000000E+00
  0.00000000E+00  0.00000000E+00  0.00000000E+00
  0.00000000E+00  0.00000000E+00  0.00000000E+00
  0.00000000E+00  0.00000000E+00  0.00000000E+00
  0.00000000E+00  0.00000000E+00  0.00000000E+00
  0.00000000E+00  0.00000000E+00  0.00000000E+00
  0.00000000E+00  0.00000000E+00  0.00000000E+00
  0.00000000E+00  0.00000000E+00  0.00000000E+00
  0.00000000E+00  0.00000000E+00  0.00000000E+00
  0.00000000E+00  0.00000000E+00  0.00000000E+00
  0.00000000E+00  0.00000000E+00  0.00000000E+00
  0.00000000E+00  0.00000000E+00  0.00000000E+00
  0.00000000E+00  0.00000000E+00  0.00000000E+00
  0.00000000E+00  0.00000000E+00  0.00000000E+00
  0.00000000E+00  0.00000000E+00  0.00000000E+00
  0.00000000E+00  0.00000000E+00  0.00000000E+00
  0.00000000E+00  0.00000000E+00  0.00000000E+00
  0.00000000E+00  0.00000000E+00  0.00000000E+00
  0.00000000E+00  0.00000000E+00  0.00000000E+00
  0.00000000E+00  0.00000000E+00  0.00000000E+00
  0.00000000E+00  0.00000000E+00  0.00000000E+00
  0.00000000E+00  0.00000000E+00  0.00000000E+00
  0.00000000E+00  0.00000000E+00  0.00000000E+00
  0.00000000E+00  0.00000000E+00  0.00000000E+00
  0.00000000E+00  0.00000000E+00  0.00000000E+00
  0.00000000E+00  0.00000000E+00  0.00000000E+00
  0.00000000E+00  0.00000000E+00  0.00000000E+00
  0.00000000E+00  0.00000000E+00  0.00000000E+00
  0.00000000E+00  0.00000000E+00  0.00000000E+00
  0.00000000E+00  0.00000000E+00  0.00000000E+00
  0.00000000E+00  0.00000000E+00  0.00000000E+00
  0.00000000E+00  0.00000000E+00  0.00000000E+00
  0.00000000E+00  0.00000000E+00  0.00000000E+00
  0.00000000E+00  0.00000000E+00  0.00000000E+00
  0.00000000E+00  0.00000000E+00  0.00000000E+00
  0.00000000E+00  0.00000000E+00  0.00000000E+00
  0.00000000E+00  0.00000000E+00  0.00000000E+00
  0.00000000E+00  0.00000000E+00  0.00000000E+00
  0.00000000E+00  0.00000000E+00  0.00000000E+00
  0.00000000E+00  0.00000000E+00  0.00000000E+00
  0.00000000E+00  0.00000000E+00  0.00000000E+00
  0.00000000E+00  0.00000000E+00  0.00000000E+00
  0.00000000E+00  0.00000000E+00  0.00000000E+00
  0.00000000E+00  0.00000000E+00  0.00000000E+00
  0.00000000E+00  0.00000000E+00  0.00000000E+00
  0.00000000E+00  0.00000000E+00  0.00000000E+00
  0.00000000E+00  0.00000000E+00  0.00000000E+00
  0.00000000E+00  0.00000000E+00  0.00000000E+00
  0.00000000E+00  0.00000000E+00  0.00000000E+00
  0.00000000E+00  0.00000000E+00  0.00000000E+00
  0.00000000E+00  0.00000000E+00  0.00000000E+00
  0.00000000E+00  0.00000000E+00  0.00000000E+00
  0.00000000E+00  0.00000000E+00  0.00000000E+00
  0.00000000E+00  0.00000000E+00  0.00000000E+00
  0.00000000E+00  0.00000000E+00  0.00000000E+00
  0.00000000E+00  0.00000000E+00  0.00000000E+00
  0.00000000E+00  0.00000000E+00  0.00000000E+00
  0.00000000E+00  0.00000000E+00  0.00000000E+00
  0.00000000E+00  0.00000000E+00  0.00000000E+00
  0.00000000E+00  0.00000000E+00  0.00000000E+00
  0.00000000E+00  0.00000000E+00  0.00000000E+00
  0.00000000E+00  0.00000000E+00  0.00000000E+00
  0.00000000E+00  0.00000000E+00  0.00000000E+00
  0.00000000E+00  0.00000000E+00  0.00000000E+00
  0.00000000E+00  0.00000000E+00  0.00000000E+00
  0.00000000E+00  0.00000000E+00  0.00000000E+00
  0.00000000E+00  0.00000000E+00  0.00000000E+00
  0.00000000E+00  0.00000000E+00  0.00000000E+00
  0.00000000E+00  0.00000000E+00  0.00000000E+00
  0.00000000E+00  0.00000000E+00  0.00000000E+00
  0.00000000E+00  0.00000000E+00  0.00000000E+00
  0.00000000E+00  0.00000000E+00  0.00000000E+00
  0.00000000E+00  0.00000000E+00  0.00000000E+00
  0.00000000E+00  0.00000000E+00  0.00000000E+00
  0.00000000E+00  0.00000000E+00  0.00000000E+00
  0.00000000E+00  0.00000000E+00  0.00000000E+00
  0.00000000E+00  0.00000000E+00  0.00000000E+00
  0.00000000E+00  0.00000000E+00  0.00000000E+00
  0.00000000E+00  0.00000000E+00  0.00000000E+00
  0.00000000E+00  0.00000000E+00  0.00000000E+00
  0.00000000E+00  0.00000000E+00  0.00000000E+00
  0.00000000E+00  0.00000000E+00  0.00000000E+00
  0.00000000E+00  0.00000000E+00  0.00000000E+00
  0.00000000E+00  0.00000000E+00  0.00000000E+00
  0.00000000E+00  0.00000000E+00  0.00000000E+00
  0.00000000E+00  0.00000000E+00  0.00000000E+00
  0.00000000E+00  0.00000000E+00  0.00000000E+00
  0.00000000E+00  0.00000000E+00  0.00000000E+00
  0.00000000E+00  0.00000000E+00  0.00000000E+00
  0.00000000E+00  0.00000000E+00  0.00000000E+00
  0.00000000E+00  0.00000000E+00  0.00000000E+00
  0.00000000E+00  0.00000000E+00  0.00000000E+00
  0.00000000E+00  0.00000000E+00  0.00000000E+00
  0.00000000E+00  0.00000000E+00  0.00000000E+00
  0.00000000E+00  0.00000000E+00  0.00000000E+00
  0.00000000E+00  0.00000000E+00  0.00000000E+00
  0.00000000E+00  0.00000000E+00  0.00000000E+00
  0.00000000E+00  0.00000000E+00  0.00000000E+00
  0.00000000E+00  0.00000000E+00  0.00000000E+00
  0.00000000E+00  0.00000000E+00  0.00000000E+00
  0.00000000E+00  0.00000000E+00  0.00000000E+00
  0.00000000E+00  0.00000000E+00  0.00000000E+00
  0.00000000E+00  0.00000000E+00  0.00000000E+00
  0.00000000E+00  0.00000000E+00  0.00000000E+00
  0.00000000E+00  0.00000000E+00  0.00000000E+00
  0.00000000E+00  0.00000000E+00  0.00000000E+00
  0.00000000E+00  0.00000000E+00  0.00000000E+00
  0.00000000E+00  0.00000000E+00  0.00000000E+00
  0.00000000E+00  0.00000000E+00  0.00000000E+00
  0.00000000E+00  0.00000000E+00  0.00000000E+00
  0.00000000E+00  0.00000000E+00  0.00000000E+00
  0.00000000E+00  0.00000000E+00  0.00000000E+00
  0.00000000E+00  0.00000000E+00  0.00000000E+00
  0.00000000E+00  0.00000000E+00  0.00000000E+00
  0.00000000E+00  0.00000000E+00  0.00000000E+00
  0.00000000E+00  0.00000000E+00  0.00000000E+00
  0.00000000E+00  0.00000000E+00  0.00000000E+00
  0.00000000E+00  0.00000000E+00  0.00000000E+00
  0.00000000E+00  0.00000000E+00  0.00000000E+00
  0.00000000E+00  0.00000000E+00  0.00000000E+00
  0.00000000E+00  0.00000000E+00  0.00000000E+00
  0.00000000E+00  0.00000000E+00  0.00000000E+00