CuInSe2gb                               
   1.00000000000000     
     9.7266780392896699    0.0000000000000000    0.0000000000000000
     0.0000000000000000    8.4235502764570693    0.0000000000000000
     0.0000000000000000    0.0000000000000000   45.0000000000000000
   Fe   Mn
   281     7
Direct
  0.0573404708356708  0.7013950199006099  0.2114782460782817
  0.3159594505922003  0.7195610013591708  0.8756277045274524
  0.6883178545250567  0.9573629018685943  0.6113514749259475
  0.4381349365407211  0.4576851391858732  0.6113946403277817
  0.4358173394259388  0.2872201937496649  0.2557100815288273
  0.0612136695414865  0.3866054348501272  0.8340956416298794
  0.3118977884038099  0.8865169061442000  0.8341630369160138
  0.4416459905143799  0.6267202168851631  0.7001460974160347
  0.0643177399258072  0.2125413696100532  0.7442761524741381
  0.1823820500857558  0.4515902609306542  0.2113485071292588
  0.5637187060701330  0.2088034816973711  0.4778671668174398
  0.0639846172422252  0.8744001821199665  0.5666222231040545
  0.5654141607301103  0.2194652731781000  0.8755914447355643
  0.8108254748126666  0.5287869112099698  0.1246926221620261
  0.4322956447257056  0.9518705635145184  0.2114568149056887
  0.5641808477013899  0.3741921098811988  0.5666169528458849
  0.8118562441589861  0.0422261609536660  0.3885443254806923
  0.6865150838898583  0.7905160494112844  0.5220674889111528
  0.4385908472479182  0.4587919818803718  0.4778547844581856
  0.4386975176669396  0.9624762570950860  0.7444929585266300
  0.4387031052392305  0.6245833649289524  0.5666900388640543
  0.0608302625159525  0.5290239495421437  0.1247307186545416
  0.3111079058870119  0.0291615432252837  0.1248471697097912
  0.6868403421497217  0.9588171944987646  0.3444470523085022
  0.6843718062111483  0.7810022136920836  0.1239669196166482
  0.0579811804703626  0.3735412112059694  0.2997780657729529
  0.6890417289498388  0.4714953202805470  0.8753453868295085
  0.4322998034767156  0.4516505426177611  0.2112932199632419
  0.8112832501611653  0.3752239583351533  0.4331205523542310
  0.5629741076745942  0.7076332735624585  0.6113300618442669
  0.5632217871613099  0.5415406373981351  0.6554380803337234
  0.9362451239636281  0.1251716205654853  0.4331389133274882
  0.5609236466953702  0.5376923057419841  0.2556388829346384
  0.6868358245616547  0.4588171257059516  0.3443673651273489
  0.1884177505864819  0.6128114281709497  0.1661554432052346
  0.1925906004140683  0.7990794017597000  0.7885800612670985
  0.4413798644334607  0.1266657804291981  0.7001256014851799
  0.9330840075765773  0.6235781349145971  0.2998093047730747
  0.3152346828544797  0.2195407405314996  0.8756269292975272
  0.3136898009276371  0.8745099639643116  0.5666460707985701
  0.8154304000016918  0.2195961492702418  0.8755843664325700
  0.8132400318474445  0.5412741671009705  0.6555214683213788
  0.5605292555350369  0.5287315233567375  0.1248027852824748
  0.5673934379487336  0.0488800347741192  0.7888278817401547
  0.1857654270848817  0.2873191875480650  0.2557025991361083
  0.8112437368162675  0.8751520911947955  0.4331385271593329
  0.5668049095276584  0.3767754066865999  0.7002406394196433
  0.0605555578062276  0.0291596660268106  0.1247385374026424
  0.3131352358149332  0.5412529110536003  0.6555420748639523
  0.5618675489619517  0.2085836845568376  0.3444155337824356
  0.1882511985460362  0.9574246640167217  0.6114401932467027
  0.3078500682725595  0.3735222305246333  0.2998122149200422
  0.4380682111036729  0.7910489093447924  0.6554761593792273
  0.1921134066259808  0.2985149484846851  0.7886980012186789
  0.0634474463318062  0.3636438777875020  0.1662835885509533
  0.6923897784255605  0.6262135376324763  0.7000898788871032
  0.3119569847096066  0.5421899765136435  0.3885784839307865
  0.0652598197640299  0.7192140197772966  0.8756150035390324
  0.9370337834653899  0.6370384126730505  0.8341367288250263
  0.3178069027156961  0.5493018142773411  0.7888273738756502
  0.3073947640172695  0.2013084193749991  0.2114808107928733
  0.0637238455543089  0.7087602302621270  0.4778527871119683
  0.5574335690059042  0.2009785834234770  0.2114545276213753
  0.3140003721947090  0.2129479477424143  0.7442613713870926
  0.0671018590478623  0.3761678254638351  0.7002476371625872
  0.1867946544636892  0.6365648087910070  0.8338879708640441
  0.0671759029585205  0.0488289262350257  0.7887578269144105
  0.4388002827255577  0.1244524163162231  0.5666416253767270
  0.9384044134580306  0.2913138792636362  0.6554753239011436
  0.8074962262040845  0.2010888152285866  0.2113807935002699
  0.9323126765811879  0.9516736586755193  0.2112901124974908
  0.9389402311832659  0.6244698608233580  0.5666933887579703
  0.8117139437169810  0.3866150565881205  0.8341205330692220
  0.1920748610315667  0.6262249136684394  0.7002501478982895
  0.8111867331596310  0.8861526115192710  0.8340141703390874
  0.6885513970547165  0.2920612395885016  0.6555347872362483
  0.3127863071773013  0.2078354758204235  0.6114416746645083
  0.4387819572942397  0.4622305641851874  0.7442670768618415
  0.4368527256012050  0.7921387508766788  0.3885480710574720
  0.6901188920811566  0.9624478543272411  0.7445108821289178
  0.8073014441896790  0.7008360700441779  0.2115094540827245
  0.8138374460236721  0.7073789236933798  0.6112512727239143
  0.4342539389502079  0.7806503757806996  0.1243392469665103
  0.3137463335422811  0.7128690751836421  0.7442894921965943
  0.3181063450101182  0.0490619373045924  0.7889417813226253
  0.8118953893798259  0.5421358320895109  0.3885889880757329
  0.6866105739079867  0.2904683190621933  0.5220454161837288
  0.6923619152880929  0.7989288453128720  0.7886955069059417
  0.1857754291087665  0.7870372171361282  0.2556790815929081
  0.6880812935100874  0.1130476396990241  0.1663054362354500
  0.6886370316574897  0.9589513785261362  0.4778492249914620
  0.9367778375121228  0.9587897167982584  0.3443982400742402
  0.8116709114711473  0.0401944319038236  0.5219077874050037
  0.6862863610557005  0.6251434834059469  0.4331193999680402
  0.4368399082382164  0.4587900647911410  0.3443779636941541
  0.8155491233296130  0.2128873234827485  0.7443599466703358
  0.4390544399455516  0.9715203471690087  0.8754066403556564
  0.5641204245858205  0.8746923138384410  0.5666345435900439
  0.8106130395089526  0.0291055275376136  0.1243929056233858
  0.4330626774037487  0.6235742725383727  0.2998002501547194
  0.8151682584006114  0.7195506809782816  0.8756612002972711
  0.6883251769787035  0.4578195242267719  0.6113788828971073
  0.5615383101078626  0.3866845919619159  0.8339974105470057
  0.8078642846492052  0.3736875260302488  0.2997921211345351
  0.1869100408130253  0.2921037996986527  0.3885508103116690
  0.8165332330297432  0.5494781668191175  0.7889563196141427
  0.1865297098104047  0.7903979731474654  0.5220484477242900
  0.3078949628641944  0.8735890336436222  0.2998304119994462
  0.1822001304188357  0.9513512424837182  0.2113037640405047
  0.1891462658510257  0.4629435753631220  0.7442897035648232
  0.4365306931780781  0.2905265132685245  0.5220165512763549
  0.0618895695827677  0.7086237204696690  0.3443538475390548
  0.1880517452792358  0.7910634873140515  0.6555317518364957
  0.4422876848949672  0.7991861091565697  0.7886858394712455
  0.6862493599939401  0.1251745471639148  0.4331464569458729
  0.9366095287379166  0.7903570802204412  0.5220514364005419
  0.6881376031839830  0.6134159430290621  0.1662078639993331
  0.8119356241770911  0.7085651687434602  0.3443787800250355
  0.9395392890779929  0.4624082411201661  0.7442394397673849
  0.1868530051257196  0.4586957273377500  0.3443739482829352
  0.5679477982147871  0.5484060598602255  0.7888264658020283
  0.5620009706668345  0.3634798471946630  0.1662278000177869
  0.5619028703709807  0.7086612987198543  0.3443888892091568
  0.5578139730972943  0.3737350290091272  0.2997874948462687
  0.1888580136989321  0.4712056056877325  0.8754487187555845
  0.1881658519433784  0.1149739281973262  0.1661773074379379
  0.4427875514790846  0.2983899473245595  0.7885898835837223
  0.6857614059214115  0.7873479467515510  0.2557383510869101
  0.9369433405765923  0.1365456205218978  0.8337782990212727
  0.4384772955387847  0.9588233837401142  0.4778595670719378
  0.5653847451762380  0.7197833830117467  0.8755972945967087
  0.1885322933684049  0.4588838095853761  0.4778865779800993
  0.9346607107708778  0.2811037441561793  0.1245895297238240
  0.3118511415957645  0.0422781049676878  0.3885649250695001
  0.0630298197917672  0.0411935205314454  0.6555991386010479
  0.5612379582198896  0.3752437010125667  0.4331134900184579
  0.9362449883660666  0.6252314395436193  0.4331084697229454
  0.3118508041672087  0.3638182566750953  0.1663015222538504
  0.9423290050936096  0.1270361410626983  0.7002637288920760
  0.5630675635417578  0.0414404262740759  0.6555206810390019
  0.5615807473112376  0.5410174642795897  0.5219404616711932
  0.1829794116734614  0.1235119982152319  0.2997702893793930
  0.4379531593598475  0.1137345570154888  0.1663101572001212
  0.6831276301136159  0.6234545931414867  0.2998081986219471
  0.9331220413305420  0.1233629975391173  0.2997634593748343
  0.8136262750698514  0.3744302424309147  0.5666654355845273
  0.0579546377978018  0.8736275157965256  0.2997915182308394
  0.1888683359780225  0.6243931382105686  0.5667099526747420
  0.9414459033120639  0.7988387129234671  0.7887500434036119
  0.3114807346407447  0.3867587791826197  0.8341126930726454
  0.9391794710182304  0.4711982348102071  0.8754113543689928
  0.4364739357030844  0.6371885927803156  0.8340707010943537
  0.0619171267502327  0.2087354653890469  0.3444053415858303
  0.1887076401506121  0.9712305159205000  0.8754017220625377
  0.9344798806978291  0.7811789358634468  0.1241557872659503
  0.6869114998020587  0.7921362269215275  0.3885831612469805
  0.9380422457211360  0.7910194993764241  0.6555064014101269
  0.9384781693039687  0.1139734905728809  0.1661496470510458
  0.4379005397704916  0.2917178781586810  0.6555337209745512
  0.0575290340608184  0.2013033809381588  0.2114091219815246
  0.6825185297229085  0.9519527821059645  0.2113392401497636
  0.1829674667414028  0.6237939782379275  0.2998120310904308
  0.8177096122538041  0.8769035604304790  0.7002251321895491
  0.9421550611147634  0.6262643718066142  0.7002441192720265
  0.1922860849848694  0.1268426204732545  0.7001474233086061
  0.9387351543048319  0.4588110417324925  0.4778879966356501
  0.8136425610368644  0.2075551669661010  0.6113584062848322
  0.1861940760905435  0.6252410871999829  0.4331260827017184
  0.4329421769695729  0.1235107973995559  0.2997688189742497
  0.6830258481046406  0.1233488612921224  0.2997455343996732
  0.5619088349781993  0.5421009118439458  0.3885937528967536
  0.8118862080949225  0.2085529813730603  0.3443884905053270
  0.4390164571044978  0.4714542085006659  0.8753165262378028
  0.5611406822587929  0.8860412468320430  0.8341663234788067
  0.3135800768569880  0.2088338410747120  0.4778526811018298
  0.1886279821536989  0.9589154379456670  0.4779203945950067
  0.0614905111718475  0.8864773802249544  0.8340967187767586
  0.0615290270343743  0.5403403128876516  0.5220212600175506
  0.9386702870091947  0.9589345027101667  0.4779084127362803
  0.0631088939116377  0.7077623628482754  0.6113817912594727
  0.5616269347138663  0.0405728111930593  0.5220093159467504
  0.6924983845970590  0.2983975945077811  0.7886998367155091
  0.8132714080254272  0.3631432505652810  0.1662130581926207
  0.4362075759036775  0.1251807274878828  0.4331281574718265
  0.0636142782831320  0.2089417498595502  0.4778606893835413
  0.3133265878386573  0.0411723584489487  0.6554473651226800
  0.4366096971521239  0.7906199883774605  0.5220186552309285
  0.1872751052636383  0.1364834711665968  0.8338639211117355
  0.1848197607585796  0.2802060906244484  0.1245246822142673
  0.9368477401177191  0.4587476469535833  0.3443804830654564
  0.3131152563033638  0.8639679062271098  0.1663254848605632
  0.3075825993926983  0.7015367532737251  0.2114450889657622
  0.9378209222466922  0.6123673811335572  0.1662079810988597
  0.1881456676325118  0.4578818309320618  0.6114048550711437
  0.0672389931537825  0.8766617595285190  0.7001421764767874
  0.0632364043037803  0.5414072815800156  0.6556203116148515
  0.3106810344589633  0.5286769827410081  0.1248095855495542
  0.9369761598688691  0.7921627706733093  0.3885800256897946
  0.9414232287738655  0.2986642590858249  0.7887070637233478
  0.1879301683498720  0.2916738678939063  0.6555553493728208
  0.9380878135077151  0.9572709614511078  0.6114442116124711
  0.8148652982489077  0.7125375975764141  0.7444457964420370
  0.6859607064646109  0.2869961861379055  0.2556808736065220
  0.0645338660334330  0.7132233300265006  0.7443148980900750
  0.6825519110366831  0.4516630463500124  0.2111986181701509
  0.8135007314588399  0.2088093252585095  0.4778528599218980
  0.5635970558164609  0.7086744206618495  0.4778980613165232
  0.0622924722776571  0.8641087429790016  0.1662948778328566
  0.9366269470511078  0.2906384267644496  0.5220643327426528
  0.6879651737824038  0.7917196111285257  0.6555577195284007
  0.0611740861112808  0.8751192245732879  0.4330868931359074
  0.0654881111650636  0.2190865529236827  0.8756910171663773
  0.8131875955004346  0.0412637966752154  0.6554843202029438
  0.5607896187617554  0.0289580048713043  0.1244466653795210
  0.3112789903847995  0.3751842414678698  0.4331249716369091
  0.3139790158170094  0.3744265239836596  0.5666624234697174
  0.3135084061105187  0.7088168401907742  0.4778427397581604
  0.0615755240611039  0.0405234177514653  0.5220502657032078
  0.3164526554698026  0.8764252222437100  0.7001696463794908
  0.0606930401817732  0.5376561314640751  0.2556286974083896
  0.6871890105499013  0.1365346863620872  0.8339648585407107
  0.8105263295607671  0.0375750643031026  0.2556763573068668
  0.1862613940383418  0.1251058012625798  0.4331404232581396
  0.6924160550770895  0.1270383556212288  0.7001565816030864
  0.1865152451765399  0.2904506740559719  0.5220702633618697
  0.4358888018317134  0.7871746562605336  0.2557418910359064
  0.8107266916698939  0.5377436447692016  0.2556175516716115
  0.0630905862279923  0.2077110880130584  0.6114175645627392
  0.1869595801190521  0.7922209160835456  0.3885915518635701
  0.3115778775569745  0.5404515756670506  0.5220608448351453
  0.8173409387431224  0.3768561166641525  0.7002368509113975
  0.6869235183355165  0.2921764949918532  0.3885927939030692
  0.1888564982279599  0.1241727066306969  0.5666146148227343
  0.6888565509860394  0.9718977084681794  0.8753904740141212
  0.6889020302022828  0.1245802648657186  0.5665980527536533
  0.4368210012287702  0.9587971395719179  0.3444332535558927
  0.1887663212942518  0.9621618898517189  0.7444063963647746
  0.9357042801264358  0.7871917183829199  0.2556898122891725
  0.5612721638051202  0.8752729203178529  0.4331160031806585
  0.3112838910455824  0.8751965114516896  0.4331269725677261
  0.8115485146828234  0.5404307442651394  0.5220548132917177
  0.9325725714596337  0.4515835395888533  0.2112334472704001
  0.3111426499219657  0.5374505907805249  0.2556169687754624
  0.5617771805991555  0.0422038507383068  0.3885540086192507
  0.9382144496330902  0.4579826939869370  0.6113747780218325
  0.0619063300403506  0.0422001239132238  0.3885848850865271
  0.0618136541198813  0.5421253037865874  0.3885870749174079
  0.4367904686668297  0.2921420747550958  0.3885424926035388
  0.6886107045283860  0.4588537947808036  0.4778494512981845
  0.0640885658838771  0.3744197483606191  0.5666965532841701
  0.5579153747794842  0.7009109836543611  0.2114754318723275
  0.9359500508911871  0.2871553977930707  0.2556950280064144
  0.8168120344240551  0.0491840685921974  0.7888200237697851
  0.1868451531592152  0.9587678892093487  0.3443762337786436
  0.5579255610126023  0.8736557897631994  0.2997805472759708
  0.0612037029470835  0.3752208649824260  0.4331309236161169
  0.3119240786991481  0.7086459025754949  0.3443687430412622
  0.3118558890552852  0.2086260723230056  0.3444306902847877
  0.9389971855277073  0.1242368002451051  0.5666827579547452
  0.4378783441136693  0.9574608182456775  0.6113339482572892
  0.5607956896127811  0.0377124746309253  0.2557791125147995
  0.1850020034171889  0.7810526431526282  0.1246414542821754
  0.0606701895725834  0.0378928747350512  0.2556693704394772
  0.6889229625030809  0.6247180028590290  0.5666533246917183
  0.4386915499773414  0.6130359589388148  0.1661554030129070
  0.3114306932856921  0.0403286277622975  0.5220034134941747
  0.6847166681788814  0.2812856948733583  0.1246270107865196
  0.8136066563836550  0.7087051230422489  0.4778698137781925
  0.4374270755744430  0.1364792613718737  0.8338837590896034
  0.3169703911703429  0.3765001184217243  0.7002690228904858
  0.6874924027815822  0.6367286443046035  0.8339227094690034
  0.5638030053669456  0.7135145880110685  0.7444371346990682
  0.9369814847533796  0.2921552804335431  0.3885568759564587
  0.9394126513359694  0.9713213984262608  0.8754126417516337
  0.9396934193800784  0.9627332117262313  0.7444332767421117
  0.8137620608263955  0.8746186376273005  0.5666614057292214
  0.8079717447099429  0.8736844011125989  0.2997787519911606
  0.3110688320159016  0.0379122269915444  0.2557398288267793
  0.4346030789569345  0.2805946191466854  0.1246084082852695
  0.3126504448726440  0.7073134751215049  0.6112892256599848
  0.4361299888712911  0.6252027195397598  0.4331175343022154
  0.6889850417226162  0.4629862109889339  0.7445548372582403
  0.5623372621390319  0.8637823432650715  0.1660012335952232
  0.0679632495380673  0.5493307145579245  0.7886846477546305
  0.8145826565819266  0.8638707409804376  0.1659056196622491
  0.5632374392652932  0.2116718615317078  0.7444698550941797
  0.5630448502254825  0.2082093340179198  0.6112319012478410
  0.5675681854505020  0.8764649478358468  0.7002627686706308
 
  0.00000000E+00  0.00000000E+00  0.00000000E+00
  0.00000000E+00  0.00000000E+00  0.00000000E+00
  0.00000000E+00  0.00000000E+00  0.00000000E+00
  0.00000000E+00  0.00000000E+00  0.00000000E+00
  0.00000000E+00  0.00000000E+00  0.00000000E+00
  0.00000000E+00  0.00000000E+00  0.00000000E+00
  0.00000000E+00  0.00000000E+00  0.00000000E+00
  0.00000000E+00  0.00000000E+00  0.00000000E+00
  0.00000000E+00  0.00000000E+00  0.00000000E+00
  0.00000000E+00  0.00000000E+00  0.00000000E+00
  0.00000000E+00  0.00000000E+00  0.00000000E+00
  0.00000000E+00  0.00000000E+00  0.00000000E+00
  0.00000000E+00  0.00000000E+00  0.00000000E+00
  0.00000000E+00  0.00000000E+00  0.00000000E+00
  0.00000000E+00  0.00000000E+00  0.00000000E+00
  0.00000000E+00  0.00000000E+00  0.00000000E+00
  0.00000000E+00  0.00000000E+00  0.00000000E+00
  0.00000000E+00  0.00000000E+00  0.00000000E+00
  0.00000000E+00  0.00000000E+00  0.00000000E+00
  0.00000000E+00  0.00000000E+00  0.00000000E+00
  0.00000000E+00  0.00000000E+00  0.00000000E+00
  0.00000000E+00  0.00000000E+00  0.00000000E+00
  0.00000000E+00  0.00000000E+00  0.00000000E+00
  0.00000000E+00  0.00000000E+00  0.00000000E+00
  0.00000000E+00  0.00000000E+00  0.00000000E+00
  0.00000000E+00  0.00000000E+00  0.00000000E+00
  0.00000000E+00  0.00000000E+00  0.00000000E+00
  0.00000000E+00  0.00000000E+00  0.00000000E+00
  0.00000000E+00  0.00000000E+00  0.00000000E+00
  0.00000000E+00  0.00000000E+00  0.00000000E+00
  0.00000000E+00  0.00000000E+00  0.00000000E+00
  0.00000000E+00  0.00000000E+00  0.00000000E+00
  0.00000000E+00  0.00000000E+00  0.00000000E+00
  0.00000000E+00  0.00000000E+00  0.00000000E+00
  0.00000000E+00  0.00000000E+00  0.00000000E+00
  0.00000000E+00  0.00000000E+00  0.00000000E+00
  0.00000000E+00  0.00000000E+00  0.00000000E+00
  0.00000000E+00  0.00000000E+00  0.00000000E+00
  0.00000000E+00  0.00000000E+00  0.00000000E+00
  0.00000000E+00  0.00000000E+00  0.00000000E+00
  0.00000000E+00  0.00000000E+00  0.00000000E+00
  0.00000000E+00  0.00000000E+00  0.00000000E+00
  0.00000000E+00  0.00000000E+00  0.00000000E+00
  0.00000000E+00  0.00000000E+00  0.00000000E+00
  0.00000000E+00  0.00000000E+00  0.00000000E+00
  0.00000000E+00  0.00000000E+00  0.00000000E+00
  0.00000000E+00  0.00000000E+00  0.00000000E+00
  0.00000000E+00  0.00000000E+00  0.00000000E+00
  0.00000000E+00  0.00000000E+00  0.00000000E+00
  0.00000000E+00  0.00000000E+00  0.00000000E+00
  0.00000000E+00  0.00000000E+00  0.00000000E+00
  0.00000000E+00  0.00000000E+00  0.00000000E+00
  0.00000000E+00  0.00000000E+00  0.00000000E+00
  0.00000000E+00  0.00000000E+00  0.00000000E+00
  0.00000000E+00  0.00000000E+00  0.00000000E+00
  0.00000000E+00  0.00000000E+00  0.00000000E+00
  0.00000000E+00  0.00000000E+00  0.00000000E+00
  0.00000000E+00  0.00000000E+00  0.00000000E+00
  0.00000000E+00  0.00000000E+00  0.00000000E+00
  0.00000000E+00  0.00000000E+00  0.00000000E+00
  0.00000000E+00  0.00000000E+00  0.00000000E+00
  0.00000000E+00  0.00000000E+00  0.00000000E+00
  0.00000000E+00  0.00000000E+00  0.00000000E+00
  0.00000000E+00  0.00000000E+00  0.00000000E+00
  0.00000000E+00  0.00000000E+00  0.00000000E+00
  0.00000000E+00  0.00000000E+00  0.00000000E+00
  0.00000000E+00  0.00000000E+00  0.00000000E+00
  0.00000000E+00  0.00000000E+00  0.00000000E+00
  0.00000000E+00  0.00000000E+00  0.00000000E+00
  0.00000000E+00  0.00000000E+00  0.00000000E+00
  0.00000000E+00  0.00000000E+00  0.00000000E+00
  0.00000000E+00  0.00000000E+00  0.00000000E+00
  0.00000000E+00  0.00000000E+00  0.00000000E+00
  0.00000000E+00  0.00000000E+00  0.00000000E+00
  0.00000000E+00  0.00000000E+00  0.00000000E+00
  0.00000000E+00  0.00000000E+00  0.00000000E+00
  0.00000000E+00  0.00000000E+00  0.00000000E+00
  0.00000000E+00  0.00000000E+00  0.00000000E+00
  0.00000000E+00  0.00000000E+00  0.00000000E+00
  0.00000000E+00  0.00000000E+00  0.00000000E+00
  0.00000000E+00  0.00000000E+00  0.00000000E+00
  0.00000000E+00  0.00000000E+00  0.00000000E+00
  0.00000000E+00  0.00000000E+00  0.00000000E+00
  0.00000000E+00  0.00000000E+00  0.00000000E+00
  0.00000000E+00  0.00000000E+00  0.00000000E+00
  0.00000000E+00  0.00000000E+00  0.00000000E+00
  0.00000000E+00  0.00000000E+00  0.00000000E+00
  0.00000000E+00  0.00000000E+00  0.00000000E+00
  0.00000000E+00  0.00000000E+00  0.00000000E+00
  0.00000000E+00  0.00000000E+00  0.00000000E+00
  0.00000000E+00  0.00000000E+00  0.00000000E+00
  0.00000000E+00  0.00000000E+00  0.00000000E+00
  0.00000000E+00  0.00000000E+00  0.00000000E+00
  0.00000000E+00  0.00000000E+00  0.00000000E+00
  0.00000000E+00  0.00000000E+00  0.00000000E+00
  0.00000000E+00  0.00000000E+00  0.00000000E+00
  0.00000000E+00  0.00000000E+00  0.00000000E+00
  0.00000000E+00  0.00000000E+00  0.00000000E+00
  0.00000000E+00  0.00000000E+00  0.00000000E+00
  0.00000000E+00  0.00000000E+00  0.00000000E+00
  0.00000000E+00  0.00000000E+00  0.00000000E+00
  0.00000000E+00  0.00000000E+00  0.00000000E+00
  0.00000000E+00  0.00000000E+00  0.00000000E+00
  0.00000000E+00  0.00000000E+00  0.00000000E+00
  0.00000000E+00  0.00000000E+00  0.00000000E+00
  0.00000000E+00  0.00000000E+00  0.00000000E+00
  0.00000000E+00  0.00000000E+00  0.00000000E+00
  0.00000000E+00  0.00000000E+00  0.00000000E+00
  0.00000000E+00  0.00000000E+00  0.00000000E+00
  0.00000000E+00  0.00000000E+00  0.00000000E+00
  0.00000000E+00  0.00000000E+00  0.00000000E+00
  0.00000000E+00  0.00000000E+00  0.00000000E+00
  0.00000000E+00  0.00000000E+00  0.00000000E+00
  0.00000000E+00  0.00000000E+00  0.00000000E+00
  0.00000000E+00  0.00000000E+00  0.00000000E+00
  0.00000000E+00  0.00000000E+00  0.00000000E+00
  0.00000000E+00  0.00000000E+00  0.00000000E+00
  0.00000000E+00  0.00000000E+00  0.00000000E+00
  0.00000000E+00  0.00000000E+00  0.00000000E+00
  0.00000000E+00  0.00000000E+00  0.00000000E+00
  0.00000000E+00  0.00000000E+00  0.00000000E+00
  0.00000000E+00  0.00000000E+00  0.00000000E+00
  0.00000000E+00  0.00000000E+00  0.00000000E+00
  0.00000000E+00  0.00000000E+00  0.00000000E+00
  0.00000000E+00  0.00000000E+00  0.00000000E+00
  0.00000000E+00  0.00000000E+00  0.00000000E+00
  0.00000000E+00  0.00000000E+00  0.00000000E+00
  0.00000000E+00  0.00000000E+00  0.00000000E+00
  0.00000000E+00  0.00000000E+00  0.00000000E+00
  0.00000000E+00  0.00000000E+00  0.00000000E+00
  0.00000000E+00  0.00000000E+00  0.00000000E+00
  0.00000000E+00  0.00000000E+00  0.00000000E+00
  0.00000000E+00  0.00000000E+00  0.00000000E+00
  0.00000000E+00  0.00000000E+00  0.00000000E+00
  0.00000000E+00  0.00000000E+00  0.00000000E+00
  0.00000000E+00  0.00000000E+00  0.00000000E+00
  0.00000000E+00  0.00000000E+00  0.00000000E+00
  0.00000000E+00  0.00000000E+00  0.00000000E+00
  0.00000000E+00  0.00000000E+00  0.00000000E+00
  0.00000000E+00  0.00000000E+00  0.00000000E+00
  0.00000000E+00  0.00000000E+00  0.00000000E+00
  0.00000000E+00  0.00000000E+00  0.00000000E+00
  0.00000000E+00  0.00000000E+00  0.00000000E+00
  0.00000000E+00  0.00000000E+00  0.00000000E+00
  0.00000000E+00  0.00000000E+00  0.00000000E+00
  0.00000000E+00  0.00000000E+00  0.00000000E+00
  0.00000000E+00  0.00000000E+00  0.00000000E+00
  0.00000000E+00  0.00000000E+00  0.00000000E+00
  0.00000000E+00  0.00000000E+00  0.00000000E+00
  0.00000000E+00  0.00000000E+00  0.00000000E+00
  0.00000000E+00  0.00000000E+00  0.00000000E+00
  0.00000000E+00  0.00000000E+00  0.00000000E+00
  0.00000000E+00  0.00000000E+00  0.00000000E+00
  0.00000000E+00  0.00000000E+00  0.00000000E+00
  0.00000000E+00  0.00000000E+00  0.00000000E+00
  0.00000000E+00  0.00000000E+00  0.00000000E+00
  0.00000000E+00  0.00000000E+00  0.00000000E+00
  0.00000000E+00  0.00000000E+00  0.00000000E+00
  0.00000000E+00  0.00000000E+00  0.00000000E+00
  0.00000000E+00  0.00000000E+00  0.00000000E+00
  0.00000000E+00  0.00000000E+00  0.00000000E+00
  0.00000000E+00  0.00000000E+00  0.00000000E+00
  0.00000000E+00  0.00000000E+00  0.00000000E+00
  0.00000000E+00  0.00000000E+00  0.00000000E+00
  0.00000000E+00  0.00000000E+00  0.00000000E+00
  0.00000000E+00  0.00000000E+00  0.00000000E+00
  0.00000000E+00  0.00000000E+00  0.00000000E+00
  0.00000000E+00  0.00000000E+00  0.00000000E+00
  0.00000000E+00  0.00000000E+00  0.00000000E+00
  0.00000000E+00  0.00000000E+00  0.00000000E+00
  0.00000000E+00  0.00000000E+00  0.00000000E+00
  0.00000000E+00  0.00000000E+00  0.00000000E+00
  0.00000000E+00  0.00000000E+00  0.00000000E+00
  0.00000000E+00  0.00000000E+00  0.00000000E+00
  0.00000000E+00  0.00000000E+00  0.00000000E+00
  0.00000000E+00  0.00000000E+00  0.00000000E+00
  0.00000000E+00  0.00000000E+00  0.00000000E+00
  0.00000000E+00  0.00000000E+00  0.00000000E+00
  0.00000000E+00  0.00000000E+00  0.00000000E+00
  0.00000000E+00  0.00000000E+00  0.00000000E+00
  0.00000000E+00  0.00000000E+00  0.00000000E+00
  0.00000000E+00  0.00000000E+00  0.00000000E+00
  0.00000000E+00  0.00000000E+00  0.00000000E+00
  0.00000000E+00  0.00000000E+00  0.00000000E+00
  0.00000000E+00  0.00000000E+00  0.00000000E+00
  0.00000000E+00  0.00000000E+00  0.00000000E+00
  0.00000000E+00  0.00000000E+00  0.00000000E+00
  0.00000000E+00  0.00000000E+00  0.00000000E+00
  0.00000000E+00  0.00000000E+00  0.00000000E+00
  0.00000000E+00  0.00000000E+00  0.00000000E+00
  0.00000000E+00  0.00000000E+00  0.00000000E+00
  0.00000000E+00  0.00000000E+00  0.00000000E+00
  0.00000000E+00  0.00000000E+00  0.00000000E+00
  0.00000000E+00  0.00000000E+00  0.00000000E+00
  0.00000000E+00  0.00000000E+00  0.00000000E+00
  0.00000000E+00  0.00000000E+00  0.00000000E+00
  0.00000000E+00  0.00000000E+00  0.00000000E+00
  0.00000000E+00  0.00000000E+00  0.00000000E+00
  0.00000000E+00  0.00000000E+00  0.00000000E+00
  0.00000000E+00  0.00000000E+00  0.00000000E+00
  0.00000000E+00  0.00000000E+00  0.00000000E+00
  0.00000000E+00  0.00000000E+00  0.00000000E+00
  0.00000000E+00  0.00000000E+00  0.00000000E+00
  0.00000000E+00  0.00000000E+00  0.00000000E+00
  0.00000000E+00  0.00000000E+00  0.00000000E+00
  0.00000000E+00  0.00000000E+00  0.00000000E+00
  0.00000000E+00  0.00000000E+00  0.00000000E+00
  0.00000000E+00  0.00000000E+00  0.00000000E+00
  0.00000000E+00  0.00000000E+00  0.00000000E+00
  0.00000000E+00  0.00000000E+00  0.00000000E+00
  0.00000000E+00  0.00000000E+00  0.00000000E+00
  0.00000000E+00  0.00000000E+00  0.00000000E+00
  0.00000000E+00  0.00000000E+00  0.00000000E+00
  0.00000000E+00  0.00000000E+00  0.00000000E+00
  0.00000000E+00  0.00000000E+00  0.00000000E+00
  0.00000000E+00  0.00000000E+00  0.00000000E+00
  0.00000000E+00  0.00000000E+00  0.00000000E+00
  0.00000000E+00  0.00000000E+00  0.00000000E+00
  0.00000000E+00  0.00000000E+00  0.00000000E+00
  0.00000000E+00  0.00000000E+00  0.00000000E+00
  0.00000000E+00  0.00000000E+00  0.00000000E+00
  0.00000000E+00  0.00000000E+00  0.00000000E+00
  0.00000000E+00  0.00000000E+00  0.00000000E+00
  0.00000000E+00  0.00000000E+00  0.00000000E+00
  0.00000000E+00  0.00000000E+00  0.00000000E+00
  0.00000000E+00  0.00000000E+00  0.00000000E+00
  0.00000000E+00  0.00000000E+00  0.00000000E+00
  0.00000000E+00  0.00000000E+00  0.00000000E+00
  0.00000000E+00  0.00000000E+00  0.00000000E+00
  0.00000000E+00  0.00000000E+00  0.00000000E+00
  0.00000000E+00  0.00000000E+00  0.00000000E+00
  0.00000000E+00  0.00000000E+00  0.00000000E+00
  0.00000000E+00  0.00000000E+00  0.00000000E+00
  0.00000000E+00  0.00000000E+00  0.00000000E+00
  0.00000000E+00  0.00000000E+00  0.00000000E+00
  0.00000000E+00  0.00000000E+00  0.00000000E+00
  0.00000000E+00  0.00000000E+00  0.00000000E+00
  0.00000000E+00  0.00000000E+00  0.00000000E+00
  0.00000000E+00  0.00000000E+00  0.00000000E+00
  0.00000000E+00  0.00000000E+00  0.00000000E+00
  0.00000000E+00  0.00000000E+00  0.00000000E+00
  0.00000000E+00  0.00000000E+00  0.00000000E+00
  0.00000000E+00  0.00000000E+00  0.00000000E+00
  0.00000000E+00  0.00000000E+00  0.00000000E+00
  0.00000000E+00  0.00000000E+00  0.00000000E+00
  0.00000000E+00  0.00000000E+00  0.00000000E+00
  0.00000000E+00  0.00000000E+00  0.00000000E+00