CuInSe2gb                               
   1.00000000000000     
     9.7266780392896699    0.0000000000000000    0.0000000000000000
     0.0000000000000000    8.4235502764570693    0.0000000000000000
     0.0000000000000000    0.0000000000000000   45.0000000000000000
   Fe   Mn
   281     7
Direct
  0.0534051100214267  0.7018701429065355  0.2114255305118515
  0.3185110002441532  0.7236806966885160  0.8761343610603073
  0.6874976972276703  0.9581292946056897  0.6113560168888901
  0.4381338238872231  0.4575490134659621  0.6112028230806403
  0.4400644114168182  0.2881639963575059  0.2554913523143107
  0.0585716512388399  0.3879299570753812  0.8334798476636578
  0.3086089896963098  0.8876358252378349  0.8334979092415008
  0.4473248202101955  0.6261850578613134  0.7001935890702544
  0.0604274013529584  0.2119929301935851  0.7448241102247223
  0.1785059956672421  0.4510956385351012  0.2113215471299498
  0.5677902492180730  0.2107893955205509  0.4774583301414631
  0.0667677315312166  0.8748622321425401  0.5667659351561374
  0.5677836372153452  0.2238489131222898  0.8761111896351046
  0.8104027958620637  0.5320757416004125  0.1242788775158196
  0.4281070262312074  0.9513935335271088  0.2114429790674250
  0.5666487504727602  0.3749241064980568  0.5668869319832417
  0.8122691134145746  0.0418266740148467  0.3886309177300939
  0.6824943452463832  0.7885251797434006  0.5222299596753197
  0.4428218450795670  0.4607373325092575  0.4774679006049453
  0.4349679559262391  0.9620614312389032  0.7445647806031922
  0.4420147099282110  0.6249609967775983  0.5667383615176612
  0.0608558949056704  0.5311433113806721  0.1242541079404727
  0.3101328118951595  0.0319260403053765  0.1242713968897663
  0.6903057965805348  0.9593370201201824  0.3441853107947408
  0.6814071729102946  0.7778001702272160  0.1240748268408967
  0.0526503544635787  0.3738495037311280  0.2997923349091272
  0.6893780991869080  0.4676307315207482  0.8758907050375396
  0.4285559723779255  0.4510401974442336  0.2113025792088782
  0.8083339577933772  0.3750286117100564  0.4331283792607566
  0.5626788530444303  0.7080490579136587  0.6113555361418306
  0.5599067856009731  0.5415196511516881  0.6556803994613403
  0.9334286920353697  0.1249677506308057  0.4331058087209959
  0.5657756708054772  0.5375940665486558  0.2554783218654883
  0.6903520382453578  0.4593148405864813  0.3441949319773935
  0.1914221054233241  0.6119290010585046  0.1667077424245662
  0.1956505102679053  0.7990323883978833  0.7887281274813130
  0.4472715196349116  0.1261333710415573  0.7002118796861161
  0.9277740965110467  0.6238750293365998  0.2997164945181733
  0.3182860490384576  0.2236779739218882  0.8760738949845929
  0.3167562041918546  0.8746810309507475  0.5667713883493586
  0.8176184084829142  0.2233579967389047  0.8761054646591180
  0.8097810759567862  0.5409014275085686  0.6557307316998278
  0.5593386763227427  0.5320201986141532  0.1242414236830941
  0.5706883975914722  0.0493938512611852  0.7887653301444588
  0.1899611989868000  0.2882961799061842  0.2554774751098087
  0.8084108060536211  0.8749721988307175  0.4331225325944857
  0.5722724898897459  0.3760775378380609  0.7001757265475697
  0.0604042410323261  0.0319044193773696  0.1241453871261847
  0.3096252726794845  0.5407974717350362  0.6558099143267268
  0.5653752512925334  0.2094723218819286  0.3441474524598439
  0.1878341699134145  0.9580122706741985  0.6113109610037797
  0.3026656144801702  0.3739256067198410  0.2997439728957845
  0.4343206229032110  0.7908917991568234  0.6556618980104570
  0.1961581480497685  0.2980445740269502  0.7885778900419482
  0.0664863133962426  0.3624658220451900  0.1665240298488051
  0.6968945231662844  0.6265604159792916  0.7004162066643080
  0.3121002649965801  0.5418300644131905  0.3885433075112721
  0.0675962853206544  0.7230920866286705  0.8761088780771931
  0.9336190894463585  0.6376289995405566  0.8335523810524941
  0.3202774206424433  0.5494773045504989  0.7887124231913556
  0.3033670190267323  0.2018668921012508  0.2114287647705792
  0.0678451286609051  0.7106615422562124  0.4774592619379042
  0.5535097617089251  0.2016896448053016  0.2114449223606932
  0.3111070474386569  0.2111409080822762  0.7446724121337130
  0.0721302060010922  0.3762830258072077  0.7003724831138363
  0.1832633774891326  0.6374975444115555  0.8335071347109652
  0.0712048621831394  0.0488472168257178  0.7888054120425579
  0.4417408166796527  0.1249449411190235  0.5667753786119714
  0.9349544745456945  0.2908620522709002  0.6557274931876184
  0.8034624242549065  0.2015832353472408  0.2113979569896755
  0.9288799513362855  0.9510478313718327  0.2113212044682600
  0.9416486639994830  0.6250755716249603  0.5668736633694280
  0.8084211599820567  0.3878852349367013  0.8334817678402598
  0.1970805898334331  0.6260403813429092  0.7000702849829602
  0.8085487190673771  0.8876873452240395  0.8335258746656425
  0.6847481078648572  0.2907608344400914  0.6558135525368747
  0.3127777227656816  0.2081655503288265  0.6113640482850065
  0.4358054608386360  0.4626953732556612  0.7445307773442496
  0.4371539428535444  0.7918466711716067  0.3885649894051907
  0.6849746324711367  0.9628166259567591  0.7445785480963234
  0.8033082672040697  0.7018386867661316  0.2114691637769409
  0.8131314908461618  0.7077060028374790  0.6112323608647738
  0.4317650802422967  0.7781204487498825  0.1242078495698614
  0.3109037891599073  0.7119924229901845  0.7445732175997578
  0.3205697164877341  0.0493172822256396  0.7888588955845331
  0.8120867983051256  0.5417946948113304  0.3885429188477636
  0.6823695089765800  0.2881882545827793  0.5223217621573543
  0.6952992971198477  0.7987433277094281  0.7887025624399795
  0.1899203654062337  0.7882281877297984  0.2554692503495488
  0.6911918226309262  0.1115860835718276  0.1665800514602900
  0.6929029736073314  0.9605969986922211  0.4774638336781010
  0.9403522049339242  0.9593336304496767  0.3441728893700139
  0.8075497376498665  0.0382594224881914  0.5223069034090702
  0.6834213175295465  0.6250296869177485  0.4331084504601996
  0.4402996320536637  0.4593081440560783  0.3441833989365746
  0.8101177079218039  0.2125387836641670  0.7445719811564314
  0.4396385162590419  0.9675867289947679  0.8760432200693988
  0.5666686037716013  0.8749796344804623  0.5668329048675933
  0.8109580458984915  0.0318809681184996  0.1243133054487346
  0.4277751886125042  0.6239118477741836  0.2997211626298190
  0.8175830596670350  0.7237096735644615  0.8761214395785609
  0.6875803050444839  0.4581268228948397  0.6112323710156758
  0.5586090580288403  0.3877694622186209  0.8332389647239292
  0.8027650868461818  0.3738652971350589  0.2997231041135140
  0.1871157040322790  0.2918316100544548  0.3885661836202501
  0.8212829994347629  0.5488512167005211  0.7887929949458048
  0.1823888497831485  0.7882269752708243  0.5223555168434606
  0.3026666748943033  0.8739205551389839  0.2997595206351975
  0.1787332967132034  0.9512908886818866  0.2112676152441307
  0.1852406077078022  0.4620908182573403  0.7446325107552263
  0.4323643764258460  0.2882021977280890  0.5223059358105046
  0.0653654146590908  0.7094131628775390  0.3441892463553142
  0.1846727678510847  0.7905569264502796  0.6558130546795687
  0.4451349143395211  0.7990761952269808  0.7887665372486367
  0.6834156360458902  0.1250520936177051  0.4330897683575500
  0.9323991359037698  0.7882453915026945  0.5223486150537795
  0.6918465730871850  0.6129507911205426  0.1665930917083111
  0.8153126388694065  0.7094586845738949  0.3441697363836258
  0.9347960911774033  0.4625845298049461  0.7447899811393079
  0.1902944986285624  0.4593517934625352  0.3441994851749473
  0.5701923902854412  0.5494224566197604  0.7888828539087838
  0.5661735784683996  0.3621540714034056  0.1666480516509778
  0.5653152845674070  0.7093881475105762  0.3441805346258457
  0.5527421011379278  0.3739354173841582  0.2997237982020595
  0.1894508506724709  0.4674621633017904  0.8759122355357936
  0.1914577777745894  0.1125285383337485  0.1668554658309611
  0.4449271795498271  0.2990025185328307  0.7887835464528252
  0.6900089803861138  0.7882692994006429  0.2554535627493170
  0.9336614953654720  0.1375687122626772  0.8335104604181230
  0.4430331753121450  0.9607088322824674  0.4774586956187372
  0.5676689898962909  0.7241530561338142  0.8760699927578123
  0.1928426949569868  0.4607681257712319  0.4774660428383585
  0.9338787903955663  0.2787037299675210  0.1240746632944125
  0.3121653941249117  0.0418551828562727  0.3885630334702350
  0.0596067471192070  0.0405295956610189  0.6558823559354751
  0.5584061098791404  0.3749887095254753  0.4331191020539746
  0.9333944061528688  0.6250450961114096  0.4331014271188025
  0.3162595868598316  0.3625300007039555  0.1667244898201572
  0.9467405214670140  0.1266884418727355  0.7002568861623644
  0.5597236060701811  0.0410126692045740  0.6557308358161740
  0.5572702559196406  0.5383781183051664  0.5223278944160671
  0.1777609600967442  0.1238297188540489  0.2996963978869848
  0.4414531367483210  0.1123050511485588  0.1668413890462024
  0.6777497016757676  0.6239659962805092  0.2997488536804493
  0.9277100041265937  0.1240754155702164  0.2997479975764480
  0.8166922672414906  0.3747620508184695  0.5668061574283689
  0.0526520056669309  0.8738163194856751  0.2998279431033363
  0.1917284588380577  0.6250331886706886  0.5667953298982186
  0.9459560530034047  0.7989482601047572  0.7887581732365886
  0.3085102285353401  0.3876430145943373  0.8335057494681249
  0.9395180311844084  0.4674959522771243  0.8759697390504511
  0.4335792336112395  0.6378257494979288  0.8335094860927802
  0.0652897581752373  0.2093681104664513  0.3441723052598561
  0.1893730333108155  0.9676534734488048  0.8760000459970393
  0.9315196409324887  0.7785022475177203  0.1240897042804662
  0.6870463569713530  0.7917839461179098  0.3885226751029979
  0.9346771796420664  0.7906186929864102  0.6558270805691789
  0.9412015782673021  0.1118267007499042  0.1666875517665003
  0.4347634725862045  0.2907014629504397  0.6558552639948970
  0.0534335913247566  0.2018194022171483  0.2114124628738662
  0.6783604328274287  0.9513840902126655  0.2115476872349701
  0.1778375590810823  0.6237443882332996  0.2996743828206915
  0.8218183729795036  0.8758870349725633  0.7001988543385310
  0.9463515315970343  0.6258343985087247  0.7003381978894433
  0.1970736899094369  0.1263314200883768  0.7002685757132124
  0.9427816551271357  0.4607406667737866  0.4774502063964313
  0.8126774579953556  0.2079028506274896  0.6113442143444143
  0.1834565128613118  0.6250376906479854  0.4331086153465993
  0.4278072847817928  0.1241421245725152  0.2997940236994669
  0.6779027115710773  0.1242566897932688  0.2998070736101580
  0.5620383802779740  0.5418152632546608  0.3885317864501717
  0.8152496882809885  0.2093562239816946  0.3442012702864656
  0.4396690567206478  0.4675698330285232  0.8758777523714198
  0.5585273113174392  0.8874015975927989  0.8334921913107542
  0.3179844911924002  0.2107836107686985  0.4774613749941122
  0.1929866309068052  0.9607957942201805  0.4774658850364057
  0.0585863379147802  0.8875470665510149  0.8333875024595926
  0.0574028897736342  0.5382231996591275  0.5223297102724875
  0.9427921180405334  0.9607649701409097  0.4774554884431352
  0.0628477691547850  0.7078449842755605  0.6112662448040651
  0.5574024167167211  0.0382786681449875  0.5223634428595461
  0.6963973701618064  0.2988703027086600  0.7886911792069827
  0.8163947409111061  0.3621029301357597  0.1665163147490690
  0.4334078144250281  0.1250095010906995  0.4330912266845391
  0.0679240435853276  0.2107427496436763  0.4774701143328330
  0.3097516393906957  0.0407325548794864  0.6557647553427070
  0.4322410669848081  0.7883072795148267  0.5222710039649672
  0.1836221753596703  0.1376214212677768  0.8335188522664295
  0.1816825039742795  0.2775667643433415  0.1240517076435692
  0.9402966911196186  0.4593215111962028  0.3441836531516149
  0.3164378084567173  0.8625198396467306  0.1667225150580966
  0.3034098164387400  0.7019180388795249  0.2114813179454939
  0.9413160511377591  0.6122818752352368  0.1666197533261984
  0.1878529743432718  0.4583356265513647  0.6113895861560208
  0.0723891651269008  0.8763314420752062  0.7001594371480406
  0.0597783143945116  0.5406673842358642  0.6558311483953354
  0.3094353824611213  0.5308043843601223  0.1242406650346767
  0.9370824728222935  0.7917558096117684  0.3885316782401428
  0.9466174625247544  0.2990857018619174  0.7886318084207390
  0.1846295355967197  0.2905372808896516  0.6557980424832929
  0.9376548610069622  0.9579837520928969  0.6113071187132044
  0.8110072922144551  0.7109955778221174  0.7445886838277186
  0.6899335045985517  0.2881876206163914  0.2554699778475883
  0.0600720519270721  0.7120243670479510  0.7448942960315222
  0.6785134538997083  0.4508444907008564  0.2113354645459416
  0.8180322513974483  0.2108156757909646  0.4774642782591151
  0.5679153245722350  0.7105730109581414  0.4775015317598075
  0.0662639050859998  0.8624989236159335  0.1665914857614048
  0.9323745522911233  0.2883124996479819  0.5223271062372133
  0.6847529506572898  0.7909211570556379  0.6557194421126517
  0.0584495876910301  0.8749788490696582  0.4331084304650621
  0.0679678761444652  0.2226404925617685  0.8761226666111275
  0.8098465678072940  0.0408540767240506  0.6557460417508955
  0.5600634674643086  0.0319671938065277  0.1244126194034055
  0.3084172332840884  0.3749970261275683  0.4331099230049709
  0.3166775087481536  0.3748055969535175  0.5667928036532032
  0.3178970383789463  0.7106973865377839  0.4774368928606426
  0.0574026624069173  0.0382164137788507  0.5223268863498953
  0.3222683132993476  0.8762014625130712  0.7002192786453834
  0.0657989600546007  0.5377326752784760  0.2554384414154243
  0.6834220887470884  0.1375038913195551  0.8335104718408852
  0.8158919106028303  0.0374607410322858  0.2553828148715340
  0.1834024423309084  0.1250124085992655  0.4331165742156340
  0.6972921136250896  0.1268304078652993  0.7003240924207909
  0.1824045081365716  0.2882211007591790  0.5223220400010412
  0.4401415123355137  0.7881512829862143  0.2554553638870599
  0.8158032102804635  0.5375738468065685  0.2554423316719509
  0.0625958223072898  0.2081217468728920  0.6112829249933236
  0.1870112632470063  0.7918021289235889  0.3885175130265278
  0.3073821868703975  0.5382470380235782  0.5223478426114946
  0.8224609364240911  0.3759611545082651  0.7000599541855939
  0.6871053389759652  0.2918425395492427  0.3885622704743181
  0.1915987278945936  0.1249974905617288  0.5668865321256855
  0.6895729296215718  0.9684407216393732  0.8759327111912554
  0.6918770798188874  0.1251314068576223  0.5667019782118898
  0.4403212359061118  0.9593555426314230  0.3441835984681033
  0.1855098293586002  0.9622428143217527  0.7443204137467831
  0.9399191695971439  0.7881951052964126  0.2554588871374434
  0.5583981381323341  0.8749962072686723  0.4330825084781191
  0.3084342828395588  0.8749554649501277  0.4331063916203686
  0.8072720097336422  0.5382019833963002  0.5223487361515050
  0.9285372071940349  0.4509397833951155  0.2113277230947620
  0.3153364004720847  0.5378874415057464  0.2554656230032653
  0.5621915216753128  0.0418346865259555  0.3885917028048154
  0.9377211264309356  0.4582218574648537  0.6113651331592549
  0.0621633598047536  0.0418296335664606  0.3885801091251312
  0.0621126162414101  0.5417960438444325  0.3885222231686759
  0.4372234615678873  0.2918428890673878  0.3885914457045346
  0.6929259866744124  0.4607203223168488  0.4774462322263706
  0.0666912250822954  0.3746165573010252  0.5668292736248065
  0.5536227057682670  0.7018941298608875  0.2115038717191667
  0.9399050064643111  0.2882706614907576  0.2554706685932528
  0.8208198779785012  0.0490897400872942  0.7888228631595969
  0.1902955163611870  0.9593118396953606  0.3441671717183282
  0.5526951417353925  0.8739101454544901  0.2998799343721184
  0.0584455703747445  0.3749903058201799  0.4330942365935718
  0.3153067218017547  0.7094152786880692  0.3441864315192309
  0.3154042284301992  0.2095212268661768  0.3441305008450365
  0.9417190884933955  0.1250032824949609  0.5668825853573251
  0.4379359707278903  0.9579163807920578  0.6112792534583168
  0.5656131024464204  0.0374267203387721  0.2554376155505822
  0.1821923919632765  0.7789861337823186  0.1242903494977264
  0.0656788168239368  0.0375019376261797  0.2554544347750843
  0.6917070391436234  0.6249663131814592  0.5667557647641647
  0.4420375279417719  0.6126639669074120  0.1667583773013632
  0.3072058723579660  0.0382745132996127  0.5223193427192759
  0.6818579390150008  0.2786282017299592  0.1241738037732360
  0.8179422738673297  0.7107330979966311  0.4774491536075880
  0.4336579379500137  0.1378609215070196  0.8334806008988629
  0.3218585250186610  0.3760828263886054  0.7002031685199237
  0.6836235986443162  0.6377348525894440  0.8334883173182679
  0.5608891240070090  0.7119461354466438  0.7444388876572033
  0.9371923457245862  0.2917897213823356  0.3885621542254425
  0.9393995034727256  0.9676192315566777  0.8759275053127460
  0.9354153446895431  0.9621855453541103  0.7444717112565936
  0.8170300404593143  0.8746958818507617  0.5667176121774843
  0.8027150395600288  0.8739493272457945  0.2998621855060817
  0.3156294323997090  0.0375565096307188  0.2554892555072725
  0.4306051495492577  0.2780073944136279  0.1241752202470202
  0.3124933718163382  0.7080187912433610  0.6113749528140876
  0.4334224011663712  0.6249909029971442  0.4331048320470176
  0.6840201498679050  0.4626163575466443  0.7447703894486623
  0.5659455420623063  0.8617170154866103  0.1658647861876040
  0.0720252586858346  0.5492124109047709  0.7885807736355004
  0.8174177240356859  0.8619719861297424  0.1658680688522919
  0.5602927593646582  0.2103054548411745  0.7444718660072402
  0.5627206640919923  0.2069576474698778  0.6112250683091023
  0.5735846149746544  0.8770909893655334  0.7004095321484193
 
  0.00000000E+00  0.00000000E+00  0.00000000E+00
  0.00000000E+00  0.00000000E+00  0.00000000E+00
  0.00000000E+00  0.00000000E+00  0.00000000E+00
  0.00000000E+00  0.00000000E+00  0.00000000E+00
  0.00000000E+00  0.00000000E+00  0.00000000E+00
  0.00000000E+00  0.00000000E+00  0.00000000E+00
  0.00000000E+00  0.00000000E+00  0.00000000E+00
  0.00000000E+00  0.00000000E+00  0.00000000E+00
  0.00000000E+00  0.00000000E+00  0.00000000E+00
  0.00000000E+00  0.00000000E+00  0.00000000E+00
  0.00000000E+00  0.00000000E+00  0.00000000E+00
  0.00000000E+00  0.00000000E+00  0.00000000E+00
  0.00000000E+00  0.00000000E+00  0.00000000E+00
  0.00000000E+00  0.00000000E+00  0.00000000E+00
  0.00000000E+00  0.00000000E+00  0.00000000E+00
  0.00000000E+00  0.00000000E+00  0.00000000E+00
  0.00000000E+00  0.00000000E+00  0.00000000E+00
  0.00000000E+00  0.00000000E+00  0.00000000E+00
  0.00000000E+00  0.00000000E+00  0.00000000E+00
  0.00000000E+00  0.00000000E+00  0.00000000E+00
  0.00000000E+00  0.00000000E+00  0.00000000E+00
  0.00000000E+00  0.00000000E+00  0.00000000E+00
  0.00000000E+00  0.00000000E+00  0.00000000E+00
  0.00000000E+00  0.00000000E+00  0.00000000E+00
  0.00000000E+00  0.00000000E+00  0.00000000E+00
  0.00000000E+00  0.00000000E+00  0.00000000E+00
  0.00000000E+00  0.00000000E+00  0.00000000E+00
  0.00000000E+00  0.00000000E+00  0.00000000E+00
  0.00000000E+00  0.00000000E+00  0.00000000E+00
  0.00000000E+00  0.00000000E+00  0.00000000E+00
  0.00000000E+00  0.00000000E+00  0.00000000E+00
  0.00000000E+00  0.00000000E+00  0.00000000E+00
  0.00000000E+00  0.00000000E+00  0.00000000E+00
  0.00000000E+00  0.00000000E+00  0.00000000E+00
  0.00000000E+00  0.00000000E+00  0.00000000E+00
  0.00000000E+00  0.00000000E+00  0.00000000E+00
  0.00000000E+00  0.00000000E+00  0.00000000E+00
  0.00000000E+00  0.00000000E+00  0.00000000E+00
  0.00000000E+00  0.00000000E+00  0.00000000E+00
  0.00000000E+00  0.00000000E+00  0.00000000E+00
  0.00000000E+00  0.00000000E+00  0.00000000E+00
  0.00000000E+00  0.00000000E+00  0.00000000E+00
  0.00000000E+00  0.00000000E+00  0.00000000E+00
  0.00000000E+00  0.00000000E+00  0.00000000E+00
  0.00000000E+00  0.00000000E+00  0.00000000E+00
  0.00000000E+00  0.00000000E+00  0.00000000E+00
  0.00000000E+00  0.00000000E+00  0.00000000E+00
  0.00000000E+00  0.00000000E+00  0.00000000E+00
  0.00000000E+00  0.00000000E+00  0.00000000E+00
  0.00000000E+00  0.00000000E+00  0.00000000E+00
  0.00000000E+00  0.00000000E+00  0.00000000E+00
  0.00000000E+00  0.00000000E+00  0.00000000E+00
  0.00000000E+00  0.00000000E+00  0.00000000E+00
  0.00000000E+00  0.00000000E+00  0.00000000E+00
  0.00000000E+00  0.00000000E+00  0.00000000E+00
  0.00000000E+00  0.00000000E+00  0.00000000E+00
  0.00000000E+00  0.00000000E+00  0.00000000E+00
  0.00000000E+00  0.00000000E+00  0.00000000E+00
  0.00000000E+00  0.00000000E+00  0.00000000E+00
  0.00000000E+00  0.00000000E+00  0.00000000E+00
  0.00000000E+00  0.00000000E+00  0.00000000E+00
  0.00000000E+00  0.00000000E+00  0.00000000E+00
  0.00000000E+00  0.00000000E+00  0.00000000E+00
  0.00000000E+00  0.00000000E+00  0.00000000E+00
  0.00000000E+00  0.00000000E+00  0.00000000E+00
  0.00000000E+00  0.00000000E+00  0.00000000E+00
  0.00000000E+00  0.00000000E+00  0.00000000E+00
  0.00000000E+00  0.00000000E+00  0.00000000E+00
  0.00000000E+00  0.00000000E+00  0.00000000E+00
  0.00000000E+00  0.00000000E+00  0.00000000E+00
  0.00000000E+00  0.00000000E+00  0.00000000E+00
  0.00000000E+00  0.00000000E+00  0.00000000E+00
  0.00000000E+00  0.00000000E+00  0.00000000E+00
  0.00000000E+00  0.00000000E+00  0.00000000E+00
  0.00000000E+00  0.00000000E+00  0.00000000E+00
  0.00000000E+00  0.00000000E+00  0.00000000E+00
  0.00000000E+00  0.00000000E+00  0.00000000E+00
  0.00000000E+00  0.00000000E+00  0.00000000E+00
  0.00000000E+00  0.00000000E+00  0.00000000E+00
  0.00000000E+00  0.00000000E+00  0.00000000E+00
  0.00000000E+00  0.00000000E+00  0.00000000E+00
  0.00000000E+00  0.00000000E+00  0.00000000E+00
  0.00000000E+00  0.00000000E+00  0.00000000E+00
  0.00000000E+00  0.00000000E+00  0.00000000E+00
  0.00000000E+00  0.00000000E+00  0.00000000E+00
  0.00000000E+00  0.00000000E+00  0.00000000E+00
  0.00000000E+00  0.00000000E+00  0.00000000E+00
  0.00000000E+00  0.00000000E+00  0.00000000E+00
  0.00000000E+00  0.00000000E+00  0.00000000E+00
  0.00000000E+00  0.00000000E+00  0.00000000E+00
  0.00000000E+00  0.00000000E+00  0.00000000E+00
  0.00000000E+00  0.00000000E+00  0.00000000E+00
  0.00000000E+00  0.00000000E+00  0.00000000E+00
  0.00000000E+00  0.00000000E+00  0.00000000E+00
  0.00000000E+00  0.00000000E+00  0.00000000E+00
  0.00000000E+00  0.00000000E+00  0.00000000E+00
  0.00000000E+00  0.00000000E+00  0.00000000E+00
  0.00000000E+00  0.00000000E+00  0.00000000E+00
  0.00000000E+00  0.00000000E+00  0.00000000E+00
  0.00000000E+00  0.00000000E+00  0.00000000E+00
  0.00000000E+00  0.00000000E+00  0.00000000E+00
  0.00000000E+00  0.00000000E+00  0.00000000E+00
  0.00000000E+00  0.00000000E+00  0.00000000E+00
  0.00000000E+00  0.00000000E+00  0.00000000E+00
  0.00000000E+00  0.00000000E+00  0.00000000E+00
  0.00000000E+00  0.00000000E+00  0.00000000E+00
  0.00000000E+00  0.00000000E+00  0.00000000E+00
  0.00000000E+00  0.00000000E+00  0.00000000E+00
  0.00000000E+00  0.00000000E+00  0.00000000E+00
  0.00000000E+00  0.00000000E+00  0.00000000E+00
  0.00000000E+00  0.00000000E+00  0.00000000E+00
  0.00000000E+00  0.00000000E+00  0.00000000E+00
  0.00000000E+00  0.00000000E+00  0.00000000E+00
  0.00000000E+00  0.00000000E+00  0.00000000E+00
  0.00000000E+00  0.00000000E+00  0.00000000E+00
  0.00000000E+00  0.00000000E+00  0.00000000E+00
  0.00000000E+00  0.00000000E+00  0.00000000E+00
  0.00000000E+00  0.00000000E+00  0.00000000E+00
  0.00000000E+00  0.00000000E+00  0.00000000E+00
  0.00000000E+00  0.00000000E+00  0.00000000E+00
  0.00000000E+00  0.00000000E+00  0.00000000E+00
  0.00000000E+00  0.00000000E+00  0.00000000E+00
  0.00000000E+00  0.00000000E+00  0.00000000E+00
  0.00000000E+00  0.00000000E+00  0.00000000E+00
  0.00000000E+00  0.00000000E+00  0.00000000E+00
  0.00000000E+00  0.00000000E+00  0.00000000E+00
  0.00000000E+00  0.00000000E+00  0.00000000E+00
  0.00000000E+00  0.00000000E+00  0.00000000E+00
  0.00000000E+00  0.00000000E+00  0.00000000E+00
  0.00000000E+00  0.00000000E+00  0.00000000E+00
  0.00000000E+00  0.00000000E+00  0.00000000E+00
  0.00000000E+00  0.00000000E+00  0.00000000E+00
  0.00000000E+00  0.00000000E+00  0.00000000E+00
  0.00000000E+00  0.00000000E+00  0.00000000E+00
  0.00000000E+00  0.00000000E+00  0.00000000E+00
  0.00000000E+00  0.00000000E+00  0.00000000E+00
  0.00000000E+00  0.00000000E+00  0.00000000E+00
  0.00000000E+00  0.00000000E+00  0.00000000E+00
  0.00000000E+00  0.00000000E+00  0.00000000E+00
  0.00000000E+00  0.00000000E+00  0.00000000E+00
  0.00000000E+00  0.00000000E+00  0.00000000E+00
  0.00000000E+00  0.00000000E+00  0.00000000E+00
  0.00000000E+00  0.00000000E+00  0.00000000E+00
  0.00000000E+00  0.00000000E+00  0.00000000E+00
  0.00000000E+00  0.00000000E+00  0.00000000E+00
  0.00000000E+00  0.00000000E+00  0.00000000E+00
  0.00000000E+00  0.00000000E+00  0.00000000E+00
  0.00000000E+00  0.00000000E+00  0.00000000E+00
  0.00000000E+00  0.00000000E+00  0.00000000E+00
  0.00000000E+00  0.00000000E+00  0.00000000E+00
  0.00000000E+00  0.00000000E+00  0.00000000E+00
  0.00000000E+00  0.00000000E+00  0.00000000E+00
  0.00000000E+00  0.00000000E+00  0.00000000E+00
  0.00000000E+00  0.00000000E+00  0.00000000E+00
  0.00000000E+00  0.00000000E+00  0.00000000E+00
  0.00000000E+00  0.00000000E+00  0.00000000E+00
  0.00000000E+00  0.00000000E+00  0.00000000E+00
  0.00000000E+00  0.00000000E+00  0.00000000E+00
  0.00000000E+00  0.00000000E+00  0.00000000E+00
  0.00000000E+00  0.00000000E+00  0.00000000E+00
  0.00000000E+00  0.00000000E+00  0.00000000E+00
  0.00000000E+00  0.00000000E+00  0.00000000E+00
  0.00000000E+00  0.00000000E+00  0.00000000E+00
  0.00000000E+00  0.00000000E+00  0.00000000E+00
  0.00000000E+00  0.00000000E+00  0.00000000E+00
  0.00000000E+00  0.00000000E+00  0.00000000E+00
  0.00000000E+00  0.00000000E+00  0.00000000E+00
  0.00000000E+00  0.00000000E+00  0.00000000E+00
  0.00000000E+00  0.00000000E+00  0.00000000E+00
  0.00000000E+00  0.00000000E+00  0.00000000E+00
  0.00000000E+00  0.00000000E+00  0.00000000E+00
  0.00000000E+00  0.00000000E+00  0.00000000E+00
  0.00000000E+00  0.00000000E+00  0.00000000E+00
  0.00000000E+00  0.00000000E+00  0.00000000E+00
  0.00000000E+00  0.00000000E+00  0.00000000E+00
  0.00000000E+00  0.00000000E+00  0.00000000E+00
  0.00000000E+00  0.00000000E+00  0.00000000E+00
  0.00000000E+00  0.00000000E+00  0.00000000E+00
  0.00000000E+00  0.00000000E+00  0.00000000E+00
  0.00000000E+00  0.00000000E+00  0.00000000E+00
  0.00000000E+00  0.00000000E+00  0.00000000E+00
  0.00000000E+00  0.00000000E+00  0.00000000E+00
  0.00000000E+00  0.00000000E+00  0.00000000E+00
  0.00000000E+00  0.00000000E+00  0.00000000E+00
  0.00000000E+00  0.00000000E+00  0.00000000E+00
  0.00000000E+00  0.00000000E+00  0.00000000E+00
  0.00000000E+00  0.00000000E+00  0.00000000E+00
  0.00000000E+00  0.00000000E+00  0.00000000E+00
  0.00000000E+00  0.00000000E+00  0.00000000E+00
  0.00000000E+00  0.00000000E+00  0.00000000E+00
  0.00000000E+00  0.00000000E+00  0.00000000E+00
  0.00000000E+00  0.00000000E+00  0.00000000E+00
  0.00000000E+00  0.00000000E+00  0.00000000E+00
  0.00000000E+00  0.00000000E+00  0.00000000E+00
  0.00000000E+00  0.00000000E+00  0.00000000E+00
  0.00000000E+00  0.00000000E+00  0.00000000E+00
  0.00000000E+00  0.00000000E+00  0.00000000E+00
  0.00000000E+00  0.00000000E+00  0.00000000E+00
  0.00000000E+00  0.00000000E+00  0.00000000E+00
  0.00000000E+00  0.00000000E+00  0.00000000E+00
  0.00000000E+00  0.00000000E+00  0.00000000E+00
  0.00000000E+00  0.00000000E+00  0.00000000E+00
  0.00000000E+00  0.00000000E+00  0.00000000E+00
  0.00000000E+00  0.00000000E+00  0.00000000E+00
  0.00000000E+00  0.00000000E+00  0.00000000E+00
  0.00000000E+00  0.00000000E+00  0.00000000E+00
  0.00000000E+00  0.00000000E+00  0.00000000E+00
  0.00000000E+00  0.00000000E+00  0.00000000E+00
  0.00000000E+00  0.00000000E+00  0.00000000E+00
  0.00000000E+00  0.00000000E+00  0.00000000E+00
  0.00000000E+00  0.00000000E+00  0.00000000E+00
  0.00000000E+00  0.00000000E+00  0.00000000E+00
  0.00000000E+00  0.00000000E+00  0.00000000E+00
  0.00000000E+00  0.00000000E+00  0.00000000E+00
  0.00000000E+00  0.00000000E+00  0.00000000E+00
  0.00000000E+00  0.00000000E+00  0.00000000E+00
  0.00000000E+00  0.00000000E+00  0.00000000E+00
  0.00000000E+00  0.00000000E+00  0.00000000E+00
  0.00000000E+00  0.00000000E+00  0.00000000E+00
  0.00000000E+00  0.00000000E+00  0.00000000E+00
  0.00000000E+00  0.00000000E+00  0.00000000E+00
  0.00000000E+00  0.00000000E+00  0.00000000E+00
  0.00000000E+00  0.00000000E+00  0.00000000E+00
  0.00000000E+00  0.00000000E+00  0.00000000E+00
  0.00000000E+00  0.00000000E+00  0.00000000E+00
  0.00000000E+00  0.00000000E+00  0.00000000E+00
  0.00000000E+00  0.00000000E+00  0.00000000E+00
  0.00000000E+00  0.00000000E+00  0.00000000E+00
  0.00000000E+00  0.00000000E+00  0.00000000E+00
  0.00000000E+00  0.00000000E+00  0.00000000E+00
  0.00000000E+00  0.00000000E+00  0.00000000E+00
  0.00000000E+00  0.00000000E+00  0.00000000E+00
  0.00000000E+00  0.00000000E+00  0.00000000E+00
  0.00000000E+00  0.00000000E+00  0.00000000E+00
  0.00000000E+00  0.00000000E+00  0.00000000E+00
  0.00000000E+00  0.00000000E+00  0.00000000E+00
  0.00000000E+00  0.00000000E+00  0.00000000E+00
  0.00000000E+00  0.00000000E+00  0.00000000E+00
  0.00000000E+00  0.00000000E+00  0.00000000E+00
  0.00000000E+00  0.00000000E+00  0.00000000E+00
  0.00000000E+00  0.00000000E+00  0.00000000E+00
  0.00000000E+00  0.00000000E+00  0.00000000E+00
  0.00000000E+00  0.00000000E+00  0.00000000E+00
  0.00000000E+00  0.00000000E+00  0.00000000E+00
  0.00000000E+00  0.00000000E+00  0.00000000E+00
  0.00000000E+00  0.00000000E+00  0.00000000E+00
  0.00000000E+00  0.00000000E+00  0.00000000E+00