CuInSe2gb                               
   1.00000000000000     
     9.7266780392896699    0.0000000000000000    0.0000000000000000
     0.0000000000000000    8.4235502764570693    0.0000000000000000
     0.0000000000000000    0.0000000000000000   45.0000000000000000
   Fe   Mn
   274    14
Direct
  0.0618910008019466  0.0314314403167835  0.1243747148586987
  0.3165559596286752  0.8750218733967825  0.6548628131235548
  0.1848714505237262  0.1215670604152834  0.7882946460705379
  0.4415497172124188  0.2875388078495117  0.3891015529231857
  0.3176523535845089  0.7126734526508111  0.8327777705956605
  0.8178500444245168  0.2140532404696608  0.8333668537858497
  0.1912440678857689  0.9626508047980611  0.8333110182113811
  0.5622999507068628  0.2071626863761834  0.5654968921005937
  0.0655094986817021  0.0397582440589227  0.7439716881375965
  0.8115136416750530  0.8713838748556684  0.5213926447937127
  0.1910463157347899  0.2905174946128833  0.7439327588202495
  0.9336722826265257  0.4523273654116505  0.3449224878974479
  0.9411090820404776  0.2868654456571221  0.3890063189554818
  0.8130805816338690  0.0398642946167687  0.8754277130671392
  0.1835766068832805  0.7880769044649745  0.6108664065991000
  0.5662994032123386  0.0379499131090113  0.3891392939285523
  0.9417398824050578  0.9632558493455661  0.8335597699468129
  0.3141635953069091  0.5388134132179229  0.8757901198049961
  0.6905217025297972  0.2904595323789983  0.7439535464591320
  0.1823782159882926  0.6138923149213419  0.1668110226271352
  0.8121623063431076  0.2057884227892291  0.4787004171566868
  0.8087363279107663  0.5378886189442991  0.6109158189278030
  0.3119664024019070  0.8699366411955085  0.4345147235867449
  0.8090666486431152  0.0383591938609115  0.2561526148548766
  0.6835893209796403  0.9522059875971798  0.3449136638093976
  0.9314755525095391  0.1143046120151478  0.1671451970177185
  0.0616464253863555  0.8714034923653945  0.5214053149337251
  0.5591372651260516  0.5384071281141829  0.2560069182767427
  0.6847303696433672  0.7953475318777293  0.8754561240312992
  0.5557634176495999  0.3655258918749350  0.1668074398099094
  0.4398713952810117  0.7907895119333004  0.7440671602545398
  0.8113889203821576  0.7065873124530726  0.5654631320090953
  0.5599840965788703  0.8722688259479523  0.7883045046443883
  0.6866660557662053  0.1215061109940407  0.5214060484769522
  0.8164732826966055  0.3748185962218107  0.6549127574152468
  0.9415640688906353  0.4628597431248587  0.8335092737208050
  0.0604130975415635  0.2080053730123257  0.6995594722023769
  0.4350224030109605  0.9579285533460903  0.6995409523139766
  0.3168126957513637  0.2119178922980844  0.8333257654785213
  0.4415464087476458  0.6247835937564117  0.6548987822384554
  0.3087591223994112  0.5378341333316203  0.6108662718779601
  0.9365617801668209  0.4565229577899238  0.5655925361653521
  0.6900288345382927  0.7910367015818641  0.7440545669030022
  0.9336804951397855  0.7880800159825146  0.1246640889699999
  0.6916143624661929  0.7876534282788838  0.3890786290222952
  0.9405920888738470  0.7900801385468317  0.7441553406191418
  0.0587878917723089  0.2028417388691383  0.3450227395655364
  0.6839869644285778  0.4520232881199019  0.3450219776671672
  0.4349716933494128  0.1213518243535371  0.7886375055691596
  0.0651207291138749  0.2051870360048912  0.2116386022181952
  0.0553015818189526  0.3654186793265143  0.1668002996344916
  0.9338237303903495  0.7889418800907985  0.2559180919394020
  0.5604231787658915  0.2077497864108592  0.6995835212108673
  0.6850119318793662  0.9579876425860973  0.6995942352389741
  0.8099413248224305  0.8723186814824034  0.7882446355270123
  0.4369527451033685  0.9571529219492215  0.5653987706805825
  0.8103548008893381  0.3732713877558475  0.7882045116208520
  0.6839732670784326  0.2894029652812357  0.2560456261342784
  0.1873442995919999  0.4571962360063269  0.5654838230817797
  0.0558620006167070  0.8656323368738231  0.1668301151643417
  0.1837195972745206  0.2880099315305382  0.6109170703136320
  0.0622594617694080  0.2071269448258160  0.5653691019123572
  0.3104439431400438  0.2079850533602762  0.6996341878354585
  0.5635785157728379  0.5391663496322276  0.8756955933419045
  0.0618724651989232  0.7063489792774856  0.5655302044718551
  0.6848396813894950  0.6216360217838910  0.7882180805456773
  0.3156815100654828  0.5380951701381156  0.3890140786027952
  0.1866702129092863  0.6213187919486812  0.5214422828568762
  0.5625487957899348  0.8705251798299427  0.4344736438325786
  0.4369235396718000  0.4570362322516808  0.5655078538758220
  0.4398607607194736  0.2910061556783297  0.7440292245880493
  0.8190695598903958  0.8749120327381785  0.3003005583288406
  0.8087143844969680  0.7027528077157658  0.3450540496742313
  0.4416123732659591  0.4623599320401086  0.8331535152717223
  0.6874295632970757  0.9557661234309588  0.4786704167723317
  0.6850182879116670  0.4580153829225153  0.6995980053805589
  0.5618588917900224  0.8719794521393183  0.5214363555009028
  0.5665244881406508  0.3748082652432527  0.6548851779814391
  0.8164017381725063  0.8748077071898618  0.6549322721931338
  0.8116689784357689  0.3710157837732689  0.4342386016992056
  0.8086349480151062  0.5381509394265257  0.2562293492336601
  0.6918655596280270  0.4615532925711568  0.8330683620276504
  0.1861507906213712  0.7882768919169251  0.1243022161968028
  0.6913229363542359  0.2873960337667056  0.3890533616250409
  0.3165443520931381  0.3747787010370995  0.6548879541651058
  0.3091453914287228  0.2023805441953478  0.3450111802590516
  0.8156188347089085  0.5397977121549805  0.7439392143628361
  0.6915113825223660  0.9619034489219077  0.8331422993462386
  0.5662912260348238  0.8747786578840728  0.6549424729189763
  0.3113577439788046  0.7072503176956776  0.5654602430209117
  0.3122826440228529  0.5318598629983716  0.1242949155571309
  0.6903901091363790  0.9557174271311981  0.2119251590953078
  0.3114301802380687  0.2065664036130589  0.5654833215987000
  0.1873709011580368  0.9557984379681346  0.4787055489815900
  0.6873488514575979  0.9570966164119542  0.5654788807801086
  0.4337032516189126  0.7879535274064926  0.6108494600306750
  0.6823814460880837  0.6117472750226434  0.1666709835339256
  0.3189539711735134  0.8742269911718757  0.3002584711009736
  0.3121507032774251  0.7057419410739783  0.4786965604128372
  0.9337428509375060  0.2878370984605694  0.6108790468769093
  0.4452236651386055  0.6247794656878430  0.3004031144000037
  0.8069959017401547  0.8639650175789531  0.1671526798969367
  0.5664458186909415  0.2036170353217588  0.2118329016423059
  0.9328680936022116  0.6128741011181598  0.1668226898056031
  0.4372392681628335  0.9556985457639449  0.4786645251560320
  0.5602048708898202  0.3718210623460122  0.7883759478871164
  0.0613533804483964  0.3720443032599101  0.5213475029909076
  0.3068577609357365  0.3641259942622091  0.1667723145054639
  0.6949249610393702  0.1239726110004857  0.3003643939762640
  0.4427017041250379  0.9619771715603714  0.8331202435847590
  0.1845953619163088  0.2875297474025452  0.1245627981620657
  0.1841384792465216  0.2896164545073287  0.2560402399028166
  0.3125916724579978  0.3700326634289808  0.4345118317465835
  0.5620380656172539  0.0328354237871105  0.1245378461448242
  0.4338048133941351  0.2879154386135091  0.6108695550262566
  0.1838829001799450  0.4528679890631918  0.3451132604052128
  0.4344617961151948  0.2874606203717078  0.1245910927202635
  0.6835281754997793  0.7895658995777139  0.2561338061654690
  0.4366860308216673  0.1216780189526054  0.5213943761916408
  0.1883123963853262  0.2944569320035343  0.8757672608072536
  0.1912918158825649  0.1250077857212199  0.6548860306893219
  0.9415509214636617  0.1250028563333532  0.6549028010859153
  0.8162312158050136  0.5376370088829798  0.3890818048955099
  0.0662385500652973  0.0377685841081644  0.3891543081388709
  0.1826029693703020  0.1123258766865108  0.1666682299372766
  0.0586417623548099  0.5377620157912043  0.6109169835555528
  0.9343843331026912  0.2891614436338403  0.2560227428749177
  0.5585875282035012  0.5379546041422811  0.6108736957094576
  0.9369106037880048  0.9573499336524766  0.5654407787844868
  0.6940303555691785  0.6248525348736558  0.3002785197230510
  0.9372103350201249  0.6205341637157609  0.4344789112151350
  0.9340127628310628  0.6229468927070023  0.7880082036207419
  0.5603693302611235  0.7076630202321745  0.6995681535144437
  0.0659544489583156  0.7151597734998785  0.8336428520962090
  0.9448306031698179  0.1239695398110073  0.3002906471794167
  0.9337299364506714  0.7875455222493687  0.6109220431810499
  0.4335540306456565  0.7891233093209700  0.2560059139881254
  0.3105386596902632  0.3720699405530185  0.7882303628403029
  0.4400525264021221  0.4557062322199570  0.2118288261508658
  0.1867202607294432  0.1216061427886032  0.5213972742189732
  0.8103277133394594  0.7078642914004751  0.6995579066741312
  0.0586027710676577  0.0379890644933080  0.6108587864530615
  0.5661425740972045  0.2129674213146249  0.8330055206120731
  0.3117088955106606  0.8715761546926359  0.5214292255099798
  0.6863292178101250  0.2872680355205294  0.1243712215335851
  0.1898236658947888  0.9560607419311006  0.2119641355929345
  0.6835802631802170  0.2879735934098117  0.6109117450845336
  0.3087274737573219  0.0379299732551365  0.6109635467961161
  0.9350588021896392  0.1226821512112921  0.7883509163251967
  0.4370054098009191  0.7954121682407945  0.8756926114790703
  0.8154370986811292  0.0403084056706714  0.7438724534998844
  0.9349956651207842  0.4580724311111940  0.6995952347722316
  0.1913224021769949  0.6249640715794218  0.6549283681956585
  0.3103500947777860  0.7077288172965978  0.6995727936848219
  0.9344226190037438  0.2870568108166193  0.1244655198321857
  0.4372601527894403  0.4558293385852192  0.4786082182977284
  0.0622214811785786  0.7056979927425238  0.4786314769210134
  0.9371658185672580  0.1200428338812632  0.4346405027610580
  0.4439202387754673  0.1248334014432541  0.3004207942499699
  0.1871905603582345  0.1202624113706855  0.4344264207527028
  0.5633640139191901  0.0391076111552482  0.8757957347398484
  0.1870309039351227  0.9571812175593889  0.5654710433171597
  0.6839448876837845  0.7879180819424441  0.1247642564047563
  0.5592142818665743  0.7027506040023588  0.3450491725798847
  0.3162414209452524  0.0370676680515331  0.3889706710249836
  0.6823449786429568  0.1142715869868616  0.1671033303457531
  0.8151204999651284  0.2047577909393075  0.2117024033726974
  0.0593776363845867  0.5377555747361746  0.2558831178025581
  0.5623031768444485  0.7057090487029060  0.4786449672294765
  0.4346905619354682  0.7876899551146100  0.1245619578865003
  0.5688150034431335  0.3740516272003912  0.3003609156062338
  0.4333536482960850  0.9524607319715903  0.3450919987296786
  0.1851100824909497  0.9580599767584213  0.6996828534772723
  0.4318345725913283  0.6134726405170994  0.1667192481244234
  0.9402944744584295  0.4560582786591907  0.2120760316170834
  0.0618133763506015  0.5313159898459781  0.1243598522230368
  0.8117334261873275  0.3718706458809226  0.5213708084719126
  0.9437496245856160  0.6245978774601187  0.3001620799580212
  0.3088999160091549  0.0386103025532218  0.2558880717220025
  0.6837361202628591  0.7878986771098214  0.6108750206390631
  0.1917459420380158  0.4626082270465913  0.8331544965474073
  0.4325831115786636  0.1124065620548765  0.1666975727488123
  0.3114138666963134  0.3716960876437641  0.5214363588840010
  0.4340165047963056  0.6216257526373300  0.7885447980331552
  0.0589910629124666  0.0384801826980839  0.2559793524392819
  0.5620795793864062  0.7070785174860780  0.5655071638106800
  0.9400125507885108  0.2895744228156585  0.7440025794752615
  0.6834531023763988  0.1220900576729660  0.7883522565465817
  0.1899018697544927  0.4552702646753416  0.2116973662596978
  0.9412033351256645  0.7874453336919452  0.3889818952102452
  0.6861029084952555  0.2976854012748555  0.8757491328431923
  0.5555654653669154  0.8650828987233954  0.1667272087915521
  0.4354401053361437  0.4579754951986442  0.6995508360416991
  0.9342599671326702  0.9523323546570338  0.3450064055007370
  0.6864918710712481  0.6212242193185623  0.5213005578730789
  0.0664850816817573  0.8748566914714335  0.6548925192323404
  0.0600404912814296  0.8731019440281272  0.7882108889216931
  0.0663717253081582  0.3748186766004726  0.6549173348263045
  0.6870581482985156  0.4556017750995929  0.4786365091238564
  0.1844542104312027  0.7891623014464105  0.2559509715955839
  0.4372234490441231  0.1206544947893898  0.4344472608129430
  0.8131020245813966  0.0319293508710719  0.1243687741571565
  0.9364247803582252  0.6215399339520717  0.5214228456822904
  0.4415653255096502  0.1247983075754854  0.6548145739154407
  0.8125847153506327  0.5309435133339591  0.1244475675819906
  0.4337311107543338  0.4528757917119530  0.3450837751823625
  0.8092670079248850  0.2025774179386522  0.3450671940267181
  0.3152227035438829  0.7049307035989276  0.2117173746546238
  0.6913536301397136  0.1249757349674744  0.6549352720160351
  0.5688234629266242  0.8741246520465786  0.3004062461083565
  0.0654906685178421  0.5399312422902970  0.7439983885784285
  0.9405745965403877  0.9555076923932068  0.2116165670099849
  0.8166882137541875  0.7055315751079473  0.2117990494170784
  0.0696375932719606  0.8739444672796762  0.3003992071015660
  0.1945219684753892  0.1245589483990071  0.3002918499883841
  0.0585707118879705  0.7021049161084526  0.3449696085433694
  0.8088215212997283  0.0378396694041101  0.6108859888193301
  0.0627161855349450  0.3705230234353860  0.4344268359113442
  0.5589284151256351  0.2026340126215313  0.3449382094097142
  0.8191611321891845  0.3747144442943817  0.3004243074800002
  0.5592854972266470  0.0386654522679326  0.2558930944744541
  0.5662148462659972  0.5377985559481813  0.3891090732050425
  0.0624697270422752  0.2058968256159868  0.4786759553426899
  0.3112522713997177  0.8714438205537081  0.7880728227617322
  0.9350850585740821  0.9582285673861447  0.6995718422927339
  0.0689647393409163  0.3747790348915993  0.3004065656166253
  0.6913761127911411  0.6249190280555813  0.6549425552644875
  0.6868130918973997  0.4569867537636200  0.5653993702992204
  0.4407745435152817  0.9562101524500146  0.2121722292774521
  0.3123177184410973  0.2055830026581103  0.4786608833626882
  0.8133227710016762  0.5386242898790411  0.8756082340153508
  0.6875240595602399  0.6202149643512944  0.4344560135690791
  0.8105595997735753  0.2076907156234964  0.6996579111737039
  0.8123156819457525  0.7057478546316901  0.4786424651066292
  0.8116099390549494  0.8708872645135723  0.4342787132285025
  0.9371288827231877  0.9552068947431787  0.4787233516668762
  0.5623187250775787  0.2056390530566546  0.4786538594813621
  0.1869138362368611  0.6202075573488790  0.4344698598622446
  0.3153197246429545  0.0407625257680223  0.7439144633776966
  0.9414899327842526  0.6251853669601433  0.6548778852520853
  0.5663947192617448  0.7127128651838364  0.8330842958357537
  0.3197762409756352  0.3739674639696850  0.3002314962883735
  0.5655179995869720  0.7050398019601348  0.2116494734355980
  0.1873506700265380  0.4556217341226494  0.4786900917693921
  0.3144982343172564  0.0402891273372869  0.8755816222202144
  0.1849386894407070  0.4580567135855040  0.6995653981073382
  0.5617171718352677  0.3716093551829699  0.5213908329776393
  0.1912384183562836  0.2875670288394254  0.3890661083816805
  0.3159358406999517  0.2053156935527109  0.2116370446957995
  0.0668200112612966  0.7054176535197952  0.2116082088465685
  0.5619789926423899  0.3703604632662699  0.4344448490204471
  0.4365072743679128  0.6218300809784029  0.5213036884347686
  0.8168817600706386  0.7142656171407736  0.8330460506504489
  0.0607661273485827  0.3731204362748728  0.7881265271059230
  0.4366173282602118  0.2963150986480289  0.8760396154310883
  0.3113320098199204  0.0315667900136935  0.1243784017304433
  0.6874314213469197  0.1200699301375669  0.4344162904240740
  0.1840807233880428  0.9524489659609600  0.3451312804974143
  0.0664891346658575  0.2136418008678954  0.8336458893413294
  0.5589125934520822  0.0382301180380875  0.6109678676983004
  0.6897554854702215  0.4559943062350567  0.2121390993075961
  0.1904303675910233  0.7903262057593561  0.7439908176171578
  0.1939605573335183  0.6249287116295682  0.3004221722575789
  0.4413491623470259  0.7877638333699991  0.3891060335112746
  0.4341168257457847  0.2895386438285157  0.2559649092258059
  0.0645660718489349  0.5386650744319325  0.8755565125814834
  0.5658828842265585  0.0404145472082186  0.7439216823895498
  0.1876258933402795  0.7952999274992987  0.8757038017933897
  0.9373290480447329  0.4556190340528342  0.4786528757431377
  0.5656550867167855  0.5406082703530675  0.7438632150246944
  0.8112415846350987  0.2068407417357210  0.5654572455831480
  0.1854176390560084  0.6208073944477577  0.7880963179892637
  0.0670459067676064  0.5386177355819841  0.3891815327777824
  0.0604549905749665  0.7078858864852964  0.6995698374315087
  0.3080909634443094  0.5379380805091868  0.2560474213409889
  0.3090115928996761  0.7018006501905791  0.3448692267526589
  0.3052276863564952  0.8652518767437445  0.1662695335889326
  0.4368574477561568  0.6211095304593418  0.4344422216170515
  0.8175290273978446  0.0389017750059272  0.3891557707633619
  0.9352176578833462  0.2961115036882124  0.8752923184565804
  0.9376479085371395  0.7936173390386709  0.8751973278531479
  0.0655644444356384  0.0375843239283912  0.8753509466589504
  0.5624566366608884  0.5305085151102944  0.1248617416003382
  0.8049008003526971  0.3664307980223946  0.1663702286084468
  0.0622876477757382  0.8708289058007244  0.4343751251991721
  0.9364007737356757  0.1215296549267906  0.5214568230376887
  0.1927565481160792  0.7872897844664338  0.3892192156736397
  0.3155040713679346  0.5402285528892857  0.7441570853922777
 
  0.00000000E+00  0.00000000E+00  0.00000000E+00
  0.00000000E+00  0.00000000E+00  0.00000000E+00
  0.00000000E+00  0.00000000E+00  0.00000000E+00
  0.00000000E+00  0.00000000E+00  0.00000000E+00
  0.00000000E+00  0.00000000E+00  0.00000000E+00
  0.00000000E+00  0.00000000E+00  0.00000000E+00
  0.00000000E+00  0.00000000E+00  0.00000000E+00
  0.00000000E+00  0.00000000E+00  0.00000000E+00
  0.00000000E+00  0.00000000E+00  0.00000000E+00
  0.00000000E+00  0.00000000E+00  0.00000000E+00
  0.00000000E+00  0.00000000E+00  0.00000000E+00
  0.00000000E+00  0.00000000E+00  0.00000000E+00
  0.00000000E+00  0.00000000E+00  0.00000000E+00
  0.00000000E+00  0.00000000E+00  0.00000000E+00
  0.00000000E+00  0.00000000E+00  0.00000000E+00
  0.00000000E+00  0.00000000E+00  0.00000000E+00
  0.00000000E+00  0.00000000E+00  0.00000000E+00
  0.00000000E+00  0.00000000E+00  0.00000000E+00
  0.00000000E+00  0.00000000E+00  0.00000000E+00
  0.00000000E+00  0.00000000E+00  0.00000000E+00
  0.00000000E+00  0.00000000E+00  0.00000000E+00
  0.00000000E+00  0.00000000E+00  0.00000000E+00
  0.00000000E+00  0.00000000E+00  0.00000000E+00
  0.00000000E+00  0.00000000E+00  0.00000000E+00
  0.00000000E+00  0.00000000E+00  0.00000000E+00
  0.00000000E+00  0.00000000E+00  0.00000000E+00
  0.00000000E+00  0.00000000E+00  0.00000000E+00
  0.00000000E+00  0.00000000E+00  0.00000000E+00
  0.00000000E+00  0.00000000E+00  0.00000000E+00
  0.00000000E+00  0.00000000E+00  0.00000000E+00
  0.00000000E+00  0.00000000E+00  0.00000000E+00
  0.00000000E+00  0.00000000E+00  0.00000000E+00
  0.00000000E+00  0.00000000E+00  0.00000000E+00
  0.00000000E+00  0.00000000E+00  0.00000000E+00
  0.00000000E+00  0.00000000E+00  0.00000000E+00
  0.00000000E+00  0.00000000E+00  0.00000000E+00
  0.00000000E+00  0.00000000E+00  0.00000000E+00
  0.00000000E+00  0.00000000E+00  0.00000000E+00
  0.00000000E+00  0.00000000E+00  0.00000000E+00
  0.00000000E+00  0.00000000E+00  0.00000000E+00
  0.00000000E+00  0.00000000E+00  0.00000000E+00
  0.00000000E+00  0.00000000E+00  0.00000000E+00
  0.00000000E+00  0.00000000E+00  0.00000000E+00
  0.00000000E+00  0.00000000E+00  0.00000000E+00
  0.00000000E+00  0.00000000E+00  0.00000000E+00
  0.00000000E+00  0.00000000E+00  0.00000000E+00
  0.00000000E+00  0.00000000E+00  0.00000000E+00
  0.00000000E+00  0.00000000E+00  0.00000000E+00
  0.00000000E+00  0.00000000E+00  0.00000000E+00
  0.00000000E+00  0.00000000E+00  0.00000000E+00
  0.00000000E+00  0.00000000E+00  0.00000000E+00
  0.00000000E+00  0.00000000E+00  0.00000000E+00
  0.00000000E+00  0.00000000E+00  0.00000000E+00
  0.00000000E+00  0.00000000E+00  0.00000000E+00
  0.00000000E+00  0.00000000E+00  0.00000000E+00
  0.00000000E+00  0.00000000E+00  0.00000000E+00
  0.00000000E+00  0.00000000E+00  0.00000000E+00
  0.00000000E+00  0.00000000E+00  0.00000000E+00
  0.00000000E+00  0.00000000E+00  0.00000000E+00
  0.00000000E+00  0.00000000E+00  0.00000000E+00
  0.00000000E+00  0.00000000E+00  0.00000000E+00
  0.00000000E+00  0.00000000E+00  0.00000000E+00
  0.00000000E+00  0.00000000E+00  0.00000000E+00
  0.00000000E+00  0.00000000E+00  0.00000000E+00
  0.00000000E+00  0.00000000E+00  0.00000000E+00
  0.00000000E+00  0.00000000E+00  0.00000000E+00
  0.00000000E+00  0.00000000E+00  0.00000000E+00
  0.00000000E+00  0.00000000E+00  0.00000000E+00
  0.00000000E+00  0.00000000E+00  0.00000000E+00
  0.00000000E+00  0.00000000E+00  0.00000000E+00
  0.00000000E+00  0.00000000E+00  0.00000000E+00
  0.00000000E+00  0.00000000E+00  0.00000000E+00
  0.00000000E+00  0.00000000E+00  0.00000000E+00
  0.00000000E+00  0.00000000E+00  0.00000000E+00
  0.00000000E+00  0.00000000E+00  0.00000000E+00
  0.00000000E+00  0.00000000E+00  0.00000000E+00
  0.00000000E+00  0.00000000E+00  0.00000000E+00
  0.00000000E+00  0.00000000E+00  0.00000000E+00
  0.00000000E+00  0.00000000E+00  0.00000000E+00
  0.00000000E+00  0.00000000E+00  0.00000000E+00
  0.00000000E+00  0.00000000E+00  0.00000000E+00
  0.00000000E+00  0.00000000E+00  0.00000000E+00
  0.00000000E+00  0.00000000E+00  0.00000000E+00
  0.00000000E+00  0.00000000E+00  0.00000000E+00
  0.00000000E+00  0.00000000E+00  0.00000000E+00
  0.00000000E+00  0.00000000E+00  0.00000000E+00
  0.00000000E+00  0.00000000E+00  0.00000000E+00
  0.00000000E+00  0.00000000E+00  0.00000000E+00
  0.00000000E+00  0.00000000E+00  0.00000000E+00
  0.00000000E+00  0.00000000E+00  0.00000000E+00
  0.00000000E+00  0.00000000E+00  0.00000000E+00
  0.00000000E+00  0.00000000E+00  0.00000000E+00
  0.00000000E+00  0.00000000E+00  0.00000000E+00
  0.00000000E+00  0.00000000E+00  0.00000000E+00
  0.00000000E+00  0.00000000E+00  0.00000000E+00
  0.00000000E+00  0.00000000E+00  0.00000000E+00
  0.00000000E+00  0.00000000E+00  0.00000000E+00
  0.00000000E+00  0.00000000E+00  0.00000000E+00
  0.00000000E+00  0.00000000E+00  0.00000000E+00
  0.00000000E+00  0.00000000E+00  0.00000000E+00
  0.00000000E+00  0.00000000E+00  0.00000000E+00
  0.00000000E+00  0.00000000E+00  0.00000000E+00
  0.00000000E+00  0.00000000E+00  0.00000000E+00
  0.00000000E+00  0.00000000E+00  0.00000000E+00
  0.00000000E+00  0.00000000E+00  0.00000000E+00
  0.00000000E+00  0.00000000E+00  0.00000000E+00
  0.00000000E+00  0.00000000E+00  0.00000000E+00
  0.00000000E+00  0.00000000E+00  0.00000000E+00
  0.00000000E+00  0.00000000E+00  0.00000000E+00
  0.00000000E+00  0.00000000E+00  0.00000000E+00
  0.00000000E+00  0.00000000E+00  0.00000000E+00
  0.00000000E+00  0.00000000E+00  0.00000000E+00
  0.00000000E+00  0.00000000E+00  0.00000000E+00
  0.00000000E+00  0.00000000E+00  0.00000000E+00
  0.00000000E+00  0.00000000E+00  0.00000000E+00
  0.00000000E+00  0.00000000E+00  0.00000000E+00
  0.00000000E+00  0.00000000E+00  0.00000000E+00
  0.00000000E+00  0.00000000E+00  0.00000000E+00
  0.00000000E+00  0.00000000E+00  0.00000000E+00
  0.00000000E+00  0.00000000E+00  0.00000000E+00
  0.00000000E+00  0.00000000E+00  0.00000000E+00
  0.00000000E+00  0.00000000E+00  0.00000000E+00
  0.00000000E+00  0.00000000E+00  0.00000000E+00
  0.00000000E+00  0.00000000E+00  0.00000000E+00
  0.00000000E+00  0.00000000E+00  0.00000000E+00
  0.00000000E+00  0.00000000E+00  0.00000000E+00
  0.00000000E+00  0.00000000E+00  0.00000000E+00
  0.00000000E+00  0.00000000E+00  0.00000000E+00
  0.00000000E+00  0.00000000E+00  0.00000000E+00
  0.00000000E+00  0.00000000E+00  0.00000000E+00
  0.00000000E+00  0.00000000E+00  0.00000000E+00
  0.00000000E+00  0.00000000E+00  0.00000000E+00
  0.00000000E+00  0.00000000E+00  0.00000000E+00
  0.00000000E+00  0.00000000E+00  0.00000000E+00
  0.00000000E+00  0.00000000E+00  0.00000000E+00
  0.00000000E+00  0.00000000E+00  0.00000000E+00
  0.00000000E+00  0.00000000E+00  0.00000000E+00
  0.00000000E+00  0.00000000E+00  0.00000000E+00
  0.00000000E+00  0.00000000E+00  0.00000000E+00
  0.00000000E+00  0.00000000E+00  0.00000000E+00
  0.00000000E+00  0.00000000E+00  0.00000000E+00
  0.00000000E+00  0.00000000E+00  0.00000000E+00
  0.00000000E+00  0.00000000E+00  0.00000000E+00
  0.00000000E+00  0.00000000E+00  0.00000000E+00
  0.00000000E+00  0.00000000E+00  0.00000000E+00
  0.00000000E+00  0.00000000E+00  0.00000000E+00
  0.00000000E+00  0.00000000E+00  0.00000000E+00
  0.00000000E+00  0.00000000E+00  0.00000000E+00
  0.00000000E+00  0.00000000E+00  0.00000000E+00
  0.00000000E+00  0.00000000E+00  0.00000000E+00
  0.00000000E+00  0.00000000E+00  0.00000000E+00
  0.00000000E+00  0.00000000E+00  0.00000000E+00
  0.00000000E+00  0.00000000E+00  0.00000000E+00
  0.00000000E+00  0.00000000E+00  0.00000000E+00
  0.00000000E+00  0.00000000E+00  0.00000000E+00
  0.00000000E+00  0.00000000E+00  0.00000000E+00
  0.00000000E+00  0.00000000E+00  0.00000000E+00
  0.00000000E+00  0.00000000E+00  0.00000000E+00
  0.00000000E+00  0.00000000E+00  0.00000000E+00
  0.00000000E+00  0.00000000E+00  0.00000000E+00
  0.00000000E+00  0.00000000E+00  0.00000000E+00
  0.00000000E+00  0.00000000E+00  0.00000000E+00
  0.00000000E+00  0.00000000E+00  0.00000000E+00
  0.00000000E+00  0.00000000E+00  0.00000000E+00
  0.00000000E+00  0.00000000E+00  0.00000000E+00
  0.00000000E+00  0.00000000E+00  0.00000000E+00
  0.00000000E+00  0.00000000E+00  0.00000000E+00
  0.00000000E+00  0.00000000E+00  0.00000000E+00
  0.00000000E+00  0.00000000E+00  0.00000000E+00
  0.00000000E+00  0.00000000E+00  0.00000000E+00
  0.00000000E+00  0.00000000E+00  0.00000000E+00
  0.00000000E+00  0.00000000E+00  0.00000000E+00
  0.00000000E+00  0.00000000E+00  0.00000000E+00
  0.00000000E+00  0.00000000E+00  0.00000000E+00
  0.00000000E+00  0.00000000E+00  0.00000000E+00
  0.00000000E+00  0.00000000E+00  0.00000000E+00
  0.00000000E+00  0.00000000E+00  0.00000000E+00
  0.00000000E+00  0.00000000E+00  0.00000000E+00
  0.00000000E+00  0.00000000E+00  0.00000000E+00
  0.00000000E+00  0.00000000E+00  0.00000000E+00
  0.00000000E+00  0.00000000E+00  0.00000000E+00
  0.00000000E+00  0.00000000E+00  0.00000000E+00
  0.00000000E+00  0.00000000E+00  0.00000000E+00
  0.00000000E+00  0.00000000E+00  0.00000000E+00
  0.00000000E+00  0.00000000E+00  0.00000000E+00
  0.00000000E+00  0.00000000E+00  0.00000000E+00
  0.00000000E+00  0.00000000E+00  0.00000000E+00
  0.00000000E+00  0.00000000E+00  0.00000000E+00
  0.00000000E+00  0.00000000E+00  0.00000000E+00
  0.00000000E+00  0.00000000E+00  0.00000000E+00
  0.00000000E+00  0.00000000E+00  0.00000000E+00
  0.00000000E+00  0.00000000E+00  0.00000000E+00
  0.00000000E+00  0.00000000E+00  0.00000000E+00
  0.00000000E+00  0.00000000E+00  0.00000000E+00
  0.00000000E+00  0.00000000E+00  0.00000000E+00
  0.00000000E+00  0.00000000E+00  0.00000000E+00
  0.00000000E+00  0.00000000E+00  0.00000000E+00
  0.00000000E+00  0.00000000E+00  0.00000000E+00
  0.00000000E+00  0.00000000E+00  0.00000000E+00
  0.00000000E+00  0.00000000E+00  0.00000000E+00
  0.00000000E+00  0.00000000E+00  0.00000000E+00
  0.00000000E+00  0.00000000E+00  0.00000000E+00
  0.00000000E+00  0.00000000E+00  0.00000000E+00
  0.00000000E+00  0.00000000E+00  0.00000000E+00
  0.00000000E+00  0.00000000E+00  0.00000000E+00
  0.00000000E+00  0.00000000E+00  0.00000000E+00
  0.00000000E+00  0.00000000E+00  0.00000000E+00
  0.00000000E+00  0.00000000E+00  0.00000000E+00
  0.00000000E+00  0.00000000E+00  0.00000000E+00
  0.00000000E+00  0.00000000E+00  0.00000000E+00
  0.00000000E+00  0.00000000E+00  0.00000000E+00
  0.00000000E+00  0.00000000E+00  0.00000000E+00
  0.00000000E+00  0.00000000E+00  0.00000000E+00
  0.00000000E+00  0.00000000E+00  0.00000000E+00
  0.00000000E+00  0.00000000E+00  0.00000000E+00
  0.00000000E+00  0.00000000E+00  0.00000000E+00
  0.00000000E+00  0.00000000E+00  0.00000000E+00
  0.00000000E+00  0.00000000E+00  0.00000000E+00
  0.00000000E+00  0.00000000E+00  0.00000000E+00
  0.00000000E+00  0.00000000E+00  0.00000000E+00
  0.00000000E+00  0.00000000E+00  0.00000000E+00
  0.00000000E+00  0.00000000E+00  0.00000000E+00
  0.00000000E+00  0.00000000E+00  0.00000000E+00
  0.00000000E+00  0.00000000E+00  0.00000000E+00
  0.00000000E+00  0.00000000E+00  0.00000000E+00
  0.00000000E+00  0.00000000E+00  0.00000000E+00
  0.00000000E+00  0.00000000E+00  0.00000000E+00
  0.00000000E+00  0.00000000E+00  0.00000000E+00
  0.00000000E+00  0.00000000E+00  0.00000000E+00
  0.00000000E+00  0.00000000E+00  0.00000000E+00
  0.00000000E+00  0.00000000E+00  0.00000000E+00
  0.00000000E+00  0.00000000E+00  0.00000000E+00
  0.00000000E+00  0.00000000E+00  0.00000000E+00
  0.00000000E+00  0.00000000E+00  0.00000000E+00
  0.00000000E+00  0.00000000E+00  0.00000000E+00
  0.00000000E+00  0.00000000E+00  0.00000000E+00
  0.00000000E+00  0.00000000E+00  0.00000000E+00
  0.00000000E+00  0.00000000E+00  0.00000000E+00
  0.00000000E+00  0.00000000E+00  0.00000000E+00
  0.00000000E+00  0.00000000E+00  0.00000000E+00
  0.00000000E+00  0.00000000E+00  0.00000000E+00
  0.00000000E+00  0.00000000E+00  0.00000000E+00
  0.00000000E+00  0.00000000E+00  0.00000000E+00
  0.00000000E+00  0.00000000E+00  0.00000000E+00
  0.00000000E+00  0.00000000E+00  0.00000000E+00
  0.00000000E+00  0.00000000E+00  0.00000000E+00
  0.00000000E+00  0.00000000E+00  0.00000000E+00