FeMn_288_15                             
    1.000000000000000     
     9.7266779999999997    0.0000000000000000    0.0000000000000000
     0.0000000000000000    8.4235500000000005    0.0000000000000000
     0.0000000000000000    0.0000000000000000   45.0000000000000000
   Fe   Mn
   273    15
Direct
  0.3119785640381605  0.8693771815706448  0.1676316325553704
  0.6878821771211535  0.1235113100942843  0.6545783393723126
  0.0626152376141990  0.7045755716246336  0.3454482701088727
  0.8128389938052715  0.0390885250501216  0.6103990138306479
  0.0628717847143108  0.8697052852726588  0.1675534067383928
  0.8124040824801873  0.5362543363882486  0.2567320773999354
  0.0625736309509674  0.5363427185303404  0.2567284590744748
  0.8118518952178335  0.0367471680355469  0.1253815121479852
  0.4375847321752121  0.6233458767838371  0.6544893845503920
  0.5625011940644954  0.2043440094394406  0.3454790289987825
  0.4375584851042409  0.4544480698288055  0.3453666043707816
  0.4378150483486740  0.4551810661985393  0.4785891735733163
  0.1878155431553124  0.7853355179790975  0.1253737756610590
  0.3126489578120455  0.2027810845828660  0.2124952488186013
  0.8124277423017338  0.5414136990350196  0.7432952934716143
  0.1877115532207722  0.1251216521144685  0.7875736952558566
  0.4375283522261061  0.1193703264674653  0.1676206590060816
  0.4380605772159425  0.7881361186522062  0.3894669054536393
  0.0624291758185104  0.0365360408861516  0.2567157053670164
  0.5622170337040036  0.7020982541398084  0.2124287820723176
  0.0626733704159600  0.7026660806494214  0.2124357153521019
  0.0619868296381985  0.5367688803963945  0.1255157617145778
  0.0622880996656816  0.2057032190524229  0.4784888276834466
  0.8116799457922709  0.5407100461451467  0.8745402935826977
  0.8120424031949293  0.3722703201343315  0.5215681984765135
  0.1871881799798215  0.4580032702333237  0.8324620272426171
  0.3125551401186535  0.0364029860826207  0.2566958455200279
  0.1872969520154125  0.7862144589394185  0.2566365959805846
  0.0626008578141173  0.5417946458942762  0.7434625356941748
  0.5624274002839516  0.2061599954591828  0.5655231660230784
  0.0630123328212757  0.0363311923482529  0.1252141390847608
  0.1878078474956934  0.7894867761526974  0.6103741808381212
  0.6872087497707657  0.7852000125471176  0.1253314130599712
  0.3131089272849525  0.8712347095921047  0.4344103676702128
  0.9374785492046779  0.6195412526585234  0.3010459357337344
  0.3128543179300555  0.2060252196691356  0.4785610237429446
  0.0621929192453112  0.5403160337865224  0.8745779981640431
  0.9371986326120073  0.4556703936402057  0.4786644955578408
  0.3125014052759679  0.3732213142719907  0.6545899850208069
  0.8125817164831367  0.5378814241177442  0.3895041451535073
  0.1879213864297768  0.1206287405963921  0.3010223015058665
  0.6873713152496304  0.2854195048246743  0.1253552393671296
  0.8124615347566204  0.3729196948534472  0.6545673681350944
  0.8124116285791970  0.2047748247291920  0.3454735639293148
  0.9373524335791419  0.4546402000108471  0.3455136525573324
  0.8123872481914085  0.8728054918418336  0.5214850786836525
  0.4378949750583256  0.6193228758862944  0.1676239461724635
  0.0624430309235735  0.0406649315754016  0.8746645768202541
  0.9372997990748319  0.2858337823117064  0.1253385387712967
  0.5626144300536762  0.3728875521815954  0.6544753258458648
  0.3126955018322831  0.3686437287253057  0.1677536733941538
  0.3130396505681740  0.8755911544647348  0.7875233327431098
  0.3125287594858611  0.7046811817087134  0.3453619504458994
  0.6876367226468408  0.1223856096868313  0.5214707201227450
  0.5625010853585114  0.5412476070770693  0.7432346320524023
  0.6874319565745419  0.4518949380550588  0.2124840876252130
  0.9373491026063591  0.7919763077612308  0.7432380874327094
  0.6881517670985716  0.9557813908215513  0.4784998211799315
  0.5625764077331383  0.8723273341501031  0.5213974675772051
  0.3122518781093129  0.7061553592222320  0.5657364595678817
  0.5624066149641177  0.8689373953222249  0.1676209322314701
  0.9373941553303863  0.4523179130130729  0.2125152899962056
  0.8120889406092199  0.2090268505369799  0.8323920842034583
  0.5622491028405259  0.7045718893519334  0.3455275203142623
  0.5625788548731905  0.5366503737719533  0.2567264533225164
  0.3126910974417890  0.3706624656125410  0.3009104127972226
  0.9376020356126589  0.6232976038775645  0.6544661370228401
  0.3124409315774809  0.8732611357169187  0.6544343931531420
  0.5623995564339000  0.3720093354597312  0.4345107156285503
  0.6874310774047169  0.6194128666224935  0.1676777252138169
  0.9374464441718207  0.4578217762825815  0.6990233773776114
  0.3123798513153265  0.2073639699418283  0.6990794529665157
  0.4378877951160328  0.9586217337654236  0.8324884670807596
  0.4374894341823135  0.7864244770815061  0.2566620774687240
  0.9373942404728511  0.7862532984581634  0.2566725967997544
  0.1878658775796010  0.9515386444926029  0.2125414665902098
  0.4377048438359540  0.7914488173207960  0.7433738919201321
  0.8122795004435014  0.0363460200077030  0.2566494464365885
  0.1877602234783179  0.6225474033776167  0.5215374730938207
  0.8125860426766049  0.2074189346973818  0.6990889355611941
  0.1877628975897129  0.7883018439146019  0.3895985698161362
  0.9374475123061140  0.2860322925553810  0.2566678162579357
  0.1875154159082661  0.1226412056376734  0.5213919635310004
  0.0625655305143751  0.7088380650440154  0.8322737138101884
  0.8126842105145838  0.7057514164120806  0.4785264627761772
  0.5625116110511250  0.7060796596292673  0.5653823350598040
  0.9374186580574384  0.1202573237426423  0.3009745584555860
  0.1874735015244282  0.2916912378404092  0.7432421554700246
  0.5625245600787013  0.3697300767139829  0.1677210270920429
  0.0625761802958483  0.3701968381297917  0.3009030966842527
  0.0627682340031786  0.0393636149408624  0.6104455975025607
  0.1874488344869817  0.6233453013179312  0.6544509271810578
  0.5621555450756262  0.3757431688320084  0.7875617231104063
  0.5627722312260889  0.8754389896916713  0.7876977213146302
  0.0623014931915060  0.0416703676428046  0.7434136323202561
  0.5626934301088757  0.3722183803756686  0.5214636844891334
  0.9375718352634574  0.2916867718278357  0.7433182620226687
  0.0621173438171625  0.0379263459682929  0.3895437782459265
  0.1877265743413752  0.9560574339847906  0.5653188355871582
  0.9371282464123945  0.1193009970607971  0.1674523654690110
  0.6871685797567674  0.7884273494384625  0.3896025937256173
  0.8120649008550839  0.7023746963300553  0.2125596173762481
  0.1873923182740885  0.6204138989307029  0.3008927186681573
  0.8125141268131224  0.8691734899175793  0.1676506007729259
  0.0621548245451075  0.5394876907549060  0.6103482409128043
  0.6874909592219706  0.6220964912205331  0.5215215276283651
  0.4376640311618674  0.2897984292381989  0.6103301017519245
  0.0627465228985855  0.7051958031285123  0.4785837129370086
  0.9376320853015085  0.2893445692145900  0.6104608676239274
  0.6875390259985544  0.4573069379864805  0.6990144024810110
  0.5625551915334449  0.0363681461032163  0.2566401654197124
  0.8118640019340372  0.8758338781381305  0.7875384209825232
  0.5625952623511867  0.0384102322339136  0.3894809453633662
  0.8127555094039075  0.0416503234722087  0.8745772457273100
  0.9368810502945920  0.6191889717375206  0.1676126320076840
  0.3131425708024138  0.0416647005369310  0.8746593360569941
  0.4375901137863448  0.4522929586512300  0.2125275403841284
  0.5626043387164237  0.0365298275461133  0.1254225186914753
  0.1875617351351628  0.6189289451422536  0.1676859677914103
  0.0622192385275461  0.7077670724016702  0.6990312975522472
  0.3123676725902018  0.5398173940913931  0.6104483562261834
  0.4373018508868171  0.6225883728136539  0.5214777621915766
  0.0625304122387465  0.2088498700496325  0.8322717342858664
  0.9374656106192503  0.9578847229331244  0.8325044066972282
  0.5626742324160487  0.2090475800976683  0.8322606653110054
  0.6878224452405717  0.1219723976648139  0.4345132356762342
  0.4376344406240815  0.9518526408380067  0.2124654911299942
  0.0623840604227213  0.2046678504651808  0.3454545450951502
  0.6872753128896543  0.2862334371869121  0.2567729470871047
  0.3123611926301026  0.8706699560928489  0.3007686437439639
  0.5626065038438263  0.5360088219361709  0.1253905604405395
  0.8125528999314083  0.2058762129568968  0.5654751284151782
  0.4374411691925593  0.4575225718143008  0.6990927119059105
  0.4372959691023256  0.1224915005639293  0.5214739506650630
  0.4375460611940452  0.2866201857245165  0.2566052816673351
  0.4370463646423814  0.1235270115101264  0.6545244677631235
  0.6877010708257021  0.9564171831581261  0.5656473199892950
  0.5629742577920145  0.7091823032586878  0.8323763940485354
  0.6877074272033373  0.6257138149192263  0.7875364567690050
  0.6877355680004211  0.7859770723491580  0.2566257535523983
  0.4374230589386019  0.2912467632043764  0.7434435828991918
  0.4373095018606126  0.4587702020954415  0.8323072038565561
  0.4374577953457888  0.7897965344573916  0.6104216307562902
  0.6874290663056781  0.2922459902879911  0.8746774519892840
  0.0622780090785762  0.2079261029203482  0.6990177621212007
  0.5625889134060466  0.7069492188985520  0.6991701651437522
  0.1871263709435772  0.2930564392123938  0.8746627004612336
  0.8122750746481125  0.3699941465534279  0.3009711262802239
  0.6871833702415162  0.1203527287330005  0.3010461968319545
  0.8129031598876675  0.5394409869788606  0.6104210562750695
  0.6876166439321603  0.2881031025545746  0.3896070292780250
  0.0622959394880543  0.2062941298475582  0.5657152780279676
  0.1871861789681682  0.4548905153035344  0.3453768038902061
  0.3125066130929300  0.3723858071537438  0.5215721719408578
  0.6875937635745523  0.1263426994125580  0.7874431875402185
  0.1876627983545998  0.2861898202644415  0.2567012930392608
  0.9375612375195573  0.9576131308675676  0.6990466483157657
  0.9375967332320103  0.6251327547570920  0.7873195022982452
  0.8121908237997871  0.3762218450359865  0.7875157348122350
  0.9376027080089627  0.4560957220414111  0.5656099407225428
  0.9376529339298542  0.1218550571724634  0.5215610681458516
  0.6875025419604021  0.6232229721511177  0.6545770517994355
  0.9372651189190606  0.7883090417672260  0.3894763149625273
  0.9370759051227712  0.1258053296198097  0.7874200190911023
  0.0628900993377187  0.7060886050478383  0.5657126439202150
  0.3121467240531339  0.0396189792624127  0.6103002275417300
  0.3124969886070397  0.5366368450111674  0.2567008318213218
  0.3130235106203393  0.5364618023041656  0.1254565826196164
  0.9380440835623244  0.4579827682472632  0.8322743508234122
  0.4377874756739819  0.6212801656858863  0.4345106293371511
  0.4374881418250578  0.9559804501717906  0.4784178319754866
  0.3124656622615961  0.7083696073785448  0.8323356759984319
  0.6874825533789313  0.7913171636794969  0.7433644438149529
  0.8121939258192360  0.5368469534735577  0.1253410418039141
  0.3124884105515010  0.7019181851298703  0.2123851230656799
  0.8125316724312944  0.7073019853830209  0.6990191069558025
  0.6877590276715304  0.4563436668203307  0.5657642322171830
  0.4374479808633412  0.1256411441629023  0.7875443431823110
  0.9371286926953983  0.6218526714003604  0.4346908913342009
  0.8125326719129861  0.0381514436061891  0.3895302849444804
  0.4376534471066906  0.4560591981864131  0.5656350776794106
  0.8118509201390075  0.7090543411501682  0.8324659897204223
  0.3129651364248708  0.3752770286386370  0.7876658936334260
  0.5627340427156223  0.5382284449452720  0.3895972836992841
  0.4367534847904055  0.6251304021740383  0.7874395279298447
  0.5620993613808709  0.2022423242108267  0.2124886657953697
  0.6874512746291790  0.6201265791766992  0.3009000605000211
  0.4376497173622386  0.1205569016025404  0.3009310919774370
  0.1873249153863525  0.9546752665481348  0.3454802787845319
  0.5624689704668181  0.8717807002150441  0.4345190136218300
  0.9375480478977076  0.7890255992018034  0.6103666905298472
  0.1873949165519283  0.2885474766066336  0.3895810811011411
  0.6874871756568219  0.9581315892854980  0.8324014148418628
  0.3123723858947680  0.5416256106634501  0.7433682908271787
  0.8125669919144833  0.3718689420034913  0.4343493879084581
  0.4373720463057283  0.2924547240434113  0.8746647563756825
  0.5626966132060467  0.5398105834394020  0.6103132441404056
  0.4375673507818235  0.2854052513040980  0.1254094296250350
  0.1871507004055784  0.7926438630489275  0.8747361453018907
  0.3124644492309899  0.2047398109066248  0.3454338939625906
  0.9373182956684831  0.9545894126670276  0.3453920143311837
  0.8125094678401693  0.7066153325952839  0.5656088065403001
  0.6879244564572801  0.4553319477863783  0.4785493841188483
  0.1874827849611471  0.9576414128829622  0.6989959796312107
  0.1875074805362257  0.2897805224399901  0.6103814524355318
  0.5624651410129051  0.8703718312440596  0.3008964357650629
  0.3126701772534567  0.0411274270878446  0.7432631334358433
  0.3122591613558949  0.7055783677506007  0.4785194525299806
  0.6873119985377814  0.7899228885400603  0.6104915068893478
  0.1874297931538213  0.1233078739072112  0.6544403287352973
  0.8125730066038473  0.0413549410254949  0.7433217392246517
  0.0625065947861767  0.3731189213441841  0.6546152279141947
  0.9371072168400520  0.9560181109427217  0.4785128718741649
  0.9375775516201715  0.1216301804008599  0.4344269439753542
  0.6874932719644919  0.9578026890194101  0.6990799458631777
  0.8123032598030676  0.8732273541370236  0.6545031964222313
  0.8128052992022455  0.2053429853822866  0.4785124122242571
  0.8123439700371714  0.8717073856120010  0.4342951400295130
  0.8124725059382681  0.7043999875085248  0.3454648154742479
  0.8125882251399213  0.3694087103613474  0.1676971528727896
  0.4374391128416386  0.1217859950008034  0.4344530259716440
  0.9376223597982606  0.1233082541132960  0.6544031379939834
  0.1875969718410400  0.4578187754001642  0.6989515625074944
  0.5626766173692174  0.5408865505780197  0.8746462878208522
  0.3123522538586364  0.0363643676374896  0.1252658320348343
  0.0622811483949869  0.8715226109884536  0.4343394739750994
  0.1877294553105235  0.6218723863441376  0.4343793000762634
  0.4365518370506422  0.7931667748506205  0.8746102481217772
  0.4371922258426532  0.2883013907633402  0.3894781175216031
  0.1872947218256680  0.4554280272964382  0.4785404654334734
  0.5626212671695870  0.8732486701772220  0.6545195754178380
  0.0624595990963621  0.8724936722145346  0.5215339481292214
  0.3129288890574570  0.2062684749865567  0.5657082928331458
  0.8124631870710595  0.8698631538105875  0.3010406236154726
  0.1876643309826786  0.2850761881282592  0.1253186888039286
  0.3127652094726434  0.0380361938007482  0.3895277488131795
  0.6868939571032397  0.9521280100539610  0.2124931430384572
  0.9371147659555856  0.7851164797850197  0.1253900789315180
  0.6874355375544187  0.2912833868791312  0.7434327461561815
  0.9373533988113900  0.9561776152844762  0.5656364273936600
  0.4375930220625636  0.6206913034578425  0.3009362265709166
  0.0623370565384443  0.2024626900910488  0.2126656523214562
  0.5621423972663180  0.2058582142772482  0.4785034772987494
  0.9379328844633906  0.2927245901140093  0.8746876615661711
  0.4377501648355648  0.7845395505956195  0.1253664956325183
  0.0627181420828578  0.3719840511984522  0.4344092419870957
  0.1874332093672423  0.7917919961968796  0.7433954977702416
  0.0624894409490891  0.8701674062386207  0.3009442948895872
  0.1878385061341104  0.4521103869920470  0.2124896475008353
  0.4374623634049849  0.9576803159813814  0.6991367979425606
  0.5624274964683526  0.3706748818727644  0.3009051273789369
  0.9377805917719649  0.2880173596667156  0.3896096831555199
  0.6878139575670497  0.4545922012780934  0.3455202584429758
  0.6876629129419105  0.6214502849310919  0.4343401117805407
  0.3126141111124959  0.2083795397690163  0.8323282360935521
  0.3128066185176340  0.8717681580850445  0.5214342691082724
  0.6874452130480546  0.4594734546166853  0.8325032116692916
  0.4373856742673747  0.9566063244066680  0.5656387351831360
  0.1878578828018572  0.6255914341572986  0.7874951042781535
  0.6873384084082728  0.2894625617402720  0.6104368625054415
  0.0623557871151636  0.5385836206129511  0.3894468248872897
  0.0626464908518839  0.8729694513181135  0.6545912691800253
  0.3125222866462550  0.3720563409922061  0.4345922426498719
  0.1872088784080366  0.4562457965828440  0.5655581391963439
  0.5624871732289976  0.0412753712072075  0.7433368554275755
  0.6876839269008246  0.1192732548314300  0.1676013762999019
  0.9384235881771115  0.7931891623338968  0.8746384457455703
  0.6875567090708722  0.9544438134890726  0.3454967826849050
  0.3132714277624661  0.5412296976343317  0.8745344128516593
  0.1870287000636753  0.9578558237754449  0.8324443010529391
  0.0622969195361178  0.3686654624847131  0.1676760745347748
  0.5615202367271702  0.0418347646641342  0.8746285805178683
  0.0630300736504828  0.3724070209717542  0.5216213641215709
  0.3125353631561106  0.7072629500875925  0.6989992742739699
  0.6873876339161474  0.7924319537730734  0.8743472142989409
  0.4378086735930912  0.9548158592813200  0.3454147396162239
  0.1875251321750703  0.1189258338541749  0.1670486491709067
  0.0622005049638761  0.3754640968610325  0.7873704672318405
  0.3124649911923291  0.5383096496375983  0.3894182737489569
  0.9374510578803789  0.6222545227473965  0.5214701225424946
  0.8121872177227353  0.2027596013064204  0.2126366208157355
  0.5627053966044351  0.2070738486702471  0.6991281135600078
  0.0625797788598615  0.8758754495243316  0.7873083097948264
  0.9383162112115048  0.9518548108738174  0.2127779758334783
  0.5624395400681917  0.0394902953032528  0.6104708682995339
  0.5624506582085761  0.7058796323034215  0.4786613569136411
  0.1874649508679565  0.1222227061558883  0.4342997964650597
  0.1876439744712131  0.9556633234699107  0.4786861255976518
 
  0.00000000E+00  0.00000000E+00  0.00000000E+00
  0.00000000E+00  0.00000000E+00  0.00000000E+00
  0.00000000E+00  0.00000000E+00  0.00000000E+00
  0.00000000E+00  0.00000000E+00  0.00000000E+00
  0.00000000E+00  0.00000000E+00  0.00000000E+00
  0.00000000E+00  0.00000000E+00  0.00000000E+00
  0.00000000E+00  0.00000000E+00  0.00000000E+00
  0.00000000E+00  0.00000000E+00  0.00000000E+00
  0.00000000E+00  0.00000000E+00  0.00000000E+00
  0.00000000E+00  0.00000000E+00  0.00000000E+00
  0.00000000E+00  0.00000000E+00  0.00000000E+00
  0.00000000E+00  0.00000000E+00  0.00000000E+00
  0.00000000E+00  0.00000000E+00  0.00000000E+00
  0.00000000E+00  0.00000000E+00  0.00000000E+00
  0.00000000E+00  0.00000000E+00  0.00000000E+00
  0.00000000E+00  0.00000000E+00  0.00000000E+00
  0.00000000E+00  0.00000000E+00  0.00000000E+00
  0.00000000E+00  0.00000000E+00  0.00000000E+00
  0.00000000E+00  0.00000000E+00  0.00000000E+00
  0.00000000E+00  0.00000000E+00  0.00000000E+00
  0.00000000E+00  0.00000000E+00  0.00000000E+00
  0.00000000E+00  0.00000000E+00  0.00000000E+00
  0.00000000E+00  0.00000000E+00  0.00000000E+00
  0.00000000E+00  0.00000000E+00  0.00000000E+00
  0.00000000E+00  0.00000000E+00  0.00000000E+00
  0.00000000E+00  0.00000000E+00  0.00000000E+00
  0.00000000E+00  0.00000000E+00  0.00000000E+00
  0.00000000E+00  0.00000000E+00  0.00000000E+00
  0.00000000E+00  0.00000000E+00  0.00000000E+00
  0.00000000E+00  0.00000000E+00  0.00000000E+00
  0.00000000E+00  0.00000000E+00  0.00000000E+00
  0.00000000E+00  0.00000000E+00  0.00000000E+00
  0.00000000E+00  0.00000000E+00  0.00000000E+00
  0.00000000E+00  0.00000000E+00  0.00000000E+00
  0.00000000E+00  0.00000000E+00  0.00000000E+00
  0.00000000E+00  0.00000000E+00  0.00000000E+00
  0.00000000E+00  0.00000000E+00  0.00000000E+00
  0.00000000E+00  0.00000000E+00  0.00000000E+00
  0.00000000E+00  0.00000000E+00  0.00000000E+00
  0.00000000E+00  0.00000000E+00  0.00000000E+00
  0.00000000E+00  0.00000000E+00  0.00000000E+00
  0.00000000E+00  0.00000000E+00  0.00000000E+00
  0.00000000E+00  0.00000000E+00  0.00000000E+00
  0.00000000E+00  0.00000000E+00  0.00000000E+00
  0.00000000E+00  0.00000000E+00  0.00000000E+00
  0.00000000E+00  0.00000000E+00  0.00000000E+00
  0.00000000E+00  0.00000000E+00  0.00000000E+00
  0.00000000E+00  0.00000000E+00  0.00000000E+00
  0.00000000E+00  0.00000000E+00  0.00000000E+00
  0.00000000E+00  0.00000000E+00  0.00000000E+00
  0.00000000E+00  0.00000000E+00  0.00000000E+00
  0.00000000E+00  0.00000000E+00  0.00000000E+00
  0.00000000E+00  0.00000000E+00  0.00000000E+00
  0.00000000E+00  0.00000000E+00  0.00000000E+00
  0.00000000E+00  0.00000000E+00  0.00000000E+00
  0.00000000E+00  0.00000000E+00  0.00000000E+00
  0.00000000E+00  0.00000000E+00  0.00000000E+00
  0.00000000E+00  0.00000000E+00  0.00000000E+00
  0.00000000E+00  0.00000000E+00  0.00000000E+00
  0.00000000E+00  0.00000000E+00  0.00000000E+00
  0.00000000E+00  0.00000000E+00  0.00000000E+00
  0.00000000E+00  0.00000000E+00  0.00000000E+00
  0.00000000E+00  0.00000000E+00  0.00000000E+00
  0.00000000E+00  0.00000000E+00  0.00000000E+00
  0.00000000E+00  0.00000000E+00  0.00000000E+00
  0.00000000E+00  0.00000000E+00  0.00000000E+00
  0.00000000E+00  0.00000000E+00  0.00000000E+00
  0.00000000E+00  0.00000000E+00  0.00000000E+00
  0.00000000E+00  0.00000000E+00  0.00000000E+00
  0.00000000E+00  0.00000000E+00  0.00000000E+00
  0.00000000E+00  0.00000000E+00  0.00000000E+00
  0.00000000E+00  0.00000000E+00  0.00000000E+00
  0.00000000E+00  0.00000000E+00  0.00000000E+00
  0.00000000E+00  0.00000000E+00  0.00000000E+00
  0.00000000E+00  0.00000000E+00  0.00000000E+00
  0.00000000E+00  0.00000000E+00  0.00000000E+00
  0.00000000E+00  0.00000000E+00  0.00000000E+00
  0.00000000E+00  0.00000000E+00  0.00000000E+00
  0.00000000E+00  0.00000000E+00  0.00000000E+00
  0.00000000E+00  0.00000000E+00  0.00000000E+00
  0.00000000E+00  0.00000000E+00  0.00000000E+00
  0.00000000E+00  0.00000000E+00  0.00000000E+00
  0.00000000E+00  0.00000000E+00  0.00000000E+00
  0.00000000E+00  0.00000000E+00  0.00000000E+00
  0.00000000E+00  0.00000000E+00  0.00000000E+00
  0.00000000E+00  0.00000000E+00  0.00000000E+00
  0.00000000E+00  0.00000000E+00  0.00000000E+00
  0.00000000E+00  0.00000000E+00  0.00000000E+00
  0.00000000E+00  0.00000000E+00  0.00000000E+00
  0.00000000E+00  0.00000000E+00  0.00000000E+00
  0.00000000E+00  0.00000000E+00  0.00000000E+00
  0.00000000E+00  0.00000000E+00  0.00000000E+00
  0.00000000E+00  0.00000000E+00  0.00000000E+00
  0.00000000E+00  0.00000000E+00  0.00000000E+00
  0.00000000E+00  0.00000000E+00  0.00000000E+00
  0.00000000E+00  0.00000000E+00  0.00000000E+00
  0.00000000E+00  0.00000000E+00  0.00000000E+00
  0.00000000E+00  0.00000000E+00  0.00000000E+00
  0.00000000E+00  0.00000000E+00  0.00000000E+00
  0.00000000E+00  0.00000000E+00  0.00000000E+00
  0.00000000E+00  0.00000000E+00  0.00000000E+00
  0.00000000E+00  0.00000000E+00  0.00000000E+00
  0.00000000E+00  0.00000000E+00  0.00000000E+00
  0.00000000E+00  0.00000000E+00  0.00000000E+00
  0.00000000E+00  0.00000000E+00  0.00000000E+00
  0.00000000E+00  0.00000000E+00  0.00000000E+00
  0.00000000E+00  0.00000000E+00  0.00000000E+00
  0.00000000E+00  0.00000000E+00  0.00000000E+00
  0.00000000E+00  0.00000000E+00  0.00000000E+00
  0.00000000E+00  0.00000000E+00  0.00000000E+00
  0.00000000E+00  0.00000000E+00  0.00000000E+00
  0.00000000E+00  0.00000000E+00  0.00000000E+00
  0.00000000E+00  0.00000000E+00  0.00000000E+00
  0.00000000E+00  0.00000000E+00  0.00000000E+00
  0.00000000E+00  0.00000000E+00  0.00000000E+00
  0.00000000E+00  0.00000000E+00  0.00000000E+00
  0.00000000E+00  0.00000000E+00  0.00000000E+00
  0.00000000E+00  0.00000000E+00  0.00000000E+00
  0.00000000E+00  0.00000000E+00  0.00000000E+00
  0.00000000E+00  0.00000000E+00  0.00000000E+00
  0.00000000E+00  0.00000000E+00  0.00000000E+00
  0.00000000E+00  0.00000000E+00  0.00000000E+00
  0.00000000E+00  0.00000000E+00  0.00000000E+00
  0.00000000E+00  0.00000000E+00  0.00000000E+00
  0.00000000E+00  0.00000000E+00  0.00000000E+00
  0.00000000E+00  0.00000000E+00  0.00000000E+00
  0.00000000E+00  0.00000000E+00  0.00000000E+00
  0.00000000E+00  0.00000000E+00  0.00000000E+00
  0.00000000E+00  0.00000000E+00  0.00000000E+00
  0.00000000E+00  0.00000000E+00  0.00000000E+00
  0.00000000E+00  0.00000000E+00  0.00000000E+00
  0.00000000E+00  0.00000000E+00  0.00000000E+00
  0.00000000E+00  0.00000000E+00  0.00000000E+00
  0.00000000E+00  0.00000000E+00  0.00000000E+00
  0.00000000E+00  0.00000000E+00  0.00000000E+00
  0.00000000E+00  0.00000000E+00  0.00000000E+00
  0.00000000E+00  0.00000000E+00  0.00000000E+00
  0.00000000E+00  0.00000000E+00  0.00000000E+00
  0.00000000E+00  0.00000000E+00  0.00000000E+00
  0.00000000E+00  0.00000000E+00  0.00000000E+00
  0.00000000E+00  0.00000000E+00  0.00000000E+00
  0.00000000E+00  0.00000000E+00  0.00000000E+00
  0.00000000E+00  0.00000000E+00  0.00000000E+00
  0.00000000E+00  0.00000000E+00  0.00000000E+00
  0.00000000E+00  0.00000000E+00  0.00000000E+00
  0.00000000E+00  0.00000000E+00  0.00000000E+00
  0.00000000E+00  0.00000000E+00  0.00000000E+00
  0.00000000E+00  0.00000000E+00  0.00000000E+00
  0.00000000E+00  0.00000000E+00  0.00000000E+00
  0.00000000E+00  0.00000000E+00  0.00000000E+00
  0.00000000E+00  0.00000000E+00  0.00000000E+00
  0.00000000E+00  0.00000000E+00  0.00000000E+00
  0.00000000E+00  0.00000000E+00  0.00000000E+00
  0.00000000E+00  0.00000000E+00  0.00000000E+00
  0.00000000E+00  0.00000000E+00  0.00000000E+00
  0.00000000E+00  0.00000000E+00  0.00000000E+00
  0.00000000E+00  0.00000000E+00  0.00000000E+00
  0.00000000E+00  0.00000000E+00  0.00000000E+00
  0.00000000E+00  0.00000000E+00  0.00000000E+00
  0.00000000E+00  0.00000000E+00  0.00000000E+00
  0.00000000E+00  0.00000000E+00  0.00000000E+00
  0.00000000E+00  0.00000000E+00  0.00000000E+00
  0.00000000E+00  0.00000000E+00  0.00000000E+00
  0.00000000E+00  0.00000000E+00  0.00000000E+00
  0.00000000E+00  0.00000000E+00  0.00000000E+00
  0.00000000E+00  0.00000000E+00  0.00000000E+00
  0.00000000E+00  0.00000000E+00  0.00000000E+00
  0.00000000E+00  0.00000000E+00  0.00000000E+00
  0.00000000E+00  0.00000000E+00  0.00000000E+00
  0.00000000E+00  0.00000000E+00  0.00000000E+00
  0.00000000E+00  0.00000000E+00  0.00000000E+00
  0.00000000E+00  0.00000000E+00  0.00000000E+00
  0.00000000E+00  0.00000000E+00  0.00000000E+00
  0.00000000E+00  0.00000000E+00  0.00000000E+00
  0.00000000E+00  0.00000000E+00  0.00000000E+00
  0.00000000E+00  0.00000000E+00  0.00000000E+00
  0.00000000E+00  0.00000000E+00  0.00000000E+00
  0.00000000E+00  0.00000000E+00  0.00000000E+00
  0.00000000E+00  0.00000000E+00  0.00000000E+00
  0.00000000E+00  0.00000000E+00  0.00000000E+00
  0.00000000E+00  0.00000000E+00  0.00000000E+00
  0.00000000E+00  0.00000000E+00  0.00000000E+00
  0.00000000E+00  0.00000000E+00  0.00000000E+00
  0.00000000E+00  0.00000000E+00  0.00000000E+00
  0.00000000E+00  0.00000000E+00  0.00000000E+00
  0.00000000E+00  0.00000000E+00  0.00000000E+00
  0.00000000E+00  0.00000000E+00  0.00000000E+00
  0.00000000E+00  0.00000000E+00  0.00000000E+00
  0.00000000E+00  0.00000000E+00  0.00000000E+00
  0.00000000E+00  0.00000000E+00  0.00000000E+00
  0.00000000E+00  0.00000000E+00  0.00000000E+00
  0.00000000E+00  0.00000000E+00  0.00000000E+00
  0.00000000E+00  0.00000000E+00  0.00000000E+00
  0.00000000E+00  0.00000000E+00  0.00000000E+00
  0.00000000E+00  0.00000000E+00  0.00000000E+00
  0.00000000E+00  0.00000000E+00  0.00000000E+00
  0.00000000E+00  0.00000000E+00  0.00000000E+00
  0.00000000E+00  0.00000000E+00  0.00000000E+00
  0.00000000E+00  0.00000000E+00  0.00000000E+00
  0.00000000E+00  0.00000000E+00  0.00000000E+00
  0.00000000E+00  0.00000000E+00  0.00000000E+00
  0.00000000E+00  0.00000000E+00  0.00000000E+00
  0.00000000E+00  0.00000000E+00  0.00000000E+00
  0.00000000E+00  0.00000000E+00  0.00000000E+00
  0.00000000E+00  0.00000000E+00  0.00000000E+00
  0.00000000E+00  0.00000000E+00  0.00000000E+00
  0.00000000E+00  0.00000000E+00  0.00000000E+00
  0.00000000E+00  0.00000000E+00  0.00000000E+00
  0.00000000E+00  0.00000000E+00  0.00000000E+00
  0.00000000E+00  0.00000000E+00  0.00000000E+00
  0.00000000E+00  0.00000000E+00  0.00000000E+00
  0.00000000E+00  0.00000000E+00  0.00000000E+00
  0.00000000E+00  0.00000000E+00  0.00000000E+00
  0.00000000E+00  0.00000000E+00  0.00000000E+00
  0.00000000E+00  0.00000000E+00  0.00000000E+00
  0.00000000E+00  0.00000000E+00  0.00000000E+00
  0.00000000E+00  0.00000000E+00  0.00000000E+00
  0.00000000E+00  0.00000000E+00  0.00000000E+00
  0.00000000E+00  0.00000000E+00  0.00000000E+00
  0.00000000E+00  0.00000000E+00  0.00000000E+00
  0.00000000E+00  0.00000000E+00  0.00000000E+00
  0.00000000E+00  0.00000000E+00  0.00000000E+00
  0.00000000E+00  0.00000000E+00  0.00000000E+00
  0.00000000E+00  0.00000000E+00  0.00000000E+00
  0.00000000E+00  0.00000000E+00  0.00000000E+00
  0.00000000E+00  0.00000000E+00  0.00000000E+00
  0.00000000E+00  0.00000000E+00  0.00000000E+00
  0.00000000E+00  0.00000000E+00  0.00000000E+00
  0.00000000E+00  0.00000000E+00  0.00000000E+00
  0.00000000E+00  0.00000000E+00  0.00000000E+00
  0.00000000E+00  0.00000000E+00  0.00000000E+00
  0.00000000E+00  0.00000000E+00  0.00000000E+00
  0.00000000E+00  0.00000000E+00  0.00000000E+00
  0.00000000E+00  0.00000000E+00  0.00000000E+00
  0.00000000E+00  0.00000000E+00  0.00000000E+00
  0.00000000E+00  0.00000000E+00  0.00000000E+00
  0.00000000E+00  0.00000000E+00  0.00000000E+00
  0.00000000E+00  0.00000000E+00  0.00000000E+00
  0.00000000E+00  0.00000000E+00  0.00000000E+00
  0.00000000E+00  0.00000000E+00  0.00000000E+00
  0.00000000E+00  0.00000000E+00  0.00000000E+00
  0.00000000E+00  0.00000000E+00  0.00000000E+00
  0.00000000E+00  0.00000000E+00  0.00000000E+00
  0.00000000E+00  0.00000000E+00  0.00000000E+00
  0.00000000E+00  0.00000000E+00  0.00000000E+00
  0.00000000E+00  0.00000000E+00  0.00000000E+00
  0.00000000E+00  0.00000000E+00  0.00000000E+00