FeMn_288_15                             
    1.000000000000000     
     9.7266779999999997    0.0000000000000000    0.0000000000000000
     0.0000000000000000    8.4235500000000005    0.0000000000000000
     0.0000000000000000    0.0000000000000000   45.0000000000000000
   Fe   Mn
   273    15
Direct
  0.3118717160426939  0.8657352514155676  0.1664240851247327
  0.6878902962383643  0.1228594079806451  0.6548508417984712
  0.0625949223879630  0.7054291829424396  0.3451793329917082
  0.8128323785865524  0.0376867126370024  0.6104785237847385
  0.0628888285724020  0.8657032065189673  0.1662410793869984
  0.8123878622013236  0.5371910984090505  0.2560991853768440
  0.0624628830390779  0.5371922321683158  0.2560907554147070
  0.8118343492779451  0.0338769131624896  0.1242325334178446
  0.4375867855970937  0.6226114363273119  0.6547821255980630
  0.5624224519590113  0.2051495940220303  0.3452108711936299
  0.4374231881593520  0.4552081545895383  0.3451204932449467
  0.4378558253391502  0.4556371844789407  0.4784675407161090
  0.1881046625028605  0.7826823379397305  0.1242124860689036
  0.3125797574242025  0.2037250638612545  0.2116742223597612
  0.8124779589530217  0.5405546253979414  0.7439470731016024
  0.1876653401193886  0.1242699275672661  0.7885388478802474
  0.4374308236825946  0.1158988103741896  0.1664790119814849
  0.4381166818454168  0.7898284403539778  0.3893799515529307
  0.0622775136618193  0.0373956018463612  0.2560842080261380
  0.5622742171089958  0.7033316580769945  0.2115929763687301
  0.0626490273765256  0.7038013649415779  0.2115600217654024
  0.0621010554717801  0.5339037790133572  0.1244284930247999
  0.0620474095911474  0.2061196929926119  0.4783583682541405
  0.8116304562366838  0.5432704814152098  0.8756380524030313
  0.8120537520650785  0.3717974974052278  0.5215516060581702
  0.1871201566860750  0.4616838307383254  0.8337234608368026
  0.3124574744975295  0.0371226112162927  0.2560764309060626
  0.1871141521697771  0.7871034737059951  0.2560288166838554
  0.0624827876816968  0.5408335612608947  0.7441516881368668
  0.5624909422599877  0.2046030188252394  0.5654964043753899
  0.0630959763554911  0.0334810477246777  0.1240064687293184
  0.1878065919387505  0.7880449500632981  0.6105008650808752
  0.6872715504936628  0.7825566830734083  0.1242248952793710
  0.3130738836307866  0.8726540454528157  0.4343663073569781
  0.9375951614901727  0.6213171499950451  0.3005589220363230
  0.3127715360225841  0.2062631940366633  0.4784594231875107
  0.0622275561259668  0.5431207526099763  0.8757166354239225
  0.9371861132508043  0.4557183474249670  0.4784824419076906
  0.3125412135368580  0.3725215857721306  0.6548624949327784
  0.8126500622723771  0.5396701884807894  0.3894021716113439
  0.1879698057854876  0.1222082963001699  0.3005584331615758
  0.6874335545379868  0.2827868603432171  0.1242761048700639
  0.8124251050018858  0.3723376141363118  0.6548198024394810
  0.8123789986535154  0.2057260787484897  0.3452088660479511
  0.9372092976625123  0.4555477508874271  0.3452498687926164
  0.8123759143065582  0.8721991496854790  0.5214922468048648
  0.4378099187218328  0.6157551688693200  0.1664905202062669
  0.0624203183402384  0.0436413762598022  0.8758039442229451
  0.9373568950394979  0.2832294420851071  0.1241895752603202
  0.5626110332693534  0.3722755689991371  0.6547238545111610
  0.3125312738496324  0.3649114244996779  0.1666075046225132
  0.3128546946387710  0.8744824166955081  0.7884043865827983
  0.3123592665138250  0.7053164854955646  0.3451244987567674
  0.6873699305537710  0.1219148175264766  0.5214731491525449
  0.5625156569082774  0.5406121941698787  0.7438971935721966
  0.6875263099533819  0.4530511111389411  0.2115729531566874
  0.9372873949296898  0.7910628308540270  0.7439403553495448
  0.6880873975244618  0.9560207532304552  0.4783471021864253
  0.5627319731351133  0.8720815518326358  0.5214200305209876
  0.3122806012367170  0.7046759767171062  0.5657359196555402
  0.5624269548946259  0.8653163931326684  0.1664518118169299
  0.9375868320736870  0.4535239664181140  0.2115748484414084
  0.8121704719107958  0.2126168534055793  0.8336201423105885
  0.5621847835696703  0.7054689334964493  0.3452735842005348
  0.5624809958234014  0.5374045530549698  0.2561472325142808
  0.3127182495244566  0.3722591150289301  0.3004859512081011
  0.9375655568490981  0.6225380830564350  0.6547426829726689
  0.3124851724896784  0.8725193919871469  0.6547048013254495
  0.5623551873567038  0.3734540583118203  0.4344208857741041
  0.6873737367631694  0.6159384351070967  0.1665262980802842
  0.9374826813744750  0.4563190368413415  0.6995544091681599
  0.3124310820015753  0.2058366012212319  0.6995387115966410
  0.4376383924317521  0.9618910042444919  0.8336828473418526
  0.4373068282987420  0.7871809588206453  0.2560610471834679
  0.9372687614048231  0.7871510941250103  0.2560531252126353
  0.1878766983048497  0.9525590444803884  0.2115610084153201
  0.4376505502110973  0.7907235544457937  0.7440357364784347
  0.8123214429322534  0.0371676010153505  0.2560288796131367
  0.1878541101309697  0.6219571642844504  0.5215616966761834
  0.8126604939569599  0.2059411778155568  0.6995310028083328
  0.1878102575071803  0.7899727607400455  0.3894936155985030
  0.9373781872984058  0.2869820599799074  0.2560656863982145
  0.1876737966607901  0.1221770987547251  0.5214355082104291
  0.0626114544430907  0.7127889483517920  0.8334925095156567
  0.8128158373361765  0.7064078281491289  0.4783597548161562
  0.5625701081414652  0.7045770978284986  0.5653371612864336
  0.9375542294470133  0.1219086668123955  0.3005071244606303
  0.1873934700690294  0.2907387841365399  0.7439124822140570
  0.5624735397154464  0.3660758198816697  0.1665491449690512
  0.0626457191097225  0.3719268504186909  0.3004697190592494
  0.0627537329416257  0.0379298724261053  0.6105298847280043
  0.1874364838026339  0.6225482315824814  0.6547472344330248
  0.5621942839612047  0.3746796829511013  0.7883971411007463
  0.5627896595837504  0.8745487720130375  0.7885670368024214
  0.0622712110238908  0.0406509623481358  0.7440872280215403
  0.5627302856014218  0.3718333070215810  0.5214710818905826
  0.9375188934595833  0.2906227028556266  0.7439766038541544
  0.0622218794898954  0.0396588058062065  0.3894636560134063
  0.1877033407112697  0.9546269438420329  0.5653258476648835
  0.9370321373845086  0.1155561432858454  0.1661904376410527
  0.6872650758335247  0.7900782748082175  0.3895018343762198
  0.8122257988105027  0.7035974553333528  0.2117127290818655
  0.1874913378900618  0.6219762472497008  0.3004194962089888
  0.8124886487410011  0.8653565656462355  0.1663648822232708
  0.0622022433424644  0.5380818041758525  0.6104298911483657
  0.6874895197653245  0.6215052050756757  0.5215274719741861
  0.4376981947954683  0.2882753627436698  0.6104368256509106
  0.0626610352526249  0.7057225927487268  0.4784489164207739
  0.9375743895616189  0.2879598899903263  0.6105573061719323
  0.6875601008300621  0.4557872694530938  0.6995357720512848
  0.5624637453722153  0.0370353254670345  0.2560297373682097
  0.8120173221339178  0.8747027898266593  0.7884556608156367
  0.5626648086611078  0.0401099341126344  0.3894150061912827
  0.8127732868851437  0.0442443537838365  0.8757389108575970
  0.9367869944582029  0.6155794711254639  0.1663860181313331
  0.3131678572227899  0.0442783660506293  0.8757428074488900
  0.4376343200639283  0.4531854049758356  0.2116297080625113
  0.5626052407517761  0.0337578736539572  0.1243722865480980
  0.1873737868198402  0.6153148330535466  0.1664726202549597
  0.0623081485926199  0.7062318094578783  0.6994992269201427
  0.3124087702975264  0.5383304500437865  0.6105327641785242
  0.4372696531696148  0.6219707744326217  0.5215098429394440
  0.0624126161520368  0.2129265960120620  0.8334843921105705
  0.9372140052031032  0.9615242411827909  0.8338280799634041
  0.5625633925364824  0.2125014316115975  0.8334131544417475
  0.6877572839546401  0.1232510904830236  0.4344595727159781
  0.4377327295590484  0.9527415077885618  0.2115600219615610
  0.0623480754420144  0.2055080734381618  0.3451987686291100
  0.6871469885449847  0.2870132213019473  0.2561993644791377
  0.3124177894813954  0.8723431741911546  0.3003560160524728
  0.5626318580477199  0.5333792096027936  0.1244170018869250
  0.8125259999120421  0.2044361616091226  0.5654526693036790
  0.4375666978771149  0.4559691278596352  0.6996017247884986
  0.4373962270372974  0.1219157903631705  0.5215148994391589
  0.4372764654012129  0.2872977702349974  0.2560057194843976
  0.4370879560636378  0.1227995384060399  0.6548325019015112
  0.6877074283320451  0.9548385488074089  0.5656303539158636
  0.5628827974407058  0.7127365817119141  0.8335534873575393
  0.6878156859626425  0.6247693966521171  0.7885147948317734
  0.6876533964129904  0.7868827943549018  0.2560105225058895
  0.4373505707474395  0.2904480332584992  0.7440783925681045
  0.4371409051557740  0.4622533832223137  0.8334431623316484
  0.4374857313603281  0.7883015820333888  0.6105181492698711
  0.6873180685606149  0.2945757001538242  0.8757524408509955
  0.0623937085163476  0.2062169087674701  0.6994891053333582
  0.5626963326540637  0.7055485064636092  0.6996674547063505
  0.1871850306578414  0.2956208941706813  0.8758127332221688
  0.8123644125267532  0.3718004618725445  0.3005503139400965
  0.6873302778068408  0.1219648222306443  0.3005936593067453
  0.8128964989604864  0.5380972451527597  0.6104975893707663
  0.6877072669996595  0.2898055921217483  0.3894660204386845
  0.0622785742926019  0.2048032207693268  0.5656774086468455
  0.1871008940388219  0.4555504919146195  0.3451212214855941
  0.3123524706376863  0.3721116438407978  0.5216013711681271
  0.6876942623788996  0.1254830371134316  0.7883878206141530
  0.1874006694905608  0.2869797786136156  0.2560959653724685
  0.9375617680974662  0.9560693721964317  0.6995837738823293
  0.9376122156217824  0.6241522643790884  0.7883104551922763
  0.8124219258575892  0.3748799374649622  0.7884169224172104
  0.9376060113252678  0.4546012124282173  0.5656049231110718
  0.9376965372935157  0.1215704081387365  0.5215538145231372
  0.6875482000749705  0.6224945812748893  0.6548613588836028
  0.9374390295913310  0.7899246894790156  0.3893495267887853
  0.9372286479853600  0.1245323723685286  0.7884251461561894
  0.0628220745121701  0.7046407366726081  0.5656880323066009
  0.3122564454189944  0.0381895623173381  0.6103854385570376
  0.3122994056109412  0.5373156699842740  0.2560723453104050
  0.3130895049181820  0.5337020319330640  0.1244297584671486
  0.9378988416628647  0.4618704479028859  0.8335530939004793
  0.4377857814657991  0.6226288123008200  0.4344719038061317
  0.4373797539404982  0.9564569361718525  0.4783002659201712
  0.3122491259988214  0.7120433902676825  0.8335470273057409
  0.6875057768871882  0.7905341110381651  0.7440271911349700
  0.8121868277109106  0.5341999330121899  0.1243053233012674
  0.3124774666347984  0.7028629655143961  0.2115463945402091
  0.8126086575348320  0.7057057102689880  0.6994858907826594
  0.6877142429962878  0.4548640155892361  0.5657144100782863
  0.4374223932630748  0.1247056060100769  0.7884966795981199
  0.9371426439737774  0.6231785804612552  0.4346338286653548
  0.8126923315092491  0.0398240903276831  0.3894440595489222
  0.4377121554202556  0.4545926244196298  0.5656464569261582
  0.8118602869567998  0.7128411568541245  0.8337431417950766
  0.3128703153042821  0.3742302655664752  0.7885478645943087
  0.5628010436189557  0.5399085726643613  0.3894901961795619
  0.4368485098371879  0.6243518415593632  0.7883847743092144
  0.5622089787102642  0.2031713443523149  0.2116311972765926
  0.6875519667867885  0.6218024921758945  0.3004065199600037
  0.4377529128238629  0.1221360978110123  0.3004469283555127
  0.1872312384363465  0.9555432212692674  0.3452320808120068
  0.5623955080346811  0.8730948545309938  0.4344535899835750
  0.9375134060973870  0.7876138847115468  0.6104523731497766
  0.1875420469569236  0.2900557396340102  0.3894618977836992
  0.6874872380143425  0.9617988562347520  0.8336399631225819
  0.3123181407703319  0.5407319089737928  0.7440230044998312
  0.8125808459090281  0.3732988436333653  0.4342801945798295
  0.4374294316426356  0.2950620366869066  0.8757086878415667
  0.5627596865165819  0.5383728418917747  0.6103768112723478
  0.4376178253605533  0.2828108161185349  0.1243567477082108
  0.1872369596417832  0.7954096885617273  0.8758719986109700
  0.3124126579841404  0.2055146994804174  0.3451712945238347
  0.9372368929763671  0.9554488100993903  0.3451345506323139
  0.8125236435711705  0.7050849557220321  0.5655900254035189
  0.6878471098761477  0.4556692810851710  0.4783974775880900
  0.1875815425412243  0.9560025671482982  0.6995247507079121
  0.1875075295514043  0.2883498357700615  0.6104894304359092
  0.5625573881779927  0.8720208701413116  0.3004965707994932
  0.3125490782303480  0.0403374541914139  0.7438995448600237
  0.3122499920578507  0.7058558671622267  0.4784032746389008
  0.6873447593937437  0.7884199997813282  0.6105953551551929
  0.1874572629781058  0.1225326918292112  0.6547237847537094
  0.8125577146545389  0.0404099605436377  0.7439785528030242
  0.0624644518911889  0.3723499329385332  0.6548737088952661
  0.9372893488910344  0.9562956583199451  0.4783583664909978
  0.9375770505071211  0.1231085758814661  0.4343834250262990
  0.6875429078677077  0.9563793307407680  0.6996035584059005
  0.8123146666620489  0.8725143253047790  0.6547787127644367
  0.8130067987505883  0.2059227871384969  0.4783681937496579
  0.8124130074848196  0.8729979798458362  0.4342481209810191
  0.8123532032854933  0.7053548368411842  0.3452067778746505
  0.8125278429657259  0.3654046551167489  0.1665201003070133
  0.4374032868044705  0.1231254795824308  0.4344253668625772
  0.9376269378184692  0.1225576237647057  0.6546856362176570
  0.1875880528141271  0.4563010575622478  0.6994891387384033
  0.5626277995563835  0.5432701609917121  0.8756340783078399
  0.3122801552888094  0.0335764295861134  0.1241702597798945
  0.0622516018099460  0.8728885677284801  0.4342820677174773
  0.1877266395484612  0.6232585237023561  0.4343389665326345
  0.4366845714812509  0.7954801149823969  0.8757059301652768
  0.4372925229068888  0.2898861180275276  0.3893927582624340
  0.1873914733250956  0.4558804630650121  0.4784383193454849
  0.5625601685313767  0.8726453950336466  0.6547817927777926
  0.0623409384302739  0.8719809811623628  0.5215611931022617
  0.3128850763962792  0.2046561067323245  0.5656801378135643
  0.8125946128031306  0.8716663893361420  0.3006200457159767
  0.1877346500082410  0.2825451053305954  0.1241865402660051
  0.3127886001155266  0.0397315529114092  0.3894644943840075
  0.6872496115267073  0.9531687756197602  0.2115425383034478
  0.9371765869912642  0.7821599554493500  0.1242024478405798
  0.6874003341261572  0.2904719770668694  0.7440796502346383
  0.9373393197562049  0.9547168813322846  0.5656388126014363
  0.4376466831832238  0.6221537136039375  0.3004747767393927
  0.0622280322115984  0.2035610287161950  0.2118079541437804
  0.5623260612278002  0.2061986201156573  0.4784000994547324
  0.9379889718259802  0.2954338055759342  0.8758430368976871
  0.4377868436479946  0.7817809008361655  0.1243417184222880
  0.0627357126055278  0.3732570495458746  0.4343374406946536
  0.1873865762451447  0.7909091414435609  0.7440612245641702
  0.0625620201435379  0.8718781959912002  0.3005343501916647
  0.1877948457699154  0.4530306704056971  0.2115304835952306
  0.4374355886314661  0.9561388191211376  0.6996805959251979
  0.5624518920040050  0.3723440942351497  0.3005128849663667
  0.9379077203160805  0.2896056645774899  0.3894746343526909
  0.6876728083297488  0.4554369365237000  0.3452655343373539
  0.6875928821789384  0.6229358985934801  0.4342813444065063
  0.3124965570201731  0.2121780679670190  0.8335473906127874
  0.3128320151745136  0.8714685158702209  0.5214850048366459
  0.6874986313283815  0.4626164794447233  0.8336397668408289
  0.4374288881470572  0.9550517031275201  0.5656461539625435
  0.1878425063336602  0.6244963742524148  0.7884925839607050
  0.6873826783842316  0.2881096260345330  0.6104940673731813
  0.0624813527390735  0.5401728948197009  0.3893714464356073
  0.0626388127570702  0.8722888285329371  0.6548687463428741
  0.3125779212638146  0.3732509932517485  0.4345368437247124
  0.1872116467587800  0.4547611449302968  0.5655523438177829
  0.5624957596694332  0.0404946600018136  0.7440182461156261
  0.6874978345325181  0.1155161292804583  0.1663291723312966
  0.9384405151941100  0.7957930405485464  0.8758583190192231
  0.6874649504835997  0.9553870285636804  0.3452552707955643
  0.3133544464223531  0.5438613287811329  0.8755970985623519
  0.1869729189534774  0.9617472918817301  0.8337366938847036
  0.0622260036863912  0.3648890981615861  0.1664383191616727
  0.5613485356881651  0.0444024730742039  0.8756615363248301
  0.0631891633099324  0.3719323917995324  0.5216467341049064
  0.3126489561806914  0.7055108096465019  0.6994651141794155
  0.6873858085647141  0.7950826741640271  0.8755429165921256
  0.4375719778463028  0.9554123696299378  0.3451847495843991
  0.1872594375275558  0.1150077524301472  0.1657794516524715
  0.0622225715278451  0.3739498997763625  0.7882332533520118
  0.3125523776983071  0.5399886736057402  0.3893517509701049
  0.9374316428980995  0.6218346158116612  0.5214766596201458
  0.8122085855601122  0.2043323504614507  0.2117998740492681
  0.5627981479566384  0.2054503740093552  0.6996094171658950
  0.0626263784586430  0.8742126606105358  0.7881788122329688
  0.9384290804854177  0.9531366748439057  0.2118366050786042
  0.5625022993569719  0.0380528243368179  0.6105406598526140
  0.5624422603415964  0.7062037576739799  0.4785318494693498
  0.1874831524770487  0.1235356769485927  0.4342821526255510
  0.1876511700863208  0.9561040825481412  0.4785866174811543
 
  0.00000000E+00  0.00000000E+00  0.00000000E+00
  0.00000000E+00  0.00000000E+00  0.00000000E+00
  0.00000000E+00  0.00000000E+00  0.00000000E+00
  0.00000000E+00  0.00000000E+00  0.00000000E+00
  0.00000000E+00  0.00000000E+00  0.00000000E+00
  0.00000000E+00  0.00000000E+00  0.00000000E+00
  0.00000000E+00  0.00000000E+00  0.00000000E+00
  0.00000000E+00  0.00000000E+00  0.00000000E+00
  0.00000000E+00  0.00000000E+00  0.00000000E+00
  0.00000000E+00  0.00000000E+00  0.00000000E+00
  0.00000000E+00  0.00000000E+00  0.00000000E+00
  0.00000000E+00  0.00000000E+00  0.00000000E+00
  0.00000000E+00  0.00000000E+00  0.00000000E+00
  0.00000000E+00  0.00000000E+00  0.00000000E+00
  0.00000000E+00  0.00000000E+00  0.00000000E+00
  0.00000000E+00  0.00000000E+00  0.00000000E+00
  0.00000000E+00  0.00000000E+00  0.00000000E+00
  0.00000000E+00  0.00000000E+00  0.00000000E+00
  0.00000000E+00  0.00000000E+00  0.00000000E+00
  0.00000000E+00  0.00000000E+00  0.00000000E+00
  0.00000000E+00  0.00000000E+00  0.00000000E+00
  0.00000000E+00  0.00000000E+00  0.00000000E+00
  0.00000000E+00  0.00000000E+00  0.00000000E+00
  0.00000000E+00  0.00000000E+00  0.00000000E+00
  0.00000000E+00  0.00000000E+00  0.00000000E+00
  0.00000000E+00  0.00000000E+00  0.00000000E+00
  0.00000000E+00  0.00000000E+00  0.00000000E+00
  0.00000000E+00  0.00000000E+00  0.00000000E+00
  0.00000000E+00  0.00000000E+00  0.00000000E+00
  0.00000000E+00  0.00000000E+00  0.00000000E+00
  0.00000000E+00  0.00000000E+00  0.00000000E+00
  0.00000000E+00  0.00000000E+00  0.00000000E+00
  0.00000000E+00  0.00000000E+00  0.00000000E+00
  0.00000000E+00  0.00000000E+00  0.00000000E+00
  0.00000000E+00  0.00000000E+00  0.00000000E+00
  0.00000000E+00  0.00000000E+00  0.00000000E+00
  0.00000000E+00  0.00000000E+00  0.00000000E+00
  0.00000000E+00  0.00000000E+00  0.00000000E+00
  0.00000000E+00  0.00000000E+00  0.00000000E+00
  0.00000000E+00  0.00000000E+00  0.00000000E+00
  0.00000000E+00  0.00000000E+00  0.00000000E+00
  0.00000000E+00  0.00000000E+00  0.00000000E+00
  0.00000000E+00  0.00000000E+00  0.00000000E+00
  0.00000000E+00  0.00000000E+00  0.00000000E+00
  0.00000000E+00  0.00000000E+00  0.00000000E+00
  0.00000000E+00  0.00000000E+00  0.00000000E+00
  0.00000000E+00  0.00000000E+00  0.00000000E+00
  0.00000000E+00  0.00000000E+00  0.00000000E+00
  0.00000000E+00  0.00000000E+00  0.00000000E+00
  0.00000000E+00  0.00000000E+00  0.00000000E+00
  0.00000000E+00  0.00000000E+00  0.00000000E+00
  0.00000000E+00  0.00000000E+00  0.00000000E+00
  0.00000000E+00  0.00000000E+00  0.00000000E+00
  0.00000000E+00  0.00000000E+00  0.00000000E+00
  0.00000000E+00  0.00000000E+00  0.00000000E+00
  0.00000000E+00  0.00000000E+00  0.00000000E+00
  0.00000000E+00  0.00000000E+00  0.00000000E+00
  0.00000000E+00  0.00000000E+00  0.00000000E+00
  0.00000000E+00  0.00000000E+00  0.00000000E+00
  0.00000000E+00  0.00000000E+00  0.00000000E+00
  0.00000000E+00  0.00000000E+00  0.00000000E+00
  0.00000000E+00  0.00000000E+00  0.00000000E+00
  0.00000000E+00  0.00000000E+00  0.00000000E+00
  0.00000000E+00  0.00000000E+00  0.00000000E+00
  0.00000000E+00  0.00000000E+00  0.00000000E+00
  0.00000000E+00  0.00000000E+00  0.00000000E+00
  0.00000000E+00  0.00000000E+00  0.00000000E+00
  0.00000000E+00  0.00000000E+00  0.00000000E+00
  0.00000000E+00  0.00000000E+00  0.00000000E+00
  0.00000000E+00  0.00000000E+00  0.00000000E+00
  0.00000000E+00  0.00000000E+00  0.00000000E+00
  0.00000000E+00  0.00000000E+00  0.00000000E+00
  0.00000000E+00  0.00000000E+00  0.00000000E+00
  0.00000000E+00  0.00000000E+00  0.00000000E+00
  0.00000000E+00  0.00000000E+00  0.00000000E+00
  0.00000000E+00  0.00000000E+00  0.00000000E+00
  0.00000000E+00  0.00000000E+00  0.00000000E+00
  0.00000000E+00  0.00000000E+00  0.00000000E+00
  0.00000000E+00  0.00000000E+00  0.00000000E+00
  0.00000000E+00  0.00000000E+00  0.00000000E+00
  0.00000000E+00  0.00000000E+00  0.00000000E+00
  0.00000000E+00  0.00000000E+00  0.00000000E+00
  0.00000000E+00  0.00000000E+00  0.00000000E+00
  0.00000000E+00  0.00000000E+00  0.00000000E+00
  0.00000000E+00  0.00000000E+00  0.00000000E+00
  0.00000000E+00  0.00000000E+00  0.00000000E+00
  0.00000000E+00  0.00000000E+00  0.00000000E+00
  0.00000000E+00  0.00000000E+00  0.00000000E+00
  0.00000000E+00  0.00000000E+00  0.00000000E+00
  0.00000000E+00  0.00000000E+00  0.00000000E+00
  0.00000000E+00  0.00000000E+00  0.00000000E+00
  0.00000000E+00  0.00000000E+00  0.00000000E+00
  0.00000000E+00  0.00000000E+00  0.00000000E+00
  0.00000000E+00  0.00000000E+00  0.00000000E+00
  0.00000000E+00  0.00000000E+00  0.00000000E+00
  0.00000000E+00  0.00000000E+00  0.00000000E+00
  0.00000000E+00  0.00000000E+00  0.00000000E+00
  0.00000000E+00  0.00000000E+00  0.00000000E+00
  0.00000000E+00  0.00000000E+00  0.00000000E+00
  0.00000000E+00  0.00000000E+00  0.00000000E+00
  0.00000000E+00  0.00000000E+00  0.00000000E+00
  0.00000000E+00  0.00000000E+00  0.00000000E+00
  0.00000000E+00  0.00000000E+00  0.00000000E+00
  0.00000000E+00  0.00000000E+00  0.00000000E+00
  0.00000000E+00  0.00000000E+00  0.00000000E+00
  0.00000000E+00  0.00000000E+00  0.00000000E+00
  0.00000000E+00  0.00000000E+00  0.00000000E+00
  0.00000000E+00  0.00000000E+00  0.00000000E+00
  0.00000000E+00  0.00000000E+00  0.00000000E+00
  0.00000000E+00  0.00000000E+00  0.00000000E+00
  0.00000000E+00  0.00000000E+00  0.00000000E+00
  0.00000000E+00  0.00000000E+00  0.00000000E+00
  0.00000000E+00  0.00000000E+00  0.00000000E+00
  0.00000000E+00  0.00000000E+00  0.00000000E+00
  0.00000000E+00  0.00000000E+00  0.00000000E+00
  0.00000000E+00  0.00000000E+00  0.00000000E+00
  0.00000000E+00  0.00000000E+00  0.00000000E+00
  0.00000000E+00  0.00000000E+00  0.00000000E+00
  0.00000000E+00  0.00000000E+00  0.00000000E+00
  0.00000000E+00  0.00000000E+00  0.00000000E+00
  0.00000000E+00  0.00000000E+00  0.00000000E+00
  0.00000000E+00  0.00000000E+00  0.00000000E+00
  0.00000000E+00  0.00000000E+00  0.00000000E+00
  0.00000000E+00  0.00000000E+00  0.00000000E+00
  0.00000000E+00  0.00000000E+00  0.00000000E+00
  0.00000000E+00  0.00000000E+00  0.00000000E+00
  0.00000000E+00  0.00000000E+00  0.00000000E+00
  0.00000000E+00  0.00000000E+00  0.00000000E+00
  0.00000000E+00  0.00000000E+00  0.00000000E+00
  0.00000000E+00  0.00000000E+00  0.00000000E+00
  0.00000000E+00  0.00000000E+00  0.00000000E+00
  0.00000000E+00  0.00000000E+00  0.00000000E+00
  0.00000000E+00  0.00000000E+00  0.00000000E+00
  0.00000000E+00  0.00000000E+00  0.00000000E+00
  0.00000000E+00  0.00000000E+00  0.00000000E+00
  0.00000000E+00  0.00000000E+00  0.00000000E+00
  0.00000000E+00  0.00000000E+00  0.00000000E+00
  0.00000000E+00  0.00000000E+00  0.00000000E+00
  0.00000000E+00  0.00000000E+00  0.00000000E+00
  0.00000000E+00  0.00000000E+00  0.00000000E+00
  0.00000000E+00  0.00000000E+00  0.00000000E+00
  0.00000000E+00  0.00000000E+00  0.00000000E+00
  0.00000000E+00  0.00000000E+00  0.00000000E+00
  0.00000000E+00  0.00000000E+00  0.00000000E+00
  0.00000000E+00  0.00000000E+00  0.00000000E+00
  0.00000000E+00  0.00000000E+00  0.00000000E+00
  0.00000000E+00  0.00000000E+00  0.00000000E+00
  0.00000000E+00  0.00000000E+00  0.00000000E+00
  0.00000000E+00  0.00000000E+00  0.00000000E+00
  0.00000000E+00  0.00000000E+00  0.00000000E+00
  0.00000000E+00  0.00000000E+00  0.00000000E+00
  0.00000000E+00  0.00000000E+00  0.00000000E+00
  0.00000000E+00  0.00000000E+00  0.00000000E+00
  0.00000000E+00  0.00000000E+00  0.00000000E+00
  0.00000000E+00  0.00000000E+00  0.00000000E+00
  0.00000000E+00  0.00000000E+00  0.00000000E+00
  0.00000000E+00  0.00000000E+00  0.00000000E+00
  0.00000000E+00  0.00000000E+00  0.00000000E+00
  0.00000000E+00  0.00000000E+00  0.00000000E+00
  0.00000000E+00  0.00000000E+00  0.00000000E+00
  0.00000000E+00  0.00000000E+00  0.00000000E+00
  0.00000000E+00  0.00000000E+00  0.00000000E+00
  0.00000000E+00  0.00000000E+00  0.00000000E+00
  0.00000000E+00  0.00000000E+00  0.00000000E+00
  0.00000000E+00  0.00000000E+00  0.00000000E+00
  0.00000000E+00  0.00000000E+00  0.00000000E+00
  0.00000000E+00  0.00000000E+00  0.00000000E+00
  0.00000000E+00  0.00000000E+00  0.00000000E+00
  0.00000000E+00  0.00000000E+00  0.00000000E+00
  0.00000000E+00  0.00000000E+00  0.00000000E+00
  0.00000000E+00  0.00000000E+00  0.00000000E+00
  0.00000000E+00  0.00000000E+00  0.00000000E+00
  0.00000000E+00  0.00000000E+00  0.00000000E+00
  0.00000000E+00  0.00000000E+00  0.00000000E+00
  0.00000000E+00  0.00000000E+00  0.00000000E+00
  0.00000000E+00  0.00000000E+00  0.00000000E+00
  0.00000000E+00  0.00000000E+00  0.00000000E+00
  0.00000000E+00  0.00000000E+00  0.00000000E+00
  0.00000000E+00  0.00000000E+00  0.00000000E+00
  0.00000000E+00  0.00000000E+00  0.00000000E+00
  0.00000000E+00  0.00000000E+00  0.00000000E+00
  0.00000000E+00  0.00000000E+00  0.00000000E+00
  0.00000000E+00  0.00000000E+00  0.00000000E+00
  0.00000000E+00  0.00000000E+00  0.00000000E+00
  0.00000000E+00  0.00000000E+00  0.00000000E+00
  0.00000000E+00  0.00000000E+00  0.00000000E+00
  0.00000000E+00  0.00000000E+00  0.00000000E+00
  0.00000000E+00  0.00000000E+00  0.00000000E+00
  0.00000000E+00  0.00000000E+00  0.00000000E+00
  0.00000000E+00  0.00000000E+00  0.00000000E+00
  0.00000000E+00  0.00000000E+00  0.00000000E+00
  0.00000000E+00  0.00000000E+00  0.00000000E+00
  0.00000000E+00  0.00000000E+00  0.00000000E+00
  0.00000000E+00  0.00000000E+00  0.00000000E+00
  0.00000000E+00  0.00000000E+00  0.00000000E+00
  0.00000000E+00  0.00000000E+00  0.00000000E+00
  0.00000000E+00  0.00000000E+00  0.00000000E+00
  0.00000000E+00  0.00000000E+00  0.00000000E+00
  0.00000000E+00  0.00000000E+00  0.00000000E+00
  0.00000000E+00  0.00000000E+00  0.00000000E+00
  0.00000000E+00  0.00000000E+00  0.00000000E+00
  0.00000000E+00  0.00000000E+00  0.00000000E+00
  0.00000000E+00  0.00000000E+00  0.00000000E+00
  0.00000000E+00  0.00000000E+00  0.00000000E+00
  0.00000000E+00  0.00000000E+00  0.00000000E+00
  0.00000000E+00  0.00000000E+00  0.00000000E+00
  0.00000000E+00  0.00000000E+00  0.00000000E+00
  0.00000000E+00  0.00000000E+00  0.00000000E+00
  0.00000000E+00  0.00000000E+00  0.00000000E+00
  0.00000000E+00  0.00000000E+00  0.00000000E+00
  0.00000000E+00  0.00000000E+00  0.00000000E+00
  0.00000000E+00  0.00000000E+00  0.00000000E+00
  0.00000000E+00  0.00000000E+00  0.00000000E+00
  0.00000000E+00  0.00000000E+00  0.00000000E+00
  0.00000000E+00  0.00000000E+00  0.00000000E+00
  0.00000000E+00  0.00000000E+00  0.00000000E+00
  0.00000000E+00  0.00000000E+00  0.00000000E+00
  0.00000000E+00  0.00000000E+00  0.00000000E+00
  0.00000000E+00  0.00000000E+00  0.00000000E+00
  0.00000000E+00  0.00000000E+00  0.00000000E+00
  0.00000000E+00  0.00000000E+00  0.00000000E+00
  0.00000000E+00  0.00000000E+00  0.00000000E+00
  0.00000000E+00  0.00000000E+00  0.00000000E+00
  0.00000000E+00  0.00000000E+00  0.00000000E+00
  0.00000000E+00  0.00000000E+00  0.00000000E+00
  0.00000000E+00  0.00000000E+00  0.00000000E+00
  0.00000000E+00  0.00000000E+00  0.00000000E+00
  0.00000000E+00  0.00000000E+00  0.00000000E+00
  0.00000000E+00  0.00000000E+00  0.00000000E+00
  0.00000000E+00  0.00000000E+00  0.00000000E+00
  0.00000000E+00  0.00000000E+00  0.00000000E+00
  0.00000000E+00  0.00000000E+00  0.00000000E+00
  0.00000000E+00  0.00000000E+00  0.00000000E+00
  0.00000000E+00  0.00000000E+00  0.00000000E+00
  0.00000000E+00  0.00000000E+00  0.00000000E+00
  0.00000000E+00  0.00000000E+00  0.00000000E+00
  0.00000000E+00  0.00000000E+00  0.00000000E+00
  0.00000000E+00  0.00000000E+00  0.00000000E+00
  0.00000000E+00  0.00000000E+00  0.00000000E+00
  0.00000000E+00  0.00000000E+00  0.00000000E+00
  0.00000000E+00  0.00000000E+00  0.00000000E+00
  0.00000000E+00  0.00000000E+00  0.00000000E+00
  0.00000000E+00  0.00000000E+00  0.00000000E+00
  0.00000000E+00  0.00000000E+00  0.00000000E+00
  0.00000000E+00  0.00000000E+00  0.00000000E+00
  0.00000000E+00  0.00000000E+00  0.00000000E+00
  0.00000000E+00  0.00000000E+00  0.00000000E+00