CuInSe2gb                               
   1.00000000000000     
     9.7266780392896699    0.0000000000000000    0.0000000000000000
     0.0000000000000000    8.4235502764570693    0.0000000000000000
     0.0000000000000000    0.0000000000000000   45.0000000000000000
   Fe   Mn
   281     7
Direct
  0.0581441638064160  0.7013569466784532  0.2110496148277556
  0.3159376470688382  0.7203763580870318  0.8757307207650038
  0.6882630048879786  0.9579951916546138  0.6114233133807850
  0.4383571128195045  0.4579397424924318  0.6114513028229883
  0.4365045856851326  0.2867883753506823  0.2555704407108659
  0.0609869518319064  0.3865829216729152  0.8341708525230804
  0.3112901105961578  0.8866756991429469  0.8342576737119214
  0.4421892012667678  0.6265564130662347  0.7003896638280662
  0.0638146804254034  0.2132537058329813  0.7444829768643596
  0.1824395995467938  0.4512747484422303  0.2112355239851584
  0.5636544979126474  0.2091054306883581  0.4778832689611565
  0.0641056148772518  0.8748810399042061  0.5668399565823331
  0.5656049599819239  0.2196929504522320  0.8757006007680103
  0.8109152171358519  0.5305615197446314  0.1243559375237308
  0.4332473394734169  0.9512118826495375  0.2111613716326163
  0.5641300505951711  0.3746811711091282  0.5667617016790623
  0.8117532797592988  0.0418681015715062  0.3884049570696718
  0.6860824028660644  0.7910431581149804  0.5221011819518934
  0.4386111099323691  0.4588743235593727  0.4778514889455912
  0.4381340738036701  0.9628084670129006  0.7444927071377492
  0.4391694411944206  0.6246423549361825  0.5668216349458466
  0.5673443884599493  0.8763426692155870  0.7003257290305519
  0.3106398838998128  0.0313038069477638  0.1241635144694624
  0.6865082186127558  0.9577182661044749  0.3440104892236402
  0.6882269862605332  0.7799521416952634  0.1246719701099692
  0.0577710446669425  0.3733979481340673  0.2997063090237004
  0.6888790390134166  0.4714702885456092  0.8754580348927609
  0.4330864862180279  0.4516831381411211  0.2111162663650192
  0.8108922902280877  0.3755172652843241  0.4329883023341571
  0.5632187591320857  0.7080139198593718  0.6114716115766271
  0.5629957740885793  0.5413400605484606  0.6557784751290526
  0.8139406881089030  0.8634048208517638  0.1661605503916922
  0.5607297750909139  0.5370677890176082  0.2555088967121149
  0.6867114368071006  0.4580517556081629  0.3442348562442174
  0.1889918178918089  0.6134131705493620  0.1661753954110255
  0.1916938963552714  0.7993657506522026  0.7887298142538829
  0.4424134582638575  0.1265933413768452  0.7004235077029315
  0.9331324729655853  0.6233066513998780  0.2997413014844353
  0.3152257976853371  0.2198450072369931  0.8756976136545369
  0.3139666886532747  0.8747094479567858  0.5667778631924310
  0.8153072015191684  0.2198626959048829  0.8756816037161909
  0.8129043826140097  0.5417797782310998  0.6557661235226254
  0.5598356035444313  0.5300617609976933  0.1244890542623929
  0.5667526070304113  0.0495792541077167  0.7889395609129071
  0.1863809807974014  0.2868432311692924  0.2554202100395778
  0.8109267729025513  0.8748858564949610  0.4330600350757881
  0.5670818776361124  0.3764651398787430  0.7004671088128019
  0.0617588668532415  0.0299112214967047  0.1245264066046840
  0.3130352547006925  0.5412047008585132  0.6557861962859177
  0.5616735381853830  0.2081776591468429  0.3441760165083064
  0.1884169452463671  0.9579933739341939  0.6114195839944990
  0.3077673068327982  0.3736117808322184  0.2996347028884864
  0.4380572203762225  0.7916259581097222  0.6557942558591285
  0.1915899123046997  0.2983289806230810  0.7888707335228167
  0.0633285086647450  0.3632041828816434  0.1661063229629756
  0.6918856598656883  0.6267154088432060  0.7003538417985288
  0.3116930868775533  0.5416829543576641  0.3884542490817498
  0.0653555299376333  0.7198784579536244  0.8758508792278324
  0.9363428739102321  0.6368102299156460  0.8342812214483729
  0.3173485531333620  0.5497875783188568  0.7889503652040902
  0.3072768330967847  0.2002374380004095  0.2111398382531957
  0.0637716954282945  0.7088382547552343  0.4778546109793045
  0.5576843256345477  0.2008723475437459  0.2111410532077180
  0.3138102382297702  0.2134327437498167  0.7443909594883494
  0.0671544641060732  0.3769092471345396  0.7003673186583884
  0.1863468566113991  0.6367358291890806  0.8340704607998796
  0.0667031759993273  0.0492568144377973  0.7889246580299284
  0.4389552856594188  0.1246448748827864  0.5668108606046564
  0.9382319484479438  0.2916954074570024  0.6557020613175488
  0.8074705395140189  0.2013765756717383  0.2110666759523983
  0.9327372643192074  0.9511959720287870  0.2112491609629499
  0.9388323448980748  0.6248740818924167  0.5667767943483685
  0.8109109544685232  0.3866025277066765  0.8342112869693024
  0.1920177440222864  0.6265685699722956  0.7003624193865651
  0.8111699174332376  0.8865525046586505  0.8342792279866241
  0.6880267073926543  0.2913147049761797  0.6557839925091645
  0.3133825897388090  0.2080513515000398  0.6114952946669082
  0.4382637335027071  0.4627027610080040  0.7443882238015056
  0.4366839071438112  0.7916198408939977  0.3884159958451473
  0.6876719976284140  0.9627517664228413  0.7444959333269965
  0.8070991739390097  0.7018904974692047  0.2112675688348099
  0.8130973372411605  0.7079969917858401  0.6113984517621970
  0.4372746969064720  0.7791326593242129  0.1243918271614721
  0.3132099296886394  0.7130300031053676  0.7443918268682088
  0.3170640895415204  0.0495207221596580  0.7889726365783197
  0.8114963177492016  0.5418337788031686  0.3884730652710807
  0.6861647378632225  0.2910099461678518  0.5221256503124571
  0.6918436835768148  0.7994181844177559  0.7888948868486518
  0.1863136526783534  0.7879259911255027  0.2555282549730711
  0.6884713059419756  0.1137078044686870  0.1661520312607650
  0.6888534947148479  0.9589487044581805  0.4778893626645393
  0.9367402718322079  0.9579406757070316  0.3442021918666954
  0.8110454539914367  0.0405925271079718  0.5220976629547409
  0.6854358556181714  0.6249653021316882  0.4330723592416444
  0.4368020985306005  0.4582692027539418  0.3441622784076611
  0.8132411165751130  0.2134412321135516  0.7445041947894629
  0.4390044999906774  0.9715790964388153  0.8755066180448492
  0.5642084250911891  0.8744810211536661  0.5667763895027081
  0.8103234484503866  0.0302553866530895  0.1245704913204887
  0.4324957832182807  0.6234108883671516  0.2997369690338865
  0.8151262062621167  0.7203381450644758  0.8758399187466168
  0.6880998979054024  0.4577458495174749  0.6113779932594876
  0.5612087201656304  0.3869378957522803  0.8340911084867634
  0.8075472116900185  0.3729659634644514  0.2997519210250738
  0.1862760184028428  0.2916793631483263  0.3884064407179991
  0.8164161191301338  0.5494737787661065  0.7890661567588181
  0.1861735902540088  0.7907042459940633  0.5220657139743845
  0.3075695829703051  0.8733749923963334  0.2996462449079401
  0.1824666866159579  0.9516420503964154  0.2113138836755442
  0.1886964925313439  0.4629515574785316  0.7444089921965741
  0.4360268542173468  0.2905302608940143  0.5220605998466513
  0.0620164347424682  0.7085352236552810  0.3443028864994570
  0.1882089971039396  0.7911096647558548  0.6557088437493320
  0.4417231053203577  0.7995667777334748  0.7887739412019938
  0.6854967742071790  0.1247708860261297  0.4330378883422273
  0.9363626858592363  0.7903495268651258  0.5221505259508067
  0.6888627080822232  0.6139651781839278  0.1661661028463342
  0.8116147180970730  0.7084717169108733  0.3443225182266432
  0.9384612702658520  0.4626923344082093  0.7444308266594774
  0.1868269049581618  0.4583404584661489  0.3442135549105819
  0.5672661154169882  0.5492773646481613  0.7889728869998976
  0.5651093401440073  0.3635989446647904  0.1657732580914071
  0.5614647819331438  0.7083606031843387  0.3443102017338810
  0.5580166574186629  0.3732778265805157  0.2996277768139869
  0.1888023471876565  0.4713994486287464  0.8755466213816824
  0.1891633128026107  0.1127002539684663  0.1660901226566734
  0.4417416054434710  0.2987489927088905  0.7888175350645826
  0.6859217734071746  0.7874316034321188  0.2555105126739426
  0.9368312099155804  0.1366523490170932  0.8341278700251452
  0.4387738744431962  0.9591396869854073  0.4777847298877112
  0.5654162533838430  0.7199984115357895  0.8757079654128540
  0.1887864246950209  0.4587982775021150  0.4778581690486413
  0.9365462452504774  0.2802871566461049  0.1245583150112260
  0.3113938066352288  0.0416298193024703  0.3884428348085302
  0.0630134845454706  0.0410830131732167  0.6557284552852898
  0.5608663269624954  0.3757178927139138  0.4330650378460146
  0.6876588048329898  0.4624987835054194  0.7444645763340397
  0.5636161396930152  0.2134081791700738  0.7444327248594239
  0.9423581452911211  0.1269695027103232  0.7004008823769540
  0.5631964123806223  0.0411527954873854  0.6557745282436030
  0.5613048000737436  0.5409414819528643  0.5220675475227504
  0.1827548747652422  0.1232352382505334  0.2996693207124995
  0.4383918511116259  0.1127853821435617  0.1661381877571698
  0.6822496559677790  0.6234100137544228  0.2997794320476831
  0.9324784075126356  0.1229336850288668  0.2996636337613267
  0.8139525149234481  0.3746217318321125  0.5668414345275385
  0.0579040303004726  0.8731111797738514  0.2996768660068198
  0.1889730616939589  0.6248442378525171  0.5668566500321913
  0.9409512861624953  0.7991923890262526  0.7889159053579016
  0.3113198816052511  0.3868147076020353  0.8342229482020758
  0.9391848621698915  0.4716003909067294  0.8755587023106665
  0.4366308497721139  0.6370547715052048  0.8341368210830458
  0.0616160882980178  0.2083517300753137  0.3441865777188347
  0.1888045312951402  0.9711019173210568  0.8754833838818333
  0.9367499233598808  0.7797794660085843  0.1243347897674386
  0.6862062626204749  0.7918242850781073  0.3884303684978492
  0.9380594873631946  0.7914242364844239  0.6557729757312961
  0.9383289304844155  0.1134772745300993  0.1662590239270038
  0.4378204272283738  0.2915671497418364  0.6558126218644638
  0.0583873789674295  0.2011111105380751  0.2110902809768190
  0.6829698546528367  0.9513578156268079  0.2113823181031624
  0.1826134554141884  0.6233814530798218  0.2997400934452193
  0.8168939004844218  0.8766325754352168  0.7003397818861317
  0.9423031568178883  0.6267861243694511  0.7003935595653273
  0.1921522671585093  0.1268951923616773  0.7003902082386253
  0.9388096850399646  0.4589097550712254  0.4778378978354206
  0.8132077158832491  0.2078793755178054  0.6114292888769733
  0.1865960383613345  0.6251440514745701  0.4330552810667322
  0.4328851558364465  0.1231953321427404  0.2997294373211510
  0.6823701487535458  0.1229829710257919  0.2996742364485193
  0.5612885636529445  0.5415947298629588  0.3884625209473721
  0.8118779331066891  0.2080172781952600  0.3442968445860468
  0.4391543317046942  0.4716083706856122  0.8754659815004638
  0.5612121278716783  0.8865827460211753  0.8342263411460723
  0.3138426751886296  0.2091126993601448  0.4778430825319082
  0.1884337653659266  0.9590570441737448  0.4778353239160174
  0.0610108573385935  0.8868572306923838  0.8342336257499358
  0.0610706152486827  0.5404202469316395  0.5220048742359487
  0.9388996038213434  0.9587867810190418  0.4778731761574057
  0.0633216509092934  0.7079344905076294  0.6113828663443814
  0.5612915435863415  0.0407170804786656  0.5220824022778363
  0.6918853209134708  0.2986632710723127  0.7887736928506512
  0.8146994665439490  0.3638011881762697  0.1660816975477761
  0.4356696485437491  0.1249961586728925  0.4330659785576706
  0.0640030979153342  0.2090995478704512  0.4779093918687183
  0.3130576972484423  0.0413162475763418  0.6557715681646309
  0.4362416305575921  0.7908033121266462  0.5220885045554886
  0.1866704079465314  0.1367609776282676  0.8341246005629083
  0.1863761354703814  0.2788694098681703  0.1244720066213469
  0.9366295980924461  0.4582045188859873  0.3441483692737087
  0.5649969728468829  0.8646295187783521  0.1659203474449606
  0.3075896418215581  0.7001686291331058  0.2111223997331011
  0.9358890829649816  0.6251838282757987  0.4330818399481013
  0.1882302747545536  0.4578422973326322  0.6114178839367156
  0.0671086761058410  0.8767468754885694  0.7002591406611959
  0.0630968830274105  0.5415088574122384  0.6558695432081116
  0.3118838822287205  0.5314233269724881  0.1241970731447987
  0.9361736202236065  0.7919939153126266  0.3884682594123929
  0.9414272320473153  0.2986707054284363  0.7888472894589819
  0.1880589399314426  0.2915214837424880  0.6558165141119254
  0.9384977339354283  0.9581871935884599  0.6114911655783928
  0.8135438659243227  0.7131032351044525  0.7445447946541159
  0.6861942686462157  0.2871018668633913  0.2554262999715262
  0.0640617910485761  0.7130790764928274  0.7444200322840567
  0.6830077255748742  0.4513148927564739  0.2112509413644177
  0.8138116754892887  0.2090990335850166  0.4778818513122262
  0.5638778544308278  0.7089363674105738  0.4778094876995496
  0.0639424148033752  0.8642067295792359  0.1660639235802478
  0.9362393272082659  0.2910008160685286  0.5221016061720429
  0.6876734712676085  0.7914335876477794  0.6557848562907894
  0.0612329314659073  0.8748943347855742  0.4330094896994372
  0.0655478139719947  0.2194198446189182  0.8757758529539335
  0.8131041782382662  0.0411658149247302  0.6557253693069782
  0.5608907588223186  0.0299169919186397  0.1244021184103284
  0.3107813798490422  0.3753335653526655  0.4331178580704305
  0.3139523525779714  0.3746970770146517  0.5667874635616532
  0.3136235273925114  0.7090056946155252  0.4778108590320412
  0.0614487834431491  0.0408198236178794  0.5220862828533486
  0.3170000257204133  0.8765904993684097  0.7004015217742502
  0.0614472256937482  0.5370114090329638  0.2555876138473829
  0.6867080273951395  0.1372167531569302  0.8340906851280057
  0.8114393654036888  0.0367972771651576  0.2554965247880878
  0.1864867417883862  0.1249314093534752  0.4330519954781243
  0.6919986138771271  0.1264665120688279  0.7003302095486280
  0.1864035538199710  0.2907135760275601  0.5221757796950754
  0.4363237757044777  0.7873034538344976  0.2555269525502077
  0.4384397635397895  0.6125801360856832  0.1660609081165162
  0.0632296029058064  0.2078956367767295  0.6113941132787696
  0.1866707930584605  0.7916863738362256  0.3883807045321141
  0.3112778707458773  0.5408359983479458  0.5220758635800303
  0.8170039564186953  0.3766356834174279  0.7003386269096511
  0.6865948551824088  0.2919138983088191  0.3884651942875579
  0.1889563982915761  0.1245947430653570  0.5667948317400682
  0.6889304183910218  0.9717589162911922  0.8755064365891186
  0.6889970119177790  0.1247596699435360  0.5668235026361748
  0.4367252801001232  0.9583564917953229  0.3442319174465678
  0.1885277071577828  0.9628489837454908  0.7444982158073941
  0.9363669612996831  0.7873425063760139  0.2555586243442377
  0.5610798619305128  0.8747334420129933  0.4330039477033605
  0.3108294418659380  0.8744343378347822  0.4330489041980460
  0.8111195187511520  0.5403204659046557  0.5220540239052067
  0.9328525536587703  0.4507052981164539  0.2114198903165156
  0.3113286965334376  0.5368511310848652  0.2555641162280961
  0.5614065727319969  0.0416189176139991  0.3884435603109126
  0.9383364800468130  0.4577117154931644  0.6114430355372780
  0.0613337519897294  0.0417218978133940  0.3884394023235972
  0.0613525582437336  0.5417090298902203  0.3884903481391097
  0.4364733432237022  0.2918452583706027  0.3884247785469678
  0.6886064160831070  0.4591486182201304  0.4778799291328361
  0.0640512637930759  0.3746084853712819  0.5668457274250867
  0.5576418006552832  0.7009040536358400  0.2111890561746766
  0.9363486254623844  0.2866666246967343  0.2555489367208547
  0.8165211194385953  0.0494790763970711  0.7889071714912415
  0.1867490727296666  0.9582079796918342  0.3441459798053799
  0.5578033836288835  0.8732649438936827  0.2996951502974698
  0.0611464663784868  0.3749970124609796  0.4330276481882753
  0.3117244399848757  0.7078803105178353  0.3441700321950264
  0.3115956296967560  0.2080913148775850  0.3442193849581304
  0.9390811471437809  0.1248230244923574  0.5668099357765246
  0.4381476386327811  0.9579603942317111  0.6114340416528037
  0.5605962424407268  0.0371209392316993  0.2555299587337720
  0.1862096275086769  0.7792881476679244  0.1243544469933407
  0.0617308030036550  0.0369060827480011  0.2554871969505837
  0.6888543376019298  0.6247486974247510  0.5668483795056191
  0.0609422779158609  0.5298624048002161  0.1241429229390331
  0.3110625555769624  0.0410887902611115  0.5220723413950065
  0.6874199880090821  0.2792629662836367  0.1247563126140232
  0.8137611310249137  0.7087920115320152  0.4778306822771867
  0.4367445707598454  0.1366418368933845  0.8339796924123887
  0.3172161730514576  0.3762817017250314  0.7003631061819806
  0.6869382862248965  0.6370913085775025  0.8341075580816685
  0.5632993128804689  0.7127780678640735  0.7444718113764339
  0.9361493184600822  0.2918837644647196  0.3884212867195836
  0.9392786906425735  0.9713484277784397  0.8754798877799845
  0.5635353835445708  0.2082206751959298  0.6114639077272016
  0.8139117298207357  0.8748284778178861  0.5668299786885602
  0.8075157725713746  0.8732330121281392  0.2996521932811850
  0.3110973601523039  0.0367344868770106  0.2555751506875212
  0.4372775505119330  0.2801102944066428  0.1242972944142505
  0.3132348524342061  0.7079593929117326  0.6114440711825805
  0.4357963182368975  0.6250319791703658  0.4330326459757198
  0.9388268259326773  0.6131532489539387  0.1657695791048478
  0.3151339624288843  0.8637328293154204  0.1656502281291360
  0.0670121253724586  0.5492339245372280  0.7887832956104182
  0.9357525176607647  0.1249208761947637  0.4330727913880438
  0.3150725460886049  0.3629834335826851  0.1655942615002809
  0.9376876094206841  0.9631273794639952  0.7446213774368997
  0.8119316167795527  0.5368408920501130  0.2553909752002249
 
  0.00000000E+00  0.00000000E+00  0.00000000E+00
  0.00000000E+00  0.00000000E+00  0.00000000E+00
  0.00000000E+00  0.00000000E+00  0.00000000E+00
  0.00000000E+00  0.00000000E+00  0.00000000E+00
  0.00000000E+00  0.00000000E+00  0.00000000E+00
  0.00000000E+00  0.00000000E+00  0.00000000E+00
  0.00000000E+00  0.00000000E+00  0.00000000E+00
  0.00000000E+00  0.00000000E+00  0.00000000E+00
  0.00000000E+00  0.00000000E+00  0.00000000E+00
  0.00000000E+00  0.00000000E+00  0.00000000E+00
  0.00000000E+00  0.00000000E+00  0.00000000E+00
  0.00000000E+00  0.00000000E+00  0.00000000E+00
  0.00000000E+00  0.00000000E+00  0.00000000E+00
  0.00000000E+00  0.00000000E+00  0.00000000E+00
  0.00000000E+00  0.00000000E+00  0.00000000E+00
  0.00000000E+00  0.00000000E+00  0.00000000E+00
  0.00000000E+00  0.00000000E+00  0.00000000E+00
  0.00000000E+00  0.00000000E+00  0.00000000E+00
  0.00000000E+00  0.00000000E+00  0.00000000E+00
  0.00000000E+00  0.00000000E+00  0.00000000E+00
  0.00000000E+00  0.00000000E+00  0.00000000E+00
  0.00000000E+00  0.00000000E+00  0.00000000E+00
  0.00000000E+00  0.00000000E+00  0.00000000E+00
  0.00000000E+00  0.00000000E+00  0.00000000E+00
  0.00000000E+00  0.00000000E+00  0.00000000E+00
  0.00000000E+00  0.00000000E+00  0.00000000E+00
  0.00000000E+00  0.00000000E+00  0.00000000E+00
  0.00000000E+00  0.00000000E+00  0.00000000E+00
  0.00000000E+00  0.00000000E+00  0.00000000E+00
  0.00000000E+00  0.00000000E+00  0.00000000E+00
  0.00000000E+00  0.00000000E+00  0.00000000E+00
  0.00000000E+00  0.00000000E+00  0.00000000E+00
  0.00000000E+00  0.00000000E+00  0.00000000E+00
  0.00000000E+00  0.00000000E+00  0.00000000E+00
  0.00000000E+00  0.00000000E+00  0.00000000E+00
  0.00000000E+00  0.00000000E+00  0.00000000E+00
  0.00000000E+00  0.00000000E+00  0.00000000E+00
  0.00000000E+00  0.00000000E+00  0.00000000E+00
  0.00000000E+00  0.00000000E+00  0.00000000E+00
  0.00000000E+00  0.00000000E+00  0.00000000E+00
  0.00000000E+00  0.00000000E+00  0.00000000E+00
  0.00000000E+00  0.00000000E+00  0.00000000E+00
  0.00000000E+00  0.00000000E+00  0.00000000E+00
  0.00000000E+00  0.00000000E+00  0.00000000E+00
  0.00000000E+00  0.00000000E+00  0.00000000E+00
  0.00000000E+00  0.00000000E+00  0.00000000E+00
  0.00000000E+00  0.00000000E+00  0.00000000E+00
  0.00000000E+00  0.00000000E+00  0.00000000E+00
  0.00000000E+00  0.00000000E+00  0.00000000E+00
  0.00000000E+00  0.00000000E+00  0.00000000E+00
  0.00000000E+00  0.00000000E+00  0.00000000E+00
  0.00000000E+00  0.00000000E+00  0.00000000E+00
  0.00000000E+00  0.00000000E+00  0.00000000E+00
  0.00000000E+00  0.00000000E+00  0.00000000E+00
  0.00000000E+00  0.00000000E+00  0.00000000E+00
  0.00000000E+00  0.00000000E+00  0.00000000E+00
  0.00000000E+00  0.00000000E+00  0.00000000E+00
  0.00000000E+00  0.00000000E+00  0.00000000E+00
  0.00000000E+00  0.00000000E+00  0.00000000E+00
  0.00000000E+00  0.00000000E+00  0.00000000E+00
  0.00000000E+00  0.00000000E+00  0.00000000E+00
  0.00000000E+00  0.00000000E+00  0.00000000E+00
  0.00000000E+00  0.00000000E+00  0.00000000E+00
  0.00000000E+00  0.00000000E+00  0.00000000E+00
  0.00000000E+00  0.00000000E+00  0.00000000E+00
  0.00000000E+00  0.00000000E+00  0.00000000E+00
  0.00000000E+00  0.00000000E+00  0.00000000E+00
  0.00000000E+00  0.00000000E+00  0.00000000E+00
  0.00000000E+00  0.00000000E+00  0.00000000E+00
  0.00000000E+00  0.00000000E+00  0.00000000E+00
  0.00000000E+00  0.00000000E+00  0.00000000E+00
  0.00000000E+00  0.00000000E+00  0.00000000E+00
  0.00000000E+00  0.00000000E+00  0.00000000E+00
  0.00000000E+00  0.00000000E+00  0.00000000E+00
  0.00000000E+00  0.00000000E+00  0.00000000E+00
  0.00000000E+00  0.00000000E+00  0.00000000E+00
  0.00000000E+00  0.00000000E+00  0.00000000E+00
  0.00000000E+00  0.00000000E+00  0.00000000E+00
  0.00000000E+00  0.00000000E+00  0.00000000E+00
  0.00000000E+00  0.00000000E+00  0.00000000E+00
  0.00000000E+00  0.00000000E+00  0.00000000E+00
  0.00000000E+00  0.00000000E+00  0.00000000E+00
  0.00000000E+00  0.00000000E+00  0.00000000E+00
  0.00000000E+00  0.00000000E+00  0.00000000E+00
  0.00000000E+00  0.00000000E+00  0.00000000E+00
  0.00000000E+00  0.00000000E+00  0.00000000E+00
  0.00000000E+00  0.00000000E+00  0.00000000E+00
  0.00000000E+00  0.00000000E+00  0.00000000E+00
  0.00000000E+00  0.00000000E+00  0.00000000E+00
  0.00000000E+00  0.00000000E+00  0.00000000E+00
  0.00000000E+00  0.00000000E+00  0.00000000E+00
  0.00000000E+00  0.00000000E+00  0.00000000E+00
  0.00000000E+00  0.00000000E+00  0.00000000E+00
  0.00000000E+00  0.00000000E+00  0.00000000E+00
  0.00000000E+00  0.00000000E+00  0.00000000E+00
  0.00000000E+00  0.00000000E+00  0.00000000E+00
  0.00000000E+00  0.00000000E+00  0.00000000E+00
  0.00000000E+00  0.00000000E+00  0.00000000E+00
  0.00000000E+00  0.00000000E+00  0.00000000E+00
  0.00000000E+00  0.00000000E+00  0.00000000E+00
  0.00000000E+00  0.00000000E+00  0.00000000E+00
  0.00000000E+00  0.00000000E+00  0.00000000E+00
  0.00000000E+00  0.00000000E+00  0.00000000E+00
  0.00000000E+00  0.00000000E+00  0.00000000E+00
  0.00000000E+00  0.00000000E+00  0.00000000E+00
  0.00000000E+00  0.00000000E+00  0.00000000E+00
  0.00000000E+00  0.00000000E+00  0.00000000E+00
  0.00000000E+00  0.00000000E+00  0.00000000E+00
  0.00000000E+00  0.00000000E+00  0.00000000E+00
  0.00000000E+00  0.00000000E+00  0.00000000E+00
  0.00000000E+00  0.00000000E+00  0.00000000E+00
  0.00000000E+00  0.00000000E+00  0.00000000E+00
  0.00000000E+00  0.00000000E+00  0.00000000E+00
  0.00000000E+00  0.00000000E+00  0.00000000E+00
  0.00000000E+00  0.00000000E+00  0.00000000E+00
  0.00000000E+00  0.00000000E+00  0.00000000E+00
  0.00000000E+00  0.00000000E+00  0.00000000E+00
  0.00000000E+00  0.00000000E+00  0.00000000E+00
  0.00000000E+00  0.00000000E+00  0.00000000E+00
  0.00000000E+00  0.00000000E+00  0.00000000E+00
  0.00000000E+00  0.00000000E+00  0.00000000E+00
  0.00000000E+00  0.00000000E+00  0.00000000E+00
  0.00000000E+00  0.00000000E+00  0.00000000E+00
  0.00000000E+00  0.00000000E+00  0.00000000E+00
  0.00000000E+00  0.00000000E+00  0.00000000E+00
  0.00000000E+00  0.00000000E+00  0.00000000E+00
  0.00000000E+00  0.00000000E+00  0.00000000E+00
  0.00000000E+00  0.00000000E+00  0.00000000E+00
  0.00000000E+00  0.00000000E+00  0.00000000E+00
  0.00000000E+00  0.00000000E+00  0.00000000E+00
  0.00000000E+00  0.00000000E+00  0.00000000E+00
  0.00000000E+00  0.00000000E+00  0.00000000E+00
  0.00000000E+00  0.00000000E+00  0.00000000E+00
  0.00000000E+00  0.00000000E+00  0.00000000E+00
  0.00000000E+00  0.00000000E+00  0.00000000E+00
  0.00000000E+00  0.00000000E+00  0.00000000E+00
  0.00000000E+00  0.00000000E+00  0.00000000E+00
  0.00000000E+00  0.00000000E+00  0.00000000E+00
  0.00000000E+00  0.00000000E+00  0.00000000E+00
  0.00000000E+00  0.00000000E+00  0.00000000E+00
  0.00000000E+00  0.00000000E+00  0.00000000E+00
  0.00000000E+00  0.00000000E+00  0.00000000E+00
  0.00000000E+00  0.00000000E+00  0.00000000E+00
  0.00000000E+00  0.00000000E+00  0.00000000E+00
  0.00000000E+00  0.00000000E+00  0.00000000E+00
  0.00000000E+00  0.00000000E+00  0.00000000E+00
  0.00000000E+00  0.00000000E+00  0.00000000E+00
  0.00000000E+00  0.00000000E+00  0.00000000E+00
  0.00000000E+00  0.00000000E+00  0.00000000E+00
  0.00000000E+00  0.00000000E+00  0.00000000E+00
  0.00000000E+00  0.00000000E+00  0.00000000E+00
  0.00000000E+00  0.00000000E+00  0.00000000E+00
  0.00000000E+00  0.00000000E+00  0.00000000E+00
  0.00000000E+00  0.00000000E+00  0.00000000E+00
  0.00000000E+00  0.00000000E+00  0.00000000E+00
  0.00000000E+00  0.00000000E+00  0.00000000E+00
  0.00000000E+00  0.00000000E+00  0.00000000E+00
  0.00000000E+00  0.00000000E+00  0.00000000E+00
  0.00000000E+00  0.00000000E+00  0.00000000E+00
  0.00000000E+00  0.00000000E+00  0.00000000E+00
  0.00000000E+00  0.00000000E+00  0.00000000E+00
  0.00000000E+00  0.00000000E+00  0.00000000E+00
  0.00000000E+00  0.00000000E+00  0.00000000E+00
  0.00000000E+00  0.00000000E+00  0.00000000E+00
  0.00000000E+00  0.00000000E+00  0.00000000E+00
  0.00000000E+00  0.00000000E+00  0.00000000E+00
  0.00000000E+00  0.00000000E+00  0.00000000E+00
  0.00000000E+00  0.00000000E+00  0.00000000E+00
  0.00000000E+00  0.00000000E+00  0.00000000E+00
  0.00000000E+00  0.00000000E+00  0.00000000E+00
  0.00000000E+00  0.00000000E+00  0.00000000E+00
  0.00000000E+00  0.00000000E+00  0.00000000E+00
  0.00000000E+00  0.00000000E+00  0.00000000E+00
  0.00000000E+00  0.00000000E+00  0.00000000E+00
  0.00000000E+00  0.00000000E+00  0.00000000E+00
  0.00000000E+00  0.00000000E+00  0.00000000E+00
  0.00000000E+00  0.00000000E+00  0.00000000E+00
  0.00000000E+00  0.00000000E+00  0.00000000E+00
  0.00000000E+00  0.00000000E+00  0.00000000E+00
  0.00000000E+00  0.00000000E+00  0.00000000E+00
  0.00000000E+00  0.00000000E+00  0.00000000E+00
  0.00000000E+00  0.00000000E+00  0.00000000E+00
  0.00000000E+00  0.00000000E+00  0.00000000E+00
  0.00000000E+00  0.00000000E+00  0.00000000E+00
  0.00000000E+00  0.00000000E+00  0.00000000E+00
  0.00000000E+00  0.00000000E+00  0.00000000E+00
  0.00000000E+00  0.00000000E+00  0.00000000E+00
  0.00000000E+00  0.00000000E+00  0.00000000E+00
  0.00000000E+00  0.00000000E+00  0.00000000E+00
  0.00000000E+00  0.00000000E+00  0.00000000E+00
  0.00000000E+00  0.00000000E+00  0.00000000E+00
  0.00000000E+00  0.00000000E+00  0.00000000E+00
  0.00000000E+00  0.00000000E+00  0.00000000E+00
  0.00000000E+00  0.00000000E+00  0.00000000E+00
  0.00000000E+00  0.00000000E+00  0.00000000E+00
  0.00000000E+00  0.00000000E+00  0.00000000E+00
  0.00000000E+00  0.00000000E+00  0.00000000E+00
  0.00000000E+00  0.00000000E+00  0.00000000E+00
  0.00000000E+00  0.00000000E+00  0.00000000E+00
  0.00000000E+00  0.00000000E+00  0.00000000E+00
  0.00000000E+00  0.00000000E+00  0.00000000E+00
  0.00000000E+00  0.00000000E+00  0.00000000E+00
  0.00000000E+00  0.00000000E+00  0.00000000E+00
  0.00000000E+00  0.00000000E+00  0.00000000E+00
  0.00000000E+00  0.00000000E+00  0.00000000E+00
  0.00000000E+00  0.00000000E+00  0.00000000E+00
  0.00000000E+00  0.00000000E+00  0.00000000E+00
  0.00000000E+00  0.00000000E+00  0.00000000E+00
  0.00000000E+00  0.00000000E+00  0.00000000E+00
  0.00000000E+00  0.00000000E+00  0.00000000E+00
  0.00000000E+00  0.00000000E+00  0.00000000E+00
  0.00000000E+00  0.00000000E+00  0.00000000E+00
  0.00000000E+00  0.00000000E+00  0.00000000E+00
  0.00000000E+00  0.00000000E+00  0.00000000E+00
  0.00000000E+00  0.00000000E+00  0.00000000E+00
  0.00000000E+00  0.00000000E+00  0.00000000E+00
  0.00000000E+00  0.00000000E+00  0.00000000E+00
  0.00000000E+00  0.00000000E+00  0.00000000E+00
  0.00000000E+00  0.00000000E+00  0.00000000E+00
  0.00000000E+00  0.00000000E+00  0.00000000E+00
  0.00000000E+00  0.00000000E+00  0.00000000E+00
  0.00000000E+00  0.00000000E+00  0.00000000E+00
  0.00000000E+00  0.00000000E+00  0.00000000E+00
  0.00000000E+00  0.00000000E+00  0.00000000E+00
  0.00000000E+00  0.00000000E+00  0.00000000E+00
  0.00000000E+00  0.00000000E+00  0.00000000E+00
  0.00000000E+00  0.00000000E+00  0.00000000E+00
  0.00000000E+00  0.00000000E+00  0.00000000E+00
  0.00000000E+00  0.00000000E+00  0.00000000E+00
  0.00000000E+00  0.00000000E+00  0.00000000E+00
  0.00000000E+00  0.00000000E+00  0.00000000E+00
  0.00000000E+00  0.00000000E+00  0.00000000E+00
  0.00000000E+00  0.00000000E+00  0.00000000E+00
  0.00000000E+00  0.00000000E+00  0.00000000E+00
  0.00000000E+00  0.00000000E+00  0.00000000E+00
  0.00000000E+00  0.00000000E+00  0.00000000E+00
  0.00000000E+00  0.00000000E+00  0.00000000E+00
  0.00000000E+00  0.00000000E+00  0.00000000E+00
  0.00000000E+00  0.00000000E+00  0.00000000E+00
  0.00000000E+00  0.00000000E+00  0.00000000E+00
  0.00000000E+00  0.00000000E+00  0.00000000E+00
  0.00000000E+00  0.00000000E+00  0.00000000E+00
  0.00000000E+00  0.00000000E+00  0.00000000E+00
  0.00000000E+00  0.00000000E+00  0.00000000E+00
  0.00000000E+00  0.00000000E+00  0.00000000E+00
  0.00000000E+00  0.00000000E+00  0.00000000E+00
  0.00000000E+00  0.00000000E+00  0.00000000E+00