CuInSe2gb                               
   1.00000000000000     
     9.7266780392896699    0.0000000000000000    0.0000000000000000
     0.0000000000000000    8.4235502764570693    0.0000000000000000
     0.0000000000000000    0.0000000000000000   45.0000000000000000
   Fe   Mn
   281     7
Direct
  0.0543889136986624  0.7006763606117640  0.2113572079963125
  0.3184233876501561  0.7236466345754632  0.8762617483375763
  0.6882026805162120  0.9584651833773760  0.6114842593042512
  0.4382210339805242  0.4584181874238085  0.6115948647829359
  0.4405299774557001  0.2873865232237099  0.2551967220824075
  0.0584608553604744  0.3886043404158207  0.8335497316962936
  0.3085362421629259  0.8876030894818244  0.8335151732746267
  0.4469081579609218  0.6262851165767348  0.7004006067330121
  0.0597994717873665  0.2127126933102507  0.7449208369119342
  0.1785390727985894  0.4511251002128052  0.2113681212583515
  0.5677657107074391  0.2105692695808325  0.4774072684632875
  0.0666179624889341  0.8749236978100131  0.5668843227069631
  0.5681541783086745  0.2239416033751704  0.8761078061585106
  0.8100793350831645  0.5282406513916607  0.1239059269516324
  0.4289522314444417  0.9513714233793698  0.2113917603097295
  0.5667132641470243  0.3749840991991741  0.5667951871579513
  0.8110369770434583  0.0416965505818004  0.3883075115336803
  0.6824452646186648  0.7885134308731823  0.5222953006999210
  0.4428282345944751  0.4606726815707564  0.4774482146282026
  0.4337385408049189  0.9626455531938347  0.7447455750780833
  0.4413933812980242  0.6251338297008351  0.5668499697138263
  0.5714250879799991  0.8764736357960031  0.7005496464266872
  0.3101165239418178  0.0265118776344825  0.1239428946894820
  0.6896753787387844  0.9589334740502781  0.3439411594673727
  0.6875024474008710  0.7822925187243057  0.1242352996249140
  0.0528563361714050  0.3736666715892979  0.2995977478148393
  0.6897944380812260  0.4678612496113045  0.8760868298022351
  0.4287890686860495  0.4510280477580167  0.2114992863214124
  0.8087126332697846  0.3750413895824535  0.4330942681250634
  0.5634452479552428  0.7083666545597890  0.6115687159348852
  0.5596560817750816  0.5406188061596021  0.6558738281686382
  0.8178734301172033  0.8615759083554180  0.1665945365674479
  0.5657065518895095  0.5375361125355967  0.2552037638789912
  0.6899621890518862  0.4587359646374239  0.3440885191852825
  0.1914129582956507  0.6118629285235236  0.1663222792692046
  0.1945498232241236  0.7993920500761265  0.7888384652795895
  0.4471806959190215  0.1259575543578127  0.7004183437472064
  0.9276638297868920  0.6236486374476600  0.2996992934917472
  0.3175443541426627  0.2236389016736443  0.8761291183884925
  0.3166918335304171  0.8749249891588829  0.5668766990923032
  0.8174254771907540  0.2238859089756223  0.8761984409984539
  0.8096456853269862  0.5405982522401939  0.6558371946099492
  0.5594033262282275  0.5279637886041543  0.1239781751095335
  0.5693771607954192  0.0496842985541744  0.7889674096711955
  0.1909712048229668  0.2874736587053623  0.2552327460590574
  0.8086144921354013  0.8750762543942586  0.4330984287448346
  0.5721623725640810  0.3763473258874165  0.7003846869123723
  0.0586545998282859  0.0285450052022008  0.1241620837263431
  0.3096500087221413  0.5406793223863164  0.6558920240373182
  0.5649163110304322  0.2088984149863234  0.3440135252347869
  0.1880928363521346  0.9583990132723498  0.6114957305892308
  0.3029610354597481  0.3738438524746825  0.2995617186079110
  0.4346161705459372  0.7904755615872371  0.6559611942549742
  0.1949251792861721  0.2991324958760425  0.7888171723255900
  0.0669619385931649  0.3627615205927903  0.1665557841870335
  0.6970747846209580  0.6261286637038652  0.7004539509472533
  0.3111923765727748  0.5413900945727422  0.3884316288932226
  0.0675060338538852  0.7233503783556651  0.8761811583770587
  0.9337084519399914  0.6375653576298180  0.8339184170281878
  0.3196426431279874  0.5496458180446093  0.7889094761738455
  0.3046323145178005  0.2003950887324782  0.2111850821166503
  0.0678015625946790  0.7105419722779770  0.4774256858263251
  0.5536045628319013  0.2011449906523564  0.2112165736164463
  0.3096855271975597  0.2124145140647507  0.7449425812532321
  0.0719721315540294  0.3764177432680241  0.7005346305789178
  0.1832341792829824  0.6376694269495989  0.8335648385556651
  0.0695956055851005  0.0495606278264131  0.7890027020780713
  0.4416118460870828  0.1249005194836157  0.5669016110282955
  0.9347653887767559  0.2907369081301348  0.6558234629214548
  0.8041262247258838  0.2012118104322631  0.2111695750928051
  0.9290329234595195  0.9513215840689300  0.2112592339531459
  0.9417857409033650  0.6250883399403503  0.5667716716893393
  0.8083881894447105  0.3876283933772585  0.8335354847604670
  0.1970662328505899  0.6262300346221941  0.7003355235040190
  0.8085857208709163  0.8877453753614302  0.8335693522218343
  0.6849549111134022  0.2907428422251513  0.6560430208075954
  0.3131973383303513  0.2082626030156660  0.6114925542678107
  0.4345953368507471  0.4626612345692914  0.7448787487581501
  0.4362200519009585  0.7911019135637941  0.3884342087603818
  0.6844987476586923  0.9625755722194471  0.7448578029224758
  0.8029629484893400  0.7007935585728151  0.2114109562304077
  0.8133913174486386  0.7083749715965267  0.6115722192760729
  0.4372576691880482  0.7840287039227225  0.1239658913917067
  0.3097396563087583  0.7120921017162559  0.7448067959863905
  0.3201141529242510  0.0494427613538030  0.7888610176294143
  0.8113630645965749  0.5417915568837900  0.3884092093447016
  0.6820206997731932  0.2889421376795063  0.5224137839930715
  0.6949694032634675  0.7992714127000305  0.7889027532263641
  0.1906395696826245  0.7875759654162611  0.2552536266932216
  0.6913164816698335  0.1125444127012473  0.1666218760952469
  0.6928485560328227  0.9607513330979759  0.4774568606304975
  0.9401511115050186  0.9588368487986367  0.3441608219847703
  0.8074122208965414  0.0393543738462977  0.5224847572913365
  0.6836008541590204  0.6249244826678951  0.4329371389918862
  0.4398591464800973  0.4588102469219654  0.3440132214508512
  0.8105618965528577  0.2115976639204035  0.7445917642369343
  0.4396195356181132  0.9679327125004313  0.8760919023252821
  0.5663756024385176  0.8748888184821771  0.5668661524380380
  0.8085442732361090  0.0290141112577472  0.1240227697476263
  0.4280648871679086  0.6234181342259943  0.2993899905180200
  0.8171035241622545  0.7238151711943102  0.8763075306170068
  0.6882861042797435  0.4586585480465396  0.6115263434515980
  0.5583265562897285  0.3874911326873970  0.8334721317529231
  0.8031284691259970  0.3734437788057028  0.2994559987672699
  0.1860035965677288  0.2911112762015532  0.3884074095979727
  0.8198574760625823  0.5495702289300739  0.7889249619694298
  0.1822018669242813  0.7892331275333816  0.5225060725241747
  0.3029168083537755  0.8737841861108181  0.2996191081599989
  0.1785457620898937  0.9510419884802190  0.2112807758579223
  0.1844580217912749  0.4625730322300460  0.7449655477774807
  0.4322868489340567  0.2891032385314066  0.5224350384217098
  0.0649300189492482  0.7084490746564086  0.3439580936076173
  0.1848301469450841  0.7906512057830630  0.6558698083159596
  0.4445653468357186  0.7992429505052546  0.7888559827192725
  0.6836104557426299  0.1250343596603028  0.4330507276563440
  0.9319312956472141  0.7889028671936188  0.5224880405362901
  0.6917804936723136  0.6126781449204819  0.1666861085977617
  0.8145606130474338  0.7085605352872594  0.3438995620965703
  0.9341827156273644  0.4626383152115525  0.7449212701678815
  0.1898814433538316  0.4585770000982193  0.3440230649261657
  0.5698032172453293  0.5497703014784400  0.7890356291824508
  0.5663590543684659  0.3626173085990523  0.1664526336856735
  0.5645863241861052  0.7084393518784269  0.3439941254486795
  0.5529833151215284  0.3735256220495656  0.2995757428851457
  0.1896837552508488  0.4680699871063879  0.8760941387973991
  0.1917398716365307  0.1114657373649560  0.1663567707262376
  0.4445871623023462  0.2990595721355082  0.7888338338485034
  0.6907535277203488  0.7873157032144120  0.2554578836125233
  0.9335968460440305  0.1378601134590551  0.8335410075361804
  0.4428720849002182  0.9606505490689597  0.4774505950143106
  0.5674422044612895  0.7246550704045158  0.8762175996608339
  0.1928125253582212  0.4607577676566856  0.4774627684735307
  0.9345768688458439  0.2824705137913372  0.1241718693541270
  0.3115347258247763  0.0413454249541127  0.3884273400544745
  0.0600629515124558  0.0404262955493118  0.6560379490653392
  0.5585171334953716  0.3748364381261220  0.4330480253657039
  0.6841213531502482  0.4627713625922190  0.7449833910690741
  0.5600421406012268  0.2126645377452178  0.7448474083086274
  0.9471522687474510  0.1262326007855260  0.7003543281985526
  0.5597045972429608  0.0407894862366605  0.6558588536879433
  0.5569014512401337  0.5390219084965409  0.5224600148903621
  0.1777599439774933  0.1236736720452410  0.2995473709926270
  0.4414118622481265  0.1105864549372814  0.1664878477986278
  0.6778207591970947  0.6234618366694556  0.2996272334203011
  0.9280374363147657  0.1235815303169805  0.2995740380995995
  0.8167143319915955  0.3751531223399129  0.5668520724664841
  0.0526743503180508  0.8738646317488095  0.2995877961784502
  0.1915670778432222  0.6249192307339138  0.5668793106379812
  0.9446795679948122  0.7995621199740897  0.7888368028042088
  0.3084119303006082  0.3874205756008996  0.8335163239907513
  0.9397487130020440  0.4683528356044268  0.8761049973077351
  0.4336825111692160  0.6378044194219765  0.8335146854635811
  0.0645590152508295  0.2085672373855491  0.3438744859340692
  0.1897649395088152  0.9680677482325820  0.8760975048492980
  0.9355171652361202  0.7815873209696541  0.1242252822895988
  0.6863152119588132  0.7916632050965151  0.3883970535136055
  0.9347429578682724  0.7906401841781685  0.6559111439781398
  0.9413401273469179  0.1122689150626352  0.1664620169979975
  0.4351045738531973  0.2907216325583165  0.6560808670093313
  0.0541555330468652  0.2007972296224656  0.2112726465398528
  0.6787164510058481  0.9513872321167320  0.2112965736845537
  0.1782884308523430  0.6237726068046310  0.2995243897288015
  0.8220358536685490  0.8761031979934952  0.7004128046624658
  0.9468264791246442  0.6264140701000621  0.7005079119007919
  0.1970729959262435  0.1262337446897851  0.7003442704751235
  0.9426631370281439  0.4605540088821106  0.4772951054872806
  0.8133332067489523  0.2084853109141927  0.6115355471242110
  0.1835263240799005  0.6246096433554619  0.4330801519665833
  0.4277849961432860  0.1237751303248556  0.2995111569785892
  0.6779918391081038  0.1236726528126440  0.2994202991824855
  0.5617367381640286  0.5415769046082750  0.3884439387266233
  0.8144338259880677  0.2079453334566348  0.3440003037958623
  0.4396300004984799  0.4678003152006696  0.8759473264438375
  0.5584025594970905  0.8875418623995889  0.8335052531032838
  0.3178352928026474  0.2105795238461192  0.4773237591505962
  0.1926539572002997  0.9607911436308616  0.4773731873442510
  0.0584897178365849  0.8877094952183650  0.8334554893495468
  0.0572994557939767  0.5391983854678075  0.5224793751050714
  0.9429137955857477  0.9607595694753720  0.4773596007213129
  0.0632945384278724  0.7083421857989504  0.6115916126246742
  0.5569705372522165  0.0390547972376480  0.5224362304081415
  0.6950320811891583  0.2991545963870280  0.7887694439456769
  0.8179810129407941  0.3627276751200736  0.1666509736531047
  0.4336837617743748  0.1247659695884266  0.4329250784181181
  0.0678892542281576  0.2107436149170304  0.4774481687337971
  0.3099443313499095  0.0407963078467414  0.6559490344107689
  0.4321464011785469  0.7889011650041754  0.5222846213412583
  0.1836336156298101  0.1378139464655659  0.8336043331370110
  0.1860276527962836  0.2826831586318867  0.1243325873840412
  0.9399623551623273  0.4593034955234621  0.3440306272804629
  0.5675213359623386  0.8632617125672183  0.1665290376579487
  0.3034412876664018  0.7008303613362328  0.2112648711587655
  0.9337187685956204  0.6249489487323886  0.4329983940054547
  0.1882597474541979  0.4586181846509315  0.6115365252578584
  0.0721281845717945  0.8764032919394619  0.7003291008641952
  0.0596779316592881  0.5405734457212136  0.6558943661547989
  0.3102634231550948  0.5274716150890724  0.1239998551562886
  0.9366903410329465  0.7914568144600744  0.3884270980569668
  0.9449985398215844  0.2987881533895589  0.7887506317974656
  0.1845955223989890  0.2905485772231234  0.6559002279773717
  0.9380088817960283  0.9582302673052536  0.6114203059579735
  0.8099781025602218  0.7120565530261310  0.7448274122074415
  0.6910951376052653  0.2876090601129613  0.2552417057376033
  0.0592375914596584  0.7122026511802383  0.7449836720119341
  0.6788814445546000  0.4514848879612498  0.2113219453102389
  0.8176660705271652  0.2106463036396475  0.4773405879496694
  0.5678183630900659  0.7106466878459862  0.4774730267289008
  0.0672306150595979  0.8622265460972101  0.1665428905857098
  0.9323059613117386  0.2887023219028389  0.5223190303810379
  0.6846693898419629  0.7904162552012221  0.6558762179369368
  0.0583558029864779  0.8749831267665198  0.4329771054059953
  0.0681228118227661  0.2231136704001204  0.8761645466673159
  0.8097725114870135  0.0406078398897614  0.6559259920508402
  0.5587014097245292  0.0265966760757384  0.1239212239877390
  0.3086365353915070  0.3751129401310309  0.4329473043391716
  0.3165414788450648  0.3747437106535446  0.5668234083022473
  0.3178237627030605  0.7105442926846606  0.4773910259596241
  0.0568378446347030  0.0391696448493184  0.5224474807324370
  0.3220000659130112  0.8763034380837630  0.7004920639333576
  0.0653149985758396  0.5376355402056874  0.2551457468050011
  0.6833504600383302  0.1376308200281177  0.8335225558308786
  0.8150436630558829  0.0374417038370888  0.2552072886312547
  0.1833376926684281  0.1249972156319876  0.4330931514536506
  0.6973976305545709  0.1262686685818349  0.7004148123373315
  0.1823900360799599  0.2891950525053250  0.5225077603581262
  0.4404898799747131  0.7876189501152866  0.2552664877547872
  0.4415978544449692  0.6101978324393939  0.1664590568856832
  0.0632975586654192  0.2084856326709381  0.6115101290658006
  0.1861631267757674  0.7911729834899154  0.3883608660277197
  0.3068931250432564  0.5389455158194086  0.5224414936156334
  0.8218882193875741  0.3763419896778935  0.7002767578963131
  0.6862489492615776  0.2910109462422974  0.3884183086167594
  0.1917846061803410  0.1249879443271245  0.5669269286525962
  0.6898090731865630  0.9683868941284451  0.8760766959546401
  0.6916178196298326  0.1250067024632482  0.5668936170880389
  0.4399052124429771  0.9586822618324532  0.3440151213835216
  0.1837554261993034  0.9626072810577412  0.7447494774807196
  0.9405912991293542  0.7873373568289532  0.2551568450016068
  0.5586215401916000  0.8747674635890400  0.4330140489435359
  0.3085877746596052  0.8749425140792089  0.4330579073199296
  0.8070501196735553  0.5392328804521432  0.5225281999875541
  0.9290855887367757  0.4511884254183171  0.2114273775131333
  0.3155033852952503  0.5378028901882951  0.2551936701201852
  0.5612617026829925  0.0413998925801585  0.3884303747395100
  0.9381488037051886  0.4582767237415832  0.6116021343242700
  0.0616190107746601  0.0414148144840422  0.3884286416715066
  0.0615307746013781  0.5414569898463897  0.3884018527603215
  0.4360913963851322  0.2911629359092510  0.3883801136286793
  0.6925841445837737  0.4605892912248207  0.4773689162452122
  0.0666258061127988  0.3750359836592287  0.5668826575485120
  0.5541363921779624  0.7008664751361590  0.2111511261367572
  0.9408744990434672  0.2874368738484204  0.2554242016572343
  0.8192106661763304  0.0496188151927757  0.7890623865014996
  0.1898955153983294  0.9588689291798380  0.3440133645698103
  0.5525964713542886  0.8737762169019195  0.2996358213579874
  0.0580783128610955  0.3744938019425315  0.4329889525393207
  0.3147992459140384  0.7088042061321094  0.3440028016077135
  0.3147186843905958  0.2086023041627489  0.3439439068767728
  0.9414496975609380  0.1250104985015966  0.5668524478867468
  0.4385372034066842  0.9586672380346738  0.6115202819135112
  0.5655337138190060  0.0375569826115862  0.2551806600321940
  0.1862981857385519  0.7830485791589740  0.1242712998426732
  0.0658813400401477  0.0375686149092713  0.2552768167272307
  0.6916304705241958  0.6249805227010095  0.5668943186928128
  0.0569240075499251  0.5277203048757237  0.1240560703585298
  0.3072593515611689  0.0385068226387448  0.5222655872107653
  0.6872948898227640  0.2816810199177437  0.1241932703488765
  0.8179048395868689  0.7107722134726727  0.4774735468390486
  0.4334223664717800  0.1376956087459612  0.8335286064017909
  0.3223440025548704  0.3764340970987192  0.7003859941497292
  0.6835968667001171  0.6376229496017999  0.8335049362691456
  0.5598887459816813  0.7120424746128665  0.7448648284693252
  0.9363459020083782  0.2911329462468475  0.3884403742172876
  0.9397454764251326  0.9684205997734948  0.8761368969246940
  0.5628736466754639  0.2080496602270445  0.6113215984817806
  0.8166819649138837  0.8750438671929283  0.5668925867411246
  0.8030727220659064  0.8734556121707083  0.2994862699834431
  0.3152978924563367  0.0378739518225402  0.2552521225403002
  0.4367496731549717  0.2833257679446109  0.1240089034029910
  0.3132837191749993  0.7085408932549644  0.6115480337519663
  0.4335835402279709  0.6248057779301275  0.4330617934478025
  0.9418273180534156  0.6116023565027329  0.1658749158059251
  0.3184838551856897  0.8631198953343207  0.1658349597281934
  0.0707379224030504  0.5495427364720492  0.7887851807658797
  0.9331712003358739  0.1247440821449634  0.4331319270882836
  0.3186054308188132  0.3634446899144321  0.1657720154102901
  0.9332604454015245  0.9622371026219606  0.7446814992849873
  0.8160452718320073  0.5379254928310105  0.2554719114536952
 
  0.00000000E+00  0.00000000E+00  0.00000000E+00
  0.00000000E+00  0.00000000E+00  0.00000000E+00
  0.00000000E+00  0.00000000E+00  0.00000000E+00
  0.00000000E+00  0.00000000E+00  0.00000000E+00
  0.00000000E+00  0.00000000E+00  0.00000000E+00
  0.00000000E+00  0.00000000E+00  0.00000000E+00
  0.00000000E+00  0.00000000E+00  0.00000000E+00
  0.00000000E+00  0.00000000E+00  0.00000000E+00
  0.00000000E+00  0.00000000E+00  0.00000000E+00
  0.00000000E+00  0.00000000E+00  0.00000000E+00
  0.00000000E+00  0.00000000E+00  0.00000000E+00
  0.00000000E+00  0.00000000E+00  0.00000000E+00
  0.00000000E+00  0.00000000E+00  0.00000000E+00
  0.00000000E+00  0.00000000E+00  0.00000000E+00
  0.00000000E+00  0.00000000E+00  0.00000000E+00
  0.00000000E+00  0.00000000E+00  0.00000000E+00
  0.00000000E+00  0.00000000E+00  0.00000000E+00
  0.00000000E+00  0.00000000E+00  0.00000000E+00
  0.00000000E+00  0.00000000E+00  0.00000000E+00
  0.00000000E+00  0.00000000E+00  0.00000000E+00
  0.00000000E+00  0.00000000E+00  0.00000000E+00
  0.00000000E+00  0.00000000E+00  0.00000000E+00
  0.00000000E+00  0.00000000E+00  0.00000000E+00
  0.00000000E+00  0.00000000E+00  0.00000000E+00
  0.00000000E+00  0.00000000E+00  0.00000000E+00
  0.00000000E+00  0.00000000E+00  0.00000000E+00
  0.00000000E+00  0.00000000E+00  0.00000000E+00
  0.00000000E+00  0.00000000E+00  0.00000000E+00
  0.00000000E+00  0.00000000E+00  0.00000000E+00
  0.00000000E+00  0.00000000E+00  0.00000000E+00
  0.00000000E+00  0.00000000E+00  0.00000000E+00
  0.00000000E+00  0.00000000E+00  0.00000000E+00
  0.00000000E+00  0.00000000E+00  0.00000000E+00
  0.00000000E+00  0.00000000E+00  0.00000000E+00
  0.00000000E+00  0.00000000E+00  0.00000000E+00
  0.00000000E+00  0.00000000E+00  0.00000000E+00
  0.00000000E+00  0.00000000E+00  0.00000000E+00
  0.00000000E+00  0.00000000E+00  0.00000000E+00
  0.00000000E+00  0.00000000E+00  0.00000000E+00
  0.00000000E+00  0.00000000E+00  0.00000000E+00
  0.00000000E+00  0.00000000E+00  0.00000000E+00
  0.00000000E+00  0.00000000E+00  0.00000000E+00
  0.00000000E+00  0.00000000E+00  0.00000000E+00
  0.00000000E+00  0.00000000E+00  0.00000000E+00
  0.00000000E+00  0.00000000E+00  0.00000000E+00
  0.00000000E+00  0.00000000E+00  0.00000000E+00
  0.00000000E+00  0.00000000E+00  0.00000000E+00
  0.00000000E+00  0.00000000E+00  0.00000000E+00
  0.00000000E+00  0.00000000E+00  0.00000000E+00
  0.00000000E+00  0.00000000E+00  0.00000000E+00
  0.00000000E+00  0.00000000E+00  0.00000000E+00
  0.00000000E+00  0.00000000E+00  0.00000000E+00
  0.00000000E+00  0.00000000E+00  0.00000000E+00
  0.00000000E+00  0.00000000E+00  0.00000000E+00
  0.00000000E+00  0.00000000E+00  0.00000000E+00
  0.00000000E+00  0.00000000E+00  0.00000000E+00
  0.00000000E+00  0.00000000E+00  0.00000000E+00
  0.00000000E+00  0.00000000E+00  0.00000000E+00
  0.00000000E+00  0.00000000E+00  0.00000000E+00
  0.00000000E+00  0.00000000E+00  0.00000000E+00
  0.00000000E+00  0.00000000E+00  0.00000000E+00
  0.00000000E+00  0.00000000E+00  0.00000000E+00
  0.00000000E+00  0.00000000E+00  0.00000000E+00
  0.00000000E+00  0.00000000E+00  0.00000000E+00
  0.00000000E+00  0.00000000E+00  0.00000000E+00
  0.00000000E+00  0.00000000E+00  0.00000000E+00
  0.00000000E+00  0.00000000E+00  0.00000000E+00
  0.00000000E+00  0.00000000E+00  0.00000000E+00
  0.00000000E+00  0.00000000E+00  0.00000000E+00
  0.00000000E+00  0.00000000E+00  0.00000000E+00
  0.00000000E+00  0.00000000E+00  0.00000000E+00
  0.00000000E+00  0.00000000E+00  0.00000000E+00
  0.00000000E+00  0.00000000E+00  0.00000000E+00
  0.00000000E+00  0.00000000E+00  0.00000000E+00
  0.00000000E+00  0.00000000E+00  0.00000000E+00
  0.00000000E+00  0.00000000E+00  0.00000000E+00
  0.00000000E+00  0.00000000E+00  0.00000000E+00
  0.00000000E+00  0.00000000E+00  0.00000000E+00
  0.00000000E+00  0.00000000E+00  0.00000000E+00
  0.00000000E+00  0.00000000E+00  0.00000000E+00
  0.00000000E+00  0.00000000E+00  0.00000000E+00
  0.00000000E+00  0.00000000E+00  0.00000000E+00
  0.00000000E+00  0.00000000E+00  0.00000000E+00
  0.00000000E+00  0.00000000E+00  0.00000000E+00
  0.00000000E+00  0.00000000E+00  0.00000000E+00
  0.00000000E+00  0.00000000E+00  0.00000000E+00
  0.00000000E+00  0.00000000E+00  0.00000000E+00
  0.00000000E+00  0.00000000E+00  0.00000000E+00
  0.00000000E+00  0.00000000E+00  0.00000000E+00
  0.00000000E+00  0.00000000E+00  0.00000000E+00
  0.00000000E+00  0.00000000E+00  0.00000000E+00
  0.00000000E+00  0.00000000E+00  0.00000000E+00
  0.00000000E+00  0.00000000E+00  0.00000000E+00
  0.00000000E+00  0.00000000E+00  0.00000000E+00
  0.00000000E+00  0.00000000E+00  0.00000000E+00
  0.00000000E+00  0.00000000E+00  0.00000000E+00
  0.00000000E+00  0.00000000E+00  0.00000000E+00
  0.00000000E+00  0.00000000E+00  0.00000000E+00
  0.00000000E+00  0.00000000E+00  0.00000000E+00
  0.00000000E+00  0.00000000E+00  0.00000000E+00
  0.00000000E+00  0.00000000E+00  0.00000000E+00
  0.00000000E+00  0.00000000E+00  0.00000000E+00
  0.00000000E+00  0.00000000E+00  0.00000000E+00
  0.00000000E+00  0.00000000E+00  0.00000000E+00
  0.00000000E+00  0.00000000E+00  0.00000000E+00
  0.00000000E+00  0.00000000E+00  0.00000000E+00
  0.00000000E+00  0.00000000E+00  0.00000000E+00
  0.00000000E+00  0.00000000E+00  0.00000000E+00
  0.00000000E+00  0.00000000E+00  0.00000000E+00
  0.00000000E+00  0.00000000E+00  0.00000000E+00
  0.00000000E+00  0.00000000E+00  0.00000000E+00
  0.00000000E+00  0.00000000E+00  0.00000000E+00
  0.00000000E+00  0.00000000E+00  0.00000000E+00
  0.00000000E+00  0.00000000E+00  0.00000000E+00
  0.00000000E+00  0.00000000E+00  0.00000000E+00
  0.00000000E+00  0.00000000E+00  0.00000000E+00
  0.00000000E+00  0.00000000E+00  0.00000000E+00
  0.00000000E+00  0.00000000E+00  0.00000000E+00
  0.00000000E+00  0.00000000E+00  0.00000000E+00
  0.00000000E+00  0.00000000E+00  0.00000000E+00
  0.00000000E+00  0.00000000E+00  0.00000000E+00
  0.00000000E+00  0.00000000E+00  0.00000000E+00
  0.00000000E+00  0.00000000E+00  0.00000000E+00
  0.00000000E+00  0.00000000E+00  0.00000000E+00
  0.00000000E+00  0.00000000E+00  0.00000000E+00
  0.00000000E+00  0.00000000E+00  0.00000000E+00
  0.00000000E+00  0.00000000E+00  0.00000000E+00
  0.00000000E+00  0.00000000E+00  0.00000000E+00
  0.00000000E+00  0.00000000E+00  0.00000000E+00
  0.00000000E+00  0.00000000E+00  0.00000000E+00
  0.00000000E+00  0.00000000E+00  0.00000000E+00
  0.00000000E+00  0.00000000E+00  0.00000000E+00
  0.00000000E+00  0.00000000E+00  0.00000000E+00
  0.00000000E+00  0.00000000E+00  0.00000000E+00
  0.00000000E+00  0.00000000E+00  0.00000000E+00
  0.00000000E+00  0.00000000E+00  0.00000000E+00
  0.00000000E+00  0.00000000E+00  0.00000000E+00
  0.00000000E+00  0.00000000E+00  0.00000000E+00
  0.00000000E+00  0.00000000E+00  0.00000000E+00
  0.00000000E+00  0.00000000E+00  0.00000000E+00
  0.00000000E+00  0.00000000E+00  0.00000000E+00
  0.00000000E+00  0.00000000E+00  0.00000000E+00
  0.00000000E+00  0.00000000E+00  0.00000000E+00
  0.00000000E+00  0.00000000E+00  0.00000000E+00
  0.00000000E+00  0.00000000E+00  0.00000000E+00
  0.00000000E+00  0.00000000E+00  0.00000000E+00
  0.00000000E+00  0.00000000E+00  0.00000000E+00
  0.00000000E+00  0.00000000E+00  0.00000000E+00
  0.00000000E+00  0.00000000E+00  0.00000000E+00
  0.00000000E+00  0.00000000E+00  0.00000000E+00
  0.00000000E+00  0.00000000E+00  0.00000000E+00
  0.00000000E+00  0.00000000E+00  0.00000000E+00
  0.00000000E+00  0.00000000E+00  0.00000000E+00
  0.00000000E+00  0.00000000E+00  0.00000000E+00
  0.00000000E+00  0.00000000E+00  0.00000000E+00
  0.00000000E+00  0.00000000E+00  0.00000000E+00
  0.00000000E+00  0.00000000E+00  0.00000000E+00
  0.00000000E+00  0.00000000E+00  0.00000000E+00
  0.00000000E+00  0.00000000E+00  0.00000000E+00
  0.00000000E+00  0.00000000E+00  0.00000000E+00
  0.00000000E+00  0.00000000E+00  0.00000000E+00
  0.00000000E+00  0.00000000E+00  0.00000000E+00
  0.00000000E+00  0.00000000E+00  0.00000000E+00
  0.00000000E+00  0.00000000E+00  0.00000000E+00
  0.00000000E+00  0.00000000E+00  0.00000000E+00
  0.00000000E+00  0.00000000E+00  0.00000000E+00
  0.00000000E+00  0.00000000E+00  0.00000000E+00
  0.00000000E+00  0.00000000E+00  0.00000000E+00
  0.00000000E+00  0.00000000E+00  0.00000000E+00
  0.00000000E+00  0.00000000E+00  0.00000000E+00
  0.00000000E+00  0.00000000E+00  0.00000000E+00
  0.00000000E+00  0.00000000E+00  0.00000000E+00
  0.00000000E+00  0.00000000E+00  0.00000000E+00
  0.00000000E+00  0.00000000E+00  0.00000000E+00
  0.00000000E+00  0.00000000E+00  0.00000000E+00
  0.00000000E+00  0.00000000E+00  0.00000000E+00
  0.00000000E+00  0.00000000E+00  0.00000000E+00
  0.00000000E+00  0.00000000E+00  0.00000000E+00
  0.00000000E+00  0.00000000E+00  0.00000000E+00
  0.00000000E+00  0.00000000E+00  0.00000000E+00
  0.00000000E+00  0.00000000E+00  0.00000000E+00
  0.00000000E+00  0.00000000E+00  0.00000000E+00
  0.00000000E+00  0.00000000E+00  0.00000000E+00
  0.00000000E+00  0.00000000E+00  0.00000000E+00
  0.00000000E+00  0.00000000E+00  0.00000000E+00
  0.00000000E+00  0.00000000E+00  0.00000000E+00
  0.00000000E+00  0.00000000E+00  0.00000000E+00
  0.00000000E+00  0.00000000E+00  0.00000000E+00
  0.00000000E+00  0.00000000E+00  0.00000000E+00
  0.00000000E+00  0.00000000E+00  0.00000000E+00
  0.00000000E+00  0.00000000E+00  0.00000000E+00
  0.00000000E+00  0.00000000E+00  0.00000000E+00
  0.00000000E+00  0.00000000E+00  0.00000000E+00
  0.00000000E+00  0.00000000E+00  0.00000000E+00
  0.00000000E+00  0.00000000E+00  0.00000000E+00
  0.00000000E+00  0.00000000E+00  0.00000000E+00
  0.00000000E+00  0.00000000E+00  0.00000000E+00
  0.00000000E+00  0.00000000E+00  0.00000000E+00
  0.00000000E+00  0.00000000E+00  0.00000000E+00
  0.00000000E+00  0.00000000E+00  0.00000000E+00
  0.00000000E+00  0.00000000E+00  0.00000000E+00
  0.00000000E+00  0.00000000E+00  0.00000000E+00
  0.00000000E+00  0.00000000E+00  0.00000000E+00
  0.00000000E+00  0.00000000E+00  0.00000000E+00
  0.00000000E+00  0.00000000E+00  0.00000000E+00
  0.00000000E+00  0.00000000E+00  0.00000000E+00
  0.00000000E+00  0.00000000E+00  0.00000000E+00
  0.00000000E+00  0.00000000E+00  0.00000000E+00
  0.00000000E+00  0.00000000E+00  0.00000000E+00
  0.00000000E+00  0.00000000E+00  0.00000000E+00
  0.00000000E+00  0.00000000E+00  0.00000000E+00
  0.00000000E+00  0.00000000E+00  0.00000000E+00
  0.00000000E+00  0.00000000E+00  0.00000000E+00
  0.00000000E+00  0.00000000E+00  0.00000000E+00
  0.00000000E+00  0.00000000E+00  0.00000000E+00
  0.00000000E+00  0.00000000E+00  0.00000000E+00
  0.00000000E+00  0.00000000E+00  0.00000000E+00
  0.00000000E+00  0.00000000E+00  0.00000000E+00
  0.00000000E+00  0.00000000E+00  0.00000000E+00
  0.00000000E+00  0.00000000E+00  0.00000000E+00
  0.00000000E+00  0.00000000E+00  0.00000000E+00
  0.00000000E+00  0.00000000E+00  0.00000000E+00
  0.00000000E+00  0.00000000E+00  0.00000000E+00
  0.00000000E+00  0.00000000E+00  0.00000000E+00
  0.00000000E+00  0.00000000E+00  0.00000000E+00
  0.00000000E+00  0.00000000E+00  0.00000000E+00
  0.00000000E+00  0.00000000E+00  0.00000000E+00
  0.00000000E+00  0.00000000E+00  0.00000000E+00
  0.00000000E+00  0.00000000E+00  0.00000000E+00
  0.00000000E+00  0.00000000E+00  0.00000000E+00
  0.00000000E+00  0.00000000E+00  0.00000000E+00
  0.00000000E+00  0.00000000E+00  0.00000000E+00
  0.00000000E+00  0.00000000E+00  0.00000000E+00
  0.00000000E+00  0.00000000E+00  0.00000000E+00
  0.00000000E+00  0.00000000E+00  0.00000000E+00
  0.00000000E+00  0.00000000E+00  0.00000000E+00
  0.00000000E+00  0.00000000E+00  0.00000000E+00
  0.00000000E+00  0.00000000E+00  0.00000000E+00
  0.00000000E+00  0.00000000E+00  0.00000000E+00
  0.00000000E+00  0.00000000E+00  0.00000000E+00
  0.00000000E+00  0.00000000E+00  0.00000000E+00
  0.00000000E+00  0.00000000E+00  0.00000000E+00
  0.00000000E+00  0.00000000E+00  0.00000000E+00
  0.00000000E+00  0.00000000E+00  0.00000000E+00
  0.00000000E+00  0.00000000E+00  0.00000000E+00
  0.00000000E+00  0.00000000E+00  0.00000000E+00
  0.00000000E+00  0.00000000E+00  0.00000000E+00