CuInSe2gb                               
   1.00000000000000     
     9.7266780392896699    0.0000000000000000    0.0000000000000000
     0.0000000000000000    8.4235502764570693    0.0000000000000000
     0.0000000000000000    0.0000000000000000   45.0000000000000000
   Fe   Mn
   281     7
Direct
  0.0581804799807182  0.7012503132835889  0.2111116992384413
  0.3160453819224415  0.7204329980953498  0.8757468374870401
  0.6883718049610049  0.9580380323436407  0.6114277316851352
  0.4385437439049387  0.4580656986203604  0.6114835756951713
  0.4366349702413053  0.2870993759712480  0.2555093491715974
  0.0609984948626486  0.3868708218278831  0.8341825651775038
  0.3111775893629136  0.8867308472611108  0.8342192148145509
  0.4422739451009369  0.6264698980812746  0.7004265394899245
  0.0637278373420588  0.2130992141740799  0.7445420996435086
  0.1826773811800223  0.4515193199200142  0.2112738920777285
  0.5638979895263879  0.2090278414432979  0.4778309288625817
  0.0642495632362084  0.8747118359772736  0.5668702108552054
  0.5657135401065938  0.2199168716906213  0.8757044948871247
  0.8100427197263224  0.5304148139151804  0.1245138073547882
  0.4332232835438660  0.9514069747137812  0.2111601295302231
  0.5642546670537631  0.3745709576143125  0.5667460436266574
  0.8117535775638056  0.0419950157743786  0.3884895571865745
  0.6858783033920477  0.7909257764214962  0.5221525332542719
  0.4388451180140608  0.4591725969604551  0.4777893108561409
  0.4379984030535776  0.9629691737362986  0.7445057904741297
  0.4385997925889112  0.6248396884631625  0.5667631782025372
  0.5674638254111691  0.8764911509958864  0.7003600894515636
  0.3106187944258386  0.0306543442009058  0.1241307818438821
  0.6865717258494777  0.9580372808495502  0.3440491880193017
  0.6876496892040045  0.7795969306783165  0.1246773572550537
  0.0577245531941058  0.3732350908473348  0.2995961027530460
  0.6889841144200201  0.4713873103621142  0.8755024830541481
  0.4330972016224278  0.4513950366546768  0.2111635408848773
  0.8107463719765070  0.3753358976335616  0.4329800198380878
  0.5634103550287399  0.7081351835050609  0.6115263049619057
  0.5630598279454128  0.5412292258853990  0.6557645593557087
  0.8144731193627398  0.8634040021119055  0.1660868797162691
  0.5612701677889093  0.5370335938486545  0.2555066079697208
  0.6866577926374139  0.4579899495085781  0.3440003035477622
  0.1883627466776602  0.6127255326502933  0.1661967903515512
  0.1917772557358364  0.7992806459500245  0.7887560983447285
  0.4424497348358090  0.1264681701858490  0.7004016788683682
  0.9324320594672840  0.6231418545408909  0.2996308183206957
  0.3153382946979468  0.2201124144040204  0.8757018196486162
  0.3141390812547038  0.8747635924467282  0.5668078486152102
  0.8153659385235422  0.2200830199646734  0.8756960092499438
  0.8129153776996093  0.5416836115997899  0.6557757982588195
  0.5600441046753245  0.5294140648850333  0.1244445552110899
  0.5668038585133190  0.0495662004661050  0.7889801985352694
  0.1868092192252351  0.2873413238093638  0.2555076390569794
  0.8107489491859494  0.8754200690069859  0.4329890942689778
  0.5672681264952112  0.3766033782070559  0.7004573685367691
  0.0610349153200483  0.0292346302244522  0.1244834203126889
  0.3129488576578858  0.5413404844672891  0.6558108159069843
  0.5617072014447726  0.2082430357206604  0.3441840414016326
  0.1884960122033078  0.9578884120593406  0.6114675658899681
  0.3076536946892735  0.3735280022629727  0.2996165955531797
  0.4380439999397387  0.7916642645579535  0.6558466974820364
  0.1918164984633913  0.2983431473894375  0.7888661959242593
  0.0637161446518951  0.3636648908674324  0.1660019097711294
  0.6920515004482682  0.6265955423796632  0.7003662041329289
  0.3115703386095269  0.5417327601080952  0.3884054391201119
  0.0654402687468185  0.7199042477987743  0.8758787939952623
  0.9363663672049770  0.6367380856274241  0.8342987874088269
  0.3172947213836052  0.5498503427779088  0.7889668827343709
  0.3075811417800443  0.2002850900168587  0.2110891069886602
  0.0636957578045456  0.7089177624274849  0.4778718490776460
  0.5573917358325325  0.2008063749008257  0.2111300880269624
  0.3137245734903265  0.2134398103103060  0.7444627417790873
  0.0673052740480543  0.3769708933057294  0.7003590786391092
  0.1862297350067153  0.6367518023041958  0.8340620319667272
  0.0668359242123169  0.0493644371056139  0.7889272766560441
  0.4390288074809683  0.1247964283845825  0.5668354888597347
  0.9381477824616633  0.2917935304397606  0.6557095799494159
  0.8074958949971430  0.2007018573104072  0.2111014504542168
  0.9326494518152108  0.9514189162742550  0.2113054351549362
  0.9392799131418456  0.6250230955942938  0.5667821986972027
  0.8109788734647485  0.3865879540296939  0.8342241656556066
  0.1922586387205206  0.6266230086105630  0.7003685489633903
  0.8110986464286202  0.8864991281557584  0.8342905692603874
  0.6879488117565201  0.2914364141709843  0.6558316869585136
  0.3134190300214166  0.2079776511847078  0.6114720211882579
  0.4381933613633147  0.4626369134670313  0.7444055864869832
  0.4366472920606564  0.7915915896566751  0.3884288704272607
  0.6877536105074505  0.9627019039325228  0.7444932227313602
  0.8074482213564113  0.7010893193119677  0.2111273134503085
  0.8133027924745428  0.7080498038658420  0.6114536893983099
  0.4370064910350588  0.7793483002142801  0.1242778504369636
  0.3130972447472784  0.7128684946036044  0.7444407180817394
  0.3171452516656584  0.0495765669135487  0.7889804120043612
  0.8118020383295900  0.5420006467977689  0.3884997976073588
  0.6861020182806959  0.2912077141732173  0.5221835329488240
  0.6918991755577119  0.7994017970459655  0.7889042059780024
  0.1869116670683855  0.7874456457375779  0.2555275542762904
  0.6889808137011598  0.1133263922052780  0.1661431068650535
  0.6887783595321549  0.9590068183668859  0.4779238321405092
  0.9369957533790070  0.9586596635100815  0.3440766888921839
  0.8110521756729752  0.0408239719884718  0.5221291749877178
  0.6850709926183413  0.6252988733606800  0.4330533165923361
  0.4368784330522704  0.4585576749146836  0.3441710871611464
  0.8132308709392739  0.2133473981437893  0.7445254748027839
  0.4390815606698333  0.9715130319383891  0.8755072065070015
  0.5642515676028297  0.8746294213502555  0.5667864631156111
  0.8103423802680760  0.0303154157020980  0.1244780302897633
  0.4325615181706515  0.6233385754239326  0.2996516166054256
  0.8151669488188419  0.7204988466297521  0.8758438271726809
  0.6883328830739935  0.4579233473843691  0.6114439963952166
  0.5610492882042208  0.3868740578161217  0.8340845912891449
  0.8075922518767503  0.3734443131949050  0.2995807651159165
  0.1863173084586001  0.2915325027368372  0.3884377526379758
  0.8165512549395900  0.5495953173390963  0.7890776162147063
  0.8114027422920310  0.5366713717576663  0.2555471137396882
  0.3075180028020736  0.8736543100167149  0.2996108493556855
  0.1825962212593400  0.9514714869902612  0.2113013803601935
  0.1887453964044042  0.4629449062640655  0.7444632469420330
  0.4362665653590652  0.2909660068314870  0.5220921553697263
  0.0619191826992280  0.7086188402082885  0.3441602250993431
  0.1881367176491304  0.7912367831820749  0.6556940524025792
  0.4415999882261055  0.7995818020982038  0.7887842858226691
  0.6850064629715499  0.1251377773898683  0.4330617362296300
  0.9356758094948066  0.7901647575509347  0.5222173612707316
  0.6887753595644800  0.6132696442570614  0.1661408919926479
  0.8118320488106543  0.7082700691838366  0.3442022579339805
  0.9383127088167877  0.4628275604141602  0.7444777379782254
  0.1868839248602085  0.4583082080736985  0.3441265854372625
  0.5672063658054317  0.5493139729875450  0.7889832427273615
  0.5654902779004294  0.3639750337704928  0.1658408748096816
  0.5617380226363738  0.7080026704939500  0.3441865868480953
  0.5577304651726883  0.3734393787666684  0.2996192427257482
  0.1888903763942915  0.4713221598313020  0.8755606844448485
  0.1885979300196025  0.1127712272514358  0.1661313941221070
  0.4417825269171691  0.2989050219470996  0.7888135992684097
  0.6864996551211442  0.7873062175548321  0.2554447746788573
  0.9367683832631025  0.1368648802685888  0.8341275337896529
  0.4385785276753444  0.9590186117909369  0.4778323768013602
  0.5654146040177979  0.7202545972570622  0.8757170598349487
  0.1887261528736390  0.4590761088646471  0.4778172554828331
  0.9362340282564958  0.2794215586128053  0.1246440512394673
  0.3114603152284911  0.0417684668349461  0.3884165545021904
  0.0628982249211755  0.0409646338516747  0.6557853019421204
  0.5611213163657313  0.3750199523076952  0.4330058764841606
  0.6874767363520898  0.4623969121507485  0.7445031631975189
  0.5634046593095779  0.2136236932149407  0.7444669682578626
  0.9424988678817878  0.1268728116772496  0.7003927968258548
  0.5630349750252600  0.0410464170179718  0.6557813520128224
  0.5609034589727212  0.5405907787054595  0.5220691266878358
  0.1826677130393487  0.1231708616614871  0.2995894557178236
  0.4386334142752951  0.1122223603989713  0.1660165533723896
  0.6823377126315602  0.6232063223911127  0.2996111951127333
  0.9324742458607427  0.1231557908378213  0.2995911465012133
  0.8141751731634478  0.3747484627720855  0.5669168848199190
  0.0578485546310098  0.8734551946707376  0.2996065792830930
  0.1891126944274175  0.6247473112360502  0.5669029830068311
  0.9411660799076640  0.7991050184217928  0.7889225515694176
  0.3113199125432348  0.3867877295279372  0.8342004122540513
  0.9392010792984489  0.4714798707550121  0.8755725694334027
  0.4365538102278001  0.6370820894144599  0.8341289200718525
  0.0618374067985250  0.2084545794815464  0.3441587630055467
  0.1888639762863356  0.9711506515514151  0.8755180245535295
  0.9363962186454303  0.7791930424526554  0.1246237154981273
  0.6863511464913301  0.7918453424548945  0.3884248866554778
  0.9380481439330942  0.7915083546388777  0.6558017941658024
  0.9384848054188287  0.1134294793894033  0.1661681137366002
  0.4377709330318083  0.2915751643072163  0.6558527449976670
  0.0582617962714154  0.2009534977687265  0.2111087672250212
  0.6828530870237706  0.9513536937373277  0.2112736987911359
  0.1826830379178416  0.6233643746690259  0.2995749293851950
  0.8170241665584197  0.8765480976766928  0.7003653285652086
  0.9424486789209625  0.6266752324220516  0.7004314913876448
  0.1923479011165421  0.1268319387448532  0.7004030292312323
  0.9388304279746423  0.4590160185848317  0.4777993838083016
  0.8132587003193729  0.2080350667972719  0.6114695104563095
  0.1867800044759866  0.6253476415466036  0.4329503257470589
  0.4326246502305318  0.1231910408691421  0.2996268306754065
  0.6823656144663142  0.1231377568912524  0.2995716212062018
  0.5611159389557490  0.5416513064984331  0.3884394766642347
  0.8118895060130000  0.2085583890575609  0.3442195586830154
  0.4391361051522447  0.4715203941450454  0.8754873201566379
  0.5611169324236668  0.8867422480690768  0.8342415034827840
  0.3139273914237371  0.2094558233564913  0.4778113252377186
  0.1885801451865112  0.9593177022186107  0.4777366394647589
  0.0610459857827742  0.8868176466400181  0.8341935389093972
  0.0610290801540711  0.5404974914637133  0.5220880196074285
  0.9391307315447138  0.9588486549224461  0.4778008935553997
  0.0634635690200304  0.7080529044326775  0.6114513596736197
  0.5608805285822139  0.0410138666231653  0.5221262916916644
  0.6918986781256040  0.2987585114887655  0.7887843731940289
  0.8143107883472877  0.3633793442748257  0.1660462559373712
  0.4356013890451339  0.1251055180068113  0.4330276993971897
  0.0638643550025340  0.2090839250969543  0.4778617238201093
  0.3131574497817896  0.0413767581978260  0.6558046626966246
  0.4364405909257999  0.7906768800873456  0.5220876669365674
  0.1866763078125379  0.1368626461603402  0.8341232533032213
  0.1859126058290168  0.2786096731117342  0.1244341715223845
  0.9367502105620719  0.4586250300436592  0.3440835176247672
  0.5655029025844892  0.8640424164922218  0.1658244814355013
  0.3075179922196493  0.7001481779064808  0.2111211675082170
  0.9382456705295155  0.6132033705592266  0.1661883033843973
  0.1882708940510169  0.4576125083681625  0.6115178904400944
  0.0672083526912992  0.8767783452785406  0.7002726730577518
  0.0630171335308179  0.5414602077907691  0.6558884483848194
  0.3103973771444190  0.5306825586632919  0.1240787068577453
  0.9362345352064801  0.7920364493504609  0.3884558996775613
  0.9415100471623880  0.2985927019744799  0.7888411468871329
  0.1880725657333288  0.2916966298085791  0.6558037996556058
  0.9382652418499718  0.9581943880230543  0.6116184004126757
  0.8135897416960249  0.7131097431840274  0.7445759096548139
  0.6866871712751348  0.2872564856478851  0.2554815812108144
  0.0638594824690562  0.7130520471087455  0.7444653617264104
  0.6827134659601797  0.4513740976483102  0.2112750419350742
  0.8138676041920718  0.2090302510152111  0.4778509054623392
  0.5639437983692068  0.7089861892867882  0.4778570935010653
  0.0637329493051211  0.8637038572354890  0.1660180479931258
  0.9358581926324043  0.2905177191880665  0.5221952880579696
  0.6876327740775152  0.7913367331205244  0.6558092030792664
  0.0612594050346279  0.8750273634470896  0.4329232467192905
  0.0656763889412014  0.2194994774398216  0.8757884074494943
  0.8131387822586398  0.0411097475757040  0.6557339528461920
  0.5601486728443332  0.0293071683297860  0.1244406802093022
  0.3105643737229816  0.3750223331986889  0.4330707097638165
  0.3141957769129332  0.3745792766292271  0.5667501982444634
  0.3140658155818540  0.7092667602365926  0.4777821459761233
  0.0611458683931788  0.0410468518620004  0.5220307149186731
  0.3171839941976691  0.8766376036353457  0.7003946723910065
  0.0615701166261973  0.5369944170541664  0.2555566564027675
  0.6865895609772800  0.1372694731642585  0.8340905757009306
  0.8114927247710720  0.0368737616241582  0.2555265098462761
  0.1867059820662127  0.1256094914343300  0.4329262847616318
  0.6922363601439327  0.1264702006508995  0.7003821415575878
  0.1863399939636388  0.2910236591188918  0.5221949907837616
  0.4364729849577816  0.7872227980641298  0.2555378484006047
  0.4384374643553994  0.6123278135358554  0.1660970842805725
  0.0631040834491771  0.2080158223120173  0.6114113289786326
  0.1863562501857670  0.7915987683128971  0.3884458030213783
  0.3117439092267187  0.5410054222026603  0.5220760075543354
  0.8170970248616752  0.3766657327409383  0.7003210474828333
  0.6863539376031061  0.2916901351757369  0.3883923211249817
  0.1892890904491772  0.1245374088977792  0.5668169535781232
  0.6889704286106276  0.9716259083681322  0.8755224043428750
  0.6890713977266012  0.1247667815641886  0.5668742247401869
  0.4367342603402673  0.9584979694901443  0.3441546099956504
  0.1883082995599790  0.9630308374412030  0.7445288635240284
  0.9363859292766614  0.7872639789631637  0.2555797721111456
  0.5611513021023125  0.8752585320251207  0.4330140783763395
  0.3105314798853530  0.8748765543376281  0.4329996674984125
  0.8111281356360110  0.5402692478617327  0.5220927114252476
  0.9326152187010026  0.4514049358383659  0.2112852724069906
  0.3113461225577776  0.5367941259574672  0.2555894887902678
  0.5613850527987271  0.0416398158582621  0.3884542447808221
  0.9384402834953903  0.4577768993936121  0.6114886022656081
  0.0613751495373447  0.0418390512795218  0.3884050119017866
  0.0613769601469458  0.5417985949855076  0.3884252306255080
  0.4365475325516601  0.2915746935227809  0.3884431858662706
  0.6888733597806981  0.4591752730536935  0.4778734758244804
  0.0642520300823448  0.3746578394772516  0.5668916369392215
  0.5574156922681394  0.7008263111837569  0.2111329077286539
  0.9362191361531902  0.2871428725514363  0.2555740608452962
  0.8166064232600038  0.0493964871763235  0.7889314567887453
  0.1868454216288346  0.9582168678238189  0.3441212191802711
  0.5576667098261806  0.8734222652052831  0.2996049125149804
  0.0610692134406818  0.3750950918930887  0.4329801526445671
  0.3116639100656094  0.7080100653464636  0.3441344047875374
  0.3116345755971323  0.2079642538930940  0.3441693658135845
  0.9389702375462996  0.1249723438750242  0.5668244683368505
  0.4383029035768997  0.9581582089463087  0.6115284494566026
  0.5612027882550215  0.0369751099507931  0.2555116361121204
  0.1862193198140975  0.7787676533690561  0.1244444177337134
  0.0615630323874232  0.0368903381039902  0.2555543520446665
  0.6890878974010078  0.6247331672502572  0.5668480133400442
  0.0605824502070161  0.5292135483642925  0.1244919413406183
  0.3115032407846491  0.0407942221826418  0.5220756064835502
  0.6875289154597973  0.2797295635754393  0.1246688391369898
  0.8139136622191209  0.7088047379740097  0.4778521830837697
  0.4366315051991216  0.1368131860715503  0.8339975949548372
  0.3175022893464506  0.3764093268198067  0.7003754711502257
  0.6868563166390067  0.6370513573901626  0.8341217970906711
  0.5632898356233531  0.7127299705847192  0.7445023146566576
  0.9362423575433775  0.2919972221375022  0.3884357302478229
  0.9392380895028131  0.9713327736809220  0.8755522615049369
  0.5637201807811135  0.2084092276051170  0.6114658898401860
  0.8140931641226642  0.8750106878098447  0.5669176695945590
  0.8076991997125355  0.8734875158007689  0.2995981571033755
  0.3113493233102443  0.0366302334268706  0.2556152658941939
  0.4368427900080586  0.2793190103102317  0.1242366680467676
  0.3133126998676002  0.7080491479277956  0.6114610282495158
  0.4355544896271913  0.6249921397768107  0.4329513388098520
  0.9356909022737541  0.6249844940327406  0.4330535613767981
  0.3150342605270651  0.8631042268468475  0.1655455763642630
  0.0671821236893773  0.5494237589847575  0.7888046251766210
  0.9357652337786063  0.1250131831714070  0.4330896897631958
  0.3149409123454142  0.3629981422855610  0.1655956663339354
  0.9375522370096091  0.9631270801263856  0.7446511500526565
  0.1859158741587065  0.7905722135103587  0.5222834902634725
 
  0.00000000E+00  0.00000000E+00  0.00000000E+00
  0.00000000E+00  0.00000000E+00  0.00000000E+00
  0.00000000E+00  0.00000000E+00  0.00000000E+00
  0.00000000E+00  0.00000000E+00  0.00000000E+00
  0.00000000E+00  0.00000000E+00  0.00000000E+00
  0.00000000E+00  0.00000000E+00  0.00000000E+00
  0.00000000E+00  0.00000000E+00  0.00000000E+00
  0.00000000E+00  0.00000000E+00  0.00000000E+00
  0.00000000E+00  0.00000000E+00  0.00000000E+00
  0.00000000E+00  0.00000000E+00  0.00000000E+00
  0.00000000E+00  0.00000000E+00  0.00000000E+00
  0.00000000E+00  0.00000000E+00  0.00000000E+00
  0.00000000E+00  0.00000000E+00  0.00000000E+00
  0.00000000E+00  0.00000000E+00  0.00000000E+00
  0.00000000E+00  0.00000000E+00  0.00000000E+00
  0.00000000E+00  0.00000000E+00  0.00000000E+00
  0.00000000E+00  0.00000000E+00  0.00000000E+00
  0.00000000E+00  0.00000000E+00  0.00000000E+00
  0.00000000E+00  0.00000000E+00  0.00000000E+00
  0.00000000E+00  0.00000000E+00  0.00000000E+00
  0.00000000E+00  0.00000000E+00  0.00000000E+00
  0.00000000E+00  0.00000000E+00  0.00000000E+00
  0.00000000E+00  0.00000000E+00  0.00000000E+00
  0.00000000E+00  0.00000000E+00  0.00000000E+00
  0.00000000E+00  0.00000000E+00  0.00000000E+00
  0.00000000E+00  0.00000000E+00  0.00000000E+00
  0.00000000E+00  0.00000000E+00  0.00000000E+00
  0.00000000E+00  0.00000000E+00  0.00000000E+00
  0.00000000E+00  0.00000000E+00  0.00000000E+00
  0.00000000E+00  0.00000000E+00  0.00000000E+00
  0.00000000E+00  0.00000000E+00  0.00000000E+00
  0.00000000E+00  0.00000000E+00  0.00000000E+00
  0.00000000E+00  0.00000000E+00  0.00000000E+00
  0.00000000E+00  0.00000000E+00  0.00000000E+00
  0.00000000E+00  0.00000000E+00  0.00000000E+00
  0.00000000E+00  0.00000000E+00  0.00000000E+00
  0.00000000E+00  0.00000000E+00  0.00000000E+00
  0.00000000E+00  0.00000000E+00  0.00000000E+00
  0.00000000E+00  0.00000000E+00  0.00000000E+00
  0.00000000E+00  0.00000000E+00  0.00000000E+00
  0.00000000E+00  0.00000000E+00  0.00000000E+00
  0.00000000E+00  0.00000000E+00  0.00000000E+00
  0.00000000E+00  0.00000000E+00  0.00000000E+00
  0.00000000E+00  0.00000000E+00  0.00000000E+00
  0.00000000E+00  0.00000000E+00  0.00000000E+00
  0.00000000E+00  0.00000000E+00  0.00000000E+00
  0.00000000E+00  0.00000000E+00  0.00000000E+00
  0.00000000E+00  0.00000000E+00  0.00000000E+00
  0.00000000E+00  0.00000000E+00  0.00000000E+00
  0.00000000E+00  0.00000000E+00  0.00000000E+00
  0.00000000E+00  0.00000000E+00  0.00000000E+00
  0.00000000E+00  0.00000000E+00  0.00000000E+00
  0.00000000E+00  0.00000000E+00  0.00000000E+00
  0.00000000E+00  0.00000000E+00  0.00000000E+00
  0.00000000E+00  0.00000000E+00  0.00000000E+00
  0.00000000E+00  0.00000000E+00  0.00000000E+00
  0.00000000E+00  0.00000000E+00  0.00000000E+00
  0.00000000E+00  0.00000000E+00  0.00000000E+00
  0.00000000E+00  0.00000000E+00  0.00000000E+00
  0.00000000E+00  0.00000000E+00  0.00000000E+00
  0.00000000E+00  0.00000000E+00  0.00000000E+00
  0.00000000E+00  0.00000000E+00  0.00000000E+00
  0.00000000E+00  0.00000000E+00  0.00000000E+00
  0.00000000E+00  0.00000000E+00  0.00000000E+00
  0.00000000E+00  0.00000000E+00  0.00000000E+00
  0.00000000E+00  0.00000000E+00  0.00000000E+00
  0.00000000E+00  0.00000000E+00  0.00000000E+00
  0.00000000E+00  0.00000000E+00  0.00000000E+00
  0.00000000E+00  0.00000000E+00  0.00000000E+00
  0.00000000E+00  0.00000000E+00  0.00000000E+00
  0.00000000E+00  0.00000000E+00  0.00000000E+00
  0.00000000E+00  0.00000000E+00  0.00000000E+00
  0.00000000E+00  0.00000000E+00  0.00000000E+00
  0.00000000E+00  0.00000000E+00  0.00000000E+00
  0.00000000E+00  0.00000000E+00  0.00000000E+00
  0.00000000E+00  0.00000000E+00  0.00000000E+00
  0.00000000E+00  0.00000000E+00  0.00000000E+00
  0.00000000E+00  0.00000000E+00  0.00000000E+00
  0.00000000E+00  0.00000000E+00  0.00000000E+00
  0.00000000E+00  0.00000000E+00  0.00000000E+00
  0.00000000E+00  0.00000000E+00  0.00000000E+00
  0.00000000E+00  0.00000000E+00  0.00000000E+00
  0.00000000E+00  0.00000000E+00  0.00000000E+00
  0.00000000E+00  0.00000000E+00  0.00000000E+00
  0.00000000E+00  0.00000000E+00  0.00000000E+00
  0.00000000E+00  0.00000000E+00  0.00000000E+00
  0.00000000E+00  0.00000000E+00  0.00000000E+00
  0.00000000E+00  0.00000000E+00  0.00000000E+00
  0.00000000E+00  0.00000000E+00  0.00000000E+00
  0.00000000E+00  0.00000000E+00  0.00000000E+00
  0.00000000E+00  0.00000000E+00  0.00000000E+00
  0.00000000E+00  0.00000000E+00  0.00000000E+00
  0.00000000E+00  0.00000000E+00  0.00000000E+00
  0.00000000E+00  0.00000000E+00  0.00000000E+00
  0.00000000E+00  0.00000000E+00  0.00000000E+00
  0.00000000E+00  0.00000000E+00  0.00000000E+00
  0.00000000E+00  0.00000000E+00  0.00000000E+00
  0.00000000E+00  0.00000000E+00  0.00000000E+00
  0.00000000E+00  0.00000000E+00  0.00000000E+00
  0.00000000E+00  0.00000000E+00  0.00000000E+00
  0.00000000E+00  0.00000000E+00  0.00000000E+00
  0.00000000E+00  0.00000000E+00  0.00000000E+00
  0.00000000E+00  0.00000000E+00  0.00000000E+00
  0.00000000E+00  0.00000000E+00  0.00000000E+00
  0.00000000E+00  0.00000000E+00  0.00000000E+00
  0.00000000E+00  0.00000000E+00  0.00000000E+00
  0.00000000E+00  0.00000000E+00  0.00000000E+00
  0.00000000E+00  0.00000000E+00  0.00000000E+00
  0.00000000E+00  0.00000000E+00  0.00000000E+00
  0.00000000E+00  0.00000000E+00  0.00000000E+00
  0.00000000E+00  0.00000000E+00  0.00000000E+00
  0.00000000E+00  0.00000000E+00  0.00000000E+00
  0.00000000E+00  0.00000000E+00  0.00000000E+00
  0.00000000E+00  0.00000000E+00  0.00000000E+00
  0.00000000E+00  0.00000000E+00  0.00000000E+00
  0.00000000E+00  0.00000000E+00  0.00000000E+00
  0.00000000E+00  0.00000000E+00  0.00000000E+00
  0.00000000E+00  0.00000000E+00  0.00000000E+00
  0.00000000E+00  0.00000000E+00  0.00000000E+00
  0.00000000E+00  0.00000000E+00  0.00000000E+00
  0.00000000E+00  0.00000000E+00  0.00000000E+00
  0.00000000E+00  0.00000000E+00  0.00000000E+00
  0.00000000E+00  0.00000000E+00  0.00000000E+00
  0.00000000E+00  0.00000000E+00  0.00000000E+00
  0.00000000E+00  0.00000000E+00  0.00000000E+00
  0.00000000E+00  0.00000000E+00  0.00000000E+00
  0.00000000E+00  0.00000000E+00  0.00000000E+00
  0.00000000E+00  0.00000000E+00  0.00000000E+00
  0.00000000E+00  0.00000000E+00  0.00000000E+00
  0.00000000E+00  0.00000000E+00  0.00000000E+00
  0.00000000E+00  0.00000000E+00  0.00000000E+00
  0.00000000E+00  0.00000000E+00  0.00000000E+00
  0.00000000E+00  0.00000000E+00  0.00000000E+00
  0.00000000E+00  0.00000000E+00  0.00000000E+00
  0.00000000E+00  0.00000000E+00  0.00000000E+00
  0.00000000E+00  0.00000000E+00  0.00000000E+00
  0.00000000E+00  0.00000000E+00  0.00000000E+00
  0.00000000E+00  0.00000000E+00  0.00000000E+00
  0.00000000E+00  0.00000000E+00  0.00000000E+00
  0.00000000E+00  0.00000000E+00  0.00000000E+00
  0.00000000E+00  0.00000000E+00  0.00000000E+00
  0.00000000E+00  0.00000000E+00  0.00000000E+00
  0.00000000E+00  0.00000000E+00  0.00000000E+00
  0.00000000E+00  0.00000000E+00  0.00000000E+00
  0.00000000E+00  0.00000000E+00  0.00000000E+00
  0.00000000E+00  0.00000000E+00  0.00000000E+00
  0.00000000E+00  0.00000000E+00  0.00000000E+00
  0.00000000E+00  0.00000000E+00  0.00000000E+00
  0.00000000E+00  0.00000000E+00  0.00000000E+00
  0.00000000E+00  0.00000000E+00  0.00000000E+00
  0.00000000E+00  0.00000000E+00  0.00000000E+00
  0.00000000E+00  0.00000000E+00  0.00000000E+00
  0.00000000E+00  0.00000000E+00  0.00000000E+00
  0.00000000E+00  0.00000000E+00  0.00000000E+00
  0.00000000E+00  0.00000000E+00  0.00000000E+00
  0.00000000E+00  0.00000000E+00  0.00000000E+00
  0.00000000E+00  0.00000000E+00  0.00000000E+00
  0.00000000E+00  0.00000000E+00  0.00000000E+00
  0.00000000E+00  0.00000000E+00  0.00000000E+00
  0.00000000E+00  0.00000000E+00  0.00000000E+00
  0.00000000E+00  0.00000000E+00  0.00000000E+00
  0.00000000E+00  0.00000000E+00  0.00000000E+00
  0.00000000E+00  0.00000000E+00  0.00000000E+00
  0.00000000E+00  0.00000000E+00  0.00000000E+00
  0.00000000E+00  0.00000000E+00  0.00000000E+00
  0.00000000E+00  0.00000000E+00  0.00000000E+00
  0.00000000E+00  0.00000000E+00  0.00000000E+00
  0.00000000E+00  0.00000000E+00  0.00000000E+00
  0.00000000E+00  0.00000000E+00  0.00000000E+00
  0.00000000E+00  0.00000000E+00  0.00000000E+00
  0.00000000E+00  0.00000000E+00  0.00000000E+00
  0.00000000E+00  0.00000000E+00  0.00000000E+00
  0.00000000E+00  0.00000000E+00  0.00000000E+00
  0.00000000E+00  0.00000000E+00  0.00000000E+00
  0.00000000E+00  0.00000000E+00  0.00000000E+00
  0.00000000E+00  0.00000000E+00  0.00000000E+00
  0.00000000E+00  0.00000000E+00  0.00000000E+00
  0.00000000E+00  0.00000000E+00  0.00000000E+00
  0.00000000E+00  0.00000000E+00  0.00000000E+00
  0.00000000E+00  0.00000000E+00  0.00000000E+00
  0.00000000E+00  0.00000000E+00  0.00000000E+00
  0.00000000E+00  0.00000000E+00  0.00000000E+00
  0.00000000E+00  0.00000000E+00  0.00000000E+00
  0.00000000E+00  0.00000000E+00  0.00000000E+00
  0.00000000E+00  0.00000000E+00  0.00000000E+00
  0.00000000E+00  0.00000000E+00  0.00000000E+00
  0.00000000E+00  0.00000000E+00  0.00000000E+00
  0.00000000E+00  0.00000000E+00  0.00000000E+00
  0.00000000E+00  0.00000000E+00  0.00000000E+00
  0.00000000E+00  0.00000000E+00  0.00000000E+00
  0.00000000E+00  0.00000000E+00  0.00000000E+00
  0.00000000E+00  0.00000000E+00  0.00000000E+00
  0.00000000E+00  0.00000000E+00  0.00000000E+00
  0.00000000E+00  0.00000000E+00  0.00000000E+00
  0.00000000E+00  0.00000000E+00  0.00000000E+00
  0.00000000E+00  0.00000000E+00  0.00000000E+00
  0.00000000E+00  0.00000000E+00  0.00000000E+00
  0.00000000E+00  0.00000000E+00  0.00000000E+00
  0.00000000E+00  0.00000000E+00  0.00000000E+00
  0.00000000E+00  0.00000000E+00  0.00000000E+00
  0.00000000E+00  0.00000000E+00  0.00000000E+00
  0.00000000E+00  0.00000000E+00  0.00000000E+00
  0.00000000E+00  0.00000000E+00  0.00000000E+00
  0.00000000E+00  0.00000000E+00  0.00000000E+00
  0.00000000E+00  0.00000000E+00  0.00000000E+00
  0.00000000E+00  0.00000000E+00  0.00000000E+00
  0.00000000E+00  0.00000000E+00  0.00000000E+00
  0.00000000E+00  0.00000000E+00  0.00000000E+00
  0.00000000E+00  0.00000000E+00  0.00000000E+00
  0.00000000E+00  0.00000000E+00  0.00000000E+00
  0.00000000E+00  0.00000000E+00  0.00000000E+00
  0.00000000E+00  0.00000000E+00  0.00000000E+00
  0.00000000E+00  0.00000000E+00  0.00000000E+00
  0.00000000E+00  0.00000000E+00  0.00000000E+00
  0.00000000E+00  0.00000000E+00  0.00000000E+00
  0.00000000E+00  0.00000000E+00  0.00000000E+00
  0.00000000E+00  0.00000000E+00  0.00000000E+00
  0.00000000E+00  0.00000000E+00  0.00000000E+00
  0.00000000E+00  0.00000000E+00  0.00000000E+00
  0.00000000E+00  0.00000000E+00  0.00000000E+00
  0.00000000E+00  0.00000000E+00  0.00000000E+00
  0.00000000E+00  0.00000000E+00  0.00000000E+00
  0.00000000E+00  0.00000000E+00  0.00000000E+00
  0.00000000E+00  0.00000000E+00  0.00000000E+00
  0.00000000E+00  0.00000000E+00  0.00000000E+00
  0.00000000E+00  0.00000000E+00  0.00000000E+00
  0.00000000E+00  0.00000000E+00  0.00000000E+00
  0.00000000E+00  0.00000000E+00  0.00000000E+00
  0.00000000E+00  0.00000000E+00  0.00000000E+00
  0.00000000E+00  0.00000000E+00  0.00000000E+00
  0.00000000E+00  0.00000000E+00  0.00000000E+00
  0.00000000E+00  0.00000000E+00  0.00000000E+00
  0.00000000E+00  0.00000000E+00  0.00000000E+00
  0.00000000E+00  0.00000000E+00  0.00000000E+00
  0.00000000E+00  0.00000000E+00  0.00000000E+00
  0.00000000E+00  0.00000000E+00  0.00000000E+00
  0.00000000E+00  0.00000000E+00  0.00000000E+00
  0.00000000E+00  0.00000000E+00  0.00000000E+00
  0.00000000E+00  0.00000000E+00  0.00000000E+00
  0.00000000E+00  0.00000000E+00  0.00000000E+00
  0.00000000E+00  0.00000000E+00  0.00000000E+00
  0.00000000E+00  0.00000000E+00  0.00000000E+00
  0.00000000E+00  0.00000000E+00  0.00000000E+00
  0.00000000E+00  0.00000000E+00  0.00000000E+00
  0.00000000E+00  0.00000000E+00  0.00000000E+00
  0.00000000E+00  0.00000000E+00  0.00000000E+00
  0.00000000E+00  0.00000000E+00  0.00000000E+00