CuInSe2gb                               
   1.00000000000000     
     9.7266780392896699    0.0000000000000000    0.0000000000000000
     0.0000000000000000    8.4235502764570693    0.0000000000000000
     0.0000000000000000    0.0000000000000000   45.0000000000000000
   Fe   Mn
   281     7
Direct
  0.0539855969295609  0.7010305375383715  0.2112968591247004
  0.3181931537125435  0.7238209429344813  0.8762498484207371
  0.6883856499502484  0.9587937200402392  0.6115631084290987
  0.4382906759634116  0.4585699724325458  0.6115527184194487
  0.4406585941447409  0.2874070063701012  0.2552024334435194
  0.0585460793828308  0.3880630402872532  0.8335430558059701
  0.3086449337026236  0.8876077024672496  0.8335518384832509
  0.4470816003105479  0.6263214458326642  0.7003697459225365
  0.0598312754410250  0.2128257129289297  0.7449033307530132
  0.1785313544418921  0.4511300935274084  0.2113051263919229
  0.5676658436671560  0.2106050800213839  0.4774922398793900
  0.0667419324384606  0.8749714838918263  0.5669074714407017
  0.5682697794569520  0.2238588978375821  0.8761484501466188
  0.8080929997271399  0.5280293524198844  0.1239795673181509
  0.4293701572351188  0.9511254126903026  0.2113851834429060
  0.5666036368845192  0.3749402305173070  0.5668290170670320
  0.8110116368213500  0.0416110202802543  0.3882754544403398
  0.6818958553831465  0.7889135277452516  0.5224644955594432
  0.4426130337344526  0.4605285302673173  0.4774040578244476
  0.4338763413636176  0.9625458293346080  0.7447697148903387
  0.4419460450441375  0.6248939844790363  0.5669056682087555
  0.5715507084407230  0.8763731351118412  0.7005617136854395
  0.3089304438027857  0.0257879062889926  0.1239193320528197
  0.6899469039124274  0.9588509439120076  0.3439854649277346
  0.6880374927643318  0.7821717921284080  0.1242172158120334
  0.0526995189549859  0.3740466194193015  0.2995259924792913
  0.6897550807737715  0.4680059173772265  0.8761004798878519
  0.4292769441013972  0.4511814126108720  0.2113563409202607
  0.8085935149221389  0.3752750620170973  0.4330647645913061
  0.5634542057388676  0.7085432529146538  0.6115571979519093
  0.5597731499826158  0.5405941497857829  0.6559333878437844
  0.8177005827913951  0.8617358079736720  0.1666881169643570
  0.5652135666401648  0.5375594055856647  0.2550890629408812
  0.6897099753471488  0.4588620541987330  0.3439838127730865
  0.1917901889857590  0.6114785915746959  0.1664427738537906
  0.1944927618777316  0.7995544665480367  0.7888619878084292
  0.4471523683411053  0.1261566252976832  0.7004111357866293
  0.9279590167443190  0.6235375776060992  0.2996089065233179
  0.3174964395877095  0.2235950291056351  0.8761418186387127
  0.3167599621421009  0.8747337879367435  0.5668889571659516
  0.8174177519168377  0.2237705228043932  0.8762115568235963
  0.8097638479384408  0.5407538375898868  0.6558690819660136
  0.5587075861969281  0.5265417593039700  0.1239371927943934
  0.5692076819868461  0.0498583819190236  0.7889646742512355
  0.1908414468273119  0.2873390952556592  0.2552076210473356
  0.8084565826341196  0.8752432736348165  0.4330785365437405
  0.5722017112938905  0.3761463152702171  0.7004316243042426
  0.0574112681223791  0.0260964609051534  0.1241173920126531
  0.3099559571532673  0.5406918116710654  0.6559596955616016
  0.5648615628057099  0.2089128085736465  0.3438881372392454
  0.1883496074539860  0.9586911578047371  0.6114384470268844
  0.3028644570322900  0.3740586251839305  0.2996049568439353
  0.4345779723574150  0.7904711958037910  0.6559805954413698
  0.1947589996360713  0.2992772879435577  0.7888150804136740
  0.0675394793874563  0.3629045898146653  0.1666735357911089
  0.6970763090851803  0.6261989904998542  0.7004586681853219
  0.3113967825067107  0.5411210650158195  0.3883866584132705
  0.0675774061863893  0.7234118559690665  0.8762232425988268
  0.9337152035426188  0.6376263993340632  0.8339578861756745
  0.3197187418348475  0.5496092065199963  0.7889134628436673
  0.3045247239849297  0.2005830803788061  0.2112368840646234
  0.0680148138610346  0.7106208000987300  0.4773562457229142
  0.5543343904321458  0.2008786498886147  0.2111368087569421
  0.3097220838389825  0.2124768880033943  0.7449058133323486
  0.0719789124969443  0.3762696298157533  0.7005321720359204
  0.1831786472816005  0.6377376954142252  0.8335643739731078
  0.0694321652652784  0.0494175428793569  0.7890188833882258
  0.4416768836884009  0.1248239080256869  0.5669235133081599
  0.9347414850401695  0.2907672367901612  0.6558708114436960
  0.8041422121271768  0.2014955247540539  0.2111571957089634
  0.9294023785399786  0.9513081345066521  0.2113071010610643
  0.9415877996672586  0.6251786713064149  0.5668657545443077
  0.8082338193380313  0.3876296247051729  0.8335377510491412
  0.1970012432878067  0.6262650997747398  0.7003562691086221
  0.8086522980009184  0.8876572311541651  0.8335521532217939
  0.6850355971099553  0.2906793699667111  0.6560587565971651
  0.3134738354929776  0.2084258165117601  0.6115590096231810
  0.4345766135753725  0.4628946600308049  0.7448920724217134
  0.4360626635305920  0.7911349771825151  0.3883559862926021
  0.6843653204413851  0.9626220571936815  0.7449301383050736
  0.8039616411408793  0.7011276237027680  0.2111836450626423
  0.8134331545200491  0.7084322548826736  0.6115993320846049
  0.4368615077575544  0.7833626922450377  0.1240389488354490
  0.3096310553535189  0.7123173574606543  0.7448186647190516
  0.3200817746952103  0.0494835694159323  0.7888791423321285
  0.8111065683256896  0.5415845531699430  0.3883132353483074
  0.6823681023132721  0.2886324566018945  0.5223619780909983
  0.6949722925269074  0.7993280514975599  0.7889085416897582
  0.1907190929538377  0.7873909951918069  0.2552145501448442
  0.6916847279358048  0.1124068371894646  0.1666115731913816
  0.6926549008758105  0.9606348592613981  0.4774074754013432
  0.9400931104759969  0.9592898364586037  0.3440390577616614
  0.8074816189979230  0.0395580424212143  0.5225364864666878
  0.6835313386564273  0.6248757394712129  0.4329308462139465
  0.4399979438492592  0.4587378632354937  0.3440015011432725
  0.8105047127477326  0.2115441789938331  0.7446272308358830
  0.4396637047305210  0.9681468374277448  0.8760910861708119
  0.5667570113565995  0.8749489101943272  0.5667755522962644
  0.8093419738152676  0.0278966801965456  0.1239521531635013
  0.4280250274690727  0.6236532038191841  0.2994840309643563
  0.8170199207392880  0.7238037954164986  0.8763654046163675
  0.6884305323753317  0.4585220224110652  0.6115211813289874
  0.5585744021959841  0.3877477776283557  0.8335109803602753
  0.8029191665994129  0.3735710586283001  0.2994758023774097
  0.1860685856774581  0.2910586865776552  0.3883329927962149
  0.8198935804298187  0.5494274659574109  0.7889651089310550
  0.8151646197255086  0.5376448727368560  0.2551630013124159
  0.3029963792617478  0.8739811735210224  0.2996165871021733
  0.1786530923609148  0.9513634746519570  0.2112968707544350
  0.1843668909075106  0.4626797626245320  0.7449156440615735
  0.4326709624302063  0.2886201756132533  0.5222861158579213
  0.0647195442019819  0.7085509940919346  0.3438296289379383
  0.1847810042255025  0.7906447586990768  0.6558888305609809
  0.4447598488714761  0.7992478088239439  0.7888439779498264
  0.6837478085875152  0.1249047559362593  0.4329617225312045
  0.9323585641700300  0.7891610841354201  0.5225236274656739
  0.6917852559269666  0.6124813503216058  0.1667577376565353
  0.8147461944558326  0.7088888705331401  0.3438692623238321
  0.9342677839644691  0.4625622525713197  0.7449367624923502
  0.1900110630595650  0.4590528671703086  0.3439919695406400
  0.5698599814113380  0.5496946321189231  0.7890462990251758
  0.5663204115947825  0.3625013727028066  0.1664623867967531
  0.5649029737557960  0.7091115623470011  0.3439232872839459
  0.5530002300494997  0.3737572801036581  0.2995799670455389
  0.1896873788517912  0.4680819776407002  0.8761151535309817
  0.1918280403959695  0.1114362345486491  0.1664248081139200
  0.4446174675685449  0.2991556074461209  0.7888263180440599
  0.6909942271717830  0.7875711945972371  0.2554007576359518
  0.9336528320622384  0.1376817889200848  0.8335490438199139
  0.4426397545015037  0.9605230338890195  0.4774592261392805
  0.5674943281537026  0.7246684687366475  0.8762493788307714
  0.1924770128866952  0.4609406668075598  0.4774804848718245
  0.9340981772544432  0.2820894482246045  0.1241208838605214
  0.3114997121125902  0.0412387613947989  0.3884132398326282
  0.0601481764062463  0.0406310732293688  0.6560392368573298
  0.5582927908266189  0.3749990256521103  0.4330937801574944
  0.6842794956677942  0.4628924245773523  0.7449827401707656
  0.5601722923727889  0.2123085210760006  0.7447974851911653
  0.9472167484506968  0.1263442676880848  0.7003786642958377
  0.5596722452671735  0.0408361414718338  0.6558397932858274
  0.5573573525322173  0.5388295418476591  0.5223908719945543
  0.1778808205724810  0.1238525092432286  0.2995194676751173
  0.4414200521729398  0.1104521184605998  0.1664049915389131
  0.6780595694117026  0.6234022022865303  0.2994541130107448
  0.9279416785331871  0.1234768972314537  0.2996189553769596
  0.8165250519455375  0.3751280429675724  0.5669244970439896
  0.0526254332656877  0.8737255837188906  0.2995735551843306
  0.1916752056957756  0.6252222744208296  0.5668828471283155
  0.9445191972735891  0.7996714086275817  0.7888460741423273
  0.3082992532902182  0.3875867884443923  0.8335352557983993
  0.9399090580560813  0.4683879786176481  0.8761048308749292
  0.4337338606795682  0.6378695839987086  0.8335111523892601
  0.0646434624682717  0.2086348403314967  0.3437989406720743
  0.1897924862667301  0.9680535423065045  0.8761117425894965
  0.9346352229454399  0.7820013227995356  0.1241776845624157
  0.6864396825485181  0.7912024527250130  0.3883873964006176
  0.9346630047347144  0.7905388929394707  0.6559815619800439
  0.9412572857566254  0.1120239213085130  0.1665741991269514
  0.4351304887772382  0.2908378047642838  0.6560907469669693
  0.0542639020226160  0.2011104134586661  0.2112951621074126
  0.6791530664581308  0.9511575498396994  0.2112484132537274
  0.1779732465866933  0.6235888811336882  0.2995083990923242
  0.8219894820304567  0.8761938625085766  0.7004591042785240
  0.9469052534436416  0.6265525679956327  0.7004919250226677
  0.1970735163646601  0.1261533597422930  0.7003759996585006
  0.9426677997035587  0.4604178672179777  0.4773017397155234
  0.8135301241897125  0.2085929341233650  0.6115617216505089
  0.1834389915078296  0.6250490912088330  0.4331455631486493
  0.4278723401352245  0.1237125871551111  0.2995023513538387
  0.6780242140836331  0.1236583833356423  0.2994795646549734
  0.5617624290311536  0.5414987106763107  0.3884817066223540
  0.8144075903123964  0.2087914590363761  0.3437883113366417
  0.4398980101120874  0.4679767002367549  0.8759647368387884
  0.5585206617420847  0.8876049822849673  0.8334661139354279
  0.3177268682765235  0.2104533753764625  0.4773329351923030
  0.1925228668665183  0.9610018200396218  0.4773764098715653
  0.0585347302949186  0.8876871898976206  0.8335236130407240
  0.0575742297219588  0.5396882128638474  0.5225134758024641
  0.9426464113711043  0.9605996172435392  0.4773208179563695
  0.0634672631949802  0.7084167011617722  0.6116021740666541
  0.5572822597348266  0.0394410721518568  0.5225090495777248
  0.6949874297882347  0.2991068604926052  0.7887923259357345
  0.8177576260962512  0.3617551718454048  0.1666959573477952
  0.4336375132777614  0.1248950921460344  0.4329694474115390
  0.0680017416845740  0.2107316324480795  0.4774289253915179
  0.3096852915777785  0.0406930166186035  0.6559042431402256
  0.4322199196279271  0.7889345526347099  0.5223289162154720
  0.1837533881011649  0.1378360852948425  0.8335947239757492
  0.1859407520287137  0.2828047379342619  0.1242090862605708
  0.9402858577126785  0.4591060893871842  0.3440272401364558
  0.5665292152314890  0.8625424155704702  0.1664510610168581
  0.3042286609679311  0.7007972799373673  0.2112606684759035
  0.9412845981086043  0.6123049542282304  0.1666220359781419
  0.1888058645770399  0.4584039297200905  0.6115743439911199
  0.0723004677703258  0.8763898407486457  0.7003718585550843
  0.0598801311537718  0.5405888053334724  0.6559400519519907
  0.3077815378516906  0.5256409722412811  0.1240143948685244
  0.9363232172101514  0.7913440711686158  0.3883727315934957
  0.9449949696325397  0.2989411539683711  0.7887719479354768
  0.1845291982409185  0.2906000474862583  0.6558675597798170
  0.9381366143942589  0.9584578548816690  0.6115559294999856
  0.8097621640729462  0.7118873826818048  0.7448590310589096
  0.6907798242983541  0.2874362788590155  0.2553072655443258
  0.0592077777059109  0.7123362523644963  0.7449794423936171
  0.6789898072884368  0.4511279523009040  0.2112705732023183
  0.8178440895621450  0.2107222078570683  0.4774578364620454
  0.5676921692293798  0.7106779257611532  0.4774958796873660
  0.0677827847497467  0.8630957614080506  0.1666375658889435
  0.9321499267914473  0.2890258109757357  0.5225149149568075
  0.6845193125123568  0.7905503868830768  0.6559141097997792
  0.0584019327683716  0.8747710200010675  0.4330125779784034
  0.0681824732766671  0.2233154627919023  0.8762002676440274
  0.8097684028240110  0.0403639490704686  0.6559068765823076
  0.5596899145218202  0.0263431382245840  0.1238465896047660
  0.3087268003531020  0.3752340205694092  0.4328422702134030
  0.3164453596901281  0.3749020237194975  0.5668349930444513
  0.3178165100135855  0.7102418120301636  0.4772544485807902
  0.0573580454407171  0.0392736407554819  0.5224933591936581
  0.3219361412146826  0.8762221510951631  0.7005440993127493
  0.0652178268594636  0.5375975704283215  0.2551034022504709
  0.6834512646834955  0.1377621168470135  0.8335301202783512
  0.8151512779358177  0.0374017336560759  0.2551713862937703
  0.1834592129989302  0.1251879182592676  0.4330609475269130
  0.6973182378433828  0.1263623649807645  0.7004997321257127
  0.1826194522621732  0.2894597773502028  0.5225116383676104
  0.4407784185553247  0.7873839084319052  0.2552194981881022
  0.4413926465877600  0.6105570699507922  0.1664643929311229
  0.0634843755414081  0.2082794467975031  0.6115953625575072
  0.1860909360523202  0.7911455274559611  0.3883464568766630
  0.3067639479144389  0.5393762803103507  0.5224207294302472
  0.8218843452731890  0.3761300485461573  0.7003450606171040
  0.6864288574825996  0.2912970757340574  0.3884021223431069
  0.1916483997517614  0.1249236454304935  0.5667811379497535
  0.6896961122939165  0.9683630362824214  0.8760716539336411
  0.6915853821016529  0.1250630163273004  0.5669431098455116
  0.4401325701463893  0.9587740440740545  0.3440084718247212
  0.1840013103199860  0.9626917646887302  0.7447609139411862
  0.9412156641331081  0.7874528875047903  0.2552497700336857
  0.5582844554824191  0.8750420782926199  0.4330392131856493
  0.3086772169363716  0.8750812858934739  0.4330154724355327
  0.8073969541893788  0.5389774410928641  0.5225455214198125
  0.9293244119625645  0.4512189329802487  0.2112945613155278
  0.3152017905639102  0.5376794324857883  0.2551384815738095
  0.5614888402898506  0.0414860841289147  0.3884276289699675
  0.9384493025035040  0.4584698985970110  0.6116215473935993
  0.0613535248421883  0.0412759345690138  0.3883881345089711
  0.0614748259195851  0.5414552058563923  0.3883811418762818
  0.4361873933658884  0.2910896445893143  0.3883370964358621
  0.6926029077223349  0.4606437672341270  0.4773937012467260
  0.0666215297820926  0.3749787689003250  0.5669207231421972
  0.5539102073655860  0.7010626905437733  0.2111605649231670
  0.9412637566870279  0.2875104238766367  0.2552338143844249
  0.8191836461414124  0.0496180876516563  0.7890803642178013
  0.1901462480809511  0.9589738604593395  0.3440094095188761
  0.5529730683650741  0.8737777983170621  0.2996020286686145
  0.0584267340945087  0.3747742771707586  0.4328366855093013
  0.3149906592232682  0.7090850492962800  0.3439440752476062
  0.3150030485997620  0.2089652537031794  0.3439369846741098
  0.9414314088234395  0.1252458295544357  0.5668601899540111
  0.4387930011379880  0.9588240622225379  0.6115943152106599
  0.5655114193633223  0.0375261771757978  0.2550745661781733
  0.1859676612360241  0.7826769541083382  0.1242464064068848
  0.0653486990517417  0.0375669768251150  0.2551647994070677
  0.6916549993334623  0.6250078837601576  0.5669388934888491
  0.0569899878485096  0.5259260123273382  0.1241551067830787
  0.3065953663013375  0.0386652167415212  0.5223130393357980
  0.6876263237799964  0.2822039175676239  0.1241675496685824
  0.8175173979490871  0.7107182971861663  0.4775397675371335
  0.4335691452427194  0.1378754574288219  0.8335150273317812
  0.3222753077192412  0.3763286232127673  0.7004192359394269
  0.6835956332601736  0.6379332710490916  0.8335086183741750
  0.5597775004949209  0.7120569012869934  0.7448582122943831
  0.9361970852637626  0.2911994179508774  0.3884174514216989
  0.9396755436964873  0.9683844111891149  0.8761042514546044
  0.5627764812429702  0.2079866257822598  0.6113731015012337
  0.8165178204175382  0.8749216208486474  0.5668596118258926
  0.8028843367555291  0.8735614024074422  0.2995045434664619
  0.3152604829227534  0.0378449591852205  0.2550926574818601
  0.4366955738494745  0.2832793375617586  0.1240585385581168
  0.3135575763398039  0.7087667759243270  0.6116245770903120
  0.4338564728337509  0.6248919278032998  0.4329712451549015
  0.9327743363922377  0.6254625252013567  0.4331685745315071
  0.3183240450835145  0.8629440580104172  0.1658072913631352
  0.0705050048591012  0.5493285227471304  0.7887592249013120
  0.9332120247493286  0.1254739133179301  0.4331848527100643
  0.3182604888845938  0.3629098256956286  0.1657750435603566
  0.9334234353877469  0.9621746522122747  0.7446896834853506
  0.1815558415533756  0.7893571733613320  0.5225120784540721
 
  0.00000000E+00  0.00000000E+00  0.00000000E+00
  0.00000000E+00  0.00000000E+00  0.00000000E+00
  0.00000000E+00  0.00000000E+00  0.00000000E+00
  0.00000000E+00  0.00000000E+00  0.00000000E+00
  0.00000000E+00  0.00000000E+00  0.00000000E+00
  0.00000000E+00  0.00000000E+00  0.00000000E+00
  0.00000000E+00  0.00000000E+00  0.00000000E+00
  0.00000000E+00  0.00000000E+00  0.00000000E+00
  0.00000000E+00  0.00000000E+00  0.00000000E+00
  0.00000000E+00  0.00000000E+00  0.00000000E+00
  0.00000000E+00  0.00000000E+00  0.00000000E+00
  0.00000000E+00  0.00000000E+00  0.00000000E+00
  0.00000000E+00  0.00000000E+00  0.00000000E+00
  0.00000000E+00  0.00000000E+00  0.00000000E+00
  0.00000000E+00  0.00000000E+00  0.00000000E+00
  0.00000000E+00  0.00000000E+00  0.00000000E+00
  0.00000000E+00  0.00000000E+00  0.00000000E+00
  0.00000000E+00  0.00000000E+00  0.00000000E+00
  0.00000000E+00  0.00000000E+00  0.00000000E+00
  0.00000000E+00  0.00000000E+00  0.00000000E+00
  0.00000000E+00  0.00000000E+00  0.00000000E+00
  0.00000000E+00  0.00000000E+00  0.00000000E+00
  0.00000000E+00  0.00000000E+00  0.00000000E+00
  0.00000000E+00  0.00000000E+00  0.00000000E+00
  0.00000000E+00  0.00000000E+00  0.00000000E+00
  0.00000000E+00  0.00000000E+00  0.00000000E+00
  0.00000000E+00  0.00000000E+00  0.00000000E+00
  0.00000000E+00  0.00000000E+00  0.00000000E+00
  0.00000000E+00  0.00000000E+00  0.00000000E+00
  0.00000000E+00  0.00000000E+00  0.00000000E+00
  0.00000000E+00  0.00000000E+00  0.00000000E+00
  0.00000000E+00  0.00000000E+00  0.00000000E+00
  0.00000000E+00  0.00000000E+00  0.00000000E+00
  0.00000000E+00  0.00000000E+00  0.00000000E+00
  0.00000000E+00  0.00000000E+00  0.00000000E+00
  0.00000000E+00  0.00000000E+00  0.00000000E+00
  0.00000000E+00  0.00000000E+00  0.00000000E+00
  0.00000000E+00  0.00000000E+00  0.00000000E+00
  0.00000000E+00  0.00000000E+00  0.00000000E+00
  0.00000000E+00  0.00000000E+00  0.00000000E+00
  0.00000000E+00  0.00000000E+00  0.00000000E+00
  0.00000000E+00  0.00000000E+00  0.00000000E+00
  0.00000000E+00  0.00000000E+00  0.00000000E+00
  0.00000000E+00  0.00000000E+00  0.00000000E+00
  0.00000000E+00  0.00000000E+00  0.00000000E+00
  0.00000000E+00  0.00000000E+00  0.00000000E+00
  0.00000000E+00  0.00000000E+00  0.00000000E+00
  0.00000000E+00  0.00000000E+00  0.00000000E+00
  0.00000000E+00  0.00000000E+00  0.00000000E+00
  0.00000000E+00  0.00000000E+00  0.00000000E+00
  0.00000000E+00  0.00000000E+00  0.00000000E+00
  0.00000000E+00  0.00000000E+00  0.00000000E+00
  0.00000000E+00  0.00000000E+00  0.00000000E+00
  0.00000000E+00  0.00000000E+00  0.00000000E+00
  0.00000000E+00  0.00000000E+00  0.00000000E+00
  0.00000000E+00  0.00000000E+00  0.00000000E+00
  0.00000000E+00  0.00000000E+00  0.00000000E+00
  0.00000000E+00  0.00000000E+00  0.00000000E+00
  0.00000000E+00  0.00000000E+00  0.00000000E+00
  0.00000000E+00  0.00000000E+00  0.00000000E+00
  0.00000000E+00  0.00000000E+00  0.00000000E+00
  0.00000000E+00  0.00000000E+00  0.00000000E+00
  0.00000000E+00  0.00000000E+00  0.00000000E+00
  0.00000000E+00  0.00000000E+00  0.00000000E+00
  0.00000000E+00  0.00000000E+00  0.00000000E+00
  0.00000000E+00  0.00000000E+00  0.00000000E+00
  0.00000000E+00  0.00000000E+00  0.00000000E+00
  0.00000000E+00  0.00000000E+00  0.00000000E+00
  0.00000000E+00  0.00000000E+00  0.00000000E+00
  0.00000000E+00  0.00000000E+00  0.00000000E+00
  0.00000000E+00  0.00000000E+00  0.00000000E+00
  0.00000000E+00  0.00000000E+00  0.00000000E+00
  0.00000000E+00  0.00000000E+00  0.00000000E+00
  0.00000000E+00  0.00000000E+00  0.00000000E+00
  0.00000000E+00  0.00000000E+00  0.00000000E+00
  0.00000000E+00  0.00000000E+00  0.00000000E+00
  0.00000000E+00  0.00000000E+00  0.00000000E+00
  0.00000000E+00  0.00000000E+00  0.00000000E+00
  0.00000000E+00  0.00000000E+00  0.00000000E+00
  0.00000000E+00  0.00000000E+00  0.00000000E+00
  0.00000000E+00  0.00000000E+00  0.00000000E+00
  0.00000000E+00  0.00000000E+00  0.00000000E+00
  0.00000000E+00  0.00000000E+00  0.00000000E+00
  0.00000000E+00  0.00000000E+00  0.00000000E+00
  0.00000000E+00  0.00000000E+00  0.00000000E+00
  0.00000000E+00  0.00000000E+00  0.00000000E+00
  0.00000000E+00  0.00000000E+00  0.00000000E+00
  0.00000000E+00  0.00000000E+00  0.00000000E+00
  0.00000000E+00  0.00000000E+00  0.00000000E+00
  0.00000000E+00  0.00000000E+00  0.00000000E+00
  0.00000000E+00  0.00000000E+00  0.00000000E+00
  0.00000000E+00  0.00000000E+00  0.00000000E+00
  0.00000000E+00  0.00000000E+00  0.00000000E+00
  0.00000000E+00  0.00000000E+00  0.00000000E+00
  0.00000000E+00  0.00000000E+00  0.00000000E+00
  0.00000000E+00  0.00000000E+00  0.00000000E+00
  0.00000000E+00  0.00000000E+00  0.00000000E+00
  0.00000000E+00  0.00000000E+00  0.00000000E+00
  0.00000000E+00  0.00000000E+00  0.00000000E+00
  0.00000000E+00  0.00000000E+00  0.00000000E+00
  0.00000000E+00  0.00000000E+00  0.00000000E+00
  0.00000000E+00  0.00000000E+00  0.00000000E+00
  0.00000000E+00  0.00000000E+00  0.00000000E+00
  0.00000000E+00  0.00000000E+00  0.00000000E+00
  0.00000000E+00  0.00000000E+00  0.00000000E+00
  0.00000000E+00  0.00000000E+00  0.00000000E+00
  0.00000000E+00  0.00000000E+00  0.00000000E+00
  0.00000000E+00  0.00000000E+00  0.00000000E+00
  0.00000000E+00  0.00000000E+00  0.00000000E+00
  0.00000000E+00  0.00000000E+00  0.00000000E+00
  0.00000000E+00  0.00000000E+00  0.00000000E+00
  0.00000000E+00  0.00000000E+00  0.00000000E+00
  0.00000000E+00  0.00000000E+00  0.00000000E+00
  0.00000000E+00  0.00000000E+00  0.00000000E+00
  0.00000000E+00  0.00000000E+00  0.00000000E+00
  0.00000000E+00  0.00000000E+00  0.00000000E+00
  0.00000000E+00  0.00000000E+00  0.00000000E+00
  0.00000000E+00  0.00000000E+00  0.00000000E+00
  0.00000000E+00  0.00000000E+00  0.00000000E+00
  0.00000000E+00  0.00000000E+00  0.00000000E+00
  0.00000000E+00  0.00000000E+00  0.00000000E+00
  0.00000000E+00  0.00000000E+00  0.00000000E+00
  0.00000000E+00  0.00000000E+00  0.00000000E+00
  0.00000000E+00  0.00000000E+00  0.00000000E+00
  0.00000000E+00  0.00000000E+00  0.00000000E+00
  0.00000000E+00  0.00000000E+00  0.00000000E+00
  0.00000000E+00  0.00000000E+00  0.00000000E+00
  0.00000000E+00  0.00000000E+00  0.00000000E+00
  0.00000000E+00  0.00000000E+00  0.00000000E+00
  0.00000000E+00  0.00000000E+00  0.00000000E+00
  0.00000000E+00  0.00000000E+00  0.00000000E+00
  0.00000000E+00  0.00000000E+00  0.00000000E+00
  0.00000000E+00  0.00000000E+00  0.00000000E+00
  0.00000000E+00  0.00000000E+00  0.00000000E+00
  0.00000000E+00  0.00000000E+00  0.00000000E+00
  0.00000000E+00  0.00000000E+00  0.00000000E+00
  0.00000000E+00  0.00000000E+00  0.00000000E+00
  0.00000000E+00  0.00000000E+00  0.00000000E+00
  0.00000000E+00  0.00000000E+00  0.00000000E+00
  0.00000000E+00  0.00000000E+00  0.00000000E+00
  0.00000000E+00  0.00000000E+00  0.00000000E+00
  0.00000000E+00  0.00000000E+00  0.00000000E+00
  0.00000000E+00  0.00000000E+00  0.00000000E+00
  0.00000000E+00  0.00000000E+00  0.00000000E+00
  0.00000000E+00  0.00000000E+00  0.00000000E+00
  0.00000000E+00  0.00000000E+00  0.00000000E+00
  0.00000000E+00  0.00000000E+00  0.00000000E+00
  0.00000000E+00  0.00000000E+00  0.00000000E+00
  0.00000000E+00  0.00000000E+00  0.00000000E+00
  0.00000000E+00  0.00000000E+00  0.00000000E+00
  0.00000000E+00  0.00000000E+00  0.00000000E+00
  0.00000000E+00  0.00000000E+00  0.00000000E+00
  0.00000000E+00  0.00000000E+00  0.00000000E+00
  0.00000000E+00  0.00000000E+00  0.00000000E+00
  0.00000000E+00  0.00000000E+00  0.00000000E+00
  0.00000000E+00  0.00000000E+00  0.00000000E+00
  0.00000000E+00  0.00000000E+00  0.00000000E+00
  0.00000000E+00  0.00000000E+00  0.00000000E+00
  0.00000000E+00  0.00000000E+00  0.00000000E+00
  0.00000000E+00  0.00000000E+00  0.00000000E+00
  0.00000000E+00  0.00000000E+00  0.00000000E+00
  0.00000000E+00  0.00000000E+00  0.00000000E+00
  0.00000000E+00  0.00000000E+00  0.00000000E+00
  0.00000000E+00  0.00000000E+00  0.00000000E+00
  0.00000000E+00  0.00000000E+00  0.00000000E+00
  0.00000000E+00  0.00000000E+00  0.00000000E+00
  0.00000000E+00  0.00000000E+00  0.00000000E+00
  0.00000000E+00  0.00000000E+00  0.00000000E+00
  0.00000000E+00  0.00000000E+00  0.00000000E+00
  0.00000000E+00  0.00000000E+00  0.00000000E+00
  0.00000000E+00  0.00000000E+00  0.00000000E+00
  0.00000000E+00  0.00000000E+00  0.00000000E+00
  0.00000000E+00  0.00000000E+00  0.00000000E+00
  0.00000000E+00  0.00000000E+00  0.00000000E+00
  0.00000000E+00  0.00000000E+00  0.00000000E+00
  0.00000000E+00  0.00000000E+00  0.00000000E+00
  0.00000000E+00  0.00000000E+00  0.00000000E+00
  0.00000000E+00  0.00000000E+00  0.00000000E+00
  0.00000000E+00  0.00000000E+00  0.00000000E+00
  0.00000000E+00  0.00000000E+00  0.00000000E+00
  0.00000000E+00  0.00000000E+00  0.00000000E+00
  0.00000000E+00  0.00000000E+00  0.00000000E+00
  0.00000000E+00  0.00000000E+00  0.00000000E+00
  0.00000000E+00  0.00000000E+00  0.00000000E+00
  0.00000000E+00  0.00000000E+00  0.00000000E+00
  0.00000000E+00  0.00000000E+00  0.00000000E+00
  0.00000000E+00  0.00000000E+00  0.00000000E+00
  0.00000000E+00  0.00000000E+00  0.00000000E+00
  0.00000000E+00  0.00000000E+00  0.00000000E+00
  0.00000000E+00  0.00000000E+00  0.00000000E+00
  0.00000000E+00  0.00000000E+00  0.00000000E+00
  0.00000000E+00  0.00000000E+00  0.00000000E+00
  0.00000000E+00  0.00000000E+00  0.00000000E+00
  0.00000000E+00  0.00000000E+00  0.00000000E+00
  0.00000000E+00  0.00000000E+00  0.00000000E+00
  0.00000000E+00  0.00000000E+00  0.00000000E+00
  0.00000000E+00  0.00000000E+00  0.00000000E+00
  0.00000000E+00  0.00000000E+00  0.00000000E+00
  0.00000000E+00  0.00000000E+00  0.00000000E+00
  0.00000000E+00  0.00000000E+00  0.00000000E+00
  0.00000000E+00  0.00000000E+00  0.00000000E+00
  0.00000000E+00  0.00000000E+00  0.00000000E+00
  0.00000000E+00  0.00000000E+00  0.00000000E+00
  0.00000000E+00  0.00000000E+00  0.00000000E+00
  0.00000000E+00  0.00000000E+00  0.00000000E+00
  0.00000000E+00  0.00000000E+00  0.00000000E+00
  0.00000000E+00  0.00000000E+00  0.00000000E+00
  0.00000000E+00  0.00000000E+00  0.00000000E+00
  0.00000000E+00  0.00000000E+00  0.00000000E+00
  0.00000000E+00  0.00000000E+00  0.00000000E+00
  0.00000000E+00  0.00000000E+00  0.00000000E+00
  0.00000000E+00  0.00000000E+00  0.00000000E+00
  0.00000000E+00  0.00000000E+00  0.00000000E+00
  0.00000000E+00  0.00000000E+00  0.00000000E+00
  0.00000000E+00  0.00000000E+00  0.00000000E+00
  0.00000000E+00  0.00000000E+00  0.00000000E+00
  0.00000000E+00  0.00000000E+00  0.00000000E+00
  0.00000000E+00  0.00000000E+00  0.00000000E+00
  0.00000000E+00  0.00000000E+00  0.00000000E+00
  0.00000000E+00  0.00000000E+00  0.00000000E+00
  0.00000000E+00  0.00000000E+00  0.00000000E+00
  0.00000000E+00  0.00000000E+00  0.00000000E+00
  0.00000000E+00  0.00000000E+00  0.00000000E+00
  0.00000000E+00  0.00000000E+00  0.00000000E+00
  0.00000000E+00  0.00000000E+00  0.00000000E+00
  0.00000000E+00  0.00000000E+00  0.00000000E+00
  0.00000000E+00  0.00000000E+00  0.00000000E+00
  0.00000000E+00  0.00000000E+00  0.00000000E+00
  0.00000000E+00  0.00000000E+00  0.00000000E+00
  0.00000000E+00  0.00000000E+00  0.00000000E+00
  0.00000000E+00  0.00000000E+00  0.00000000E+00
  0.00000000E+00  0.00000000E+00  0.00000000E+00
  0.00000000E+00  0.00000000E+00  0.00000000E+00
  0.00000000E+00  0.00000000E+00  0.00000000E+00
  0.00000000E+00  0.00000000E+00  0.00000000E+00
  0.00000000E+00  0.00000000E+00  0.00000000E+00
  0.00000000E+00  0.00000000E+00  0.00000000E+00
  0.00000000E+00  0.00000000E+00  0.00000000E+00
  0.00000000E+00  0.00000000E+00  0.00000000E+00
  0.00000000E+00  0.00000000E+00  0.00000000E+00
  0.00000000E+00  0.00000000E+00  0.00000000E+00
  0.00000000E+00  0.00000000E+00  0.00000000E+00
  0.00000000E+00  0.00000000E+00  0.00000000E+00
  0.00000000E+00  0.00000000E+00  0.00000000E+00
  0.00000000E+00  0.00000000E+00  0.00000000E+00
  0.00000000E+00  0.00000000E+00  0.00000000E+00
  0.00000000E+00  0.00000000E+00  0.00000000E+00