CuInSe2gb                               
   1.00000000000000     
     9.7266780392896699    0.0000000000000000    0.0000000000000000
     0.0000000000000000    8.4235502764570693    0.0000000000000000
     0.0000000000000000    0.0000000000000000   45.0000000000000000
   Fe   Mn
   281     7
Direct
  0.0577274618084611  0.7011981449952509  0.2112466232835249
  0.3159083661621039  0.7197285960721606  0.8756517897591597
  0.6882110320335901  0.9579670797341342  0.6114227917525656
  0.4381116668726909  0.4576421736172887  0.6114170145383709
  0.4357946492350322  0.2872718229318181  0.2555604259290916
  0.0611020627146635  0.3864264670202150  0.8340126329941967
  0.3113580162410703  0.8866045114263338  0.8340317245348818
  0.4422077348946976  0.6264204116374747  0.7002867802146847
  0.0642755180888370  0.2130200094672119  0.7443856078032018
  0.1826739852831082  0.4516524444651814  0.2113138787036471
  0.5637742448256359  0.2091546929496431  0.4779267626051739
  0.0638541734759574  0.8745999814922711  0.5668255802980462
  0.5653426555952391  0.2194373748724436  0.8755486527949452
  0.8113910899221222  0.5310522205665458  0.1246339777928912
  0.4328708382941485  0.9515474134904458  0.2111608802243193
  0.5640435816262996  0.3744487121803954  0.5667281230720119
  0.8121583401848297  0.0424432772967301  0.3885462007228238
  0.6861151814873395  0.7908199005638985  0.5221326736478760
  0.4386924464534976  0.4590912184301450  0.4778820919979572
  0.4386857881269497  0.9624298565917044  0.7444396180164942
  0.4387782484662169  0.6244661529229059  0.5668168804593783
  0.5670968157288377  0.8762557546386416  0.7001940266875194
  0.3106187054254695  0.0311210952614332  0.1241445275589549
  0.6865644981552912  0.9583758610079605  0.3442304302084772
  0.6872759225317395  0.7799946158628978  0.1246778242806961
  0.0576816911458177  0.3735193782406355  0.2997135987443917
  0.6887618704314892  0.4713341083384355  0.8753995359602822
  0.4330215772773955  0.4510421063588020  0.2112286284000548
  0.8109930972734049  0.3755026671398866  0.4331270124937656
  0.5630514698468233  0.7078373667917753  0.6114670730194711
  0.5629743077855689  0.5412945394998941  0.6556282840717976
  0.8143655842388815  0.8640633151436755  0.1660438723062161
  0.5604761304616127  0.5372283312763780  0.2555126432997159
  0.6866566417576903  0.4582606716804905  0.3442001367505518
  0.1880027889272291  0.6133629506095561  0.1662844887317533
  0.1922210957946306  0.7989110431037154  0.7885777523802564
  0.4424034849738910  0.1263728130492474  0.7002935415690457
  0.9327967935466138  0.6234349958340559  0.2997763863813914
  0.3152001829711099  0.2193570205486827  0.8755776137771857
  0.3137465383161492  0.8746355781174397  0.5667653905258420
  0.8152711191601115  0.2195913382601487  0.8756095564123342
  0.8128957746071332  0.5414587709223063  0.6556427222934477
  0.5601106453717254  0.5306041098849282  0.1240790177066967
  0.5671567602686490  0.0493555684224248  0.7888044886418291
  0.1862319898343557  0.2873854544067507  0.2555337635220378
  0.8109134978625377  0.8755242015661537  0.4331047351555898
  0.5671787442761564  0.3767225276691125  0.7003799682303771
  0.0616285373777674  0.0294514554244949  0.1246106935639102
  0.3129175841640036  0.5411561095172250  0.6556093664824685
  0.5617802721979575  0.2084561924309613  0.3443353730484049
  0.1880965301528480  0.9579356968177226  0.6114247908728228
  0.3076896261581279  0.3736428542760625  0.2998111635623557
  0.4379282493935057  0.7914635155804641  0.6556852234606888
  0.1920763218895731  0.2981479441078752  0.7887254780673163
  0.0632697964422238  0.3638928203212592  0.1661236565765193
  0.6920306957426762  0.6262843391182957  0.7002407975185541
  0.3118457743123038  0.5418726009581672  0.3885072690406290
  0.0651879653858677  0.7194162084715650  0.8757409327163184
  0.9365390980499314  0.6366269994827891  0.8341596594972567
  0.3177615590520090  0.5495168817612918  0.7888240737889968
  0.3072996827595517  0.2007366558830836  0.2112132193855709
  0.0637605225477769  0.7088018967703793  0.4779516303599399
  0.5572788594104635  0.2013678105929996  0.2111648161705296
  0.3142050605020240  0.2132220589178452  0.7443539975980925
  0.0670190317974572  0.3767509719354707  0.7002823078308416
  0.1864075366590081  0.6368079926712165  0.8339122114495618
  0.0672332631517674  0.0489124061891257  0.7888607695940341
  0.4388638564759678  0.1245201907793971  0.5667716365262544
  0.9381354683529660  0.2917745960763234  0.6555521062482571
  0.8073977766447882  0.2012326239210731  0.2112727946071917
  0.9325634830649636  0.9515782723904682  0.2114657668150456
  0.9387797726126242  0.6248270789840766  0.5667625161320481
  0.8111289993117846  0.3864053140595283  0.8340193750238110
  0.1920292819216842  0.6266470416516968  0.7002673548642228
  0.8112456659486147  0.8864892081621771  0.8341857439855502
  0.6882480882983681  0.2914703963711340  0.6556813900410581
  0.3132906875225033  0.2079440827481668  0.6114795495595519
  0.4386548863333205  0.4625186124819095  0.7442918322477331
  0.4369665572347938  0.7921155376135282  0.3885715217677707
  0.6881971330414223  0.9623573544018869  0.7445015992829640
  0.8070564861138569  0.7010241084165256  0.2112546068451658
  0.8128760572014281  0.7077083704075754  0.6113531597420622
  0.4372563398046124  0.7796086893467085  0.1239883751170786
  0.3137413834233740  0.7128334716069737  0.7443509226350618
  0.3173979964201895  0.0490866627676277  0.7888325432731471
  0.8121395799117105  0.5423738028645140  0.3885731059670985
  0.6861452364657135  0.2911634739459867  0.5221685872040168
  0.6922290423782805  0.7992375359746189  0.7887305372634297
  0.1860596978513898  0.7878333741693136  0.2556059150384257
  0.6894225277260688  0.1132488159890881  0.1660810147534179
  0.6885191430859625  0.9589056746145886  0.4779793735077898
  0.9369951051855049  0.9590344889713021  0.3443195360795104
  0.8110828195532267  0.0402199404494590  0.5220984181274737
  0.6851552352852879  0.6251689250676705  0.4331586421699714
  0.4369426013916137  0.4588022143897410  0.3443311773926373
  0.8137808387183709  0.2133018992185182  0.7443442988725926
  0.4392452856456187  0.9715463625969053  0.8754177287066842
  0.5639586195431138  0.8744186761282710  0.5667269775553542
  0.8108398413136200  0.0302495917769795  0.1246689333865909
  0.4327482130049349  0.6234371586220102  0.2998172064226217
  0.8151067042416634  0.7200850239877106  0.8756825751539603
  0.6880819529318332  0.4577658526634671  0.6114127326705331
  0.5609835736328441  0.3867165735686699  0.8339589736910581
  0.8075234944596367  0.3735871011767432  0.2997365064947449
  0.1867819187745585  0.2919758974763333  0.3885542427849743
  0.8167815152346093  0.5491829879400142  0.7889453811302148
  0.1863278972553913  0.7905262367084603  0.5221773426986723
  0.3075303805889421  0.8737616482747916  0.2997585259657110
  0.1825020625201910  0.9519337727746935  0.2114163205435600
  0.1892308256038803  0.4627414409447295  0.7443206364503703
  0.4360842193507393  0.2908063316015814  0.5220741377060097
  0.0618746541638309  0.7087327717387713  0.3443268005305227
  0.1883145614531089  0.7910318067696054  0.6555691445888550
  0.4419333189529463  0.7992038622604348  0.7886032221419645
  0.6853252476211783  0.1252639736157916  0.4331804821246636
  0.9361250775751889  0.7903498797948968  0.5221803778935963
  0.6884169921387552  0.6139188218611715  0.1661994068191451
  0.8119542537606285  0.7087795694328891  0.3443865512751487
  0.9388943776804849  0.4625077621915879  0.7442840455782898
  0.1869960515782003  0.4585844139786162  0.3443059622182072
  0.5674336808792999  0.5491029481252125  0.7888711315832183
  0.5637668157073028  0.3640844317088628  0.1659428990211983
  0.5617956612785014  0.7084671999389869  0.3443366537342202
  0.5578294493767587  0.3735294619933987  0.2998246723089718
  0.1886760959467105  0.4711109134237726  0.8755011466303770
  0.1883459154835480  0.1127872193445908  0.1662415808582625
  0.4422184597523964  0.2985956793936625  0.7886524072875173
  0.6857966901318132  0.7876125716929875  0.2554999416175434
  0.9369873631618000  0.1363509413112014  0.8340154579857609
  0.4386853818286208  0.9588386056585451  0.4778482497554956
  0.5653524523879836  0.7198657544859365  0.8755999976944658
  0.1885300789626335  0.4590192883860589  0.4778960804413613
  0.9362606493161405  0.2798521302735567  0.1247023406557727
  0.3117688526989478  0.0418736163420357  0.3885005176694087
  0.0629971943239901  0.0410438983583925  0.6556331387990908
  0.5611885685755633  0.3752944410835908  0.4331440232184252
  0.6880288990359115  0.4622859062629858  0.7443096030126540
  0.5640132208911298  0.2132187607038627  0.7443773936351897
  0.9423823051165446  0.1269517580514045  0.7002773756995795
  0.5630938419683654  0.0411527774856967  0.6556247160144775
  0.5612016230129205  0.5407388610885323  0.5220541153710039
  0.1826842554350285  0.1233725656773341  0.2996809490988677
  0.4383938435994940  0.1127903898446225  0.1661747972644241
  0.6825582379407803  0.6233858262082700  0.2997760880446896
  0.9326727995859366  0.1232207981966254  0.2997266101455223
  0.8138391960888531  0.3746923451723533  0.5668214154600321
  0.0577100001878428  0.8733521613869311  0.2996937198374568
  0.1888383742693859  0.6246728821859622  0.5668726047894290
  0.9415406482624525  0.7987050721516324  0.7887879500031656
  0.3116273826279371  0.3864726810648155  0.8340348697766067
  0.9392628406041266  0.4713143151495069  0.8754233569052939
  0.4368256862774173  0.6368611089727835  0.8339448906754030
  0.0619140386892804  0.2086950289359113  0.3443543357635001
  0.1886774526856109  0.9712035250013387  0.8754193674017053
  0.9364112372848946  0.7795516895301206  0.1248470904634055
  0.6867992502876867  0.7921375991504537  0.3885266667302806
  0.9380436218862965  0.7913634133176891  0.6556729387313337
  0.9381146594553054  0.1138163944584303  0.1663047565993044
  0.4378887111602644  0.2915003597019772  0.6556897467519442
  0.0578192138712031  0.2010484791003796  0.2112842879528899
  0.6825480110019720  0.9515305615383075  0.2113884821885942
  0.1825723058394733  0.6235406220395903  0.2997503823932198
  0.8171042987439556  0.8764153877319190  0.7002130267221109
  0.9422213110992071  0.6265842968352556  0.7003244662866869
  0.1919221964673215  0.1267189711592846  0.7002562887822839
  0.9388404066772940  0.4586588225009138  0.4779043108099865
  0.8130445122010539  0.2077684952485614  0.6114435752272751
  0.1868572869405336  0.6253059591387281  0.4331348113786520
  0.4327089063671222  0.1235205198672043  0.2997567499253430
  0.6824842363545354  0.1233840950405269  0.2997540247166269
  0.5616187611314294  0.5418639194647732  0.3885292726047649
  0.8119145695714650  0.2088416626539064  0.3444087334000093
  0.4390245219933447  0.4713893214848202  0.8753248036329205
  0.5614023579113102  0.8864387410194903  0.8340907427518116
  0.3137272412079590  0.2091613145014929  0.4778972217217193
  0.1885315076910529  0.9588722542881930  0.4778604249725829
  0.0613401104836283  0.8866056989872594  0.8341028432592792
  0.0613155889456199  0.5403675592804441  0.5220456102380501
  0.9386878307257094  0.9587028203513652  0.4778921917019747
  0.0630727948491788  0.7076729654804884  0.6113855742537805
  0.5611245264358041  0.0409077308462608  0.5220929030281450
  0.6921646503195253  0.2984284252438528  0.7886806060430664
  0.8139616279499775  0.3631505701235853  0.1661359692000111
  0.4358790195328986  0.1251025624783089  0.4331562086136478
  0.0636531370346048  0.2088690552310579  0.4779338402054750
  0.3130943201586787  0.0412330129686810  0.6556113438978286
  0.4362816275141451  0.7904513048817023  0.5220483596789933
  0.1869229604451961  0.1367091048221187  0.8339814766571703
  0.1858282002017939  0.2785754850151134  0.1244489087846476
  0.9369264798513929  0.4589853549970180  0.3442455793288659
  0.5648820289336676  0.8630122604958997  0.1659121836928127
  0.3073081326163264  0.7010261733608451  0.2112979164838571
  0.9381000339440996  0.6137478040044964  0.1661875700204696
  0.1881427181439209  0.4578590851920308  0.6114187977210811
  0.0672005625454053  0.8765942235001140  0.7001802214197316
  0.0631765471229566  0.5412490596130377  0.6557152231873444
  0.3109502745473278  0.5316047680367866  0.1239531074004321
  0.9366224984908962  0.7921699774366757  0.3885239638870235
  0.9417902513993929  0.2983342231540186  0.7887273003000544
  0.1878903178044871  0.2915283685892386  0.6556604159469289
  0.9381537616775875  0.9578228203406878  0.6114944246660357
  0.8138276175508093  0.7130836021739878  0.7444914104670117
  0.6859442124731182  0.2876046953680688  0.2555125423431375
  0.0644715697822178  0.7129736579178224  0.7443079431240680
  0.6824101265059128  0.4514692733379522  0.2114071101724077
  0.8137428662885711  0.2088384484452434  0.4779110643721786
  0.5635911372462050  0.7091709613731451  0.4779570198472706
  0.0630425407462654  0.8643559825166099  0.1661452878934730
  0.9363343597373536  0.2906118118814145  0.5221735063706219
  0.6876596010799260  0.7911900049126339  0.6556866766938556
  0.0616077532073086  0.8748938966751545  0.4330894198066206
  0.0654921610360186  0.2191166213251929  0.8756758324029408
  0.8130661288505672  0.0412010373196797  0.6556175639629314
  0.5612039479582959  0.0299874505553091  0.1245361905822829
  0.3109824806420797  0.3751870886359495  0.4331682175000077
  0.3138463512911430  0.3746096732595274  0.5667329517318607
  0.3137055182818901  0.7091247433560570  0.4779008934155891
  0.0613326377846892  0.0406529189459335  0.5220392782390303
  0.3169733409171765  0.8762409477862572  0.7002543752175048
  0.0607905015852664  0.5372208790450573  0.2556092990525921
  0.6867522937368875  0.1369997372450475  0.8339750581237179
  0.8110088241090383  0.0371048530175809  0.2555971233135242
  0.1868558482112192  0.1252407685745775  0.4331532880958907
  0.6922888049430860  0.1264761435008270  0.7002123921454251
  0.1863078076120181  0.2908838992874287  0.5222078170940367
  0.4357261048204170  0.7870923828456595  0.2556247024915266
  0.8107670967670261  0.5368837435965206  0.2555672356973737
  0.0631307616609601  0.2079226898844390  0.6114022688521477
  0.1867702352994763  0.7921185497612890  0.3885620178000853
  0.3113555597388776  0.5406937068134098  0.5220677648331464
  0.8170740920253182  0.3766482949523825  0.7003001005275935
  0.6867870658597152  0.2920372791222962  0.3885073549016915
  0.1888891565121691  0.1245735946180604  0.5667800984613776
  0.6888350356114824  0.9713406299312128  0.8753886427337320
  0.6887690896100392  0.1246293595953961  0.5667968091276430
  0.4369121968556300  0.9587691271063683  0.3443623445482116
  0.1889793636080168  0.9625084053533719  0.7444224223034445
  0.9358575157496686  0.7873911559206718  0.2556432143239792
  0.5611433222307616  0.8751814712789747  0.4331429982547016
  0.3108814363154644  0.8750257883552499  0.4331674525163014
  0.8110375686369249  0.5401911207850878  0.5220964234961164
  0.9323170837192976  0.4515196901821931  0.2114514759678025
  0.3109481155099668  0.5370143317281503  0.2556444845302243
  0.5616188024135749  0.0418756841443318  0.3884912968966718
  0.9380305190951418  0.4574102928935802  0.6114418936858350
  0.0617467748853159  0.0421090630591793  0.3885039111749513
  0.0618142804896434  0.5421852853737289  0.3885488128907783
  0.4370563823615901  0.2919749474586242  0.3885804894085622
  0.6885533464099689  0.4589441019948149  0.4779829059141622
  0.0639564050607999  0.3746880227461013  0.5668178395326163
  0.5574351879916055  0.7013622193418353  0.2112555925525428
  0.9358117377695573  0.2873711696242206  0.2556247673314278
  0.8167840789406524  0.0489392044448477  0.7888166353231846
  0.1870418221545471  0.9585565448009881  0.3443132844514120
  0.5579008582951325  0.8735835660266175  0.2997653556473517
  0.0615634173296672  0.3750362661402311  0.4331168463967937
  0.3118079399812262  0.7085420847584534  0.3443512138090971
  0.3118462596404856  0.2083822268463025  0.3443234558747570
  0.9387713219990914  0.1247609599831009  0.5667285770465003
  0.4379027501926021  0.9578530211482021  0.6114361117500609
  0.5607389942241490  0.0372191884829826  0.2556168573047063
  0.1866021797947690  0.7793499196233484  0.1244156548439303
  0.0609885205197920  0.0374104670001368  0.2557041589496297
  0.6888445305990153  0.6245973794930875  0.5668536416588266
  0.0606711153376378  0.5297165587998212  0.1245673200579141
  0.3112144636517128  0.0410397364137551  0.5220918184469290
  0.6876221125429866  0.2790890486717994  0.1247367483598318
  0.8135875910756298  0.7088824849851945  0.4779620763196922
  0.4369056677188556  0.1366898890354378  0.8338147328635847
  0.3172922788229173  0.3762605250619274  0.7002441033234768
  0.6870265567177727  0.6369901100635058  0.8339113913320402
  0.5637479047455564  0.7125090999584426  0.7444163695087073
  0.9364788033646185  0.2921452984616125  0.3885082154364130
  0.9390337884012773  0.9708617257197816  0.8754140744326204
  0.5630908349614646  0.2078392035504881  0.6114122515995132
  0.8137811246890110  0.8745808743280594  0.5668201441258303
  0.8076650368106503  0.8734281306427191  0.2996845521827756
  0.3107340627080163  0.0369338567598641  0.2556886382878896
  0.4366921477099367  0.2797611211047508  0.1242998710459327
  0.3130216611496338  0.7077705410179903  0.6114127965502608
  0.4357387914316150  0.6251776305086421  0.4331838934980263
  0.9360894321007829  0.6252152610903399  0.4331945471454260
  0.3138525164326880  0.8634622449640907  0.1658443444502889
  0.0675947844934802  0.5490872347909552  0.7886707420021671
  0.9359231507038669  0.1253750752534825  0.4332032048280303
  0.3145946888322098  0.3621494030294237  0.1656923514178436
  0.9380236228943590  0.9628013636160895  0.7445683532025555
  0.4398518743208050  0.6127150559209203  0.1657155648210851
 
  0.00000000E+00  0.00000000E+00  0.00000000E+00
  0.00000000E+00  0.00000000E+00  0.00000000E+00
  0.00000000E+00  0.00000000E+00  0.00000000E+00
  0.00000000E+00  0.00000000E+00  0.00000000E+00
  0.00000000E+00  0.00000000E+00  0.00000000E+00
  0.00000000E+00  0.00000000E+00  0.00000000E+00
  0.00000000E+00  0.00000000E+00  0.00000000E+00
  0.00000000E+00  0.00000000E+00  0.00000000E+00
  0.00000000E+00  0.00000000E+00  0.00000000E+00
  0.00000000E+00  0.00000000E+00  0.00000000E+00
  0.00000000E+00  0.00000000E+00  0.00000000E+00
  0.00000000E+00  0.00000000E+00  0.00000000E+00
  0.00000000E+00  0.00000000E+00  0.00000000E+00
  0.00000000E+00  0.00000000E+00  0.00000000E+00
  0.00000000E+00  0.00000000E+00  0.00000000E+00
  0.00000000E+00  0.00000000E+00  0.00000000E+00
  0.00000000E+00  0.00000000E+00  0.00000000E+00
  0.00000000E+00  0.00000000E+00  0.00000000E+00
  0.00000000E+00  0.00000000E+00  0.00000000E+00
  0.00000000E+00  0.00000000E+00  0.00000000E+00
  0.00000000E+00  0.00000000E+00  0.00000000E+00
  0.00000000E+00  0.00000000E+00  0.00000000E+00
  0.00000000E+00  0.00000000E+00  0.00000000E+00
  0.00000000E+00  0.00000000E+00  0.00000000E+00
  0.00000000E+00  0.00000000E+00  0.00000000E+00
  0.00000000E+00  0.00000000E+00  0.00000000E+00
  0.00000000E+00  0.00000000E+00  0.00000000E+00
  0.00000000E+00  0.00000000E+00  0.00000000E+00
  0.00000000E+00  0.00000000E+00  0.00000000E+00
  0.00000000E+00  0.00000000E+00  0.00000000E+00
  0.00000000E+00  0.00000000E+00  0.00000000E+00
  0.00000000E+00  0.00000000E+00  0.00000000E+00
  0.00000000E+00  0.00000000E+00  0.00000000E+00
  0.00000000E+00  0.00000000E+00  0.00000000E+00
  0.00000000E+00  0.00000000E+00  0.00000000E+00
  0.00000000E+00  0.00000000E+00  0.00000000E+00
  0.00000000E+00  0.00000000E+00  0.00000000E+00
  0.00000000E+00  0.00000000E+00  0.00000000E+00
  0.00000000E+00  0.00000000E+00  0.00000000E+00
  0.00000000E+00  0.00000000E+00  0.00000000E+00
  0.00000000E+00  0.00000000E+00  0.00000000E+00
  0.00000000E+00  0.00000000E+00  0.00000000E+00
  0.00000000E+00  0.00000000E+00  0.00000000E+00
  0.00000000E+00  0.00000000E+00  0.00000000E+00
  0.00000000E+00  0.00000000E+00  0.00000000E+00
  0.00000000E+00  0.00000000E+00  0.00000000E+00
  0.00000000E+00  0.00000000E+00  0.00000000E+00
  0.00000000E+00  0.00000000E+00  0.00000000E+00
  0.00000000E+00  0.00000000E+00  0.00000000E+00
  0.00000000E+00  0.00000000E+00  0.00000000E+00
  0.00000000E+00  0.00000000E+00  0.00000000E+00
  0.00000000E+00  0.00000000E+00  0.00000000E+00
  0.00000000E+00  0.00000000E+00  0.00000000E+00
  0.00000000E+00  0.00000000E+00  0.00000000E+00
  0.00000000E+00  0.00000000E+00  0.00000000E+00
  0.00000000E+00  0.00000000E+00  0.00000000E+00
  0.00000000E+00  0.00000000E+00  0.00000000E+00
  0.00000000E+00  0.00000000E+00  0.00000000E+00
  0.00000000E+00  0.00000000E+00  0.00000000E+00
  0.00000000E+00  0.00000000E+00  0.00000000E+00
  0.00000000E+00  0.00000000E+00  0.00000000E+00
  0.00000000E+00  0.00000000E+00  0.00000000E+00
  0.00000000E+00  0.00000000E+00  0.00000000E+00
  0.00000000E+00  0.00000000E+00  0.00000000E+00
  0.00000000E+00  0.00000000E+00  0.00000000E+00
  0.00000000E+00  0.00000000E+00  0.00000000E+00
  0.00000000E+00  0.00000000E+00  0.00000000E+00
  0.00000000E+00  0.00000000E+00  0.00000000E+00
  0.00000000E+00  0.00000000E+00  0.00000000E+00
  0.00000000E+00  0.00000000E+00  0.00000000E+00
  0.00000000E+00  0.00000000E+00  0.00000000E+00
  0.00000000E+00  0.00000000E+00  0.00000000E+00
  0.00000000E+00  0.00000000E+00  0.00000000E+00
  0.00000000E+00  0.00000000E+00  0.00000000E+00
  0.00000000E+00  0.00000000E+00  0.00000000E+00
  0.00000000E+00  0.00000000E+00  0.00000000E+00
  0.00000000E+00  0.00000000E+00  0.00000000E+00
  0.00000000E+00  0.00000000E+00  0.00000000E+00
  0.00000000E+00  0.00000000E+00  0.00000000E+00
  0.00000000E+00  0.00000000E+00  0.00000000E+00
  0.00000000E+00  0.00000000E+00  0.00000000E+00
  0.00000000E+00  0.00000000E+00  0.00000000E+00
  0.00000000E+00  0.00000000E+00  0.00000000E+00
  0.00000000E+00  0.00000000E+00  0.00000000E+00
  0.00000000E+00  0.00000000E+00  0.00000000E+00
  0.00000000E+00  0.00000000E+00  0.00000000E+00
  0.00000000E+00  0.00000000E+00  0.00000000E+00
  0.00000000E+00  0.00000000E+00  0.00000000E+00
  0.00000000E+00  0.00000000E+00  0.00000000E+00
  0.00000000E+00  0.00000000E+00  0.00000000E+00
  0.00000000E+00  0.00000000E+00  0.00000000E+00
  0.00000000E+00  0.00000000E+00  0.00000000E+00
  0.00000000E+00  0.00000000E+00  0.00000000E+00
  0.00000000E+00  0.00000000E+00  0.00000000E+00
  0.00000000E+00  0.00000000E+00  0.00000000E+00
  0.00000000E+00  0.00000000E+00  0.00000000E+00
  0.00000000E+00  0.00000000E+00  0.00000000E+00
  0.00000000E+00  0.00000000E+00  0.00000000E+00
  0.00000000E+00  0.00000000E+00  0.00000000E+00
  0.00000000E+00  0.00000000E+00  0.00000000E+00
  0.00000000E+00  0.00000000E+00  0.00000000E+00
  0.00000000E+00  0.00000000E+00  0.00000000E+00
  0.00000000E+00  0.00000000E+00  0.00000000E+00
  0.00000000E+00  0.00000000E+00  0.00000000E+00
  0.00000000E+00  0.00000000E+00  0.00000000E+00
  0.00000000E+00  0.00000000E+00  0.00000000E+00
  0.00000000E+00  0.00000000E+00  0.00000000E+00
  0.00000000E+00  0.00000000E+00  0.00000000E+00
  0.00000000E+00  0.00000000E+00  0.00000000E+00
  0.00000000E+00  0.00000000E+00  0.00000000E+00
  0.00000000E+00  0.00000000E+00  0.00000000E+00
  0.00000000E+00  0.00000000E+00  0.00000000E+00
  0.00000000E+00  0.00000000E+00  0.00000000E+00
  0.00000000E+00  0.00000000E+00  0.00000000E+00
  0.00000000E+00  0.00000000E+00  0.00000000E+00
  0.00000000E+00  0.00000000E+00  0.00000000E+00
  0.00000000E+00  0.00000000E+00  0.00000000E+00
  0.00000000E+00  0.00000000E+00  0.00000000E+00
  0.00000000E+00  0.00000000E+00  0.00000000E+00
  0.00000000E+00  0.00000000E+00  0.00000000E+00
  0.00000000E+00  0.00000000E+00  0.00000000E+00
  0.00000000E+00  0.00000000E+00  0.00000000E+00
  0.00000000E+00  0.00000000E+00  0.00000000E+00
  0.00000000E+00  0.00000000E+00  0.00000000E+00
  0.00000000E+00  0.00000000E+00  0.00000000E+00
  0.00000000E+00  0.00000000E+00  0.00000000E+00
  0.00000000E+00  0.00000000E+00  0.00000000E+00
  0.00000000E+00  0.00000000E+00  0.00000000E+00
  0.00000000E+00  0.00000000E+00  0.00000000E+00
  0.00000000E+00  0.00000000E+00  0.00000000E+00
  0.00000000E+00  0.00000000E+00  0.00000000E+00
  0.00000000E+00  0.00000000E+00  0.00000000E+00
  0.00000000E+00  0.00000000E+00  0.00000000E+00
  0.00000000E+00  0.00000000E+00  0.00000000E+00
  0.00000000E+00  0.00000000E+00  0.00000000E+00
  0.00000000E+00  0.00000000E+00  0.00000000E+00
  0.00000000E+00  0.00000000E+00  0.00000000E+00
  0.00000000E+00  0.00000000E+00  0.00000000E+00
  0.00000000E+00  0.00000000E+00  0.00000000E+00
  0.00000000E+00  0.00000000E+00  0.00000000E+00
  0.00000000E+00  0.00000000E+00  0.00000000E+00
  0.00000000E+00  0.00000000E+00  0.00000000E+00
  0.00000000E+00  0.00000000E+00  0.00000000E+00
  0.00000000E+00  0.00000000E+00  0.00000000E+00
  0.00000000E+00  0.00000000E+00  0.00000000E+00
  0.00000000E+00  0.00000000E+00  0.00000000E+00
  0.00000000E+00  0.00000000E+00  0.00000000E+00
  0.00000000E+00  0.00000000E+00  0.00000000E+00
  0.00000000E+00  0.00000000E+00  0.00000000E+00
  0.00000000E+00  0.00000000E+00  0.00000000E+00
  0.00000000E+00  0.00000000E+00  0.00000000E+00
  0.00000000E+00  0.00000000E+00  0.00000000E+00
  0.00000000E+00  0.00000000E+00  0.00000000E+00
  0.00000000E+00  0.00000000E+00  0.00000000E+00
  0.00000000E+00  0.00000000E+00  0.00000000E+00
  0.00000000E+00  0.00000000E+00  0.00000000E+00
  0.00000000E+00  0.00000000E+00  0.00000000E+00
  0.00000000E+00  0.00000000E+00  0.00000000E+00
  0.00000000E+00  0.00000000E+00  0.00000000E+00
  0.00000000E+00  0.00000000E+00  0.00000000E+00
  0.00000000E+00  0.00000000E+00  0.00000000E+00
  0.00000000E+00  0.00000000E+00  0.00000000E+00
  0.00000000E+00  0.00000000E+00  0.00000000E+00
  0.00000000E+00  0.00000000E+00  0.00000000E+00
  0.00000000E+00  0.00000000E+00  0.00000000E+00
  0.00000000E+00  0.00000000E+00  0.00000000E+00
  0.00000000E+00  0.00000000E+00  0.00000000E+00
  0.00000000E+00  0.00000000E+00  0.00000000E+00
  0.00000000E+00  0.00000000E+00  0.00000000E+00
  0.00000000E+00  0.00000000E+00  0.00000000E+00
  0.00000000E+00  0.00000000E+00  0.00000000E+00
  0.00000000E+00  0.00000000E+00  0.00000000E+00
  0.00000000E+00  0.00000000E+00  0.00000000E+00
  0.00000000E+00  0.00000000E+00  0.00000000E+00
  0.00000000E+00  0.00000000E+00  0.00000000E+00
  0.00000000E+00  0.00000000E+00  0.00000000E+00
  0.00000000E+00  0.00000000E+00  0.00000000E+00
  0.00000000E+00  0.00000000E+00  0.00000000E+00
  0.00000000E+00  0.00000000E+00  0.00000000E+00
  0.00000000E+00  0.00000000E+00  0.00000000E+00
  0.00000000E+00  0.00000000E+00  0.00000000E+00
  0.00000000E+00  0.00000000E+00  0.00000000E+00
  0.00000000E+00  0.00000000E+00  0.00000000E+00
  0.00000000E+00  0.00000000E+00  0.00000000E+00
  0.00000000E+00  0.00000000E+00  0.00000000E+00
  0.00000000E+00  0.00000000E+00  0.00000000E+00
  0.00000000E+00  0.00000000E+00  0.00000000E+00
  0.00000000E+00  0.00000000E+00  0.00000000E+00
  0.00000000E+00  0.00000000E+00  0.00000000E+00
  0.00000000E+00  0.00000000E+00  0.00000000E+00
  0.00000000E+00  0.00000000E+00  0.00000000E+00
  0.00000000E+00  0.00000000E+00  0.00000000E+00
  0.00000000E+00  0.00000000E+00  0.00000000E+00
  0.00000000E+00  0.00000000E+00  0.00000000E+00
  0.00000000E+00  0.00000000E+00  0.00000000E+00
  0.00000000E+00  0.00000000E+00  0.00000000E+00
  0.00000000E+00  0.00000000E+00  0.00000000E+00
  0.00000000E+00  0.00000000E+00  0.00000000E+00
  0.00000000E+00  0.00000000E+00  0.00000000E+00
  0.00000000E+00  0.00000000E+00  0.00000000E+00
  0.00000000E+00  0.00000000E+00  0.00000000E+00
  0.00000000E+00  0.00000000E+00  0.00000000E+00
  0.00000000E+00  0.00000000E+00  0.00000000E+00
  0.00000000E+00  0.00000000E+00  0.00000000E+00
  0.00000000E+00  0.00000000E+00  0.00000000E+00
  0.00000000E+00  0.00000000E+00  0.00000000E+00
  0.00000000E+00  0.00000000E+00  0.00000000E+00
  0.00000000E+00  0.00000000E+00  0.00000000E+00
  0.00000000E+00  0.00000000E+00  0.00000000E+00
  0.00000000E+00  0.00000000E+00  0.00000000E+00
  0.00000000E+00  0.00000000E+00  0.00000000E+00
  0.00000000E+00  0.00000000E+00  0.00000000E+00
  0.00000000E+00  0.00000000E+00  0.00000000E+00
  0.00000000E+00  0.00000000E+00  0.00000000E+00
  0.00000000E+00  0.00000000E+00  0.00000000E+00
  0.00000000E+00  0.00000000E+00  0.00000000E+00
  0.00000000E+00  0.00000000E+00  0.00000000E+00
  0.00000000E+00  0.00000000E+00  0.00000000E+00
  0.00000000E+00  0.00000000E+00  0.00000000E+00
  0.00000000E+00  0.00000000E+00  0.00000000E+00
  0.00000000E+00  0.00000000E+00  0.00000000E+00
  0.00000000E+00  0.00000000E+00  0.00000000E+00
  0.00000000E+00  0.00000000E+00  0.00000000E+00
  0.00000000E+00  0.00000000E+00  0.00000000E+00
  0.00000000E+00  0.00000000E+00  0.00000000E+00
  0.00000000E+00  0.00000000E+00  0.00000000E+00
  0.00000000E+00  0.00000000E+00  0.00000000E+00
  0.00000000E+00  0.00000000E+00  0.00000000E+00
  0.00000000E+00  0.00000000E+00  0.00000000E+00
  0.00000000E+00  0.00000000E+00  0.00000000E+00
  0.00000000E+00  0.00000000E+00  0.00000000E+00
  0.00000000E+00  0.00000000E+00  0.00000000E+00
  0.00000000E+00  0.00000000E+00  0.00000000E+00
  0.00000000E+00  0.00000000E+00  0.00000000E+00
  0.00000000E+00  0.00000000E+00  0.00000000E+00
  0.00000000E+00  0.00000000E+00  0.00000000E+00
  0.00000000E+00  0.00000000E+00  0.00000000E+00
  0.00000000E+00  0.00000000E+00  0.00000000E+00
  0.00000000E+00  0.00000000E+00  0.00000000E+00
  0.00000000E+00  0.00000000E+00  0.00000000E+00
  0.00000000E+00  0.00000000E+00  0.00000000E+00
  0.00000000E+00  0.00000000E+00  0.00000000E+00
  0.00000000E+00  0.00000000E+00  0.00000000E+00
  0.00000000E+00  0.00000000E+00  0.00000000E+00
  0.00000000E+00  0.00000000E+00  0.00000000E+00
  0.00000000E+00  0.00000000E+00  0.00000000E+00
  0.00000000E+00  0.00000000E+00  0.00000000E+00