CuInSe2gb                               
   1.00000000000000     
     9.7266780392896699    0.0000000000000000    0.0000000000000000
     0.0000000000000000    8.4235502764570693    0.0000000000000000
     0.0000000000000000    0.0000000000000000   45.0000000000000000
   Fe   Mn
   281     7
Direct
  0.0539646562080684  0.7012907952772196  0.2113230567134121
  0.3181008798354093  0.7238600486849658  0.8761332510253185
  0.6877133462052242  0.9581445482909483  0.6113610081153164
  0.4379761894898623  0.4582035553980386  0.6115064433608771
  0.4399135409484691  0.2880285333772346  0.2554472080753225
  0.0587288662949593  0.3884613450714813  0.8333932840670807
  0.3085646969790676  0.8876679580240527  0.8334918208492289
  0.4469701668859607  0.6259806722744015  0.7001928046613802
  0.0602396891162684  0.2125618075311050  0.7448208419414283
  0.1785733867719998  0.4516205250525811  0.2114413815837745
  0.5676686222184572  0.2104639529171779  0.4775028814210432
  0.0665778418159101  0.8750719803390120  0.5668737862600177
  0.5681875575763536  0.2238408943420965  0.8760753617511048
  0.8098272105984249  0.5286225989683652  0.1240113311833348
  0.4294708333602043  0.9509081597731368  0.2115028903056994
  0.5665783921162776  0.3749269212447225  0.5668033038302513
  0.8119598385564807  0.0418232063238647  0.3884575029604467
  0.6817936790972037  0.7888996781273588  0.5224910787871274
  0.4428080534941075  0.4605159775323588  0.4775084057341267
  0.4339565391426612  0.9623789007685287  0.7445456515853613
  0.4416205312863246  0.6249436073348016  0.5668698135270568
  0.5719446256766102  0.8761927171504977  0.7004276003622391
  0.3097389521978062  0.0281392333461968  0.1240313760259236
  0.6902741115463606  0.9593528835019118  0.3441587626797329
  0.6883430074956841  0.7819662945524845  0.1241740982629179
  0.0526086810302610  0.3737707376911820  0.2996744121046275
  0.6894886451654542  0.4674328383669017  0.8758968584202640
  0.4288292784226209  0.4513873713322305  0.2114605662283633
  0.8084887162564817  0.3751308950297863  0.4331261549771389
  0.5630465787461620  0.7082300751392133  0.6115245874030559
  0.5597348741340951  0.5405758695843449  0.6558172253015191
  0.8167925033305075  0.8619817897156986  0.1669506136904313
  0.5648858945528195  0.5380570811520066  0.2553896050660670
  0.6902185048225061  0.4593757403891356  0.3441662912147475
  0.1913940050665034  0.6119904326271400  0.1664334459463243
  0.1950848628943769  0.7993172151633962  0.7887086584324039
  0.4472891111871120  0.1259382039629979  0.7002423026072035
  0.9274200997345700  0.6233774149768889  0.2997062097524799
  0.3174998845724956  0.2231313590449812  0.8760609503071428
  0.3165198488516542  0.8747687872622730  0.5668553554255010
  0.8172930607477101  0.2235587825335256  0.8761160706450369
  0.8096118518623323  0.5408222406257056  0.6557860899791595
  0.5583295038275600  0.5272736528964527  0.1237450601229141
  0.5699661283076922  0.0493178414078529  0.7888164018811580
  0.1900900029204581  0.2878986844274784  0.2554268268067174
  0.8085331460108877  0.8751708842465173  0.4330921569084901
  0.5723529982542206  0.3760347847046067  0.7002600947709562
  0.0578136150759846  0.0270852982840247  0.1241719208858680
  0.3096810994382054  0.5406193025132260  0.6558190703648825
  0.5652164971822231  0.2093950480089896  0.3441058782857837
  0.1876828830254366  0.9581671814992520  0.6113521002737569
  0.3027153505976218  0.3740056583877434  0.2997480113441804
  0.4346124134841920  0.7905302642335335  0.6558470184314924
  0.1959629161429191  0.2982764006591829  0.7886435192055380
  0.0666792924793991  0.3629372576987436  0.1666685364538584
  0.6971510086873618  0.6263061198721239  0.7003537132799337
  0.3120303873593652  0.5418951598020926  0.3885897480842262
  0.0677969647320107  0.7227773657471602  0.8761256718175712
  0.9336376743121245  0.6375743901536342  0.8336662491202500
  0.3200683707708851  0.5494436733243102  0.7888135424106140
  0.3041942213458834  0.2005841275473846  0.2113294831808082
  0.0678735376992982  0.7105697648600776  0.4774741527813542
  0.5535326245585541  0.2009842658538529  0.2113007921025075
  0.3101253442889452  0.2118436087856161  0.7445905733251880
  0.0721285068402026  0.3763410839395243  0.7003791181179531
  0.1833022190647740  0.6375446327551690  0.8335125555888577
  0.0700320753756657  0.0491321228143681  0.7888589873808559
  0.4416061797948046  0.1249237202905305  0.5669096066944064
  0.9347096166624937  0.2906780279212993  0.6558115427314919
  0.8037723123080793  0.2013191836109430  0.2112916747585980
  0.9291112584693675  0.9514519515876826  0.2113358639292235
  0.9416221287926103  0.6250723054943322  0.5668003452827336
  0.8082298460603079  0.3875963817046494  0.8334820519784022
  0.1971803944965931  0.6258638110628960  0.7001535397161356
  0.8085971409529962  0.8877089734875049  0.8335141072304137
  0.6847683594355405  0.2906382039446338  0.6559133086995634
  0.3126307839504696  0.2079321653663684  0.6113672102931736
  0.4349494350884991  0.4626368576677690  0.7447411113637554
  0.4367935564918081  0.7914724355772578  0.3884644001932597
  0.6847422817434000  0.9626039721975996  0.7445473047469895
  0.8032273828241140  0.7013981530878818  0.2112165536029704
  0.8131201736560848  0.7083009516570846  0.6115543814695669
  0.4370593107851764  0.7831974614772448  0.1240833428137754
  0.3100342276083713  0.7118022251500963  0.7445521409427284
  0.3209374319692377  0.0492835496313789  0.7887127742847498
  0.8118189337765681  0.5417724282442073  0.3883917263050499
  0.6821444026277669  0.2884098574023340  0.5224000761042618
  0.6956509763726459  0.7988745878099305  0.7887383026461146
  0.1900872804925416  0.7876352044574825  0.2554546903142018
  0.6917417860317054  0.1124027303577336  0.1665745935061199
  0.6927989842380704  0.9608244625375203  0.4774594979602686
  0.9403866636527964  0.9594593710150882  0.3441279410432284
  0.8071272499934140  0.0390700605222983  0.5225557218749830
  0.6834640981249180  0.6250402630325556  0.4331040656852920
  0.4403527394337831  0.4593211072873857  0.3441734527840564
  0.8108144997498673  0.2114784230034513  0.7445801717491423
  0.4394283308760158  0.9675058707548562  0.8758857353963840
  0.5665285647381236  0.8748042789471551  0.5668666900968508
  0.8107693463819752  0.0288337928702479  0.1239060296985228
  0.4276857013789590  0.6239180303721680  0.2997266867752993
  0.8168633008959701  0.7229669520740184  0.8761876481891644
  0.6877561860544716  0.4581136186847445  0.6113689479687940
  0.5586206723399351  0.3875758409993609  0.8332855609983405
  0.8027213826205611  0.3736244428326449  0.2996223012399203
  0.1867888118356678  0.2914715250119891  0.3884153220765978
  0.8204559188378985  0.5491568636030713  0.7888393711065775
  0.1821904305007731  0.7892451842988488  0.5225573473580299
  0.3027510667394144  0.8742512192243170  0.2997747306414930
  0.1783185650628688  0.9512014694170796  0.2114489323672745
  0.1847929340380164  0.4623023121455888  0.7448060322147847
  0.4323436690161798  0.2886299767397622  0.5223540852642037
  0.0651221245172873  0.7091577928377605  0.3439858862619044
  0.1846253665720871  0.7906033798964118  0.6557977493504032
  0.4456748343368321  0.7988372207437202  0.7886966566609840
  0.6834206012812167  0.1249407346286797  0.4330597836843884
  0.9321242188695211  0.7882840385385363  0.5224814693501187
  0.6912663073874753  0.6126930576226728  0.1665593656589939
  0.8151668645116941  0.7090930919219034  0.3439907507786323
  0.9345913003959336  0.4624834991930329  0.7449323519343684
  0.1903380154721559  0.4593768254987689  0.3441750991011086
  0.5704682098437053  0.5494035433868258  0.7888425292530471
  0.5664451387233296  0.3627342496309630  0.1664559821610815
  0.5652476934522559  0.7094906726862448  0.3440968238315239
  0.5526273317475845  0.3738387992873961  0.2997326982943038
  0.1892569715865387  0.4673593686271056  0.8758960295110091
  0.1914387617113159  0.1120874363601667  0.1664921556569927
  0.4451174717348338  0.2986729263689537  0.7886638454769858
  0.6900096086196190  0.7876991351102900  0.2554450632096232
  0.9336385577282583  0.1375106130009958  0.8335317959974821
  0.4426681919816569  0.9607281886487167  0.4775166708021701
  0.5676340325314506  0.7242059418698283  0.8760842777430004
  0.1926439107208493  0.4607654484956442  0.4775010682173755
  0.9338064639485618  0.2814632316582734  0.1241189677617838
  0.3122649000642501  0.0418329284194175  0.3886516470399468
  0.0596840792682660  0.0405332718565196  0.6559017535716308
  0.5584827278571848  0.3750152007873450  0.4331304227160621
  0.6844274000879014  0.4625576912193444  0.7449389873169413
  0.5604287852300291  0.2124233000343573  0.7445934012336457
  0.9471776073770481  0.1262269953489264  0.7002848873167183
  0.5596466783631381  0.0406527874367302  0.6558114519479959
  0.5569638745605949  0.5391302736140047  0.5225428319703022
  0.1776388036779447  0.1238861255493323  0.2996817954889543
  0.4409804328142243  0.1103660529975762  0.1663065209770172
  0.6776966378837985  0.6236901557539268  0.2996263903839886
  0.9275786958700244  0.1236187887535247  0.2998255247575983
  0.8165852513051727  0.3750478488186283  0.5668894244585414
  0.0526281379646839  0.8739885492887624  0.2997298481498877
  0.1916172662887596  0.6249422025601968  0.5668761174075012
  0.9452586893126206  0.7995263192842353  0.7887142409798680
  0.3083386721795942  0.3874864335231618  0.8334786763620614
  0.9392500195576129  0.4681690783438833  0.8758957178050507
  0.4335843504663537  0.6379056881329368  0.8334831518716721
  0.0651042520930916  0.2091384854736980  0.3439846372970338
  0.1895425352513291  0.9673143465175208  0.8760311151254965
  0.9347889310592187  0.7818066653379204  0.1241441212303520
  0.6870211683601177  0.7916101330800780  0.3885202714980235
  0.9346501948828053  0.7906538891935365  0.6558172775105168
  0.9410568204783053  0.1120420682723381  0.1667088537821527
  0.4348886349087214  0.2907715987394176  0.6559624430730406
  0.0537774520837816  0.2015288124083809  0.2114133024776901
  0.6788697714958408  0.9513488935660530  0.2112924036336564
  0.1777647420889473  0.6236203363752183  0.2996741211617861
  0.8220798452022142  0.8762718769364272  0.7003635641351054
  0.9470431390115955  0.6263860969327099  0.7003881987932431
  0.1972455940404522  0.1260023717087291  0.7001555116826308
  0.9428609193849985  0.4605932042726300  0.4774004573580053
  0.8128478860845449  0.2081525155446352  0.6114236025102251
  0.1834426582405728  0.6249829916261472  0.4331355546969954
  0.4277255945493043  0.1237622014911532  0.2996223572361351
  0.6777602247908557  0.1236311946918822  0.2996277596674697
  0.5622037193217473  0.5418782159918877  0.3885861456784060
  0.8150019640150065  0.2091322845875052  0.3439943580359197
  0.4394261622481337  0.4675380070482453  0.8758059130126101
  0.5586537121374434  0.8875776112374180  0.8332862025286657
  0.3177928759614625  0.2105068491520823  0.4774361140833356
  0.1925118435893863  0.9607717623033706  0.4774963719063358
  0.0583973136484508  0.8876145898718557  0.8334743397578276
  0.0570481858030138  0.5391040157488702  0.5225353927320089
  0.9428230336664276  0.9605968751865093  0.4773845889772368
  0.0629476478965820  0.7082626713879173  0.6115330631957535
  0.5571032459862124  0.0386682567842770  0.5224125469830367
  0.6958026565976094  0.2986884686828970  0.7886813935781853
  0.8172653760021801  0.3619778595672860  0.1667503899534105
  0.4334086694668020  0.1249684825498663  0.4330774568108743
  0.0680128516693489  0.2105879657899893  0.4775035827958306
  0.3096596019404593  0.0407754840687547  0.6558254275782499
  0.4318468313497026  0.7889708694446944  0.5224830189274776
  0.1835940131409077  0.1375914682199454  0.8335327464230857
  0.1856123850921919  0.2821885402702792  0.1242892346510067
  0.9403733185980891  0.4596002028880517  0.3441088222793313
  0.5664821951675191  0.8621424091585353  0.1664487830967421
  0.3030587916164225  0.7006140457650468  0.2114705973283292
  0.9411266702113272  0.6118299898872371  0.1666673393734467
  0.1876930195614978  0.4581071161977592  0.6113590642419331
  0.0722512519183831  0.8762575862771039  0.7001408251222891
  0.0596220689756883  0.5406732965451505  0.6558074210104610
  0.3098439630327608  0.5272843430404678  0.1239121548364724
  0.9370307335286245  0.7918195670700006  0.3886116255114395
  0.9458261255558045  0.2981526937805937  0.7886482843568636
  0.1845610640789877  0.2905356277011452  0.6558582166318806
  0.9376062386304750  0.9580038872075229  0.6113742963132324
  0.8109173276452170  0.7114161606543231  0.7446024814049138
  0.6899836530714480  0.2877173031371935  0.2554415970097633
  0.0598069503257737  0.7119965932984906  0.7448981490417910
  0.6785137366020951  0.4512295271929501  0.2113297976881962
  0.8177479940477658  0.2106939929723509  0.4775779979446310
  0.5676566494855255  0.7104135611613500  0.4774984129763259
  0.0676428134671531  0.8632546800047550  0.1666914746047456
  0.9322409447784192  0.2883382778927240  0.5224499729802040
  0.6846304228445808  0.7905573472178582  0.6558080522065055
  0.0583649219475707  0.8749567801798332  0.4331064379056032
  0.0678061284050636  0.2228139352253455  0.8760608274722957
  0.8096734293309625  0.0406024234014740  0.6558471759773039
  0.5611590984853704  0.0286703227615471  0.1240174419986550
  0.3084384144545422  0.3750577255453784  0.4330713292336339
  0.3165723597522915  0.3747589779560963  0.5668205007236550
  0.3177569052377212  0.7103935817891555  0.4774424738440194
  0.0569553880075730  0.0387312781124995  0.5225083928164751
  0.3221440620323628  0.8763346980566687  0.7003857152510430
  0.0650022119650025  0.5376071262744428  0.2553157912473843
  0.6834794857871654  0.1376364072754339  0.8335100419322756
  0.8147654371317221  0.0378042606553244  0.2554423758414673
  0.1834955426386418  0.1250000847846242  0.4331278889614054
  0.6973478098198855  0.1264233676919015  0.7003414529523726
  0.1824682373841723  0.2887494536545621  0.5224743328346416
  0.4399832939940225  0.7878731368410417  0.2553962031054172
  0.8149659563585102  0.5380559122815560  0.2554393350374635
  0.0627497272930205  0.2080837995445119  0.6113697675092155
  0.1865836433407731  0.7913405755396379  0.3883956934857336
  0.3068891177129741  0.5387976767363345  0.5225198404629381
  0.8219675276485290  0.3762300393602508  0.7001166836698928
  0.6871484961778792  0.2918168969980058  0.3885516274621619
  0.1916814826702193  0.1250228773025876  0.5668876688612582
  0.6898071621276560  0.9683238147721359  0.8760605593092320
  0.6915961352528478  0.1249712996834183  0.5669124656244640
  0.4403180612351409  0.9593046814518780  0.3441884337328578
  0.1840300082118673  0.9625001760547856  0.7445352362276928
  0.9402326400667729  0.7877298353847620  0.2554391213260950
  0.5585187635942016  0.8749429288580063  0.4331124376743595
  0.3084878099428621  0.8750025860073338  0.4330682385873219
  0.8071360200157840  0.5391753660910001  0.5226032378854113
  0.9288357261151359  0.4515430303125770  0.2113959848964266
  0.3149707571136200  0.5382119216458117  0.2554006736051723
  0.5623245892808104  0.0420061713874826  0.3886787813432946
  0.9378951757407811  0.4581773075539198  0.6115209052853383
  0.0621136399624731  0.0417991573640116  0.3885713930286809
  0.0619860318476550  0.5416186138056566  0.3884724164586091
  0.4368050215916862  0.2915151083938309  0.3884658473923231
  0.6927923406452191  0.4608208350376282  0.4774627204822854
  0.0666435886749030  0.3750197276534225  0.5668720771158051
  0.5536121202380883  0.7010246071153450  0.2113335246295227
  0.9400233157694855  0.2876324656777461  0.2554452021592503
  0.8198663005586470  0.0494253731771235  0.7889101965936279
  0.1904023789843717  0.9595406544589828  0.3441186043633051
  0.5527249523101090  0.8740429311582636  0.2998108936250162
  0.0583728855072742  0.3750164175035889  0.4331085338710191
  0.3152584339428487  0.7093823201300971  0.3441093432895115
  0.3152240375743264  0.2093657167694754  0.3441276088013842
  0.9416363017262847  0.1251395484763966  0.5668028815172006
  0.4380439456311125  0.9584219561484747  0.6115106153317311
  0.5649809986618006  0.0379834117769141  0.2552874722979315
  0.1860532482253863  0.7832911135088900  0.1242727353464081
  0.0650691702011000  0.0377490069621753  0.2552631616809700
  0.6915896415134034  0.6249360584539401  0.5668787368837229
  0.0567095149268156  0.5268031914148819  0.1242572244319134
  0.3070465764811261  0.0384489260277441  0.5223640827533942
  0.6875392534544362  0.2816274810256286  0.1241975164905336
  0.8177101401129594  0.7106528785834779  0.4774895469421304
  0.4335606121880584  0.1376691962738977  0.8334564574480177
  0.3223346831279247  0.3760844289448398  0.7002503116769231
  0.6836581638701524  0.6378206009324207  0.8334706197457142
  0.5602810059916584  0.7116964865518852  0.7445762801439847
  0.9372416409957088  0.2919079545747674  0.3886510229502538
  0.9396050279689790  0.9681783271172769  0.8760994506230252
  0.5626850110231830  0.2079151191475054  0.6113206393236045
  0.8166421883215451  0.8750419215962447  0.5668889471480695
  0.8026082448886752  0.8736617811368422  0.2996726668338435
  0.3150197892623737  0.0379671151505008  0.2552092869062525
  0.4358904069574073  0.2837145194166901  0.1238448721363693
  0.3130427421344191  0.7082763963215524  0.6115238834038184
  0.4333544014735695  0.6249675095014094  0.4330793471354967
  0.9325796502388675  0.6251753614911286  0.4332932284666925
  0.3173957492054517  0.8628949442282879  0.1657294166895508
  0.0714215269613926  0.5491312521059404  0.7886347619877948
  0.9330600148835019  0.1249473992379965  0.4332202327833929
  0.3181171721304871  0.3627772575801690  0.1657210082631340
  0.9336517075626661  0.9623603321316224  0.7445013051925607
  0.4416268065378220  0.6096506731277430  0.1655713850864724
 
  0.00000000E+00  0.00000000E+00  0.00000000E+00
  0.00000000E+00  0.00000000E+00  0.00000000E+00
  0.00000000E+00  0.00000000E+00  0.00000000E+00
  0.00000000E+00  0.00000000E+00  0.00000000E+00
  0.00000000E+00  0.00000000E+00  0.00000000E+00
  0.00000000E+00  0.00000000E+00  0.00000000E+00
  0.00000000E+00  0.00000000E+00  0.00000000E+00
  0.00000000E+00  0.00000000E+00  0.00000000E+00
  0.00000000E+00  0.00000000E+00  0.00000000E+00
  0.00000000E+00  0.00000000E+00  0.00000000E+00
  0.00000000E+00  0.00000000E+00  0.00000000E+00
  0.00000000E+00  0.00000000E+00  0.00000000E+00
  0.00000000E+00  0.00000000E+00  0.00000000E+00
  0.00000000E+00  0.00000000E+00  0.00000000E+00
  0.00000000E+00  0.00000000E+00  0.00000000E+00
  0.00000000E+00  0.00000000E+00  0.00000000E+00
  0.00000000E+00  0.00000000E+00  0.00000000E+00
  0.00000000E+00  0.00000000E+00  0.00000000E+00
  0.00000000E+00  0.00000000E+00  0.00000000E+00
  0.00000000E+00  0.00000000E+00  0.00000000E+00
  0.00000000E+00  0.00000000E+00  0.00000000E+00
  0.00000000E+00  0.00000000E+00  0.00000000E+00
  0.00000000E+00  0.00000000E+00  0.00000000E+00
  0.00000000E+00  0.00000000E+00  0.00000000E+00
  0.00000000E+00  0.00000000E+00  0.00000000E+00
  0.00000000E+00  0.00000000E+00  0.00000000E+00
  0.00000000E+00  0.00000000E+00  0.00000000E+00
  0.00000000E+00  0.00000000E+00  0.00000000E+00
  0.00000000E+00  0.00000000E+00  0.00000000E+00
  0.00000000E+00  0.00000000E+00  0.00000000E+00
  0.00000000E+00  0.00000000E+00  0.00000000E+00
  0.00000000E+00  0.00000000E+00  0.00000000E+00
  0.00000000E+00  0.00000000E+00  0.00000000E+00
  0.00000000E+00  0.00000000E+00  0.00000000E+00
  0.00000000E+00  0.00000000E+00  0.00000000E+00
  0.00000000E+00  0.00000000E+00  0.00000000E+00
  0.00000000E+00  0.00000000E+00  0.00000000E+00
  0.00000000E+00  0.00000000E+00  0.00000000E+00
  0.00000000E+00  0.00000000E+00  0.00000000E+00
  0.00000000E+00  0.00000000E+00  0.00000000E+00
  0.00000000E+00  0.00000000E+00  0.00000000E+00
  0.00000000E+00  0.00000000E+00  0.00000000E+00
  0.00000000E+00  0.00000000E+00  0.00000000E+00
  0.00000000E+00  0.00000000E+00  0.00000000E+00
  0.00000000E+00  0.00000000E+00  0.00000000E+00
  0.00000000E+00  0.00000000E+00  0.00000000E+00
  0.00000000E+00  0.00000000E+00  0.00000000E+00
  0.00000000E+00  0.00000000E+00  0.00000000E+00
  0.00000000E+00  0.00000000E+00  0.00000000E+00
  0.00000000E+00  0.00000000E+00  0.00000000E+00
  0.00000000E+00  0.00000000E+00  0.00000000E+00
  0.00000000E+00  0.00000000E+00  0.00000000E+00
  0.00000000E+00  0.00000000E+00  0.00000000E+00
  0.00000000E+00  0.00000000E+00  0.00000000E+00
  0.00000000E+00  0.00000000E+00  0.00000000E+00
  0.00000000E+00  0.00000000E+00  0.00000000E+00
  0.00000000E+00  0.00000000E+00  0.00000000E+00
  0.00000000E+00  0.00000000E+00  0.00000000E+00
  0.00000000E+00  0.00000000E+00  0.00000000E+00
  0.00000000E+00  0.00000000E+00  0.00000000E+00
  0.00000000E+00  0.00000000E+00  0.00000000E+00
  0.00000000E+00  0.00000000E+00  0.00000000E+00
  0.00000000E+00  0.00000000E+00  0.00000000E+00
  0.00000000E+00  0.00000000E+00  0.00000000E+00
  0.00000000E+00  0.00000000E+00  0.00000000E+00
  0.00000000E+00  0.00000000E+00  0.00000000E+00
  0.00000000E+00  0.00000000E+00  0.00000000E+00
  0.00000000E+00  0.00000000E+00  0.00000000E+00
  0.00000000E+00  0.00000000E+00  0.00000000E+00
  0.00000000E+00  0.00000000E+00  0.00000000E+00
  0.00000000E+00  0.00000000E+00  0.00000000E+00
  0.00000000E+00  0.00000000E+00  0.00000000E+00
  0.00000000E+00  0.00000000E+00  0.00000000E+00
  0.00000000E+00  0.00000000E+00  0.00000000E+00
  0.00000000E+00  0.00000000E+00  0.00000000E+00
  0.00000000E+00  0.00000000E+00  0.00000000E+00
  0.00000000E+00  0.00000000E+00  0.00000000E+00
  0.00000000E+00  0.00000000E+00  0.00000000E+00
  0.00000000E+00  0.00000000E+00  0.00000000E+00
  0.00000000E+00  0.00000000E+00  0.00000000E+00
  0.00000000E+00  0.00000000E+00  0.00000000E+00
  0.00000000E+00  0.00000000E+00  0.00000000E+00
  0.00000000E+00  0.00000000E+00  0.00000000E+00
  0.00000000E+00  0.00000000E+00  0.00000000E+00
  0.00000000E+00  0.00000000E+00  0.00000000E+00
  0.00000000E+00  0.00000000E+00  0.00000000E+00
  0.00000000E+00  0.00000000E+00  0.00000000E+00
  0.00000000E+00  0.00000000E+00  0.00000000E+00
  0.00000000E+00  0.00000000E+00  0.00000000E+00
  0.00000000E+00  0.00000000E+00  0.00000000E+00
  0.00000000E+00  0.00000000E+00  0.00000000E+00
  0.00000000E+00  0.00000000E+00  0.00000000E+00
  0.00000000E+00  0.00000000E+00  0.00000000E+00
  0.00000000E+00  0.00000000E+00  0.00000000E+00
  0.00000000E+00  0.00000000E+00  0.00000000E+00
  0.00000000E+00  0.00000000E+00  0.00000000E+00
  0.00000000E+00  0.00000000E+00  0.00000000E+00
  0.00000000E+00  0.00000000E+00  0.00000000E+00
  0.00000000E+00  0.00000000E+00  0.00000000E+00
  0.00000000E+00  0.00000000E+00  0.00000000E+00
  0.00000000E+00  0.00000000E+00  0.00000000E+00
  0.00000000E+00  0.00000000E+00  0.00000000E+00
  0.00000000E+00  0.00000000E+00  0.00000000E+00
  0.00000000E+00  0.00000000E+00  0.00000000E+00
  0.00000000E+00  0.00000000E+00  0.00000000E+00
  0.00000000E+00  0.00000000E+00  0.00000000E+00
  0.00000000E+00  0.00000000E+00  0.00000000E+00
  0.00000000E+00  0.00000000E+00  0.00000000E+00
  0.00000000E+00  0.00000000E+00  0.00000000E+00
  0.00000000E+00  0.00000000E+00  0.00000000E+00
  0.00000000E+00  0.00000000E+00  0.00000000E+00
  0.00000000E+00  0.00000000E+00  0.00000000E+00
  0.00000000E+00  0.00000000E+00  0.00000000E+00
  0.00000000E+00  0.00000000E+00  0.00000000E+00
  0.00000000E+00  0.00000000E+00  0.00000000E+00
  0.00000000E+00  0.00000000E+00  0.00000000E+00
  0.00000000E+00  0.00000000E+00  0.00000000E+00
  0.00000000E+00  0.00000000E+00  0.00000000E+00
  0.00000000E+00  0.00000000E+00  0.00000000E+00
  0.00000000E+00  0.00000000E+00  0.00000000E+00
  0.00000000E+00  0.00000000E+00  0.00000000E+00
  0.00000000E+00  0.00000000E+00  0.00000000E+00
  0.00000000E+00  0.00000000E+00  0.00000000E+00
  0.00000000E+00  0.00000000E+00  0.00000000E+00
  0.00000000E+00  0.00000000E+00  0.00000000E+00
  0.00000000E+00  0.00000000E+00  0.00000000E+00
  0.00000000E+00  0.00000000E+00  0.00000000E+00
  0.00000000E+00  0.00000000E+00  0.00000000E+00
  0.00000000E+00  0.00000000E+00  0.00000000E+00
  0.00000000E+00  0.00000000E+00  0.00000000E+00
  0.00000000E+00  0.00000000E+00  0.00000000E+00
  0.00000000E+00  0.00000000E+00  0.00000000E+00
  0.00000000E+00  0.00000000E+00  0.00000000E+00
  0.00000000E+00  0.00000000E+00  0.00000000E+00
  0.00000000E+00  0.00000000E+00  0.00000000E+00
  0.00000000E+00  0.00000000E+00  0.00000000E+00
  0.00000000E+00  0.00000000E+00  0.00000000E+00
  0.00000000E+00  0.00000000E+00  0.00000000E+00
  0.00000000E+00  0.00000000E+00  0.00000000E+00
  0.00000000E+00  0.00000000E+00  0.00000000E+00
  0.00000000E+00  0.00000000E+00  0.00000000E+00
  0.00000000E+00  0.00000000E+00  0.00000000E+00
  0.00000000E+00  0.00000000E+00  0.00000000E+00
  0.00000000E+00  0.00000000E+00  0.00000000E+00
  0.00000000E+00  0.00000000E+00  0.00000000E+00
  0.00000000E+00  0.00000000E+00  0.00000000E+00
  0.00000000E+00  0.00000000E+00  0.00000000E+00
  0.00000000E+00  0.00000000E+00  0.00000000E+00
  0.00000000E+00  0.00000000E+00  0.00000000E+00
  0.00000000E+00  0.00000000E+00  0.00000000E+00
  0.00000000E+00  0.00000000E+00  0.00000000E+00
  0.00000000E+00  0.00000000E+00  0.00000000E+00
  0.00000000E+00  0.00000000E+00  0.00000000E+00
  0.00000000E+00  0.00000000E+00  0.00000000E+00
  0.00000000E+00  0.00000000E+00  0.00000000E+00
  0.00000000E+00  0.00000000E+00  0.00000000E+00
  0.00000000E+00  0.00000000E+00  0.00000000E+00
  0.00000000E+00  0.00000000E+00  0.00000000E+00
  0.00000000E+00  0.00000000E+00  0.00000000E+00
  0.00000000E+00  0.00000000E+00  0.00000000E+00
  0.00000000E+00  0.00000000E+00  0.00000000E+00
  0.00000000E+00  0.00000000E+00  0.00000000E+00
  0.00000000E+00  0.00000000E+00  0.00000000E+00
  0.00000000E+00  0.00000000E+00  0.00000000E+00
  0.00000000E+00  0.00000000E+00  0.00000000E+00
  0.00000000E+00  0.00000000E+00  0.00000000E+00
  0.00000000E+00  0.00000000E+00  0.00000000E+00
  0.00000000E+00  0.00000000E+00  0.00000000E+00
  0.00000000E+00  0.00000000E+00  0.00000000E+00
  0.00000000E+00  0.00000000E+00  0.00000000E+00
  0.00000000E+00  0.00000000E+00  0.00000000E+00
  0.00000000E+00  0.00000000E+00  0.00000000E+00
  0.00000000E+00  0.00000000E+00  0.00000000E+00
  0.00000000E+00  0.00000000E+00  0.00000000E+00
  0.00000000E+00  0.00000000E+00  0.00000000E+00
  0.00000000E+00  0.00000000E+00  0.00000000E+00
  0.00000000E+00  0.00000000E+00  0.00000000E+00
  0.00000000E+00  0.00000000E+00  0.00000000E+00
  0.00000000E+00  0.00000000E+00  0.00000000E+00
  0.00000000E+00  0.00000000E+00  0.00000000E+00
  0.00000000E+00  0.00000000E+00  0.00000000E+00
  0.00000000E+00  0.00000000E+00  0.00000000E+00
  0.00000000E+00  0.00000000E+00  0.00000000E+00
  0.00000000E+00  0.00000000E+00  0.00000000E+00
  0.00000000E+00  0.00000000E+00  0.00000000E+00
  0.00000000E+00  0.00000000E+00  0.00000000E+00
  0.00000000E+00  0.00000000E+00  0.00000000E+00
  0.00000000E+00  0.00000000E+00  0.00000000E+00
  0.00000000E+00  0.00000000E+00  0.00000000E+00
  0.00000000E+00  0.00000000E+00  0.00000000E+00
  0.00000000E+00  0.00000000E+00  0.00000000E+00
  0.00000000E+00  0.00000000E+00  0.00000000E+00
  0.00000000E+00  0.00000000E+00  0.00000000E+00
  0.00000000E+00  0.00000000E+00  0.00000000E+00
  0.00000000E+00  0.00000000E+00  0.00000000E+00
  0.00000000E+00  0.00000000E+00  0.00000000E+00
  0.00000000E+00  0.00000000E+00  0.00000000E+00
  0.00000000E+00  0.00000000E+00  0.00000000E+00
  0.00000000E+00  0.00000000E+00  0.00000000E+00
  0.00000000E+00  0.00000000E+00  0.00000000E+00
  0.00000000E+00  0.00000000E+00  0.00000000E+00
  0.00000000E+00  0.00000000E+00  0.00000000E+00
  0.00000000E+00  0.00000000E+00  0.00000000E+00
  0.00000000E+00  0.00000000E+00  0.00000000E+00
  0.00000000E+00  0.00000000E+00  0.00000000E+00
  0.00000000E+00  0.00000000E+00  0.00000000E+00
  0.00000000E+00  0.00000000E+00  0.00000000E+00
  0.00000000E+00  0.00000000E+00  0.00000000E+00
  0.00000000E+00  0.00000000E+00  0.00000000E+00
  0.00000000E+00  0.00000000E+00  0.00000000E+00
  0.00000000E+00  0.00000000E+00  0.00000000E+00
  0.00000000E+00  0.00000000E+00  0.00000000E+00
  0.00000000E+00  0.00000000E+00  0.00000000E+00
  0.00000000E+00  0.00000000E+00  0.00000000E+00
  0.00000000E+00  0.00000000E+00  0.00000000E+00
  0.00000000E+00  0.00000000E+00  0.00000000E+00
  0.00000000E+00  0.00000000E+00  0.00000000E+00
  0.00000000E+00  0.00000000E+00  0.00000000E+00
  0.00000000E+00  0.00000000E+00  0.00000000E+00
  0.00000000E+00  0.00000000E+00  0.00000000E+00
  0.00000000E+00  0.00000000E+00  0.00000000E+00
  0.00000000E+00  0.00000000E+00  0.00000000E+00
  0.00000000E+00  0.00000000E+00  0.00000000E+00
  0.00000000E+00  0.00000000E+00  0.00000000E+00
  0.00000000E+00  0.00000000E+00  0.00000000E+00
  0.00000000E+00  0.00000000E+00  0.00000000E+00
  0.00000000E+00  0.00000000E+00  0.00000000E+00
  0.00000000E+00  0.00000000E+00  0.00000000E+00
  0.00000000E+00  0.00000000E+00  0.00000000E+00
  0.00000000E+00  0.00000000E+00  0.00000000E+00
  0.00000000E+00  0.00000000E+00  0.00000000E+00
  0.00000000E+00  0.00000000E+00  0.00000000E+00
  0.00000000E+00  0.00000000E+00  0.00000000E+00
  0.00000000E+00  0.00000000E+00  0.00000000E+00
  0.00000000E+00  0.00000000E+00  0.00000000E+00
  0.00000000E+00  0.00000000E+00  0.00000000E+00
  0.00000000E+00  0.00000000E+00  0.00000000E+00
  0.00000000E+00  0.00000000E+00  0.00000000E+00
  0.00000000E+00  0.00000000E+00  0.00000000E+00
  0.00000000E+00  0.00000000E+00  0.00000000E+00
  0.00000000E+00  0.00000000E+00  0.00000000E+00
  0.00000000E+00  0.00000000E+00  0.00000000E+00
  0.00000000E+00  0.00000000E+00  0.00000000E+00
  0.00000000E+00  0.00000000E+00  0.00000000E+00
  0.00000000E+00  0.00000000E+00  0.00000000E+00
  0.00000000E+00  0.00000000E+00  0.00000000E+00
  0.00000000E+00  0.00000000E+00  0.00000000E+00