CuInSe2gb                               
   1.00000000000000     
     9.7266780392896699    0.0000000000000000    0.0000000000000000
     0.0000000000000000    8.4235502764570693    0.0000000000000000
     0.0000000000000000    0.0000000000000000   45.0000000000000000
   Fe   Mn
   274    14
Direct
  0.0618953174139497  0.0312219555582978  0.1243798967554765
  0.3164876676143146  0.8749732057933415  0.6548915827521155
  0.1847961036334482  0.1219748504253536  0.7883174141196791
  0.4416155179687586  0.2879607380598864  0.3891544746122273
  0.3177103030030963  0.7130701093715728  0.8328560786569322
  0.8176517576937606  0.2137847164223885  0.8334021585289862
  0.1916826528640719  0.9636282946884479  0.8333372691091175
  0.5621428025309809  0.2070846756061799  0.5655090862275293
  0.0653830126963092  0.0398502458647036  0.7439824674706617
  0.8116059046471351  0.8715355523171188  0.5213526498274497
  0.1910636165382429  0.2905637584985718  0.7438863537012808
  0.9334989059049313  0.4523248107373301  0.3449742065450443
  0.9410762530248412  0.2861676268148572  0.3889563423130131
  0.8135951202876119  0.0404934939057435  0.8754149168850676
  0.1836156009785473  0.7880728924344198  0.6108694495201243
  0.5665255078926048  0.0378020427300725  0.3890658171616634
  0.9427326017684178  0.9635793800654360  0.8333845228647995
  0.3134888164525095  0.5395115949960551  0.8758412494760702
  0.6904670714503519  0.2904187560975653  0.7439283618875250
  0.1822326537402994  0.6137596869850356  0.1666821244306135
  0.8121881318744057  0.2057510992565195  0.4787017329917197
  0.8087055535272409  0.5380287653762016  0.6109057391702567
  0.3120134822620295  0.8704727989626837  0.4344924484475623
  0.8092391516444039  0.0381621443170432  0.2561150445420042
  0.6833672149123942  0.9516258506302492  0.3449230442500968
  0.9313449984572479  0.1145899937041322  0.1672235221482665
  0.0616693893731815  0.8715150783815381  0.5213901259369564
  0.5585029355227760  0.5379638964237610  0.2560837807787822
  0.6859707449827687  0.7947994852942868  0.8756766308622715
  0.5559678025198023  0.3655300335127711  0.1667817619285629
  0.4398470652469410  0.7907773968721583  0.7440522561807759
  0.8114546779066713  0.7066866876079955  0.5654756704182907
  0.5597362789821865  0.8724163217948397  0.7883502813758665
  0.6866133097508426  0.1216732827526578  0.5213691793019601
  0.8164406369144145  0.3747599947784866  0.6549072193040774
  0.9418720247175609  0.4626336262016676  0.8332155351385273
  0.0603304613807222  0.2079550042786954  0.6995719285802661
  0.4350821289676644  0.9579425460250899  0.6995411914911189
  0.3164640194990117  0.2123434668920892  0.8334637514030304
  0.4413540888144251  0.6249759427630215  0.6549130949345500
  0.3087425279555392  0.5379878455483624  0.6108863938367500
  0.9365431005519746  0.4566227795930548  0.5655398840358831
  0.6900481552755130  0.7911220937584956  0.7440868398309096
  0.9337598414930796  0.7882564689756671  0.1246816154922386
  0.6916895362672631  0.7876825513237522  0.3890445110198135
  0.9404941344042397  0.7903656018421962  0.7441995326471206
  0.0587643188706773  0.2027312577377391  0.3451021795023236
  0.6835027985787385  0.4524361469261416  0.3450721024670418
  0.4344833399899520  0.1222613465398527  0.7884980740697540
  0.0648363299164890  0.2050756584413499  0.2116061738027132
  0.0554063597917811  0.3656091408872290  0.1667912938508521
  0.9331648958416222  0.7883250796037937  0.2557462883839053
  0.5604274658552175  0.2078590616532759  0.6996049548639759
  0.6848893627305128  0.9579523686895128  0.6995876021731322
  0.8093732645875144  0.8725571610473734  0.7882843103572524
  0.4368774463671584  0.9571215562322215  0.5653884477113182
  0.8101279504187897  0.3730478551701529  0.7883806967496763
  0.6839868645673679  0.2892911748396585  0.2561377567810669
  0.1873317075726390  0.4572669774704956  0.5654625980538601
  0.0557013131194230  0.8655452144919431  0.1667743798764935
  0.1837823628186964  0.2880053638382114  0.6109562376948368
  0.0622435888073355  0.2072933369858156  0.5653679850152310
  0.3103939916879304  0.2079341634949451  0.6996454593968826
  0.5629757916788446  0.5404328190328851  0.8757420776965783
  0.0617583253140490  0.7063961292259197  0.5655116435264732
  0.6849121457705614  0.6226507958265814  0.7884286814898883
  0.3160591699356778  0.5385765793274295  0.3889803215158325
  0.1866652439171321  0.6213858671873496  0.5214224033312882
  0.5622815789233311  0.8702705354891094  0.4344633747731064
  0.4368753700605656  0.4570346390709210  0.5654863209754658
  0.4398313948172862  0.2910574410086502  0.7440597947097374
  0.8191953729057151  0.8747558158800334  0.3002940723712881
  0.8087179819889535  0.7026966732445074  0.3450557378123023
  0.4416622390006638  0.4624739972260279  0.8331510918235587
  0.6874433724640142  0.9558718455056889  0.4787109716707098
  0.6851203970301920  0.4581313541700773  0.6996441510184347
  0.5618319271458919  0.8719635994955229  0.5214016102306867
  0.5665370115459514  0.3747183000641011  0.6548419185027218
  0.8164054492154356  0.8749158080754476  0.6549524103797709
  0.8116080873567894  0.3712419248101310  0.4342143143127566
  0.8085176845889394  0.5379611132658308  0.2562468253181112
  0.6921451585393170  0.4620497207542385  0.8331635021696352
  0.1860887597029597  0.7885078548896522  0.1242636707911352
  0.6913849318841344  0.2874947631377922  0.3890771057740783
  0.3165860778841210  0.3749998642787770  0.6548660927087039
  0.3088366787000150  0.2024002256441746  0.3448418546325203
  0.8155434389630913  0.5399798641046272  0.7439452523922913
  0.6913249431871952  0.9625249609087780  0.8331237877694817
  0.5662685259707576  0.8748981766733329  0.6549155914953994
  0.3113418075043513  0.7074302777954080  0.5654467998941919
  0.3125134139304943  0.5312237839306249  0.1242585494759011
  0.6898542741313227  0.9552863204899724  0.2119199131676888
  0.3114134949907813  0.2066946709737237  0.5654863932746538
  0.1874708300608321  0.9557530704242632  0.4787310750133523
  0.6873705731163609  0.9570975634510389  0.5654773890086240
  0.4336628396947765  0.7879657092297491  0.6108490436042445
  0.6821671247168228  0.6117474791463059  0.1667107318867964
  0.3200893918312164  0.8736914223459125  0.3001180869015003
  0.3122029514487418  0.7057759024835764  0.4786651905902443
  0.9336837665705572  0.2880079616749268  0.6108748916102418
  0.4455160920998273  0.6244760052825582  0.3004085679231761
  0.8066780032191225  0.8640886035260452  0.1672466049931960
  0.5668107095907350  0.2029241452923430  0.2117048591262184
  0.9329984991113814  0.6129087198254159  0.1668169743257598
  0.4373212564346177  0.9557675532616626  0.4786539497022598
  0.5596053098377496  0.3721085108279972  0.7883727615658634
  0.0614004687098267  0.3721802226894925  0.5213403497527890
  0.3068434958331872  0.3646311458143473  0.1668652366906402
  0.6954266025943073  0.1238353433157988  0.3002782242444492
  0.4428573230016984  0.9627294997776367  0.8332680725978877
  0.1845525763036594  0.2874066309596032  0.1245552307165077
  0.1842246334146517  0.2892389424246396  0.2560817588453120
  0.3125152456366741  0.3703118692203088  0.4344593092131822
  0.5625041646557741  0.0326152192837632  0.1245723947654153
  0.4337385232930255  0.2879223638626974  0.6108857511648329
  0.1835826486477695  0.4527544317671308  0.3450293685312387
  0.4345632496318147  0.2873731985820551  0.1245575580330641
  0.6839798966185744  0.7892591704507003  0.2559865149509347
  0.4366758220318439  0.1217712893745464  0.5213772587063040
  0.1876710780934885  0.2947422775456608  0.8757755218556352
  0.1915583587782038  0.1250524053041502  0.6549084839814612
  0.9416035104308257  0.1249595525127249  0.6548901132282859
  0.8162294033906961  0.5378066860613242  0.3890730332101441
  0.9387689361333807  0.7928892906539005  0.8755964258794915
  0.1828054917723481  0.1120774162189892  0.1666835570688193
  0.0585823500833080  0.5378861331263958  0.6109156100800771
  0.9342480541486602  0.2886246603325575  0.2561220067324937
  0.5586640006635644  0.5378977760154313  0.6108773143907196
  0.9368246572266596  0.9573524202657254  0.5654298465190073
  0.6948339084452083  0.6242470360895310  0.3001737319320614
  0.9374369051383340  0.6202956192573241  0.4344845443102197
  0.9334521029640399  0.6235792120189498  0.7880904742781633
  0.5603695163784350  0.7077389427647058  0.6995767379827391
  0.0661536815709378  0.7145020838808033  0.8334094309593472
  0.9451932489982572  0.1235352858147903  0.3002868107527680
  0.9336984170932044  0.7875887674616241  0.6109125057881082
  0.4338082011854533  0.7894405035850498  0.2560349591815465
  0.3101211375934586  0.3722815768425392  0.7882442129417978
  0.4399249541223579  0.4550258715825450  0.2117663807226534
  0.1866557096655098  0.1217919862726554  0.5213788201260957
  0.8102769717979522  0.7077821833313976  0.6995486302776616
  0.0586604106314078  0.0379605333083233  0.6108627494416476
  0.5663939694909460  0.2127487777417067  0.8331321180846788
  0.3116370413553211  0.8718731854337518  0.5213932139902435
  0.6864293530458697  0.2865636768367211  0.1243738802566124
  0.1902708026242546  0.9561631607877926  0.2119996306850217
  0.6836125539357801  0.2880865079632323  0.6109536134870943
  0.3086594008680735  0.0379345594419579  0.6109410449831996
  0.9346415186634311  0.1228744123356934  0.7884797698362300
  0.4370207502233344  0.7953462329849863  0.8756958192475027
  0.8157212087102726  0.0405560597051329  0.7439166209117903
  0.9350044215847502  0.4580728110530983  0.6996467337060490
  0.1913231719281629  0.6249587898184695  0.6549025832371324
  0.3102843861768909  0.7078673724681620  0.6995669977499912
  0.9345670060958960  0.2871134468183826  0.1244010283870725
  0.4373929386857074  0.4560020593528420  0.4785635716527331
  0.0622334612119306  0.7058048896571936  0.4785807637214676
  0.9365430102038076  0.1189365794107680  0.4347253307185376
  0.4443187429937853  0.1240906486726279  0.3004603827331217
  0.1875896929919944  0.1197039463221602  0.4343993884652328
  0.5635209894114005  0.0391003296566393  0.8757420938393194
  0.1870437089046919  0.9571794067910064  0.5654748970336732
  0.6841330676568060  0.7884103600958320  0.1247626887212028
  0.5590795417675001  0.7026412977005898  0.3449954402247824
  0.3162749749787627  0.0371891435852956  0.3890706925505805
  0.6823422987443402  0.1142092071371024  0.1671686500156992
  0.8152956150172159  0.2051094009382983  0.2116246503446162
  0.0596575746608730  0.5378193312902059  0.2560399779241787
  0.5622918118217002  0.7057095126576158  0.4786085230416481
  0.4346097029830314  0.7877494877593292  0.1245222770902872
  0.5694862828766935  0.3733014435141779  0.3003542828546981
  0.4337824121690939  0.9527441065205293  0.3450833366185512
  0.1850710063873228  0.9579371686090580  0.6996074941564063
  0.4318159813363386  0.6136234915947867  0.1666190562748535
  0.9398898720825271  0.4554032253147899  0.2119700623975727
  0.0616894228734194  0.5310699822678060  0.1242991815767483
  0.8118355877061711  0.3719221931481576  0.5213758703040164
  0.9444702495770907  0.6246892835306884  0.3000111648333313
  0.3089648139928672  0.0377721869756577  0.2557464168300276
  0.6837009089874699  0.7879454561969125  0.6108796743372235
  0.1915998926564681  0.4627067788262423  0.8333020098347308
  0.4322130256032248  0.1119159958311786  0.1666930120401712
  0.3115564722188890  0.3719410694064862  0.5213834092232443
  0.4339122334364949  0.6220424180246857  0.7886140409250035
  0.0588365922699852  0.0380750635462731  0.2559290628105538
  0.5621742654648983  0.7071262822984811  0.5654973651279960
  0.9401327865160438  0.2898166389171020  0.7439365906352403
  0.6829740820590575  0.1223632370793611  0.7883203901707596
  0.1896377634371187  0.4549461983566356  0.2116073501123891
  0.9414409046779098  0.7878080333308185  0.3890530417555675
  0.6867533027164502  0.2978166548003892  0.8757741228421466
  0.5555849462403063  0.8647240632221561  0.1666699431991267
  0.4351616799821764  0.4582540284248903  0.6996604445369637
  0.9339051586691636  0.9515125804977660  0.3448987631097956
  0.6863821417139021  0.6214170163835117  0.5212886103643752
  0.0664369850385442  0.8748513636098669  0.6549180960698311
  0.0596505952093627  0.8727842119650309  0.7882491335553745
  0.0663458245941194  0.3748618525961613  0.6549155202693243
  0.6872706491130021  0.4557060125385037  0.4786447238849753
  0.1841849179072365  0.7888484970101048  0.2559091347499860
  0.4371477596708306  0.1201622427198784  0.4344027573588365
  0.8135608992514423  0.0314901525602251  0.1243337470027526
  0.9364436395429403  0.6218169058467170  0.5214069285110750
  0.4415626447915250  0.1249769331548978  0.6548366833604566
  0.8127126073421395  0.5305427956785621  0.1243634028656853
  0.4334300972678734  0.4523484834676264  0.3450698147606164
  0.8091482283048254  0.2027795844359288  0.3450699745542113
  0.3089366044238206  0.7020232001098919  0.3449070800699018
  0.6913528214273089  0.1249934927442373  0.6549408374690319
  0.5699771617901099  0.8734255064312909  0.3004673148003275
  0.0655611634559549  0.5400551102786629  0.7440013848256936
  0.9408882359278705  0.9554153165375875  0.2115901905616744
  0.8166880484473167  0.7051683104087517  0.2117306596306021
  0.0694327668453987  0.8741178682435664  0.3004758610669463
  0.1947916191644054  0.1239740958451317  0.3003813540227040
  0.0585108652338230  0.7025820004008205  0.3450858871034029
  0.8087735195135444  0.0378582929151781  0.6108668427778746
  0.0629617621490732  0.3714289928691615  0.4343331075218718
  0.5587533973082011  0.2025755180905418  0.3448634878372804
  0.8204832116108132  0.3736489402966006  0.3002635583377125
  0.5592721502103001  0.0387733455759300  0.2558962169644951
  0.5663024108755678  0.5378569814562426  0.3891051038219371
  0.0625030825623057  0.2059227464120028  0.4786477222973027
  0.3105961532123694  0.8714110732860626  0.7881637204938171
  0.9351238147141779  0.9582618275844211  0.6995869585181137
  0.0692177308461607  0.3749334252298918  0.3001667397618895
  0.6914437473387225  0.6248829795517215  0.6549513644972391
  0.6868312028544145  0.4571242577533072  0.5654192350697963
  0.4403279453665946  0.9565049867707729  0.2122352694101151
  0.3124891515477357  0.2057223557212186  0.4787452041564405
  0.8120559445972535  0.5399099223037023  0.8758262478260954
  0.6875728758307138  0.6199741348347120  0.4344397563802795
  0.8104812592799594  0.2076775440234706  0.6996562863747788
  0.8123925970923340  0.7056615529922541  0.4786549376075640
  0.8116540858796040  0.8708639521710991  0.4343351791835475
  0.9373035618126875  0.9551714478517810  0.4787445355956855
  0.5623095468832022  0.2057838845686532  0.4786797881199212
  0.1870010167297390  0.6192610276144951  0.4344718691897551
  0.3150520304896948  0.0408645877833266  0.7440008038314330
  0.9415031117566081  0.6251999337838431  0.6548800638651346
  0.5666215832586331  0.7127428746341303  0.8331638211627912
  0.3202739186881979  0.3732139419054013  0.3003274804939175
  0.5654136724096500  0.7043596075991101  0.2117454436100632
  0.1873541595515282  0.4557016820176318  0.4786873432672569
  0.3138956926608836  0.0404620523032463  0.8755019235438273
  0.1850091129651932  0.4582416038593974  0.6995560030791543
  0.5616882863360860  0.3717149894178624  0.5213614228557819
  0.1912254794715865  0.2874400106288232  0.3890216758718104
  0.3158408083600336  0.2051719080937540  0.2116101753645370
  0.0674085244078207  0.7055721978825261  0.2115859601130866
  0.5620499586846882  0.3706681270651300  0.4344191627832353
  0.4364826120458825  0.6219576300038762  0.5213122061904449
  0.8164425845462209  0.7136563207515610  0.8329766999348156
  0.0596902368705797  0.3729254225320449  0.7883847379255396
  0.4365899542569879  0.2966244656994879  0.8760338668083552
  0.3111765219203641  0.0315537841975137  0.1244186575666524
  0.6880190502603291  0.1198187630976360  0.4342703977495637
  0.1834705362377676  0.9522547236784150  0.3450414759500067
  0.0666534634451671  0.2134675188723460  0.8335902726045663
  0.5588225553408283  0.0379405208772947  0.6109249938706421
  0.6897804002866911  0.4550587127782436  0.2119642279657895
  0.1903951725725230  0.7902795531658412  0.7439933887919814
  0.1942478842183016  0.6243959944909099  0.3004084512553037
  0.4413092184193793  0.7875372931185659  0.3890909582444869
  0.4338255339804892  0.2894407317336136  0.2560655417146807
  0.0634589967375930  0.5412183448691240  0.8755733402805156
  0.5657278557629293  0.0404996020178702  0.7439496285900781
  0.1863990770970864  0.7948415418890515  0.8756631632248255
  0.9373521694325183  0.4556062623548777  0.4786731015057724
  0.5654612778392369  0.5404783249563143  0.7438455662742122
  0.8111998383075790  0.2069109577305858  0.5654450350480728
  0.1845022712343884  0.6222258394106959  0.7883569721116721
  0.0668318511918927  0.5383956407616112  0.3891796918177031
  0.0604062736199077  0.7077746737995537  0.6995671741997430
  0.3082562207899665  0.5383698831607431  0.2556679307236591
  0.3151534498452013  0.7037172367012652  0.2123806049160876
  0.3052664970220892  0.8650854542049714  0.1661283254685027
  0.4369598331340084  0.6206196745116204  0.4344195705615697
  0.8177512962277357  0.0396781471116606  0.3893181594495458
  0.9347409975502837  0.2969231514912242  0.8752522358842828
  0.0682602705628918  0.0402952521670845  0.3888638810422372
  0.0642791370737701  0.0366045312106275  0.8753855425220554
  0.5627683122885896  0.5300236457434212  0.1248960764411547
  0.8050253807814571  0.3662359874448264  0.1664345303933641
  0.0619363895555483  0.8704703724519761  0.4345078097526965
  0.9364720086498131  0.1217239871267021  0.5214949458728159
  0.1933087161382142  0.7864654444202270  0.3890983945682221
  0.3158060140720531  0.5400868506824533  0.7440594944356160
 
  0.00000000E+00  0.00000000E+00  0.00000000E+00
  0.00000000E+00  0.00000000E+00  0.00000000E+00
  0.00000000E+00  0.00000000E+00  0.00000000E+00
  0.00000000E+00  0.00000000E+00  0.00000000E+00
  0.00000000E+00  0.00000000E+00  0.00000000E+00
  0.00000000E+00  0.00000000E+00  0.00000000E+00
  0.00000000E+00  0.00000000E+00  0.00000000E+00
  0.00000000E+00  0.00000000E+00  0.00000000E+00
  0.00000000E+00  0.00000000E+00  0.00000000E+00
  0.00000000E+00  0.00000000E+00  0.00000000E+00
  0.00000000E+00  0.00000000E+00  0.00000000E+00
  0.00000000E+00  0.00000000E+00  0.00000000E+00
  0.00000000E+00  0.00000000E+00  0.00000000E+00
  0.00000000E+00  0.00000000E+00  0.00000000E+00
  0.00000000E+00  0.00000000E+00  0.00000000E+00
  0.00000000E+00  0.00000000E+00  0.00000000E+00
  0.00000000E+00  0.00000000E+00  0.00000000E+00
  0.00000000E+00  0.00000000E+00  0.00000000E+00
  0.00000000E+00  0.00000000E+00  0.00000000E+00
  0.00000000E+00  0.00000000E+00  0.00000000E+00
  0.00000000E+00  0.00000000E+00  0.00000000E+00
  0.00000000E+00  0.00000000E+00  0.00000000E+00
  0.00000000E+00  0.00000000E+00  0.00000000E+00
  0.00000000E+00  0.00000000E+00  0.00000000E+00
  0.00000000E+00  0.00000000E+00  0.00000000E+00
  0.00000000E+00  0.00000000E+00  0.00000000E+00
  0.00000000E+00  0.00000000E+00  0.00000000E+00
  0.00000000E+00  0.00000000E+00  0.00000000E+00
  0.00000000E+00  0.00000000E+00  0.00000000E+00
  0.00000000E+00  0.00000000E+00  0.00000000E+00
  0.00000000E+00  0.00000000E+00  0.00000000E+00
  0.00000000E+00  0.00000000E+00  0.00000000E+00
  0.00000000E+00  0.00000000E+00  0.00000000E+00
  0.00000000E+00  0.00000000E+00  0.00000000E+00
  0.00000000E+00  0.00000000E+00  0.00000000E+00
  0.00000000E+00  0.00000000E+00  0.00000000E+00
  0.00000000E+00  0.00000000E+00  0.00000000E+00
  0.00000000E+00  0.00000000E+00  0.00000000E+00
  0.00000000E+00  0.00000000E+00  0.00000000E+00
  0.00000000E+00  0.00000000E+00  0.00000000E+00
  0.00000000E+00  0.00000000E+00  0.00000000E+00
  0.00000000E+00  0.00000000E+00  0.00000000E+00
  0.00000000E+00  0.00000000E+00  0.00000000E+00
  0.00000000E+00  0.00000000E+00  0.00000000E+00
  0.00000000E+00  0.00000000E+00  0.00000000E+00
  0.00000000E+00  0.00000000E+00  0.00000000E+00
  0.00000000E+00  0.00000000E+00  0.00000000E+00
  0.00000000E+00  0.00000000E+00  0.00000000E+00
  0.00000000E+00  0.00000000E+00  0.00000000E+00
  0.00000000E+00  0.00000000E+00  0.00000000E+00
  0.00000000E+00  0.00000000E+00  0.00000000E+00
  0.00000000E+00  0.00000000E+00  0.00000000E+00
  0.00000000E+00  0.00000000E+00  0.00000000E+00
  0.00000000E+00  0.00000000E+00  0.00000000E+00
  0.00000000E+00  0.00000000E+00  0.00000000E+00
  0.00000000E+00  0.00000000E+00  0.00000000E+00
  0.00000000E+00  0.00000000E+00  0.00000000E+00
  0.00000000E+00  0.00000000E+00  0.00000000E+00
  0.00000000E+00  0.00000000E+00  0.00000000E+00
  0.00000000E+00  0.00000000E+00  0.00000000E+00
  0.00000000E+00  0.00000000E+00  0.00000000E+00
  0.00000000E+00  0.00000000E+00  0.00000000E+00
  0.00000000E+00  0.00000000E+00  0.00000000E+00
  0.00000000E+00  0.00000000E+00  0.00000000E+00
  0.00000000E+00  0.00000000E+00  0.00000000E+00
  0.00000000E+00  0.00000000E+00  0.00000000E+00
  0.00000000E+00  0.00000000E+00  0.00000000E+00
  0.00000000E+00  0.00000000E+00  0.00000000E+00
  0.00000000E+00  0.00000000E+00  0.00000000E+00
  0.00000000E+00  0.00000000E+00  0.00000000E+00
  0.00000000E+00  0.00000000E+00  0.00000000E+00
  0.00000000E+00  0.00000000E+00  0.00000000E+00
  0.00000000E+00  0.00000000E+00  0.00000000E+00
  0.00000000E+00  0.00000000E+00  0.00000000E+00
  0.00000000E+00  0.00000000E+00  0.00000000E+00
  0.00000000E+00  0.00000000E+00  0.00000000E+00
  0.00000000E+00  0.00000000E+00  0.00000000E+00
  0.00000000E+00  0.00000000E+00  0.00000000E+00
  0.00000000E+00  0.00000000E+00  0.00000000E+00
  0.00000000E+00  0.00000000E+00  0.00000000E+00
  0.00000000E+00  0.00000000E+00  0.00000000E+00
  0.00000000E+00  0.00000000E+00  0.00000000E+00
  0.00000000E+00  0.00000000E+00  0.00000000E+00
  0.00000000E+00  0.00000000E+00  0.00000000E+00
  0.00000000E+00  0.00000000E+00  0.00000000E+00
  0.00000000E+00  0.00000000E+00  0.00000000E+00
  0.00000000E+00  0.00000000E+00  0.00000000E+00
  0.00000000E+00  0.00000000E+00  0.00000000E+00
  0.00000000E+00  0.00000000E+00  0.00000000E+00
  0.00000000E+00  0.00000000E+00  0.00000000E+00
  0.00000000E+00  0.00000000E+00  0.00000000E+00
  0.00000000E+00  0.00000000E+00  0.00000000E+00
  0.00000000E+00  0.00000000E+00  0.00000000E+00
  0.00000000E+00  0.00000000E+00  0.00000000E+00
  0.00000000E+00  0.00000000E+00  0.00000000E+00
  0.00000000E+00  0.00000000E+00  0.00000000E+00
  0.00000000E+00  0.00000000E+00  0.00000000E+00
  0.00000000E+00  0.00000000E+00  0.00000000E+00
  0.00000000E+00  0.00000000E+00  0.00000000E+00
  0.00000000E+00  0.00000000E+00  0.00000000E+00
  0.00000000E+00  0.00000000E+00  0.00000000E+00
  0.00000000E+00  0.00000000E+00  0.00000000E+00
  0.00000000E+00  0.00000000E+00  0.00000000E+00
  0.00000000E+00  0.00000000E+00  0.00000000E+00
  0.00000000E+00  0.00000000E+00  0.00000000E+00
  0.00000000E+00  0.00000000E+00  0.00000000E+00
  0.00000000E+00  0.00000000E+00  0.00000000E+00
  0.00000000E+00  0.00000000E+00  0.00000000E+00
  0.00000000E+00  0.00000000E+00  0.00000000E+00
  0.00000000E+00  0.00000000E+00  0.00000000E+00
  0.00000000E+00  0.00000000E+00  0.00000000E+00
  0.00000000E+00  0.00000000E+00  0.00000000E+00
  0.00000000E+00  0.00000000E+00  0.00000000E+00
  0.00000000E+00  0.00000000E+00  0.00000000E+00
  0.00000000E+00  0.00000000E+00  0.00000000E+00
  0.00000000E+00  0.00000000E+00  0.00000000E+00
  0.00000000E+00  0.00000000E+00  0.00000000E+00
  0.00000000E+00  0.00000000E+00  0.00000000E+00
  0.00000000E+00  0.00000000E+00  0.00000000E+00
  0.00000000E+00  0.00000000E+00  0.00000000E+00
  0.00000000E+00  0.00000000E+00  0.00000000E+00
  0.00000000E+00  0.00000000E+00  0.00000000E+00
  0.00000000E+00  0.00000000E+00  0.00000000E+00
  0.00000000E+00  0.00000000E+00  0.00000000E+00
  0.00000000E+00  0.00000000E+00  0.00000000E+00
  0.00000000E+00  0.00000000E+00  0.00000000E+00
  0.00000000E+00  0.00000000E+00  0.00000000E+00
  0.00000000E+00  0.00000000E+00  0.00000000E+00
  0.00000000E+00  0.00000000E+00  0.00000000E+00
  0.00000000E+00  0.00000000E+00  0.00000000E+00
  0.00000000E+00  0.00000000E+00  0.00000000E+00
  0.00000000E+00  0.00000000E+00  0.00000000E+00
  0.00000000E+00  0.00000000E+00  0.00000000E+00
  0.00000000E+00  0.00000000E+00  0.00000000E+00
  0.00000000E+00  0.00000000E+00  0.00000000E+00
  0.00000000E+00  0.00000000E+00  0.00000000E+00
  0.00000000E+00  0.00000000E+00  0.00000000E+00
  0.00000000E+00  0.00000000E+00  0.00000000E+00
  0.00000000E+00  0.00000000E+00  0.00000000E+00
  0.00000000E+00  0.00000000E+00  0.00000000E+00
  0.00000000E+00  0.00000000E+00  0.00000000E+00
  0.00000000E+00  0.00000000E+00  0.00000000E+00
  0.00000000E+00  0.00000000E+00  0.00000000E+00
  0.00000000E+00  0.00000000E+00  0.00000000E+00
  0.00000000E+00  0.00000000E+00  0.00000000E+00
  0.00000000E+00  0.00000000E+00  0.00000000E+00
  0.00000000E+00  0.00000000E+00  0.00000000E+00
  0.00000000E+00  0.00000000E+00  0.00000000E+00
  0.00000000E+00  0.00000000E+00  0.00000000E+00
  0.00000000E+00  0.00000000E+00  0.00000000E+00
  0.00000000E+00  0.00000000E+00  0.00000000E+00
  0.00000000E+00  0.00000000E+00  0.00000000E+00
  0.00000000E+00  0.00000000E+00  0.00000000E+00
  0.00000000E+00  0.00000000E+00  0.00000000E+00
  0.00000000E+00  0.00000000E+00  0.00000000E+00
  0.00000000E+00  0.00000000E+00  0.00000000E+00
  0.00000000E+00  0.00000000E+00  0.00000000E+00
  0.00000000E+00  0.00000000E+00  0.00000000E+00
  0.00000000E+00  0.00000000E+00  0.00000000E+00
  0.00000000E+00  0.00000000E+00  0.00000000E+00
  0.00000000E+00  0.00000000E+00  0.00000000E+00
  0.00000000E+00  0.00000000E+00  0.00000000E+00
  0.00000000E+00  0.00000000E+00  0.00000000E+00
  0.00000000E+00  0.00000000E+00  0.00000000E+00
  0.00000000E+00  0.00000000E+00  0.00000000E+00
  0.00000000E+00  0.00000000E+00  0.00000000E+00
  0.00000000E+00  0.00000000E+00  0.00000000E+00
  0.00000000E+00  0.00000000E+00  0.00000000E+00
  0.00000000E+00  0.00000000E+00  0.00000000E+00
  0.00000000E+00  0.00000000E+00  0.00000000E+00
  0.00000000E+00  0.00000000E+00  0.00000000E+00
  0.00000000E+00  0.00000000E+00  0.00000000E+00
  0.00000000E+00  0.00000000E+00  0.00000000E+00
  0.00000000E+00  0.00000000E+00  0.00000000E+00
  0.00000000E+00  0.00000000E+00  0.00000000E+00
  0.00000000E+00  0.00000000E+00  0.00000000E+00
  0.00000000E+00  0.00000000E+00  0.00000000E+00
  0.00000000E+00  0.00000000E+00  0.00000000E+00
  0.00000000E+00  0.00000000E+00  0.00000000E+00
  0.00000000E+00  0.00000000E+00  0.00000000E+00
  0.00000000E+00  0.00000000E+00  0.00000000E+00
  0.00000000E+00  0.00000000E+00  0.00000000E+00
  0.00000000E+00  0.00000000E+00  0.00000000E+00
  0.00000000E+00  0.00000000E+00  0.00000000E+00
  0.00000000E+00  0.00000000E+00  0.00000000E+00
  0.00000000E+00  0.00000000E+00  0.00000000E+00
  0.00000000E+00  0.00000000E+00  0.00000000E+00
  0.00000000E+00  0.00000000E+00  0.00000000E+00
  0.00000000E+00  0.00000000E+00  0.00000000E+00
  0.00000000E+00  0.00000000E+00  0.00000000E+00
  0.00000000E+00  0.00000000E+00  0.00000000E+00
  0.00000000E+00  0.00000000E+00  0.00000000E+00
  0.00000000E+00  0.00000000E+00  0.00000000E+00
  0.00000000E+00  0.00000000E+00  0.00000000E+00
  0.00000000E+00  0.00000000E+00  0.00000000E+00
  0.00000000E+00  0.00000000E+00  0.00000000E+00
  0.00000000E+00  0.00000000E+00  0.00000000E+00
  0.00000000E+00  0.00000000E+00  0.00000000E+00
  0.00000000E+00  0.00000000E+00  0.00000000E+00
  0.00000000E+00  0.00000000E+00  0.00000000E+00
  0.00000000E+00  0.00000000E+00  0.00000000E+00
  0.00000000E+00  0.00000000E+00  0.00000000E+00
  0.00000000E+00  0.00000000E+00  0.00000000E+00
  0.00000000E+00  0.00000000E+00  0.00000000E+00
  0.00000000E+00  0.00000000E+00  0.00000000E+00
  0.00000000E+00  0.00000000E+00  0.00000000E+00
  0.00000000E+00  0.00000000E+00  0.00000000E+00
  0.00000000E+00  0.00000000E+00  0.00000000E+00
  0.00000000E+00  0.00000000E+00  0.00000000E+00
  0.00000000E+00  0.00000000E+00  0.00000000E+00
  0.00000000E+00  0.00000000E+00  0.00000000E+00
  0.00000000E+00  0.00000000E+00  0.00000000E+00
  0.00000000E+00  0.00000000E+00  0.00000000E+00
  0.00000000E+00  0.00000000E+00  0.00000000E+00
  0.00000000E+00  0.00000000E+00  0.00000000E+00
  0.00000000E+00  0.00000000E+00  0.00000000E+00
  0.00000000E+00  0.00000000E+00  0.00000000E+00
  0.00000000E+00  0.00000000E+00  0.00000000E+00
  0.00000000E+00  0.00000000E+00  0.00000000E+00
  0.00000000E+00  0.00000000E+00  0.00000000E+00
  0.00000000E+00  0.00000000E+00  0.00000000E+00
  0.00000000E+00  0.00000000E+00  0.00000000E+00
  0.00000000E+00  0.00000000E+00  0.00000000E+00
  0.00000000E+00  0.00000000E+00  0.00000000E+00
  0.00000000E+00  0.00000000E+00  0.00000000E+00
  0.00000000E+00  0.00000000E+00  0.00000000E+00
  0.00000000E+00  0.00000000E+00  0.00000000E+00
  0.00000000E+00  0.00000000E+00  0.00000000E+00
  0.00000000E+00  0.00000000E+00  0.00000000E+00
  0.00000000E+00  0.00000000E+00  0.00000000E+00
  0.00000000E+00  0.00000000E+00  0.00000000E+00
  0.00000000E+00  0.00000000E+00  0.00000000E+00
  0.00000000E+00  0.00000000E+00  0.00000000E+00
  0.00000000E+00  0.00000000E+00  0.00000000E+00
  0.00000000E+00  0.00000000E+00  0.00000000E+00
  0.00000000E+00  0.00000000E+00  0.00000000E+00
  0.00000000E+00  0.00000000E+00  0.00000000E+00
  0.00000000E+00  0.00000000E+00  0.00000000E+00
  0.00000000E+00  0.00000000E+00  0.00000000E+00
  0.00000000E+00  0.00000000E+00  0.00000000E+00
  0.00000000E+00  0.00000000E+00  0.00000000E+00
  0.00000000E+00  0.00000000E+00  0.00000000E+00
  0.00000000E+00  0.00000000E+00  0.00000000E+00
  0.00000000E+00  0.00000000E+00  0.00000000E+00
  0.00000000E+00  0.00000000E+00  0.00000000E+00
  0.00000000E+00  0.00000000E+00  0.00000000E+00
  0.00000000E+00  0.00000000E+00  0.00000000E+00