FeMn_288_15                             
    1.000000000000000     
     9.7266779999999997    0.0000000000000000    0.0000000000000000
     0.0000000000000000    8.4235500000000005    0.0000000000000000
     0.0000000000000000    0.0000000000000000   45.0000000000000000
   Fe   Mn
   273    15
Direct
  0.0624783130363778  0.7037322566679617  0.2133353870774443
  0.5626111747115280  0.3723005851559993  0.5213669642139932
  0.5623401663568310  0.7040198948201448  0.3462071711296416
  0.8126345751137958  0.0416449254945525  0.8735948688485310
  0.0623598704145470  0.0372956815058531  0.3902291820525818
  0.5629429752731929  0.8741939496132918  0.7864764589228969
  0.1875965387368112  0.1239946553395834  0.6537101363279550
  0.5625674345357137  0.5378953302448642  0.3901377700547711
  0.6877467358864415  0.7906630006375607  0.7424016421809896
  0.8122275293348021  0.0373966908730971  0.3902084975912287
  0.9377802086857757  0.7864452966156175  0.1265561400502724
  0.0622786844504121  0.2061405356212785  0.5652921028611226
  0.3123724830809954  0.5372235945831573  0.2575864909865558
  0.6876234611045740  0.4552776653396942  0.4785998558496247
  0.1874702682730561  0.2898893972763837  0.6099226387243906
  0.6876196857940962  0.2902481323617348  0.6098848750477807
  0.0624353027168498  0.5377044642985928  0.2576347681660267
  0.5624317520492587  0.3697110328888522  0.1686124932867675
  0.8124249425897807  0.5378823958435140  0.3901863056542222
  0.9372889421851900  0.4534346287643702  0.3461738497319602
  0.0625822805896968  0.2074085806335209  0.6982364453776182
  0.5625411758920830  0.5402681073130563  0.6098600053696449
  0.4373108694588653  0.4573910027130891  0.6982149505675911
  0.0626480801234302  0.0408296418798223  0.7423659483084190
  0.6876307353050471  0.1214125648027679  0.4347642065257951
  0.5627059071205676  0.8741436000027387  0.6537694534769090
  0.9371408275361989  0.4551304577704393  0.4787691521166370
  0.5625613772642440  0.2027676537522491  0.2133989340734736
  0.5623983914038450  0.2071405728100594  0.6982362983530868
  0.5623789938187828  0.7055246081260114  0.4786668661706303
  0.9374340711024419  0.1224965989022972  0.5214053542854640
  0.4376877465578347  0.2874007847327838  0.3900857881247037
  0.5624308794692383  0.2064331024603938  0.5652413937765117
  0.4374876357072526  0.7908295549906076  0.8735773372540149
  0.6875216283198267  0.2872783061366446  0.2576484089579471
  0.8123236960745577  0.5354531077123250  0.1263553668059831
  0.6874993627250783  0.9559587070123410  0.5651559854512271
  0.8125415772546254  0.7083663010100402  0.8315075883574883
  0.8124941621002526  0.2025393082522121  0.2134324856558514
  0.0630564089890218  0.2078651853243475  0.8314811792271973
  0.4374010954091532  0.7861205424582376  0.1264766833757598
  0.3126925717893399  0.8750925028204419  0.7866498424275862
  0.3127454102523957  0.2051848615332772  0.4786684333205192
  0.8124042711656553  0.7032320675258894  0.2133716635031325
  0.3125391062549326  0.7034610404780127  0.2133264647133297
  0.6876349476014538  0.7878549246518000  0.3901925203047343
  0.0626345790242608  0.3737794437649166  0.6537999454967625
  0.4381669306689028  0.2906444030338278  0.7423301156397873
  0.8127913727997047  0.2080274106761418  0.6982521922144276
  0.4385563114528878  0.2919099539736785  0.8735901645261372
  0.0623818839265121  0.8716145027765473  0.4346481963170916
  0.5623451581548526  0.7033346180792988  0.2134889703961254
  0.6874842236250230  0.6206215398339546  0.3017868056422329
  0.1878437004945283  0.7909207777262283  0.8735873490970998
  0.3131409285716192  0.3704030227007765  0.3016677534390127
  0.1874471652911493  0.9577517878590411  0.6982268120735873
  0.8124955814859645  0.8748605979347319  0.7867014327303022
  0.6875900649886256  0.6244655132415411  0.7865676301778892
  0.9378080634058766  0.6248367624407768  0.7866729150994701
  0.9373138277793228  0.2910347277933489  0.7423966627213586
  0.3123439363824554  0.8698714152903760  0.1686192307582711
  0.3126870007343924  0.8726616836064635  0.5213453794403951
  0.0624921959222332  0.5398042467712830  0.6097864546175202
  0.0626052717745437  0.8738474053383355  0.6538309920806403
  0.4375937746874444  0.1226719793535737  0.5213954184180618
  0.0627334865023760  0.3747178615902407  0.7865497268014271
  0.5624682019907428  0.2039854753779329  0.3462185755981714
  0.5624241887510237  0.0408439176929365  0.7423546616237593
  0.1875098905196485  0.9536981794423313  0.2134503253553567
  0.8125422802594517  0.3743690070631818  0.7866322544782949
  0.1874757178124401  0.6196226912713148  0.1685835415181868
  0.4373108107795393  0.2859060637640564  0.1264968237071871
  0.1873336782481552  0.9541031636606285  0.3462802960795768
  0.9372690729167987  0.6213088551521175  0.4351063248221371
  0.8124594354614469  0.5371491708852296  0.2576479599168099
  0.4377864109156412  0.6235261100230703  0.6536844773135208
  0.4373937711359389  0.4539769076383601  0.3462312987757759
  0.6875370762631076  0.1202238246382211  0.3017348689632770
  0.4373402033473454  0.6198218623579784  0.1686837987464979
  0.4376092304169634  0.7902571021284341  0.6098246117326829
  0.4374593564700112  0.1202141851180164  0.3016626642165440
  0.1878151303563341  0.1226630863651136  0.5212706935455764
  0.3125226713476503  0.0412359558697926  0.7424322660491162
  0.4376233870656855  0.9555064817670138  0.4785999441751718
  0.1866666895826549  0.2920693560644229  0.8735327437084881
  0.5624025372277112  0.8705350518077635  0.3018064019324689
  0.9365918813740094  0.2862971720216584  0.1262679463062970
  0.9373622510654501  0.4536713885795338  0.2135037255403253
  0.8127697247192007  0.5400473823681603  0.6097720163941337
  0.1884309680503495  0.9589634587864377  0.8315206682017848
  0.6878438537322500  0.2860182754151673  0.1263014879849668
  0.4373527196707896  0.6226248824358342  0.5213327147079133
  0.8123824217282516  0.0361002570005482  0.1264711063015315
  0.1875789787705894  0.9561158658077098  0.5651394348069722
  0.9375834771998276  0.2876768489951768  0.2575898906141318
  0.3124189908905178  0.5358622295360862  0.1264429060926604
  0.5623325566575484  0.3706987203415866  0.3016887559589505
  0.0624721092410134  0.5416604825151080  0.8736157932876778
  0.9371622033533902  0.7868204882169051  0.3900948332061316
  0.4371502851402805  0.7908220176755012  0.7423932307830514
  0.6875625366172549  0.9553735142151003  0.4785907991291747
  0.5623536210228578  0.2055296795626264  0.4786611923513178
  0.3126122631664783  0.0400896064424497  0.6098084323319374
  0.3128335505919618  0.8703651092871402  0.3017205773964409
  0.3123890748160467  0.7072988135360900  0.6980841808230643
  0.3128078284803188  0.3715819908072278  0.4348613084434494
  0.1876899358014986  0.6217166712411087  0.4347409789463915
  0.0625655838915941  0.3697752320359289  0.1685513336312274
  0.4374732722626090  0.6250268838898099  0.7866117427686251
  0.6873563860115963  0.6214559223242980  0.4346983281767758
  0.1875891078135005  0.7877468509334804  0.3901360167141713
  0.5619030045230297  0.8693471353784661  0.1687192320188196
  0.0623178610396633  0.2051060083925035  0.4787124866738756
  0.6873607295633556  0.6185503362969292  0.1687958344224764
  0.3126795696255671  0.2037758792078568  0.3461473968594583
  0.4374973949327997  0.7871762214886917  0.2576860950311133
  0.9369367892510289  0.1194921070771530  0.1685393287522544
  0.3126253329336823  0.5405027887048974  0.7423562556702731
  0.0622084133407995  0.2035172724687130  0.3461978456957718
  0.1877049941749815  0.2908445890175139  0.7423766395972409
  0.1876944026935641  0.1247725011453120  0.7865512896322236
  0.8126431910240882  0.3740015366477075  0.6538236046135469
  0.6873446703848577  0.4539765270756836  0.3462412010290073
  0.4376523142060914  0.9529815819814945  0.2135015870287666
  0.1875146824776639  0.7869205731763999  0.1263907626076683
  0.4371521836075513  0.9591249545570077  0.8315620672708032
  0.9378295701033795  0.4575656709009259  0.6983182345716407
  0.0629847279003478  0.8694664910077254  0.1686317083013558
  0.9375945152750474  0.7898786617940098  0.6098354837754303
  0.3122591672676807  0.2074345384894192  0.6982158851010274
  0.5624989866044184  0.3744902274214129  0.7866179949567735
  0.9372532693956713  0.4561785121635947  0.5652683854399340
  0.8127786053337327  0.7034972836978739  0.3461595751942849
  0.3123179340288363  0.3695714345752208  0.1685714364209563
  0.0626133456742158  0.0355848212837134  0.1264252666905126
  0.9377355814566671  0.2895045984889518  0.6098872081107717
  0.1876549919688667  0.7900669980371043  0.6098909662956783
  0.9375682728314926  0.9560239115180335  0.5652048919602713
  0.9374898827231927  0.6235632580368949  0.6537206028470014
  0.3122643117696522  0.7041725856625777  0.3462438474308408
  0.3127710049280928  0.8716879398854798  0.4348070363723864
  0.1880610618275439  0.2865413148088188  0.1264544262826061
  0.9375825829323405  0.6186462642038474  0.1686009484049289
  0.5627681607671364  0.5415853038627202  0.8736071344865982
  0.9373928498061014  0.7875747281382885  0.2577093035314516
  0.6874727850739768  0.9584703403487271  0.8314320728902609
  0.6873482241426027  0.6239828959194088  0.6537570276119845
  0.5624927548779723  0.0405573545416987  0.6098192502712751
  0.9371756845863045  0.9582579991700928  0.8314153727689705
  0.4375144320313423  0.6206153961449871  0.3018447493812200
  0.6876891173992392  0.1240029454730646  0.6538200199154630
  0.8120157838936042  0.8704155046600436  0.3017424473247072
  0.1875505690031077  0.7873079779970672  0.2576343572315408
  0.6871734301253778  0.1224813538602230  0.5213723568373371
  0.5624350176136792  0.8712018766144526  0.4348096420250480
  0.4376336304845372  0.9540108992308621  0.3461525648841813
  0.1876430250934640  0.4584730704459942  0.8313752428858294
  0.4375736061274392  0.6214303293798986  0.4347159104059256
  0.4373929939106202  0.4587782888294192  0.8313194517153533
  0.9373734866047065  0.9534389961008632  0.2134155772774629
  0.5621057698065126  0.2085632716028266  0.8314864961703669
  0.1875066029037369  0.2873234821184159  0.2575576821306519
  0.0625962310457924  0.5411713533453474  0.7424600068194561
  0.6873187007670145  0.9529630686328641  0.2133903658872632
  0.8125135336670739  0.8727917822790873  0.5213723960941721
  0.3125325705864188  0.7066260803601210  0.5652822306675882
  0.9374970950960516  0.1244186255606340  0.7865429538813453
  0.8125014367684104  0.8691142920035732  0.1687066720363211
  0.9379622681832598  0.9574919808492538  0.6982837514014325
  0.1877223815070117  0.6226118064266455  0.5213480810355160
  0.1873945292097582  0.6251277731892219  0.7865339424290982
  0.4378882042785656  0.7882570469168765  0.3901027483251666
  0.1875507508240499  0.9553260919275410  0.4786113224522032
  0.5626537324460629  0.8726419244077359  0.5213406731479904
  0.3126346247589863  0.2032710921740267  0.2133498472385650
  0.8122787118238144  0.7057039955838238  0.4787397893394997
  0.1874436933478641  0.4566013053389941  0.5649838007060646
  0.0624870862027447  0.7077607089149766  0.6982253657802433
  0.0622858409551514  0.7056325990893701  0.4787217264691928
  0.9375983681848172  0.7915318415174522  0.8735367240620510
  0.5624691746748789  0.5402201028500531  0.7424332757578496
  0.5621944991922426  0.3716679857213301  0.4347856040379618
  0.0621840435281171  0.2040735471207880  0.2133327411985049
  0.4378642003625247  0.4555066461144486  0.4786556045388414
  0.0622921090015880  0.7083558823843704  0.8312641970589895
  0.3125145612967292  0.3738100230677948  0.6538051362243534
  0.0625187017318505  0.0398039675583656  0.6098453963737115
  0.0626026335293334  0.3725122527858428  0.5214216112350782
  0.6878265915615360  0.9573007006189378  0.6982774381455767
  0.3127289935939832  0.5415538517583194  0.8735631646863080
  0.1877539307396249  0.4541307452229708  0.3461455318305106
  0.6874127115072060  0.7914439783484882  0.8735976708603974
  0.9376672628944290  0.4581276812269857  0.8314433883866729
  0.3125175120533425  0.0381932947663048  0.3901503585800453
  0.3121979807552288  0.5398554045897022  0.6098469168762819
  0.6871027336859905  0.4531076194166750  0.2135195055390280
  0.3125494026041118  0.3724314329828883  0.5213809041919747
  0.6876122866055725  0.2873243595113577  0.3901159738106847
  0.8116709820380751  0.3703683387670565  0.3016883425528825
  0.6874228403650202  0.1242682406976836  0.7866430065013393
  0.8123870897163324  0.5404594624173655  0.7423265409440801
  0.3126638993014446  0.3753119643002318  0.7864474532099107
  0.9371226712951898  0.6203786669609683  0.3018037440149132
  0.4373579765556120  0.1191934949984782  0.1686585297948951
  0.6871670060757046  0.6221559896967371  0.5213449489765818
  0.1875442561874646  0.1189837489727248  0.1685449152706650
  0.8124699463025318  0.0400084597483296  0.6098760600268551
  0.0622092733416163  0.8727721284528026  0.5213981978066266
  0.6880148066753980  0.1194672335769692  0.1686633252565164
  0.4375195089911793  0.9564012733121049  0.5651717750682376
  0.8123450195031594  0.2036528070074386  0.3462343203942674
  0.9371763795703950  0.9534430318841034  0.3461595004533535
  0.6877961410834253  0.4562262025881049  0.5651805294958943
  0.4378225580729247  0.4531049963134879  0.2134324969248551
  0.1875587899270613  0.6234926901871366  0.6537355766674591
  0.8122505619007112  0.3724215163734850  0.5214035427945702
  0.8124927276999926  0.2082374723349923  0.8313866380507187
  0.8127893864050172  0.7070736305434836  0.6980781295421835
  0.8125200212100773  0.2063541407618273  0.5651774086520679
  0.3126997644086428  0.2064420875062513  0.5653011236686230
  0.4373755771441203  0.1237233169033228  0.6537893373850727
  0.6870387433414078  0.2905187845521404  0.7423818195573012
  0.0617965067714390  0.3715439821189134  0.4347497975020616
  0.8126514647599539  0.3716229733911168  0.4347855821216474
  0.4375839239057226  0.4562976619842991  0.5652313183591683
  0.5628157861636621  0.7085925208520847  0.8312591004612921
  0.9375410228032667  0.1242208230843672  0.6536866140631908
  0.6873727053414523  0.7869684552530571  0.2576327018696314
  0.8123119907873493  0.7063852531556223  0.5651539793628035
  0.3124903482093550  0.8735591880897032  0.6537233188785413
  0.1876851218997475  0.4575430726599686  0.6983225217556456
  0.0618092027088323  0.0423610695624320  0.8735865961259749
  0.0622316484302549  0.8744045038797199  0.7863958509028820
  0.0625032437357333  0.7067786558594819  0.5652651237551491
  0.5632813787944078  0.0420722024989276  0.8735649512299909
  0.3130024614583876  0.7054234745430670  0.4786558365185382
  0.6870534201853234  0.7860928573698819  0.1266109878572513
  0.3126311008978580  0.7092145470768794  0.8314632729782294
  0.1876289096218346  0.1203314935847352  0.3018126459811974
  0.0624365417817393  0.7036977693529123  0.3461457578569835
  0.5624094864488278  0.0372534911094991  0.2576843828199027
  0.6873345349069483  0.2919900545274565  0.8736264026660090
  0.9378201455277357  0.2919862414441367  0.8735747734029691
  0.5625664095922922  0.5358288702293580  0.1264669193627759
  0.4378416706925259  0.1218514311843957  0.4348458959775862
  0.9372554257365510  0.1219185454395443  0.4348597922872076
  0.3121377444783358  0.5376733003714195  0.3902303199341849
  0.3124709201370020  0.0359142245106080  0.1263763050127588
  0.1875489086927385  0.6204760440794456  0.3016967664520451
  0.4372030722678334  0.2901138309868911  0.6098287335312974
  0.9369170934116936  0.1201402993405775  0.3016894728630184
  0.8124673596844733  0.8738975502005841  0.6538143132363115
  0.9375170750364791  0.2879013571049054  0.3901587861870270
  0.0625220197983002  0.0373854300999077  0.2576653176247058
  0.4372671883848009  0.9570002205735963  0.6982919057902705
  0.8125696311759179  0.0372505673694404  0.2576889547720535
  0.8125809731057185  0.2053127418310096  0.4786831704486046
  0.5624234377987343  0.0348060133523175  0.1265009940010738
  0.6874758496069814  0.4583897153326409  0.8313410019770427
  0.4373454331680485  0.2872699577089800  0.2575755930072796
  0.6872848745402017  0.7905630600255825  0.6098048809603762
  0.5625055933672417  0.5373563983805557  0.2576756642534007
  0.3126663733657701  0.2077815097909296  0.8314846940695850
  0.9373225212364719  0.9552261533200316  0.4785936207389221
  0.6875278902105391  0.9538641564960836  0.3461992408839914
  0.4376963439931387  0.1247380676413340  0.7866046858062786
  0.8125826424774201  0.0411346700726452  0.7424813375697390
  0.5625401876498174  0.7064086207810075  0.5651807279331744
  0.3123791891433331  0.0370408347559285  0.2576285976562456
  0.0624419681854384  0.5359989105873831  0.1263763775739024
  0.8123811782924006  0.8715861696381872  0.4347128424494817
  0.8124281403048268  0.5417789271365120  0.8735813621580034
  0.5625363191801063  0.3738798792779907  0.6538446156783051
  0.0622009957150439  0.5377134402301358  0.3901613165528874
  0.3124260314409595  0.0414060525066977  0.8733806758358946
  0.5623263597987769  0.0372145230637881  0.3900018592283376
  0.1872917092203176  0.4535156160440763  0.2135419372705885
  0.1875580214523974  0.2881190015296137  0.3900226797909718
  0.1887219975941505  0.7910697871579845  0.7423931130000022
  0.1873052555919705  0.4554340123172160  0.4787130889373146
  0.0622845352835583  0.8706059154037650  0.3017155314650266
  0.6878348252439667  0.4568409172624271  0.6982608623190281
  0.9377465345470188  0.6223350447614989  0.5212447147216046
  0.5622190103160106  0.7079103669882348  0.6982496174518137
  0.8124516372388629  0.3690454282078067  0.1679495785601226
  0.1874204605415268  0.1217284515732822  0.4349379260714797
  0.9368564899521793  0.7910864610484127  0.7424615761149777
  0.0624254358472323  0.3704365248404232  0.3017174156076370
 
  0.00000000E+00  0.00000000E+00  0.00000000E+00
  0.00000000E+00  0.00000000E+00  0.00000000E+00
  0.00000000E+00  0.00000000E+00  0.00000000E+00
  0.00000000E+00  0.00000000E+00  0.00000000E+00
  0.00000000E+00  0.00000000E+00  0.00000000E+00
  0.00000000E+00  0.00000000E+00  0.00000000E+00
  0.00000000E+00  0.00000000E+00  0.00000000E+00
  0.00000000E+00  0.00000000E+00  0.00000000E+00
  0.00000000E+00  0.00000000E+00  0.00000000E+00
  0.00000000E+00  0.00000000E+00  0.00000000E+00
  0.00000000E+00  0.00000000E+00  0.00000000E+00
  0.00000000E+00  0.00000000E+00  0.00000000E+00
  0.00000000E+00  0.00000000E+00  0.00000000E+00
  0.00000000E+00  0.00000000E+00  0.00000000E+00
  0.00000000E+00  0.00000000E+00  0.00000000E+00
  0.00000000E+00  0.00000000E+00  0.00000000E+00
  0.00000000E+00  0.00000000E+00  0.00000000E+00
  0.00000000E+00  0.00000000E+00  0.00000000E+00
  0.00000000E+00  0.00000000E+00  0.00000000E+00
  0.00000000E+00  0.00000000E+00  0.00000000E+00
  0.00000000E+00  0.00000000E+00  0.00000000E+00
  0.00000000E+00  0.00000000E+00  0.00000000E+00
  0.00000000E+00  0.00000000E+00  0.00000000E+00
  0.00000000E+00  0.00000000E+00  0.00000000E+00
  0.00000000E+00  0.00000000E+00  0.00000000E+00
  0.00000000E+00  0.00000000E+00  0.00000000E+00
  0.00000000E+00  0.00000000E+00  0.00000000E+00
  0.00000000E+00  0.00000000E+00  0.00000000E+00
  0.00000000E+00  0.00000000E+00  0.00000000E+00
  0.00000000E+00  0.00000000E+00  0.00000000E+00
  0.00000000E+00  0.00000000E+00  0.00000000E+00
  0.00000000E+00  0.00000000E+00  0.00000000E+00
  0.00000000E+00  0.00000000E+00  0.00000000E+00
  0.00000000E+00  0.00000000E+00  0.00000000E+00
  0.00000000E+00  0.00000000E+00  0.00000000E+00
  0.00000000E+00  0.00000000E+00  0.00000000E+00
  0.00000000E+00  0.00000000E+00  0.00000000E+00
  0.00000000E+00  0.00000000E+00  0.00000000E+00
  0.00000000E+00  0.00000000E+00  0.00000000E+00
  0.00000000E+00  0.00000000E+00  0.00000000E+00
  0.00000000E+00  0.00000000E+00  0.00000000E+00
  0.00000000E+00  0.00000000E+00  0.00000000E+00
  0.00000000E+00  0.00000000E+00  0.00000000E+00
  0.00000000E+00  0.00000000E+00  0.00000000E+00
  0.00000000E+00  0.00000000E+00  0.00000000E+00
  0.00000000E+00  0.00000000E+00  0.00000000E+00
  0.00000000E+00  0.00000000E+00  0.00000000E+00
  0.00000000E+00  0.00000000E+00  0.00000000E+00
  0.00000000E+00  0.00000000E+00  0.00000000E+00
  0.00000000E+00  0.00000000E+00  0.00000000E+00
  0.00000000E+00  0.00000000E+00  0.00000000E+00
  0.00000000E+00  0.00000000E+00  0.00000000E+00
  0.00000000E+00  0.00000000E+00  0.00000000E+00
  0.00000000E+00  0.00000000E+00  0.00000000E+00
  0.00000000E+00  0.00000000E+00  0.00000000E+00
  0.00000000E+00  0.00000000E+00  0.00000000E+00
  0.00000000E+00  0.00000000E+00  0.00000000E+00
  0.00000000E+00  0.00000000E+00  0.00000000E+00
  0.00000000E+00  0.00000000E+00  0.00000000E+00
  0.00000000E+00  0.00000000E+00  0.00000000E+00
  0.00000000E+00  0.00000000E+00  0.00000000E+00
  0.00000000E+00  0.00000000E+00  0.00000000E+00
  0.00000000E+00  0.00000000E+00  0.00000000E+00
  0.00000000E+00  0.00000000E+00  0.00000000E+00
  0.00000000E+00  0.00000000E+00  0.00000000E+00
  0.00000000E+00  0.00000000E+00  0.00000000E+00
  0.00000000E+00  0.00000000E+00  0.00000000E+00
  0.00000000E+00  0.00000000E+00  0.00000000E+00
  0.00000000E+00  0.00000000E+00  0.00000000E+00
  0.00000000E+00  0.00000000E+00  0.00000000E+00
  0.00000000E+00  0.00000000E+00  0.00000000E+00
  0.00000000E+00  0.00000000E+00  0.00000000E+00
  0.00000000E+00  0.00000000E+00  0.00000000E+00
  0.00000000E+00  0.00000000E+00  0.00000000E+00
  0.00000000E+00  0.00000000E+00  0.00000000E+00
  0.00000000E+00  0.00000000E+00  0.00000000E+00
  0.00000000E+00  0.00000000E+00  0.00000000E+00
  0.00000000E+00  0.00000000E+00  0.00000000E+00
  0.00000000E+00  0.00000000E+00  0.00000000E+00
  0.00000000E+00  0.00000000E+00  0.00000000E+00
  0.00000000E+00  0.00000000E+00  0.00000000E+00
  0.00000000E+00  0.00000000E+00  0.00000000E+00
  0.00000000E+00  0.00000000E+00  0.00000000E+00
  0.00000000E+00  0.00000000E+00  0.00000000E+00
  0.00000000E+00  0.00000000E+00  0.00000000E+00
  0.00000000E+00  0.00000000E+00  0.00000000E+00
  0.00000000E+00  0.00000000E+00  0.00000000E+00
  0.00000000E+00  0.00000000E+00  0.00000000E+00
  0.00000000E+00  0.00000000E+00  0.00000000E+00
  0.00000000E+00  0.00000000E+00  0.00000000E+00
  0.00000000E+00  0.00000000E+00  0.00000000E+00
  0.00000000E+00  0.00000000E+00  0.00000000E+00
  0.00000000E+00  0.00000000E+00  0.00000000E+00
  0.00000000E+00  0.00000000E+00  0.00000000E+00
  0.00000000E+00  0.00000000E+00  0.00000000E+00
  0.00000000E+00  0.00000000E+00  0.00000000E+00
  0.00000000E+00  0.00000000E+00  0.00000000E+00
  0.00000000E+00  0.00000000E+00  0.00000000E+00
  0.00000000E+00  0.00000000E+00  0.00000000E+00
  0.00000000E+00  0.00000000E+00  0.00000000E+00
  0.00000000E+00  0.00000000E+00  0.00000000E+00
  0.00000000E+00  0.00000000E+00  0.00000000E+00
  0.00000000E+00  0.00000000E+00  0.00000000E+00
  0.00000000E+00  0.00000000E+00  0.00000000E+00
  0.00000000E+00  0.00000000E+00  0.00000000E+00
  0.00000000E+00  0.00000000E+00  0.00000000E+00
  0.00000000E+00  0.00000000E+00  0.00000000E+00
  0.00000000E+00  0.00000000E+00  0.00000000E+00
  0.00000000E+00  0.00000000E+00  0.00000000E+00
  0.00000000E+00  0.00000000E+00  0.00000000E+00
  0.00000000E+00  0.00000000E+00  0.00000000E+00
  0.00000000E+00  0.00000000E+00  0.00000000E+00
  0.00000000E+00  0.00000000E+00  0.00000000E+00
  0.00000000E+00  0.00000000E+00  0.00000000E+00
  0.00000000E+00  0.00000000E+00  0.00000000E+00
  0.00000000E+00  0.00000000E+00  0.00000000E+00
  0.00000000E+00  0.00000000E+00  0.00000000E+00
  0.00000000E+00  0.00000000E+00  0.00000000E+00
  0.00000000E+00  0.00000000E+00  0.00000000E+00
  0.00000000E+00  0.00000000E+00  0.00000000E+00
  0.00000000E+00  0.00000000E+00  0.00000000E+00
  0.00000000E+00  0.00000000E+00  0.00000000E+00
  0.00000000E+00  0.00000000E+00  0.00000000E+00
  0.00000000E+00  0.00000000E+00  0.00000000E+00
  0.00000000E+00  0.00000000E+00  0.00000000E+00
  0.00000000E+00  0.00000000E+00  0.00000000E+00
  0.00000000E+00  0.00000000E+00  0.00000000E+00
  0.00000000E+00  0.00000000E+00  0.00000000E+00
  0.00000000E+00  0.00000000E+00  0.00000000E+00
  0.00000000E+00  0.00000000E+00  0.00000000E+00
  0.00000000E+00  0.00000000E+00  0.00000000E+00
  0.00000000E+00  0.00000000E+00  0.00000000E+00
  0.00000000E+00  0.00000000E+00  0.00000000E+00
  0.00000000E+00  0.00000000E+00  0.00000000E+00
  0.00000000E+00  0.00000000E+00  0.00000000E+00
  0.00000000E+00  0.00000000E+00  0.00000000E+00
  0.00000000E+00  0.00000000E+00  0.00000000E+00
  0.00000000E+00  0.00000000E+00  0.00000000E+00
  0.00000000E+00  0.00000000E+00  0.00000000E+00
  0.00000000E+00  0.00000000E+00  0.00000000E+00
  0.00000000E+00  0.00000000E+00  0.00000000E+00
  0.00000000E+00  0.00000000E+00  0.00000000E+00
  0.00000000E+00  0.00000000E+00  0.00000000E+00
  0.00000000E+00  0.00000000E+00  0.00000000E+00
  0.00000000E+00  0.00000000E+00  0.00000000E+00
  0.00000000E+00  0.00000000E+00  0.00000000E+00
  0.00000000E+00  0.00000000E+00  0.00000000E+00
  0.00000000E+00  0.00000000E+00  0.00000000E+00
  0.00000000E+00  0.00000000E+00  0.00000000E+00
  0.00000000E+00  0.00000000E+00  0.00000000E+00
  0.00000000E+00  0.00000000E+00  0.00000000E+00
  0.00000000E+00  0.00000000E+00  0.00000000E+00
  0.00000000E+00  0.00000000E+00  0.00000000E+00
  0.00000000E+00  0.00000000E+00  0.00000000E+00
  0.00000000E+00  0.00000000E+00  0.00000000E+00
  0.00000000E+00  0.00000000E+00  0.00000000E+00
  0.00000000E+00  0.00000000E+00  0.00000000E+00
  0.00000000E+00  0.00000000E+00  0.00000000E+00
  0.00000000E+00  0.00000000E+00  0.00000000E+00
  0.00000000E+00  0.00000000E+00  0.00000000E+00
  0.00000000E+00  0.00000000E+00  0.00000000E+00
  0.00000000E+00  0.00000000E+00  0.00000000E+00
  0.00000000E+00  0.00000000E+00  0.00000000E+00
  0.00000000E+00  0.00000000E+00  0.00000000E+00
  0.00000000E+00  0.00000000E+00  0.00000000E+00
  0.00000000E+00  0.00000000E+00  0.00000000E+00
  0.00000000E+00  0.00000000E+00  0.00000000E+00
  0.00000000E+00  0.00000000E+00  0.00000000E+00
  0.00000000E+00  0.00000000E+00  0.00000000E+00
  0.00000000E+00  0.00000000E+00  0.00000000E+00
  0.00000000E+00  0.00000000E+00  0.00000000E+00
  0.00000000E+00  0.00000000E+00  0.00000000E+00
  0.00000000E+00  0.00000000E+00  0.00000000E+00
  0.00000000E+00  0.00000000E+00  0.00000000E+00
  0.00000000E+00  0.00000000E+00  0.00000000E+00
  0.00000000E+00  0.00000000E+00  0.00000000E+00
  0.00000000E+00  0.00000000E+00  0.00000000E+00
  0.00000000E+00  0.00000000E+00  0.00000000E+00
  0.00000000E+00  0.00000000E+00  0.00000000E+00
  0.00000000E+00  0.00000000E+00  0.00000000E+00
  0.00000000E+00  0.00000000E+00  0.00000000E+00
  0.00000000E+00  0.00000000E+00  0.00000000E+00
  0.00000000E+00  0.00000000E+00  0.00000000E+00
  0.00000000E+00  0.00000000E+00  0.00000000E+00
  0.00000000E+00  0.00000000E+00  0.00000000E+00
  0.00000000E+00  0.00000000E+00  0.00000000E+00
  0.00000000E+00  0.00000000E+00  0.00000000E+00
  0.00000000E+00  0.00000000E+00  0.00000000E+00
  0.00000000E+00  0.00000000E+00  0.00000000E+00
  0.00000000E+00  0.00000000E+00  0.00000000E+00
  0.00000000E+00  0.00000000E+00  0.00000000E+00
  0.00000000E+00  0.00000000E+00  0.00000000E+00
  0.00000000E+00  0.00000000E+00  0.00000000E+00
  0.00000000E+00  0.00000000E+00  0.00000000E+00
  0.00000000E+00  0.00000000E+00  0.00000000E+00
  0.00000000E+00  0.00000000E+00  0.00000000E+00
  0.00000000E+00  0.00000000E+00  0.00000000E+00
  0.00000000E+00  0.00000000E+00  0.00000000E+00
  0.00000000E+00  0.00000000E+00  0.00000000E+00
  0.00000000E+00  0.00000000E+00  0.00000000E+00
  0.00000000E+00  0.00000000E+00  0.00000000E+00
  0.00000000E+00  0.00000000E+00  0.00000000E+00
  0.00000000E+00  0.00000000E+00  0.00000000E+00
  0.00000000E+00  0.00000000E+00  0.00000000E+00
  0.00000000E+00  0.00000000E+00  0.00000000E+00
  0.00000000E+00  0.00000000E+00  0.00000000E+00
  0.00000000E+00  0.00000000E+00  0.00000000E+00
  0.00000000E+00  0.00000000E+00  0.00000000E+00
  0.00000000E+00  0.00000000E+00  0.00000000E+00
  0.00000000E+00  0.00000000E+00  0.00000000E+00
  0.00000000E+00  0.00000000E+00  0.00000000E+00
  0.00000000E+00  0.00000000E+00  0.00000000E+00
  0.00000000E+00  0.00000000E+00  0.00000000E+00
  0.00000000E+00  0.00000000E+00  0.00000000E+00
  0.00000000E+00  0.00000000E+00  0.00000000E+00
  0.00000000E+00  0.00000000E+00  0.00000000E+00
  0.00000000E+00  0.00000000E+00  0.00000000E+00
  0.00000000E+00  0.00000000E+00  0.00000000E+00
  0.00000000E+00  0.00000000E+00  0.00000000E+00
  0.00000000E+00  0.00000000E+00  0.00000000E+00
  0.00000000E+00  0.00000000E+00  0.00000000E+00
  0.00000000E+00  0.00000000E+00  0.00000000E+00
  0.00000000E+00  0.00000000E+00  0.00000000E+00
  0.00000000E+00  0.00000000E+00  0.00000000E+00
  0.00000000E+00  0.00000000E+00  0.00000000E+00
  0.00000000E+00  0.00000000E+00  0.00000000E+00
  0.00000000E+00  0.00000000E+00  0.00000000E+00
  0.00000000E+00  0.00000000E+00  0.00000000E+00
  0.00000000E+00  0.00000000E+00  0.00000000E+00
  0.00000000E+00  0.00000000E+00  0.00000000E+00
  0.00000000E+00  0.00000000E+00  0.00000000E+00
  0.00000000E+00  0.00000000E+00  0.00000000E+00
  0.00000000E+00  0.00000000E+00  0.00000000E+00
  0.00000000E+00  0.00000000E+00  0.00000000E+00
  0.00000000E+00  0.00000000E+00  0.00000000E+00
  0.00000000E+00  0.00000000E+00  0.00000000E+00
  0.00000000E+00  0.00000000E+00  0.00000000E+00
  0.00000000E+00  0.00000000E+00  0.00000000E+00
  0.00000000E+00  0.00000000E+00  0.00000000E+00
  0.00000000E+00  0.00000000E+00  0.00000000E+00
  0.00000000E+00  0.00000000E+00  0.00000000E+00
  0.00000000E+00  0.00000000E+00  0.00000000E+00
  0.00000000E+00  0.00000000E+00  0.00000000E+00
  0.00000000E+00  0.00000000E+00  0.00000000E+00
  0.00000000E+00  0.00000000E+00  0.00000000E+00
  0.00000000E+00  0.00000000E+00  0.00000000E+00
  0.00000000E+00  0.00000000E+00  0.00000000E+00