FeMn_288_15                             
    1.000000000000000     
     9.7266779999999997    0.0000000000000000    0.0000000000000000
     0.0000000000000000    8.4235500000000005    0.0000000000000000
     0.0000000000000000    0.0000000000000000   45.0000000000000000
   Fe   Mn
   273    15
Direct
  0.0624760576212939  0.7007434849367834  0.2134981454794197
  0.5625871130089349  0.3726605749166000  0.5214211811239243
  0.5623598186783141  0.7028029243924677  0.3463356620580799
  0.8126231623790494  0.0437697073062830  0.8732821354532054
  0.0624374700575998  0.0364513686995404  0.3903501593542624
  0.5629731604556257  0.8770142452374787  0.7862560111312593
  0.1875818816503051  0.1253042434070109  0.6535903585369776
  0.5625033712836933  0.5371990327840528  0.3902405667717684
  0.6878041526474297  0.7931179953703702  0.7422201020761129
  0.8122074206797598  0.0366824434358966  0.3903136441111878
  0.9377518660993454  0.7845889062005522  0.1267205765607675
  0.0622903090792827  0.2068902707870749  0.5652694046966371
  0.3123707865458759  0.5343841896788405  0.2577807304845059
  0.6875873710193556  0.4549647361742978  0.4786568885158012
  0.1874765696916520  0.2909498318847802  0.6098301744757215
  0.6875725940613641  0.2912049427735229  0.6098000804388536
  0.0624824798063896  0.5347999846525786  0.2578241902413229
  0.5626243784984174  0.3676418735842256  0.1688164679824774
  0.8124381718568782  0.5371212594019770  0.3902961909456064
  0.9373278991283750  0.4524405734853608  0.3463200786814890
  0.0624820232936190  0.2092640572274952  0.6980605416093710
  0.5625388997129588  0.5412406954711806  0.6097972100299195
  0.4372925593942606  0.4592180758748443  0.6980614347259169
  0.0625200477629580  0.0433861230323683  0.7421607855013023
  0.6876016619948419  0.1206728030047780  0.4348550296502593
  0.5626643848007798  0.8753452678253435  0.6536662681063983
  0.9372765496921976  0.4548065078080765  0.4787903854053307
  0.5626140798559746  0.1999133022327490  0.2135854422511203
  0.5623282925236838  0.2089101466443254  0.6980684078347000
  0.5625943672215895  0.7054513417570246  0.4787147550944474
  0.9375934302618524  0.1224784395712189  0.5214640525909049
  0.4376511673091009  0.2866630909694092  0.3902166126021466
  0.5624381172307354  0.2070968007283358  0.5652296654102829
  0.4373996615758313  0.7929043422047373  0.8733290629857242
  0.6875849666453040  0.2843824827784484  0.2578254416438738
  0.8123804676351039  0.5336720444849651  0.1265226993945766
  0.6875230123685179  0.9567246064247564  0.5651598626864578
  0.8125803621252738  0.7106397054960456  0.8312070596833627
  0.8125000976917965  0.1996653714581256  0.2135951000438313
  0.0629327666503863  0.2101335699607122  0.8312086082452826
  0.4374395112203038  0.7840760747238822  0.1266638406227844
  0.3125570214106880  0.8777016627615556  0.7864539864660298
  0.3126141716898699  0.2051123816312680  0.4787316863810152
  0.8124417586362677  0.7003858942397178  0.2135462761709246
  0.3126146849783211  0.7004270430805825  0.2135075882921974
  0.6876386766528259  0.7871493236501497  0.3903043721855588
  0.0625838590617185  0.3751715003177221  0.6536757900143582
  0.4381273776749973  0.2931604883369781  0.7421360042444818
  0.8127320179595090  0.2098634489636497  0.6980978618122445
  0.4384409050048661  0.2938766876310298  0.8732840345929199
  0.0624311093469965  0.8709069215628235  0.4347332346841319
  0.5624039177724119  0.7002834296478723  0.2136487935772222
  0.6875381320855409  0.6186407969804307  0.3019549524697486
  0.1877941596328678  0.7929201301242831  0.8733308578068453
  0.3130265215450556  0.3684315257959149  0.3018479070850269
  0.1873772039409283  0.9595604921072716  0.6980681067370346
  0.8125721760986243  0.8775899551589653  0.7864547164722017
  0.6876507866489565  0.6272775814415356  0.7863531384593702
  0.9377896078132888  0.6276146072444919  0.7864349142012799
  0.9372135305420831  0.2935751254405315  0.7421790914238563
  0.3124236233442976  0.8674955702959402  0.1688278946058341
  0.3125097945966357  0.8728501477716779  0.5214267025618857
  0.0624791045114595  0.5408165940452301  0.6097097813777179
  0.0625634032535947  0.8751747685310787  0.6537118485108822
  0.4374867971249297  0.1227797211530176  0.5214865471238069
  0.0625954323863271  0.3773478940956455  0.7862801873304766
  0.5625407010509411  0.2028543169538959  0.3463420733836622
  0.5624785301327960  0.0432612319634588  0.7421352244002513
  0.1875080849152010  0.9504433164364884  0.2136287716265304
  0.8125543617779236  0.3770437342610473  0.7864144041404517
  0.1875639542494770  0.6176278523946424  0.1687539183935661
  0.4372483480542692  0.2840758687262936  0.1267348708440525
  0.1874124687212894  0.9529765898529337  0.3464075569780060
  0.9373265590206908  0.6205839162238959  0.4351850879786510
  0.8123834625273303  0.5344437545131170  0.2578262224829674
  0.4377585897760317  0.6248456407343345  0.6535820685996141
  0.4374783049797106  0.4528865491071147  0.3463846589618814
  0.6875551778691716  0.1183099028930003  0.3018824078551791
  0.4373513258935938  0.6177788009148032  0.1688715907656808
  0.4375974293698724  0.7912794885008874  0.6097587993931182
  0.4374932175109477  0.1182087765632571  0.3018388636322831
  0.1877158985388647  0.1226859648707593  0.5213362203319525
  0.3123905811634224  0.0436505398188387  0.7422305172240197
  0.4377943441064382  0.9551073841697815  0.4786179818710015
  0.1865951222641070  0.2939643948489456  0.8732255835649223
  0.5624459874695862  0.8685079842876702  0.3019500587006203
  0.9367874588888443  0.2844443858215609  0.1264662391358065
  0.9373993982541513  0.4506765700278721  0.2136884798510387
  0.8127564337007138  0.5410230174026358  0.6096933475096801
  0.1883550392801062  0.9612030880491733  0.8312894078204445
  0.6878659545986832  0.2841539905185316  0.1265037696347683
  0.4374768664117143  0.6225429504758139  0.5213831886717470
  0.8125026507697046  0.0343141456066699  0.1266578155085623
  0.1875722419559557  0.9569352199754763  0.5651124104464441
  0.9375989269278132  0.2847900112919255  0.2577753542103426
  0.3123147993956829  0.5337482024091563  0.1266317100589174
  0.5623346014849526  0.3688035825726496  0.3018702776989327
  0.0624935886254191  0.5437317247837179  0.8732946042503705
  0.9371778740337553  0.7862445352622535  0.3902165149220608
  0.4370079690124818  0.7931794970130692  0.7422264150918012
  0.6874117400730436  0.9548562444886055  0.4786230497919677
  0.5625515758497797  0.2052523857583334  0.4786947546031464
  0.3125792098471793  0.0410544494117866  0.6097410399090744
  0.3127432835975189  0.8682587205098318  0.3018705635342197
  0.3123860247703287  0.7092165745565459  0.6979530308471404
  0.3128557961347597  0.3707084981303382  0.4349366347457495
  0.1877759725244320  0.6209851528356584  0.4348311300569512
  0.0626612045449045  0.3677351874294417  0.1687911116041508
  0.4374505889709699  0.6276471421991223  0.7863952230693586
  0.6874369574328074  0.6207333229200185  0.4348006311717992
  0.1877010296265019  0.7870354005656351  0.3902573240815659
  0.5619842745168899  0.8672118680269567  0.1688820627966720
  0.0623889695946456  0.2050140266781890  0.4787624812027373
  0.6874280713235407  0.6164578227167673  0.1689278817429363
  0.3127586500015069  0.2026926367951696  0.3463106549913931
  0.4376004206038134  0.7841972747146163  0.2578375275496289
  0.9369062912869520  0.1174712545435500  0.1687803399828781
  0.3125396548073334  0.5430255085130912  0.7422013139789555
  0.0623336008987696  0.2025286246036429  0.3463105242029095
  0.1875929703509569  0.2933911093401069  0.7421818309151780
  0.1875643606132626  0.1273579424552004  0.7863295285598646
  0.8125910400510417  0.3753460419019817  0.6536872868919519
  0.6873775319209170  0.4528387951779753  0.3464079769579974
  0.4375941786243592  0.9499753657880197  0.2136668005611798
  0.1875551528556282  0.7849102661603954  0.1265605035274713
  0.4370783505818604  0.9613673625035836  0.8313365949497971
  0.9377279605102352  0.4595307306745854  0.6981286858280378
  0.0630022736345464  0.8672499384114426  0.1688334970870757
  0.9375307316328093  0.7908979887684391  0.6097395298397719
  0.3121944807275145  0.2092134421899143  0.6980489224799479
  0.5625178955561164  0.3771549116712457  0.7863869708119230
  0.9372705810377083  0.4569584163037705  0.5652609431113365
  0.8127687782244521  0.7023570219297431  0.3463074350674729
  0.3122905562456580  0.3675169980767689  0.1688185983633377
  0.0626741156909678  0.0338403468782323  0.1266599210239555
  0.9376931591220514  0.2906032994123519  0.6098031669852665
  0.1876040228781072  0.7910637988004978  0.6098215638146333
  0.9375835437835894  0.9567990820521705  0.5651727150588817
  0.9374615927510301  0.6250003507424663  0.6535839679245342
  0.3123658790317679  0.7029583424585236  0.3463947955094158
  0.3127660542819508  0.8708577947448116  0.4348900171573045
  0.1882140331812611  0.2846598897964451  0.1266904679752655
  0.9375930783254590  0.6166156862815626  0.1687522194668454
  0.5626521620885088  0.5437172699772974  0.8733240444480056
  0.9373316157553359  0.7846969528305339  0.2578449666895616
  0.6875917460445015  0.9608405552279825  0.8311433774724755
  0.6873230153364925  0.6252299905914714  0.6536437795734550
  0.5624850140651704  0.0415337670867634  0.6097491717125041
  0.9371150181869209  0.9606087798477546  0.8311394298615247
  0.4374643381179690  0.6186520776957708  0.3020087882110932
  0.6876309323301808  0.1253246378212464  0.6537072850689333
  0.8122062897805680  0.8684027236183363  0.3018797975485652
  0.1876049898149806  0.7844927530811219  0.2578007576898994
  0.6872460460704428  0.1229180454925669  0.5214311621097717
  0.5624638845893829  0.8705339480111440  0.4348933840448548
  0.4376945646213172  0.9528430254964348  0.3462745485748056
  0.1874277974768357  0.4607261632388224  0.8311269075994167
  0.4375252026278826  0.6206299244183213  0.4348254000325240
  0.4374466361011690  0.4609444380878374  0.8310907156143137
  0.9373926347214848  0.9502810576623912  0.2135894147719356
  0.5621070536357978  0.2108875594380748  0.8312082744173119
  0.1876240096412713  0.2844636618732868  0.2577582972062720
  0.0625183767475186  0.5437891161495481  0.7422368912853600
  0.6873823469310207  0.9500197786325949  0.2135382877442940
  0.8125235739540841  0.8730341756732699  0.5213959825339977
  0.3125815427966272  0.7073303933915560  0.5652620287309129
  0.9374298996311456  0.1271656434781443  0.7862942092229001
  0.8125197824169598  0.8670379065693543  0.1688486322085502
  0.9378533184179095  0.9593829441404038  0.6980941884318417
  0.1878672449302136  0.6229974172186913  0.5213824486397054
  0.1872239164321562  0.6278377486887163  0.7863060554096257
  0.4378459960953074  0.7875453021128787  0.3902357455648387
  0.1875146803960900  0.9547887915236400  0.4786703041733141
  0.5626445556036052  0.8726670405628544  0.5213660340515358
  0.3127398042437439  0.2002692401742592  0.2135749262608768
  0.8119863587593572  0.7056611227054201  0.4787558719218879
  0.1874093190155470  0.4574170667062152  0.5649751606411347
  0.0623344297708256  0.7096782394466549  0.6980599446815702
  0.0625168000120195  0.7053522551634973  0.4787353472137204
  0.9376109608389348  0.7937131351888167  0.8732537499323277
  0.5625328316112530  0.5428515964547863  0.7422335940357322
  0.5622067616142112  0.3708908861933384  0.4348814212852248
  0.0622625215590979  0.2010479587843184  0.2135255398144567
  0.4377418320383775  0.4555307256278252  0.4787175320043219
  0.0621176631273711  0.7105580500769806  0.8310183535181838
  0.3124614399104878  0.3751517389182980  0.6536911701004322
  0.0625167861748048  0.0408268474560764  0.6097610744985645
  0.0625233485685336  0.3725002959129564  0.5214603913280832
  0.6877998513806814  0.9592349254180894  0.6980948986421567
  0.3125947976364263  0.5436415993099313  0.8732875856635006
  0.1878791490471273  0.4530024639139932  0.3463098386867950
  0.6873359343391905  0.7935155922064545  0.8733239571552801
  0.9376277545130828  0.4603459950051665  0.8311707010057823
  0.3125462732376431  0.0373570450130790  0.3902877278310750
  0.3121946104093740  0.5409011343837663  0.6097681740372887
  0.6871844647935257  0.4502774544083502  0.2137135091382719
  0.3128222607448307  0.3725121308589942  0.5214314379286844
  0.6875945670302795  0.2866535401521339  0.3902237369232009
  0.8117880985623671  0.3683926133040273  0.3018783137515611
  0.6874613032829764  0.1269510687441026  0.7864101675753615
  0.8124350443531593  0.5431216920205640  0.7421457606136164
  0.3125825458920562  0.3778032658138234  0.7862314972035884
  0.9372457638909223  0.6183374975088421  0.3019625784529661
  0.4374186737040993  0.1169100246317937  0.1688834844529400
  0.6870456916969726  0.6224182515799234  0.5213686919504924
  0.1875386229928316  0.1166284079576017  0.1688052244051118
  0.8124066094924648  0.0410822191719871  0.6097970857379126
  0.0623496646682602  0.8732404210881572  0.5214565919002946
  0.6880940316910765  0.1173635202582598  0.1688896206454407
  0.4374687104290448  0.9570738916603105  0.5651559943766802
  0.8123120480190135  0.2025982978343118  0.3463800156778715
  0.9372298443513297  0.9523873658501880  0.3462744098559467
  0.6877931334862732  0.4570036211028963  0.5651572820501745
  0.4378887052756954  0.4501967055264391  0.2136334843103453
  0.1874782422613858  0.6249424772092869  0.6536130632675258
  0.8121491599335164  0.3725393444890707  0.5214448097018716
  0.8125438684937937  0.2104262109854769  0.8310968437629817
  0.8126847221830787  0.7090303227943741  0.6979186052703655
  0.8125281626321708  0.2070501676702819  0.5651556951171137
  0.3127233711278035  0.2070708430986173  0.5652872515700553
  0.4372547239495529  0.1250352640760035  0.6536805339644135
  0.6871019899937242  0.2931739828369409  0.7421688062877292
  0.0617295042061855  0.3707435813390300  0.4348342292953279
  0.8126095638648271  0.3708786959880838  0.4348742079568836
  0.4375981297226864  0.4570492538348341  0.5652033636697373
  0.5628609266863833  0.7108772670251050  0.8310411209681399
  0.9375135732446661  0.1255307176102671  0.6535639959789443
  0.6873720150585337  0.7842031818302331  0.2577715110580885
  0.8122887809542192  0.7072227351110348  0.5651243237530897
  0.3123874608578381  0.8749502399088664  0.6536212234728348
  0.1876479441091705  0.4593566753852337  0.6981273888476897
  0.0618585417407545  0.0443884116940765  0.8732851084671971
  0.0621027482236744  0.8770768378520719  0.7861726456710584
  0.0625434560256467  0.7074931814187269  0.5652587917362510
  0.5631711919001861  0.0440757298357530  0.8732682173756052
  0.3128561398409816  0.7051868055494170  0.4786865553167950
  0.6871209668266050  0.7843378820445339  0.1267846729235227
  0.3124793163061236  0.7113399844864381  0.8312638284733661
  0.1877125618861617  0.1182050357798490  0.3019687466608453
  0.0625091056950816  0.7025761934452175  0.3462677983472378
  0.5624331419595993  0.0342622378053303  0.2578622409783123
  0.6873025047503337  0.2939983569526205  0.8732933325073712
  0.9377995853491754  0.2940029159695474  0.8732474213559284
  0.5626968369951685  0.5338162736864130  0.1266539455547765
  0.4377164891168401  0.1210625804277874  0.4349131735418746
  0.9373762089632651  0.1211991088693104  0.4349276333676667
  0.3121888174009226  0.5368386128982103  0.3903622555491615
  0.3124080019537611  0.0342834454068960  0.1266269377269157
  0.1876028557865665  0.6184102881653525  0.3018522876409790
  0.4372191370151400  0.2910960062944589  0.6097290771347937
  0.9369984330334618  0.1182153506081108  0.3018415742858708
  0.8124157951174595  0.8753242589439701  0.6537008642105154
  0.9375615914960644  0.2871044892282107  0.3902918726337540
  0.0624948805398436  0.0345235763166203  0.2578566862708058
  0.4372691166303357  0.9588824179266612  0.6981296314186357
  0.8125517109090760  0.0344231431173600  0.2578608867511215
  0.8124597676328712  0.2051937250634820  0.4787185704662321
  0.5624551656617627  0.0332932686771254  0.1267062173586142
  0.6875687522434760  0.4607245952297240  0.8310798770483840
  0.4373150924414658  0.2843467984886914  0.2577618242819571
  0.6872669358860078  0.7916069436806334  0.6097303559819606
  0.5625332330487158  0.5343395127857457  0.2578668452034266
  0.3125298869744261  0.2099745947739881  0.8312099828766686
  0.9372900449372502  0.9550005794528037  0.4786619048771093
  0.6875525120674925  0.9527580657083957  0.3463171834700717
  0.4376709219969441  0.1272983297963598  0.7863867811080890
  0.8126733260165826  0.0437292709603508  0.7422565435116080
  0.5626244934615685  0.7072104460622386  0.5651364229612134
  0.3124689984219650  0.0342466275163085  0.2578006884027122
  0.0624903169823274  0.5339444709664620  0.1265548369548318
  0.8123410757286089  0.8708873793588064  0.4347840040045298
  0.8124461846264517  0.5438404454887521  0.8732664944682008
  0.5625227515905271  0.3751689459491228  0.6537258100321457
  0.0622693583802530  0.5369618301494622  0.3903004461488552
  0.3123750057421403  0.0435095714641517  0.8730885634210361
  0.5623297873157902  0.0366161810178637  0.3901277610299402
  0.1873083468760659  0.4505379468787291  0.2137516368675808
  0.1876550486822247  0.2873049156712488  0.3901666828624525
  0.1885887699897540  0.7935771503809157  0.7422203106807272
  0.1873633904449736  0.4551040963855460  0.4787455082203541
  0.0623195843159104  0.8685922878171159  0.3018483224099170
  0.6877951873975191  0.4587375030671696  0.6980970112269571
  0.9376670324805949  0.6225184913702337  0.5213273860641646
  0.5621808479180800  0.7098293204183272  0.6981180554110636
  0.8124340786277858  0.3671718104322005  0.1681708574440397
  0.1874731344023319  0.1209646091086181  0.4350188041597854
  0.9368168331303713  0.7937082324058027  0.7422791263310667
  0.0625505366321957  0.3684713964253645  0.3019139415226721
 
  0.00000000E+00  0.00000000E+00  0.00000000E+00
  0.00000000E+00  0.00000000E+00  0.00000000E+00
  0.00000000E+00  0.00000000E+00  0.00000000E+00
  0.00000000E+00  0.00000000E+00  0.00000000E+00
  0.00000000E+00  0.00000000E+00  0.00000000E+00
  0.00000000E+00  0.00000000E+00  0.00000000E+00
  0.00000000E+00  0.00000000E+00  0.00000000E+00
  0.00000000E+00  0.00000000E+00  0.00000000E+00
  0.00000000E+00  0.00000000E+00  0.00000000E+00
  0.00000000E+00  0.00000000E+00  0.00000000E+00
  0.00000000E+00  0.00000000E+00  0.00000000E+00
  0.00000000E+00  0.00000000E+00  0.00000000E+00
  0.00000000E+00  0.00000000E+00  0.00000000E+00
  0.00000000E+00  0.00000000E+00  0.00000000E+00
  0.00000000E+00  0.00000000E+00  0.00000000E+00
  0.00000000E+00  0.00000000E+00  0.00000000E+00
  0.00000000E+00  0.00000000E+00  0.00000000E+00
  0.00000000E+00  0.00000000E+00  0.00000000E+00
  0.00000000E+00  0.00000000E+00  0.00000000E+00
  0.00000000E+00  0.00000000E+00  0.00000000E+00
  0.00000000E+00  0.00000000E+00  0.00000000E+00
  0.00000000E+00  0.00000000E+00  0.00000000E+00
  0.00000000E+00  0.00000000E+00  0.00000000E+00
  0.00000000E+00  0.00000000E+00  0.00000000E+00
  0.00000000E+00  0.00000000E+00  0.00000000E+00
  0.00000000E+00  0.00000000E+00  0.00000000E+00
  0.00000000E+00  0.00000000E+00  0.00000000E+00
  0.00000000E+00  0.00000000E+00  0.00000000E+00
  0.00000000E+00  0.00000000E+00  0.00000000E+00
  0.00000000E+00  0.00000000E+00  0.00000000E+00
  0.00000000E+00  0.00000000E+00  0.00000000E+00
  0.00000000E+00  0.00000000E+00  0.00000000E+00
  0.00000000E+00  0.00000000E+00  0.00000000E+00
  0.00000000E+00  0.00000000E+00  0.00000000E+00
  0.00000000E+00  0.00000000E+00  0.00000000E+00
  0.00000000E+00  0.00000000E+00  0.00000000E+00
  0.00000000E+00  0.00000000E+00  0.00000000E+00
  0.00000000E+00  0.00000000E+00  0.00000000E+00
  0.00000000E+00  0.00000000E+00  0.00000000E+00
  0.00000000E+00  0.00000000E+00  0.00000000E+00
  0.00000000E+00  0.00000000E+00  0.00000000E+00
  0.00000000E+00  0.00000000E+00  0.00000000E+00
  0.00000000E+00  0.00000000E+00  0.00000000E+00
  0.00000000E+00  0.00000000E+00  0.00000000E+00
  0.00000000E+00  0.00000000E+00  0.00000000E+00
  0.00000000E+00  0.00000000E+00  0.00000000E+00
  0.00000000E+00  0.00000000E+00  0.00000000E+00
  0.00000000E+00  0.00000000E+00  0.00000000E+00
  0.00000000E+00  0.00000000E+00  0.00000000E+00
  0.00000000E+00  0.00000000E+00  0.00000000E+00
  0.00000000E+00  0.00000000E+00  0.00000000E+00
  0.00000000E+00  0.00000000E+00  0.00000000E+00
  0.00000000E+00  0.00000000E+00  0.00000000E+00
  0.00000000E+00  0.00000000E+00  0.00000000E+00
  0.00000000E+00  0.00000000E+00  0.00000000E+00
  0.00000000E+00  0.00000000E+00  0.00000000E+00
  0.00000000E+00  0.00000000E+00  0.00000000E+00
  0.00000000E+00  0.00000000E+00  0.00000000E+00
  0.00000000E+00  0.00000000E+00  0.00000000E+00
  0.00000000E+00  0.00000000E+00  0.00000000E+00
  0.00000000E+00  0.00000000E+00  0.00000000E+00
  0.00000000E+00  0.00000000E+00  0.00000000E+00
  0.00000000E+00  0.00000000E+00  0.00000000E+00
  0.00000000E+00  0.00000000E+00  0.00000000E+00
  0.00000000E+00  0.00000000E+00  0.00000000E+00
  0.00000000E+00  0.00000000E+00  0.00000000E+00
  0.00000000E+00  0.00000000E+00  0.00000000E+00
  0.00000000E+00  0.00000000E+00  0.00000000E+00
  0.00000000E+00  0.00000000E+00  0.00000000E+00
  0.00000000E+00  0.00000000E+00  0.00000000E+00
  0.00000000E+00  0.00000000E+00  0.00000000E+00
  0.00000000E+00  0.00000000E+00  0.00000000E+00
  0.00000000E+00  0.00000000E+00  0.00000000E+00
  0.00000000E+00  0.00000000E+00  0.00000000E+00
  0.00000000E+00  0.00000000E+00  0.00000000E+00
  0.00000000E+00  0.00000000E+00  0.00000000E+00
  0.00000000E+00  0.00000000E+00  0.00000000E+00
  0.00000000E+00  0.00000000E+00  0.00000000E+00
  0.00000000E+00  0.00000000E+00  0.00000000E+00
  0.00000000E+00  0.00000000E+00  0.00000000E+00
  0.00000000E+00  0.00000000E+00  0.00000000E+00
  0.00000000E+00  0.00000000E+00  0.00000000E+00
  0.00000000E+00  0.00000000E+00  0.00000000E+00
  0.00000000E+00  0.00000000E+00  0.00000000E+00
  0.00000000E+00  0.00000000E+00  0.00000000E+00
  0.00000000E+00  0.00000000E+00  0.00000000E+00
  0.00000000E+00  0.00000000E+00  0.00000000E+00
  0.00000000E+00  0.00000000E+00  0.00000000E+00
  0.00000000E+00  0.00000000E+00  0.00000000E+00
  0.00000000E+00  0.00000000E+00  0.00000000E+00
  0.00000000E+00  0.00000000E+00  0.00000000E+00
  0.00000000E+00  0.00000000E+00  0.00000000E+00
  0.00000000E+00  0.00000000E+00  0.00000000E+00
  0.00000000E+00  0.00000000E+00  0.00000000E+00
  0.00000000E+00  0.00000000E+00  0.00000000E+00
  0.00000000E+00  0.00000000E+00  0.00000000E+00
  0.00000000E+00  0.00000000E+00  0.00000000E+00
  0.00000000E+00  0.00000000E+00  0.00000000E+00
  0.00000000E+00  0.00000000E+00  0.00000000E+00
  0.00000000E+00  0.00000000E+00  0.00000000E+00
  0.00000000E+00  0.00000000E+00  0.00000000E+00
  0.00000000E+00  0.00000000E+00  0.00000000E+00
  0.00000000E+00  0.00000000E+00  0.00000000E+00
  0.00000000E+00  0.00000000E+00  0.00000000E+00
  0.00000000E+00  0.00000000E+00  0.00000000E+00
  0.00000000E+00  0.00000000E+00  0.00000000E+00
  0.00000000E+00  0.00000000E+00  0.00000000E+00
  0.00000000E+00  0.00000000E+00  0.00000000E+00
  0.00000000E+00  0.00000000E+00  0.00000000E+00
  0.00000000E+00  0.00000000E+00  0.00000000E+00
  0.00000000E+00  0.00000000E+00  0.00000000E+00
  0.00000000E+00  0.00000000E+00  0.00000000E+00
  0.00000000E+00  0.00000000E+00  0.00000000E+00
  0.00000000E+00  0.00000000E+00  0.00000000E+00
  0.00000000E+00  0.00000000E+00  0.00000000E+00
  0.00000000E+00  0.00000000E+00  0.00000000E+00
  0.00000000E+00  0.00000000E+00  0.00000000E+00
  0.00000000E+00  0.00000000E+00  0.00000000E+00
  0.00000000E+00  0.00000000E+00  0.00000000E+00
  0.00000000E+00  0.00000000E+00  0.00000000E+00
  0.00000000E+00  0.00000000E+00  0.00000000E+00
  0.00000000E+00  0.00000000E+00  0.00000000E+00
  0.00000000E+00  0.00000000E+00  0.00000000E+00
  0.00000000E+00  0.00000000E+00  0.00000000E+00
  0.00000000E+00  0.00000000E+00  0.00000000E+00
  0.00000000E+00  0.00000000E+00  0.00000000E+00
  0.00000000E+00  0.00000000E+00  0.00000000E+00
  0.00000000E+00  0.00000000E+00  0.00000000E+00
  0.00000000E+00  0.00000000E+00  0.00000000E+00
  0.00000000E+00  0.00000000E+00  0.00000000E+00
  0.00000000E+00  0.00000000E+00  0.00000000E+00
  0.00000000E+00  0.00000000E+00  0.00000000E+00
  0.00000000E+00  0.00000000E+00  0.00000000E+00
  0.00000000E+00  0.00000000E+00  0.00000000E+00
  0.00000000E+00  0.00000000E+00  0.00000000E+00
  0.00000000E+00  0.00000000E+00  0.00000000E+00
  0.00000000E+00  0.00000000E+00  0.00000000E+00
  0.00000000E+00  0.00000000E+00  0.00000000E+00
  0.00000000E+00  0.00000000E+00  0.00000000E+00
  0.00000000E+00  0.00000000E+00  0.00000000E+00
  0.00000000E+00  0.00000000E+00  0.00000000E+00
  0.00000000E+00  0.00000000E+00  0.00000000E+00
  0.00000000E+00  0.00000000E+00  0.00000000E+00
  0.00000000E+00  0.00000000E+00  0.00000000E+00
  0.00000000E+00  0.00000000E+00  0.00000000E+00
  0.00000000E+00  0.00000000E+00  0.00000000E+00
  0.00000000E+00  0.00000000E+00  0.00000000E+00
  0.00000000E+00  0.00000000E+00  0.00000000E+00
  0.00000000E+00  0.00000000E+00  0.00000000E+00
  0.00000000E+00  0.00000000E+00  0.00000000E+00
  0.00000000E+00  0.00000000E+00  0.00000000E+00
  0.00000000E+00  0.00000000E+00  0.00000000E+00
  0.00000000E+00  0.00000000E+00  0.00000000E+00
  0.00000000E+00  0.00000000E+00  0.00000000E+00
  0.00000000E+00  0.00000000E+00  0.00000000E+00
  0.00000000E+00  0.00000000E+00  0.00000000E+00
  0.00000000E+00  0.00000000E+00  0.00000000E+00
  0.00000000E+00  0.00000000E+00  0.00000000E+00
  0.00000000E+00  0.00000000E+00  0.00000000E+00
  0.00000000E+00  0.00000000E+00  0.00000000E+00
  0.00000000E+00  0.00000000E+00  0.00000000E+00
  0.00000000E+00  0.00000000E+00  0.00000000E+00
  0.00000000E+00  0.00000000E+00  0.00000000E+00
  0.00000000E+00  0.00000000E+00  0.00000000E+00
  0.00000000E+00  0.00000000E+00  0.00000000E+00
  0.00000000E+00  0.00000000E+00  0.00000000E+00
  0.00000000E+00  0.00000000E+00  0.00000000E+00
  0.00000000E+00  0.00000000E+00  0.00000000E+00
  0.00000000E+00  0.00000000E+00  0.00000000E+00
  0.00000000E+00  0.00000000E+00  0.00000000E+00
  0.00000000E+00  0.00000000E+00  0.00000000E+00
  0.00000000E+00  0.00000000E+00  0.00000000E+00
  0.00000000E+00  0.00000000E+00  0.00000000E+00
  0.00000000E+00  0.00000000E+00  0.00000000E+00
  0.00000000E+00  0.00000000E+00  0.00000000E+00
  0.00000000E+00  0.00000000E+00  0.00000000E+00
  0.00000000E+00  0.00000000E+00  0.00000000E+00
  0.00000000E+00  0.00000000E+00  0.00000000E+00
  0.00000000E+00  0.00000000E+00  0.00000000E+00
  0.00000000E+00  0.00000000E+00  0.00000000E+00
  0.00000000E+00  0.00000000E+00  0.00000000E+00
  0.00000000E+00  0.00000000E+00  0.00000000E+00
  0.00000000E+00  0.00000000E+00  0.00000000E+00
  0.00000000E+00  0.00000000E+00  0.00000000E+00
  0.00000000E+00  0.00000000E+00  0.00000000E+00
  0.00000000E+00  0.00000000E+00  0.00000000E+00
  0.00000000E+00  0.00000000E+00  0.00000000E+00
  0.00000000E+00  0.00000000E+00  0.00000000E+00
  0.00000000E+00  0.00000000E+00  0.00000000E+00
  0.00000000E+00  0.00000000E+00  0.00000000E+00
  0.00000000E+00  0.00000000E+00  0.00000000E+00
  0.00000000E+00  0.00000000E+00  0.00000000E+00
  0.00000000E+00  0.00000000E+00  0.00000000E+00
  0.00000000E+00  0.00000000E+00  0.00000000E+00
  0.00000000E+00  0.00000000E+00  0.00000000E+00
  0.00000000E+00  0.00000000E+00  0.00000000E+00
  0.00000000E+00  0.00000000E+00  0.00000000E+00
  0.00000000E+00  0.00000000E+00  0.00000000E+00
  0.00000000E+00  0.00000000E+00  0.00000000E+00
  0.00000000E+00  0.00000000E+00  0.00000000E+00
  0.00000000E+00  0.00000000E+00  0.00000000E+00
  0.00000000E+00  0.00000000E+00  0.00000000E+00
  0.00000000E+00  0.00000000E+00  0.00000000E+00
  0.00000000E+00  0.00000000E+00  0.00000000E+00
  0.00000000E+00  0.00000000E+00  0.00000000E+00
  0.00000000E+00  0.00000000E+00  0.00000000E+00
  0.00000000E+00  0.00000000E+00  0.00000000E+00
  0.00000000E+00  0.00000000E+00  0.00000000E+00
  0.00000000E+00  0.00000000E+00  0.00000000E+00
  0.00000000E+00  0.00000000E+00  0.00000000E+00
  0.00000000E+00  0.00000000E+00  0.00000000E+00
  0.00000000E+00  0.00000000E+00  0.00000000E+00
  0.00000000E+00  0.00000000E+00  0.00000000E+00
  0.00000000E+00  0.00000000E+00  0.00000000E+00
  0.00000000E+00  0.00000000E+00  0.00000000E+00
  0.00000000E+00  0.00000000E+00  0.00000000E+00
  0.00000000E+00  0.00000000E+00  0.00000000E+00
  0.00000000E+00  0.00000000E+00  0.00000000E+00
  0.00000000E+00  0.00000000E+00  0.00000000E+00
  0.00000000E+00  0.00000000E+00  0.00000000E+00
  0.00000000E+00  0.00000000E+00  0.00000000E+00
  0.00000000E+00  0.00000000E+00  0.00000000E+00
  0.00000000E+00  0.00000000E+00  0.00000000E+00
  0.00000000E+00  0.00000000E+00  0.00000000E+00
  0.00000000E+00  0.00000000E+00  0.00000000E+00
  0.00000000E+00  0.00000000E+00  0.00000000E+00
  0.00000000E+00  0.00000000E+00  0.00000000E+00
  0.00000000E+00  0.00000000E+00  0.00000000E+00
  0.00000000E+00  0.00000000E+00  0.00000000E+00
  0.00000000E+00  0.00000000E+00  0.00000000E+00
  0.00000000E+00  0.00000000E+00  0.00000000E+00
  0.00000000E+00  0.00000000E+00  0.00000000E+00
  0.00000000E+00  0.00000000E+00  0.00000000E+00
  0.00000000E+00  0.00000000E+00  0.00000000E+00
  0.00000000E+00  0.00000000E+00  0.00000000E+00
  0.00000000E+00  0.00000000E+00  0.00000000E+00
  0.00000000E+00  0.00000000E+00  0.00000000E+00
  0.00000000E+00  0.00000000E+00  0.00000000E+00
  0.00000000E+00  0.00000000E+00  0.00000000E+00
  0.00000000E+00  0.00000000E+00  0.00000000E+00
  0.00000000E+00  0.00000000E+00  0.00000000E+00
  0.00000000E+00  0.00000000E+00  0.00000000E+00
  0.00000000E+00  0.00000000E+00  0.00000000E+00
  0.00000000E+00  0.00000000E+00  0.00000000E+00
  0.00000000E+00  0.00000000E+00  0.00000000E+00
  0.00000000E+00  0.00000000E+00  0.00000000E+00
  0.00000000E+00  0.00000000E+00  0.00000000E+00