CuInSe2gb                               
   1.00000000000000     
     9.7266780392896699    0.0000000000000000    0.0000000000000000
     0.0000000000000000    8.4235502764570693    0.0000000000000000
     0.0000000000000000    0.0000000000000000   45.0000000000000000
   Fe   Mn
   281     7
Direct
  0.0576223529515724  0.7014357507255915  0.2113838960913327
  0.3159737219985193  0.7197657654436714  0.8756637666725314
  0.6881639694287328  0.9576982863669276  0.6113201621830302
  0.4382447697241149  0.4579303230777299  0.6113795950944181
  0.4358028499945444  0.2872631431989427  0.2557217677326322
  0.0613371732740195  0.3862994625001289  0.8340104228653522
  0.3118215033883786  0.8865061613017854  0.8341288860991003
  0.4417037501859555  0.6267280296614556  0.7001646456894935
  0.0647689422689599  0.2128142533437781  0.7443541138777525
  0.1821788435275689  0.4515392165343687  0.2113039360333755
  0.5636812961958038  0.2090123817850439  0.4778646346455548
  0.0639465987092258  0.8745056909225656  0.5666923193641826
  0.5653546306814833  0.2192442371360400  0.8755316295256406
  0.8106592234104381  0.5302368152826514  0.1246081858639518
  0.4325352187733085  0.9516121670271449  0.2113418052250489
  0.5639521467976015  0.3741750526337729  0.5666858855822583
  0.8118762960335076  0.0424183958591643  0.3885542284949257
  0.6863775461211709  0.7906208676000505  0.5220943810405492
  0.4387422250940491  0.4587763271639690  0.4778605543210083
  0.4388896105980106  0.9623993957826000  0.7444941801395648
  0.4386461755793732  0.6243443206297575  0.5667250872269649
  0.0609248978327118  0.5282688439421765  0.1247767082178475
  0.3111955080967113  0.0292614390275175  0.1245282178208813
  0.6868902395326721  0.9588400816180224  0.3444188443652102
  0.6860784951818276  0.7808467541291731  0.1243963778621743
  0.0578544340411659  0.3735819860416776  0.2997548462607826
  0.6889718891653409  0.4714455985283349  0.8753391426814087
  0.4326625835858475  0.4514803207734099  0.2113387855129242
  0.8112437190543634  0.3752147483917841  0.4331293440969994
  0.5628248655478367  0.7078303387136600  0.6113643707829520
  0.5629712771336711  0.5417579320107806  0.6555017880594002
  0.9361978101436734  0.1252602110793646  0.4331355526224462
  0.5605162338436520  0.5376467920573709  0.2555917045569405
  0.6865886837027618  0.4585205249083654  0.3442128363210755
  0.1887360040842319  0.6133161571817631  0.1661176714482554
  0.1923093154944341  0.7989269841705333  0.7885548528278268
  0.4417220581558023  0.1264490510293919  0.7002180104796657
  0.9329595109355689  0.6236443445658897  0.2997939331854996
  0.3151564077076445  0.2193842860969914  0.8755886000565766
  0.3137781696786311  0.8746552718929274  0.5666602411636628
  0.8153480685599190  0.2193682042162650  0.8755924116731584
  0.8130350690080763  0.5414440151995541  0.6555565011096249
  0.5607552613477749  0.5280964382487072  0.1247314969328893
  0.5673755869520892  0.0490470770145061  0.7888090496552588
  0.1856961625302223  0.2871889235219060  0.2556808908744999
  0.8112005211421800  0.8755036662290338  0.4330909513863377
  0.5670364495911462  0.3769143882876255  0.7002524058795129
  0.0607452686874629  0.0294232245744088  0.1246835356011062
  0.3131232906673250  0.5414338261473064  0.6555251431635575
  0.5617890938443928  0.2085253119546853  0.3443790217183995
  0.1881237827735048  0.9579000004744866  0.6114160215007554
  0.3077540939408253  0.3736993714359519  0.2998302201561873
  0.4378708061334692  0.7912994047998454  0.6555342644690562
  0.1921568514422586  0.2982724346168701  0.7887165504839362
  0.0630618706912807  0.3633610636907321  0.1661313033940623
  0.6920830615850840  0.6263082738242121  0.7002013600140660
  0.3117245704961764  0.5420119428707535  0.3885339302912096
  0.0652000158912500  0.7193398051360494  0.8757037014340260
  0.9367805210521535  0.6366153751416957  0.8341346016650827
  0.3179376074621626  0.5491349978482343  0.7887795545041337
  0.3072798624295194  0.2010084166814951  0.2114064671259324
  0.0637969940579809  0.7088933283214821  0.4779209557392390
  0.5576030010297581  0.2014967069892050  0.2114432281192176
  0.3140686487040584  0.2133450578003227  0.7442962399327674
  0.0669014608240045  0.3766424622153984  0.7002711131265162
  0.1866298620873539  0.6368130201157189  0.8338934114576455
  0.0671751956696570  0.0487925973338246  0.7887735281626163
  0.4388981155467272  0.1243589487391544  0.5666256867887697
  0.9381620098960007  0.2917711316561251  0.6554824613418964
  0.8072771268744009  0.2012376746105663  0.2112813279828164
  0.9326803765465537  0.9517299615947735  0.2112374715445486
  0.9389194006146291  0.6247315383574729  0.5667164860238142
  0.8113785989841740  0.3864551704410897  0.8341199033440596
  0.1921689012623483  0.6264814002892560  0.7002254592751475
  0.8112387619355539  0.8863570088397635  0.8341361100312068
  0.6884404225531531  0.2918167181709602  0.6555620929972059
  0.3131711096372424  0.2078047249156926  0.6114233302884755
  0.4388232229132999  0.4623676396558430  0.7443081491580585
  0.4369215460495290  0.7920867688892548  0.3885947097271945
  0.6891052289732885  0.9624583024432832  0.7445215874794179
  0.8073769730786973  0.7009357173266129  0.2113612306047919
  0.8133010888082700  0.7076465182206613  0.6112281431979051
  0.4344528255319897  0.7807196094504536  0.1242875494877767
  0.3137024364751715  0.7125871523738334  0.7442525174222029
  0.3178864837075404  0.0493561337579480  0.7889413116766649
  0.8121577300322664  0.5423110685725362  0.3885933786226184
  0.6866107850951495  0.2905888993399247  0.5220548122304742
  0.6924244585170171  0.7991287119061284  0.7887292728358188
  0.1858610086280160  0.7873807191439679  0.2556919639569991
  0.6880206625275401  0.1136662210173927  0.1662819164868336
  0.6883997458956697  0.9589562883424827  0.4779054897215886
  0.9367797283387561  0.9591575037652258  0.3443245334867098
  0.8114497929506436  0.0402441755331733  0.5220365913811973
  0.6858521515144623  0.6251602826021700  0.4331152535937977
  0.4368035669563998  0.4589010700770154  0.3443492443923661
  0.8149813597989128  0.2130861714481385  0.7443786880784089
  0.4391065172775037  0.9715668007920799  0.8754210436394326
  0.5638413347213771  0.8744062354065196  0.5666492723844809
  0.8111771758587708  0.0292939499280987  0.1243770281511266
  0.4329650047512429  0.6236091869916734  0.2997992708939200
  0.8150637800952829  0.7196867620113186  0.8757335975184387
  0.6881217954191916  0.4579086162768450  0.6114000749015448
  0.5612502093365579  0.3868151790469280  0.8340133258155056
  0.8078178222704184  0.3737099930711553  0.2997767622316284
  0.1870473623419260  0.2921171788703057  0.3885602179230961
  0.8166847955216898  0.5491706238712571  0.7889628161317440
  0.1866854535832227  0.7904783623525836  0.5221435094135891
  0.3078950417174591  0.8736637810376141  0.2998062408599628
  0.1820871284542261  0.9519139912054310  0.2114180440741359
  0.1896126662185994  0.4628040766512262  0.7443518736212125
  0.4364084557979286  0.2904935645383657  0.5220541275566887
  0.0618391755076302  0.7084454401850951  0.3443252801247532
  0.1882256931085886  0.7908546601391652  0.6554601793265307
  0.4423449728912559  0.7990738444584423  0.7886608809813658
  0.6856819573775813  0.1252471773716581  0.4331592580129887
  0.9366229524167486  0.7902722044334803  0.5220985841195444
  0.6890008930545616  0.6132358520607438  0.1661434591054904
  0.8119345728991882  0.7085691175427985  0.3442961065234472
  0.9395709718345350  0.4627579665487784  0.7442692490717630
  0.1870021612909108  0.4586627505591900  0.3443124603336251
  0.5677086670978927  0.5483887948551790  0.7888521483005345
  0.5631560105229939  0.3633085602348172  0.1661361810157743
  0.5618548106993005  0.7084610104950777  0.3443884786640570
  0.5579363750051689  0.3736113283024916  0.2997899804329511
  0.1888720460185770  0.4710496473516121  0.8754551868183795
  0.1880755595659756  0.1137331484672846  0.1662659280218581
  0.4423844048354219  0.2984233800844123  0.7885411777164019
  0.6858825396198429  0.7875712558847512  0.2556691241409256
  0.9370703917221712  0.1362300823492390  0.8338618314821542
  0.4384832086052346  0.9587967708555063  0.4778812938229375
  0.5654267260681888  0.7199122635695048  0.8756115268870084
  0.1883987140188046  0.4590320231018593  0.4778713205440471
  0.9355297329118815  0.2808566663068758  0.1245915800664219
  0.3118688354470928  0.0422238956773660  0.3885423866649122
  0.0629862116804638  0.0412242066962843  0.6556091094819215
  0.5612933284207456  0.3748042210047226  0.4331029883896327
  0.6887588577160857  0.4619724763608876  0.7443384257007620
  0.3127238194072137  0.3635474954208527  0.1662798331489691
  0.9423633414323150  0.1269128051820095  0.7002403643658239
  0.5632998596636702  0.0415237401939776  0.6554802163729425
  0.5615127007556655  0.5406226793900664  0.5220182399606037
  0.1828078444718964  0.1233355083938397  0.2996890293901290
  0.4384584215237003  0.1137863324802753  0.1662072068873987
  0.6828824443030680  0.6236814244764454  0.2997891486456521
  0.9329106929663383  0.1231618786107445  0.2997017768721643
  0.8138848396053631  0.3743864324231030  0.5666842211473136
  0.0578749126305661  0.8736234099862570  0.2997889671709911
  0.1889698381204513  0.6243946382670509  0.5667797478754645
  0.9415941040375865  0.7989336011945422  0.7888173085195246
  0.3115782768605597  0.3866843150278148  0.8341219920070229
  0.9391035179938613  0.4714261539330705  0.8754223448836442
  0.4368207617776129  0.6367144397870540  0.8340073670988628
  0.0618004169863857  0.2087685121661108  0.3443500658981654
  0.1887230136060090  0.9712374755623369  0.8754228524705109
  0.9340652385609314  0.7811925335733804  0.1241877300942173
  0.6869713760951249  0.7921060417693875  0.3885588424212585
  0.9381930762802344  0.7911492152083437  0.6555146341147917
  0.9384709631005071  0.1139791129546044  0.1661752337621403
  0.4382357766235848  0.2919532204643680  0.6555606573398892
  0.0577011597497588  0.2013104213489118  0.2114122035584932
  0.6820354998550134  0.9519637162341431  0.2114161940139123
  0.1829958563019575  0.6235915958126561  0.2998014476505683
  0.8174955014940796  0.8766111528557210  0.7001737376576673
  0.9421100111494496  0.6260274344385627  0.7002761787386017
  0.1920941853465401  0.1269926685359105  0.7002344215490651
  0.9387412739037888  0.4588074710242248  0.4779040504233604
  0.8131174353707695  0.2076307199781704  0.6113760279456506
  0.1865152596247739  0.6252772236349489  0.4331150177874502
  0.4329654789270954  0.1234167953013055  0.2997725581740595
  0.6827784169991429  0.1232509872006533  0.2996724709753134
  0.5617668140785290  0.5419947832751634  0.3885514762348338
  0.8117250371548668  0.2088044831549261  0.3444545162433086
  0.4390278274412137  0.4713598784194250  0.8752710971920383
  0.5614248375559540  0.8863435229537099  0.8341706963541233
  0.3137194921834965  0.2088171980086832  0.4778967284878285
  0.1886626601292196  0.9587634690717365  0.4778784895036590
  0.0615075930464277  0.8862908218678841  0.8341018662739726
  0.0615217347380062  0.5405294910260581  0.5220347076744362
  0.9386368913696502  0.9585960572747536  0.4778391627521675
  0.0631835356777529  0.7076697675375740  0.6113684105600834
  0.5613794701013981  0.0406509891498756  0.5220661585023852
  0.6924223541290626  0.2982029399394334  0.7887165567175978
  0.8128631570517435  0.3636121769555821  0.1663047705209574
  0.4362159572791452  0.1251125762142266  0.4331424422975950
  0.0636033004996264  0.2085914043182533  0.4778767346977040
  0.3131180203871440  0.0410303064948950  0.6554874769528223
  0.4364877697263501  0.7904991279678456  0.5220211760879635
  0.1872786753075425  0.1366890396007864  0.8339507045389523
  0.1848672302310969  0.2804610748761146  0.1246935643036040
  0.9368448523362138  0.4589586335194215  0.3443055663412037
  0.5629854858731129  0.8643983656533626  0.1662149924896504
  0.3075072143747629  0.7011328241627344  0.2114885776474256
  0.9377816259688739  0.6130043967119141  0.1661773355279467
  0.1879908338929437  0.4575387019255152  0.6114095641002580
  0.0673432428543633  0.8766440028339566  0.7001058157947306
  0.0631743673517897  0.5413736487982764  0.6556501774079790
  0.3109902226513515  0.5300031742317890  0.1247732318624906
  0.9368992799926072  0.7922198989005572  0.3885479843720065
  0.9418562855560708  0.2981831575568283  0.7887129893854381
  0.1877219873891724  0.2914728220309962  0.6555791062296864
  0.9379389044443971  0.9577298324077071  0.6114765507981953
  0.8147511628331177  0.7130349932591684  0.7444734945445622
  0.6858044144986495  0.2872045309887330  0.2556258750442250
  0.0652180910711565  0.7127857704394988  0.7442615206494130
  0.6822692919781129  0.4514756640381844  0.2112191283270672
  0.8134173401557738  0.2086181726854303  0.4778644864565171
  0.5636526110907042  0.7089434809713403  0.4779118749417479
  0.0629623434188737  0.8645169386917884  0.1663098528134536
  0.9365533873231068  0.2902815801999714  0.5221505826055076
  0.6875780709270928  0.7914332075430263  0.6556192583259777
  0.0613233234572251  0.8749145446872747  0.4331105187836359
  0.0654771903802729  0.2190188643679989  0.8757151086201321
  0.8134563674932267  0.0411975993082297  0.6554009074033295
  0.5609823840733817  0.0295458027232483  0.1247110430006967
  0.3111424635638499  0.3748144240516971  0.4331067280295796
  0.3139327040633962  0.3745605555394858  0.5666374591001120
  0.3136152430902805  0.7089179312718077  0.4778676477403604
  0.0615207887973344  0.0402732351496791  0.5220189630564256
  0.3165506295247938  0.8761518036004314  0.7001554457395071
  0.0605506481055823  0.5374540311058509  0.2555963523511152
  0.6869128892932541  0.1369573142084658  0.8339834478053831
  0.8107184658884315  0.0374257046241648  0.2558438100162769
  0.1867704313096904  0.1251141067780470  0.4331348267360520
  0.6922945136335711  0.1266937735028827  0.7000993361358946
  0.1864878211343621  0.2905840816469286  0.5220865908918253
  0.4355376948240588  0.7869191463381018  0.2557122713498967
  0.8109046534468800  0.5373726368684776  0.2556125770019564
  0.0629960296507464  0.2077866142537031  0.6113683855148840
  0.1867594890471409  0.7921313155141666  0.3886058080558453
  0.3115016389467093  0.5405071475349482  0.5220799243389632
  0.8172418076110766  0.3771841953769054  0.7002816034472577
  0.6867640021692697  0.2920929773318144  0.3885255694979846
  0.1889202492760783  0.1243463484181610  0.5666856325751857
  0.6888628194105588  0.9714892567491474  0.8754134687154669
  0.6888078290660568  0.1245523571687043  0.5666635378861153
  0.4368636687160584  0.9588366731346826  0.3444198299999350
  0.1889535380952299  0.9621013222894707  0.7444196038200094
  0.9353613729799246  0.7870934447506152  0.2556835611812858
  0.5612127045658681  0.8756067200087672  0.4331293076742116
  0.3110976637774552  0.8753915039476908  0.4331490619179516
  0.8115437923006403  0.5404138440107591  0.5220866642305242
  0.9326233622672691  0.4516040320132671  0.2112669894116357
  0.3110695477321369  0.5375191642836032  0.2556270664822426
  0.5616592411307221  0.0421396995965351  0.3885287690674594
  0.9381692720320527  0.4573750331238676  0.6114467425022990
  0.0618496643864358  0.0422385082077475  0.3885773191064452
  0.0619085901569071  0.5421097438944334  0.3885733009333671
  0.4369278348026685  0.2920253292099254  0.3885588717104618
  0.6887023675755970  0.4588159643185910  0.4779178312001553
  0.0640067805888903  0.3744564938662468  0.5667176092345337
  0.5575676921942062  0.7014319978513378  0.2114264725164021
  0.9357651629880124  0.2874473164232801  0.2557026064109517
  0.8169149094730683  0.0492089181416811  0.7888139903304456
  0.1867969602284046  0.9587238200187839  0.3443849038515964
  0.5579451866086901  0.8736458335456955  0.2997711876176866
  0.0614657246221297  0.3752315535154216  0.4330839984754659
  0.3119235630536563  0.7084993372460258  0.3443523043427605
  0.3118533182939808  0.2085285991540327  0.3444263053172234
  0.9388297817777606  0.1245993485521676  0.5666798022913829
  0.4381629488433050  0.9577974876128005  0.6113487825707188
  0.5608854898371409  0.0379362008411454  0.2556798129797177
  0.1860018165237828  0.7806666545069920  0.1244679456698906
  0.0608200141871757  0.0380335617058034  0.2556563011940909
  0.6888357890838326  0.6245650285151442  0.5667170944645625
  0.4376332881901592  0.6131145883281801  0.1661747376188150
  0.3116173300947346  0.0405326755744791  0.5220623670821003
  0.6844256418401242  0.2804738607786043  0.1245554236354045
  0.8136326962915366  0.7087747951648469  0.4779023704552833
  0.4372627865935432  0.1363821530345235  0.8338886229154630
  0.3169068788189417  0.3764089157226393  0.7002082601891013
  0.6874100702182393  0.6367763896512516  0.8339079639209828
  0.5638986451000818  0.7124783646315193  0.7444131453416619
  0.9367591762535395  0.2921634812044567  0.3885681992012360
  0.9393054192302978  0.9711997656273503  0.8753909420474790
  0.5631216439275664  0.2079526618443683  0.6112939554046742
  0.8138007076916798  0.8744043351782782  0.5667328523300434
  0.8079193409856392  0.8737142475591403  0.2997143995602154
  0.3106219734829104  0.0373205518977000  0.2557430674406882
  0.4359573883757731  0.2808723777523461  0.1246684090012608
  0.3130610517631438  0.7076593281450378  0.6113238578364038
  0.4358769651031182  0.6252782415392439  0.4331289453597343
  0.9361405291013286  0.6251237897202121  0.4331662998256847
  0.3135582311976714  0.8630430488465862  0.1658693495179468
  0.0679264412641684  0.5488219909071197  0.7886011948013122
  0.8138550268877257  0.8630040165813825  0.1657409916896926
  0.5638508719176413  0.2127542765973572  0.7444231172568576
  0.9386366917397432  0.9628015945206410  0.7445517367548370
  0.5675888186534156  0.8765682650418570  0.7002202243430317
 
  0.00000000E+00  0.00000000E+00  0.00000000E+00
  0.00000000E+00  0.00000000E+00  0.00000000E+00
  0.00000000E+00  0.00000000E+00  0.00000000E+00
  0.00000000E+00  0.00000000E+00  0.00000000E+00
  0.00000000E+00  0.00000000E+00  0.00000000E+00
  0.00000000E+00  0.00000000E+00  0.00000000E+00
  0.00000000E+00  0.00000000E+00  0.00000000E+00
  0.00000000E+00  0.00000000E+00  0.00000000E+00
  0.00000000E+00  0.00000000E+00  0.00000000E+00
  0.00000000E+00  0.00000000E+00  0.00000000E+00
  0.00000000E+00  0.00000000E+00  0.00000000E+00
  0.00000000E+00  0.00000000E+00  0.00000000E+00
  0.00000000E+00  0.00000000E+00  0.00000000E+00
  0.00000000E+00  0.00000000E+00  0.00000000E+00
  0.00000000E+00  0.00000000E+00  0.00000000E+00
  0.00000000E+00  0.00000000E+00  0.00000000E+00
  0.00000000E+00  0.00000000E+00  0.00000000E+00
  0.00000000E+00  0.00000000E+00  0.00000000E+00
  0.00000000E+00  0.00000000E+00  0.00000000E+00
  0.00000000E+00  0.00000000E+00  0.00000000E+00
  0.00000000E+00  0.00000000E+00  0.00000000E+00
  0.00000000E+00  0.00000000E+00  0.00000000E+00
  0.00000000E+00  0.00000000E+00  0.00000000E+00
  0.00000000E+00  0.00000000E+00  0.00000000E+00
  0.00000000E+00  0.00000000E+00  0.00000000E+00
  0.00000000E+00  0.00000000E+00  0.00000000E+00
  0.00000000E+00  0.00000000E+00  0.00000000E+00
  0.00000000E+00  0.00000000E+00  0.00000000E+00
  0.00000000E+00  0.00000000E+00  0.00000000E+00
  0.00000000E+00  0.00000000E+00  0.00000000E+00
  0.00000000E+00  0.00000000E+00  0.00000000E+00
  0.00000000E+00  0.00000000E+00  0.00000000E+00
  0.00000000E+00  0.00000000E+00  0.00000000E+00
  0.00000000E+00  0.00000000E+00  0.00000000E+00
  0.00000000E+00  0.00000000E+00  0.00000000E+00
  0.00000000E+00  0.00000000E+00  0.00000000E+00
  0.00000000E+00  0.00000000E+00  0.00000000E+00
  0.00000000E+00  0.00000000E+00  0.00000000E+00
  0.00000000E+00  0.00000000E+00  0.00000000E+00
  0.00000000E+00  0.00000000E+00  0.00000000E+00
  0.00000000E+00  0.00000000E+00  0.00000000E+00
  0.00000000E+00  0.00000000E+00  0.00000000E+00
  0.00000000E+00  0.00000000E+00  0.00000000E+00
  0.00000000E+00  0.00000000E+00  0.00000000E+00
  0.00000000E+00  0.00000000E+00  0.00000000E+00
  0.00000000E+00  0.00000000E+00  0.00000000E+00
  0.00000000E+00  0.00000000E+00  0.00000000E+00
  0.00000000E+00  0.00000000E+00  0.00000000E+00
  0.00000000E+00  0.00000000E+00  0.00000000E+00
  0.00000000E+00  0.00000000E+00  0.00000000E+00
  0.00000000E+00  0.00000000E+00  0.00000000E+00
  0.00000000E+00  0.00000000E+00  0.00000000E+00
  0.00000000E+00  0.00000000E+00  0.00000000E+00
  0.00000000E+00  0.00000000E+00  0.00000000E+00
  0.00000000E+00  0.00000000E+00  0.00000000E+00
  0.00000000E+00  0.00000000E+00  0.00000000E+00
  0.00000000E+00  0.00000000E+00  0.00000000E+00
  0.00000000E+00  0.00000000E+00  0.00000000E+00
  0.00000000E+00  0.00000000E+00  0.00000000E+00
  0.00000000E+00  0.00000000E+00  0.00000000E+00
  0.00000000E+00  0.00000000E+00  0.00000000E+00
  0.00000000E+00  0.00000000E+00  0.00000000E+00
  0.00000000E+00  0.00000000E+00  0.00000000E+00
  0.00000000E+00  0.00000000E+00  0.00000000E+00
  0.00000000E+00  0.00000000E+00  0.00000000E+00
  0.00000000E+00  0.00000000E+00  0.00000000E+00
  0.00000000E+00  0.00000000E+00  0.00000000E+00
  0.00000000E+00  0.00000000E+00  0.00000000E+00
  0.00000000E+00  0.00000000E+00  0.00000000E+00
  0.00000000E+00  0.00000000E+00  0.00000000E+00
  0.00000000E+00  0.00000000E+00  0.00000000E+00
  0.00000000E+00  0.00000000E+00  0.00000000E+00
  0.00000000E+00  0.00000000E+00  0.00000000E+00
  0.00000000E+00  0.00000000E+00  0.00000000E+00
  0.00000000E+00  0.00000000E+00  0.00000000E+00
  0.00000000E+00  0.00000000E+00  0.00000000E+00
  0.00000000E+00  0.00000000E+00  0.00000000E+00
  0.00000000E+00  0.00000000E+00  0.00000000E+00
  0.00000000E+00  0.00000000E+00  0.00000000E+00
  0.00000000E+00  0.00000000E+00  0.00000000E+00
  0.00000000E+00  0.00000000E+00  0.00000000E+00
  0.00000000E+00  0.00000000E+00  0.00000000E+00
  0.00000000E+00  0.00000000E+00  0.00000000E+00
  0.00000000E+00  0.00000000E+00  0.00000000E+00
  0.00000000E+00  0.00000000E+00  0.00000000E+00
  0.00000000E+00  0.00000000E+00  0.00000000E+00
  0.00000000E+00  0.00000000E+00  0.00000000E+00
  0.00000000E+00  0.00000000E+00  0.00000000E+00
  0.00000000E+00  0.00000000E+00  0.00000000E+00
  0.00000000E+00  0.00000000E+00  0.00000000E+00
  0.00000000E+00  0.00000000E+00  0.00000000E+00
  0.00000000E+00  0.00000000E+00  0.00000000E+00
  0.00000000E+00  0.00000000E+00  0.00000000E+00
  0.00000000E+00  0.00000000E+00  0.00000000E+00
  0.00000000E+00  0.00000000E+00  0.00000000E+00
  0.00000000E+00  0.00000000E+00  0.00000000E+00
  0.00000000E+00  0.00000000E+00  0.00000000E+00
  0.00000000E+00  0.00000000E+00  0.00000000E+00
  0.00000000E+00  0.00000000E+00  0.00000000E+00
  0.00000000E+00  0.00000000E+00  0.00000000E+00
  0.00000000E+00  0.00000000E+00  0.00000000E+00
  0.00000000E+00  0.00000000E+00  0.00000000E+00
  0.00000000E+00  0.00000000E+00  0.00000000E+00
  0.00000000E+00  0.00000000E+00  0.00000000E+00
  0.00000000E+00  0.00000000E+00  0.00000000E+00
  0.00000000E+00  0.00000000E+00  0.00000000E+00
  0.00000000E+00  0.00000000E+00  0.00000000E+00
  0.00000000E+00  0.00000000E+00  0.00000000E+00
  0.00000000E+00  0.00000000E+00  0.00000000E+00
  0.00000000E+00  0.00000000E+00  0.00000000E+00
  0.00000000E+00  0.00000000E+00  0.00000000E+00
  0.00000000E+00  0.00000000E+00  0.00000000E+00
  0.00000000E+00  0.00000000E+00  0.00000000E+00
  0.00000000E+00  0.00000000E+00  0.00000000E+00
  0.00000000E+00  0.00000000E+00  0.00000000E+00
  0.00000000E+00  0.00000000E+00  0.00000000E+00
  0.00000000E+00  0.00000000E+00  0.00000000E+00
  0.00000000E+00  0.00000000E+00  0.00000000E+00
  0.00000000E+00  0.00000000E+00  0.00000000E+00
  0.00000000E+00  0.00000000E+00  0.00000000E+00
  0.00000000E+00  0.00000000E+00  0.00000000E+00
  0.00000000E+00  0.00000000E+00  0.00000000E+00
  0.00000000E+00  0.00000000E+00  0.00000000E+00
  0.00000000E+00  0.00000000E+00  0.00000000E+00
  0.00000000E+00  0.00000000E+00  0.00000000E+00
  0.00000000E+00  0.00000000E+00  0.00000000E+00
  0.00000000E+00  0.00000000E+00  0.00000000E+00
  0.00000000E+00  0.00000000E+00  0.00000000E+00
  0.00000000E+00  0.00000000E+00  0.00000000E+00
  0.00000000E+00  0.00000000E+00  0.00000000E+00
  0.00000000E+00  0.00000000E+00  0.00000000E+00
  0.00000000E+00  0.00000000E+00  0.00000000E+00
  0.00000000E+00  0.00000000E+00  0.00000000E+00
  0.00000000E+00  0.00000000E+00  0.00000000E+00
  0.00000000E+00  0.00000000E+00  0.00000000E+00
  0.00000000E+00  0.00000000E+00  0.00000000E+00
  0.00000000E+00  0.00000000E+00  0.00000000E+00
  0.00000000E+00  0.00000000E+00  0.00000000E+00
  0.00000000E+00  0.00000000E+00  0.00000000E+00
  0.00000000E+00  0.00000000E+00  0.00000000E+00
  0.00000000E+00  0.00000000E+00  0.00000000E+00
  0.00000000E+00  0.00000000E+00  0.00000000E+00
  0.00000000E+00  0.00000000E+00  0.00000000E+00
  0.00000000E+00  0.00000000E+00  0.00000000E+00
  0.00000000E+00  0.00000000E+00  0.00000000E+00
  0.00000000E+00  0.00000000E+00  0.00000000E+00
  0.00000000E+00  0.00000000E+00  0.00000000E+00
  0.00000000E+00  0.00000000E+00  0.00000000E+00
  0.00000000E+00  0.00000000E+00  0.00000000E+00
  0.00000000E+00  0.00000000E+00  0.00000000E+00
  0.00000000E+00  0.00000000E+00  0.00000000E+00
  0.00000000E+00  0.00000000E+00  0.00000000E+00
  0.00000000E+00  0.00000000E+00  0.00000000E+00
  0.00000000E+00  0.00000000E+00  0.00000000E+00
  0.00000000E+00  0.00000000E+00  0.00000000E+00
  0.00000000E+00  0.00000000E+00  0.00000000E+00
  0.00000000E+00  0.00000000E+00  0.00000000E+00
  0.00000000E+00  0.00000000E+00  0.00000000E+00
  0.00000000E+00  0.00000000E+00  0.00000000E+00
  0.00000000E+00  0.00000000E+00  0.00000000E+00
  0.00000000E+00  0.00000000E+00  0.00000000E+00
  0.00000000E+00  0.00000000E+00  0.00000000E+00
  0.00000000E+00  0.00000000E+00  0.00000000E+00
  0.00000000E+00  0.00000000E+00  0.00000000E+00
  0.00000000E+00  0.00000000E+00  0.00000000E+00
  0.00000000E+00  0.00000000E+00  0.00000000E+00
  0.00000000E+00  0.00000000E+00  0.00000000E+00
  0.00000000E+00  0.00000000E+00  0.00000000E+00
  0.00000000E+00  0.00000000E+00  0.00000000E+00
  0.00000000E+00  0.00000000E+00  0.00000000E+00
  0.00000000E+00  0.00000000E+00  0.00000000E+00
  0.00000000E+00  0.00000000E+00  0.00000000E+00
  0.00000000E+00  0.00000000E+00  0.00000000E+00
  0.00000000E+00  0.00000000E+00  0.00000000E+00
  0.00000000E+00  0.00000000E+00  0.00000000E+00
  0.00000000E+00  0.00000000E+00  0.00000000E+00
  0.00000000E+00  0.00000000E+00  0.00000000E+00
  0.00000000E+00  0.00000000E+00  0.00000000E+00
  0.00000000E+00  0.00000000E+00  0.00000000E+00
  0.00000000E+00  0.00000000E+00  0.00000000E+00
  0.00000000E+00  0.00000000E+00  0.00000000E+00
  0.00000000E+00  0.00000000E+00  0.00000000E+00
  0.00000000E+00  0.00000000E+00  0.00000000E+00
  0.00000000E+00  0.00000000E+00  0.00000000E+00
  0.00000000E+00  0.00000000E+00  0.00000000E+00
  0.00000000E+00  0.00000000E+00  0.00000000E+00
  0.00000000E+00  0.00000000E+00  0.00000000E+00
  0.00000000E+00  0.00000000E+00  0.00000000E+00
  0.00000000E+00  0.00000000E+00  0.00000000E+00
  0.00000000E+00  0.00000000E+00  0.00000000E+00
  0.00000000E+00  0.00000000E+00  0.00000000E+00
  0.00000000E+00  0.00000000E+00  0.00000000E+00
  0.00000000E+00  0.00000000E+00  0.00000000E+00
  0.00000000E+00  0.00000000E+00  0.00000000E+00
  0.00000000E+00  0.00000000E+00  0.00000000E+00
  0.00000000E+00  0.00000000E+00  0.00000000E+00
  0.00000000E+00  0.00000000E+00  0.00000000E+00
  0.00000000E+00  0.00000000E+00  0.00000000E+00
  0.00000000E+00  0.00000000E+00  0.00000000E+00
  0.00000000E+00  0.00000000E+00  0.00000000E+00
  0.00000000E+00  0.00000000E+00  0.00000000E+00
  0.00000000E+00  0.00000000E+00  0.00000000E+00
  0.00000000E+00  0.00000000E+00  0.00000000E+00
  0.00000000E+00  0.00000000E+00  0.00000000E+00
  0.00000000E+00  0.00000000E+00  0.00000000E+00
  0.00000000E+00  0.00000000E+00  0.00000000E+00
  0.00000000E+00  0.00000000E+00  0.00000000E+00
  0.00000000E+00  0.00000000E+00  0.00000000E+00
  0.00000000E+00  0.00000000E+00  0.00000000E+00
  0.00000000E+00  0.00000000E+00  0.00000000E+00
  0.00000000E+00  0.00000000E+00  0.00000000E+00
  0.00000000E+00  0.00000000E+00  0.00000000E+00
  0.00000000E+00  0.00000000E+00  0.00000000E+00
  0.00000000E+00  0.00000000E+00  0.00000000E+00
  0.00000000E+00  0.00000000E+00  0.00000000E+00
  0.00000000E+00  0.00000000E+00  0.00000000E+00
  0.00000000E+00  0.00000000E+00  0.00000000E+00
  0.00000000E+00  0.00000000E+00  0.00000000E+00
  0.00000000E+00  0.00000000E+00  0.00000000E+00
  0.00000000E+00  0.00000000E+00  0.00000000E+00
  0.00000000E+00  0.00000000E+00  0.00000000E+00
  0.00000000E+00  0.00000000E+00  0.00000000E+00
  0.00000000E+00  0.00000000E+00  0.00000000E+00
  0.00000000E+00  0.00000000E+00  0.00000000E+00
  0.00000000E+00  0.00000000E+00  0.00000000E+00
  0.00000000E+00  0.00000000E+00  0.00000000E+00
  0.00000000E+00  0.00000000E+00  0.00000000E+00
  0.00000000E+00  0.00000000E+00  0.00000000E+00
  0.00000000E+00  0.00000000E+00  0.00000000E+00
  0.00000000E+00  0.00000000E+00  0.00000000E+00
  0.00000000E+00  0.00000000E+00  0.00000000E+00
  0.00000000E+00  0.00000000E+00  0.00000000E+00
  0.00000000E+00  0.00000000E+00  0.00000000E+00
  0.00000000E+00  0.00000000E+00  0.00000000E+00
  0.00000000E+00  0.00000000E+00  0.00000000E+00
  0.00000000E+00  0.00000000E+00  0.00000000E+00
  0.00000000E+00  0.00000000E+00  0.00000000E+00
  0.00000000E+00  0.00000000E+00  0.00000000E+00
  0.00000000E+00  0.00000000E+00  0.00000000E+00
  0.00000000E+00  0.00000000E+00  0.00000000E+00
  0.00000000E+00  0.00000000E+00  0.00000000E+00
  0.00000000E+00  0.00000000E+00  0.00000000E+00
  0.00000000E+00  0.00000000E+00  0.00000000E+00
  0.00000000E+00  0.00000000E+00  0.00000000E+00
  0.00000000E+00  0.00000000E+00  0.00000000E+00
  0.00000000E+00  0.00000000E+00  0.00000000E+00
  0.00000000E+00  0.00000000E+00  0.00000000E+00