CuInSe2gb                               
   1.00000000000000     
     9.7266780392896699    0.0000000000000000    0.0000000000000000
     0.0000000000000000    8.4235502764570693    0.0000000000000000
     0.0000000000000000    0.0000000000000000   45.0000000000000000
   Fe   Mn
   281     7
Direct
  0.0533914364378473  0.7018537954968449  0.2114574916019822
  0.3182724724999079  0.7237644206931999  0.8761668507607032
  0.6876542992097493  0.9581736133129047  0.6112776371127955
  0.4377242532463241  0.4580335767054052  0.6112886981617162
  0.4401272781030808  0.2881658348301302  0.2554625060472626
  0.0585920989873170  0.3880006506084148  0.8334687189228359
  0.3085050837365587  0.8876249614546814  0.8335088648181977
  0.4472345529645021  0.6262481378042223  0.7001271757986672
  0.0604165743742013  0.2122929626983869  0.7448232864675440
  0.1788116452070074  0.4509355143851968  0.2113061942907081
  0.5679152391317479  0.2106209747371225  0.4774800018427494
  0.0667662768470111  0.8749263247251037  0.5667793796747107
  0.5680982266936108  0.2239053537526422  0.8760848008677131
  0.8102415347165169  0.5313196698964481  0.1241149498857210
  0.4292037329998626  0.9513101957606981  0.2114437134636985
  0.5666219663222167  0.3750019224038712  0.5668704525474756
  0.8122246113948655  0.0419085846887545  0.3885760408226226
  0.6821302402760274  0.7883694110777347  0.5223627658216915
  0.4427380801480844  0.4607532751298913  0.4774688066981236
  0.4348228058390265  0.9618881945140147  0.7445650002671987
  0.4420430028038487  0.6248482913697467  0.5667303344498089
  0.0602153006800849  0.5307502782404613  0.1242798077208031
  0.3105392947613369  0.0308774473219968  0.1243081594750285
  0.6902562234602418  0.9593264919431532  0.3441775257849255
  0.6838096536488801  0.7788049184960458  0.1241387915142026
  0.0526176391759799  0.3738718793692518  0.2997437001091852
  0.6894619686171471  0.4674793825428651  0.8759020919113911
  0.4283648326041999  0.4511986011771746  0.2113416339255406
  0.8084964369647838  0.3750875164726543  0.4330934191963863
  0.5628812008060927  0.7082705439392130  0.6115280777750801
  0.5597973402775949  0.5414810508321511  0.6557113091419462
  0.9334469998645566  0.1249747255880769  0.4331132217077761
  0.5657598733325181  0.5377371464944100  0.2553903806215091
  0.6902111770796050  0.4593386047249163  0.3441727569188342
  0.1920882387300210  0.6127508137424097  0.1667721612118985
  0.1957571159850580  0.7988443499492212  0.7887150842998689
  0.4472649952682082  0.1261041213686827  0.7001400871347023
  0.9277725466560458  0.6236994464951888  0.2996776497756141
  0.3176858083380332  0.2231987522257323  0.8760652909804634
  0.3168732273717906  0.8743191727817496  0.5667704174931196
  0.8172992166557840  0.2233984928431510  0.8761040640292175
  0.8096163104915782  0.5411347018212718  0.6557124427826129
  0.5593247573239235  0.5302506917862165  0.1243218340790452
  0.5701857332074064  0.0495453398777659  0.7887120464672746
  0.1898339505650342  0.2881113052186366  0.2554675339078022
  0.8084850647324634  0.8749838207933719  0.4331072303499653
  0.5721670160292309  0.3762437153933069  0.7002192085143973
  0.0607739624951284  0.0317968817607744  0.1242188621481646
  0.3096332701973583  0.5407976553281409  0.6558012047957549
  0.5653760126654883  0.2095025579255635  0.3441133474230519
  0.1877145883104343  0.9581976559331222  0.6113632770459669
  0.3027381678709476  0.3739168200342896  0.2997335228352326
  0.4343051111504287  0.7910559799821255  0.6556830266540503
  0.1961286998340565  0.2983428981857366  0.7886015969445241
  0.0663269249903424  0.3626243377353061  0.1665927493247475
  0.6967283614622378  0.6264287152482004  0.7004045028049225
  0.3123162795807184  0.5417917005042970  0.3886414566229980
  0.0680750433648521  0.7230534678388543  0.8761240043035767
  0.9336612528579492  0.6374259625047294  0.8336391037554284
  0.3203658006399346  0.5494484794709390  0.7888265964140714
  0.3035972920401512  0.2016099918319050  0.2114179669280740
  0.0679737038117447  0.7106175369282751  0.4774771963568596
  0.5535582820822635  0.2015794631072290  0.2114453444181443
  0.3109924768961596  0.2115233119153709  0.7446511667743673
  0.0721120968986490  0.3762954093152914  0.7003268573951189
  0.1833268039626077  0.6375367470677770  0.8335037594832789
  0.0710642161361393  0.0488194045713850  0.7888170304288645
  0.4416620424073017  0.1249666206113232  0.5668899069592782
  0.9346675783547478  0.2909204561501321  0.6557662601712918
  0.8036666909629413  0.2015646922189365  0.2113730969781832
  0.9290571174143957  0.9510374839702727  0.2113204114026602
  0.9415385996065352  0.6250505479914742  0.5668708638395786
  0.8083990627958211  0.3876945903457056  0.8334988616013419
  0.1970073062344952  0.6257642140948996  0.7000586236335551
  0.8085107300584475  0.8876954871741780  0.8335256448842046
  0.6847125336842655  0.2907686622093175  0.6558187904364111
  0.3126973193242283  0.2079833026332202  0.6112696817144400
  0.4356972512926030  0.4624213728126474  0.7444672573278142
  0.4370022323310838  0.7917722061803272  0.3885038681336302
  0.6850153294970421  0.9625628315970436  0.7445705456700884
  0.8034910286221872  0.7016780617042384  0.2114378044019310
  0.8129348458766209  0.7079969733038515  0.6113590960525844
  0.4312966969530990  0.7789142461388147  0.1241645348329318
  0.3107319816310941  0.7114898177297990  0.7446001644073177
  0.3209622396880905  0.0492118966249097  0.7887625477438618
  0.8118402093681329  0.5416706158604104  0.3884091029462790
  0.6824278966661171  0.2882089937784657  0.5223223160391216
  0.6957155042324070  0.7988545127763864  0.7887380710950631
  0.1899726981142318  0.7882742822539099  0.2554678362958803
  0.6915627260816488  0.1122413648802583  0.1666318805697938
  0.6927920649655694  0.9607367989353646  0.4774610157768421
  0.9403571144864321  0.9594190468907315  0.3441332169632967
  0.8072172913877363  0.0383206807767582  0.5224337415523493
  0.6834748331341395  0.6250055376194391  0.4331038781665761
  0.4402982220341144  0.4592929693703573  0.3441817462419056
  0.8109207592676508  0.2120067744882997  0.7444807599285728
  0.4396644308592250  0.9677566110978923  0.8760406937527930
  0.5669986339148115  0.8748383728770409  0.5666993012225702
  0.8108013966285396  0.0315659739237440  0.1242727203818403
  0.4278054717401578  0.6237908980688507  0.2997012425415482
  0.8172384858725980  0.7231621512816224  0.8761103662691364
  0.6876818799464628  0.4581219171797682  0.6112333478125944
  0.5586103889486632  0.3877610355723302  0.8331846773954051
  0.8028256698598286  0.3736810301365457  0.2996585734071027
  0.1870654144676578  0.2918216753415948  0.3884853108420041
  0.8210750943253345  0.5488235847375832  0.7888548722535713
  0.1824799100767042  0.7885160630639491  0.5225304896286919
  0.3026866560044491  0.8738849022352809  0.2997947894331588
  0.1779567915252111  0.9513506273967784  0.2114321973166704
  0.1856037452131879  0.4621474859610921  0.7446210317991747
  0.4324316793155016  0.2881959144498009  0.5223289736228567
  0.0653956104476487  0.7094770014718881  0.3441287993027919
  0.1847427733024646  0.7906354955266310  0.6557967965988569
  0.4457147424736208  0.7988580460642122  0.7887350293184496
  0.6833710019887984  0.1249585628196532  0.4330866063061127
  0.9324672537837271  0.7882442819366158  0.5223442937085491
  0.6919206691322752  0.6123961881455734  0.1665315676995446
  0.8153789853893941  0.7095005978634722  0.3441305691229911
  0.9345783413186085  0.4625252792103472  0.7449417873133320
  0.1903092357243798  0.4593398148357742  0.3441831199549641
  0.5704413400341151  0.5491443754000687  0.7888865766312018
  0.5662701732295080  0.3625392495892654  0.1665812455372208
  0.5654362873893142  0.7096186042357794  0.3441137785124538
  0.5526048064612991  0.3740541732976139  0.2997844626331428
  0.1894338643046271  0.4674344758575047  0.8758925511800723
  0.1914670013886291  0.1121417196237557  0.1668253085303782
  0.4450148237818493  0.2986724730185170  0.7887611298121002
  0.6899804591700813  0.7882840275372450  0.2554551156297471
  0.9336405183420966  0.1375053360332048  0.8335115286821494
  0.4427937363032087  0.9607415445086888  0.4774653947506729
  0.5676249302687577  0.7241987859423638  0.8760796020235859
  0.1926325315316763  0.4606979395406979  0.4774627433891366
  0.9337926473814029  0.2794897969211234  0.1241029559478699
  0.3121459882983829  0.0418921887742615  0.3885791503957712
  0.0596459702951839  0.0404927193605192  0.6558694649537915
  0.5584286862261070  0.3749190074461031  0.4331108245367088
  0.6845104214826592  0.4623753913249071  0.7449403238427900
  0.3163285263508078  0.3621889532187150  0.1667946136246637
  0.9468176004377765  0.1266916281271818  0.7003522742336761
  0.5597032191701764  0.0408527131522710  0.6557582530386979
  0.5573595754896361  0.5383085416688507  0.5223607373444896
  0.1777104443811821  0.1239441806770620  0.2997390472492923
  0.4413274222700351  0.1118535328916446  0.1667449259927546
  0.6778885186664609  0.6237266437844877  0.2996328802918520
  0.9276030619087045  0.1240363158311512  0.2998187233679319
  0.8166578979254953  0.3750020691385845  0.5668875519399980
  0.0527056086361304  0.8738727003268697  0.2998049737686984
  0.1915972122368674  0.6249617006576162  0.5668937020158892
  0.9458587067521057  0.7990769302562043  0.7887482452337211
  0.3083237105872754  0.3875013283026029  0.8334835610762846
  0.9393441732154738  0.4677657000797305  0.8758876957355465
  0.4335817058588847  0.6378992115363978  0.8335036925189957
  0.0652743241004007  0.2094009615285149  0.3440980392342570
  0.1895465134590287  0.9674466549652366  0.8760480946595746
  0.9320237276432268  0.7789833538899945  0.1240575327708453
  0.6870294000943936  0.7918243913566894  0.3885410223776929
  0.9346374527147643  0.7907758358941548  0.6558156413301104
  0.9413675008446146  0.1114780242976682  0.1666641923916232
  0.4348502727209427  0.2905897180409075  0.6558924110313133
  0.0534073987499755  0.2017781003497212  0.2114195951309799
  0.6781429043375378  0.9512735128872019  0.2113619974035832
  0.1778055935511055  0.6237868010944088  0.2996340485191505
  0.8220357283866946  0.8760786295277813  0.7001925580911210
  0.9467591069980845  0.6264673363030563  0.7004019569330305
  0.1969473299961952  0.1260405474903867  0.7001772831978746
  0.9429212217364341  0.4607418044551235  0.4774427507862098
  0.8127152612270101  0.2081026951609227  0.6113581478922665
  0.1833722004983798  0.6249887759513827  0.4331155563564893
  0.4277082412300151  0.1240059668697068  0.2997372123501717
  0.6778660526969768  0.1240864566542507  0.2997887264366167
  0.5621423056260465  0.5418083310168206  0.3885429057265497
  0.8152749097751060  0.2093894934670566  0.3440965656384736
  0.4394322929470900  0.4674345470407312  0.8758461537339468
  0.5586784113262090  0.8874016124982307  0.8334901798580392
  0.3178695315955171  0.2106556655310045  0.4774684238331793
  0.1928557715411358  0.9606880900995621  0.4774823749526182
  0.0585854917668789  0.8877379412430905  0.8334512780399786
  0.0573958277084532  0.5383103491412821  0.5223474868889831
  0.9428294841516262  0.9605577440047736  0.4774064418695406
  0.0627039569195344  0.7079035503224493  0.6113578953418300
  0.5573852327718006  0.0382386378398263  0.5223462552589492
  0.6962602276382377  0.2985225931662887  0.7887255261283929
  0.8163721292261660  0.3621372422706536  0.1665233528193842
  0.4333949654763448  0.1250015343883315  0.4330899713577639
  0.0679490112679381  0.2106443681790204  0.4774615108252551
  0.3096904926872641  0.0407394585335051  0.6557316770437622
  0.4323146033481990  0.7882505506579940  0.5223592938284930
  0.1836570428719647  0.1376180268632388  0.8335317532166987
  0.1829804301491532  0.2786693716859195  0.1241194831640401
  0.9403228944291755  0.4593723095829677  0.3441876857098023
  0.5662840880110833  0.8630542054455692  0.1665988918633888
  0.3033963263536092  0.7017188317197016  0.2114707533199068
  0.9411392748918326  0.6120439572764544  0.1665846428008738
  0.1877450261907165  0.4581303509225249  0.6113625010951939
  0.0723540138406771  0.8762673844313748  0.7001463274027409
  0.0597286060096806  0.5406483871850086  0.6558249497718985
  0.3091727163096573  0.5311765935996238  0.1241703952956402
  0.9368829884676029  0.7916044529365170  0.3885136014262561
  0.9464710790442993  0.2981214396664834  0.7885676539418198
  0.1846448847835324  0.2907161517644762  0.6558055282819909
  0.9376490531626596  0.9579691589253563  0.6113340085788123
  0.8112743938994300  0.7113183569338238  0.7446199446405588
  0.6899205827123004  0.2881947382915573  0.2554532078537368
  0.0599777519281555  0.7120363342185679  0.7448833717521157
  0.6788044112034840  0.4509620989747505  0.2112988089468774
  0.8181233434975194  0.2107371175805209  0.4775332843276389
  0.5677651290986975  0.7105338128267447  0.4774535973201997
  0.0663561680834820  0.8628092604009198  0.1664961726168878
  0.9323539471198180  0.2882342833754337  0.5223942181987641
  0.6846375641207386  0.7907661083436615  0.6557690690446926
  0.0582826387830479  0.8749397001088667  0.4331137884121624
  0.0679006058281001  0.2228434321840979  0.8761025311760565
  0.8097412835975442  0.0405921361972848  0.6557875551733063
  0.5601147676426435  0.0318335914746027  0.1242606523661150
  0.3084158578125695  0.3748890573120373  0.4330634863092540
  0.3164963119218989  0.3748268318205098  0.5668421295095092
  0.3178768075172358  0.7105840809005171  0.4773954815827342
  0.0574167764776568  0.0381891594486202  0.5223863162791851
  0.3220979932159073  0.8764283636527490  0.7003815883152915
  0.0655946053562219  0.5379367515709672  0.2553671281932148
  0.6833362832136197  0.1376126321087661  0.8335004809841483
  0.8151258327538105  0.0376349073741455  0.2551674283770307
  0.1834855056672092  0.1250069674379067  0.4331149133127487
  0.6975253906269130  0.1265412901194919  0.7002265438993128
  0.1824035765125629  0.2882833588510155  0.5223591870311921
  0.4399968219192482  0.7882367785630721  0.2554477784629494
  0.8149046014490042  0.5380298140502764  0.2554539948649850
  0.0626883818314621  0.2079916115699911  0.6113088171856821
  0.1868052317428751  0.7914345975835406  0.3884465290663712
  0.3073906581383140  0.5381894550140996  0.5223730967845870
  0.8219604091530933  0.3762336439080894  0.7000718892847445
  0.6870656866874605  0.2918712298675497  0.3885334495625465
  0.1916214221542312  0.1250592167340236  0.5668712638656580
  0.6897948719565691  0.9683258777257115  0.8760517043295396
  0.6917018579133245  0.1249753699317741  0.5668002725598303
  0.4403107805294004  0.9593034163275626  0.3441756219875012
  0.1852376308985539  0.9620808167826004  0.7443507506813190
  0.9399291408006144  0.7882592063512156  0.2554418434129809
  0.5584817281585780  0.8750278922587813  0.4331081587572623
  0.3084059411779494  0.8751238450471406  0.4331010156168333
  0.8073540209165508  0.5383390845699974  0.5224298513324246
  0.9283662970870206  0.4512232978403914  0.2113282299494210
  0.3148138198069688  0.5376475870213192  0.2555290352898633
  0.5623230211647502  0.0419374654878063  0.3886377870557363
  0.9376721400395216  0.4581466263364434  0.6114090380242968
  0.0620867924538735  0.0418620077086731  0.3885712745608408
  0.0620725269050973  0.5416833653951582  0.3884725577272699
  0.4370190668418780  0.2917932264808140  0.3885266702658997
  0.6929294909075399  0.4606788035944576  0.4774488854987709
  0.0666390516338988  0.3747147279125187  0.5668203753595554
  0.5534955652252157  0.7018004566645147  0.2114208248013016
  0.9399831410228947  0.2882451770843410  0.2554582966774738
  0.8204301087410674  0.0491751546949501  0.7888748971666121
  0.1903009135666304  0.9593751222639484  0.3441885724848255
  0.5527856919121519  0.8737615517045654  0.2998611764434248
  0.0583076458647815  0.3749807301933848  0.4331171092374506
  0.3153308980682710  0.7095031718400554  0.3441514419155666
  0.3153196218339209  0.2094364502624652  0.3441687565709647
  0.9417813093117968  0.1249790596042629  0.5667275948194759
  0.4377603184093163  0.9581464851977639  0.6113653523272541
  0.5648593416611244  0.0375878389470944  0.2554138082084372
  0.1844242597855861  0.7793987424288786  0.1241740126109692
  0.0647097911905100  0.0374018858337185  0.2554224063873630
  0.6918201942476764  0.6247950149463215  0.5667809534574041
  0.4411164500182961  0.6118153598419508  0.1667058521876824
  0.3071815789539571  0.0382262992946813  0.5223253930367682
  0.6834384083628248  0.2795995676506043  0.1241605892445271
  0.8178674410730339  0.7107339516282748  0.4774339960766023
  0.4336336232297884  0.1378030036509973  0.8334928460591668
  0.3221846953001559  0.3763195365705837  0.7001243130348928
  0.6835940299032319  0.6377991469303420  0.8334944102140457
  0.5610156409962965  0.7118127512165767  0.7445452150198849
  0.9372529972685263  0.2920148972683361  0.3886264234992316
  0.9394194385144934  0.9677161698721048  0.8760072101351567
  0.5625710869725634  0.2081845959458446  0.6112052300217538
  0.8169133977498113  0.8750640259596092  0.5667546577164024
  0.8026525872158096  0.8740715946351664  0.2997977391165144
  0.3151941614343068  0.0377033897637121  0.2554421374303081
  0.4318277891021974  0.2786120423991811  0.1241644200286366
  0.3126143059980018  0.7081242603156911  0.6113656300014632
  0.4333985824585297  0.6249968099976873  0.4331080434572571
  0.9327810852531023  0.6251499131071693  0.4332460126130915
  0.3174944382778183  0.8616890722717359  0.1660357544439440
  0.0716126376480356  0.5490695137011148  0.7886601636021490
  0.8170575996744822  0.8614567070106299  0.1658371083669922
  0.5604639924252478  0.2115061191230507  0.7443852503795747
  0.9345007660660063  0.9615360620952083  0.7444072225351863
  0.5727108228064198  0.8772906693356547  0.7004622784508093
 
  0.00000000E+00  0.00000000E+00  0.00000000E+00
  0.00000000E+00  0.00000000E+00  0.00000000E+00
  0.00000000E+00  0.00000000E+00  0.00000000E+00
  0.00000000E+00  0.00000000E+00  0.00000000E+00
  0.00000000E+00  0.00000000E+00  0.00000000E+00
  0.00000000E+00  0.00000000E+00  0.00000000E+00
  0.00000000E+00  0.00000000E+00  0.00000000E+00
  0.00000000E+00  0.00000000E+00  0.00000000E+00
  0.00000000E+00  0.00000000E+00  0.00000000E+00
  0.00000000E+00  0.00000000E+00  0.00000000E+00
  0.00000000E+00  0.00000000E+00  0.00000000E+00
  0.00000000E+00  0.00000000E+00  0.00000000E+00
  0.00000000E+00  0.00000000E+00  0.00000000E+00
  0.00000000E+00  0.00000000E+00  0.00000000E+00
  0.00000000E+00  0.00000000E+00  0.00000000E+00
  0.00000000E+00  0.00000000E+00  0.00000000E+00
  0.00000000E+00  0.00000000E+00  0.00000000E+00
  0.00000000E+00  0.00000000E+00  0.00000000E+00
  0.00000000E+00  0.00000000E+00  0.00000000E+00
  0.00000000E+00  0.00000000E+00  0.00000000E+00
  0.00000000E+00  0.00000000E+00  0.00000000E+00
  0.00000000E+00  0.00000000E+00  0.00000000E+00
  0.00000000E+00  0.00000000E+00  0.00000000E+00
  0.00000000E+00  0.00000000E+00  0.00000000E+00
  0.00000000E+00  0.00000000E+00  0.00000000E+00
  0.00000000E+00  0.00000000E+00  0.00000000E+00
  0.00000000E+00  0.00000000E+00  0.00000000E+00
  0.00000000E+00  0.00000000E+00  0.00000000E+00
  0.00000000E+00  0.00000000E+00  0.00000000E+00
  0.00000000E+00  0.00000000E+00  0.00000000E+00
  0.00000000E+00  0.00000000E+00  0.00000000E+00
  0.00000000E+00  0.00000000E+00  0.00000000E+00
  0.00000000E+00  0.00000000E+00  0.00000000E+00
  0.00000000E+00  0.00000000E+00  0.00000000E+00
  0.00000000E+00  0.00000000E+00  0.00000000E+00
  0.00000000E+00  0.00000000E+00  0.00000000E+00
  0.00000000E+00  0.00000000E+00  0.00000000E+00
  0.00000000E+00  0.00000000E+00  0.00000000E+00
  0.00000000E+00  0.00000000E+00  0.00000000E+00
  0.00000000E+00  0.00000000E+00  0.00000000E+00
  0.00000000E+00  0.00000000E+00  0.00000000E+00
  0.00000000E+00  0.00000000E+00  0.00000000E+00
  0.00000000E+00  0.00000000E+00  0.00000000E+00
  0.00000000E+00  0.00000000E+00  0.00000000E+00
  0.00000000E+00  0.00000000E+00  0.00000000E+00
  0.00000000E+00  0.00000000E+00  0.00000000E+00
  0.00000000E+00  0.00000000E+00  0.00000000E+00
  0.00000000E+00  0.00000000E+00  0.00000000E+00
  0.00000000E+00  0.00000000E+00  0.00000000E+00
  0.00000000E+00  0.00000000E+00  0.00000000E+00
  0.00000000E+00  0.00000000E+00  0.00000000E+00
  0.00000000E+00  0.00000000E+00  0.00000000E+00
  0.00000000E+00  0.00000000E+00  0.00000000E+00
  0.00000000E+00  0.00000000E+00  0.00000000E+00
  0.00000000E+00  0.00000000E+00  0.00000000E+00
  0.00000000E+00  0.00000000E+00  0.00000000E+00
  0.00000000E+00  0.00000000E+00  0.00000000E+00
  0.00000000E+00  0.00000000E+00  0.00000000E+00
  0.00000000E+00  0.00000000E+00  0.00000000E+00
  0.00000000E+00  0.00000000E+00  0.00000000E+00
  0.00000000E+00  0.00000000E+00  0.00000000E+00
  0.00000000E+00  0.00000000E+00  0.00000000E+00
  0.00000000E+00  0.00000000E+00  0.00000000E+00
  0.00000000E+00  0.00000000E+00  0.00000000E+00
  0.00000000E+00  0.00000000E+00  0.00000000E+00
  0.00000000E+00  0.00000000E+00  0.00000000E+00
  0.00000000E+00  0.00000000E+00  0.00000000E+00
  0.00000000E+00  0.00000000E+00  0.00000000E+00
  0.00000000E+00  0.00000000E+00  0.00000000E+00
  0.00000000E+00  0.00000000E+00  0.00000000E+00
  0.00000000E+00  0.00000000E+00  0.00000000E+00
  0.00000000E+00  0.00000000E+00  0.00000000E+00
  0.00000000E+00  0.00000000E+00  0.00000000E+00
  0.00000000E+00  0.00000000E+00  0.00000000E+00
  0.00000000E+00  0.00000000E+00  0.00000000E+00
  0.00000000E+00  0.00000000E+00  0.00000000E+00
  0.00000000E+00  0.00000000E+00  0.00000000E+00
  0.00000000E+00  0.00000000E+00  0.00000000E+00
  0.00000000E+00  0.00000000E+00  0.00000000E+00
  0.00000000E+00  0.00000000E+00  0.00000000E+00
  0.00000000E+00  0.00000000E+00  0.00000000E+00
  0.00000000E+00  0.00000000E+00  0.00000000E+00
  0.00000000E+00  0.00000000E+00  0.00000000E+00
  0.00000000E+00  0.00000000E+00  0.00000000E+00
  0.00000000E+00  0.00000000E+00  0.00000000E+00
  0.00000000E+00  0.00000000E+00  0.00000000E+00
  0.00000000E+00  0.00000000E+00  0.00000000E+00
  0.00000000E+00  0.00000000E+00  0.00000000E+00
  0.00000000E+00  0.00000000E+00  0.00000000E+00
  0.00000000E+00  0.00000000E+00  0.00000000E+00
  0.00000000E+00  0.00000000E+00  0.00000000E+00
  0.00000000E+00  0.00000000E+00  0.00000000E+00
  0.00000000E+00  0.00000000E+00  0.00000000E+00
  0.00000000E+00  0.00000000E+00  0.00000000E+00
  0.00000000E+00  0.00000000E+00  0.00000000E+00
  0.00000000E+00  0.00000000E+00  0.00000000E+00
  0.00000000E+00  0.00000000E+00  0.00000000E+00
  0.00000000E+00  0.00000000E+00  0.00000000E+00
  0.00000000E+00  0.00000000E+00  0.00000000E+00
  0.00000000E+00  0.00000000E+00  0.00000000E+00
  0.00000000E+00  0.00000000E+00  0.00000000E+00
  0.00000000E+00  0.00000000E+00  0.00000000E+00
  0.00000000E+00  0.00000000E+00  0.00000000E+00
  0.00000000E+00  0.00000000E+00  0.00000000E+00
  0.00000000E+00  0.00000000E+00  0.00000000E+00
  0.00000000E+00  0.00000000E+00  0.00000000E+00
  0.00000000E+00  0.00000000E+00  0.00000000E+00
  0.00000000E+00  0.00000000E+00  0.00000000E+00
  0.00000000E+00  0.00000000E+00  0.00000000E+00
  0.00000000E+00  0.00000000E+00  0.00000000E+00
  0.00000000E+00  0.00000000E+00  0.00000000E+00
  0.00000000E+00  0.00000000E+00  0.00000000E+00
  0.00000000E+00  0.00000000E+00  0.00000000E+00
  0.00000000E+00  0.00000000E+00  0.00000000E+00
  0.00000000E+00  0.00000000E+00  0.00000000E+00
  0.00000000E+00  0.00000000E+00  0.00000000E+00
  0.00000000E+00  0.00000000E+00  0.00000000E+00
  0.00000000E+00  0.00000000E+00  0.00000000E+00
  0.00000000E+00  0.00000000E+00  0.00000000E+00
  0.00000000E+00  0.00000000E+00  0.00000000E+00
  0.00000000E+00  0.00000000E+00  0.00000000E+00
  0.00000000E+00  0.00000000E+00  0.00000000E+00
  0.00000000E+00  0.00000000E+00  0.00000000E+00
  0.00000000E+00  0.00000000E+00  0.00000000E+00
  0.00000000E+00  0.00000000E+00  0.00000000E+00
  0.00000000E+00  0.00000000E+00  0.00000000E+00
  0.00000000E+00  0.00000000E+00  0.00000000E+00
  0.00000000E+00  0.00000000E+00  0.00000000E+00
  0.00000000E+00  0.00000000E+00  0.00000000E+00
  0.00000000E+00  0.00000000E+00  0.00000000E+00
  0.00000000E+00  0.00000000E+00  0.00000000E+00
  0.00000000E+00  0.00000000E+00  0.00000000E+00
  0.00000000E+00  0.00000000E+00  0.00000000E+00
  0.00000000E+00  0.00000000E+00  0.00000000E+00
  0.00000000E+00  0.00000000E+00  0.00000000E+00
  0.00000000E+00  0.00000000E+00  0.00000000E+00
  0.00000000E+00  0.00000000E+00  0.00000000E+00
  0.00000000E+00  0.00000000E+00  0.00000000E+00
  0.00000000E+00  0.00000000E+00  0.00000000E+00
  0.00000000E+00  0.00000000E+00  0.00000000E+00
  0.00000000E+00  0.00000000E+00  0.00000000E+00
  0.00000000E+00  0.00000000E+00  0.00000000E+00
  0.00000000E+00  0.00000000E+00  0.00000000E+00
  0.00000000E+00  0.00000000E+00  0.00000000E+00
  0.00000000E+00  0.00000000E+00  0.00000000E+00
  0.00000000E+00  0.00000000E+00  0.00000000E+00
  0.00000000E+00  0.00000000E+00  0.00000000E+00
  0.00000000E+00  0.00000000E+00  0.00000000E+00
  0.00000000E+00  0.00000000E+00  0.00000000E+00
  0.00000000E+00  0.00000000E+00  0.00000000E+00
  0.00000000E+00  0.00000000E+00  0.00000000E+00
  0.00000000E+00  0.00000000E+00  0.00000000E+00
  0.00000000E+00  0.00000000E+00  0.00000000E+00
  0.00000000E+00  0.00000000E+00  0.00000000E+00
  0.00000000E+00  0.00000000E+00  0.00000000E+00
  0.00000000E+00  0.00000000E+00  0.00000000E+00
  0.00000000E+00  0.00000000E+00  0.00000000E+00
  0.00000000E+00  0.00000000E+00  0.00000000E+00
  0.00000000E+00  0.00000000E+00  0.00000000E+00
  0.00000000E+00  0.00000000E+00  0.00000000E+00
  0.00000000E+00  0.00000000E+00  0.00000000E+00
  0.00000000E+00  0.00000000E+00  0.00000000E+00
  0.00000000E+00  0.00000000E+00  0.00000000E+00
  0.00000000E+00  0.00000000E+00  0.00000000E+00
  0.00000000E+00  0.00000000E+00  0.00000000E+00
  0.00000000E+00  0.00000000E+00  0.00000000E+00
  0.00000000E+00  0.00000000E+00  0.00000000E+00
  0.00000000E+00  0.00000000E+00  0.00000000E+00
  0.00000000E+00  0.00000000E+00  0.00000000E+00
  0.00000000E+00  0.00000000E+00  0.00000000E+00
  0.00000000E+00  0.00000000E+00  0.00000000E+00
  0.00000000E+00  0.00000000E+00  0.00000000E+00
  0.00000000E+00  0.00000000E+00  0.00000000E+00
  0.00000000E+00  0.00000000E+00  0.00000000E+00
  0.00000000E+00  0.00000000E+00  0.00000000E+00
  0.00000000E+00  0.00000000E+00  0.00000000E+00
  0.00000000E+00  0.00000000E+00  0.00000000E+00
  0.00000000E+00  0.00000000E+00  0.00000000E+00
  0.00000000E+00  0.00000000E+00  0.00000000E+00
  0.00000000E+00  0.00000000E+00  0.00000000E+00
  0.00000000E+00  0.00000000E+00  0.00000000E+00
  0.00000000E+00  0.00000000E+00  0.00000000E+00
  0.00000000E+00  0.00000000E+00  0.00000000E+00
  0.00000000E+00  0.00000000E+00  0.00000000E+00
  0.00000000E+00  0.00000000E+00  0.00000000E+00
  0.00000000E+00  0.00000000E+00  0.00000000E+00
  0.00000000E+00  0.00000000E+00  0.00000000E+00
  0.00000000E+00  0.00000000E+00  0.00000000E+00
  0.00000000E+00  0.00000000E+00  0.00000000E+00
  0.00000000E+00  0.00000000E+00  0.00000000E+00
  0.00000000E+00  0.00000000E+00  0.00000000E+00
  0.00000000E+00  0.00000000E+00  0.00000000E+00
  0.00000000E+00  0.00000000E+00  0.00000000E+00
  0.00000000E+00  0.00000000E+00  0.00000000E+00
  0.00000000E+00  0.00000000E+00  0.00000000E+00
  0.00000000E+00  0.00000000E+00  0.00000000E+00
  0.00000000E+00  0.00000000E+00  0.00000000E+00
  0.00000000E+00  0.00000000E+00  0.00000000E+00
  0.00000000E+00  0.00000000E+00  0.00000000E+00
  0.00000000E+00  0.00000000E+00  0.00000000E+00
  0.00000000E+00  0.00000000E+00  0.00000000E+00
  0.00000000E+00  0.00000000E+00  0.00000000E+00
  0.00000000E+00  0.00000000E+00  0.00000000E+00
  0.00000000E+00  0.00000000E+00  0.00000000E+00
  0.00000000E+00  0.00000000E+00  0.00000000E+00
  0.00000000E+00  0.00000000E+00  0.00000000E+00
  0.00000000E+00  0.00000000E+00  0.00000000E+00
  0.00000000E+00  0.00000000E+00  0.00000000E+00
  0.00000000E+00  0.00000000E+00  0.00000000E+00
  0.00000000E+00  0.00000000E+00  0.00000000E+00
  0.00000000E+00  0.00000000E+00  0.00000000E+00
  0.00000000E+00  0.00000000E+00  0.00000000E+00
  0.00000000E+00  0.00000000E+00  0.00000000E+00
  0.00000000E+00  0.00000000E+00  0.00000000E+00
  0.00000000E+00  0.00000000E+00  0.00000000E+00
  0.00000000E+00  0.00000000E+00  0.00000000E+00
  0.00000000E+00  0.00000000E+00  0.00000000E+00
  0.00000000E+00  0.00000000E+00  0.00000000E+00
  0.00000000E+00  0.00000000E+00  0.00000000E+00
  0.00000000E+00  0.00000000E+00  0.00000000E+00
  0.00000000E+00  0.00000000E+00  0.00000000E+00
  0.00000000E+00  0.00000000E+00  0.00000000E+00
  0.00000000E+00  0.00000000E+00  0.00000000E+00
  0.00000000E+00  0.00000000E+00  0.00000000E+00
  0.00000000E+00  0.00000000E+00  0.00000000E+00
  0.00000000E+00  0.00000000E+00  0.00000000E+00
  0.00000000E+00  0.00000000E+00  0.00000000E+00
  0.00000000E+00  0.00000000E+00  0.00000000E+00
  0.00000000E+00  0.00000000E+00  0.00000000E+00
  0.00000000E+00  0.00000000E+00  0.00000000E+00
  0.00000000E+00  0.00000000E+00  0.00000000E+00
  0.00000000E+00  0.00000000E+00  0.00000000E+00
  0.00000000E+00  0.00000000E+00  0.00000000E+00
  0.00000000E+00  0.00000000E+00  0.00000000E+00
  0.00000000E+00  0.00000000E+00  0.00000000E+00
  0.00000000E+00  0.00000000E+00  0.00000000E+00
  0.00000000E+00  0.00000000E+00  0.00000000E+00
  0.00000000E+00  0.00000000E+00  0.00000000E+00
  0.00000000E+00  0.00000000E+00  0.00000000E+00
  0.00000000E+00  0.00000000E+00  0.00000000E+00
  0.00000000E+00  0.00000000E+00  0.00000000E+00
  0.00000000E+00  0.00000000E+00  0.00000000E+00
  0.00000000E+00  0.00000000E+00  0.00000000E+00
  0.00000000E+00  0.00000000E+00  0.00000000E+00
  0.00000000E+00  0.00000000E+00  0.00000000E+00
  0.00000000E+00  0.00000000E+00  0.00000000E+00
  0.00000000E+00  0.00000000E+00  0.00000000E+00