CuInSe2gb                               
   1.00000000000000     
     9.7266780392896699    0.0000000000000000    0.0000000000000000
     0.0000000000000000    8.4235502764570693    0.0000000000000000
     0.0000000000000000    0.0000000000000000   45.0000000000000000
   Fe   Mn
   281     7
Direct
  0.0568629928213846  0.7013608572193704  0.2110665880846816
  0.3163006757467819  0.7216495290276921  0.8759957087906838
  0.6880344252765698  0.9579503463404674  0.6113820170780754
  0.4380761015619981  0.4579947000817729  0.6114164302724656
  0.4368978125114295  0.2870430363012630  0.2552348215732044
  0.0603039499612571  0.3872257172832283  0.8339526600155217
  0.3104163333987528  0.8867588175889046  0.8339748750554068
  0.4438480628171108  0.6261774028739412  0.7003623330910158
  0.0629057798467514  0.2128895301189251  0.7447450262140045
  0.1814750626528638  0.4511211871689983  0.2112994596629061
  0.5649582273013087  0.2095348805347184  0.4777087740233136
  0.0648367321877552  0.8747680493061248  0.5668208846624931
  0.5662656625069223  0.2213815625320848  0.8758553802984929
  0.8106437265233223  0.5293355263383623  0.1254712578185444
  0.4323833893975391  0.9513203425535558  0.2112084441150997
  0.5648160843131733  0.3748503052501267  0.5667431841961117
  0.8120350609303746  0.0423457180685765  0.3880357858344853
  0.6845965133583450  0.7903979979529132  0.5223261297635959
  0.4399152161489121  0.4595508831689840  0.4776616798989880
  0.4369860115208501  0.9623673540655275  0.7445947048312139
  0.4397245716432857  0.6247924202997006  0.5667570782777519
  0.5686042156179865  0.8760176832300149  0.7004392558569826
  0.3110417263180735  0.0294892784995097  0.1252327059110117
  0.6879670291318337  0.9589847194736890  0.3433119442426957
  0.6878878850410649  0.7811034838963258  0.1255608275289278
  0.0558141670439504  0.3734067177021199  0.2988909370180542
  0.6890322300535596  0.4696049746524802  0.8758930445267343
  0.4319353705865258  0.4515533835686608  0.2112415084840237
  0.8102353217165694  0.3752696623542285  0.4329829975521756
  0.5630581994814180  0.7078772171014545  0.6114371496639285
  0.5620342573976752  0.5411719690831861  0.6557844895180442
  0.8149617231087355  0.8634128266608232  0.1670563276222005
  0.5614278941461686  0.5375979258650952  0.2553328009101841
  0.6880375029450972  0.4587504882998687  0.3434127176298619
  0.1888514216400054  0.6131451046356370  0.1669841465394333
  0.1931746120723948  0.7988172553509792  0.7888593824796600
  0.4437606613671621  0.1263429057491426  0.7004330127025319
  0.9307797229587969  0.6231561040693061  0.2989390197258463
  0.3157849186200603  0.2208419886223142  0.8758771578244910
  0.3148224649225310  0.8745661048691357  0.5667732766244210
  0.8162172378586584  0.2211313000712392  0.8760544033025087
  0.8119556762641246  0.5413347460934254  0.6557438826144814
  0.5598807772033507  0.5282735964952360  0.1253175150517369
  0.5682406883267888  0.0492828290219402  0.7890066617335028
  0.1873868886357174  0.2868215607585473  0.2552186180889975
  0.8103977036884140  0.8750816917702801  0.4329352421065845
  0.5687789341092687  0.3766639815674775  0.7004606204476196
  0.0602800002892076  0.0285020209523457  0.1254668432703896
  0.3119123336518407  0.5411805247606288  0.6557457095702831
  0.5631817585983663  0.2090890535946278  0.3433767635961014
  0.1879716513463089  0.9578413796181589  0.6114037063130152
  0.3060864314488599  0.3738070910924696  0.2989171961760159
  0.4369400129918976  0.7910777923223350  0.6557916751900837
  0.1931687879983720  0.2985177363624584  0.7889001916779439
  0.0642375727865008  0.3638538086437234  0.1669755372631886
  0.6940422413981635  0.6264430184070607  0.7003892960366228
  0.3120980107295832  0.5415532249192473  0.3880753734245134
  0.0658934564812674  0.7207925107503323  0.8762412579693658
  0.9360525506250451  0.6369026363830084  0.8341285031198366
  0.3181838234714042  0.5499046886034823  0.7889586063712790
  0.3065900744187574  0.2001398456415920  0.2112231364178355
  0.0651496528806716  0.7092260146237980  0.4777114685518791
  0.5564384188521315  0.2005592028363796  0.2111132015104398
  0.3128055082312611  0.2127608116561787  0.7445818606558904
  0.0686893836492101  0.3768752049277942  0.7004056271415476
  0.1855181601533256  0.6370157663557847  0.8339778089460338
  0.0676985849375676  0.0483087215702752  0.7890767325159710
  0.4398365610375274  0.1247112079315642  0.5668088594488679
  0.9370484124070455  0.2916545996222035  0.6557234907100765
  0.8066570861363889  0.2007707397504837  0.2110678336905831
  0.9319368878907507  0.9517733428584934  0.2112230884712406
  0.9397690933794243  0.6251039685444894  0.5667287402786502
  0.8104905833156514  0.3866420732035613  0.8339872922230445
  0.1937598850010289  0.6263623040487101  0.7003583915885976
  0.8106273097836018  0.8868076718609794  0.8340734460414425
  0.6872680883073879  0.2913866428871261  0.6558320212226250
  0.3130174742026582  0.2078392677239912  0.6114006278078635
  0.4372231494437502  0.4626095118218133  0.7446222651541878
  0.4369388704121264  0.7915600831325389  0.3880550524975417
  0.6870082929774114  0.9620342567241931  0.7446489523218425
  0.8061170075373818  0.7019325660653988  0.2110159994458737
  0.8129047910850267  0.7078297773150111  0.6114021670454496
  0.4369642725416777  0.7817004489177591  0.1252410551492788
  0.3123558841383162  0.7121613114623363  0.7446154814765734
  0.3183098546272760  0.0488257606640976  0.7889792923978790
  0.8118348195706599  0.5418575432557193  0.3880131915465149
  0.6847639953350946  0.2902943587609309  0.5222936471023085
  0.6933905169469315  0.7992704382903026  0.7889741640734946
  0.1872537074233327  0.7874497603631792  0.2552946155664779
  0.6892955248453060  0.1133261305853374  0.1670079579544397
  0.6901699793475100  0.9593870970254562  0.4777396214897939
  0.9381735360096691  0.9592383790580057  0.3433445637782462
  0.8097889691959106  0.0399513887931170  0.5222903480144702
  0.6847108132691838  0.6248217685145089  0.4329483901265413
  0.4383646677358461  0.4588059957233021  0.3434299716591245
  0.8128046287890026  0.2123384399770135  0.7446349803758671
  0.4390044060520421  0.9695714161700060  0.8757341198292209
  0.5647849025077067  0.8746256569581495  0.5667376044209325
  0.8109163682062416  0.0294310155944018  0.1253566912755932
  0.4309514687562993  0.6236687182688231  0.2989742981756606
  0.8158259442015384  0.7210870657879004  0.8762431725848902
  0.6878639413815122  0.4579508517433671  0.6113538163693777
  0.5603981661210852  0.3871302941850401  0.8337655884796619
  0.8058772986826181  0.3734205417577708  0.2988908151210881
  0.1867967153875674  0.2919222635242342  0.3880446534028933
  0.8181275741082733  0.5492369571284950  0.7891154808779196
  0.1849185097088036  0.7902198100905509  0.5223682966748450
  0.3059202782067648  0.8740433028888835  0.2989328169698279
  0.1812680229381570  0.9514740669823417  0.2112347930435265
  0.1877075054318865  0.4628303131739393  0.7447218123442187
  0.4348750112668148  0.2902436239992097  0.5222368447250276
  0.0630743803644810  0.7090780218747774  0.3434495172559393
  0.1870190201756952  0.7909589418276702  0.6557571714985032
  0.4428078214198632  0.7990396822633821  0.7888782808496876
  0.6848220487479387  0.1254507662171011  0.4329558655027865
  0.9348820474584522  0.7897750365064715  0.5223443622927360
  0.6890914047846213  0.6136454879391982  0.1669787139064281
  0.8130372196776269  0.7089036013090944  0.3434323766815151
  0.9372738063052455  0.4626409907413710  0.7447371802449575
  0.1881944623603411  0.4588492812053766  0.3434453222542687
  0.5682356260095399  0.5494992494109321  0.7889989348890755
  0.5646440684041617  0.3640680009854315  0.1668084591285778
  0.5630795217538653  0.7088347963820810  0.3434450835125109
  0.5561579906633204  0.3737767072270682  0.2989692853611753
  0.1887267420475814  0.4695727453542298  0.8759768798365396
  0.1889704065892907  0.1124045173051423  0.1669351568683583
  0.4433130440233510  0.2991062683419720  0.7888226584500725
  0.6867043913416830  0.7878100983603538  0.2552059223437541
  0.9357339317807871  0.1364522101015601  0.8338974869405074
  0.4399243691292132  0.9593995717215865  0.4776295532441848
  0.5660582413771696  0.7218319461460334  0.8759221949403995
  0.1898501832589199  0.4595206919325094  0.4776798403403376
  0.9352341925796012  0.2806757208891831  0.1255116299418627
  0.3118825110145462  0.0421291202620057  0.3880515513477051
  0.0619173585303811  0.0409695406320462  0.6558266159127126
  0.5602410190836576  0.3752190798856122  0.4329682348009724
  0.6867685673904964  0.4626996572784720  0.7446986055412994
  0.5627576543832544  0.2128510069865296  0.7446110274841803
  0.9440488675881403  0.1267147638077157  0.7004169246380357
  0.5620245280110351  0.0409261932086790  0.6557611045019577
  0.5597827780129075  0.5405191022827663  0.5222699589307733
  0.1811128581424513  0.1235797093090187  0.2989092080944885
  0.4389427514803622  0.1119875297147989  0.1668922119366734
  0.6806981723787868  0.6235323077091866  0.2989313306723362
  0.9309621230446518  0.1233978532122773  0.2989647969973578
  0.8146336461943547  0.3750255846926245  0.5668124524152905
  0.0561049518944143  0.8735930238211279  0.2989103340387249
  0.1899697059426476  0.6248036738728209  0.5668199278540849
  0.9428553060788095  0.7988537226089240  0.7889875652790616
  0.3105541819185455  0.3870907555211616  0.8339264248416204
  0.9392914855035874  0.4701134081724767  0.8760768955986760
  0.4357256925056385  0.6373982692463781  0.8338742361431047
  0.0629845145381621  0.2090225380766684  0.3433687374545776
  0.1887757520399698  0.9694877351287758  0.8759140636350095
  0.9357923064844781  0.7811492884417643  0.1256616866882842
  0.6869520585785672  0.7916589772341196  0.3880762965930747
  0.9369748012912879  0.7911149726000242  0.6557928948542026
  0.9391018975203508  0.1131792845646852  0.1670611565210310
  0.4369761021062019  0.2912815991524569  0.6558622917367852
  0.0571779297104910  0.2007058050188074  0.2110844432379292
  0.6815103152772605  0.9517328553941741  0.2111830221298241
  0.1809467930906226  0.6235370559909055  0.2989429367615035
  0.8188869089041894  0.8761332405462949  0.7004189863291358
  0.9438014678943358  0.6265808196292554  0.7004229609589893
  0.1937881317244378  0.1265631323072530  0.7003572351935595
  0.9401516860184116  0.4591025302918400  0.4776591939616480
  0.8130205900896821  0.2079410756164896  0.6113843217861092
  0.1857299969531248  0.6248718167210801  0.4329640661037679
  0.4309947467300769  0.1237685489684114  0.2989256171204368
  0.6808268457247916  0.1235620555559268  0.2988905826714818
  0.5618444822408492  0.5414854921028451  0.3880689297614507
  0.8129791801278446  0.2087897762721647  0.3434412880863276
  0.4388470034344021  0.4695874610726823  0.8757279703336003
  0.5606451145003474  0.8868169353099822  0.8338766021171627
  0.3149258007596287  0.2096072880067868  0.4776645339320835
  0.1897488849816781  0.9594837135603700  0.4776381316959214
  0.0604440404057012  0.8867185137892336  0.8340286948808102
  0.0600327385313495  0.5401446667168582  0.5222722328691992
  0.9402577472307169  0.9592610653707202  0.4776315815020465
  0.0631437683431198  0.7078375204115305  0.6114251980713817
  0.5597647662568995  0.0402019065628120  0.5222291923078628
  0.6934436128378121  0.2984149752493534  0.7889479759003609
  0.8147490486035286  0.3633632180853554  0.1670061434928364
  0.4349207324743772  0.1254281838120968  0.4329634265316132
  0.0650927172733426  0.2093074429988648  0.4776821593341158
  0.3119330463447436  0.0410405007742733  0.6557974117128326
  0.4347240280107561  0.7901027649884775  0.5222817386211694
  0.1858638546018922  0.1364899665696195  0.8338918960033396
  0.1862713507597799  0.2811840159884092  0.1256045859901546
  0.9379145340103276  0.4592016174871899  0.3433920618028257
  0.5652420996870196  0.8641204051309163  0.1668492959721542
  0.3064392135788964  0.7008955416985975  0.2111695993786852
  0.9386609519011084  0.6136249363481571  0.1670369182667868
  0.1879702239324027  0.4580450460451687  0.6113407394000127
  0.0687161235596617  0.8764790029360999  0.7002753723430085
  0.0618780511688461  0.5412360856730773  0.6558134876976444
  0.3105785871074213  0.5292659841287528  0.1253001911206217
  0.9369120816071540  0.7920425739803868  0.3881174437814482
  0.9431987307966322  0.2980282345275844  0.7889454400968432
  0.1866192689211310  0.2913581706715493  0.6558175974336587
  0.9378723109595258  0.9579114645339026  0.6114222429210581
  0.8129080050299156  0.7122507200656590  0.7447064879929243
  0.6866360944702753  0.2869544201765841  0.2553577949079936
  0.0627875822348048  0.7123338092033087  0.7447557713259410
  0.6811568469946315  0.4513603311185444  0.2109678231400467
  0.8151678082321782  0.2092724890943440  0.4777451726959029
  0.5648369588699059  0.7094616923885795  0.4777141849972048
  0.0642585882563320  0.8640776079801010  0.1669620602968523
  0.9349414599773608  0.2897746536022490  0.5223028822957978
  0.6867833849394174  0.7909026057948726  0.6557983230835690
  0.0604663613201728  0.8749648158797279  0.4329141446512880
  0.0660253016281520  0.2203651943509103  0.8760904939374236
  0.8121717283894385  0.0410815718432271  0.6557873114948291
  0.5608755682221371  0.0290146627735038  0.1252652227518444
  0.3102071450410021  0.3751298894157883  0.4329616198144250
  0.3148027094827662  0.3748196199684005  0.5667391042769487
  0.3148286452745313  0.7094512488887492  0.4776478666991361
  0.0598307983466093  0.0399907439044190  0.5222486087887810
  0.3186407667498897  0.8762773107680344  0.7004511542028400
  0.0623778945041423  0.5370358534229940  0.2553094493913549
  0.6861157998405896  0.1367823462658279  0.8338790730831885
  0.8118897700848006  0.0370913747343717  0.2552335747181507
  0.1854520247752734  0.1253859690977307  0.4329681533699282
  0.6938947100789669  0.1263458322203003  0.7004089439193524
  0.1851038930568375  0.2901975973389439  0.5223455743784701
  0.4369866531228655  0.7876508211996892  0.2552792029493968
  0.4393094403054757  0.6124777749723666  0.1667475659028293
  0.0628386748410626  0.2079989576222253  0.6113441299868138
  0.1865356242345750  0.7917262792678037  0.3879885642443405
  0.3098631528103682  0.5402373951522665  0.5223049082159480
  0.8187150025450644  0.3769443436585805  0.7002744596854795
  0.6869169857450315  0.2919140362780201  0.3880993527450414
  0.1898214664896049  0.1247242035414846  0.5667986324094211
  0.6892471082145870  0.9697978721383829  0.8758970777979350
  0.6896425024331059  0.1248768404039025  0.5668069648004892
  0.4381151798787770  0.9591800820463802  0.3434675312992282
  0.1869938028969116  0.9622467936672096  0.7446261810375726
  0.9373335227789795  0.7875898842990964  0.2552931608187543
  0.5602715999717891  0.8750667106100135  0.4329229598789539
  0.3101298297279469  0.8750674455251019  0.4329600252891823
  0.8098585128376714  0.5401765028601064  0.5223027064442446
  0.9320555710972169  0.4512599260726737  0.2111326996174387
  0.3121517426138938  0.5370326878837930  0.2553647179328284
  0.5619048477827797  0.0421481688378382  0.3881172680694254
  0.9380907906433769  0.4577339721874827  0.6114567193144292
  0.0619214972207162  0.0421955794238919  0.3880718967559940
  0.0619059851678381  0.5417054999459230  0.3880076395245332
  0.4369182836280089  0.2919106627846699  0.3880637105441835
  0.6899124079596263  0.4595163950524869  0.4777021148753451
  0.0649385201238828  0.3749474647530714  0.5668267098917443
  0.5567946328028480  0.7013510722245000  0.2109714184615003
  0.9372324052657720  0.2867240107122203  0.2553585811316909
  0.8177953537242126  0.0487406885573777  0.7890731282775180
  0.1881167514906289  0.9592350592799352  0.3434037277081295
  0.5560807417919674  0.8739069712560056  0.2989683172676972
  0.0604765927384955  0.3749394321405797  0.4329621871786478
  0.3132024691321649  0.7088784247956965  0.3434252674350612
  0.3131419602739206  0.2089727969510417  0.3434398406063335
  0.9396877387430835  0.1249564799339000  0.5667314486245201
  0.4380542707660625  0.9579103339586476  0.6114538205548512
  0.5614915333440194  0.0374784809562073  0.2552362946321502
  0.1868571103740602  0.7811389326948955  0.1255510407577893
  0.0626361621590708  0.0371882032278952  0.2552765526478223
  0.6896179340769444  0.6248968589155147  0.5668129036007963
  0.0591660427975232  0.5282151496202004  0.1255716548684712
  0.3098105775785867  0.0400941209054578  0.5222267085131420
  0.6874746237553218  0.2805929718822020  0.1255018291597654
  0.8149748020438040  0.7094116227373203  0.4777197990902839
  0.4360085367444362  0.1367415553736066  0.8337334623539954
  0.3188889731979733  0.3763118026369781  0.7003694895028786
  0.6859480759465386  0.6371520151974275  0.8338470571251704
  0.5626434472347964  0.7120873925304068  0.7446329868773207
  0.9367972249444838  0.2921196967196206  0.3881459895326249
  0.9391331758139293  0.9694814162432173  0.8760837485256240
  0.5629764737300383  0.2078319883094240  0.6113204978237786
  0.8146977758096257  0.8748579735628832  0.5668070377455231
  0.8060158066415728  0.8734003140986072  0.2988383518439791
  0.3121830653654188  0.0371305090051924  0.2552838696393739
  0.4364470614652573  0.2814910871906805  0.1253450104424444
  0.3130862106379759  0.7079089963046105  0.6113956574474385
  0.4349180479664713  0.6249458469782223  0.4329479874726642
  0.9348494405397924  0.6251467100101916  0.4331202526678236
  0.3153762769819598  0.8633896820910197  0.1665584180461861
  0.0688845799315216  0.5490499601137667  0.7888548315042452
  0.9348894886147138  0.1251243464098762  0.4330767945356155
  0.3155076100212990  0.3635082539884394  0.1665728725233392
  0.9366689728030971  0.9622990062770137  0.7447383410604271
  0.8124826696300116  0.5372292867239770  0.2553835882213140
 
  0.00000000E+00  0.00000000E+00  0.00000000E+00
  0.00000000E+00  0.00000000E+00  0.00000000E+00
  0.00000000E+00  0.00000000E+00  0.00000000E+00
  0.00000000E+00  0.00000000E+00  0.00000000E+00
  0.00000000E+00  0.00000000E+00  0.00000000E+00
  0.00000000E+00  0.00000000E+00  0.00000000E+00
  0.00000000E+00  0.00000000E+00  0.00000000E+00
  0.00000000E+00  0.00000000E+00  0.00000000E+00
  0.00000000E+00  0.00000000E+00  0.00000000E+00
  0.00000000E+00  0.00000000E+00  0.00000000E+00
  0.00000000E+00  0.00000000E+00  0.00000000E+00
  0.00000000E+00  0.00000000E+00  0.00000000E+00
  0.00000000E+00  0.00000000E+00  0.00000000E+00
  0.00000000E+00  0.00000000E+00  0.00000000E+00
  0.00000000E+00  0.00000000E+00  0.00000000E+00
  0.00000000E+00  0.00000000E+00  0.00000000E+00
  0.00000000E+00  0.00000000E+00  0.00000000E+00
  0.00000000E+00  0.00000000E+00  0.00000000E+00
  0.00000000E+00  0.00000000E+00  0.00000000E+00
  0.00000000E+00  0.00000000E+00  0.00000000E+00
  0.00000000E+00  0.00000000E+00  0.00000000E+00
  0.00000000E+00  0.00000000E+00  0.00000000E+00
  0.00000000E+00  0.00000000E+00  0.00000000E+00
  0.00000000E+00  0.00000000E+00  0.00000000E+00
  0.00000000E+00  0.00000000E+00  0.00000000E+00
  0.00000000E+00  0.00000000E+00  0.00000000E+00
  0.00000000E+00  0.00000000E+00  0.00000000E+00
  0.00000000E+00  0.00000000E+00  0.00000000E+00
  0.00000000E+00  0.00000000E+00  0.00000000E+00
  0.00000000E+00  0.00000000E+00  0.00000000E+00
  0.00000000E+00  0.00000000E+00  0.00000000E+00
  0.00000000E+00  0.00000000E+00  0.00000000E+00
  0.00000000E+00  0.00000000E+00  0.00000000E+00
  0.00000000E+00  0.00000000E+00  0.00000000E+00
  0.00000000E+00  0.00000000E+00  0.00000000E+00
  0.00000000E+00  0.00000000E+00  0.00000000E+00
  0.00000000E+00  0.00000000E+00  0.00000000E+00
  0.00000000E+00  0.00000000E+00  0.00000000E+00
  0.00000000E+00  0.00000000E+00  0.00000000E+00
  0.00000000E+00  0.00000000E+00  0.00000000E+00
  0.00000000E+00  0.00000000E+00  0.00000000E+00
  0.00000000E+00  0.00000000E+00  0.00000000E+00
  0.00000000E+00  0.00000000E+00  0.00000000E+00
  0.00000000E+00  0.00000000E+00  0.00000000E+00
  0.00000000E+00  0.00000000E+00  0.00000000E+00
  0.00000000E+00  0.00000000E+00  0.00000000E+00
  0.00000000E+00  0.00000000E+00  0.00000000E+00
  0.00000000E+00  0.00000000E+00  0.00000000E+00
  0.00000000E+00  0.00000000E+00  0.00000000E+00
  0.00000000E+00  0.00000000E+00  0.00000000E+00
  0.00000000E+00  0.00000000E+00  0.00000000E+00
  0.00000000E+00  0.00000000E+00  0.00000000E+00
  0.00000000E+00  0.00000000E+00  0.00000000E+00
  0.00000000E+00  0.00000000E+00  0.00000000E+00
  0.00000000E+00  0.00000000E+00  0.00000000E+00
  0.00000000E+00  0.00000000E+00  0.00000000E+00
  0.00000000E+00  0.00000000E+00  0.00000000E+00
  0.00000000E+00  0.00000000E+00  0.00000000E+00
  0.00000000E+00  0.00000000E+00  0.00000000E+00
  0.00000000E+00  0.00000000E+00  0.00000000E+00
  0.00000000E+00  0.00000000E+00  0.00000000E+00
  0.00000000E+00  0.00000000E+00  0.00000000E+00
  0.00000000E+00  0.00000000E+00  0.00000000E+00
  0.00000000E+00  0.00000000E+00  0.00000000E+00
  0.00000000E+00  0.00000000E+00  0.00000000E+00
  0.00000000E+00  0.00000000E+00  0.00000000E+00
  0.00000000E+00  0.00000000E+00  0.00000000E+00
  0.00000000E+00  0.00000000E+00  0.00000000E+00
  0.00000000E+00  0.00000000E+00  0.00000000E+00
  0.00000000E+00  0.00000000E+00  0.00000000E+00
  0.00000000E+00  0.00000000E+00  0.00000000E+00
  0.00000000E+00  0.00000000E+00  0.00000000E+00
  0.00000000E+00  0.00000000E+00  0.00000000E+00
  0.00000000E+00  0.00000000E+00  0.00000000E+00
  0.00000000E+00  0.00000000E+00  0.00000000E+00
  0.00000000E+00  0.00000000E+00  0.00000000E+00
  0.00000000E+00  0.00000000E+00  0.00000000E+00
  0.00000000E+00  0.00000000E+00  0.00000000E+00
  0.00000000E+00  0.00000000E+00  0.00000000E+00
  0.00000000E+00  0.00000000E+00  0.00000000E+00
  0.00000000E+00  0.00000000E+00  0.00000000E+00
  0.00000000E+00  0.00000000E+00  0.00000000E+00
  0.00000000E+00  0.00000000E+00  0.00000000E+00
  0.00000000E+00  0.00000000E+00  0.00000000E+00
  0.00000000E+00  0.00000000E+00  0.00000000E+00
  0.00000000E+00  0.00000000E+00  0.00000000E+00
  0.00000000E+00  0.00000000E+00  0.00000000E+00
  0.00000000E+00  0.00000000E+00  0.00000000E+00
  0.00000000E+00  0.00000000E+00  0.00000000E+00
  0.00000000E+00  0.00000000E+00  0.00000000E+00
  0.00000000E+00  0.00000000E+00  0.00000000E+00
  0.00000000E+00  0.00000000E+00  0.00000000E+00
  0.00000000E+00  0.00000000E+00  0.00000000E+00
  0.00000000E+00  0.00000000E+00  0.00000000E+00
  0.00000000E+00  0.00000000E+00  0.00000000E+00
  0.00000000E+00  0.00000000E+00  0.00000000E+00
  0.00000000E+00  0.00000000E+00  0.00000000E+00
  0.00000000E+00  0.00000000E+00  0.00000000E+00
  0.00000000E+00  0.00000000E+00  0.00000000E+00
  0.00000000E+00  0.00000000E+00  0.00000000E+00
  0.00000000E+00  0.00000000E+00  0.00000000E+00
  0.00000000E+00  0.00000000E+00  0.00000000E+00
  0.00000000E+00  0.00000000E+00  0.00000000E+00
  0.00000000E+00  0.00000000E+00  0.00000000E+00
  0.00000000E+00  0.00000000E+00  0.00000000E+00
  0.00000000E+00  0.00000000E+00  0.00000000E+00
  0.00000000E+00  0.00000000E+00  0.00000000E+00
  0.00000000E+00  0.00000000E+00  0.00000000E+00
  0.00000000E+00  0.00000000E+00  0.00000000E+00
  0.00000000E+00  0.00000000E+00  0.00000000E+00
  0.00000000E+00  0.00000000E+00  0.00000000E+00
  0.00000000E+00  0.00000000E+00  0.00000000E+00
  0.00000000E+00  0.00000000E+00  0.00000000E+00
  0.00000000E+00  0.00000000E+00  0.00000000E+00
  0.00000000E+00  0.00000000E+00  0.00000000E+00
  0.00000000E+00  0.00000000E+00  0.00000000E+00
  0.00000000E+00  0.00000000E+00  0.00000000E+00
  0.00000000E+00  0.00000000E+00  0.00000000E+00
  0.00000000E+00  0.00000000E+00  0.00000000E+00
  0.00000000E+00  0.00000000E+00  0.00000000E+00
  0.00000000E+00  0.00000000E+00  0.00000000E+00
  0.00000000E+00  0.00000000E+00  0.00000000E+00
  0.00000000E+00  0.00000000E+00  0.00000000E+00
  0.00000000E+00  0.00000000E+00  0.00000000E+00
  0.00000000E+00  0.00000000E+00  0.00000000E+00
  0.00000000E+00  0.00000000E+00  0.00000000E+00
  0.00000000E+00  0.00000000E+00  0.00000000E+00
  0.00000000E+00  0.00000000E+00  0.00000000E+00
  0.00000000E+00  0.00000000E+00  0.00000000E+00
  0.00000000E+00  0.00000000E+00  0.00000000E+00
  0.00000000E+00  0.00000000E+00  0.00000000E+00
  0.00000000E+00  0.00000000E+00  0.00000000E+00
  0.00000000E+00  0.00000000E+00  0.00000000E+00
  0.00000000E+00  0.00000000E+00  0.00000000E+00
  0.00000000E+00  0.00000000E+00  0.00000000E+00
  0.00000000E+00  0.00000000E+00  0.00000000E+00
  0.00000000E+00  0.00000000E+00  0.00000000E+00
  0.00000000E+00  0.00000000E+00  0.00000000E+00
  0.00000000E+00  0.00000000E+00  0.00000000E+00
  0.00000000E+00  0.00000000E+00  0.00000000E+00
  0.00000000E+00  0.00000000E+00  0.00000000E+00
  0.00000000E+00  0.00000000E+00  0.00000000E+00
  0.00000000E+00  0.00000000E+00  0.00000000E+00
  0.00000000E+00  0.00000000E+00  0.00000000E+00
  0.00000000E+00  0.00000000E+00  0.00000000E+00
  0.00000000E+00  0.00000000E+00  0.00000000E+00
  0.00000000E+00  0.00000000E+00  0.00000000E+00
  0.00000000E+00  0.00000000E+00  0.00000000E+00
  0.00000000E+00  0.00000000E+00  0.00000000E+00
  0.00000000E+00  0.00000000E+00  0.00000000E+00
  0.00000000E+00  0.00000000E+00  0.00000000E+00
  0.00000000E+00  0.00000000E+00  0.00000000E+00
  0.00000000E+00  0.00000000E+00  0.00000000E+00
  0.00000000E+00  0.00000000E+00  0.00000000E+00
  0.00000000E+00  0.00000000E+00  0.00000000E+00
  0.00000000E+00  0.00000000E+00  0.00000000E+00
  0.00000000E+00  0.00000000E+00  0.00000000E+00
  0.00000000E+00  0.00000000E+00  0.00000000E+00
  0.00000000E+00  0.00000000E+00  0.00000000E+00
  0.00000000E+00  0.00000000E+00  0.00000000E+00
  0.00000000E+00  0.00000000E+00  0.00000000E+00
  0.00000000E+00  0.00000000E+00  0.00000000E+00
  0.00000000E+00  0.00000000E+00  0.00000000E+00
  0.00000000E+00  0.00000000E+00  0.00000000E+00
  0.00000000E+00  0.00000000E+00  0.00000000E+00
  0.00000000E+00  0.00000000E+00  0.00000000E+00
  0.00000000E+00  0.00000000E+00  0.00000000E+00
  0.00000000E+00  0.00000000E+00  0.00000000E+00
  0.00000000E+00  0.00000000E+00  0.00000000E+00
  0.00000000E+00  0.00000000E+00  0.00000000E+00
  0.00000000E+00  0.00000000E+00  0.00000000E+00
  0.00000000E+00  0.00000000E+00  0.00000000E+00
  0.00000000E+00  0.00000000E+00  0.00000000E+00
  0.00000000E+00  0.00000000E+00  0.00000000E+00
  0.00000000E+00  0.00000000E+00  0.00000000E+00
  0.00000000E+00  0.00000000E+00  0.00000000E+00
  0.00000000E+00  0.00000000E+00  0.00000000E+00
  0.00000000E+00  0.00000000E+00  0.00000000E+00
  0.00000000E+00  0.00000000E+00  0.00000000E+00
  0.00000000E+00  0.00000000E+00  0.00000000E+00
  0.00000000E+00  0.00000000E+00  0.00000000E+00
  0.00000000E+00  0.00000000E+00  0.00000000E+00
  0.00000000E+00  0.00000000E+00  0.00000000E+00
  0.00000000E+00  0.00000000E+00  0.00000000E+00
  0.00000000E+00  0.00000000E+00  0.00000000E+00
  0.00000000E+00  0.00000000E+00  0.00000000E+00
  0.00000000E+00  0.00000000E+00  0.00000000E+00
  0.00000000E+00  0.00000000E+00  0.00000000E+00
  0.00000000E+00  0.00000000E+00  0.00000000E+00
  0.00000000E+00  0.00000000E+00  0.00000000E+00
  0.00000000E+00  0.00000000E+00  0.00000000E+00
  0.00000000E+00  0.00000000E+00  0.00000000E+00
  0.00000000E+00  0.00000000E+00  0.00000000E+00
  0.00000000E+00  0.00000000E+00  0.00000000E+00
  0.00000000E+00  0.00000000E+00  0.00000000E+00
  0.00000000E+00  0.00000000E+00  0.00000000E+00
  0.00000000E+00  0.00000000E+00  0.00000000E+00
  0.00000000E+00  0.00000000E+00  0.00000000E+00
  0.00000000E+00  0.00000000E+00  0.00000000E+00
  0.00000000E+00  0.00000000E+00  0.00000000E+00
  0.00000000E+00  0.00000000E+00  0.00000000E+00
  0.00000000E+00  0.00000000E+00  0.00000000E+00
  0.00000000E+00  0.00000000E+00  0.00000000E+00
  0.00000000E+00  0.00000000E+00  0.00000000E+00
  0.00000000E+00  0.00000000E+00  0.00000000E+00
  0.00000000E+00  0.00000000E+00  0.00000000E+00
  0.00000000E+00  0.00000000E+00  0.00000000E+00
  0.00000000E+00  0.00000000E+00  0.00000000E+00
  0.00000000E+00  0.00000000E+00  0.00000000E+00
  0.00000000E+00  0.00000000E+00  0.00000000E+00
  0.00000000E+00  0.00000000E+00  0.00000000E+00
  0.00000000E+00  0.00000000E+00  0.00000000E+00
  0.00000000E+00  0.00000000E+00  0.00000000E+00
  0.00000000E+00  0.00000000E+00  0.00000000E+00
  0.00000000E+00  0.00000000E+00  0.00000000E+00
  0.00000000E+00  0.00000000E+00  0.00000000E+00
  0.00000000E+00  0.00000000E+00  0.00000000E+00
  0.00000000E+00  0.00000000E+00  0.00000000E+00
  0.00000000E+00  0.00000000E+00  0.00000000E+00
  0.00000000E+00  0.00000000E+00  0.00000000E+00
  0.00000000E+00  0.00000000E+00  0.00000000E+00
  0.00000000E+00  0.00000000E+00  0.00000000E+00
  0.00000000E+00  0.00000000E+00  0.00000000E+00
  0.00000000E+00  0.00000000E+00  0.00000000E+00
  0.00000000E+00  0.00000000E+00  0.00000000E+00
  0.00000000E+00  0.00000000E+00  0.00000000E+00
  0.00000000E+00  0.00000000E+00  0.00000000E+00
  0.00000000E+00  0.00000000E+00  0.00000000E+00
  0.00000000E+00  0.00000000E+00  0.00000000E+00
  0.00000000E+00  0.00000000E+00  0.00000000E+00
  0.00000000E+00  0.00000000E+00  0.00000000E+00
  0.00000000E+00  0.00000000E+00  0.00000000E+00
  0.00000000E+00  0.00000000E+00  0.00000000E+00
  0.00000000E+00  0.00000000E+00  0.00000000E+00
  0.00000000E+00  0.00000000E+00  0.00000000E+00
  0.00000000E+00  0.00000000E+00  0.00000000E+00
  0.00000000E+00  0.00000000E+00  0.00000000E+00
  0.00000000E+00  0.00000000E+00  0.00000000E+00
  0.00000000E+00  0.00000000E+00  0.00000000E+00
  0.00000000E+00  0.00000000E+00  0.00000000E+00
  0.00000000E+00  0.00000000E+00  0.00000000E+00
  0.00000000E+00  0.00000000E+00  0.00000000E+00
  0.00000000E+00  0.00000000E+00  0.00000000E+00
  0.00000000E+00  0.00000000E+00  0.00000000E+00
  0.00000000E+00  0.00000000E+00  0.00000000E+00
  0.00000000E+00  0.00000000E+00  0.00000000E+00
  0.00000000E+00  0.00000000E+00  0.00000000E+00