CuInSe2gb                               
   1.00000000000000     
     9.7266780392896699    0.0000000000000000    0.0000000000000000
     0.0000000000000000    8.4235502764570693    0.0000000000000000
     0.0000000000000000    0.0000000000000000   45.0000000000000000
   Fe   Mn
   281     7
Direct
  0.0547090795935415  0.6995196421040107  0.2120765427454488
  0.3161712005208456  0.7227723427465382  0.8764781457022506
  0.6885009590861596  0.9591067945288332  0.6114508233375047
  0.4368276448457681  0.4562706251403266  0.6116629925468841
  0.4401581204703208  0.2884137185613667  0.2534689495853908
  0.0583228970033397  0.3876058581282601  0.8336760547213619
  0.3092606463884840  0.8893607662924295  0.8334958005533162
  0.4452828950403472  0.6265395233736116  0.7000538745006445
  0.0609003623091976  0.2113366644586674  0.7452932016493338
  0.1807397908507578  0.4513279744385744  0.2116566749013004
  0.5671000154206098  0.2101792138629454  0.4775275215014814
  0.0661766672507132  0.8757639249889582  0.5668666478397132
  0.5678124798076942  0.2241092606267738  0.8759496875331302
  0.8112800403216293  0.5256468863606367  0.1253350111832792
  0.4297983852673737  0.9495297370666835  0.2118591104009279
  0.5668063765965686  0.3742079038446507  0.5668241485788049
  0.8110397531424663  0.0396804607422153  0.3886728598255686
  0.6828205110975041  0.7890160650059304  0.5222158975097920
  0.4425180810528082  0.4598415829969260  0.4776565376122600
  0.4343387783300295  0.9629912659813010  0.7450922613849670
  0.4405410005193245  0.6247161859076993  0.5666521838420805
  0.5708345397983633  0.8783852189514340  0.7003071966414064
  0.3122719381064681  0.0267163201166624  0.1251976526300173
  0.6889830144235780  0.9584482611303451  0.3431206049789819
  0.6869658558678228  0.7851227669305120  0.1255279587326007
  0.0537924946043763  0.3738722941517608  0.2978044991210067
  0.6910481884776868  0.4679044474004548  0.8761364373547703
  0.4292918079160378  0.4513410850517920  0.2115541141603528
  0.8087226505264774  0.3752435430355397  0.4335665074528544
  0.5638088987914183  0.7078591169823882  0.6115898803574407
  0.5591207063547834  0.5397173708601127  0.6559333565664539
  0.8145102496681383  0.8632224364422934  0.1688119182848977
  0.5652776051807075  0.5377433805266466  0.2531635390605837
  0.6901730150966509  0.4602791746210796  0.3431628665474458
  0.1928507596404571  0.6111578018374371  0.1686333423792570
  0.1950909433122094  0.8004105803613659  0.7886359206917553
  0.4467301292694165  0.1259866503257644  0.7001601086892957
  0.9278254155545930  0.6237144613658223  0.2976992074287930
  0.3164138442599799  0.2237375534161358  0.8760141019828539
  0.3150511867687182  0.8762664315843389  0.5667896632465476
  0.8189482225721989  0.2247669945866690  0.8763063986099364
  0.8099394817352572  0.5404710535311008  0.6556283243960559
  0.5574209655938001  0.5252840619606508  0.1250719811307402
  0.5676269046647127  0.0502038381251470  0.7888912594516043
  0.1889562124369030  0.2880276422567253  0.2536747919452816
  0.8081572498270049  0.8747263517472823  0.4330326664862628
  0.5722027443797533  0.3740164941090252  0.7003681916064283
  0.0575846663452797  0.0282939607142657  0.1250075218639742
  0.3096161379162352  0.5395481139033026  0.6558669155428949
  0.5647845955062344  0.2080730980155031  0.3430168639643334
  0.1874937588260829  0.9591367430779028  0.6113203404803249
  0.3031736632025417  0.3751251808594202  0.2980125077743574
  0.4343111625140978  0.7916960142002969  0.6560846034507734
  0.1953011378859077  0.2967746205287368  0.7888359608017338
  0.0668475263732593  0.3630456113314005  0.1686022799608302
  0.6965857687917740  0.6260466095186217  0.7004465747200305
  0.3105444048045194  0.5434255615617992  0.3881688732414035
  0.0659521675797080  0.7221007367288961  0.8766108844469395
  0.9339226466641163  0.6359638441641214  0.8338895162011093
  0.3193143023858577  0.5480605410762389  0.7889684756241480
  0.3057290097623304  0.2022392656071753  0.2114194989059861
  0.0671006542669723  0.7095708732279224  0.4775490758157556
  0.5553354695510735  0.2018721444973878  0.2117701418328124
  0.3096549909420908  0.2114662807306483  0.7452510909713848
  0.0722011505295170  0.3739809153938649  0.7004841580077575
  0.1827274175565817  0.6361230180061686  0.8338314534260820
  0.0709148019069040  0.0513823284664054  0.7889169717196231
  0.4403292427828450  0.1255203607892272  0.5669495635301049
  0.9352572851242900  0.2901851715206170  0.6559008924935059
  0.8039990503064969  0.2023711482317523  0.2118164262822597
  0.9287983299463162  0.9516417644372710  0.2121309570629512
  0.9416536206609201  0.6248412445297160  0.5667010254378100
  0.8094202004235729  0.3880139642499472  0.8339260467219061
  0.1978816757388372  0.6260822266234393  0.7002076188783436
  0.8093640978221543  0.8869588509791325  0.8339103702116264
  0.6844473139856857  0.2898540674635131  0.6560384332755439
  0.3118880121663597  0.2076278945791186  0.6115174502410282
  0.4355768727522462  0.4606948012376726  0.7453639666349573
  0.4366769725003503  0.7927955089473757  0.3884974244455821
  0.6849936160466620  0.9634183067995772  0.7448337525824160
  0.8035997340821749  0.6990878994298061  0.2120355135326256
  0.8139271651092395  0.7078760887550800  0.6113766383029674
  0.4367001985394048  0.7863909602905583  0.1254356930906589
  0.3094347145941147  0.7121700602989698  0.7448688494069616
  0.3206942995203461  0.0513791025997018  0.7890364839352921
  0.8123450597445617  0.5434521513717655  0.3883635742195366
  0.6831566969219720  0.2890041231433244  0.5222025840203526
  0.6954280560860119  0.7980326465459013  0.7887689967318139
  0.1899736665282241  0.7868498825732946  0.2536701545214353
  0.6906146612191153  0.1136783448034242  0.1682188253899461
  0.6914738334619684  0.9599719306821292  0.4773141177233403
  0.9405251302523642  0.9581874875740786  0.3430458427791249
  0.8081441904420451  0.0395255587737428  0.5226250531556970
  0.6841889358429815  0.6264576566683199  0.4333339010028333
  0.4386878551386130  0.4607589180805832  0.3430609448316025
  0.8108832305518089  0.2111707835443075  0.7446051568232636
  0.4384257053468523  0.9682807431870520  0.8761092209449975
  0.5664400987796052  0.8756709021152419  0.5666493819185734
  0.8106654355839952  0.0302929598230240  0.1250620550107798
  0.4278620370925335  0.6250039092902585  0.2978944673667281
  0.8187444778905898  0.7218112212907322  0.8765641695560520
  0.6885786124266953  0.4569587567471590  0.6112948798855519
  0.5586410039596835  0.3871708901480812  0.8332168100969914
  0.8039323302751170  0.3739575336139294  0.2974388244924101
  0.1863998628943845  0.2916942845365932  0.3881679072806960
  0.8207425729371497  0.5500269125670658  0.7890531259169824
  0.1819899232878498  0.7894314078630590  0.5224594386273497
  0.3036167422562943  0.8734679008373947  0.2980593239387418
  0.1804360515651203  0.9502311869748694  0.2120559026354847
  0.1842653566357907  0.4611033387728938  0.7454544189790744
  0.4323825376412934  0.2889030855636444  0.5221224147941901
  0.0659183888716811  0.7091558416518682  0.3433519181930640
  0.1854926975005278  0.7912093343412542  0.6558466410470979
  0.4452982048888560  0.8001611380932564  0.7888520564073689
  0.6832565330438256  0.1237784327767621  0.4333270915991229
  0.9326803910242769  0.7883275806085803  0.5225052427976997
  0.6913889134373874  0.6115933096008453  0.1688137941246578
  0.8150444807578340  0.7101161722959120  0.3431450048334101
  0.9339543943940822  0.4614409471669162  0.7455923774100924
  0.1898369161444323  0.4602050357840549  0.3432691665029388
  0.5707024089771454  0.5487402577816816  0.7891046689041352
  0.5645437129267562  0.3611530166528342  0.1686056601508469
  0.5641743918353239  0.7107234763579385  0.3432350808469277
  0.5526853457047922  0.3745467298132911  0.2977901206265701
  0.1870051110555443  0.4675009106237864  0.8764126147220843
  0.1925624459926062  0.1135142292587709  0.1680965802245260
  0.4445878800093964  0.2970275339809219  0.7890039096324526
  0.6896655164909128  0.7865539310676746  0.2536658485774437
  0.9353319003131797  0.1378469459344320  0.8336473298084222
  0.4423002325234040  0.9600957518278421  0.4773443160631024
  0.5683639206385019  0.7225013697200823  0.8762042940400944
  0.1917543511899322  0.4603584658484763  0.4777440627443884
  0.9334003872190929  0.2804245986587915  0.1253326879197622
  0.3117938978381946  0.0397288965982586  0.3883780744126271
  0.0610506173477400  0.0410011673742808  0.6559133538278508
  0.5599523618591684  0.3747130080785011  0.4335755982062725
  0.6859695331480128  0.4608727089238061  0.7454543301003658
  0.5620186235754822  0.2117390095583178  0.7450883362015316
  0.9465680536478512  0.1272575105221290  0.7006307671175527
  0.5599772521907562  0.0415856455604118  0.6560318130879602
  0.5582054294083896  0.5393124020417501  0.5221237917483530
  0.1784204761058632  0.1237023428450208  0.2979534170379040
  0.4394368679075141  0.1121003252251404  0.1678661171453913
  0.6781888362036436  0.6251275099820288  0.2975314005663811
  0.9279255853891765  0.1231831868775801  0.2977479671964760
  0.8176203448230284  0.3748478941252966  0.5668099623166718
  0.0535030579078409  0.8738523529278781  0.2979574813815911
  0.1899930911881960  0.6244648936450851  0.5668278505635931
  0.9443630746072450  0.7982629992247390  0.7888145032842282
  0.3087723394140415  0.3857298726471909  0.8334624082334390
  0.9397985045543833  0.4689488020655208  0.8764393037895761
  0.4351257082797569  0.6367460425391136  0.8335033395979711
  0.0658606330534159  0.2100607077901493  0.3430702326409673
  0.1878404892070200  0.9670852850732967  0.8763181246847979
  0.9347373496146233  0.7833799338670476  0.1254058053847893
  0.6862100925132385  0.7926786734374880  0.3887003849976401
  0.9354074373356011  0.7911392226526284  0.6555670026365968
  0.9387099770025564  0.1138136282379576  0.1683205636830616
  0.4341843876556752  0.2900992930496541  0.6559635158038709
  0.0540891594261766  0.2020897898762929  0.2120117650488759
  0.6797126476891624  0.9516032112708944  0.2117585710786625
  0.1790737130788810  0.6240502399641213  0.2980382514278838
  0.8208176502416739  0.8784480937645810  0.7004084842326624
  0.9471126219350398  0.6258317460457040  0.7004467584963264
  0.1964505013049270  0.1264537025044036  0.7001096005549166
  0.9423465827244697  0.4610144592035451  0.4776127371115035
  0.8132471048849956  0.2083230849595148  0.6111923132849068
  0.1833102529176729  0.6264293159243087  0.4331984223485634
  0.4281878899338472  0.1229761647050847  0.2979083830151915
  0.6787481313751830  0.1223523018941901  0.2976662421744203
  0.5618721664359064  0.5439865519842076  0.3884802276825713
  0.8150711410903535  0.2087870462232274  0.3429976560150984
  0.4384958774029852  0.4677765313977782  0.8760067862793447
  0.5588521485377412  0.8882850385902328  0.8330874210742394
  0.3175009623746916  0.2101914684839291  0.4776884469011410
  0.1928240865831543  0.9602027683766933  0.4775197576611784
  0.0580669394015502  0.8886467029138246  0.8338880725575235
  0.0569574985967426  0.5387725665392232  0.5224300181043287
  0.9425813541415712  0.9598352059938765  0.4774213782670912
  0.0627200647032482  0.7082462910393553  0.6113622029004091
  0.5573049909195903  0.0391568526438484  0.5221045944452432
  0.6941103077942813  0.2993666434726923  0.7886940297435996
  0.8146986809280441  0.3619445925596578  0.1687388620280642
  0.4347955859207784  0.1230710058132075  0.4334526871773662
  0.0677427312848180  0.2110562040214219  0.4777029862995908
  0.3098630996793331  0.0418775400842629  0.6559041438834152
  0.4320127234226153  0.7896653163232360  0.5221145560431484
  0.1838274223211352  0.1383989113357535  0.8331940129965936
  0.1875182577833531  0.2831041608966658  0.1257053717721717
  0.9415006029601809  0.4606962530872216  0.3431737316151138
  0.5637958926196733  0.8639438280888853  0.1679945749538636
  0.3046837384154786  0.7004833398113978  0.2117976819856475
  0.9391085520121868  0.6112868114912199  0.1687561864419465
  0.1870638056227645  0.4566612751148016  0.6113397068025306
  0.0728979950102258  0.8780869269732910  0.7001227660325624
  0.0616292360188364  0.5405409648580167  0.6556617382083531
  0.3108738939695720  0.5251059086417845  0.1254012067616360
  0.9379931194576500  0.7918426537068670  0.3886681100811283
  0.9477764821064398  0.2984040301729226  0.7888211685630448
  0.1864426493594543  0.2900342756937223  0.6558608080591950
  0.9384687879210480  0.9585421270156244  0.6111734016037517
  0.8109855778905518  0.7111062841054462  0.7454108902477399
  0.6899147299156209  0.2893476627458325  0.2531994614281387
  0.0604913198976305  0.7118276681144617  0.7454178454373774
  0.6804278381831184  0.4514066212428104  0.2121299878395801
  0.8168449932263071  0.2109878445037170  0.4776180305664433
  0.5673397989762140  0.7106872095718382  0.4774547666879629
  0.0679336979630634  0.8634766730645352  0.1683596212540218
  0.9329606970090395  0.2892686216547496  0.5225534223120880
  0.6851044118678988  0.7915914551123256  0.6559213474995544
  0.0587323914571817  0.8741374555253585  0.4330031301099446
  0.0665073007876052  0.2246567711240054  0.8761092491957237
  0.8095432488186802  0.0412319879646428  0.6560059196565485
  0.5609643213234794  0.0280654562852540  0.1250548987828813
  0.3082889353281578  0.3748205505503427  0.4333771832856594
  0.3147968634372487  0.3739109886827670  0.5668948430176277
  0.3172502234531528  0.7108318981099350  0.4774994869505743
  0.0573376570544006  0.0395432233745018  0.5226869383152278
  0.3215234931352227  0.8774666926255485  0.7002543135372252
  0.0628800729290098  0.5369710319604959  0.2533732249803702
  0.6836157479415723  0.1386554785907447  0.8334553026744710
  0.8136465057771091  0.0381755921435592  0.2537022506510237
  0.1838025699907206  0.1243349425476155  0.4332269974672898
  0.6971683599276671  0.1268677584544421  0.7005267240588423
  0.1825091997381222  0.2893746950011523  0.5224875038597683
  0.4393316851721832  0.7868221076645238  0.2536141821612646
  0.4385966315617533  0.6107079050053136  0.1677968009907230
  0.0634544162694992  0.2081541024575834  0.6110734071530654
  0.1866408461235722  0.7919443540383836  0.3882223824741690
  0.3067643846684043  0.5385861682298079  0.5222970685705753
  0.8210139144454283  0.3736710239130642  0.7003719537276122
  0.6871198802491323  0.2903890049797282  0.3887363767748737
  0.1903466435838140  0.1252511482913061  0.5669780698780348
  0.6913741576967103  0.9679291574896778  0.8763787686555958
  0.6923584030893847  0.1258346909815379  0.5668297219442386
  0.4395022484461837  0.9585900808368418  0.3433610568525709
  0.1836580270243138  0.9637692490677492  0.7449900829160176
  0.9383338966045564  0.7869642061008264  0.2535926117577955
  0.5590784125524603  0.8753329177348103  0.4330307112476111
  0.3098772677933939  0.8745533066723705  0.4330022170535250
  0.8083853628886895  0.5391564868349747  0.5224146951100604
  0.9275367268247020  0.4518508803965194  0.2121505289622039
  0.3148339227259977  0.5390930508598317  0.2535294264974240
  0.5621812968017084  0.0390814341902497  0.3887955650272356
  0.9384729234004121  0.4573399471976803  0.6111477098089549
  0.0632647392114865  0.0403342820853659  0.3885348766404438
  0.0628552461730708  0.5429657098454842  0.3880943218125703
  0.4357698154243051  0.2905751492044995  0.3883371405106602
  0.6923586296682900  0.4605415033893395  0.4775557296807706
  0.0660701700892090  0.3745607240862023  0.5669206116647668
  0.5541848002245895  0.6997729337298034  0.2119454537074541
  0.9375263743271687  0.2886679578048495  0.2534537865702290
  0.8199371050301695  0.0495853511602439  0.7889001811152513
  0.1908340769127056  0.9583304823171050  0.3432602227413736
  0.5535044451653360  0.8736474977064808  0.2979446964126297
  0.0584172920675653  0.3751782167231105  0.4332989467273314
  0.3145408108427111  0.7101263053799111  0.3432221731923652
  0.3138703086846707  0.2094213689790325  0.3432149062210650
  0.9421019732833059  0.1256062901700660  0.5667895714409030
  0.4366627063688157  0.9601052469179893  0.6116119084143956
  0.5645575188477709  0.0376405547357125  0.2534980884854534
  0.1893458164191673  0.7847302081028761  0.1255952316419900
  0.0641687665695713  0.0376408406379334  0.2535067225582435
  0.6930723454208751  0.6246048912949119  0.5667199177519776
  0.0566525960243052  0.5247396891330816  0.1253636070689916
  0.3072692644926456  0.0389598526614413  0.5222959301215340
  0.6883263639052131  0.2795844231705082  0.1255102477467607
  0.8171900370413974  0.7097348122946228  0.4774808110568620
  0.4338199408906944  0.1388204089633252  0.8329235920480941
  0.3210273709156618  0.3748188618047654  0.6999621840061983
  0.6847042809143746  0.6366694710867727  0.8334604825921929
  0.5615393008526535  0.7123068706353380  0.7451720270107863
  0.9382860066947785  0.2920051275160615  0.3886145419380883
  0.9397051019635865  0.9674025668499442  0.8765631802899697
  0.5620649703309802  0.2077786468928577  0.6114593477029086
  0.8177679907647164  0.8751543322225557  0.5667209576929142
  0.8030261160159480  0.8746441929954355  0.2975968158525282
  0.3149554278177293  0.0369514750096208  0.2534723883425822
  0.4359191368619053  0.2824621796750322  0.1254107996070596
  0.3114167920299568  0.7080874714713604  0.6115824862536584
  0.4342849980497242  0.6271101659128834  0.4332355658276424
  0.9324145060491009  0.6266440886570259  0.4336453558671944
  0.3189458421511915  0.8628114011403315  0.1680339252497149
  0.0702812595328145  0.5470085690270802  0.7889761740981721
  0.9321416212063452  0.1239393866290811  0.4334942150212328
  0.3183146051832848  0.3627754132412295  0.1685715395364352
  0.9347377441190554  0.9644257788398671  0.7448972574262777
  0.8136025745659903  0.5369161566920677  0.2529939435825832
 
  0.00000000E+00  0.00000000E+00  0.00000000E+00
  0.00000000E+00  0.00000000E+00  0.00000000E+00
  0.00000000E+00  0.00000000E+00  0.00000000E+00
  0.00000000E+00  0.00000000E+00  0.00000000E+00
  0.00000000E+00  0.00000000E+00  0.00000000E+00
  0.00000000E+00  0.00000000E+00  0.00000000E+00
  0.00000000E+00  0.00000000E+00  0.00000000E+00
  0.00000000E+00  0.00000000E+00  0.00000000E+00
  0.00000000E+00  0.00000000E+00  0.00000000E+00
  0.00000000E+00  0.00000000E+00  0.00000000E+00
  0.00000000E+00  0.00000000E+00  0.00000000E+00
  0.00000000E+00  0.00000000E+00  0.00000000E+00
  0.00000000E+00  0.00000000E+00  0.00000000E+00
  0.00000000E+00  0.00000000E+00  0.00000000E+00
  0.00000000E+00  0.00000000E+00  0.00000000E+00
  0.00000000E+00  0.00000000E+00  0.00000000E+00
  0.00000000E+00  0.00000000E+00  0.00000000E+00
  0.00000000E+00  0.00000000E+00  0.00000000E+00
  0.00000000E+00  0.00000000E+00  0.00000000E+00
  0.00000000E+00  0.00000000E+00  0.00000000E+00
  0.00000000E+00  0.00000000E+00  0.00000000E+00
  0.00000000E+00  0.00000000E+00  0.00000000E+00
  0.00000000E+00  0.00000000E+00  0.00000000E+00
  0.00000000E+00  0.00000000E+00  0.00000000E+00
  0.00000000E+00  0.00000000E+00  0.00000000E+00
  0.00000000E+00  0.00000000E+00  0.00000000E+00
  0.00000000E+00  0.00000000E+00  0.00000000E+00
  0.00000000E+00  0.00000000E+00  0.00000000E+00
  0.00000000E+00  0.00000000E+00  0.00000000E+00
  0.00000000E+00  0.00000000E+00  0.00000000E+00
  0.00000000E+00  0.00000000E+00  0.00000000E+00
  0.00000000E+00  0.00000000E+00  0.00000000E+00
  0.00000000E+00  0.00000000E+00  0.00000000E+00
  0.00000000E+00  0.00000000E+00  0.00000000E+00
  0.00000000E+00  0.00000000E+00  0.00000000E+00
  0.00000000E+00  0.00000000E+00  0.00000000E+00
  0.00000000E+00  0.00000000E+00  0.00000000E+00
  0.00000000E+00  0.00000000E+00  0.00000000E+00
  0.00000000E+00  0.00000000E+00  0.00000000E+00
  0.00000000E+00  0.00000000E+00  0.00000000E+00
  0.00000000E+00  0.00000000E+00  0.00000000E+00
  0.00000000E+00  0.00000000E+00  0.00000000E+00
  0.00000000E+00  0.00000000E+00  0.00000000E+00
  0.00000000E+00  0.00000000E+00  0.00000000E+00
  0.00000000E+00  0.00000000E+00  0.00000000E+00
  0.00000000E+00  0.00000000E+00  0.00000000E+00
  0.00000000E+00  0.00000000E+00  0.00000000E+00
  0.00000000E+00  0.00000000E+00  0.00000000E+00
  0.00000000E+00  0.00000000E+00  0.00000000E+00
  0.00000000E+00  0.00000000E+00  0.00000000E+00
  0.00000000E+00  0.00000000E+00  0.00000000E+00
  0.00000000E+00  0.00000000E+00  0.00000000E+00
  0.00000000E+00  0.00000000E+00  0.00000000E+00
  0.00000000E+00  0.00000000E+00  0.00000000E+00
  0.00000000E+00  0.00000000E+00  0.00000000E+00
  0.00000000E+00  0.00000000E+00  0.00000000E+00
  0.00000000E+00  0.00000000E+00  0.00000000E+00
  0.00000000E+00  0.00000000E+00  0.00000000E+00
  0.00000000E+00  0.00000000E+00  0.00000000E+00
  0.00000000E+00  0.00000000E+00  0.00000000E+00
  0.00000000E+00  0.00000000E+00  0.00000000E+00
  0.00000000E+00  0.00000000E+00  0.00000000E+00
  0.00000000E+00  0.00000000E+00  0.00000000E+00
  0.00000000E+00  0.00000000E+00  0.00000000E+00
  0.00000000E+00  0.00000000E+00  0.00000000E+00
  0.00000000E+00  0.00000000E+00  0.00000000E+00
  0.00000000E+00  0.00000000E+00  0.00000000E+00
  0.00000000E+00  0.00000000E+00  0.00000000E+00
  0.00000000E+00  0.00000000E+00  0.00000000E+00
  0.00000000E+00  0.00000000E+00  0.00000000E+00
  0.00000000E+00  0.00000000E+00  0.00000000E+00
  0.00000000E+00  0.00000000E+00  0.00000000E+00
  0.00000000E+00  0.00000000E+00  0.00000000E+00
  0.00000000E+00  0.00000000E+00  0.00000000E+00
  0.00000000E+00  0.00000000E+00  0.00000000E+00
  0.00000000E+00  0.00000000E+00  0.00000000E+00
  0.00000000E+00  0.00000000E+00  0.00000000E+00
  0.00000000E+00  0.00000000E+00  0.00000000E+00
  0.00000000E+00  0.00000000E+00  0.00000000E+00
  0.00000000E+00  0.00000000E+00  0.00000000E+00
  0.00000000E+00  0.00000000E+00  0.00000000E+00
  0.00000000E+00  0.00000000E+00  0.00000000E+00
  0.00000000E+00  0.00000000E+00  0.00000000E+00
  0.00000000E+00  0.00000000E+00  0.00000000E+00
  0.00000000E+00  0.00000000E+00  0.00000000E+00
  0.00000000E+00  0.00000000E+00  0.00000000E+00
  0.00000000E+00  0.00000000E+00  0.00000000E+00
  0.00000000E+00  0.00000000E+00  0.00000000E+00
  0.00000000E+00  0.00000000E+00  0.00000000E+00
  0.00000000E+00  0.00000000E+00  0.00000000E+00
  0.00000000E+00  0.00000000E+00  0.00000000E+00
  0.00000000E+00  0.00000000E+00  0.00000000E+00
  0.00000000E+00  0.00000000E+00  0.00000000E+00
  0.00000000E+00  0.00000000E+00  0.00000000E+00
  0.00000000E+00  0.00000000E+00  0.00000000E+00
  0.00000000E+00  0.00000000E+00  0.00000000E+00
  0.00000000E+00  0.00000000E+00  0.00000000E+00
  0.00000000E+00  0.00000000E+00  0.00000000E+00
  0.00000000E+00  0.00000000E+00  0.00000000E+00
  0.00000000E+00  0.00000000E+00  0.00000000E+00
  0.00000000E+00  0.00000000E+00  0.00000000E+00
  0.00000000E+00  0.00000000E+00  0.00000000E+00
  0.00000000E+00  0.00000000E+00  0.00000000E+00
  0.00000000E+00  0.00000000E+00  0.00000000E+00
  0.00000000E+00  0.00000000E+00  0.00000000E+00
  0.00000000E+00  0.00000000E+00  0.00000000E+00
  0.00000000E+00  0.00000000E+00  0.00000000E+00
  0.00000000E+00  0.00000000E+00  0.00000000E+00
  0.00000000E+00  0.00000000E+00  0.00000000E+00
  0.00000000E+00  0.00000000E+00  0.00000000E+00
  0.00000000E+00  0.00000000E+00  0.00000000E+00
  0.00000000E+00  0.00000000E+00  0.00000000E+00
  0.00000000E+00  0.00000000E+00  0.00000000E+00
  0.00000000E+00  0.00000000E+00  0.00000000E+00
  0.00000000E+00  0.00000000E+00  0.00000000E+00
  0.00000000E+00  0.00000000E+00  0.00000000E+00
  0.00000000E+00  0.00000000E+00  0.00000000E+00
  0.00000000E+00  0.00000000E+00  0.00000000E+00
  0.00000000E+00  0.00000000E+00  0.00000000E+00
  0.00000000E+00  0.00000000E+00  0.00000000E+00
  0.00000000E+00  0.00000000E+00  0.00000000E+00
  0.00000000E+00  0.00000000E+00  0.00000000E+00
  0.00000000E+00  0.00000000E+00  0.00000000E+00
  0.00000000E+00  0.00000000E+00  0.00000000E+00
  0.00000000E+00  0.00000000E+00  0.00000000E+00
  0.00000000E+00  0.00000000E+00  0.00000000E+00
  0.00000000E+00  0.00000000E+00  0.00000000E+00
  0.00000000E+00  0.00000000E+00  0.00000000E+00
  0.00000000E+00  0.00000000E+00  0.00000000E+00
  0.00000000E+00  0.00000000E+00  0.00000000E+00
  0.00000000E+00  0.00000000E+00  0.00000000E+00
  0.00000000E+00  0.00000000E+00  0.00000000E+00
  0.00000000E+00  0.00000000E+00  0.00000000E+00
  0.00000000E+00  0.00000000E+00  0.00000000E+00
  0.00000000E+00  0.00000000E+00  0.00000000E+00
  0.00000000E+00  0.00000000E+00  0.00000000E+00
  0.00000000E+00  0.00000000E+00  0.00000000E+00
  0.00000000E+00  0.00000000E+00  0.00000000E+00
  0.00000000E+00  0.00000000E+00  0.00000000E+00
  0.00000000E+00  0.00000000E+00  0.00000000E+00
  0.00000000E+00  0.00000000E+00  0.00000000E+00
  0.00000000E+00  0.00000000E+00  0.00000000E+00
  0.00000000E+00  0.00000000E+00  0.00000000E+00
  0.00000000E+00  0.00000000E+00  0.00000000E+00
  0.00000000E+00  0.00000000E+00  0.00000000E+00
  0.00000000E+00  0.00000000E+00  0.00000000E+00
  0.00000000E+00  0.00000000E+00  0.00000000E+00
  0.00000000E+00  0.00000000E+00  0.00000000E+00
  0.00000000E+00  0.00000000E+00  0.00000000E+00
  0.00000000E+00  0.00000000E+00  0.00000000E+00
  0.00000000E+00  0.00000000E+00  0.00000000E+00
  0.00000000E+00  0.00000000E+00  0.00000000E+00
  0.00000000E+00  0.00000000E+00  0.00000000E+00
  0.00000000E+00  0.00000000E+00  0.00000000E+00
  0.00000000E+00  0.00000000E+00  0.00000000E+00
  0.00000000E+00  0.00000000E+00  0.00000000E+00
  0.00000000E+00  0.00000000E+00  0.00000000E+00
  0.00000000E+00  0.00000000E+00  0.00000000E+00
  0.00000000E+00  0.00000000E+00  0.00000000E+00
  0.00000000E+00  0.00000000E+00  0.00000000E+00
  0.00000000E+00  0.00000000E+00  0.00000000E+00
  0.00000000E+00  0.00000000E+00  0.00000000E+00
  0.00000000E+00  0.00000000E+00  0.00000000E+00
  0.00000000E+00  0.00000000E+00  0.00000000E+00
  0.00000000E+00  0.00000000E+00  0.00000000E+00
  0.00000000E+00  0.00000000E+00  0.00000000E+00
  0.00000000E+00  0.00000000E+00  0.00000000E+00
  0.00000000E+00  0.00000000E+00  0.00000000E+00
  0.00000000E+00  0.00000000E+00  0.00000000E+00
  0.00000000E+00  0.00000000E+00  0.00000000E+00
  0.00000000E+00  0.00000000E+00  0.00000000E+00
  0.00000000E+00  0.00000000E+00  0.00000000E+00
  0.00000000E+00  0.00000000E+00  0.00000000E+00
  0.00000000E+00  0.00000000E+00  0.00000000E+00
  0.00000000E+00  0.00000000E+00  0.00000000E+00
  0.00000000E+00  0.00000000E+00  0.00000000E+00
  0.00000000E+00  0.00000000E+00  0.00000000E+00
  0.00000000E+00  0.00000000E+00  0.00000000E+00
  0.00000000E+00  0.00000000E+00  0.00000000E+00
  0.00000000E+00  0.00000000E+00  0.00000000E+00
  0.00000000E+00  0.00000000E+00  0.00000000E+00
  0.00000000E+00  0.00000000E+00  0.00000000E+00
  0.00000000E+00  0.00000000E+00  0.00000000E+00
  0.00000000E+00  0.00000000E+00  0.00000000E+00
  0.00000000E+00  0.00000000E+00  0.00000000E+00
  0.00000000E+00  0.00000000E+00  0.00000000E+00
  0.00000000E+00  0.00000000E+00  0.00000000E+00
  0.00000000E+00  0.00000000E+00  0.00000000E+00
  0.00000000E+00  0.00000000E+00  0.00000000E+00
  0.00000000E+00  0.00000000E+00  0.00000000E+00
  0.00000000E+00  0.00000000E+00  0.00000000E+00
  0.00000000E+00  0.00000000E+00  0.00000000E+00
  0.00000000E+00  0.00000000E+00  0.00000000E+00
  0.00000000E+00  0.00000000E+00  0.00000000E+00
  0.00000000E+00  0.00000000E+00  0.00000000E+00
  0.00000000E+00  0.00000000E+00  0.00000000E+00
  0.00000000E+00  0.00000000E+00  0.00000000E+00
  0.00000000E+00  0.00000000E+00  0.00000000E+00
  0.00000000E+00  0.00000000E+00  0.00000000E+00
  0.00000000E+00  0.00000000E+00  0.00000000E+00
  0.00000000E+00  0.00000000E+00  0.00000000E+00
  0.00000000E+00  0.00000000E+00  0.00000000E+00
  0.00000000E+00  0.00000000E+00  0.00000000E+00
  0.00000000E+00  0.00000000E+00  0.00000000E+00
  0.00000000E+00  0.00000000E+00  0.00000000E+00
  0.00000000E+00  0.00000000E+00  0.00000000E+00
  0.00000000E+00  0.00000000E+00  0.00000000E+00
  0.00000000E+00  0.00000000E+00  0.00000000E+00
  0.00000000E+00  0.00000000E+00  0.00000000E+00
  0.00000000E+00  0.00000000E+00  0.00000000E+00
  0.00000000E+00  0.00000000E+00  0.00000000E+00
  0.00000000E+00  0.00000000E+00  0.00000000E+00
  0.00000000E+00  0.00000000E+00  0.00000000E+00
  0.00000000E+00  0.00000000E+00  0.00000000E+00
  0.00000000E+00  0.00000000E+00  0.00000000E+00
  0.00000000E+00  0.00000000E+00  0.00000000E+00
  0.00000000E+00  0.00000000E+00  0.00000000E+00
  0.00000000E+00  0.00000000E+00  0.00000000E+00
  0.00000000E+00  0.00000000E+00  0.00000000E+00
  0.00000000E+00  0.00000000E+00  0.00000000E+00
  0.00000000E+00  0.00000000E+00  0.00000000E+00
  0.00000000E+00  0.00000000E+00  0.00000000E+00
  0.00000000E+00  0.00000000E+00  0.00000000E+00
  0.00000000E+00  0.00000000E+00  0.00000000E+00
  0.00000000E+00  0.00000000E+00  0.00000000E+00
  0.00000000E+00  0.00000000E+00  0.00000000E+00
  0.00000000E+00  0.00000000E+00  0.00000000E+00
  0.00000000E+00  0.00000000E+00  0.00000000E+00
  0.00000000E+00  0.00000000E+00  0.00000000E+00
  0.00000000E+00  0.00000000E+00  0.00000000E+00
  0.00000000E+00  0.00000000E+00  0.00000000E+00
  0.00000000E+00  0.00000000E+00  0.00000000E+00
  0.00000000E+00  0.00000000E+00  0.00000000E+00
  0.00000000E+00  0.00000000E+00  0.00000000E+00
  0.00000000E+00  0.00000000E+00  0.00000000E+00
  0.00000000E+00  0.00000000E+00  0.00000000E+00
  0.00000000E+00  0.00000000E+00  0.00000000E+00
  0.00000000E+00  0.00000000E+00  0.00000000E+00
  0.00000000E+00  0.00000000E+00  0.00000000E+00
  0.00000000E+00  0.00000000E+00  0.00000000E+00
  0.00000000E+00  0.00000000E+00  0.00000000E+00
  0.00000000E+00  0.00000000E+00  0.00000000E+00
  0.00000000E+00  0.00000000E+00  0.00000000E+00
  0.00000000E+00  0.00000000E+00  0.00000000E+00
  0.00000000E+00  0.00000000E+00  0.00000000E+00
  0.00000000E+00  0.00000000E+00  0.00000000E+00
  0.00000000E+00  0.00000000E+00  0.00000000E+00