FeMn_288_15                             
    1.000000000000000     
     9.7266779999999997    0.0000000000000000    0.0000000000000000
     0.0000000000000000    8.4235500000000005    0.0000000000000000
     0.0000000000000000    0.0000000000000000   45.0000000000000000
   Fe   Mn
   273    15
Direct
  0.5624923644308192  0.5424959735331392  0.6104130556200978
  0.3129198532215491  0.3622280633435611  0.1673919747563369
  0.6873696644710755  0.2962005905749644  0.7434602260327403
  0.9376929384167794  0.1231639396256669  0.5215385853529143
  0.3125366601966326  0.3735410413739710  0.5214208222697210
  0.6873489141907306  0.9646932683491123  0.8326339282070725
  0.5620754333982184  0.3810825787083443  0.7877444702232843
  0.3123734677612789  0.0482127541622537  0.8748464416459208
  0.0623678265303933  0.3655156373970910  0.3009041599464126
  0.8130669203286170  0.0482244152047011  0.8747787586662673
  0.0625278393140941  0.2076274379759845  0.5656665385641549
  0.8126549986249481  0.1972903859794078  0.2122193503166483
  0.8126110585579964  0.8773605476453690  0.6546346857995363
  0.4378916643187574  0.2984176641535931  0.8747553296510504
  0.6873936897193428  0.9548519586824675  0.4785099423512122
  0.3122311711012704  0.2149031788405087  0.8326043799673863
  0.0625460580814854  0.8769449545272514  0.6544801636486079
  0.4373748014740907  0.6205828969023912  0.4346001865957740
  0.4372213942510174  0.9545849501415410  0.4784952004803132
  0.5618653002691136  0.5292571149069003  0.1251408269750922
  0.1873016425066977  0.1206325796929340  0.4344949448577269
  0.8126275362631534  0.7047057433991358  0.4785085118712801
  0.3123764525510359  0.5421991019213873  0.6104168549042316
  0.4371166886254887  0.1160373755679324  0.3008272386289663
  0.4373297079326507  0.6160809894813082  0.3008250479207158
  0.6872339673424176  0.4510540960134141  0.3455930752248662
  0.9373372188583023  0.4645343656901212  0.8324833189861074
  0.8123835281896804  0.2047140497581569  0.4785492438144739
  0.6875439984248145  0.2814274773801828  0.2565497457448278
  0.9374539550107464  0.6203031000213681  0.4345417460532018
  0.9375803852916379  0.2797377497037049  0.1251781524915592
  0.4377912716439216  0.7810989113744972  0.2565531982201091
  0.0622634942044279  0.5468924624298065  0.7434626663810504
  0.5623852439601010  0.5355546987983008  0.3896541017655712
  0.8126891000301599  0.0421416313391513  0.6104499414326869
  0.6873123011950977  0.9574282970083986  0.5654802945137553
  0.1878008438429553  0.2923257560863744  0.6104647984069532
  0.5624214917130892  0.3766866055716733  0.6545728134614260
  0.9376010330541014  0.1157863705405365  0.3009172503808020
  0.4376391561641184  0.1271415248089624  0.6545408571958811
  0.8126985706663039  0.8619360978641316  0.1673046671590364
  0.9378411708515115  0.6153627150802995  0.3007972530013696
  0.1871210367189243  0.6305744853391474  0.7876288677287693
  0.0624044852681995  0.5357010863517663  0.3896454569697911
  0.3126525756855001  0.0294631783924581  0.1252394019169907
  0.4377272189397998  0.1129445504027419  0.1674578363884444
  0.6872930935677721  0.1313017723397268  0.7876112762991909
  0.3124684321405706  0.3809319016918384  0.7877665275810721
  0.4373968208299387  0.1205419440760144  0.4344842469250397
  0.5624934032251508  0.2008276888663316  0.3454841730128153
  0.3126021103700284  0.0308889056914892  0.2565943868429874
  0.8115686357752820  0.7156732645277543  0.8326487062109238
  0.8125132440411115  0.7009292681692131  0.3454450249819671
  0.8123127702062936  0.5473395629802149  0.8747547171971517
  0.5630433563811125  0.7151294794127937  0.8326374186404064
  0.3129245086617276  0.8628491674765387  0.1674278776203880
  0.9374645810918669  0.9617970167465820  0.6990168809935261
  0.3121835526378550  0.0363034459227078  0.3897777850624690
  0.1875753758127680  0.9620210835870989  0.6991011141890877
  0.5625071101923949  0.6969718135971329  0.2121775833934637
  0.1874382598185012  0.4622854582635793  0.6990018700817390
  0.8124481837051126  0.7118861448185420  0.6991998102662837
  0.1876994587259844  0.9649650193684873  0.8326378829219303
  0.1873858687063851  0.4465998241999044  0.2122374928016817
  0.6881047330068571  0.4470555919646813  0.2122254987249423
  0.4378398339983917  0.6124799736571094  0.1673404851183750
  0.0624133003755921  0.7118582788893122  0.6991409779358596
  0.0622397915603989  0.3626477297840514  0.1674067195291542
  0.5623051552587653  0.8768900601364168  0.6545612545200613
  0.3124385121176260  0.7009743096745112  0.3454816482419730
  0.5627075454828360  0.7048632663069516  0.4786439428155528
  0.9375153644363294  0.7920168537433443  0.6103429506596075
  0.6875443002445280  0.6271486427273099  0.6545728381061304
  0.0624346335560086  0.2123077861033200  0.6991842684156674
  0.0624992234441698  0.8807542070923622  0.7876711332514142
  0.0625852825102681  0.5422297615636681  0.6103855210975629
  0.4372863161968863  0.7922925545017268  0.6103617269809188
  0.5628943507328924  0.3622764231448816  0.1673532126436890
  0.3132724502246474  0.5292663563270219  0.1252419476936628
  0.5628027693359036  0.0313305934595944  0.2566127879781743
  0.8126417848429520  0.5357782922933749  0.3896670505431405
  0.8125628453126040  0.8805688398398895  0.7877725365698802
  0.4371900194890291  0.4656068305638567  0.8325005479761451
  0.8128003604326800  0.7072784114339168  0.5655064616806453
  0.3122758204809429  0.5483782990260663  0.8748810302063870
  0.1876210168023467  0.7794291221238917  0.1251760451084886
  0.8123213428937418  0.0301471830653142  0.1252144296132070
  0.4376133509479497  0.4466727038393667  0.2121493146572119
  0.4371212728371253  0.9644135080337277  0.8327211889062729
  0.0624929212075774  0.5293557270011019  0.1249635368606404
  0.0623376414380149  0.8705356654017260  0.4344488229398656
  0.6873413785582623  0.1125577068639674  0.1673028165852178
  0.3125824288040199  0.3660569892704323  0.3008399774970382
  0.9373281117564601  0.2857910602308367  0.3896168696069869
  0.1875521190488572  0.1274219660485453  0.6546572666286438
  0.5625201984406202  0.8732223497507057  0.5214952744796252
  0.4375571545200118  0.4575228050134057  0.5656287066091740
  0.8122668242682196  0.8705952398798377  0.4345491393956989
  0.4372486586164404  0.7861100611180045  0.3896913689965276
  0.1874097524899949  0.7858416957440456  0.3895705868308958
  0.3122584022538419  0.0469742093850955  0.7434539465836970
  0.5628603034632281  0.5315176018084122  0.2565779514699017
  0.0625495648914685  0.5311248398300090  0.2565825006539570
  0.5624888241446120  0.7115656521483530  0.6992030304110830
  0.5624429882373595  0.2118497600752104  0.6991581798977954
  0.8127497958338877  0.0312733776425472  0.2565921728267415
  0.6873443949356741  0.4653261950314879  0.8327018901702209
  0.0625523146392833  0.3769987652266978  0.6545111168480642
  0.6873473223935855  0.2851672608486344  0.3896776685674224
  0.4371226236329669  0.2965910872619913  0.7435857229657890
  0.0627119070067355  0.3729143657611603  0.5214947703546235
  0.4374838032953420  0.9617540326841778  0.6990672041890481
  0.4374753332647501  0.6303926483413118  0.7874966648086686
  0.0626509622588276  0.7008447740841884  0.3454830582013658
  0.1874405108355334  0.6205672589511702  0.4344924069039315
  0.8125264588870980  0.3704511188205666  0.4345160513060854
  0.9374479650275329  0.7807966874840134  0.2566285944694814
  0.0626802367198086  0.7074451589554428  0.5655579282365060
  0.8127228314277827  0.2120123390713607  0.6992829987608095
  0.9373456481207257  0.2962185545656632  0.7434971196405307
  0.8123029465376970  0.3657498053316564  0.3010548565107830
  0.5628416219375110  0.2077555697342864  0.5656179604884665
  0.0631411839608580  0.0297492249489791  0.1252358708672886
  0.5627412178980886  0.8629862303609210  0.1674037185516561
  0.3122029595309070  0.2076789453273669  0.5653354576417512
  0.5615405734319657  0.0486848526122714  0.8747262753015056
  0.6874586583183787  0.4619280197595076  0.6991581601242496
  0.9369091939486236  0.2986548615003230  0.8748263649298866
  0.6880247702945825  0.7793359104464478  0.1250840271247826
  0.6873896631095892  0.2986782049956856  0.8748441984531490
  0.8130418047054815  0.5296899658304035  0.1249102003698929
  0.8124749269501413  0.3812278419998660  0.7877532820468275
  0.3124793990018058  0.8731320219624197  0.5214360614898930
  0.4377369708668853  0.4547068057860898  0.4785036478805398
  0.0624264829242901  0.0467904143993674  0.7435221758879016
  0.9375111077032338  0.4549213897740898  0.4785334950997379
  0.0622851894599189  0.3808554205166406  0.7877851776598800
  0.9375698942837954  0.9507091248541072  0.3456448450598804
  0.0627944178397096  0.8622472214851522  0.1673823713910778
  0.5620764661451818  0.3704314331657244  0.4344213096970787
  0.3121976407826467  0.8661636888328055  0.3007749634030975
  0.0624699699489268  0.2007638975889873  0.3455088122029077
  0.0621710002236529  0.7049257259623340  0.4784875110029271
  0.6874176190382719  0.7857433368548622  0.3896661835281585
  0.6872838661859474  0.4547400618944523  0.4785260886621366
  0.9373892447461191  0.7987893160614352  0.8746962964309726
  0.8123346289276236  0.0464077558475814  0.7434483678521022
  0.1877798027726674  0.7976565326805574  0.8749543186240447
  0.9374203280089343  0.4570852807074777  0.5654549434394969
  0.4376332033363815  0.7794368144231558  0.1252116049343821
  0.3123194502064071  0.0423934289677467  0.6104410804078553
  0.1874886704864307  0.2966876205494688  0.7434234298460211
  0.1877601038837338  0.2814618152721174  0.2565682558016190
  0.8124622227094159  0.3730583251440444  0.5214498403384628
  0.5619349134271240  0.8807388586922885  0.7877419787246752
  0.3124250896990804  0.8811292749212554  0.7876414603013109
  0.5622385504496253  0.0464087164301484  0.7434805707177530
  0.0627729222880231  0.0422821791582766  0.6104315367159031
  0.3125095250138361  0.3771919828329863  0.6545288293623825
  0.3123032562355778  0.7050231494057430  0.4785070338813275
  0.9378569748652440  0.9467305475162299  0.2121914690913191
  0.0623028069395868  0.2051478708060542  0.4785397179520109
  0.6880060836120987  0.1160926875161144  0.3008076113307804
  0.9374874096196805  0.7856110330585204  0.3896639670363447
  0.4376410043068584  0.2794513699031292  0.1251646320668690
  0.6874140377620533  0.6204104524678961  0.4344756222795924
  0.1877349682623664  0.6158448739861745  0.3008567110405400
  0.8125647557842095  0.8656231815653042  0.3007749610453304
  0.4362375312000919  0.7987777152262222  0.8749056751189329
  0.0626517250978916  0.3705500464087674  0.4344648537041469
  0.1874404560868368  0.6271199761092727  0.6545430335997190
  0.8129107924980199  0.5423122335375183  0.6104038131732276
  0.8123520304093214  0.8728696694058011  0.5214742625347303
  0.4376361564740100  0.1310284862776277  0.7877895794687718
  0.3125342386274527  0.7117928818197384  0.6991700719918965
  0.9375243682369372  0.2923405670111366  0.6104061752654381
  0.4371394934051180  0.4617751662839282  0.6991518018418564
  0.6877405695139188  0.9470737245413930  0.2121074292501870
  0.3126097742173102  0.2009541259513808  0.3455415349339234
  0.6875803153779413  0.1229950389920536  0.5215348279954030
  0.9374818380016280  0.1273369554914562  0.6545727049325654
  0.1877148357919008  0.6131493877733467  0.1673716294741744
  0.5628077160687500  0.2153321016328454  0.8326023191506138
  0.0619240458276821  0.2145838715549690  0.8326049771681531
  0.9373870493577577  0.1206435103412861  0.4345368191356973
  0.3124117619138346  0.5470792082975656  0.7434681113453959
  0.8128385165229981  0.5311087660757370  0.2564800167561349
  0.6877594184036053  0.2790655952528803  0.1251733394494416
  0.5624735873539998  0.8705137010720432  0.4345122717240513
  0.0630488092761261  0.6970583961659711  0.2122445113539854
  0.9375603494913730  0.6303707043002955  0.7875474151177485
  0.5624322382626659  0.5464009618370701  0.7433594984995545
  0.9380321879520725  0.4465713206426859  0.2121822459785302
  0.8126650583401455  0.2074723736872109  0.5655435294504676
  0.1879776107731954  0.7811280862486538  0.2565846483164407
  0.8132427509581612  0.3627533875555564  0.1673453487549655
  0.0629581743923107  0.0312878917938550  0.2565833218636279
  0.8122081543264140  0.2151455171782651  0.8325346486924746
  0.6878748057513484  0.7925466689311451  0.6103535440685922
  0.1873830091095731  0.7969192007551658  0.7434519163963491
  0.1878033807206236  0.4571877457764310  0.5655826927168943
  0.1871676022090721  0.4654307684049972  0.8325450128355942
  0.8125468933579840  0.0357443665879851  0.3897938091652483
  0.9368140992313081  0.9649978283000159  0.8327606312956918
  0.1872538264432564  0.4548909751610231  0.4784771583910972
  0.5622607246622521  0.5475814782513342  0.8747737276291595
  0.6873589810883715  0.7964182280382636  0.7435012232034760
  0.3123307730668395  0.2122718434270084  0.6992454939880269
  0.9372360280131874  0.7967455181236321  0.7433823270174831
  0.6874994757200605  0.2924087023211468  0.6103738175508451
  0.5628116799907120  0.0295645037865453  0.1252180710359717
  0.6875475423310655  0.1205349588919979  0.4345427146831790
  0.5627535194746983  0.2050453937403910  0.4786123547138331
  0.6875741069592411  0.9509045199391991  0.3455115290946532
  0.1875311517744435  0.4509876006069584  0.3454970536745588
  0.8125374819775343  0.3771547668633200  0.6545395113219032
  0.4374322338892346  0.6269867498579708  0.6545084600831467
  0.0622431750598379  0.0490853302138142  0.8748457337678828
  0.1876045040871584  0.2858883577220208  0.3896456216055505
  0.4375543511118768  0.4510918460331143  0.3454539655243734
  0.5623586327236365  0.1972240355745047  0.2122280071726463
  0.5623275764901211  0.3663016733162299  0.3008020689801888
  0.8122455749123576  0.5463599320176639  0.7433758479951005
  0.9375016787364308  0.6230285847259406  0.5215480547208682
  0.1872286253781559  0.9509283429247508  0.3454577914740656
  0.4373918725124338  0.9572485951430663  0.5656201699929075
  0.5622621912828663  0.3730177916762414  0.5215163598791573
  0.6872673201484182  0.6304473405520391  0.7877820439910500
  0.3123674232348425  0.3709322440001226  0.4344633938505119
  0.1879882597634222  0.9572577317785758  0.5656736317623627
  0.9377506576160674  0.1124712172455038  0.1673533950901001
  0.9375970042941082  0.7789597506640789  0.1249117985213170
  0.3126595569589583  0.5313823540760724  0.2564934058474366
  0.0623217172063589  0.0357244819979991  0.3895930626414961
  0.1870214352767585  0.1227375900394351  0.5214878786772308
  0.3123524426606525  0.8772477771159670  0.6545323281849271
  0.4372523927134753  0.9510355421483250  0.3454854856595344
  0.1875428600440813  0.7922966028456544  0.6103602176665940
  0.8123760245470639  0.2008929802237109  0.3455582195815270
  0.9376429207392704  0.9548087057633357  0.4786421056114443
  0.4374634484674544  0.2922850339300554  0.6104272442852277
  0.1884099098702068  0.1126323911404768  0.1672841716633015
  0.0624904339148549  0.5479983358153845  0.8747158003600141
  0.4372627669632734  0.2854969616037243  0.3895889295460461
  0.9379090682019920  0.4621656946640443  0.6991507407662669
  0.6873740226331495  0.4572684840361335  0.5655504878678194
  0.1875201040938470  0.9546956485506800  0.4785483558969921
  0.4373674609935113  0.6230151994093469  0.5214779181218296
  0.6877172814577295  0.6229131981604721  0.5214423997978676
  0.6881412537979023  0.6131470695743493  0.1672532479043262
  0.6875160234670585  0.1275400153070156  0.6546658613829722
  0.3120146409327688  0.5360661507050500  0.3894952225848691
  0.4377839168603861  0.1228898749424972  0.5214694503941961
  0.0626409522304446  0.7143520251965422  0.8325440657063938
  0.9374252454206052  0.4507911123680997  0.3455100698796026
  0.0630302532607679  0.1970808556563956  0.2121921642242258
  0.1876217687365887  0.1163161377793073  0.3008206164561796
  0.9370991509525460  0.1310103968801286  0.7877083115688983
  0.4373931407177850  0.7966342204180439  0.7433610950906880
  0.3126906759319710  0.1968123419253436  0.2122761507786099
  0.0626336425884909  0.8729455709509539  0.5215710565673601
  0.6873544006738270  0.7809359143319391  0.2564592589862096
  0.4375776120603337  0.2812928650215124  0.2565429331936743
  0.3125751508194998  0.8708462676602603  0.4344838489749830
  0.1877450287066091  0.2788092587560870  0.1251710093286305
  0.1874287868074039  0.6230250041051982  0.5214291597832172
  0.1870107132725105  0.2982225581505323  0.8747655073429942
  0.3124833144028817  0.6966218566902332  0.2121000740144987
  0.1875080902594028  0.9467353921110537  0.2122473322658620
  0.3122180962037159  0.7072697071315955  0.5654810712059550
  0.5625215741031964  0.7012153188720299  0.3455181404448996
  0.9375383239392183  0.6268985373422161  0.6545811561106801
  0.4379522709388072  0.9469400163676651  0.2121601522844647
  0.8120339827129543  0.6973530658055586  0.2125468202727533
  0.9374662274673097  0.9574988132614227  0.5655452364722785
  0.5626905378966903  0.0419098772299141  0.6104375007383588
  0.9379178654501025  0.2810567325302608  0.2564119680770081
  0.0625014369353283  0.8663043044634278  0.3009865388905084
  0.3119268217922386  0.7147918403177578  0.8331866888626269
  0.1871415630128444  0.1304656781459146  0.7875382215257661
  0.6879027638299656  0.7981823004323850  0.8744835537702302
  0.5617824781008309  0.8666786866971382  0.3009758016285068
  0.3124254027663306  0.2048357155732207  0.4786990438528186
  0.6874548700672573  0.9618571835434631  0.6992147944782744
  0.9379337301107360  0.6127849910248180  0.1664377110294958
  0.5624221950160236  0.0354958595895317  0.3894602138696724
  0.6877983406089985  0.6152615900046394  0.3008780151374321
  0.5626660783288574  0.7075712605807216  0.5655506287283568
 
  0.00000000E+00  0.00000000E+00  0.00000000E+00
  0.00000000E+00  0.00000000E+00  0.00000000E+00
  0.00000000E+00  0.00000000E+00  0.00000000E+00
  0.00000000E+00  0.00000000E+00  0.00000000E+00
  0.00000000E+00  0.00000000E+00  0.00000000E+00
  0.00000000E+00  0.00000000E+00  0.00000000E+00
  0.00000000E+00  0.00000000E+00  0.00000000E+00
  0.00000000E+00  0.00000000E+00  0.00000000E+00
  0.00000000E+00  0.00000000E+00  0.00000000E+00
  0.00000000E+00  0.00000000E+00  0.00000000E+00
  0.00000000E+00  0.00000000E+00  0.00000000E+00
  0.00000000E+00  0.00000000E+00  0.00000000E+00
  0.00000000E+00  0.00000000E+00  0.00000000E+00
  0.00000000E+00  0.00000000E+00  0.00000000E+00
  0.00000000E+00  0.00000000E+00  0.00000000E+00
  0.00000000E+00  0.00000000E+00  0.00000000E+00
  0.00000000E+00  0.00000000E+00  0.00000000E+00
  0.00000000E+00  0.00000000E+00  0.00000000E+00
  0.00000000E+00  0.00000000E+00  0.00000000E+00
  0.00000000E+00  0.00000000E+00  0.00000000E+00
  0.00000000E+00  0.00000000E+00  0.00000000E+00
  0.00000000E+00  0.00000000E+00  0.00000000E+00
  0.00000000E+00  0.00000000E+00  0.00000000E+00
  0.00000000E+00  0.00000000E+00  0.00000000E+00
  0.00000000E+00  0.00000000E+00  0.00000000E+00
  0.00000000E+00  0.00000000E+00  0.00000000E+00
  0.00000000E+00  0.00000000E+00  0.00000000E+00
  0.00000000E+00  0.00000000E+00  0.00000000E+00
  0.00000000E+00  0.00000000E+00  0.00000000E+00
  0.00000000E+00  0.00000000E+00  0.00000000E+00
  0.00000000E+00  0.00000000E+00  0.00000000E+00
  0.00000000E+00  0.00000000E+00  0.00000000E+00
  0.00000000E+00  0.00000000E+00  0.00000000E+00
  0.00000000E+00  0.00000000E+00  0.00000000E+00
  0.00000000E+00  0.00000000E+00  0.00000000E+00
  0.00000000E+00  0.00000000E+00  0.00000000E+00
  0.00000000E+00  0.00000000E+00  0.00000000E+00
  0.00000000E+00  0.00000000E+00  0.00000000E+00
  0.00000000E+00  0.00000000E+00  0.00000000E+00
  0.00000000E+00  0.00000000E+00  0.00000000E+00
  0.00000000E+00  0.00000000E+00  0.00000000E+00
  0.00000000E+00  0.00000000E+00  0.00000000E+00
  0.00000000E+00  0.00000000E+00  0.00000000E+00
  0.00000000E+00  0.00000000E+00  0.00000000E+00
  0.00000000E+00  0.00000000E+00  0.00000000E+00
  0.00000000E+00  0.00000000E+00  0.00000000E+00
  0.00000000E+00  0.00000000E+00  0.00000000E+00
  0.00000000E+00  0.00000000E+00  0.00000000E+00
  0.00000000E+00  0.00000000E+00  0.00000000E+00
  0.00000000E+00  0.00000000E+00  0.00000000E+00
  0.00000000E+00  0.00000000E+00  0.00000000E+00
  0.00000000E+00  0.00000000E+00  0.00000000E+00
  0.00000000E+00  0.00000000E+00  0.00000000E+00
  0.00000000E+00  0.00000000E+00  0.00000000E+00
  0.00000000E+00  0.00000000E+00  0.00000000E+00
  0.00000000E+00  0.00000000E+00  0.00000000E+00
  0.00000000E+00  0.00000000E+00  0.00000000E+00
  0.00000000E+00  0.00000000E+00  0.00000000E+00
  0.00000000E+00  0.00000000E+00  0.00000000E+00
  0.00000000E+00  0.00000000E+00  0.00000000E+00
  0.00000000E+00  0.00000000E+00  0.00000000E+00
  0.00000000E+00  0.00000000E+00  0.00000000E+00
  0.00000000E+00  0.00000000E+00  0.00000000E+00
  0.00000000E+00  0.00000000E+00  0.00000000E+00
  0.00000000E+00  0.00000000E+00  0.00000000E+00
  0.00000000E+00  0.00000000E+00  0.00000000E+00
  0.00000000E+00  0.00000000E+00  0.00000000E+00
  0.00000000E+00  0.00000000E+00  0.00000000E+00
  0.00000000E+00  0.00000000E+00  0.00000000E+00
  0.00000000E+00  0.00000000E+00  0.00000000E+00
  0.00000000E+00  0.00000000E+00  0.00000000E+00
  0.00000000E+00  0.00000000E+00  0.00000000E+00
  0.00000000E+00  0.00000000E+00  0.00000000E+00
  0.00000000E+00  0.00000000E+00  0.00000000E+00
  0.00000000E+00  0.00000000E+00  0.00000000E+00
  0.00000000E+00  0.00000000E+00  0.00000000E+00
  0.00000000E+00  0.00000000E+00  0.00000000E+00
  0.00000000E+00  0.00000000E+00  0.00000000E+00
  0.00000000E+00  0.00000000E+00  0.00000000E+00
  0.00000000E+00  0.00000000E+00  0.00000000E+00
  0.00000000E+00  0.00000000E+00  0.00000000E+00
  0.00000000E+00  0.00000000E+00  0.00000000E+00
  0.00000000E+00  0.00000000E+00  0.00000000E+00
  0.00000000E+00  0.00000000E+00  0.00000000E+00
  0.00000000E+00  0.00000000E+00  0.00000000E+00
  0.00000000E+00  0.00000000E+00  0.00000000E+00
  0.00000000E+00  0.00000000E+00  0.00000000E+00
  0.00000000E+00  0.00000000E+00  0.00000000E+00
  0.00000000E+00  0.00000000E+00  0.00000000E+00
  0.00000000E+00  0.00000000E+00  0.00000000E+00
  0.00000000E+00  0.00000000E+00  0.00000000E+00
  0.00000000E+00  0.00000000E+00  0.00000000E+00
  0.00000000E+00  0.00000000E+00  0.00000000E+00
  0.00000000E+00  0.00000000E+00  0.00000000E+00
  0.00000000E+00  0.00000000E+00  0.00000000E+00
  0.00000000E+00  0.00000000E+00  0.00000000E+00
  0.00000000E+00  0.00000000E+00  0.00000000E+00
  0.00000000E+00  0.00000000E+00  0.00000000E+00
  0.00000000E+00  0.00000000E+00  0.00000000E+00
  0.00000000E+00  0.00000000E+00  0.00000000E+00
  0.00000000E+00  0.00000000E+00  0.00000000E+00
  0.00000000E+00  0.00000000E+00  0.00000000E+00
  0.00000000E+00  0.00000000E+00  0.00000000E+00
  0.00000000E+00  0.00000000E+00  0.00000000E+00
  0.00000000E+00  0.00000000E+00  0.00000000E+00
  0.00000000E+00  0.00000000E+00  0.00000000E+00
  0.00000000E+00  0.00000000E+00  0.00000000E+00
  0.00000000E+00  0.00000000E+00  0.00000000E+00
  0.00000000E+00  0.00000000E+00  0.00000000E+00
  0.00000000E+00  0.00000000E+00  0.00000000E+00
  0.00000000E+00  0.00000000E+00  0.00000000E+00
  0.00000000E+00  0.00000000E+00  0.00000000E+00
  0.00000000E+00  0.00000000E+00  0.00000000E+00
  0.00000000E+00  0.00000000E+00  0.00000000E+00
  0.00000000E+00  0.00000000E+00  0.00000000E+00
  0.00000000E+00  0.00000000E+00  0.00000000E+00
  0.00000000E+00  0.00000000E+00  0.00000000E+00
  0.00000000E+00  0.00000000E+00  0.00000000E+00
  0.00000000E+00  0.00000000E+00  0.00000000E+00
  0.00000000E+00  0.00000000E+00  0.00000000E+00
  0.00000000E+00  0.00000000E+00  0.00000000E+00
  0.00000000E+00  0.00000000E+00  0.00000000E+00
  0.00000000E+00  0.00000000E+00  0.00000000E+00
  0.00000000E+00  0.00000000E+00  0.00000000E+00
  0.00000000E+00  0.00000000E+00  0.00000000E+00
  0.00000000E+00  0.00000000E+00  0.00000000E+00
  0.00000000E+00  0.00000000E+00  0.00000000E+00
  0.00000000E+00  0.00000000E+00  0.00000000E+00
  0.00000000E+00  0.00000000E+00  0.00000000E+00
  0.00000000E+00  0.00000000E+00  0.00000000E+00
  0.00000000E+00  0.00000000E+00  0.00000000E+00
  0.00000000E+00  0.00000000E+00  0.00000000E+00
  0.00000000E+00  0.00000000E+00  0.00000000E+00
  0.00000000E+00  0.00000000E+00  0.00000000E+00
  0.00000000E+00  0.00000000E+00  0.00000000E+00
  0.00000000E+00  0.00000000E+00  0.00000000E+00
  0.00000000E+00  0.00000000E+00  0.00000000E+00
  0.00000000E+00  0.00000000E+00  0.00000000E+00
  0.00000000E+00  0.00000000E+00  0.00000000E+00
  0.00000000E+00  0.00000000E+00  0.00000000E+00
  0.00000000E+00  0.00000000E+00  0.00000000E+00
  0.00000000E+00  0.00000000E+00  0.00000000E+00
  0.00000000E+00  0.00000000E+00  0.00000000E+00
  0.00000000E+00  0.00000000E+00  0.00000000E+00
  0.00000000E+00  0.00000000E+00  0.00000000E+00
  0.00000000E+00  0.00000000E+00  0.00000000E+00
  0.00000000E+00  0.00000000E+00  0.00000000E+00
  0.00000000E+00  0.00000000E+00  0.00000000E+00
  0.00000000E+00  0.00000000E+00  0.00000000E+00
  0.00000000E+00  0.00000000E+00  0.00000000E+00
  0.00000000E+00  0.00000000E+00  0.00000000E+00
  0.00000000E+00  0.00000000E+00  0.00000000E+00
  0.00000000E+00  0.00000000E+00  0.00000000E+00
  0.00000000E+00  0.00000000E+00  0.00000000E+00
  0.00000000E+00  0.00000000E+00  0.00000000E+00
  0.00000000E+00  0.00000000E+00  0.00000000E+00
  0.00000000E+00  0.00000000E+00  0.00000000E+00
  0.00000000E+00  0.00000000E+00  0.00000000E+00
  0.00000000E+00  0.00000000E+00  0.00000000E+00
  0.00000000E+00  0.00000000E+00  0.00000000E+00
  0.00000000E+00  0.00000000E+00  0.00000000E+00
  0.00000000E+00  0.00000000E+00  0.00000000E+00
  0.00000000E+00  0.00000000E+00  0.00000000E+00
  0.00000000E+00  0.00000000E+00  0.00000000E+00
  0.00000000E+00  0.00000000E+00  0.00000000E+00
  0.00000000E+00  0.00000000E+00  0.00000000E+00
  0.00000000E+00  0.00000000E+00  0.00000000E+00
  0.00000000E+00  0.00000000E+00  0.00000000E+00
  0.00000000E+00  0.00000000E+00  0.00000000E+00
  0.00000000E+00  0.00000000E+00  0.00000000E+00
  0.00000000E+00  0.00000000E+00  0.00000000E+00
  0.00000000E+00  0.00000000E+00  0.00000000E+00
  0.00000000E+00  0.00000000E+00  0.00000000E+00
  0.00000000E+00  0.00000000E+00  0.00000000E+00
  0.00000000E+00  0.00000000E+00  0.00000000E+00
  0.00000000E+00  0.00000000E+00  0.00000000E+00
  0.00000000E+00  0.00000000E+00  0.00000000E+00
  0.00000000E+00  0.00000000E+00  0.00000000E+00
  0.00000000E+00  0.00000000E+00  0.00000000E+00
  0.00000000E+00  0.00000000E+00  0.00000000E+00
  0.00000000E+00  0.00000000E+00  0.00000000E+00
  0.00000000E+00  0.00000000E+00  0.00000000E+00
  0.00000000E+00  0.00000000E+00  0.00000000E+00
  0.00000000E+00  0.00000000E+00  0.00000000E+00
  0.00000000E+00  0.00000000E+00  0.00000000E+00
  0.00000000E+00  0.00000000E+00  0.00000000E+00
  0.00000000E+00  0.00000000E+00  0.00000000E+00
  0.00000000E+00  0.00000000E+00  0.00000000E+00
  0.00000000E+00  0.00000000E+00  0.00000000E+00
  0.00000000E+00  0.00000000E+00  0.00000000E+00
  0.00000000E+00  0.00000000E+00  0.00000000E+00
  0.00000000E+00  0.00000000E+00  0.00000000E+00
  0.00000000E+00  0.00000000E+00  0.00000000E+00
  0.00000000E+00  0.00000000E+00  0.00000000E+00
  0.00000000E+00  0.00000000E+00  0.00000000E+00
  0.00000000E+00  0.00000000E+00  0.00000000E+00
  0.00000000E+00  0.00000000E+00  0.00000000E+00
  0.00000000E+00  0.00000000E+00  0.00000000E+00
  0.00000000E+00  0.00000000E+00  0.00000000E+00
  0.00000000E+00  0.00000000E+00  0.00000000E+00
  0.00000000E+00  0.00000000E+00  0.00000000E+00
  0.00000000E+00  0.00000000E+00  0.00000000E+00
  0.00000000E+00  0.00000000E+00  0.00000000E+00
  0.00000000E+00  0.00000000E+00  0.00000000E+00
  0.00000000E+00  0.00000000E+00  0.00000000E+00
  0.00000000E+00  0.00000000E+00  0.00000000E+00
  0.00000000E+00  0.00000000E+00  0.00000000E+00
  0.00000000E+00  0.00000000E+00  0.00000000E+00
  0.00000000E+00  0.00000000E+00  0.00000000E+00
  0.00000000E+00  0.00000000E+00  0.00000000E+00
  0.00000000E+00  0.00000000E+00  0.00000000E+00
  0.00000000E+00  0.00000000E+00  0.00000000E+00
  0.00000000E+00  0.00000000E+00  0.00000000E+00
  0.00000000E+00  0.00000000E+00  0.00000000E+00
  0.00000000E+00  0.00000000E+00  0.00000000E+00
  0.00000000E+00  0.00000000E+00  0.00000000E+00
  0.00000000E+00  0.00000000E+00  0.00000000E+00
  0.00000000E+00  0.00000000E+00  0.00000000E+00
  0.00000000E+00  0.00000000E+00  0.00000000E+00
  0.00000000E+00  0.00000000E+00  0.00000000E+00
  0.00000000E+00  0.00000000E+00  0.00000000E+00
  0.00000000E+00  0.00000000E+00  0.00000000E+00
  0.00000000E+00  0.00000000E+00  0.00000000E+00
  0.00000000E+00  0.00000000E+00  0.00000000E+00
  0.00000000E+00  0.00000000E+00  0.00000000E+00
  0.00000000E+00  0.00000000E+00  0.00000000E+00
  0.00000000E+00  0.00000000E+00  0.00000000E+00
  0.00000000E+00  0.00000000E+00  0.00000000E+00
  0.00000000E+00  0.00000000E+00  0.00000000E+00
  0.00000000E+00  0.00000000E+00  0.00000000E+00
  0.00000000E+00  0.00000000E+00  0.00000000E+00
  0.00000000E+00  0.00000000E+00  0.00000000E+00
  0.00000000E+00  0.00000000E+00  0.00000000E+00
  0.00000000E+00  0.00000000E+00  0.00000000E+00
  0.00000000E+00  0.00000000E+00  0.00000000E+00
  0.00000000E+00  0.00000000E+00  0.00000000E+00
  0.00000000E+00  0.00000000E+00  0.00000000E+00
  0.00000000E+00  0.00000000E+00  0.00000000E+00
  0.00000000E+00  0.00000000E+00  0.00000000E+00
  0.00000000E+00  0.00000000E+00  0.00000000E+00
  0.00000000E+00  0.00000000E+00  0.00000000E+00
  0.00000000E+00  0.00000000E+00  0.00000000E+00
  0.00000000E+00  0.00000000E+00  0.00000000E+00
  0.00000000E+00  0.00000000E+00  0.00000000E+00
  0.00000000E+00  0.00000000E+00  0.00000000E+00
  0.00000000E+00  0.00000000E+00  0.00000000E+00
  0.00000000E+00  0.00000000E+00  0.00000000E+00