FeMn_288_15                             
    1.000000000000000     
     9.7266779999999997    0.0000000000000000    0.0000000000000000
     0.0000000000000000    8.4235500000000005    0.0000000000000000
     0.0000000000000000    0.0000000000000000   45.0000000000000000
   Fe   Mn
   273    15
Direct
  0.5622315705445438  0.5426272331779058  0.6105450457273167
  0.3121491410662300  0.3630470207834300  0.1671915467231952
  0.6878780973845342  0.2961966457533356  0.7436103569575175
  0.9384442860556618  0.1226575138244204  0.5215374567637570
  0.3126359780953025  0.3734394348182036  0.5213094723621863
  0.6880898942226058  0.9642894605203538  0.8327882868748896
  0.5614128963961084  0.3823402145873550  0.7878286016333456
  0.3118485713003699  0.0494353436033555  0.8748178214903030
  0.0629683701218666  0.3655069304880455  0.3006301989048470
  0.8127609479630449  0.0498435677768982  0.8747727722798461
  0.0625890682988198  0.2081713003763286  0.5656570393617352
  0.8131230183607571  0.1958772878229655  0.2120448708254159
  0.8133168276680204  0.8769846972734825  0.6547399731522210
  0.4374338946873201  0.2984050205931452  0.8747191599600178
  0.6879591870856157  0.9553449723674990  0.4785477279225453
  0.3126702386596281  0.2140167812782599  0.8327327694747145
  0.0631247734306113  0.8766317098544378  0.6547994538019325
  0.4374419751499676  0.6201634089184472  0.4344593413218499
  0.4362594768284450  0.9552358627775068  0.4785123368192475
  0.5617761983497074  0.5288745625183568  0.1252071840948771
  0.1871916002083124  0.1198272426251385  0.4344362692052897
  0.8127853507120056  0.7051638027589167  0.4785584468101711
  0.3124130239507124  0.5420620587115687  0.6105533432390180
  0.4376746999669487  0.1157970804038669  0.3006172335999324
  0.4374813706114341  0.6158082726292434  0.3005676310237583
  0.6868731134475919  0.4519189905058285  0.3453646727530011
  0.9377862048992326  0.4637966919755703  0.8327430905404986
  0.8117084463308584  0.2053061599349249  0.4786171941467896
  0.6871840428560545  0.2807339177605212  0.2564880342590604
  0.9371802395915436  0.6199372133631066  0.4344772593650619
  0.9380675588429792  0.2784911979938693  0.1252473997729978
  0.4375730331996234  0.7804636414676823  0.2564610317980204
  0.0628002064850514  0.5471698656202726  0.7436488490515499
  0.5627703665408783  0.5355441468769152  0.3895165853757978
  0.8122270141173431  0.0421208352926684  0.6106904013399470
  0.6874467844223602  0.9579024167644765  0.5655523568084585
  0.1875419869734908  0.2925709144469966  0.6105998447233145
  0.5629735083541756  0.3762654425456385  0.6547233204482150
  0.9377779713764663  0.1158235612612653  0.3007210934860989
  0.4379530031749010  0.1264182708786682  0.6548291880126743
  0.8116943809968409  0.8629203345018901  0.1670852743737743
  0.9377976913920016  0.6145774645457865  0.3006131957680895
  0.1860900050602329  0.6317088863276334  0.7876560609029251
  0.0627122784965246  0.5356579086806669  0.3895009957188200
  0.3131466929633513  0.0292548751043935  0.1251573034715633
  0.4372436180439482  0.1132546388592527  0.1672660868180880
  0.6864712999915396  0.1327751317011737  0.7876837539651516
  0.3119482697302016  0.3821549950904726  0.7877535081241452
  0.4371183664740541  0.1198888143654090  0.4344533728842288
  0.5620374567352753  0.2014073252018895  0.3452042785737797
  0.3119107909895694  0.0305216407132562  0.2563911208932081
  0.8129878100016810  0.7149529064269133  0.8328263042159759
  0.8120534880811852  0.7015655337283111  0.3453052182627011
  0.8117694012440710  0.5489429943071146  0.8748017360043709
  0.5634321377512418  0.7142991860532711  0.8327366010263332
  0.3122439261339822  0.8635343706712251  0.1672082822426058
  0.9367147599216449  0.9615750647018639  0.6993321109533176
  0.3127106511132819  0.0366343165483940  0.3896955563046335
  0.1871630182337707  0.9618618706362033  0.6994133090541644
  0.5632801540958740  0.6954956179475354  0.2120054965690465
  0.1870031610436534  0.4624002198794389  0.6992299867641323
  0.8119751935938164  0.7119884210302697  0.6993743744162395
  0.1883979035244050  0.9643689176870198  0.8328746424515583
  0.1881311443171098  0.4457741748054531  0.2122052607339089
  0.6886153936225049  0.4460526474462871  0.2121950417139519
  0.4370971609397473  0.6128752503007739  0.1670762240852711
  0.0621579145444827  0.7119768636823696  0.6993166171058445
  0.0618353580766947  0.3630805224310785  0.1672373228043061
  0.5626457433385081  0.8762438358357709  0.6547226421706815
  0.3117356474885673  0.7015533193299675  0.3452628917076277
  0.5629989819732414  0.7055688526715188  0.4787883179980961
  0.9374878426800064  0.7917432712102083  0.6104271620420547
  0.6880110439654318  0.6264748656173719  0.6548368382276313
  0.0619678884382431  0.2128122075772925  0.6994705225528730
  0.0619470438938762  0.8816160492436858  0.7876795391308260
  0.0622164617270842  0.5422080831074104  0.6105005274848366
  0.4370210404296347  0.7924330242562432  0.6104675281718834
  0.5621358907256508  0.3628021773236988  0.1671438572633693
  0.3140809024394065  0.5290181338714650  0.1251759169082859
  0.5621725809066351  0.0307544385393962  0.2564012102532432
  0.8127988576256547  0.5356462792068010  0.3894967498788146
  0.8116584175765863  0.8815772867033344  0.7877645778394444
  0.4380186850562205  0.4645554306073302  0.8327916644606354
  0.8128727962302632  0.7076015970932781  0.5655866651599988
  0.3118185420814501  0.5495644058933518  0.8748103881101306
  0.1883659387772167  0.7784843604433326  0.1252320394082430
  0.8125999626434544  0.0306910508639726  0.1252498812503039
  0.4379950517643503  0.4452567901531301  0.2120606103408910
  0.4379006477727299  0.9639678301129050  0.8328482344728654
  0.0632405203020937  0.5291063777762092  0.1249992516344067
  0.0622378132800761  0.8699104399509682  0.4343461910051165
  0.6866527009160177  0.1132959773774052  0.1671102428231377
  0.3131388998281314  0.3659442517179735  0.3005265301889473
  0.9373450087040782  0.2860642775714665  0.3895224401578372
  0.1881785388312947  0.1265363273573611  0.6548527524023647
  0.5625703101049088  0.8717418193057948  0.5215212092226217
  0.4376009084657045  0.4580370619457532  0.5657304292020701
  0.8120774449663125  0.8699811429239871  0.4344467225193903
  0.4375975144143683  0.7861809876437581  0.3894957116539969
  0.1877128398063088  0.7858322056056543  0.3894550001977357
  0.3129787252832456  0.0468848386019682  0.7435303393480136
  0.5617137546674317  0.5312046197741042  0.2564598816023438
  0.0617294420126024  0.5310598907644727  0.2565000366987796
  0.5620100537156144  0.7115877922067304  0.6994216452914178
  0.5621441675149446  0.2123941053611024  0.6993537880506029
  0.8120031232005350  0.0307466806064112  0.2563347385461667
  0.6880674377924018  0.4644099323857678  0.8329439442913714
  0.0631657733560966  0.3767530907620493  0.6547495437677674
  0.6876887388883522  0.2852133278994726  0.3894842567778386
  0.4378736440363507  0.2970479328922017  0.7436211760676681
  0.0626808965761842  0.3719497736817552  0.5215182085414000
  0.4370415019065585  0.9617106436300022  0.6993354879423863
  0.4369377471897019  0.6315655599322464  0.7876181948373935
  0.0618330366465119  0.7012456852464412  0.3452213901210545
  0.1872740804077976  0.6202563778971559  0.4343564160758499
  0.8123279321550562  0.3699498822790546  0.4344653072229584
  0.9373492456543926  0.7803256719559433  0.2564836679043916
  0.0626862605081024  0.7076418312883288  0.5656912764347716
  0.8122354553814748  0.2125799777381595  0.6994976704070102
  0.9381292056931627  0.2966199602490867  0.7436074859623035
  0.8124324738798199  0.3656184049439632  0.3007677491330628
  0.5628623381409621  0.2082404527276823  0.5656891328825857
  0.0636645089022824  0.0300781516533818  0.1253250521462652
  0.5617419068570625  0.8635601027847057  0.1672188280003349
  0.3123719379518258  0.2081752217981306  0.5654563518599862
  0.5611929838217496  0.0504095900260227  0.8746654914927198
  0.6871085145870957  0.4619411723350379  0.6993817204590487
  0.9364686408616684  0.2991328085732525  0.8748318985807707
  0.6881229649516748  0.7784981867606362  0.1251484783177976
  0.6871622403118717  0.2988782217939279  0.8749744456053614
  0.8129948639404534  0.5297613292781871  0.1248908004886556
  0.8117620972477587  0.3822272730849953  0.7878027316161411
  0.3130131170785772  0.8718645789980146  0.5213646860800039
  0.4376597688055361  0.4548799894129988  0.4785405926095952
  0.0627300913551854  0.0470248112147367  0.7435399512254964
  0.9367331767617117  0.4559865198266447  0.4785804805320881
  0.0613503018081325  0.3822894140171511  0.7878270497016779
  0.9372292198170058  0.9514612617646083  0.3454821667800544
  0.0625705646279080  0.8633380058852088  0.1672506053433926
  0.5620342089700576  0.3699247714957947  0.4343325003731885
  0.3131182251726229  0.8667580195957549  0.3005218058364078
  0.0617502645636614  0.2016629106970666  0.3451597569993409
  0.0620166775884029  0.7058011024311606  0.4784602376447828
  0.6873946312632015  0.7854257493011335  0.3895039516403566
  0.6874519253405090  0.4550452923468830  0.4785477491142619
  0.9369215880388457  0.7985028865660612  0.8747428258019490
  0.8130296940826457  0.0463652486998927  0.7436189342077698
  0.1870957054776600  0.7974419065776064  0.8749854273220996
  0.9376495989762850  0.4574917543527469  0.5655965596479612
  0.4378573623950435  0.7781072136189140  0.1252241830857466
  0.3122779137544376  0.0423597122720741  0.6106208489191792
  0.1878958894843654  0.2969354926547731  0.7435727546036843
  0.1875931127732287  0.2805208076812554  0.2564453603657129
  0.8125795925685844  0.3726698178790510  0.5213727327804101
  0.5614618189683811  0.8813862212459580  0.7877034892505183
  0.3115095334115069  0.8823313153926979  0.7876301285236625
  0.5627708455835585  0.0464041762705814  0.7436121466023448
  0.0626166598686643  0.0427171223638749  0.6106349860618959
  0.3129572948274291  0.3767649914166723  0.6547460035437359
  0.3121040764638975  0.7057575239890310  0.4785865663547635
  0.9382268147699122  0.9464737804227714  0.2123543877624173
  0.0629301298338992  0.2049969416781237  0.4787871924159277
  0.6876379503034318  0.1159410038088777  0.3007172165744326
  0.9374381767362442  0.7856103442988124  0.3894362962083157
  0.4383071869823524  0.2779347304900786  0.1251394879503737
  0.6874344216120081  0.6198783800876277  0.4343571007181070
  0.1875183231246542  0.6150573990916488  0.3005739959939355
  0.8132190796820858  0.8662096190782189  0.3004549086078885
  0.4360762577880899  0.7987057745285970  0.8749780139604102
  0.0624964006404205  0.3700017730274057  0.4342263483865980
  0.1881175219463362  0.6264105517948388  0.6548340075136015
  0.8125945707382637  0.5423368302870045  0.6105925007071384
  0.8120369238448325  0.8724462413156657  0.5214255062614968
  0.4369416296366884  0.1322169578895851  0.7879328485167370
  0.3120559059134008  0.7118613428946805  0.6993101325578241
  0.9372670263258057  0.2925265615025888  0.6105041787312323
  0.4367526337029971  0.4618210188466130  0.6994913752112203
  0.6878996648480804  0.9460768479980907  0.2121149971628584
  0.3120785776386738  0.2017076474009086  0.3453316629053471
  0.6877078869256505  0.1229107871467082  0.5214675575096164
  0.9380968989392747  0.1265840381322213  0.6547168953555926
  0.1872163440724665  0.6133961477563243  0.1672709398448035
  0.5637417750021059  0.2151381102841906  0.8327722049816957
  0.0629955897536175  0.2136013797338477  0.8328323216110999
  0.9372994496288423  0.1198087584186540  0.4343802592858462
  0.3130860401309898  0.5473224357459459  0.7435554993827822
  0.8125714600714460  0.5308603164383053  0.2563713316152114
  0.6880004859668997  0.2775808648071282  0.1252443364564658
  0.5624758278405317  0.8696547355191560  0.4343678492527485
  0.0640624190230557  0.6958990879950119  0.2122003361797376
  0.9367504205410214  0.6315408629133948  0.7876820775875090
  0.5629780375024953  0.5466425480186929  0.7435162118270411
  0.9382428114769731  0.4451434619429803  0.2121991309775441
  0.8127375900728071  0.2080492946123420  0.5656432558160652
  0.1878164336859725  0.7808546646960428  0.2563280167437730
  0.8123549032798298  0.3632808441862422  0.1672407804434683
  0.0622355188274884  0.0309392563641234  0.2563678035850597
  0.8128048172542505  0.2153624939878214  0.8327178556073727
  0.6877375252028204  0.7925912161181469  0.6105015644602159
  0.1880115359731378  0.7976064141754835  0.7436234313363503
  0.1877516593162334  0.4577511675645790  0.5657325870274835
  0.1876639191815794  0.4641548682440956  0.8327166608674262
  0.8128871901092143  0.0360200762015990  0.3896686789281323
  0.9372970469832367  0.9645008536857356  0.8329193557314932
  0.1879576370265448  0.4556268555013149  0.4785702040213184
  0.5620470586075119  0.5488429271557805  0.8747583399075038
  0.6881284588474443  0.7968339946959143  0.7436418709943939
  0.3118691655180644  0.2125409316311533  0.6995081831560052
  0.9375548354335099  0.7970769940919552  0.7435372674081759
  0.6869650781064491  0.2923650712604073  0.6105399833148071
  0.5629878513086305  0.0294848960669453  0.1251785486484274
  0.6878008108353620  0.1200486893055995  0.4344957300019661
  0.5625709529240630  0.2060603676865375  0.4787380209070906
  0.6877860706600135  0.9515541797744329  0.3452784550786943
  0.1871941938242591  0.4514942537783486  0.3452856149944673
  0.8129911730325172  0.3768568174380325  0.6548009839968137
  0.4380051704958580  0.6265280286924086  0.6547833789883017
  0.0616780140387908  0.0507992945480715  0.8747819120731197
  0.1878478486386657  0.2861843701406108  0.3894862465557890
  0.4372280103044441  0.4516778779211972  0.3452644295798660
  0.5629983946276262  0.1955666715137146  0.2120753874744969
  0.5629199362027522  0.3662278321583239  0.3005004725842266
  0.8128494676473439  0.5466012829919474  0.7434865124799630
  0.9373103714414184  0.6220587338496579  0.5214363831413709
  0.1870366139198514  0.9515505770074313  0.3453022473584080
  0.4375152177219145  0.9577994262583869  0.5657340440841948
  0.5621438641537179  0.3719988432740962  0.5214412512066149
  0.6865617765024511  0.6320001123005018  0.7879560330816205
  0.3121735642612780  0.3700660653951000  0.4344257463609432
  0.1877970459799793  0.9579850971484510  0.5658323896978853
  0.9371826728516914  0.1131503594543249  0.1672864747456750
  0.9379237905896748  0.7780726516136436  0.1249900903725119
  0.3121453714646573  0.5309844186640554  0.2564196896555890
  0.0624092104575201  0.0357130210257641  0.3894572894167863
  0.1853767283111313  0.1224272228258667  0.5213880353013733
  0.3128217621088654  0.8766520290360997  0.6548043379419226
  0.4369605949297602  0.9516489389865311  0.3453060308845325
  0.1872083770368025  0.7922701922127287  0.6104247996218803
  0.8118473210595730  0.2017557004428848  0.3452888732196326
  0.9378162158087814  0.9547895231395527  0.4787037729836970
  0.4377431012330880  0.2926184911028341  0.6105972340697414
  0.1876047547126124  0.1132493656717523  0.1670757389044274
  0.0618090504181385  0.5490758281195770  0.8746767682258670
  0.4372468979102788  0.2855674587726453  0.3894460695442952
  0.9372226538904286  0.4621845525737928  0.6993701179724185
  0.6874992537744047  0.4575773460603859  0.5656764808262994
  0.1877556268346898  0.9553464116582981  0.4785422428803379
  0.4374185849856688  0.6226137242199812  0.5213386225309327
  0.6872673463175900  0.6225969072020009  0.5213184141661305
  0.6875254191593235  0.6137991724952208  0.1671563879503827
  0.6882775306073237  0.1267887977749437  0.6549548094979359
  0.3124443535799828  0.5360516141329493  0.3893330306467713
  0.4383994247751252  0.1226807707671612  0.5213780473734535
  0.0634964878968812  0.7136155713929684  0.8326554655314974
  0.9371812400292888  0.4511604640664005  0.3453254496282828
  0.0639552978146679  0.1955267163083784  0.2120730327090459
  0.1875018788167897  0.1160066443840708  0.3006781452812240
  0.9362089140890676  0.1324219515209616  0.7878492485458475
  0.4379414755914574  0.7971305800174826  0.7435565279966191
  0.3137201261582622  0.1952210938182430  0.2120909716500846
  0.0622758936190809  0.8731865812819110  0.5214060399094637
  0.6870938302953119  0.7806556965769857  0.2563093749225137
  0.4370936816260882  0.2808110539546373  0.2563781157211101
  0.3123054108578979  0.8703198893380724  0.4343867607571506
  0.1882437471132281  0.2772415621285806  0.1252467774040718
  0.1879644513293458  0.6218882163271960  0.5213434719747025
  0.1864192357124646  0.2979171816738153  0.8747050247403193
  0.3136484844523946  0.6952086745782176  0.2119634945627725
  0.1882334537696451  0.9458744567458104  0.2121980828630304
  0.3122869650760220  0.7075925697386921  0.5655105186519584
  0.5616616475974481  0.7021590859459382  0.3454000091894247
  0.9380242347285260  0.6263906463098761  0.6548316983788705
  0.4385145927495084  0.9461738086221855  0.2121810966803173
  0.8128645667314657  0.6957341343567708  0.2125007966085125
  0.9377022674962660  0.9580824267919409  0.5656890874397735
  0.5623456166562255  0.0420662539200285  0.6106291046283816
  0.9373255286615797  0.2808678040292026  0.2563279590463046
  0.0635421195394337  0.8664074258822204  0.3006953069868089
  0.3127901369408366  0.7140018750179021  0.8332456181295532
  0.1863135306986674  0.1320049982128179  0.7876216480025368
  0.6878049631472286  0.7989113693571407  0.8744928265924795
  0.5626577429797504  0.8668523123648979  0.3006785270727532
  0.3127120108773222  0.2053860306888197  0.4786256237308226
  0.6869591721477440  0.9618468060037271  0.6994431573060249
  0.9373469725271329  0.6135946743971952  0.1664108743410639
  0.5627126021625677  0.0356328207787599  0.3893389600038208
  0.6876566623693231  0.6148613282066250  0.3005065894473774
  0.5629182641682083  0.7080533205665566  0.5655999554958662
 
  0.00000000E+00  0.00000000E+00  0.00000000E+00
  0.00000000E+00  0.00000000E+00  0.00000000E+00
  0.00000000E+00  0.00000000E+00  0.00000000E+00
  0.00000000E+00  0.00000000E+00  0.00000000E+00
  0.00000000E+00  0.00000000E+00  0.00000000E+00
  0.00000000E+00  0.00000000E+00  0.00000000E+00
  0.00000000E+00  0.00000000E+00  0.00000000E+00
  0.00000000E+00  0.00000000E+00  0.00000000E+00
  0.00000000E+00  0.00000000E+00  0.00000000E+00
  0.00000000E+00  0.00000000E+00  0.00000000E+00
  0.00000000E+00  0.00000000E+00  0.00000000E+00
  0.00000000E+00  0.00000000E+00  0.00000000E+00
  0.00000000E+00  0.00000000E+00  0.00000000E+00
  0.00000000E+00  0.00000000E+00  0.00000000E+00
  0.00000000E+00  0.00000000E+00  0.00000000E+00
  0.00000000E+00  0.00000000E+00  0.00000000E+00
  0.00000000E+00  0.00000000E+00  0.00000000E+00
  0.00000000E+00  0.00000000E+00  0.00000000E+00
  0.00000000E+00  0.00000000E+00  0.00000000E+00
  0.00000000E+00  0.00000000E+00  0.00000000E+00
  0.00000000E+00  0.00000000E+00  0.00000000E+00
  0.00000000E+00  0.00000000E+00  0.00000000E+00
  0.00000000E+00  0.00000000E+00  0.00000000E+00
  0.00000000E+00  0.00000000E+00  0.00000000E+00
  0.00000000E+00  0.00000000E+00  0.00000000E+00
  0.00000000E+00  0.00000000E+00  0.00000000E+00
  0.00000000E+00  0.00000000E+00  0.00000000E+00
  0.00000000E+00  0.00000000E+00  0.00000000E+00
  0.00000000E+00  0.00000000E+00  0.00000000E+00
  0.00000000E+00  0.00000000E+00  0.00000000E+00
  0.00000000E+00  0.00000000E+00  0.00000000E+00
  0.00000000E+00  0.00000000E+00  0.00000000E+00
  0.00000000E+00  0.00000000E+00  0.00000000E+00
  0.00000000E+00  0.00000000E+00  0.00000000E+00
  0.00000000E+00  0.00000000E+00  0.00000000E+00
  0.00000000E+00  0.00000000E+00  0.00000000E+00
  0.00000000E+00  0.00000000E+00  0.00000000E+00
  0.00000000E+00  0.00000000E+00  0.00000000E+00
  0.00000000E+00  0.00000000E+00  0.00000000E+00
  0.00000000E+00  0.00000000E+00  0.00000000E+00
  0.00000000E+00  0.00000000E+00  0.00000000E+00
  0.00000000E+00  0.00000000E+00  0.00000000E+00
  0.00000000E+00  0.00000000E+00  0.00000000E+00
  0.00000000E+00  0.00000000E+00  0.00000000E+00
  0.00000000E+00  0.00000000E+00  0.00000000E+00
  0.00000000E+00  0.00000000E+00  0.00000000E+00
  0.00000000E+00  0.00000000E+00  0.00000000E+00
  0.00000000E+00  0.00000000E+00  0.00000000E+00
  0.00000000E+00  0.00000000E+00  0.00000000E+00
  0.00000000E+00  0.00000000E+00  0.00000000E+00
  0.00000000E+00  0.00000000E+00  0.00000000E+00
  0.00000000E+00  0.00000000E+00  0.00000000E+00
  0.00000000E+00  0.00000000E+00  0.00000000E+00
  0.00000000E+00  0.00000000E+00  0.00000000E+00
  0.00000000E+00  0.00000000E+00  0.00000000E+00
  0.00000000E+00  0.00000000E+00  0.00000000E+00
  0.00000000E+00  0.00000000E+00  0.00000000E+00
  0.00000000E+00  0.00000000E+00  0.00000000E+00
  0.00000000E+00  0.00000000E+00  0.00000000E+00
  0.00000000E+00  0.00000000E+00  0.00000000E+00
  0.00000000E+00  0.00000000E+00  0.00000000E+00
  0.00000000E+00  0.00000000E+00  0.00000000E+00
  0.00000000E+00  0.00000000E+00  0.00000000E+00
  0.00000000E+00  0.00000000E+00  0.00000000E+00
  0.00000000E+00  0.00000000E+00  0.00000000E+00
  0.00000000E+00  0.00000000E+00  0.00000000E+00
  0.00000000E+00  0.00000000E+00  0.00000000E+00
  0.00000000E+00  0.00000000E+00  0.00000000E+00
  0.00000000E+00  0.00000000E+00  0.00000000E+00
  0.00000000E+00  0.00000000E+00  0.00000000E+00
  0.00000000E+00  0.00000000E+00  0.00000000E+00
  0.00000000E+00  0.00000000E+00  0.00000000E+00
  0.00000000E+00  0.00000000E+00  0.00000000E+00
  0.00000000E+00  0.00000000E+00  0.00000000E+00
  0.00000000E+00  0.00000000E+00  0.00000000E+00
  0.00000000E+00  0.00000000E+00  0.00000000E+00
  0.00000000E+00  0.00000000E+00  0.00000000E+00
  0.00000000E+00  0.00000000E+00  0.00000000E+00
  0.00000000E+00  0.00000000E+00  0.00000000E+00
  0.00000000E+00  0.00000000E+00  0.00000000E+00
  0.00000000E+00  0.00000000E+00  0.00000000E+00
  0.00000000E+00  0.00000000E+00  0.00000000E+00
  0.00000000E+00  0.00000000E+00  0.00000000E+00
  0.00000000E+00  0.00000000E+00  0.00000000E+00
  0.00000000E+00  0.00000000E+00  0.00000000E+00
  0.00000000E+00  0.00000000E+00  0.00000000E+00
  0.00000000E+00  0.00000000E+00  0.00000000E+00
  0.00000000E+00  0.00000000E+00  0.00000000E+00
  0.00000000E+00  0.00000000E+00  0.00000000E+00
  0.00000000E+00  0.00000000E+00  0.00000000E+00
  0.00000000E+00  0.00000000E+00  0.00000000E+00
  0.00000000E+00  0.00000000E+00  0.00000000E+00
  0.00000000E+00  0.00000000E+00  0.00000000E+00
  0.00000000E+00  0.00000000E+00  0.00000000E+00
  0.00000000E+00  0.00000000E+00  0.00000000E+00
  0.00000000E+00  0.00000000E+00  0.00000000E+00
  0.00000000E+00  0.00000000E+00  0.00000000E+00
  0.00000000E+00  0.00000000E+00  0.00000000E+00
  0.00000000E+00  0.00000000E+00  0.00000000E+00
  0.00000000E+00  0.00000000E+00  0.00000000E+00
  0.00000000E+00  0.00000000E+00  0.00000000E+00
  0.00000000E+00  0.00000000E+00  0.00000000E+00
  0.00000000E+00  0.00000000E+00  0.00000000E+00
  0.00000000E+00  0.00000000E+00  0.00000000E+00
  0.00000000E+00  0.00000000E+00  0.00000000E+00
  0.00000000E+00  0.00000000E+00  0.00000000E+00
  0.00000000E+00  0.00000000E+00  0.00000000E+00
  0.00000000E+00  0.00000000E+00  0.00000000E+00
  0.00000000E+00  0.00000000E+00  0.00000000E+00
  0.00000000E+00  0.00000000E+00  0.00000000E+00
  0.00000000E+00  0.00000000E+00  0.00000000E+00
  0.00000000E+00  0.00000000E+00  0.00000000E+00
  0.00000000E+00  0.00000000E+00  0.00000000E+00
  0.00000000E+00  0.00000000E+00  0.00000000E+00
  0.00000000E+00  0.00000000E+00  0.00000000E+00
  0.00000000E+00  0.00000000E+00  0.00000000E+00
  0.00000000E+00  0.00000000E+00  0.00000000E+00
  0.00000000E+00  0.00000000E+00  0.00000000E+00
  0.00000000E+00  0.00000000E+00  0.00000000E+00
  0.00000000E+00  0.00000000E+00  0.00000000E+00
  0.00000000E+00  0.00000000E+00  0.00000000E+00
  0.00000000E+00  0.00000000E+00  0.00000000E+00
  0.00000000E+00  0.00000000E+00  0.00000000E+00
  0.00000000E+00  0.00000000E+00  0.00000000E+00
  0.00000000E+00  0.00000000E+00  0.00000000E+00
  0.00000000E+00  0.00000000E+00  0.00000000E+00
  0.00000000E+00  0.00000000E+00  0.00000000E+00
  0.00000000E+00  0.00000000E+00  0.00000000E+00
  0.00000000E+00  0.00000000E+00  0.00000000E+00
  0.00000000E+00  0.00000000E+00  0.00000000E+00
  0.00000000E+00  0.00000000E+00  0.00000000E+00
  0.00000000E+00  0.00000000E+00  0.00000000E+00
  0.00000000E+00  0.00000000E+00  0.00000000E+00
  0.00000000E+00  0.00000000E+00  0.00000000E+00
  0.00000000E+00  0.00000000E+00  0.00000000E+00
  0.00000000E+00  0.00000000E+00  0.00000000E+00
  0.00000000E+00  0.00000000E+00  0.00000000E+00
  0.00000000E+00  0.00000000E+00  0.00000000E+00
  0.00000000E+00  0.00000000E+00  0.00000000E+00
  0.00000000E+00  0.00000000E+00  0.00000000E+00
  0.00000000E+00  0.00000000E+00  0.00000000E+00
  0.00000000E+00  0.00000000E+00  0.00000000E+00
  0.00000000E+00  0.00000000E+00  0.00000000E+00
  0.00000000E+00  0.00000000E+00  0.00000000E+00
  0.00000000E+00  0.00000000E+00  0.00000000E+00
  0.00000000E+00  0.00000000E+00  0.00000000E+00
  0.00000000E+00  0.00000000E+00  0.00000000E+00
  0.00000000E+00  0.00000000E+00  0.00000000E+00
  0.00000000E+00  0.00000000E+00  0.00000000E+00
  0.00000000E+00  0.00000000E+00  0.00000000E+00
  0.00000000E+00  0.00000000E+00  0.00000000E+00
  0.00000000E+00  0.00000000E+00  0.00000000E+00
  0.00000000E+00  0.00000000E+00  0.00000000E+00
  0.00000000E+00  0.00000000E+00  0.00000000E+00
  0.00000000E+00  0.00000000E+00  0.00000000E+00
  0.00000000E+00  0.00000000E+00  0.00000000E+00
  0.00000000E+00  0.00000000E+00  0.00000000E+00
  0.00000000E+00  0.00000000E+00  0.00000000E+00
  0.00000000E+00  0.00000000E+00  0.00000000E+00
  0.00000000E+00  0.00000000E+00  0.00000000E+00
  0.00000000E+00  0.00000000E+00  0.00000000E+00
  0.00000000E+00  0.00000000E+00  0.00000000E+00
  0.00000000E+00  0.00000000E+00  0.00000000E+00
  0.00000000E+00  0.00000000E+00  0.00000000E+00
  0.00000000E+00  0.00000000E+00  0.00000000E+00
  0.00000000E+00  0.00000000E+00  0.00000000E+00
  0.00000000E+00  0.00000000E+00  0.00000000E+00
  0.00000000E+00  0.00000000E+00  0.00000000E+00
  0.00000000E+00  0.00000000E+00  0.00000000E+00
  0.00000000E+00  0.00000000E+00  0.00000000E+00
  0.00000000E+00  0.00000000E+00  0.00000000E+00
  0.00000000E+00  0.00000000E+00  0.00000000E+00
  0.00000000E+00  0.00000000E+00  0.00000000E+00
  0.00000000E+00  0.00000000E+00  0.00000000E+00
  0.00000000E+00  0.00000000E+00  0.00000000E+00
  0.00000000E+00  0.00000000E+00  0.00000000E+00
  0.00000000E+00  0.00000000E+00  0.00000000E+00
  0.00000000E+00  0.00000000E+00  0.00000000E+00
  0.00000000E+00  0.00000000E+00  0.00000000E+00
  0.00000000E+00  0.00000000E+00  0.00000000E+00
  0.00000000E+00  0.00000000E+00  0.00000000E+00
  0.00000000E+00  0.00000000E+00  0.00000000E+00
  0.00000000E+00  0.00000000E+00  0.00000000E+00
  0.00000000E+00  0.00000000E+00  0.00000000E+00
  0.00000000E+00  0.00000000E+00  0.00000000E+00
  0.00000000E+00  0.00000000E+00  0.00000000E+00
  0.00000000E+00  0.00000000E+00  0.00000000E+00
  0.00000000E+00  0.00000000E+00  0.00000000E+00
  0.00000000E+00  0.00000000E+00  0.00000000E+00
  0.00000000E+00  0.00000000E+00  0.00000000E+00
  0.00000000E+00  0.00000000E+00  0.00000000E+00
  0.00000000E+00  0.00000000E+00  0.00000000E+00
  0.00000000E+00  0.00000000E+00  0.00000000E+00
  0.00000000E+00  0.00000000E+00  0.00000000E+00
  0.00000000E+00  0.00000000E+00  0.00000000E+00
  0.00000000E+00  0.00000000E+00  0.00000000E+00
  0.00000000E+00  0.00000000E+00  0.00000000E+00
  0.00000000E+00  0.00000000E+00  0.00000000E+00
  0.00000000E+00  0.00000000E+00  0.00000000E+00
  0.00000000E+00  0.00000000E+00  0.00000000E+00
  0.00000000E+00  0.00000000E+00  0.00000000E+00
  0.00000000E+00  0.00000000E+00  0.00000000E+00
  0.00000000E+00  0.00000000E+00  0.00000000E+00
  0.00000000E+00  0.00000000E+00  0.00000000E+00
  0.00000000E+00  0.00000000E+00  0.00000000E+00
  0.00000000E+00  0.00000000E+00  0.00000000E+00
  0.00000000E+00  0.00000000E+00  0.00000000E+00
  0.00000000E+00  0.00000000E+00  0.00000000E+00
  0.00000000E+00  0.00000000E+00  0.00000000E+00
  0.00000000E+00  0.00000000E+00  0.00000000E+00
  0.00000000E+00  0.00000000E+00  0.00000000E+00
  0.00000000E+00  0.00000000E+00  0.00000000E+00
  0.00000000E+00  0.00000000E+00  0.00000000E+00
  0.00000000E+00  0.00000000E+00  0.00000000E+00
  0.00000000E+00  0.00000000E+00  0.00000000E+00
  0.00000000E+00  0.00000000E+00  0.00000000E+00
  0.00000000E+00  0.00000000E+00  0.00000000E+00
  0.00000000E+00  0.00000000E+00  0.00000000E+00
  0.00000000E+00  0.00000000E+00  0.00000000E+00
  0.00000000E+00  0.00000000E+00  0.00000000E+00
  0.00000000E+00  0.00000000E+00  0.00000000E+00
  0.00000000E+00  0.00000000E+00  0.00000000E+00
  0.00000000E+00  0.00000000E+00  0.00000000E+00
  0.00000000E+00  0.00000000E+00  0.00000000E+00
  0.00000000E+00  0.00000000E+00  0.00000000E+00
  0.00000000E+00  0.00000000E+00  0.00000000E+00
  0.00000000E+00  0.00000000E+00  0.00000000E+00
  0.00000000E+00  0.00000000E+00  0.00000000E+00
  0.00000000E+00  0.00000000E+00  0.00000000E+00
  0.00000000E+00  0.00000000E+00  0.00000000E+00
  0.00000000E+00  0.00000000E+00  0.00000000E+00
  0.00000000E+00  0.00000000E+00  0.00000000E+00
  0.00000000E+00  0.00000000E+00  0.00000000E+00
  0.00000000E+00  0.00000000E+00  0.00000000E+00
  0.00000000E+00  0.00000000E+00  0.00000000E+00
  0.00000000E+00  0.00000000E+00  0.00000000E+00
  0.00000000E+00  0.00000000E+00  0.00000000E+00
  0.00000000E+00  0.00000000E+00  0.00000000E+00
  0.00000000E+00  0.00000000E+00  0.00000000E+00
  0.00000000E+00  0.00000000E+00  0.00000000E+00
  0.00000000E+00  0.00000000E+00  0.00000000E+00
  0.00000000E+00  0.00000000E+00  0.00000000E+00
  0.00000000E+00  0.00000000E+00  0.00000000E+00
  0.00000000E+00  0.00000000E+00  0.00000000E+00
  0.00000000E+00  0.00000000E+00  0.00000000E+00
  0.00000000E+00  0.00000000E+00  0.00000000E+00
  0.00000000E+00  0.00000000E+00  0.00000000E+00