CuInSe2gb                               
   1.00000000000000     
     9.7266780392896699    0.0000000000000000    0.0000000000000000
     0.0000000000000000    8.4235502764570693    0.0000000000000000
     0.0000000000000000    0.0000000000000000   45.0000000000000000
   Fe   Mn
   281     7
Direct
  0.0571969589525539  0.7015449425628603  0.2114917920880439
  0.3163136897265809  0.7196165692371900  0.8756323910700771
  0.6884019427941929  0.9573370087740147  0.6113251850545484
  0.4381173642331754  0.4577171840999850  0.6113786481023815
  0.4359993961379179  0.2872396492275655  0.2557559543156194
  0.0611713851898321  0.3863949333072688  0.8340778841663576
  0.3117708717818971  0.8866983127813470  0.8341224829543442
  0.4421281044093748  0.6266868476860622  0.7001925593800098
  0.0641501193970301  0.2124284249113202  0.7443360812691582
  0.1823333920864542  0.4514833436009175  0.2112934673119360
  0.5638080837394565  0.2088929544265853  0.4778397004904384
  0.0640814427190797  0.8744059989609724  0.5666206949854522
  0.5654385452800108  0.2193642397916267  0.8757027864747140
  0.8106485941021795  0.5294505283292584  0.1247228662007107
  0.4323246606731562  0.9513013954684773  0.2113131643636703
  0.5642977354305228  0.3742223706685519  0.5666083386174524
  0.8119017815567824  0.0421493966172523  0.3885387269777877
  0.6864022067287996  0.7904676193736947  0.5220962083525503
  0.4388156650932597  0.4588085893868171  0.4778357713730168
  0.4385980018277637  0.9624870431911713  0.7444529987783113
  0.4388108381685213  0.6246741707437262  0.5666724895979096
  0.0605215902472392  0.5288256215198532  0.1247524829735830
  0.3107555860286062  0.0292227436501317  0.1248062938530485
  0.6869830684818915  0.9587552669545735  0.3444269280762505
  0.6844408054455033  0.7809068166998476  0.1243680217139387
  0.0577598769655975  0.3735508164688316  0.2997665726786873
  0.6888497734807820  0.4713099217360504  0.8753433878661865
  0.4322524260401789  0.4513442695714636  0.2113336516793150
  0.8111398255681619  0.3752254727795741  0.4331309186464053
  0.5630005063423524  0.7076364238076592  0.6112962999765076
  0.5630721727406033  0.5415181585123321  0.6554693542028804
  0.9361545630872457  0.1251267367564949  0.4331452471669270
  0.5611330184499754  0.5376827132338557  0.2556519768792803
  0.6870423936827661  0.4587461627618718  0.3443670369571468
  0.1885796248223708  0.6132224945773447  0.1661135670032534
  0.1928935345883944  0.7986641385139813  0.7885298629093522
  0.4416466856678902  0.1263919922936246  0.7001093032194247
  0.9329395327836162  0.6235045453370758  0.2997837115328743
  0.3151581364519884  0.2196471054798110  0.8757049008670975
  0.3138077791719950  0.8744785159902486  0.5666253348218102
  0.8161486813387556  0.2198785036024098  0.8756978451831299
  0.8132046915307281  0.5413769155576496  0.6555024046604365
  0.5605400838058258  0.5286976179230439  0.1248041516699840
  0.5624464701935684  0.8641263822664974  0.1663188093105462
  0.1859997617573227  0.2872266799284581  0.2557187138873957
  0.8111824864902675  0.8751194132076647  0.4331490219856771
  0.5669905319889413  0.3769628624991810  0.7002053711958339
  0.0602907652497157  0.0294495440961751  0.1246727632936310
  0.3130165265691832  0.5411891276939784  0.6555302663443192
  0.5620487206857063  0.2086364452017458  0.3443704746600648
  0.1882398574114694  0.9573834868079444  0.6114014160744253
  0.3077302483111160  0.3735233746334133  0.2997836721152436
  0.4379370681690934  0.7910646941011542  0.6554474709993283
  0.1922990233216227  0.2985973700001938  0.7886660796169273
  0.0635331914853411  0.3632279840766628  0.1661805158698288
  0.6926590235653188  0.6262303258857821  0.7000781897758297
  0.3119302793021538  0.5421954971228435  0.3885752014739326
  0.0653297607150933  0.7190083060747635  0.8756646279242084
  0.9368026978247253  0.6370512869390969  0.8340758032319625
  0.3174507305490465  0.5494933204645619  0.7888035880773704
  0.3072804497709816  0.2013946091187100  0.2114472613127430
  0.0638710077521941  0.7088098846106592  0.4778337414226804
  0.5573491687674303  0.2013777637204643  0.2114957833616518
  0.3141131031013937  0.2126178564249286  0.7443798514420893
  0.0673939602956850  0.3761041124151852  0.7002090175527133
  0.1867347801940133  0.6366588610904232  0.8338557023135618
  0.0675331244579919  0.0488534749101994  0.7888125053529846
  0.4388919114467384  0.1245091876187897  0.5666449002947589
  0.9383540126577791  0.2911976337109196  0.6554728342328260
  0.8072336868018914  0.2011565897913761  0.2114182539126787
  0.9326279048630748  0.9515112250086565  0.2112842207190923
  0.9390870664852327  0.6245942196291780  0.5667057845219664
  0.8116819757851103  0.3868427189920649  0.8341639415117398
  0.1922751067230069  0.6260072575722307  0.7002111529183844
  0.8111822265550890  0.8861215424463087  0.8340844907560975
  0.6884095111368336  0.2918309899877826  0.6554939731864809
  0.3127880985174719  0.2078955654378693  0.6114113148187290
  0.4386398295711309  0.4625636528131706  0.7443150003272444
  0.4369021296067350  0.7920263669823225  0.3885465141510460
  0.6900959835420654  0.9626486812022622  0.7445122849050260
  0.8073209148975434  0.7009791364499485  0.2115160172871411
  0.8138617054090321  0.7073730545950933  0.6112519068949960
  0.4337050158319368  0.7809351544252553  0.1246007800737282
  0.3137364906299628  0.7126680851484584  0.7443231791522883
  0.3174653267453065  0.0495643047253125  0.7889656707766304
  0.8118854209528377  0.5421508492194441  0.3885770776213107
  0.6864490026394686  0.2903989379092893  0.5220680572557589
  0.6925098141339142  0.7983980388162131  0.7886389694745027
  0.1860101227754142  0.7871544304945025  0.2557050979834981
  0.6879218668524018  0.1134041631632486  0.1662162983315361
  0.6888644405994816  0.9589502133216408  0.4778455361898191
  0.9369833459193015  0.9587912782145558  0.3443877834215995
  0.8115641130734538  0.0400830658111536  0.5219289295516880
  0.6862003203045661  0.6251307732774556  0.4331297677518636
  0.4369648281195134  0.4587870690735293  0.3443848993852142
  0.8152702254281061  0.2126695134492783  0.7443841142289862
  0.4393213109103375  0.9715179231314424  0.8754278350590984
  0.5642013736482236  0.8746135155312863  0.5666390466257288
  0.8105721597487034  0.0290065156225429  0.1245088045044379
  0.4328647898330211  0.6236574702397119  0.2997719173890161
  0.8151052220483543  0.7195397565945993  0.8757108700878774
  0.6883808316779914  0.4578054061216106  0.6113599143333081
  0.5613692257009468  0.3868613975659014  0.8340325598509508
  0.8077150173818295  0.3736778461984671  0.2997930407780483
  0.1870007305273697  0.2921796036344994  0.3885810987899455
  0.8174109739383340  0.5494036576891962  0.7888994546938384
  0.1864096404195019  0.7902945339286389  0.5220629937068306
  0.3077346360193213  0.8735049092615712  0.2998081444501262
  0.1819807698554931  0.9513435998424161  0.2112990305754941
  0.1888358384581691  0.4630887912968369  0.7443753993032474
  0.4364615315501567  0.2904143153097351  0.5220277398398260
  0.0620596801914103  0.7085795938410697  0.3443482766796798
  0.1880164865632590  0.7910712795705158  0.6555254833579151
  0.4417312578775473  0.7990040220201240  0.7886594963155590
  0.6861305825149787  0.1251852476597742  0.4331388686596571
  0.9364247674660360  0.7903099817048760  0.5220614406332178
  0.6886912955854803  0.6136450533555359  0.1661159229902431
  0.8119769795615740  0.7086820838540918  0.3443547435922978
  0.9394653622937049  0.4624296903429058  0.7443555953232380
  0.1869464645026183  0.4587642555575087  0.3443831396042467
  0.5678371505837045  0.5482528266613318  0.7888078268113194
  0.5621151217745280  0.3635626904978597  0.1662256439393229
  0.5620460558423988  0.7086675227896584  0.3443805755339606
  0.5577112743152375  0.3735183474615613  0.2997918618429891
  0.1888097672494068  0.4714168392615773  0.8754511882245563
  0.1882787535145662  0.1143818172060379  0.1661412326115790
  0.4421539235663693  0.2983369371487807  0.7885528717996811
  0.6861066757482205  0.7872401213745899  0.2557640019372676
  0.9368678458553632  0.1367714964191164  0.8338250831569359
  0.4386339560665803  0.9588458278196836  0.4778424334842857
  0.5654657506320251  0.7193540648366676  0.8756413804712309
  0.1887286229449703  0.4589766130308006  0.4778682254313248
  0.9345488306538783  0.2812945546097431  0.1246177692442311
  0.3119370624498317  0.0422364740100353  0.3885868298168300
  0.0630151702626739  0.0411767807861224  0.6555886220517529
  0.5611568205807378  0.3752482079083680  0.4331233478660247
  0.9361435065171363  0.6252101724527434  0.4331105071309677
  0.3126683955585039  0.3636805868902918  0.1663556725162309
  0.9425003033475683  0.1267431163791040  0.7003009358779855
  0.5630979484183806  0.0412679477108399  0.6555345790878669
  0.5614190232828761  0.5409208760633922  0.5219694384019142
  0.1828177728572828  0.1235095853076404  0.2997661177817175
  0.4383375271518457  0.1143085342117226  0.1661648699556752
  0.6829446908518506  0.6235475944435793  0.2997758316790912
  0.9329599864977943  0.1235246784125302  0.2997853253753401
  0.8137863017989849  0.3744036138130109  0.5666636522561334
  0.0578116229185048  0.8734903937932507  0.2998087834554041
  0.1890322648291979  0.6244842268970471  0.5667077556616512
  0.9417737429565364  0.7985596105014546  0.7886458997444962
  0.3113013477223009  0.3867009885358593  0.8341434914511004
  0.9392494294135553  0.4713749353438885  0.8754821919106766
  0.4365326517100930  0.6370715399189959  0.8340824476413095
  0.0620252883126430  0.2086286978704358  0.3443387205994023
  0.1887991719578982  0.9714327209523630  0.8753912253319597
  0.9334624092925992  0.7810342938951481  0.1242411583281832
  0.6869277223736902  0.7921291056272826  0.3885712990768232
  0.9379135423720671  0.7911426146825783  0.6555373261545755
  0.9385826317451745  0.1136017178495189  0.1661563084846689
  0.4377643283817811  0.2915533366705845  0.6555043551457714
  0.0574071938798515  0.2012062259000750  0.2114537945291525
  0.6821245512112478  0.9518010327111514  0.2113856174794649
  0.1828349232088101  0.6236852047829801  0.2997908341075595
  0.8180834468426307  0.8766636313093729  0.7001617618837715
  0.9422640996292556  0.6261437131691640  0.7002511349745787
  0.1924543930358950  0.1267579942804536  0.7001617596920366
  0.9388073080330277  0.4588978475891497  0.4778684786876323
  0.8136114567332016  0.2076226162303026  0.6113327488814134
  0.1861126880520552  0.6252171716592485  0.4331315012499082
  0.4329296416946177  0.1235810840155281  0.2997595652066498
  0.6828216387428695  0.1235732960253343  0.2997309577595602
  0.5618964271443542  0.5421359868625063  0.3885766859110213
  0.8119591944026383  0.2086603535777519  0.3443749884732250
  0.4394738578012292  0.4715200672869166  0.8752913251519177
  0.5609449742311459  0.8863325126612925  0.8341618225399612
  0.3137895649843432  0.2088801613011821  0.4778298641192605
  0.1887892343256433  0.9589842642160517  0.4778990665040360
  0.0613115113078464  0.8868313216271877  0.8340210078948965
  0.0613637952640061  0.5403413959826986  0.5220393464149696
  0.9387725028172205  0.9589936660516615  0.4778885587005576
  0.0631574731634784  0.7076351979085748  0.6113560282985385
  0.5614873565580031  0.0405074936809683  0.5220334516461779
  0.6929977017603220  0.2987049048245628  0.7886331472905900
  0.8125727546941790  0.3632243589447208  0.1662595902266431
  0.4361185646739580  0.1251907734099627  0.4331214614532836
  0.0637906974353420  0.2089797749469824  0.4778484049192770
  0.3132502337311935  0.0410954226045036  0.6554390660774471
  0.4364529312776836  0.7905344649216510  0.5220578153981457
  0.1872165813559391  0.1367182270979428  0.8338463393725891
  0.1840998050545922  0.2806508690685175  0.1245574267825775
  0.9369784402831590  0.4587793423937610  0.3443668217747956
  0.3128990286055672  0.8632517357441079  0.1662057871950073
  0.3072828711502234  0.7016295996333671  0.2114790479576455
  0.9377401793914529  0.6133592268452265  0.1661388506023778
  0.1881250585894051  0.4578581103654414  0.6113858095096277
  0.0672492335814311  0.8767962815540212  0.7001982489811218
  0.0632607718039244  0.5412791081746068  0.6555812591586423
  0.3105353592133561  0.5296660512026167  0.1247515636340827
  0.9369915318371458  0.7921387246997570  0.3885763855636772
  0.9417172569209870  0.2990934246248300  0.7886631710948299
  0.1877812725941767  0.2916844158397142  0.6555642524127788
  0.9380626324910787  0.9572646491851078  0.6114136129928796
  0.8149437707150395  0.7123361085596491  0.7444168390472419
  0.6860262097895242  0.2870405907637552  0.2556905610469151
  0.0641924716630761  0.7132706296068081  0.7443551637142432
  0.6821860058927949  0.4514539864027076  0.2112426688505769
  0.8136931122655321  0.2088748415820307  0.4778354761326954
  0.5637544397427757  0.7087371589668757  0.4778660599964189
  0.0629263173914878  0.8642090873290892  0.1662937827200785
  0.9364108610000127  0.2904912154920620  0.5220703785467707
  0.6878320338531672  0.7918406897631620  0.6555740573758224
  0.0610871758099521  0.8750816058023290  0.4330996262662072
  0.0657274552032529  0.2190492267217434  0.8757087093163994
  0.8130507088458588  0.0411955148745277  0.6554687337002626
  0.5607562388987122  0.0293339922784513  0.1247823185458486
  0.3111459192751815  0.3751750952959602  0.4331179182956774
  0.3140059344966097  0.3744131085604173  0.5666642458677891
  0.3136641800125683  0.7088662502245998  0.4778054111198129
  0.0613824691724276  0.0404535310884308  0.5220650672083350
  0.3166572525577839  0.8762820665975690  0.7000974722926236
  0.0609133179904339  0.5377322801931801  0.2556710302837959
  0.6867549149556830  0.1365113408776559  0.8339925696239351
  0.8109149594766597  0.0375567912527125  0.2557022581888281
  0.1861595783075159  0.1251271995139830  0.4331381561496210
  0.6925241520702625  0.1266391901506929  0.7001173948235920
  0.1863826377746046  0.2903453424384546  0.5220768628038379
  0.4360073935612602  0.7870506045312468  0.2557172412358774
  0.8110848051036568  0.5377899000780108  0.2556791629163701
  0.0630880566180275  0.2078490860281441  0.6113973336015458
  0.1869514828234568  0.7921850182121098  0.3885926228508413
  0.3114248473688453  0.5403816803644649  0.5220773034752562
  0.8175277791476879  0.3767034543344849  0.7001782432491024
  0.6868937707413130  0.2922032295381065  0.3885803075714706
  0.1889603258219492  0.1242596144285961  0.5666259458695967
  0.6885083760184518  0.9717630459210267  0.8754374761465414
  0.6890106264838286  0.1246063268398878  0.5666082113205605
  0.4369598946259594  0.9587307877466122  0.3443959252411812
  0.1886968550899916  0.9621551567272746  0.7443595942313160
  0.9358145945968371  0.7871044761289737  0.2557179610818924
  0.5611595801077084  0.8752438292103274  0.4331097003920962
  0.3111361593959785  0.8751300996221207  0.4331399267604010
  0.8113941710971746  0.5403338082743231  0.5220705252671864
  0.9324010889427303  0.4514164490016070  0.2112323932726537
  0.3112411307502043  0.5375532398746730  0.2556571077270429
  0.5618386563680613  0.0421369219108564  0.3885830667585843
  0.9382926044810048  0.4580491053063506  0.6113658020976809
  0.0618790350409451  0.0420833004615280  0.3885807984931846
  0.0618878672010571  0.5421308964518780  0.3885794475090938
  0.4368288141137577  0.2920762457345015  0.3885543323919418
  0.6887633450152089  0.4589074007620519  0.4778264506905379
  0.0641562520423655  0.3743840133928084  0.5667087931669353
  0.5576212076087368  0.7015341668916737  0.2114406353404357
  0.9360658370772528  0.2870468443933633  0.2557465868379626
  0.8176154542385391  0.0494524545475557  0.7887738002621344
  0.1869809302646316  0.9587430940846230  0.3443612874795827
  0.5577677795599637  0.8735024372966910  0.2997856596599918
  0.0611623763271249  0.3751939328852544  0.4331246791732050
  0.3120439558702870  0.7086631019712804  0.3443555577358082
  0.3120685367415828  0.2087251395808847  0.3444119510905274
  0.9391107254064661  0.1242934623239521  0.5666824020119559
  0.4379037065032775  0.9574540094479924  0.6112842427692934
  0.5611089627038351  0.0378855201316028  0.2557274438516633
  0.1851255852091185  0.7808241659171730  0.1246311685019659
  0.0609842971445649  0.0378350800197730  0.2556226646574495
  0.6889547653372767  0.6247525763712712  0.5666420841388963
  0.4382783437723010  0.6133794242457697  0.1661061327328869
  0.3113070135620163  0.0402189935262477  0.5220229375552222
  0.6839931226700079  0.2808685625733794  0.1245958494955836
  0.8137893974353234  0.7087621600769759  0.4778557693632164
  0.4370833832910174  0.1367246409818615  0.8340183303447074
  0.3172648613464635  0.3765694691970327  0.7002499752590501
  0.6873360142395504  0.6366263723819980  0.8339361507213302
  0.5637490595335299  0.7133859011435225  0.7444390465177484
  0.9370066006265195  0.2921406918461620  0.3885696693453927
  0.9393914461688581  0.9715045128252122  0.8753893051044118
  0.9396687868368058  0.9624519412856776  0.7443481828433111
  0.8139219836603766  0.8745702758815543  0.5666604192391681
  0.8077676148312078  0.8735007280720518  0.2997785403709348
  0.3112120503581150  0.0377824780740140  0.2557005246487906
  0.4342352771073397  0.2805538478488747  0.1245404596648682
  0.3126979396253339  0.7072994498072644  0.6113001842760916
  0.4359995716506685  0.6251538188648751  0.4331315199607163
  0.6889221195137838  0.4632476413041735  0.7445629294863553
  0.5678702830838858  0.0484640122615133  0.7886926800775111
  0.0681442903798594  0.5491498587471101  0.7885987363655894
  0.8135377337855746  0.8631646226174809  0.1657956714211260
  0.5630337363285703  0.2116591766240230  0.7443791443813801
  0.5630463700141891  0.2082070910625951  0.6112181211325027
  0.5678575176912806  0.8767028033853623  0.7002111073308649
 
  0.00000000E+00  0.00000000E+00  0.00000000E+00
  0.00000000E+00  0.00000000E+00  0.00000000E+00
  0.00000000E+00  0.00000000E+00  0.00000000E+00
  0.00000000E+00  0.00000000E+00  0.00000000E+00
  0.00000000E+00  0.00000000E+00  0.00000000E+00
  0.00000000E+00  0.00000000E+00  0.00000000E+00
  0.00000000E+00  0.00000000E+00  0.00000000E+00
  0.00000000E+00  0.00000000E+00  0.00000000E+00
  0.00000000E+00  0.00000000E+00  0.00000000E+00
  0.00000000E+00  0.00000000E+00  0.00000000E+00
  0.00000000E+00  0.00000000E+00  0.00000000E+00
  0.00000000E+00  0.00000000E+00  0.00000000E+00
  0.00000000E+00  0.00000000E+00  0.00000000E+00
  0.00000000E+00  0.00000000E+00  0.00000000E+00
  0.00000000E+00  0.00000000E+00  0.00000000E+00
  0.00000000E+00  0.00000000E+00  0.00000000E+00
  0.00000000E+00  0.00000000E+00  0.00000000E+00
  0.00000000E+00  0.00000000E+00  0.00000000E+00
  0.00000000E+00  0.00000000E+00  0.00000000E+00
  0.00000000E+00  0.00000000E+00  0.00000000E+00
  0.00000000E+00  0.00000000E+00  0.00000000E+00
  0.00000000E+00  0.00000000E+00  0.00000000E+00
  0.00000000E+00  0.00000000E+00  0.00000000E+00
  0.00000000E+00  0.00000000E+00  0.00000000E+00
  0.00000000E+00  0.00000000E+00  0.00000000E+00
  0.00000000E+00  0.00000000E+00  0.00000000E+00
  0.00000000E+00  0.00000000E+00  0.00000000E+00
  0.00000000E+00  0.00000000E+00  0.00000000E+00
  0.00000000E+00  0.00000000E+00  0.00000000E+00
  0.00000000E+00  0.00000000E+00  0.00000000E+00
  0.00000000E+00  0.00000000E+00  0.00000000E+00
  0.00000000E+00  0.00000000E+00  0.00000000E+00
  0.00000000E+00  0.00000000E+00  0.00000000E+00
  0.00000000E+00  0.00000000E+00  0.00000000E+00
  0.00000000E+00  0.00000000E+00  0.00000000E+00
  0.00000000E+00  0.00000000E+00  0.00000000E+00
  0.00000000E+00  0.00000000E+00  0.00000000E+00
  0.00000000E+00  0.00000000E+00  0.00000000E+00
  0.00000000E+00  0.00000000E+00  0.00000000E+00
  0.00000000E+00  0.00000000E+00  0.00000000E+00
  0.00000000E+00  0.00000000E+00  0.00000000E+00
  0.00000000E+00  0.00000000E+00  0.00000000E+00
  0.00000000E+00  0.00000000E+00  0.00000000E+00
  0.00000000E+00  0.00000000E+00  0.00000000E+00
  0.00000000E+00  0.00000000E+00  0.00000000E+00
  0.00000000E+00  0.00000000E+00  0.00000000E+00
  0.00000000E+00  0.00000000E+00  0.00000000E+00
  0.00000000E+00  0.00000000E+00  0.00000000E+00
  0.00000000E+00  0.00000000E+00  0.00000000E+00
  0.00000000E+00  0.00000000E+00  0.00000000E+00
  0.00000000E+00  0.00000000E+00  0.00000000E+00
  0.00000000E+00  0.00000000E+00  0.00000000E+00
  0.00000000E+00  0.00000000E+00  0.00000000E+00
  0.00000000E+00  0.00000000E+00  0.00000000E+00
  0.00000000E+00  0.00000000E+00  0.00000000E+00
  0.00000000E+00  0.00000000E+00  0.00000000E+00
  0.00000000E+00  0.00000000E+00  0.00000000E+00
  0.00000000E+00  0.00000000E+00  0.00000000E+00
  0.00000000E+00  0.00000000E+00  0.00000000E+00
  0.00000000E+00  0.00000000E+00  0.00000000E+00
  0.00000000E+00  0.00000000E+00  0.00000000E+00
  0.00000000E+00  0.00000000E+00  0.00000000E+00
  0.00000000E+00  0.00000000E+00  0.00000000E+00
  0.00000000E+00  0.00000000E+00  0.00000000E+00
  0.00000000E+00  0.00000000E+00  0.00000000E+00
  0.00000000E+00  0.00000000E+00  0.00000000E+00
  0.00000000E+00  0.00000000E+00  0.00000000E+00
  0.00000000E+00  0.00000000E+00  0.00000000E+00
  0.00000000E+00  0.00000000E+00  0.00000000E+00
  0.00000000E+00  0.00000000E+00  0.00000000E+00
  0.00000000E+00  0.00000000E+00  0.00000000E+00
  0.00000000E+00  0.00000000E+00  0.00000000E+00
  0.00000000E+00  0.00000000E+00  0.00000000E+00
  0.00000000E+00  0.00000000E+00  0.00000000E+00
  0.00000000E+00  0.00000000E+00  0.00000000E+00
  0.00000000E+00  0.00000000E+00  0.00000000E+00
  0.00000000E+00  0.00000000E+00  0.00000000E+00
  0.00000000E+00  0.00000000E+00  0.00000000E+00
  0.00000000E+00  0.00000000E+00  0.00000000E+00
  0.00000000E+00  0.00000000E+00  0.00000000E+00
  0.00000000E+00  0.00000000E+00  0.00000000E+00
  0.00000000E+00  0.00000000E+00  0.00000000E+00
  0.00000000E+00  0.00000000E+00  0.00000000E+00
  0.00000000E+00  0.00000000E+00  0.00000000E+00
  0.00000000E+00  0.00000000E+00  0.00000000E+00
  0.00000000E+00  0.00000000E+00  0.00000000E+00
  0.00000000E+00  0.00000000E+00  0.00000000E+00
  0.00000000E+00  0.00000000E+00  0.00000000E+00
  0.00000000E+00  0.00000000E+00  0.00000000E+00
  0.00000000E+00  0.00000000E+00  0.00000000E+00
  0.00000000E+00  0.00000000E+00  0.00000000E+00
  0.00000000E+00  0.00000000E+00  0.00000000E+00
  0.00000000E+00  0.00000000E+00  0.00000000E+00
  0.00000000E+00  0.00000000E+00  0.00000000E+00
  0.00000000E+00  0.00000000E+00  0.00000000E+00
  0.00000000E+00  0.00000000E+00  0.00000000E+00
  0.00000000E+00  0.00000000E+00  0.00000000E+00
  0.00000000E+00  0.00000000E+00  0.00000000E+00
  0.00000000E+00  0.00000000E+00  0.00000000E+00
  0.00000000E+00  0.00000000E+00  0.00000000E+00
  0.00000000E+00  0.00000000E+00  0.00000000E+00
  0.00000000E+00  0.00000000E+00  0.00000000E+00
  0.00000000E+00  0.00000000E+00  0.00000000E+00
  0.00000000E+00  0.00000000E+00  0.00000000E+00
  0.00000000E+00  0.00000000E+00  0.00000000E+00
  0.00000000E+00  0.00000000E+00  0.00000000E+00
  0.00000000E+00  0.00000000E+00  0.00000000E+00
  0.00000000E+00  0.00000000E+00  0.00000000E+00
  0.00000000E+00  0.00000000E+00  0.00000000E+00
  0.00000000E+00  0.00000000E+00  0.00000000E+00
  0.00000000E+00  0.00000000E+00  0.00000000E+00
  0.00000000E+00  0.00000000E+00  0.00000000E+00
  0.00000000E+00  0.00000000E+00  0.00000000E+00
  0.00000000E+00  0.00000000E+00  0.00000000E+00
  0.00000000E+00  0.00000000E+00  0.00000000E+00
  0.00000000E+00  0.00000000E+00  0.00000000E+00
  0.00000000E+00  0.00000000E+00  0.00000000E+00
  0.00000000E+00  0.00000000E+00  0.00000000E+00
  0.00000000E+00  0.00000000E+00  0.00000000E+00
  0.00000000E+00  0.00000000E+00  0.00000000E+00
  0.00000000E+00  0.00000000E+00  0.00000000E+00
  0.00000000E+00  0.00000000E+00  0.00000000E+00
  0.00000000E+00  0.00000000E+00  0.00000000E+00
  0.00000000E+00  0.00000000E+00  0.00000000E+00
  0.00000000E+00  0.00000000E+00  0.00000000E+00
  0.00000000E+00  0.00000000E+00  0.00000000E+00
  0.00000000E+00  0.00000000E+00  0.00000000E+00
  0.00000000E+00  0.00000000E+00  0.00000000E+00
  0.00000000E+00  0.00000000E+00  0.00000000E+00
  0.00000000E+00  0.00000000E+00  0.00000000E+00
  0.00000000E+00  0.00000000E+00  0.00000000E+00
  0.00000000E+00  0.00000000E+00  0.00000000E+00
  0.00000000E+00  0.00000000E+00  0.00000000E+00
  0.00000000E+00  0.00000000E+00  0.00000000E+00
  0.00000000E+00  0.00000000E+00  0.00000000E+00
  0.00000000E+00  0.00000000E+00  0.00000000E+00
  0.00000000E+00  0.00000000E+00  0.00000000E+00
  0.00000000E+00  0.00000000E+00  0.00000000E+00
  0.00000000E+00  0.00000000E+00  0.00000000E+00
  0.00000000E+00  0.00000000E+00  0.00000000E+00
  0.00000000E+00  0.00000000E+00  0.00000000E+00
  0.00000000E+00  0.00000000E+00  0.00000000E+00
  0.00000000E+00  0.00000000E+00  0.00000000E+00
  0.00000000E+00  0.00000000E+00  0.00000000E+00
  0.00000000E+00  0.00000000E+00  0.00000000E+00
  0.00000000E+00  0.00000000E+00  0.00000000E+00
  0.00000000E+00  0.00000000E+00  0.00000000E+00
  0.00000000E+00  0.00000000E+00  0.00000000E+00
  0.00000000E+00  0.00000000E+00  0.00000000E+00
  0.00000000E+00  0.00000000E+00  0.00000000E+00
  0.00000000E+00  0.00000000E+00  0.00000000E+00
  0.00000000E+00  0.00000000E+00  0.00000000E+00
  0.00000000E+00  0.00000000E+00  0.00000000E+00
  0.00000000E+00  0.00000000E+00  0.00000000E+00
  0.00000000E+00  0.00000000E+00  0.00000000E+00
  0.00000000E+00  0.00000000E+00  0.00000000E+00
  0.00000000E+00  0.00000000E+00  0.00000000E+00
  0.00000000E+00  0.00000000E+00  0.00000000E+00
  0.00000000E+00  0.00000000E+00  0.00000000E+00
  0.00000000E+00  0.00000000E+00  0.00000000E+00
  0.00000000E+00  0.00000000E+00  0.00000000E+00
  0.00000000E+00  0.00000000E+00  0.00000000E+00
  0.00000000E+00  0.00000000E+00  0.00000000E+00
  0.00000000E+00  0.00000000E+00  0.00000000E+00
  0.00000000E+00  0.00000000E+00  0.00000000E+00
  0.00000000E+00  0.00000000E+00  0.00000000E+00
  0.00000000E+00  0.00000000E+00  0.00000000E+00
  0.00000000E+00  0.00000000E+00  0.00000000E+00
  0.00000000E+00  0.00000000E+00  0.00000000E+00
  0.00000000E+00  0.00000000E+00  0.00000000E+00
  0.00000000E+00  0.00000000E+00  0.00000000E+00
  0.00000000E+00  0.00000000E+00  0.00000000E+00
  0.00000000E+00  0.00000000E+00  0.00000000E+00
  0.00000000E+00  0.00000000E+00  0.00000000E+00
  0.00000000E+00  0.00000000E+00  0.00000000E+00
  0.00000000E+00  0.00000000E+00  0.00000000E+00
  0.00000000E+00  0.00000000E+00  0.00000000E+00
  0.00000000E+00  0.00000000E+00  0.00000000E+00
  0.00000000E+00  0.00000000E+00  0.00000000E+00
  0.00000000E+00  0.00000000E+00  0.00000000E+00
  0.00000000E+00  0.00000000E+00  0.00000000E+00
  0.00000000E+00  0.00000000E+00  0.00000000E+00
  0.00000000E+00  0.00000000E+00  0.00000000E+00
  0.00000000E+00  0.00000000E+00  0.00000000E+00
  0.00000000E+00  0.00000000E+00  0.00000000E+00
  0.00000000E+00  0.00000000E+00  0.00000000E+00
  0.00000000E+00  0.00000000E+00  0.00000000E+00
  0.00000000E+00  0.00000000E+00  0.00000000E+00
  0.00000000E+00  0.00000000E+00  0.00000000E+00
  0.00000000E+00  0.00000000E+00  0.00000000E+00
  0.00000000E+00  0.00000000E+00  0.00000000E+00
  0.00000000E+00  0.00000000E+00  0.00000000E+00
  0.00000000E+00  0.00000000E+00  0.00000000E+00
  0.00000000E+00  0.00000000E+00  0.00000000E+00
  0.00000000E+00  0.00000000E+00  0.00000000E+00
  0.00000000E+00  0.00000000E+00  0.00000000E+00
  0.00000000E+00  0.00000000E+00  0.00000000E+00
  0.00000000E+00  0.00000000E+00  0.00000000E+00
  0.00000000E+00  0.00000000E+00  0.00000000E+00
  0.00000000E+00  0.00000000E+00  0.00000000E+00
  0.00000000E+00  0.00000000E+00  0.00000000E+00
  0.00000000E+00  0.00000000E+00  0.00000000E+00
  0.00000000E+00  0.00000000E+00  0.00000000E+00
  0.00000000E+00  0.00000000E+00  0.00000000E+00
  0.00000000E+00  0.00000000E+00  0.00000000E+00
  0.00000000E+00  0.00000000E+00  0.00000000E+00
  0.00000000E+00  0.00000000E+00  0.00000000E+00
  0.00000000E+00  0.00000000E+00  0.00000000E+00
  0.00000000E+00  0.00000000E+00  0.00000000E+00
  0.00000000E+00  0.00000000E+00  0.00000000E+00
  0.00000000E+00  0.00000000E+00  0.00000000E+00
  0.00000000E+00  0.00000000E+00  0.00000000E+00
  0.00000000E+00  0.00000000E+00  0.00000000E+00
  0.00000000E+00  0.00000000E+00  0.00000000E+00
  0.00000000E+00  0.00000000E+00  0.00000000E+00
  0.00000000E+00  0.00000000E+00  0.00000000E+00
  0.00000000E+00  0.00000000E+00  0.00000000E+00
  0.00000000E+00  0.00000000E+00  0.00000000E+00
  0.00000000E+00  0.00000000E+00  0.00000000E+00
  0.00000000E+00  0.00000000E+00  0.00000000E+00
  0.00000000E+00  0.00000000E+00  0.00000000E+00
  0.00000000E+00  0.00000000E+00  0.00000000E+00
  0.00000000E+00  0.00000000E+00  0.00000000E+00
  0.00000000E+00  0.00000000E+00  0.00000000E+00
  0.00000000E+00  0.00000000E+00  0.00000000E+00
  0.00000000E+00  0.00000000E+00  0.00000000E+00
  0.00000000E+00  0.00000000E+00  0.00000000E+00
  0.00000000E+00  0.00000000E+00  0.00000000E+00
  0.00000000E+00  0.00000000E+00  0.00000000E+00
  0.00000000E+00  0.00000000E+00  0.00000000E+00
  0.00000000E+00  0.00000000E+00  0.00000000E+00
  0.00000000E+00  0.00000000E+00  0.00000000E+00
  0.00000000E+00  0.00000000E+00  0.00000000E+00
  0.00000000E+00  0.00000000E+00  0.00000000E+00
  0.00000000E+00  0.00000000E+00  0.00000000E+00
  0.00000000E+00  0.00000000E+00  0.00000000E+00
  0.00000000E+00  0.00000000E+00  0.00000000E+00
  0.00000000E+00  0.00000000E+00  0.00000000E+00
  0.00000000E+00  0.00000000E+00  0.00000000E+00
  0.00000000E+00  0.00000000E+00  0.00000000E+00
  0.00000000E+00  0.00000000E+00  0.00000000E+00
  0.00000000E+00  0.00000000E+00  0.00000000E+00
  0.00000000E+00  0.00000000E+00  0.00000000E+00
  0.00000000E+00  0.00000000E+00  0.00000000E+00
  0.00000000E+00  0.00000000E+00  0.00000000E+00
  0.00000000E+00  0.00000000E+00  0.00000000E+00
  0.00000000E+00  0.00000000E+00  0.00000000E+00