CuInSe2gb                               
   1.00000000000000     
     9.7266780392896699    0.0000000000000000    0.0000000000000000
     0.0000000000000000    8.4235502764570693    0.0000000000000000
     0.0000000000000000    0.0000000000000000   45.0000000000000000
   Fe   Mn
   281     7
Direct
  0.0533480378290999  0.7019350174836468  0.2114331361253131
  0.3180831042936520  0.7240397474492161  0.8761323694982425
  0.6873327920582407  0.9580944923861650  0.6113533462751676
  0.4381143888096518  0.4575565797679988  0.6111923349945823
  0.4399285729605233  0.2881745251924246  0.2554685473990189
  0.0586179627415233  0.3879145701882952  0.8334572506423260
  0.3083541424997286  0.8875213198189792  0.8334951545314678
  0.4472074763645819  0.6262906891431574  0.7001166851209522
  0.0603839282688305  0.2118415508858343  0.7448225022536294
  0.1785489127078992  0.4509546335465427  0.2113232507509627
  0.5678823318005707  0.2107045280793126  0.4774561492069943
  0.0667675964511134  0.8748930407841417  0.5667731626099440
  0.5679299318486616  0.2239105671432090  0.8761147368963560
  0.8097088635113954  0.5333749941965252  0.1242290875389294
  0.4287291376954457  0.9511939353469078  0.2112858542543441
  0.5666557918670861  0.3750040247171619  0.5668935651078021
  0.8122345368845661  0.0418710314086691  0.3886132793818043
  0.6824927199468015  0.7884469449044387  0.5221909104177261
  0.4427636109049736  0.4607227089078693  0.4774677566651229
  0.4344450263307504  0.9621553405966358  0.7445882969937728
  0.4420191545610064  0.6249560828188307  0.5667373540150740
  0.0604783944386138  0.5322434035195038  0.1243637961823620
  0.3099504794238742  0.0325077310601253  0.1242439485736933
  0.6903694438771689  0.9593811278443206  0.3441831896781578
  0.6822693138281598  0.7772988858925486  0.1241060344649978
  0.0527478820087421  0.3738415542716836  0.2998052087625618
  0.6894625955912062  0.4675288024873140  0.8759621065299326
  0.4286409286584921  0.4511923908619180  0.2112984401914178
  0.8084096367529945  0.3749566438255033  0.4331209916307439
  0.5627023401222344  0.7081098737456510  0.6113541142183216
  0.5599734150825288  0.5411436446175890  0.6557174346618462
  0.9334436946270539  0.1249558104675607  0.4331058656318143
  0.5658763476731337  0.5376102644318691  0.2554522786105113
  0.6902681742463204  0.4593301540624210  0.3441932228913301
  0.1915307519325630  0.6122864555538851  0.1668004431261840
  0.1954158621340915  0.7987192371101802  0.7887301618646139
  0.4473652623558350  0.1259000752034383  0.7001587479485235
  0.9277641647192525  0.6238824075278295  0.2997444029827365
  0.3180721145262917  0.2239964171984643  0.8761145233102292
  0.3167325310872660  0.8747455597439753  0.5667751971532129
  0.8182345011187372  0.2238542404358538  0.8761354552845028
  0.8098023115332681  0.5407502575205190  0.6557393679576053
  0.5592199305991800  0.5319575476870524  0.1242787272276134
  0.5662115050433520  0.8625224283358269  0.1666086846343651
  0.1898943173352339  0.2881750110433745  0.2554537893112193
  0.8083927286878143  0.8749944121957097  0.4331225095474338
  0.5721687777589730  0.3760782035482055  0.7001109620159778
  0.0602279880516045  0.0326766214771567  0.1242637057410929
  0.3096985459232294  0.5407547311063796  0.6557978440051914
  0.5653496905127013  0.2094729196477821  0.3441423544235778
  0.1878067695737634  0.9580335197375960  0.6113292137289590
  0.3027789210516051  0.3738424356338154  0.2997842739026230
  0.4344335639183498  0.7908070624088966  0.6556840827486314
  0.1961043941603113  0.2983843226054371  0.7886300103821168
  0.0662893130466549  0.3624308074537444  0.1665620966097884
  0.6970898007039963  0.6264565589751850  0.7003439208686348
  0.3121789305397357  0.5417804847918180  0.3885586606840714
  0.0679821424192430  0.7238533484731746  0.8761140686134694
  0.9336432580749775  0.6377345065571471  0.8335558798591693
  0.3201235714260294  0.5494544057599355  0.7887262443827129
  0.3033764565447264  0.2018412200711376  0.2114322979391145
  0.0678249351115448  0.7106697260507419  0.4774696900100920
  0.5533695508727899  0.2018738111652577  0.2114523529564266
  0.3112534576621835  0.2114504861805300  0.7445580532112490
  0.0720516918993227  0.3762320480126768  0.7004376289185922
  0.1832687855123075  0.6374924473142936  0.8334916221352128
  0.0713686194357300  0.0488793034422981  0.7887816651790602
  0.4417531221855032  0.1248580426778564  0.5667882663201854
  0.9349155858298227  0.2908740412143345  0.6557060901676021
  0.8034327274955297  0.2018210759547774  0.2114228622219138
  0.9288111150102204  0.9512284600075620  0.2113666897745598
  0.9415688083346593  0.6250127362394866  0.5668831561917902
  0.8086196430910179  0.3878776580876233  0.8334975104835856
  0.1972597957383969  0.6260244499227133  0.7000975837183813
  0.8087051734992786  0.8878901838537738  0.8335378786556471
  0.6847737872893042  0.2907584207006159  0.6558054623037848
  0.3127632986712780  0.2081684467096031  0.6113672664534501
  0.4359639492429503  0.4627132756365501  0.7445050812137661
  0.4371670752417975  0.7919266378485851  0.3886161774760183
  0.6853573931671298  0.9623223546628860  0.7445512351835805
  0.8034803731677742  0.7017598687092873  0.2114510370432759
  0.8130057082931510  0.7077317841223261  0.6112729202709618
  0.4309840202036248  0.7778249862380222  0.1241395794739990
  0.3108248168827101  0.7123083510837965  0.7444914901972668
  0.3213943013688737  0.0491228782336127  0.7887883767948024
  0.8121520570734458  0.5417755697558900  0.3885583835067350
  0.6824093898518900  0.2881536583788436  0.5223179824370983
  0.6950188353659331  0.7980786800470323  0.7886773005776492
  0.1899491382778424  0.7882333082743134  0.2554758647871339
  0.6913422859173063  0.1120881092693936  0.1667927253438516
  0.6928622549229603  0.9606244433197028  0.4774687326729707
  0.9403263198536874  0.9593676021991711  0.3441790767758796
  0.8075127481198071  0.0382739037158247  0.5223201026747101
  0.6834173067444770  0.6250153340312953  0.4331024119804200
  0.4403589442448263  0.4593544082239411  0.3441895368656278
  0.8099968329066600  0.2124806566233899  0.7445126835686143
  0.4396059245300178  0.9674989539449634  0.8760527409315397
  0.5666932254777471  0.8749621536042718  0.5668469701570106
  0.8103420130282042  0.0323793720433903  0.1243771182773735
  0.4278105650195574  0.6238256168085392  0.2997263483243601
  0.8176254383298186  0.7238445842514978  0.8761100351828763
  0.6875410142312606  0.4581366540132056  0.6112219570265547
  0.5586407051971184  0.3878502582658820  0.8331943995731734
  0.8027979673060888  0.3738686879327737  0.2997096293196901
  0.1870586645875155  0.2918162083905688  0.3885339906311883
  0.8213821016338942  0.5488924345108234  0.7888125661441711
  0.1823860514994396  0.7882665590309047  0.5223510877192509
  0.3027501956654784  0.8738089865543480  0.2997619940633792
  0.1787683752462994  0.9511522602604271  0.2112672441745628
  0.1856692712822772  0.4617711107600783  0.7445694887951252
  0.4323635449748223  0.2881545433618479  0.5223080855062522
  0.0653269967113289  0.7094862199353663  0.3441875310688064
  0.1847406609620062  0.7905988553253944  0.6558370820573336
  0.4455372016846303  0.7988667780809141  0.7887063464940396
  0.6834418444293985  0.1250473502077463  0.4330856645902691
  0.9324121175384907  0.7882246365942879  0.5223615082114116
  0.6921786088789830  0.6129213482472516  0.1667166262809185
  0.8153775194346641  0.7093509935319645  0.3441862785557797
  0.9348874374661816  0.4623119215271969  0.7445858899078593
  0.1903248043049276  0.4593152394384168  0.3441892012685472
  0.5700934417437711  0.5492861488534150  0.7888996756473881
  0.5661710884710340  0.3625016512191823  0.1666377636152674
  0.5652931082154380  0.7093867271290704  0.3441718877464542
  0.5526892237542443  0.3739256577054675  0.2997589806682424
  0.1896376547278556  0.4672594455035427  0.8759497008104074
  0.1914006195586476  0.1124589229372568  0.1668353881824975
  0.4452007722751016  0.2989736670212191  0.7888341912795980
  0.6900249995779180  0.7881973357588555  0.2554559666984520
  0.9336281240572173  0.1376009761222100  0.8335170227561233
  0.4430562440537869  0.9608246711339837  0.4774664293035532
  0.5677270516925162  0.7238832652566330  0.8760910395202736
  0.1928197415273088  0.4607584880436798  0.4774578237743861
  0.9323289612435096  0.2779452221785782  0.1240846931715206
  0.3121358859678960  0.0417949711401230  0.3885432877422020
  0.0596635461542435  0.0405786295098001  0.6558453597536658
  0.5584163523441555  0.3748928302837244  0.4331192825340631
  0.9334024674977028  0.6250010373616464  0.4330910737130840
  0.3162708819383262  0.3624907505793764  0.1666866357230847
  0.9468863206607356  0.1264529126519232  0.7001437472998741
  0.5597769497779032  0.0410244884743121  0.6556701100757530
  0.5573454239324694  0.5383340107221258  0.5223164642305740
  0.1778817194987230  0.1237894911904425  0.2996963976035744
  0.4415606788971741  0.1125018088050836  0.1668374252787314
  0.6777731619356454  0.6238894851008021  0.2997551058674696
  0.9278143196418579  0.1239316601500873  0.2997107278000694
  0.8166274899651685  0.3747745845498617  0.5668000074238851
  0.0527413329223408  0.8738811774037091  0.2998018949818707
  0.1916799068042115  0.6250326141584626  0.5668105034825900
  0.9452750149908863  0.7988397482134849  0.7888240062598605
  0.3085375033772217  0.3876750978691995  0.8335214719867258
  0.9394065114982563  0.4670938717842472  0.8759293219751842
  0.4336658527534378  0.6377829601835034  0.8335046947298118
  0.0652716200845644  0.2094493749368161  0.3441894355073692
  0.1893733844971540  0.9670420398643809  0.8759891225670338
  0.9308798360686663  0.7779511839454207  0.1240090502979191
  0.6870719116462513  0.7918597139604738  0.3885550304960537
  0.9346648932587245  0.7907162599818240  0.6558532579246602
  0.9412471693808110  0.1115723158320278  0.1666589776451067
  0.4347662002358130  0.2906720113583317  0.6558493254933888
  0.0534625935270295  0.2019310005258437  0.2114170936196978
  0.6780196740181554  0.9510968871704779  0.2114416581976791
  0.1778357763400364  0.6236846932212514  0.2996803873333282
  0.8219993766184976  0.8758661950354342  0.7001587286011119
  0.9466671470635633  0.6257842028729341  0.7002424549263270
  0.1972158641193420  0.1262145096851689  0.7002432915899195
  0.9428512677558479  0.4606628378702793  0.4774619901568105
  0.8127182048906969  0.2078567573980577  0.6113589437297947
  0.1833953462561200  0.6249926325594708  0.4331029614704985
  0.4277405778011755  0.1238805332149532  0.2998027209797057
  0.6778774478176532  0.1240114279196945  0.2998043360661659
  0.5621484162718947  0.5417828862499674  0.3885440196270366
  0.8153933256672320  0.2092813821646304  0.3441828048765162
  0.4394855450565407  0.4671224734581399  0.8759750849118754
  0.5585716629881731  0.8882261512956949  0.8334139092786129
  0.3179138592185054  0.2107997213075595  0.4774588502312141
  0.1929395305711694  0.9607240447324732  0.4774719327255563
  0.0585578777369591  0.8873436107298942  0.8333752767406664
  0.0574556197255973  0.5382057051228430  0.5223275043025712
  0.9428561817499641  0.9606985715630803  0.4774686288517290
  0.0628475626837267  0.7079084036603185  0.6112096414093895
  0.5573959371445560  0.0382465899174904  0.5223503756078766
  0.6963499094891289  0.2990337848736964  0.7886805302986147
  0.8162692930991321  0.3622398587424743  0.1666229770290150
  0.4334043516549443  0.1250352282655922  0.4330907950753399
  0.0679315485703426  0.2106431348063359  0.4774688658304580
  0.3098450979101295  0.0408070207594673  0.6557284976138280
  0.4322105525816869  0.7883430761060546  0.5222154112959692
  0.1836324733023676  0.1376864306793521  0.8334851318116802
  0.1821813416049993  0.2775913266258672  0.1240489667363469
  0.9403541076278481  0.4593169074602085  0.3441824117547278
  0.3163865697534980  0.8624876358570286  0.1667063068377819
  0.3033812187458548  0.7018590656844741  0.2114398334131314
  0.9412855968067584  0.6122295532189940  0.1667678987470331
  0.1878774644448327  0.4584237510540152  0.6113733014991644
  0.0726015373850567  0.8762373698949425  0.7001018969925086
  0.0597742678430445  0.5406399364301563  0.6558203348576235
  0.3098669611826863  0.5320964684058226  0.1242464144888766
  0.9370911456200002  0.7918155455101210  0.3885377735121174
  0.9461052473250350  0.2987808771833987  0.7886378417027945
  0.1846947274942121  0.2905680166513784  0.6557824638190696
  0.9378303093974929  0.9579493482236955  0.6113011494921647
  0.8110949038459165  0.7109922631244037  0.7445696230988228
  0.6899022701900340  0.2881669505734426  0.2554551266121974
  0.0605105189726794  0.7116726995768677  0.7448454244852706
  0.6786214710575665  0.4509750000172886  0.2113028874428368
  0.8179656173788439  0.2107593750371453  0.4774620431532679
  0.5678966749640070  0.7105133903883115  0.4775025004541957
  0.0661776847685259  0.8624582996849713  0.1665347086061234
  0.9325006678965819  0.2883620508537692  0.5223256400655732
  0.6846702223769323  0.7907884159369386  0.6557301690353883
  0.0584399434769027  0.8749839764724037  0.4331056456827819
  0.0680520429782673  0.2236118562723071  0.8761377787863096
  0.8099579385817910  0.0408398502849995  0.6557293428730330
  0.5595789644918613  0.0332398940106993  0.1242949935419739
  0.3084479480857202  0.3749575805443307  0.4331081395065270
  0.3168248505818871  0.3748439483296740  0.5667747837136766
  0.3178884671963654  0.7106481140178768  0.4774553753353361
  0.0574353002459715  0.0382726752843331  0.5223265804651781
  0.3221141620289029  0.8761206855054235  0.7001227017763629
  0.0660116285324785  0.5376157580660285  0.2553762738680511
  0.6833119616957463  0.1372875344743366  0.8335314219259332
  0.8158850710932299  0.0374324528166368  0.2553910022888784
  0.1834329154364469  0.1249714330480196  0.4331174422144092
  0.6974096591109153  0.1268459964228112  0.7002382106110829
  0.1824138065597580  0.2882632977769076  0.5223267397064599
  0.4400209949205656  0.7880944161975605  0.2554540453697666
  0.8157173569146883  0.5374380924050530  0.2554473359319734
  0.0626353644122537  0.2081016579537146  0.6112840782407059
  0.1870822505332830  0.7917891486760186  0.3885247423899606
  0.3074376563237858  0.5382743031178322  0.5223478049481034
  0.8224677310622230  0.3760885210247558  0.7000693489038737
  0.6872109632295289  0.2917734661149149  0.3885599777182711
  0.1916240122129144  0.1249828751356970  0.5668650398559978
  0.6895676694070738  0.9683066935285518  0.8759849615402294
  0.6918656199637608  0.1251206672072736  0.5667070469257324
  0.4403137417664419  0.9593615097973615  0.3441943089398546
  0.1853017371335758  0.9622564445389301  0.7444538428857328
  0.9399300485566449  0.7882536858773062  0.2554599455693412
  0.5583963879746825  0.8750309694822224  0.4330906863079937
  0.3084843642327948  0.8749381193552308  0.4331097073187946
  0.8072850689805304  0.5382032998792098  0.5223493440823880
  0.9285537622277528  0.4509489009595144  0.2113253125424200
  0.3154736735673740  0.5377192507513051  0.2554546594142158
  0.5621702171410113  0.0417639586208933  0.3885534500299955
  0.9376764581682091  0.4582739700747323  0.6113523207642757
  0.0622017748547216  0.0418676841275421  0.3886007735920230
  0.0620820083225207  0.5418161269696603  0.3885454399599569
  0.4372165273748388  0.2919254097994895  0.3885933464125003
  0.6929453555679196  0.4607129422958531  0.4774503980340450
  0.0667348321384851  0.3746945134400276  0.5667981503972565
  0.5534822153002655  0.7018486374411379  0.2114427509849117
  0.9399977895192257  0.2882257798532627  0.2554590988778883
  0.8205065540310134  0.0492136319300410  0.7888640478951165
  0.1903037332985691  0.9593071587655707  0.3441909236575179
  0.5527067014231872  0.8739502428715317  0.2998131996135985
  0.0583917192265876  0.3749799137019535  0.4331157279063230
  0.3152939409570432  0.7093663339912879  0.3441881273123501
  0.3153266342389637  0.2093957512576151  0.3441813268623477
  0.9416738414195908  0.1250244909935686  0.5668989006277446
  0.4380245331608810  0.9578797195181891  0.6112755256116353
  0.5657696746438795  0.0375216796081487  0.2554430664700178
  0.1823776226152622  0.7779910217042968  0.1241191825443617
  0.0658037656271784  0.0375078586101945  0.2554584197069920
  0.6917701913209132  0.6249660562730178  0.5667859149261477
  0.4413724991131930  0.6122420716463476  0.1667793243971205
  0.3071607748676493  0.0382968994584574  0.5223124631266474
  0.6810354432097322  0.2779425486079607  0.1241229284507128
  0.8179460379057701  0.7107037938810128  0.4774486631442090
  0.4336761605507913  0.1378762381102823  0.8335397495039639
  0.3217502481479405  0.3759961406586346  0.7001835601791114
  0.6835079413195179  0.6376849180259901  0.8335154940923146
  0.5612066875417243  0.7127257013457705  0.7445495369916973
  0.9371324009149500  0.2918282591032883  0.3885595611578461
  0.9393282397208275  0.9669052177942951  0.8759376666925677
  0.9353006101166963  0.9619795318988363  0.7445516945028177
  0.8169556457364645  0.8748351665434584  0.5667036744717853
  0.8027567786425884  0.8740380357594890  0.2998200438732831
  0.3157863511346455  0.0374759708705868  0.2554633830807207
  0.4308561497381327  0.2774728143703396  0.1241069392575587
  0.3125373966950993  0.7079890356312941  0.6113761332762935
  0.4334263528772197  0.6249869377659093  0.4330964038244669
  0.6841726188495049  0.4622748085499264  0.7446675926681572
  0.5713325326411849  0.0497776203635613  0.7886910359048429
  0.0714128399971367  0.5496241322526879  0.7886447862476983
  0.8168672159298332  0.8615904930108135  0.1660017550027745
  0.5604199031771111  0.2106311560956936  0.7445060256559834
  0.5627452113568965  0.2068493611974074  0.6112400800382053
  0.5733600216564273  0.8769652975169846  0.7004777377589484
 
  0.00000000E+00  0.00000000E+00  0.00000000E+00
  0.00000000E+00  0.00000000E+00  0.00000000E+00
  0.00000000E+00  0.00000000E+00  0.00000000E+00
  0.00000000E+00  0.00000000E+00  0.00000000E+00
  0.00000000E+00  0.00000000E+00  0.00000000E+00
  0.00000000E+00  0.00000000E+00  0.00000000E+00
  0.00000000E+00  0.00000000E+00  0.00000000E+00
  0.00000000E+00  0.00000000E+00  0.00000000E+00
  0.00000000E+00  0.00000000E+00  0.00000000E+00
  0.00000000E+00  0.00000000E+00  0.00000000E+00
  0.00000000E+00  0.00000000E+00  0.00000000E+00
  0.00000000E+00  0.00000000E+00  0.00000000E+00
  0.00000000E+00  0.00000000E+00  0.00000000E+00
  0.00000000E+00  0.00000000E+00  0.00000000E+00
  0.00000000E+00  0.00000000E+00  0.00000000E+00
  0.00000000E+00  0.00000000E+00  0.00000000E+00
  0.00000000E+00  0.00000000E+00  0.00000000E+00
  0.00000000E+00  0.00000000E+00  0.00000000E+00
  0.00000000E+00  0.00000000E+00  0.00000000E+00
  0.00000000E+00  0.00000000E+00  0.00000000E+00
  0.00000000E+00  0.00000000E+00  0.00000000E+00
  0.00000000E+00  0.00000000E+00  0.00000000E+00
  0.00000000E+00  0.00000000E+00  0.00000000E+00
  0.00000000E+00  0.00000000E+00  0.00000000E+00
  0.00000000E+00  0.00000000E+00  0.00000000E+00
  0.00000000E+00  0.00000000E+00  0.00000000E+00
  0.00000000E+00  0.00000000E+00  0.00000000E+00
  0.00000000E+00  0.00000000E+00  0.00000000E+00
  0.00000000E+00  0.00000000E+00  0.00000000E+00
  0.00000000E+00  0.00000000E+00  0.00000000E+00
  0.00000000E+00  0.00000000E+00  0.00000000E+00
  0.00000000E+00  0.00000000E+00  0.00000000E+00
  0.00000000E+00  0.00000000E+00  0.00000000E+00
  0.00000000E+00  0.00000000E+00  0.00000000E+00
  0.00000000E+00  0.00000000E+00  0.00000000E+00
  0.00000000E+00  0.00000000E+00  0.00000000E+00
  0.00000000E+00  0.00000000E+00  0.00000000E+00
  0.00000000E+00  0.00000000E+00  0.00000000E+00
  0.00000000E+00  0.00000000E+00  0.00000000E+00
  0.00000000E+00  0.00000000E+00  0.00000000E+00
  0.00000000E+00  0.00000000E+00  0.00000000E+00
  0.00000000E+00  0.00000000E+00  0.00000000E+00
  0.00000000E+00  0.00000000E+00  0.00000000E+00
  0.00000000E+00  0.00000000E+00  0.00000000E+00
  0.00000000E+00  0.00000000E+00  0.00000000E+00
  0.00000000E+00  0.00000000E+00  0.00000000E+00
  0.00000000E+00  0.00000000E+00  0.00000000E+00
  0.00000000E+00  0.00000000E+00  0.00000000E+00
  0.00000000E+00  0.00000000E+00  0.00000000E+00
  0.00000000E+00  0.00000000E+00  0.00000000E+00
  0.00000000E+00  0.00000000E+00  0.00000000E+00
  0.00000000E+00  0.00000000E+00  0.00000000E+00
  0.00000000E+00  0.00000000E+00  0.00000000E+00
  0.00000000E+00  0.00000000E+00  0.00000000E+00
  0.00000000E+00  0.00000000E+00  0.00000000E+00
  0.00000000E+00  0.00000000E+00  0.00000000E+00
  0.00000000E+00  0.00000000E+00  0.00000000E+00
  0.00000000E+00  0.00000000E+00  0.00000000E+00
  0.00000000E+00  0.00000000E+00  0.00000000E+00
  0.00000000E+00  0.00000000E+00  0.00000000E+00
  0.00000000E+00  0.00000000E+00  0.00000000E+00
  0.00000000E+00  0.00000000E+00  0.00000000E+00
  0.00000000E+00  0.00000000E+00  0.00000000E+00
  0.00000000E+00  0.00000000E+00  0.00000000E+00
  0.00000000E+00  0.00000000E+00  0.00000000E+00
  0.00000000E+00  0.00000000E+00  0.00000000E+00
  0.00000000E+00  0.00000000E+00  0.00000000E+00
  0.00000000E+00  0.00000000E+00  0.00000000E+00
  0.00000000E+00  0.00000000E+00  0.00000000E+00
  0.00000000E+00  0.00000000E+00  0.00000000E+00
  0.00000000E+00  0.00000000E+00  0.00000000E+00
  0.00000000E+00  0.00000000E+00  0.00000000E+00
  0.00000000E+00  0.00000000E+00  0.00000000E+00
  0.00000000E+00  0.00000000E+00  0.00000000E+00
  0.00000000E+00  0.00000000E+00  0.00000000E+00
  0.00000000E+00  0.00000000E+00  0.00000000E+00
  0.00000000E+00  0.00000000E+00  0.00000000E+00
  0.00000000E+00  0.00000000E+00  0.00000000E+00
  0.00000000E+00  0.00000000E+00  0.00000000E+00
  0.00000000E+00  0.00000000E+00  0.00000000E+00
  0.00000000E+00  0.00000000E+00  0.00000000E+00
  0.00000000E+00  0.00000000E+00  0.00000000E+00
  0.00000000E+00  0.00000000E+00  0.00000000E+00
  0.00000000E+00  0.00000000E+00  0.00000000E+00
  0.00000000E+00  0.00000000E+00  0.00000000E+00
  0.00000000E+00  0.00000000E+00  0.00000000E+00
  0.00000000E+00  0.00000000E+00  0.00000000E+00
  0.00000000E+00  0.00000000E+00  0.00000000E+00
  0.00000000E+00  0.00000000E+00  0.00000000E+00
  0.00000000E+00  0.00000000E+00  0.00000000E+00
  0.00000000E+00  0.00000000E+00  0.00000000E+00
  0.00000000E+00  0.00000000E+00  0.00000000E+00
  0.00000000E+00  0.00000000E+00  0.00000000E+00
  0.00000000E+00  0.00000000E+00  0.00000000E+00
  0.00000000E+00  0.00000000E+00  0.00000000E+00
  0.00000000E+00  0.00000000E+00  0.00000000E+00
  0.00000000E+00  0.00000000E+00  0.00000000E+00
  0.00000000E+00  0.00000000E+00  0.00000000E+00
  0.00000000E+00  0.00000000E+00  0.00000000E+00
  0.00000000E+00  0.00000000E+00  0.00000000E+00
  0.00000000E+00  0.00000000E+00  0.00000000E+00
  0.00000000E+00  0.00000000E+00  0.00000000E+00
  0.00000000E+00  0.00000000E+00  0.00000000E+00
  0.00000000E+00  0.00000000E+00  0.00000000E+00
  0.00000000E+00  0.00000000E+00  0.00000000E+00
  0.00000000E+00  0.00000000E+00  0.00000000E+00
  0.00000000E+00  0.00000000E+00  0.00000000E+00
  0.00000000E+00  0.00000000E+00  0.00000000E+00
  0.00000000E+00  0.00000000E+00  0.00000000E+00
  0.00000000E+00  0.00000000E+00  0.00000000E+00
  0.00000000E+00  0.00000000E+00  0.00000000E+00
  0.00000000E+00  0.00000000E+00  0.00000000E+00
  0.00000000E+00  0.00000000E+00  0.00000000E+00
  0.00000000E+00  0.00000000E+00  0.00000000E+00
  0.00000000E+00  0.00000000E+00  0.00000000E+00
  0.00000000E+00  0.00000000E+00  0.00000000E+00
  0.00000000E+00  0.00000000E+00  0.00000000E+00
  0.00000000E+00  0.00000000E+00  0.00000000E+00
  0.00000000E+00  0.00000000E+00  0.00000000E+00
  0.00000000E+00  0.00000000E+00  0.00000000E+00
  0.00000000E+00  0.00000000E+00  0.00000000E+00
  0.00000000E+00  0.00000000E+00  0.00000000E+00
  0.00000000E+00  0.00000000E+00  0.00000000E+00
  0.00000000E+00  0.00000000E+00  0.00000000E+00
  0.00000000E+00  0.00000000E+00  0.00000000E+00
  0.00000000E+00  0.00000000E+00  0.00000000E+00
  0.00000000E+00  0.00000000E+00  0.00000000E+00
  0.00000000E+00  0.00000000E+00  0.00000000E+00
  0.00000000E+00  0.00000000E+00  0.00000000E+00
  0.00000000E+00  0.00000000E+00  0.00000000E+00
  0.00000000E+00  0.00000000E+00  0.00000000E+00
  0.00000000E+00  0.00000000E+00  0.00000000E+00
  0.00000000E+00  0.00000000E+00  0.00000000E+00
  0.00000000E+00  0.00000000E+00  0.00000000E+00
  0.00000000E+00  0.00000000E+00  0.00000000E+00
  0.00000000E+00  0.00000000E+00  0.00000000E+00
  0.00000000E+00  0.00000000E+00  0.00000000E+00
  0.00000000E+00  0.00000000E+00  0.00000000E+00
  0.00000000E+00  0.00000000E+00  0.00000000E+00
  0.00000000E+00  0.00000000E+00  0.00000000E+00
  0.00000000E+00  0.00000000E+00  0.00000000E+00
  0.00000000E+00  0.00000000E+00  0.00000000E+00
  0.00000000E+00  0.00000000E+00  0.00000000E+00
  0.00000000E+00  0.00000000E+00  0.00000000E+00
  0.00000000E+00  0.00000000E+00  0.00000000E+00
  0.00000000E+00  0.00000000E+00  0.00000000E+00
  0.00000000E+00  0.00000000E+00  0.00000000E+00
  0.00000000E+00  0.00000000E+00  0.00000000E+00
  0.00000000E+00  0.00000000E+00  0.00000000E+00
  0.00000000E+00  0.00000000E+00  0.00000000E+00
  0.00000000E+00  0.00000000E+00  0.00000000E+00
  0.00000000E+00  0.00000000E+00  0.00000000E+00
  0.00000000E+00  0.00000000E+00  0.00000000E+00
  0.00000000E+00  0.00000000E+00  0.00000000E+00
  0.00000000E+00  0.00000000E+00  0.00000000E+00
  0.00000000E+00  0.00000000E+00  0.00000000E+00
  0.00000000E+00  0.00000000E+00  0.00000000E+00
  0.00000000E+00  0.00000000E+00  0.00000000E+00
  0.00000000E+00  0.00000000E+00  0.00000000E+00
  0.00000000E+00  0.00000000E+00  0.00000000E+00
  0.00000000E+00  0.00000000E+00  0.00000000E+00
  0.00000000E+00  0.00000000E+00  0.00000000E+00
  0.00000000E+00  0.00000000E+00  0.00000000E+00
  0.00000000E+00  0.00000000E+00  0.00000000E+00
  0.00000000E+00  0.00000000E+00  0.00000000E+00
  0.00000000E+00  0.00000000E+00  0.00000000E+00
  0.00000000E+00  0.00000000E+00  0.00000000E+00
  0.00000000E+00  0.00000000E+00  0.00000000E+00
  0.00000000E+00  0.00000000E+00  0.00000000E+00
  0.00000000E+00  0.00000000E+00  0.00000000E+00
  0.00000000E+00  0.00000000E+00  0.00000000E+00
  0.00000000E+00  0.00000000E+00  0.00000000E+00
  0.00000000E+00  0.00000000E+00  0.00000000E+00
  0.00000000E+00  0.00000000E+00  0.00000000E+00
  0.00000000E+00  0.00000000E+00  0.00000000E+00
  0.00000000E+00  0.00000000E+00  0.00000000E+00
  0.00000000E+00  0.00000000E+00  0.00000000E+00
  0.00000000E+00  0.00000000E+00  0.00000000E+00
  0.00000000E+00  0.00000000E+00  0.00000000E+00
  0.00000000E+00  0.00000000E+00  0.00000000E+00
  0.00000000E+00  0.00000000E+00  0.00000000E+00
  0.00000000E+00  0.00000000E+00  0.00000000E+00
  0.00000000E+00  0.00000000E+00  0.00000000E+00
  0.00000000E+00  0.00000000E+00  0.00000000E+00
  0.00000000E+00  0.00000000E+00  0.00000000E+00
  0.00000000E+00  0.00000000E+00  0.00000000E+00
  0.00000000E+00  0.00000000E+00  0.00000000E+00
  0.00000000E+00  0.00000000E+00  0.00000000E+00
  0.00000000E+00  0.00000000E+00  0.00000000E+00
  0.00000000E+00  0.00000000E+00  0.00000000E+00
  0.00000000E+00  0.00000000E+00  0.00000000E+00
  0.00000000E+00  0.00000000E+00  0.00000000E+00
  0.00000000E+00  0.00000000E+00  0.00000000E+00
  0.00000000E+00  0.00000000E+00  0.00000000E+00
  0.00000000E+00  0.00000000E+00  0.00000000E+00
  0.00000000E+00  0.00000000E+00  0.00000000E+00
  0.00000000E+00  0.00000000E+00  0.00000000E+00
  0.00000000E+00  0.00000000E+00  0.00000000E+00
  0.00000000E+00  0.00000000E+00  0.00000000E+00
  0.00000000E+00  0.00000000E+00  0.00000000E+00
  0.00000000E+00  0.00000000E+00  0.00000000E+00
  0.00000000E+00  0.00000000E+00  0.00000000E+00
  0.00000000E+00  0.00000000E+00  0.00000000E+00
  0.00000000E+00  0.00000000E+00  0.00000000E+00
  0.00000000E+00  0.00000000E+00  0.00000000E+00
  0.00000000E+00  0.00000000E+00  0.00000000E+00
  0.00000000E+00  0.00000000E+00  0.00000000E+00
  0.00000000E+00  0.00000000E+00  0.00000000E+00
  0.00000000E+00  0.00000000E+00  0.00000000E+00
  0.00000000E+00  0.00000000E+00  0.00000000E+00
  0.00000000E+00  0.00000000E+00  0.00000000E+00
  0.00000000E+00  0.00000000E+00  0.00000000E+00
  0.00000000E+00  0.00000000E+00  0.00000000E+00
  0.00000000E+00  0.00000000E+00  0.00000000E+00
  0.00000000E+00  0.00000000E+00  0.00000000E+00
  0.00000000E+00  0.00000000E+00  0.00000000E+00
  0.00000000E+00  0.00000000E+00  0.00000000E+00
  0.00000000E+00  0.00000000E+00  0.00000000E+00
  0.00000000E+00  0.00000000E+00  0.00000000E+00
  0.00000000E+00  0.00000000E+00  0.00000000E+00
  0.00000000E+00  0.00000000E+00  0.00000000E+00
  0.00000000E+00  0.00000000E+00  0.00000000E+00
  0.00000000E+00  0.00000000E+00  0.00000000E+00
  0.00000000E+00  0.00000000E+00  0.00000000E+00
  0.00000000E+00  0.00000000E+00  0.00000000E+00
  0.00000000E+00  0.00000000E+00  0.00000000E+00
  0.00000000E+00  0.00000000E+00  0.00000000E+00
  0.00000000E+00  0.00000000E+00  0.00000000E+00
  0.00000000E+00  0.00000000E+00  0.00000000E+00
  0.00000000E+00  0.00000000E+00  0.00000000E+00
  0.00000000E+00  0.00000000E+00  0.00000000E+00
  0.00000000E+00  0.00000000E+00  0.00000000E+00
  0.00000000E+00  0.00000000E+00  0.00000000E+00
  0.00000000E+00  0.00000000E+00  0.00000000E+00
  0.00000000E+00  0.00000000E+00  0.00000000E+00
  0.00000000E+00  0.00000000E+00  0.00000000E+00
  0.00000000E+00  0.00000000E+00  0.00000000E+00
  0.00000000E+00  0.00000000E+00  0.00000000E+00
  0.00000000E+00  0.00000000E+00  0.00000000E+00
  0.00000000E+00  0.00000000E+00  0.00000000E+00
  0.00000000E+00  0.00000000E+00  0.00000000E+00
  0.00000000E+00  0.00000000E+00  0.00000000E+00
  0.00000000E+00  0.00000000E+00  0.00000000E+00
  0.00000000E+00  0.00000000E+00  0.00000000E+00
  0.00000000E+00  0.00000000E+00  0.00000000E+00
  0.00000000E+00  0.00000000E+00  0.00000000E+00
  0.00000000E+00  0.00000000E+00  0.00000000E+00