CuInSe2gb                               
   1.00000000000000     
     9.7266780392896699    0.0000000000000000    0.0000000000000000
     0.0000000000000000    8.4235502764570693    0.0000000000000000
     0.0000000000000000    0.0000000000000000   45.0000000000000000
   Fe   Mn
   274    14
Direct
  0.0625441283302998  0.0372116799038257  0.1261367727283134
  0.3124522248477252  0.8710599638046173  0.6537289695990162
  0.1876396280687063  0.1197171175106928  0.7867877263602654
  0.4379548030645108  0.2910098185842779  0.3902094948653809
  0.3127670757872604  0.7054491205908737  0.8315606001694424
  0.8137882707943951  0.2061617714176198  0.8319885432049864
  0.1872057714740946  0.9561565604606317  0.8317717299802898
  0.5624951449941957  0.2053604584541200  0.5651509992595866
  0.0620141030890456  0.0369222544865288  0.7426165750684567
  0.8123967188141158  0.8721595431279225  0.5212895378907589
  0.1873727890768232  0.2867509395097335  0.7425610386374883
  0.9376720620755964  0.4575006699686567  0.3462114330573542
  0.9367291725234929  0.2907263699536288  0.3901525679605255
  0.8123305674170113  0.0385277140748367  0.8740191853574171
  0.1874162521376158  0.7877051511098107  0.6097753291802834
  0.5621387383590449  0.0410492384977322  0.3901933976299229
  0.9387317003609303  0.9568123163682416  0.8320926237445549
  0.3128229217104437  0.5382625709242427  0.8739822302874118
  0.6876644803008124  0.2870759054777265  0.7425617603473125
  0.1882176116818408  0.6214895313707424  0.1682736021329470
  0.8122773453267181  0.2062349293609947  0.4786488653447799
  0.8125593025139470  0.5377170574854522  0.6098496177764752
  0.3124618461033829  0.8736168619908488  0.4347971478156578
  0.8128491102943135  0.0409428361843594  0.2574985407673895
  0.6872714964260338  0.9575039333046396  0.3462205199811769
  0.9369711291899908  0.1213609975694077  0.1684498906461009
  0.9373976784446230  0.1227849807336511  0.5212896700237120
  0.5625849474651289  0.5409821040459084  0.2574416068560476
  0.6875455552296013  0.7880788299677024  0.8739362401189006
  0.5630812585344664  0.3719628958106313  0.1680755302943889
  0.4375198062800195  0.7869282090134129  0.7426011861490674
  0.8129219289522720  0.7055513885489902  0.5651866119589438
  0.5625416465442367  0.8691565810908546  0.7867091983211517
  0.6878495627683867  0.1224904854294332  0.5213084917976101
  0.8125656893496438  0.3706502483895002  0.6537666431744026
  0.9378205173468827  0.4553835579365866  0.8319303841483939
  0.0623418587239003  0.2038466533037559  0.6982448590495041
  0.4375112569874358  0.9540716409331733  0.6982263591077136
  0.3124388910214800  0.2047883673958355  0.8319316618467815
  0.4374509177869256  0.6209312022988970  0.6537931475665864
  0.3122841417227372  0.5375739157790855  0.6098001900605081
  0.9375541375005025  0.4556605712703389  0.5651264586850301
  0.6876739830521044  0.7876141658357166  0.7426308707513608
  0.9369120652568772  0.7885075924471636  0.1263510915936616
  0.6872733611362161  0.7905417081066551  0.3901698953019586
  0.9375884212163215  0.7871430313009954  0.7425912013443640
  0.0625166784752144  0.2073995125920047  0.3462351876412441
  0.8124475097179998  0.0406862166591180  0.3902506074429157
  0.4374540182258736  0.1196092278780187  0.7867995076840674
  0.0619998740879424  0.2069818043483675  0.2132880887868928
  0.0619130727821964  0.3716642311869633  0.1681826074234407
  0.9373912533867678  0.7907620030747782  0.2574528589818962
  0.5624662283468763  0.2040681209293929  0.6983198224123289
  0.6874986599025305  0.9541207208329159  0.6982549675142599
  0.4370658984233010  0.7882117505124236  0.1258209431751830
  0.4374917929882986  0.9556857027031614  0.5651269625928801
  0.8125331845030667  0.3695057655755022  0.7867461210153546
  0.6875450855144717  0.2907584753978822  0.2574784369147667
  0.1874903926924101  0.4556368469923138  0.5651306282481120
  0.0631619732744534  0.8718524143376903  0.1682708892729020
  0.1873647383586098  0.2874300148417784  0.6098367873219451
  0.5626119127381056  0.7072392451492475  0.3463515622814238
  0.3124818340893597  0.2040650919704863  0.6982712578910233
  0.5628519858560652  0.5387797742907061  0.8738981298798572
  0.0624639792723310  0.7051990030892190  0.5651505141503876
  0.6877181610872057  0.6194885935930505  0.7868237145680882
  0.3123079161315023  0.5409389148446695  0.3902512213823570
  0.1878893532903739  0.6225088006831783  0.5212998080107265
  0.5621961364801472  0.8736689348562380  0.4348268740059998
  0.4373976275741489  0.4558998950198049  0.5651541662811539
  0.4375665750600779  0.2876115572336844  0.7426188053797010
  0.8124063302973192  0.8751227861920490  0.3016991372041403
  0.8124510007543148  0.7073063641705774  0.3462400757893086
  0.4378648965578644  0.4551163383446258  0.8317180295604355
  0.6875296788061659  0.9560182377820496  0.4786293017310372
  0.6873851869746832  0.4538657000217696  0.6982014927033108
  0.5624955719059445  0.8726644915295253  0.5212601780056801
  0.5625183441719939  0.3707434280259910  0.6536758299154557
  0.8125148434812440  0.8707008138267049  0.6538030378518247
  0.8124382606367401  0.3735577998966754  0.4347178771712943
  0.8128073394004471  0.5406517360133111  0.2574805180474180
  0.6884534796048219  0.4550949233542333  0.8318695344033514
  0.1880664092629067  0.7883003825778199  0.1258808556571199
  0.6870911929663059  0.2909883115259738  0.3901863837207486
  0.3123843980878910  0.3709255158094775  0.6537141732674621
  0.3124445289828462  0.2074956922408237  0.3462803505011388
  0.8123702891947183  0.5368309046046897  0.7426595472977060
  0.6879546152669148  0.9554324060878844  0.8317855370401179
  0.5625085150331772  0.8711970575760035  0.6536325609498556
  0.3122421021949828  0.7055734327650212  0.5651640723097522
  0.3122871583873754  0.5385698245626649  0.1259915862067132
  0.6873777215484728  0.9573746103022954  0.2133061021658072
  0.3128431297548166  0.2056524731741240  0.5651663527540576
  0.1876821701548017  0.9561899782352560  0.4787357812878998
  0.6875869974658543  0.9557308010302805  0.5651101384956015
  0.4374565387948470  0.7874640395858841  0.6097949467994778
  0.6873765609646022  0.6202807316940321  0.1683545748645611
  0.3127179178491103  0.8746340479712736  0.3016644224361532
  0.3122679992970505  0.7058776603869183  0.4786429992840469
  0.9374426705702500  0.2875399131539291  0.6098860538605482
  0.4379096700241888  0.6243413603462322  0.3017113183252035
  0.8127529722385221  0.8707967506009655  0.1683624384600583
  0.5629721344605845  0.2070195083729841  0.2132099126737402
  0.9375645742561642  0.6199552896750827  0.1683581446453436
  0.9374879627897230  0.7868835087853153  0.8740376165639601
  0.5620770110636123  0.3692618407722502  0.7867633074639808
  0.0623854085269913  0.3723995938667304  0.5212540415597465
  0.3125568798454813  0.3707901706652812  0.1683065150495798
  0.6876439759649974  0.1251188950133130  0.3018475296662103
  0.4383803118573192  0.9547909553228262  0.8316270838075771
  0.1876529562745420  0.2884168257286229  0.1262110584761002
  0.1873548681161954  0.2907026418098774  0.2574609677207842
  0.3122221051041120  0.3734980372212432  0.4347171980420227
  0.5625225348436026  0.0373763466491836  0.1261004785058175
  0.4375553150928106  0.2876103206465797  0.6097289475870874
  0.1874100709462442  0.4577731273474874  0.3462677218193637
  0.4371519869721797  0.2886308732472639  0.1261795669725960
  0.6876901174313751  0.7914854552486873  0.2574197747075353
  0.4371934329409155  0.1222756301030968  0.5212738510137547
  0.1888999546975689  0.2883619463810686  0.8740860071696818
  0.1875508552351763  0.1209209693796416  0.6538026239059969
  0.9374261770834689  0.1204661834481057  0.6537980410826820
  0.3126889013909231  0.2072143872869374  0.2132140783296657
  0.0621165003850078  0.0405877019012300  0.3901702449275853
  0.1874011179858260  0.1202669665139106  0.1682646073734728
  0.0624292828194363  0.5373726840289279  0.6098631967442452
  0.9375308682902862  0.2908864489745736  0.2574249852543165
  0.5624669451754769  0.5374091677578056  0.6097348524637272
  0.9374250128224061  0.9558497872054025  0.5651762539702919
  0.6874543319406003  0.6250292800514146  0.3017244242588639
  0.9374895928950360  0.6237692068895407  0.4347695784053285
  0.9373630352037402  0.6206969105219269  0.7866464755313388
  0.5620840074078829  0.7036384456471811  0.6981286620624818
  0.0625789564935361  0.7067367277838486  0.8319334344831381
  0.9376367308987900  0.1251674182937172  0.3017753681629208
  0.9374754179597550  0.7877095191569318  0.6097701683592883
  0.4373896438077641  0.7909497341227583  0.2575374202029450
  0.3126933879331852  0.3694160549607411  0.7866700369062616
  0.4378983352935005  0.4573914988040363  0.2131891918753027
  0.1874518405942101  0.1225812436742218  0.5213008210470321
  0.8123864311773560  0.7040382216781480  0.6983047279014706
  0.0624818369910196  0.0375238771608495  0.6097391677948347
  0.5624700357993595  0.2047588807456708  0.8317223501810395
  0.3124412053072518  0.8722042031802492  0.5213116504262253
  0.6878882405026937  0.2883360946650376  0.1259827782368998
  0.1873189036908893  0.9575966921364203  0.2133541745192834
  0.6872845329799777  0.2877271744765293  0.6097840127846815
  0.3125476417509888  0.0373851010005485  0.6098942994882207
  0.9375187586494222  0.1198906007299341  0.7869518644965275
  0.4375555722463595  0.7878724879250523  0.8738700437787458
  0.8129419973530225  0.0370937775491384  0.7425612925734220
  0.9375178749577150  0.4539276172913912  0.6982789683328787
  0.1874957504074164  0.6207660508283409  0.6537651179581918
  0.3126598537583183  0.7039666414768111  0.6982688820336175
  0.9371410852780442  0.2882616315368904  0.1260043961831986
  0.4370825590934674  0.4562615461644873  0.4787149440620526
  0.0622966839579667  0.7053816652780261  0.4787346880831469
  0.9372468662749208  0.1237234691232005  0.4347239623920473
  0.4375204127881598  0.1246716984648900  0.3017700561708259
  0.1871845840659560  0.1237967932086650  0.4346736179698502
  0.5628175547006899  0.0382871203946021  0.8739175008103254
  0.1876594314816981  0.9559606525391710  0.5651542009477745
  0.6881239268163128  0.7884981991653305  0.1262855625609487
  0.5629829795005690  0.5368659372680263  0.1260556524195344
  0.3122509180343294  0.0407918318910870  0.3901944578681780
  0.6880206273472154  0.1215756310284992  0.1683836582537574
  0.8123688520640091  0.2066494627487803  0.2132532005290531
  0.0624599151038902  0.5408439487650766  0.2574375928860328
  0.5625038015941033  0.7057513889031056  0.4787089902221919
  0.0625347023209858  0.2053541838026454  0.5651275105863394
  0.5621984812661256  0.3746673512239623  0.3016461081693479
  0.4371706525855498  0.9573655548310569  0.3462685448648435
  0.1873544381011855  0.9539976923922010  0.6983069264671706
  0.4365534747735978  0.6218440280736456  0.1682139788606199
  0.9378604988728881  0.4570291503563026  0.2133575477162535
  0.0616501681031846  0.5369370756360893  0.1260890408931429
  0.8126109722016684  0.3720237047776909  0.5212843184772050
  0.9373332915653850  0.6250060873027017  0.3017160304580991
  0.3123376741270540  0.0403197980379306  0.2574449570311979
  0.6873910082340128  0.7874478229841422  0.6098005345786023
  0.1874119394454626  0.4558091098595681  0.8319193535509497
  0.4376577333122243  0.1204654870436880  0.1682971405482795
  0.3124043278432240  0.3720115109431528  0.5212812367866780
  0.4376564421521897  0.6190200462049080  0.7867993802259723
  0.0622136791984326  0.0406817908932462  0.2574439811939504
  0.5625096168823076  0.7053185394407282  0.5651375726428886
  0.9376308482016639  0.2866887406630406  0.7425983559866437
  0.6869398317644049  0.1192819090846286  0.7866432557588789
  0.1870606328675768  0.4572080456539289  0.2132093572490578
  0.9372001037835977  0.7909549246082561  0.3901806327942198
  0.6869115221382035  0.2888126452810225  0.8741024574910495
  0.5618773667657074  0.8719010952204604  0.1682287267602376
  0.4374274745324774  0.4538800662403032  0.6982316850147621
  0.9379870027421940  0.9575282598297223  0.3461979301757487
  0.6874763915135815  0.6225792771722408  0.5212922388119325
  0.0625768102730670  0.8707447338332347  0.6537505253889696
  0.0629187769735146  0.8698319833326876  0.7868387096718911
  0.0623888056463227  0.3707469410340155  0.6536863384824390
  0.6876868371349634  0.4563089077353624  0.4786903472056018
  0.1875171639073523  0.7908651459444871  0.2574867377973633
  0.4373048580169758  0.1234135284990181  0.4347245293644783
  0.8125833861782971  0.0382932466581594  0.1262131450390519
  0.9371072799799538  0.6223772501400567  0.5213022785046699
  0.0622385424759797  0.8736860111071821  0.4350597639994974
  0.8123890681906405  0.5374084794597936  0.1258454963294406
  0.4371053813883515  0.4574743793006275  0.3462442860199847
  0.8127352424880340  0.2075772058523905  0.3463127560398941
  0.3125628638450769  0.7079449937588012  0.3463177817143622
  0.6875748916214068  0.1208377784077062  0.6537273086491636
  0.5627876642845627  0.8749573622245809  0.3018405006847887
  0.0627360783460439  0.5366117185653330  0.7425498595023415
  0.9379737063427669  0.9571848068348170  0.2132697678259081
  0.8125199412659966  0.7067758534807258  0.2131911899370281
  0.0621843712604904  0.8748266109701560  0.3017675517902258
  0.1875112198971438  0.1250399556825353  0.3016964713944717
  0.0622359586251873  0.7079214816003242  0.3463037755261126
  0.8123185696262560  0.0375472607163819  0.6098664529408907
  0.0623662308239985  0.3736865295784281  0.4348179003689315
  0.5623196433714280  0.2075139730188990  0.3462605869905050
  0.8125352731387037  0.3747629935336049  0.3017286319003523
  0.4373634165164562  0.9560822066502828  0.4786995441674900
  0.5622024258294858  0.5403610219307936  0.3901981147820077
  0.0623127237088382  0.2058866762034144  0.4787005357424254
  0.3129210078950252  0.8688504355420520  0.7866129123906490
  0.9374420454508318  0.9537727866874305  0.6982191501140349
  0.0628351358516166  0.3750746267382233  0.3017341947338580
  0.6875815024688042  0.6207650674165578  0.6537573431485045
  0.6877166119314574  0.4558382119387061  0.5651590900331326
  0.4377157893880887  0.9577547480166662  0.2133010432681208
  0.3125339044039998  0.2060261061183950  0.4786312613806232
  0.4374191285422949  0.1209875636865894  0.6537433570837616
  0.6872747848697613  0.6237572704239851  0.4347142886958775
  0.8126477348542581  0.2043524788857886  0.6981449515485542
  0.8125201024835625  0.7061203959008039  0.4786369994580497
  0.8123023263380530  0.8734951500105174  0.4347724245549503
  0.9369852668934067  0.9561531540419521  0.4787786073095497
  0.5623536275026675  0.2055285976407782  0.4787316630170061
  0.1873742604914911  0.6234821072550024  0.4347570265343772
  0.3121112650683927  0.0372877899913213  0.7425995661029033
  0.9374728657421424  0.6206186884338644  0.6537538096106343
  0.5630610439872678  0.7054145419082032  0.8317567471538856
  0.3123529562124688  0.3746696391507268  0.3018197818870846
  0.5623439680922724  0.7071833729997610  0.2132221161452718
  0.1875553325065953  0.4558263298491143  0.4786693623178613
  0.3140064434229756  0.0392788714067914  0.8738397262175744
  0.1873895565784558  0.4536510305096136  0.6982148586273915
  0.8118445012001211  0.5377637430907601  0.8739853881644747
  0.1873203237397708  0.2907309076879162  0.3901759090088426
  0.4370413325842032  0.6239965740389246  0.4348007837218383
  0.0624751721264558  0.7068408312192511  0.2132111926180894
  0.5623229879119948  0.3735082135154907  0.4350443440107984
  0.4374740104624006  0.6226054734756625  0.5212891330351437
  0.8129219600189369  0.7065468791438972  0.8316046899470609
  0.0629142598946820  0.3701945442861229  0.7867426186743013
  0.4370206897029663  0.2883107097895795  0.8740905764006275
  0.3124737016704188  0.0376860205183361  0.1257792711182966
  0.6873998863560282  0.1231451373384535  0.4347920387573950
  0.1874011369795894  0.9574490008305339  0.3462464661905997
  0.0622558312125466  0.2055444481224878  0.8319756253780080
  0.5624227443212815  0.0372294966078619  0.6098620262039092
  0.6872719069476478  0.4573186715063526  0.2133365762865059
  0.1875457042775764  0.7871865448754503  0.7425609485824671
  0.1874499781457274  0.6248180424457580  0.3017935401651750
  0.4374449610268138  0.7907768196086029  0.3902556811967056
  0.4373477166502808  0.2906329396985508  0.2573344904764247
  0.0639019321146322  0.5388563875690184  0.8739809591729978
  0.5630047440610383  0.0372472643132062  0.7426562197339136
  0.1879431208400319  0.7873491528289859  0.8739609030541300
  0.9372865698610368  0.4559751025203835  0.4786408082709292
  0.8122504690002679  0.5404801209390799  0.3901592586441729
  0.8121516969852676  0.2055688519701412  0.5651668909453326
  0.1872495549273977  0.6198433254433472  0.7868142606370901
  0.0622785320154233  0.5409852159661777  0.3902475087144417
  0.0627080977724087  0.7039935295036055  0.6982440855558584
  0.3122283097359141  0.5407582901868884  0.2573299773332997
  0.3123270838799641  0.7066292296243645  0.2133951148282936
  0.3124852099172434  0.8716344411931711  0.1674000311711289
  0.5634262044638830  0.5374388422179427  0.7425296110883929
  0.6876366487492535  0.4573656724025769  0.3462819508749130
  0.9358580784279245  0.2892566771303283  0.8739030571282166
  0.5628103401731944  0.0411030514518018  0.2573479325417752
  0.0638999378247019  0.0367625259768577  0.8738300759625865
  0.1870976392986410  0.7909553094903314  0.3901098507441337
  0.8124258261997851  0.3715310099654223  0.1677251613720949
  0.5625525573718745  0.3723911513339256  0.5211889296073962
  0.0625843587186894  0.8724264407133773  0.5212017753796404
  0.8122654127538861  0.8693020533240721  0.7864660634565760
  0.3114470728038816  0.5369011842754953  0.7427066247318370
 
  0.00000000E+00  0.00000000E+00  0.00000000E+00
  0.00000000E+00  0.00000000E+00  0.00000000E+00
  0.00000000E+00  0.00000000E+00  0.00000000E+00
  0.00000000E+00  0.00000000E+00  0.00000000E+00
  0.00000000E+00  0.00000000E+00  0.00000000E+00
  0.00000000E+00  0.00000000E+00  0.00000000E+00
  0.00000000E+00  0.00000000E+00  0.00000000E+00
  0.00000000E+00  0.00000000E+00  0.00000000E+00
  0.00000000E+00  0.00000000E+00  0.00000000E+00
  0.00000000E+00  0.00000000E+00  0.00000000E+00
  0.00000000E+00  0.00000000E+00  0.00000000E+00
  0.00000000E+00  0.00000000E+00  0.00000000E+00
  0.00000000E+00  0.00000000E+00  0.00000000E+00
  0.00000000E+00  0.00000000E+00  0.00000000E+00
  0.00000000E+00  0.00000000E+00  0.00000000E+00
  0.00000000E+00  0.00000000E+00  0.00000000E+00
  0.00000000E+00  0.00000000E+00  0.00000000E+00
  0.00000000E+00  0.00000000E+00  0.00000000E+00
  0.00000000E+00  0.00000000E+00  0.00000000E+00
  0.00000000E+00  0.00000000E+00  0.00000000E+00
  0.00000000E+00  0.00000000E+00  0.00000000E+00
  0.00000000E+00  0.00000000E+00  0.00000000E+00
  0.00000000E+00  0.00000000E+00  0.00000000E+00
  0.00000000E+00  0.00000000E+00  0.00000000E+00
  0.00000000E+00  0.00000000E+00  0.00000000E+00
  0.00000000E+00  0.00000000E+00  0.00000000E+00
  0.00000000E+00  0.00000000E+00  0.00000000E+00
  0.00000000E+00  0.00000000E+00  0.00000000E+00
  0.00000000E+00  0.00000000E+00  0.00000000E+00
  0.00000000E+00  0.00000000E+00  0.00000000E+00
  0.00000000E+00  0.00000000E+00  0.00000000E+00
  0.00000000E+00  0.00000000E+00  0.00000000E+00
  0.00000000E+00  0.00000000E+00  0.00000000E+00
  0.00000000E+00  0.00000000E+00  0.00000000E+00
  0.00000000E+00  0.00000000E+00  0.00000000E+00
  0.00000000E+00  0.00000000E+00  0.00000000E+00
  0.00000000E+00  0.00000000E+00  0.00000000E+00
  0.00000000E+00  0.00000000E+00  0.00000000E+00
  0.00000000E+00  0.00000000E+00  0.00000000E+00
  0.00000000E+00  0.00000000E+00  0.00000000E+00
  0.00000000E+00  0.00000000E+00  0.00000000E+00
  0.00000000E+00  0.00000000E+00  0.00000000E+00
  0.00000000E+00  0.00000000E+00  0.00000000E+00
  0.00000000E+00  0.00000000E+00  0.00000000E+00
  0.00000000E+00  0.00000000E+00  0.00000000E+00
  0.00000000E+00  0.00000000E+00  0.00000000E+00
  0.00000000E+00  0.00000000E+00  0.00000000E+00
  0.00000000E+00  0.00000000E+00  0.00000000E+00
  0.00000000E+00  0.00000000E+00  0.00000000E+00
  0.00000000E+00  0.00000000E+00  0.00000000E+00
  0.00000000E+00  0.00000000E+00  0.00000000E+00
  0.00000000E+00  0.00000000E+00  0.00000000E+00
  0.00000000E+00  0.00000000E+00  0.00000000E+00
  0.00000000E+00  0.00000000E+00  0.00000000E+00
  0.00000000E+00  0.00000000E+00  0.00000000E+00
  0.00000000E+00  0.00000000E+00  0.00000000E+00
  0.00000000E+00  0.00000000E+00  0.00000000E+00
  0.00000000E+00  0.00000000E+00  0.00000000E+00
  0.00000000E+00  0.00000000E+00  0.00000000E+00
  0.00000000E+00  0.00000000E+00  0.00000000E+00
  0.00000000E+00  0.00000000E+00  0.00000000E+00
  0.00000000E+00  0.00000000E+00  0.00000000E+00
  0.00000000E+00  0.00000000E+00  0.00000000E+00
  0.00000000E+00  0.00000000E+00  0.00000000E+00
  0.00000000E+00  0.00000000E+00  0.00000000E+00
  0.00000000E+00  0.00000000E+00  0.00000000E+00
  0.00000000E+00  0.00000000E+00  0.00000000E+00
  0.00000000E+00  0.00000000E+00  0.00000000E+00
  0.00000000E+00  0.00000000E+00  0.00000000E+00
  0.00000000E+00  0.00000000E+00  0.00000000E+00
  0.00000000E+00  0.00000000E+00  0.00000000E+00
  0.00000000E+00  0.00000000E+00  0.00000000E+00
  0.00000000E+00  0.00000000E+00  0.00000000E+00
  0.00000000E+00  0.00000000E+00  0.00000000E+00
  0.00000000E+00  0.00000000E+00  0.00000000E+00
  0.00000000E+00  0.00000000E+00  0.00000000E+00
  0.00000000E+00  0.00000000E+00  0.00000000E+00
  0.00000000E+00  0.00000000E+00  0.00000000E+00
  0.00000000E+00  0.00000000E+00  0.00000000E+00
  0.00000000E+00  0.00000000E+00  0.00000000E+00
  0.00000000E+00  0.00000000E+00  0.00000000E+00
  0.00000000E+00  0.00000000E+00  0.00000000E+00
  0.00000000E+00  0.00000000E+00  0.00000000E+00
  0.00000000E+00  0.00000000E+00  0.00000000E+00
  0.00000000E+00  0.00000000E+00  0.00000000E+00
  0.00000000E+00  0.00000000E+00  0.00000000E+00
  0.00000000E+00  0.00000000E+00  0.00000000E+00
  0.00000000E+00  0.00000000E+00  0.00000000E+00
  0.00000000E+00  0.00000000E+00  0.00000000E+00
  0.00000000E+00  0.00000000E+00  0.00000000E+00
  0.00000000E+00  0.00000000E+00  0.00000000E+00
  0.00000000E+00  0.00000000E+00  0.00000000E+00
  0.00000000E+00  0.00000000E+00  0.00000000E+00
  0.00000000E+00  0.00000000E+00  0.00000000E+00
  0.00000000E+00  0.00000000E+00  0.00000000E+00
  0.00000000E+00  0.00000000E+00  0.00000000E+00
  0.00000000E+00  0.00000000E+00  0.00000000E+00
  0.00000000E+00  0.00000000E+00  0.00000000E+00
  0.00000000E+00  0.00000000E+00  0.00000000E+00
  0.00000000E+00  0.00000000E+00  0.00000000E+00
  0.00000000E+00  0.00000000E+00  0.00000000E+00
  0.00000000E+00  0.00000000E+00  0.00000000E+00
  0.00000000E+00  0.00000000E+00  0.00000000E+00
  0.00000000E+00  0.00000000E+00  0.00000000E+00
  0.00000000E+00  0.00000000E+00  0.00000000E+00
  0.00000000E+00  0.00000000E+00  0.00000000E+00
  0.00000000E+00  0.00000000E+00  0.00000000E+00
  0.00000000E+00  0.00000000E+00  0.00000000E+00
  0.00000000E+00  0.00000000E+00  0.00000000E+00
  0.00000000E+00  0.00000000E+00  0.00000000E+00
  0.00000000E+00  0.00000000E+00  0.00000000E+00
  0.00000000E+00  0.00000000E+00  0.00000000E+00
  0.00000000E+00  0.00000000E+00  0.00000000E+00
  0.00000000E+00  0.00000000E+00  0.00000000E+00
  0.00000000E+00  0.00000000E+00  0.00000000E+00
  0.00000000E+00  0.00000000E+00  0.00000000E+00
  0.00000000E+00  0.00000000E+00  0.00000000E+00
  0.00000000E+00  0.00000000E+00  0.00000000E+00
  0.00000000E+00  0.00000000E+00  0.00000000E+00
  0.00000000E+00  0.00000000E+00  0.00000000E+00
  0.00000000E+00  0.00000000E+00  0.00000000E+00
  0.00000000E+00  0.00000000E+00  0.00000000E+00
  0.00000000E+00  0.00000000E+00  0.00000000E+00
  0.00000000E+00  0.00000000E+00  0.00000000E+00
  0.00000000E+00  0.00000000E+00  0.00000000E+00
  0.00000000E+00  0.00000000E+00  0.00000000E+00
  0.00000000E+00  0.00000000E+00  0.00000000E+00
  0.00000000E+00  0.00000000E+00  0.00000000E+00
  0.00000000E+00  0.00000000E+00  0.00000000E+00
  0.00000000E+00  0.00000000E+00  0.00000000E+00
  0.00000000E+00  0.00000000E+00  0.00000000E+00
  0.00000000E+00  0.00000000E+00  0.00000000E+00
  0.00000000E+00  0.00000000E+00  0.00000000E+00
  0.00000000E+00  0.00000000E+00  0.00000000E+00
  0.00000000E+00  0.00000000E+00  0.00000000E+00
  0.00000000E+00  0.00000000E+00  0.00000000E+00
  0.00000000E+00  0.00000000E+00  0.00000000E+00
  0.00000000E+00  0.00000000E+00  0.00000000E+00
  0.00000000E+00  0.00000000E+00  0.00000000E+00
  0.00000000E+00  0.00000000E+00  0.00000000E+00
  0.00000000E+00  0.00000000E+00  0.00000000E+00
  0.00000000E+00  0.00000000E+00  0.00000000E+00
  0.00000000E+00  0.00000000E+00  0.00000000E+00
  0.00000000E+00  0.00000000E+00  0.00000000E+00
  0.00000000E+00  0.00000000E+00  0.00000000E+00
  0.00000000E+00  0.00000000E+00  0.00000000E+00
  0.00000000E+00  0.00000000E+00  0.00000000E+00
  0.00000000E+00  0.00000000E+00  0.00000000E+00
  0.00000000E+00  0.00000000E+00  0.00000000E+00
  0.00000000E+00  0.00000000E+00  0.00000000E+00
  0.00000000E+00  0.00000000E+00  0.00000000E+00
  0.00000000E+00  0.00000000E+00  0.00000000E+00
  0.00000000E+00  0.00000000E+00  0.00000000E+00
  0.00000000E+00  0.00000000E+00  0.00000000E+00
  0.00000000E+00  0.00000000E+00  0.00000000E+00
  0.00000000E+00  0.00000000E+00  0.00000000E+00
  0.00000000E+00  0.00000000E+00  0.00000000E+00
  0.00000000E+00  0.00000000E+00  0.00000000E+00
  0.00000000E+00  0.00000000E+00  0.00000000E+00
  0.00000000E+00  0.00000000E+00  0.00000000E+00
  0.00000000E+00  0.00000000E+00  0.00000000E+00
  0.00000000E+00  0.00000000E+00  0.00000000E+00
  0.00000000E+00  0.00000000E+00  0.00000000E+00
  0.00000000E+00  0.00000000E+00  0.00000000E+00
  0.00000000E+00  0.00000000E+00  0.00000000E+00
  0.00000000E+00  0.00000000E+00  0.00000000E+00
  0.00000000E+00  0.00000000E+00  0.00000000E+00
  0.00000000E+00  0.00000000E+00  0.00000000E+00
  0.00000000E+00  0.00000000E+00  0.00000000E+00
  0.00000000E+00  0.00000000E+00  0.00000000E+00
  0.00000000E+00  0.00000000E+00  0.00000000E+00
  0.00000000E+00  0.00000000E+00  0.00000000E+00
  0.00000000E+00  0.00000000E+00  0.00000000E+00
  0.00000000E+00  0.00000000E+00  0.00000000E+00
  0.00000000E+00  0.00000000E+00  0.00000000E+00
  0.00000000E+00  0.00000000E+00  0.00000000E+00
  0.00000000E+00  0.00000000E+00  0.00000000E+00
  0.00000000E+00  0.00000000E+00  0.00000000E+00
  0.00000000E+00  0.00000000E+00  0.00000000E+00
  0.00000000E+00  0.00000000E+00  0.00000000E+00
  0.00000000E+00  0.00000000E+00  0.00000000E+00
  0.00000000E+00  0.00000000E+00  0.00000000E+00
  0.00000000E+00  0.00000000E+00  0.00000000E+00
  0.00000000E+00  0.00000000E+00  0.00000000E+00
  0.00000000E+00  0.00000000E+00  0.00000000E+00
  0.00000000E+00  0.00000000E+00  0.00000000E+00
  0.00000000E+00  0.00000000E+00  0.00000000E+00
  0.00000000E+00  0.00000000E+00  0.00000000E+00
  0.00000000E+00  0.00000000E+00  0.00000000E+00
  0.00000000E+00  0.00000000E+00  0.00000000E+00
  0.00000000E+00  0.00000000E+00  0.00000000E+00
  0.00000000E+00  0.00000000E+00  0.00000000E+00
  0.00000000E+00  0.00000000E+00  0.00000000E+00
  0.00000000E+00  0.00000000E+00  0.00000000E+00
  0.00000000E+00  0.00000000E+00  0.00000000E+00
  0.00000000E+00  0.00000000E+00  0.00000000E+00
  0.00000000E+00  0.00000000E+00  0.00000000E+00
  0.00000000E+00  0.00000000E+00  0.00000000E+00
  0.00000000E+00  0.00000000E+00  0.00000000E+00
  0.00000000E+00  0.00000000E+00  0.00000000E+00
  0.00000000E+00  0.00000000E+00  0.00000000E+00
  0.00000000E+00  0.00000000E+00  0.00000000E+00
  0.00000000E+00  0.00000000E+00  0.00000000E+00
  0.00000000E+00  0.00000000E+00  0.00000000E+00
  0.00000000E+00  0.00000000E+00  0.00000000E+00
  0.00000000E+00  0.00000000E+00  0.00000000E+00
  0.00000000E+00  0.00000000E+00  0.00000000E+00
  0.00000000E+00  0.00000000E+00  0.00000000E+00
  0.00000000E+00  0.00000000E+00  0.00000000E+00
  0.00000000E+00  0.00000000E+00  0.00000000E+00
  0.00000000E+00  0.00000000E+00  0.00000000E+00
  0.00000000E+00  0.00000000E+00  0.00000000E+00
  0.00000000E+00  0.00000000E+00  0.00000000E+00
  0.00000000E+00  0.00000000E+00  0.00000000E+00
  0.00000000E+00  0.00000000E+00  0.00000000E+00
  0.00000000E+00  0.00000000E+00  0.00000000E+00
  0.00000000E+00  0.00000000E+00  0.00000000E+00
  0.00000000E+00  0.00000000E+00  0.00000000E+00
  0.00000000E+00  0.00000000E+00  0.00000000E+00
  0.00000000E+00  0.00000000E+00  0.00000000E+00
  0.00000000E+00  0.00000000E+00  0.00000000E+00
  0.00000000E+00  0.00000000E+00  0.00000000E+00
  0.00000000E+00  0.00000000E+00  0.00000000E+00
  0.00000000E+00  0.00000000E+00  0.00000000E+00
  0.00000000E+00  0.00000000E+00  0.00000000E+00
  0.00000000E+00  0.00000000E+00  0.00000000E+00
  0.00000000E+00  0.00000000E+00  0.00000000E+00
  0.00000000E+00  0.00000000E+00  0.00000000E+00
  0.00000000E+00  0.00000000E+00  0.00000000E+00
  0.00000000E+00  0.00000000E+00  0.00000000E+00
  0.00000000E+00  0.00000000E+00  0.00000000E+00
  0.00000000E+00  0.00000000E+00  0.00000000E+00
  0.00000000E+00  0.00000000E+00  0.00000000E+00
  0.00000000E+00  0.00000000E+00  0.00000000E+00
  0.00000000E+00  0.00000000E+00  0.00000000E+00
  0.00000000E+00  0.00000000E+00  0.00000000E+00
  0.00000000E+00  0.00000000E+00  0.00000000E+00
  0.00000000E+00  0.00000000E+00  0.00000000E+00
  0.00000000E+00  0.00000000E+00  0.00000000E+00
  0.00000000E+00  0.00000000E+00  0.00000000E+00
  0.00000000E+00  0.00000000E+00  0.00000000E+00
  0.00000000E+00  0.00000000E+00  0.00000000E+00
  0.00000000E+00  0.00000000E+00  0.00000000E+00
  0.00000000E+00  0.00000000E+00  0.00000000E+00
  0.00000000E+00  0.00000000E+00  0.00000000E+00
  0.00000000E+00  0.00000000E+00  0.00000000E+00
  0.00000000E+00  0.00000000E+00  0.00000000E+00