FeMn_288_15                             
    1.000000000000000     
     9.7266779999999997    0.0000000000000000    0.0000000000000000
     0.0000000000000000    8.4235500000000005    0.0000000000000000
     0.0000000000000000    0.0000000000000000   45.0000000000000000
   Fe   Mn
   273    15
Direct
  0.3123683075240134  0.2081236383121961  0.6979334289273904
  0.5625686197678927  0.2081980416893245  0.6979202809413909
  0.9378870176353270  0.2861021709546487  0.2579127737614741
  0.0626127603668832  0.8686418151259210  0.1691755079930401
  0.5624647472122168  0.8678971268466514  0.1691193431933060
  0.1874441411960117  0.2905179856756815  0.6097298309895692
  0.4375051023130950  0.4548604939124400  0.4786904678437401
  0.8125436024391754  0.5360866917208891  0.2578891244479575
  0.0627051565833921  0.8724498840360368  0.5215139132623444
  0.8124098061008648  0.0419534208032654  0.7420360869092555
  0.4376427511931083  0.1223504047863753  0.5214050532797064
  0.0625768906781290  0.2034717025607458  0.3464284761680250
  0.5624007493238080  0.7100269734100660  0.8308162652201366
  0.3124133483470962  0.3761172594501610  0.7861013924323121
  0.8125991509410055  0.0373373278482545  0.3904462343383151
  0.3125986525048839  0.3678161211750161  0.1691239565038492
  0.5625990718262356  0.5409564970762032  0.6098423766798525
  0.8122638888022877  0.8696884474341169  0.3019848092641698
  0.9375468251004038  0.4585236298377402  0.6979685591918499
  0.4372384065593254  0.1196883477829837  0.3020674855213084
  0.0626932968086567  0.0406057280958013  0.6097503248096813
  0.6872632200107287  0.6225302302794823  0.5214474414723181
  0.8124156120347583  0.5398107469385809  0.6096487086098555
  0.1874847062450354  0.1263799440720399  0.7861181315759448
  0.4374163392604247  0.9536148270855582  0.3464528560406987
  0.9377764078704730  0.7858797622866230  0.2578086473129850
  0.9372334158509503  0.2877262147328167  0.3902972693759242
  0.5621466875916037  0.3722228273385210  0.5214312487154268
  0.9374610100834857  0.7868164077991440  0.3903171845344160
  0.0624944052659996  0.5421379733318750  0.7419631682340607
  0.5621853608175111  0.8721321411520925  0.5214693712720855
  0.1877896955498436  0.1216733650555137  0.4350411486331898
  0.0624427913210993  0.5369963595277019  0.3903120417183964
  0.6875200724108026  0.2852229020996623  0.1269610184010465
  0.9373824642920381  0.7928073348150976  0.8730383771407020
  0.6872458857407528  0.1261643633312932  0.7860947116075904
  0.5620620736079912  0.0430431202378244  0.8730187462987895
  0.5623968201011116  0.0399638127177692  0.6097407590345184
  0.3123789729978798  0.7037002876838245  0.3464287787017573
  0.4374966996995893  0.4535136969489618  0.3463796781740571
  0.4374470842208514  0.2845493561349337  0.1269691587002947
  0.0622130486651492  0.5426323768166699  0.8731331063230997
  0.8129111874967483  0.7020405765566725  0.2137712458515352
  0.5622470325955847  0.3760101522420656  0.7860927142849077
  0.1872780716603136  0.4550704137153233  0.4787018061479650
  0.5620768167574391  0.7022804999824102  0.2138901778688917
  0.9376724773617588  0.4551413633356166  0.4787360293672094
  0.3123130719656160  0.3715728802999950  0.4349275009714619
  0.0625387001420217  0.7036471454496042  0.3463841004012168
  0.3127591593674111  0.3697068561123139  0.3020528016758257
  0.5628537218631170  0.3688574001709820  0.1690474295401579
  0.0621581987129616  0.7058434555678732  0.4787310752035289
  0.6874610041716843  0.7937072702051332  0.8729964430446527
  0.3125013393916786  0.7081686842266943  0.6979776199791741
  0.4374326248132682  0.2906495310666303  0.6097402737503902
  0.9377275106174027  0.9538275379998064  0.3464120002217113
  0.9373605498714409  0.4520796463991107  0.2138213077746835
  0.0629814960721835  0.8712473329243726  0.4349023393717575
  0.6873861059299599  0.4552137440498157  0.4787563091857016
  0.1875466707569291  0.6179623500790533  0.1691129020421754
  0.1871449890862885  0.6222070834000768  0.5213469793103986
  0.8121674920142262  0.5354832568301781  0.1267620498131791
  0.1871572269926284  0.4560769907858787  0.5652001758303743
  0.6872547189026754  0.9552149657927204  0.4787866786747566
  0.4374082477671286  0.7921636056319676  0.7419344917986286
  0.4376809479134023  0.4560594599980654  0.5652116681791310
  0.9378398651017246  0.1183311894653258  0.1690531572384947
  0.9381779693932621  0.4564225896309705  0.5651028237302027
  0.3124866051273827  0.7101402536618475  0.8307458890877949
  0.8126871648449112  0.8677566782313806  0.1689957275437479
  0.8123869413882604  0.7049865153198063  0.4788637738991610
  0.3120879477972828  0.5354363322691474  0.1270017610225799
  0.5623935599809465  0.2064514102189515  0.5652376259646518
  0.4373470618583876  0.7931371195542759  0.8729698930679280
  0.0619245423428121  0.7096024007069642  0.8308458582934559
  0.4374931817795318  0.2922306321781157  0.7419054244770159
  0.4374653130060313  0.7855232419174694  0.2579348651948393
  0.8126330270949391  0.8742793308075451  0.6535678646782231
  0.8125107998273482  0.2089732079633652  0.6978530478579359
  0.1878834144589362  0.7920734992979499  0.7420025076744728
  0.3126381281482262  0.2094493189074390  0.8308216815794464
  0.6875232572890820  0.2855069415951385  0.2578488206644241
  0.3126791286973171  0.8695388507054131  0.3018923071425186
  0.4376947582740238  0.9566665783073822  0.5652611930335435
  0.5621261306864745  0.7062624630223893  0.5652225412755255
  0.6878829290781000  0.9584175640430587  0.6980184307211074
  0.1871427709249857  0.9553670962443717  0.4787723876517478
  0.5625215013801573  0.3695425078200802  0.3019700026567235
  0.6872340095417836  0.6241748275899794  0.6535333809411499
  0.8122617102932900  0.3693487947903144  0.3019638521779041
  0.3124323782370218  0.5418547543073833  0.7419265690789116
  0.5625846129638991  0.3710545478854587  0.4348526270399352
  0.8126708189008467  0.5371281775713506  0.3903234023485792
  0.8129320045146002  0.0355353206299743  0.1269539785469706
  0.5625448734687989  0.2021685880640813  0.2138380650806682
  0.1875801184929450  0.1183126959603378  0.1691426632463024
  0.1874835540157513  0.2878456337193823  0.3902487716741879
  0.1873703762929131  0.1224074793614961  0.5214002168229236
  0.0626621269263709  0.3714096213214350  0.4348756229677978
  0.3124020588966957  0.0429493819264854  0.8730147939861490
  0.8128520477786243  0.5420096182445644  0.8731734849763439
  0.6874509546552396  0.4519198633279775  0.2138743896877675
  0.6878748384180196  0.6259544358198114  0.7860537371447556
  0.3121502955778365  0.0357877724569851  0.2579840673898636
  0.1878647402185520  0.2922066269886023  0.7419695615058139
  0.9375074574285616  0.6262839848222927  0.7860126693682801
  0.1870606233497874  0.9582844579001564  0.6979876014468684
  0.0629639703397522  0.3756806780970982  0.7860290022777727
  0.6877281751006126  0.1241747778135095  0.6535899593036183
  0.6875018444707783  0.9517341107070144  0.2138182666227071
  0.5626276217867763  0.5373891248797309  0.3902163915208747
  0.9376052282161049  0.1210066537930470  0.4349478702029380
  0.1874659110196860  0.9567013552503911  0.5652666249841117
  0.6876345659575438  0.4592669728964345  0.8308338378459124
  0.3131828177168223  0.5429129749459010  0.8728958570154335
  0.3124972310750623  0.0424445021503360  0.7420354139728021
  0.6873823852139732  0.4562918374785454  0.5651652887721663
  0.8124289677195893  0.2020585059749924  0.2137922186636503
  0.6871274088236119  0.4531552368909646  0.3464829175658425
  0.6870615815784489  0.1223024646019744  0.5214478425773966
  0.5625175341012987  0.2031129927086619  0.3464594130484317
  0.4375835670380264  0.6258157000414432  0.7861096246654372
  0.5625806231314622  0.5418872125279681  0.7419416207975318
  0.0627182435041424  0.7063715826559820  0.5652572564158110
  0.6873082105156471  0.9593927356445635  0.8309295543204612
  0.6872562909793989  0.7901857065266993  0.6097591350643052
  0.8123332648754661  0.2057554825691023  0.5651497663376004
  0.9375363805539303  0.1196779359122635  0.3020776160561143
  0.0626619792366823  0.0351697236940929  0.1269056835379700
  0.1870243758571845  0.6258504168444817  0.7860552511550456
  0.6871158000942330  0.4585270088704656  0.6979894218487654
  0.4375366644027291  0.4521347978086869  0.2138561858249164
  0.9376079996207591  0.7902728914497542  0.6097361917111830
  0.0625692705998627  0.8743915246942627  0.6535931849830272
  0.0624886186816373  0.5401713726646160  0.6097331729225584
  0.3122930011376203  0.8685093053413874  0.1690624505772534
  0.3126054183525820  0.7017125606620065  0.2137463117471577
  0.5624363599703573  0.5354138671846409  0.2579938504211013
  0.4375070084367200  0.7849382817847766  0.1269153393079538
  0.1878121546040523  0.7904646598576802  0.6097079165681281
  0.5625856571774362  0.7037791422386392  0.3465065750814464
  0.4375284945255771  0.4599960223557650  0.8307734701638502
  0.9377072450459228  0.6183585959046635  0.1689683111368174
  0.4375104967123222  0.2876065608994058  0.3902900237974380
  0.6868701070029630  0.6215401134700769  0.4349553855459327
  0.8121496575142153  0.8714395919551471  0.4350411904179910
  0.1877845737744852  0.6214945365137925  0.4349865320742643
  0.9372769485351923  0.7852574518938827  0.1269124434457501
  0.3125345299623463  0.8760591361890891  0.7860768069345301
  0.0625201530000616  0.3696390311797990  0.3020232073556615
  0.3125629937290466  0.2031845164455854  0.3465196311854815
  0.4372171459732833  0.1182996933390414  0.1690564641728399
  0.5624665296375893  0.8695429054030733  0.3020409780781931
  0.8124588695894321  0.2048027137861900  0.4789002495676092
  0.3124905950986431  0.8721461531526827  0.4350339558927396
  0.6871676186160084  0.2922547911813800  0.7419962345998314
  0.3122941187873370  0.5409116769553219  0.6097274758669399
  0.1876967956070306  0.7851670297909104  0.1269692957077183
  0.1880386153564250  0.9598127838057174  0.8309035558883077
  0.6873246718380013  0.9561447079611073  0.5651383183427504
  0.6874785236946455  0.1183780597774048  0.1690534314656977
  0.5624779600599777  0.8714286129952031  0.4350326188135351
  0.9378473302666106  0.9552093627662837  0.4786811306761251
  0.4374968249757290  0.1241272242694973  0.6535078671656770
  0.4375005339533148  0.6194298119452778  0.3020078510578468
  0.0627332661944649  0.2100090472263905  0.8308401839359272
  0.0623863954332890  0.0371329583886528  0.3902643730270579
  0.6877232844440755  0.6191994144578206  0.3020352912638831
  0.1876247753401515  0.7855040168504993  0.2579311055579518
  0.5620741177126337  0.0354518331787184  0.1269851963381454
  0.3124963336205326  0.2019517607325826  0.2138632791769585
  0.3124490057969969  0.0403405765761136  0.6097135830658081
  0.8120789946124167  0.0423136984519008  0.8729852810237348
  0.9374351611438198  0.6242241446654869  0.6535131122615049
  0.1875927143544797  0.1196829933899538  0.3020314989710218
  0.9378311682722545  0.1223069685565339  0.5214456605096802
  0.9375572202560877  0.9565418891397822  0.5651771963497231
  0.8122612039619939  0.7082117769884427  0.6978798790272355
  0.5622039407445188  0.7080663383514324  0.6978831661675619
  0.3123979680151718  0.7063324687154119  0.5649249001028287
  0.4375145417130133  0.1263711096682424  0.7861787714750259
  0.4374586574611741  0.2932436091748708  0.8729899544671730
  0.5623203471926393  0.2093770239072028  0.8308234418895676
  0.0624403494335243  0.2085671971722074  0.6979351599528538
  0.0630357061413817  0.5353824887245372  0.1269903814301611
  0.6879073364334978  0.2902458990668841  0.6097116952898978
  0.9376173307670984  0.1260363475431064  0.7861415800367518
  0.1873177078502449  0.6195331135524964  0.3019926739776578
  0.6875317178186855  0.7873630289477371  0.3903712698116871
  0.1874107915903941  0.9517074886375524  0.2138116357151423
  0.1875787563137174  0.4520814211108811  0.2138007454321172
  0.3121916490118693  0.5377229385616121  0.3902988407005029
  0.5627458558859987  0.2055521635970084  0.4788039686267431
  0.1877301905446931  0.7935550477916642  0.8729086308757880
  0.8124602101244036  0.3713093988951880  0.4352123142896651
  0.8124201044052729  0.2036244451691172  0.3465221621231853
  0.0624411249657571  0.5356279963492457  0.2579384847765669
  0.0626322528801495  0.2065175983215135  0.5651803621930178
  0.5619928127138135  0.8761159517596925  0.7860546603530494
  0.8127453040437734  0.7035197879271986  0.3464190591423961
  0.4378571019954460  0.6213257652625019  0.4349321336296372
  0.4374384416311003  0.4578559623912775  0.6979816654104494
  0.0626432879623098  0.7081982002384698  0.6978665714772644
  0.1877295292039686  0.9534915019324586  0.3464270925425010
  0.3125061427259708  0.2053852641039444  0.4788261807840874
  0.8123844760584430  0.3739528394262090  0.6536850408248190
  0.0625393593708646  0.7018173954136774  0.2137229185460597
  0.6877330666242606  0.2930634139737106  0.8730001155403726
  0.6875826579900547  0.7845804067747584  0.1267642378918847
  0.8120292229262737  0.3684624588140987  0.1691199497207935
  0.0630382004474970  0.3722514344761622  0.5214351638486940
  0.1874887642233762  0.4594896967782697  0.8308188264310298
  0.6873813526431199  0.7921459683511577  0.7420294091487137
  0.9376129248033973  0.6226738743631880  0.5213776894779993
  0.0625589173412472  0.2021397217148188  0.2137847431552483
  0.6877943882760897  0.2875604858406468  0.3902420897150599
  0.3121833026759440  0.5354862187430629  0.2579195718169189
  0.8122443694874943  0.3755722486350634  0.7860230979115722
  0.5628486929762764  0.5351839315902286  0.1267902526585389
  0.1876649358902342  0.7871789101247336  0.3903357651242617
  0.1878369961565698  0.4583629179276433  0.6979514550105853
  0.9374675158201667  0.9582205710833490  0.6979734928240271
  0.8123320936869185  0.0401039613801968  0.6097547789890854
  0.1879992402599329  0.4532602677111656  0.3462921596093872
  0.3125401104697354  0.0378184548842061  0.3903136376133563
  0.9373949066817984  0.9515601245069801  0.2138663453144729
  0.5628555233379681  0.7055884173376759  0.4787076710730059
  0.1876794361627680  0.2859203469735573  0.2579123441157964
  0.0624976993077627  0.0421541457224082  0.7419814296114560
  0.4371917635060103  0.6186421178743117  0.1690582759410514
  0.8123263701245748  0.2101468193117841  0.8308111317345697
  0.0624440109202502  0.0361826113809163  0.2579647731620151
  0.3124239660676965  0.0351175445425130  0.1269188018715564
  0.8125944003393980  0.5424419005869682  0.7420213694383143
  0.9373342492003194  0.6195595176468357  0.3020080284366729
  0.3124795707175032  0.2063351399161791  0.5651498445517407
  0.8127466145807610  0.0355331786484400  0.2579317126036064
  0.5623594410786282  0.8743866627690008  0.6536512547803961
  0.0626091837949240  0.3743022090407860  0.6536296866284856
  0.1876849434927553  0.6242306115438603  0.6534724515234797
  0.0625485926986474  0.3676967546226113  0.1691230159857778
  0.1872007540639090  0.1244101645588374  0.6535985505661897
  0.8125552447074156  0.8728052426001885  0.5214742773241925
  0.4378194110852837  0.6221807069735134  0.5213452693447534
  0.6876029792395214  0.1195730859272643  0.3020007528199202
  0.4373722886334913  0.1214749546913666  0.4350140063348721
  0.4375455988758161  0.9596125730188931  0.8307696197148782
  0.5626363100693234  0.0423602157788879  0.7420037914518978
  0.9373601647065829  0.2935629256814730  0.8731439012584632
  0.9375112194996571  0.2924335861461920  0.7419606893704639
  0.8130095654168363  0.7098595829684340  0.8309526920085391
  0.6873015025192082  0.1210035621955149  0.4349104102108817
  0.5623864868920649  0.3738939787121809  0.6535906189895540
  0.9375803033804668  0.1244904193019917  0.6535140659370833
  0.3125811796566473  0.3741114106996245  0.6535524206908416
  0.5618257544771207  0.5428137020357564  0.8728924290512299
  0.1874945816572034  0.2849228100976212  0.1269324380251699
  0.4376315185359494  0.9516940045111888  0.2138318254129689
  0.0633443735914842  0.0427956661994470  0.8729741501160736
  0.3124099439049097  0.8743878000177971  0.6536262216381499
  0.3124931318573648  0.8728515916213530  0.5213883305342885
  0.0621993542214373  0.2054146171845339  0.4787760673260364
  0.6872426247769040  0.9534778404683231  0.3464178910982976
  0.9373330777599540  0.9596049284646389  0.8309178499425999
  0.4373163518358735  0.7875109397209481  0.3903760985775060
  0.4376607614649488  0.6242428192567329  0.6535707354461452
  0.9376094139887807  0.2845040897395695  0.1269815395896332
  0.4377034098693052  0.9552818226155784  0.4787597421130105
  0.4373062252687436  0.2852132361895781  0.2578527281801166
  0.0627941690475429  0.8761132014543830  0.7860968537869181
  0.3124714701042738  0.3729799535159867  0.5213858699510874
  0.1874576422910715  0.2932166971364544  0.8730331039695999
  0.4375450107767614  0.9581226327988893  0.6979309848954737
  0.9375662192098356  0.4536811855231920  0.3464970417107378
  0.9376854048178497  0.7921281477696339  0.7419389680493232
  0.0626099389240084  0.8695731216169930  0.3019698799459728
  0.8121200428276308  0.8760626913433012  0.7860029658257128
  0.8124833156440421  0.7059033783779355  0.5652050492251135
  0.9377937606068025  0.6212979413409158  0.4349131816858197
  0.5624114912415468  0.0374998823031819  0.3902526062224844
  0.3124695311796872  0.7053282748728076  0.4788032928953490
  0.9374341343502174  0.4595508140362322  0.8315055096267179
  0.4373255955561668  0.7905164505553152  0.6098758429504328
  0.5621830803219253  0.0362596919239067  0.2578556879635516
  0.6877967474460844  0.7846176992864684  0.2578612655471626
  0.9372121753241440  0.2902500847309891  0.6098636361069162
  0.6878238762146742  0.6184368815108585  0.1684656729537417
  0.8123463086234922  0.3725496292198177  0.5214409509985645
 
  0.00000000E+00  0.00000000E+00  0.00000000E+00
  0.00000000E+00  0.00000000E+00  0.00000000E+00
  0.00000000E+00  0.00000000E+00  0.00000000E+00
  0.00000000E+00  0.00000000E+00  0.00000000E+00
  0.00000000E+00  0.00000000E+00  0.00000000E+00
  0.00000000E+00  0.00000000E+00  0.00000000E+00
  0.00000000E+00  0.00000000E+00  0.00000000E+00
  0.00000000E+00  0.00000000E+00  0.00000000E+00
  0.00000000E+00  0.00000000E+00  0.00000000E+00
  0.00000000E+00  0.00000000E+00  0.00000000E+00
  0.00000000E+00  0.00000000E+00  0.00000000E+00
  0.00000000E+00  0.00000000E+00  0.00000000E+00
  0.00000000E+00  0.00000000E+00  0.00000000E+00
  0.00000000E+00  0.00000000E+00  0.00000000E+00
  0.00000000E+00  0.00000000E+00  0.00000000E+00
  0.00000000E+00  0.00000000E+00  0.00000000E+00
  0.00000000E+00  0.00000000E+00  0.00000000E+00
  0.00000000E+00  0.00000000E+00  0.00000000E+00
  0.00000000E+00  0.00000000E+00  0.00000000E+00
  0.00000000E+00  0.00000000E+00  0.00000000E+00
  0.00000000E+00  0.00000000E+00  0.00000000E+00
  0.00000000E+00  0.00000000E+00  0.00000000E+00
  0.00000000E+00  0.00000000E+00  0.00000000E+00
  0.00000000E+00  0.00000000E+00  0.00000000E+00
  0.00000000E+00  0.00000000E+00  0.00000000E+00
  0.00000000E+00  0.00000000E+00  0.00000000E+00
  0.00000000E+00  0.00000000E+00  0.00000000E+00
  0.00000000E+00  0.00000000E+00  0.00000000E+00
  0.00000000E+00  0.00000000E+00  0.00000000E+00
  0.00000000E+00  0.00000000E+00  0.00000000E+00
  0.00000000E+00  0.00000000E+00  0.00000000E+00
  0.00000000E+00  0.00000000E+00  0.00000000E+00
  0.00000000E+00  0.00000000E+00  0.00000000E+00
  0.00000000E+00  0.00000000E+00  0.00000000E+00
  0.00000000E+00  0.00000000E+00  0.00000000E+00
  0.00000000E+00  0.00000000E+00  0.00000000E+00
  0.00000000E+00  0.00000000E+00  0.00000000E+00
  0.00000000E+00  0.00000000E+00  0.00000000E+00
  0.00000000E+00  0.00000000E+00  0.00000000E+00
  0.00000000E+00  0.00000000E+00  0.00000000E+00
  0.00000000E+00  0.00000000E+00  0.00000000E+00
  0.00000000E+00  0.00000000E+00  0.00000000E+00
  0.00000000E+00  0.00000000E+00  0.00000000E+00
  0.00000000E+00  0.00000000E+00  0.00000000E+00
  0.00000000E+00  0.00000000E+00  0.00000000E+00
  0.00000000E+00  0.00000000E+00  0.00000000E+00
  0.00000000E+00  0.00000000E+00  0.00000000E+00
  0.00000000E+00  0.00000000E+00  0.00000000E+00
  0.00000000E+00  0.00000000E+00  0.00000000E+00
  0.00000000E+00  0.00000000E+00  0.00000000E+00
  0.00000000E+00  0.00000000E+00  0.00000000E+00
  0.00000000E+00  0.00000000E+00  0.00000000E+00
  0.00000000E+00  0.00000000E+00  0.00000000E+00
  0.00000000E+00  0.00000000E+00  0.00000000E+00
  0.00000000E+00  0.00000000E+00  0.00000000E+00
  0.00000000E+00  0.00000000E+00  0.00000000E+00
  0.00000000E+00  0.00000000E+00  0.00000000E+00
  0.00000000E+00  0.00000000E+00  0.00000000E+00
  0.00000000E+00  0.00000000E+00  0.00000000E+00
  0.00000000E+00  0.00000000E+00  0.00000000E+00
  0.00000000E+00  0.00000000E+00  0.00000000E+00
  0.00000000E+00  0.00000000E+00  0.00000000E+00
  0.00000000E+00  0.00000000E+00  0.00000000E+00
  0.00000000E+00  0.00000000E+00  0.00000000E+00
  0.00000000E+00  0.00000000E+00  0.00000000E+00
  0.00000000E+00  0.00000000E+00  0.00000000E+00
  0.00000000E+00  0.00000000E+00  0.00000000E+00
  0.00000000E+00  0.00000000E+00  0.00000000E+00
  0.00000000E+00  0.00000000E+00  0.00000000E+00
  0.00000000E+00  0.00000000E+00  0.00000000E+00
  0.00000000E+00  0.00000000E+00  0.00000000E+00
  0.00000000E+00  0.00000000E+00  0.00000000E+00
  0.00000000E+00  0.00000000E+00  0.00000000E+00
  0.00000000E+00  0.00000000E+00  0.00000000E+00
  0.00000000E+00  0.00000000E+00  0.00000000E+00
  0.00000000E+00  0.00000000E+00  0.00000000E+00
  0.00000000E+00  0.00000000E+00  0.00000000E+00
  0.00000000E+00  0.00000000E+00  0.00000000E+00
  0.00000000E+00  0.00000000E+00  0.00000000E+00
  0.00000000E+00  0.00000000E+00  0.00000000E+00
  0.00000000E+00  0.00000000E+00  0.00000000E+00
  0.00000000E+00  0.00000000E+00  0.00000000E+00
  0.00000000E+00  0.00000000E+00  0.00000000E+00
  0.00000000E+00  0.00000000E+00  0.00000000E+00
  0.00000000E+00  0.00000000E+00  0.00000000E+00
  0.00000000E+00  0.00000000E+00  0.00000000E+00
  0.00000000E+00  0.00000000E+00  0.00000000E+00
  0.00000000E+00  0.00000000E+00  0.00000000E+00
  0.00000000E+00  0.00000000E+00  0.00000000E+00
  0.00000000E+00  0.00000000E+00  0.00000000E+00
  0.00000000E+00  0.00000000E+00  0.00000000E+00
  0.00000000E+00  0.00000000E+00  0.00000000E+00
  0.00000000E+00  0.00000000E+00  0.00000000E+00
  0.00000000E+00  0.00000000E+00  0.00000000E+00
  0.00000000E+00  0.00000000E+00  0.00000000E+00
  0.00000000E+00  0.00000000E+00  0.00000000E+00
  0.00000000E+00  0.00000000E+00  0.00000000E+00
  0.00000000E+00  0.00000000E+00  0.00000000E+00
  0.00000000E+00  0.00000000E+00  0.00000000E+00
  0.00000000E+00  0.00000000E+00  0.00000000E+00
  0.00000000E+00  0.00000000E+00  0.00000000E+00
  0.00000000E+00  0.00000000E+00  0.00000000E+00
  0.00000000E+00  0.00000000E+00  0.00000000E+00
  0.00000000E+00  0.00000000E+00  0.00000000E+00
  0.00000000E+00  0.00000000E+00  0.00000000E+00
  0.00000000E+00  0.00000000E+00  0.00000000E+00
  0.00000000E+00  0.00000000E+00  0.00000000E+00
  0.00000000E+00  0.00000000E+00  0.00000000E+00
  0.00000000E+00  0.00000000E+00  0.00000000E+00
  0.00000000E+00  0.00000000E+00  0.00000000E+00
  0.00000000E+00  0.00000000E+00  0.00000000E+00
  0.00000000E+00  0.00000000E+00  0.00000000E+00
  0.00000000E+00  0.00000000E+00  0.00000000E+00
  0.00000000E+00  0.00000000E+00  0.00000000E+00
  0.00000000E+00  0.00000000E+00  0.00000000E+00
  0.00000000E+00  0.00000000E+00  0.00000000E+00
  0.00000000E+00  0.00000000E+00  0.00000000E+00
  0.00000000E+00  0.00000000E+00  0.00000000E+00
  0.00000000E+00  0.00000000E+00  0.00000000E+00
  0.00000000E+00  0.00000000E+00  0.00000000E+00
  0.00000000E+00  0.00000000E+00  0.00000000E+00
  0.00000000E+00  0.00000000E+00  0.00000000E+00
  0.00000000E+00  0.00000000E+00  0.00000000E+00
  0.00000000E+00  0.00000000E+00  0.00000000E+00
  0.00000000E+00  0.00000000E+00  0.00000000E+00
  0.00000000E+00  0.00000000E+00  0.00000000E+00
  0.00000000E+00  0.00000000E+00  0.00000000E+00
  0.00000000E+00  0.00000000E+00  0.00000000E+00
  0.00000000E+00  0.00000000E+00  0.00000000E+00
  0.00000000E+00  0.00000000E+00  0.00000000E+00
  0.00000000E+00  0.00000000E+00  0.00000000E+00
  0.00000000E+00  0.00000000E+00  0.00000000E+00
  0.00000000E+00  0.00000000E+00  0.00000000E+00
  0.00000000E+00  0.00000000E+00  0.00000000E+00
  0.00000000E+00  0.00000000E+00  0.00000000E+00
  0.00000000E+00  0.00000000E+00  0.00000000E+00
  0.00000000E+00  0.00000000E+00  0.00000000E+00
  0.00000000E+00  0.00000000E+00  0.00000000E+00
  0.00000000E+00  0.00000000E+00  0.00000000E+00
  0.00000000E+00  0.00000000E+00  0.00000000E+00
  0.00000000E+00  0.00000000E+00  0.00000000E+00
  0.00000000E+00  0.00000000E+00  0.00000000E+00
  0.00000000E+00  0.00000000E+00  0.00000000E+00
  0.00000000E+00  0.00000000E+00  0.00000000E+00
  0.00000000E+00  0.00000000E+00  0.00000000E+00
  0.00000000E+00  0.00000000E+00  0.00000000E+00
  0.00000000E+00  0.00000000E+00  0.00000000E+00
  0.00000000E+00  0.00000000E+00  0.00000000E+00
  0.00000000E+00  0.00000000E+00  0.00000000E+00
  0.00000000E+00  0.00000000E+00  0.00000000E+00
  0.00000000E+00  0.00000000E+00  0.00000000E+00
  0.00000000E+00  0.00000000E+00  0.00000000E+00
  0.00000000E+00  0.00000000E+00  0.00000000E+00
  0.00000000E+00  0.00000000E+00  0.00000000E+00
  0.00000000E+00  0.00000000E+00  0.00000000E+00
  0.00000000E+00  0.00000000E+00  0.00000000E+00
  0.00000000E+00  0.00000000E+00  0.00000000E+00
  0.00000000E+00  0.00000000E+00  0.00000000E+00
  0.00000000E+00  0.00000000E+00  0.00000000E+00
  0.00000000E+00  0.00000000E+00  0.00000000E+00
  0.00000000E+00  0.00000000E+00  0.00000000E+00
  0.00000000E+00  0.00000000E+00  0.00000000E+00
  0.00000000E+00  0.00000000E+00  0.00000000E+00
  0.00000000E+00  0.00000000E+00  0.00000000E+00
  0.00000000E+00  0.00000000E+00  0.00000000E+00
  0.00000000E+00  0.00000000E+00  0.00000000E+00
  0.00000000E+00  0.00000000E+00  0.00000000E+00
  0.00000000E+00  0.00000000E+00  0.00000000E+00
  0.00000000E+00  0.00000000E+00  0.00000000E+00
  0.00000000E+00  0.00000000E+00  0.00000000E+00
  0.00000000E+00  0.00000000E+00  0.00000000E+00
  0.00000000E+00  0.00000000E+00  0.00000000E+00
  0.00000000E+00  0.00000000E+00  0.00000000E+00
  0.00000000E+00  0.00000000E+00  0.00000000E+00
  0.00000000E+00  0.00000000E+00  0.00000000E+00
  0.00000000E+00  0.00000000E+00  0.00000000E+00
  0.00000000E+00  0.00000000E+00  0.00000000E+00
  0.00000000E+00  0.00000000E+00  0.00000000E+00
  0.00000000E+00  0.00000000E+00  0.00000000E+00
  0.00000000E+00  0.00000000E+00  0.00000000E+00
  0.00000000E+00  0.00000000E+00  0.00000000E+00
  0.00000000E+00  0.00000000E+00  0.00000000E+00
  0.00000000E+00  0.00000000E+00  0.00000000E+00
  0.00000000E+00  0.00000000E+00  0.00000000E+00
  0.00000000E+00  0.00000000E+00  0.00000000E+00
  0.00000000E+00  0.00000000E+00  0.00000000E+00
  0.00000000E+00  0.00000000E+00  0.00000000E+00
  0.00000000E+00  0.00000000E+00  0.00000000E+00
  0.00000000E+00  0.00000000E+00  0.00000000E+00
  0.00000000E+00  0.00000000E+00  0.00000000E+00
  0.00000000E+00  0.00000000E+00  0.00000000E+00
  0.00000000E+00  0.00000000E+00  0.00000000E+00
  0.00000000E+00  0.00000000E+00  0.00000000E+00
  0.00000000E+00  0.00000000E+00  0.00000000E+00
  0.00000000E+00  0.00000000E+00  0.00000000E+00
  0.00000000E+00  0.00000000E+00  0.00000000E+00
  0.00000000E+00  0.00000000E+00  0.00000000E+00
  0.00000000E+00  0.00000000E+00  0.00000000E+00
  0.00000000E+00  0.00000000E+00  0.00000000E+00
  0.00000000E+00  0.00000000E+00  0.00000000E+00
  0.00000000E+00  0.00000000E+00  0.00000000E+00
  0.00000000E+00  0.00000000E+00  0.00000000E+00
  0.00000000E+00  0.00000000E+00  0.00000000E+00
  0.00000000E+00  0.00000000E+00  0.00000000E+00
  0.00000000E+00  0.00000000E+00  0.00000000E+00
  0.00000000E+00  0.00000000E+00  0.00000000E+00
  0.00000000E+00  0.00000000E+00  0.00000000E+00
  0.00000000E+00  0.00000000E+00  0.00000000E+00
  0.00000000E+00  0.00000000E+00  0.00000000E+00
  0.00000000E+00  0.00000000E+00  0.00000000E+00
  0.00000000E+00  0.00000000E+00  0.00000000E+00
  0.00000000E+00  0.00000000E+00  0.00000000E+00
  0.00000000E+00  0.00000000E+00  0.00000000E+00
  0.00000000E+00  0.00000000E+00  0.00000000E+00
  0.00000000E+00  0.00000000E+00  0.00000000E+00
  0.00000000E+00  0.00000000E+00  0.00000000E+00
  0.00000000E+00  0.00000000E+00  0.00000000E+00
  0.00000000E+00  0.00000000E+00  0.00000000E+00
  0.00000000E+00  0.00000000E+00  0.00000000E+00
  0.00000000E+00  0.00000000E+00  0.00000000E+00
  0.00000000E+00  0.00000000E+00  0.00000000E+00
  0.00000000E+00  0.00000000E+00  0.00000000E+00
  0.00000000E+00  0.00000000E+00  0.00000000E+00
  0.00000000E+00  0.00000000E+00  0.00000000E+00
  0.00000000E+00  0.00000000E+00  0.00000000E+00
  0.00000000E+00  0.00000000E+00  0.00000000E+00
  0.00000000E+00  0.00000000E+00  0.00000000E+00
  0.00000000E+00  0.00000000E+00  0.00000000E+00
  0.00000000E+00  0.00000000E+00  0.00000000E+00
  0.00000000E+00  0.00000000E+00  0.00000000E+00
  0.00000000E+00  0.00000000E+00  0.00000000E+00
  0.00000000E+00  0.00000000E+00  0.00000000E+00
  0.00000000E+00  0.00000000E+00  0.00000000E+00
  0.00000000E+00  0.00000000E+00  0.00000000E+00
  0.00000000E+00  0.00000000E+00  0.00000000E+00
  0.00000000E+00  0.00000000E+00  0.00000000E+00
  0.00000000E+00  0.00000000E+00  0.00000000E+00
  0.00000000E+00  0.00000000E+00  0.00000000E+00
  0.00000000E+00  0.00000000E+00  0.00000000E+00
  0.00000000E+00  0.00000000E+00  0.00000000E+00
  0.00000000E+00  0.00000000E+00  0.00000000E+00
  0.00000000E+00  0.00000000E+00  0.00000000E+00
  0.00000000E+00  0.00000000E+00  0.00000000E+00
  0.00000000E+00  0.00000000E+00  0.00000000E+00
  0.00000000E+00  0.00000000E+00  0.00000000E+00
  0.00000000E+00  0.00000000E+00  0.00000000E+00
  0.00000000E+00  0.00000000E+00  0.00000000E+00