FeMn_288_15                             
    1.000000000000000     
     9.7266779999999997    0.0000000000000000    0.0000000000000000
     0.0000000000000000    8.4235500000000005    0.0000000000000000
     0.0000000000000000    0.0000000000000000   45.0000000000000000
   Fe   Mn
   273    15
Direct
  0.3126077335479804  0.2089409986805245  0.6977233202314531
  0.5615145290359114  0.2089871317245406  0.6974723297379819
  0.9357201845734077  0.2860367213889033  0.2588928426946249
  0.0628772153572431  0.8682979340372133  0.1697368489368131
  0.5616989337371147  0.8680271234683985  0.1696311440657881
  0.1881663328994612  0.2907529065178996  0.6099285284921742
  0.4364673680311481  0.4548940020558784  0.4786940989294201
  0.8118624228123604  0.5346501419325911  0.2589706051817998
  0.0626639136471278  0.8725890251967771  0.5219369570578872
  0.8125289480955196  0.0424839322491263  0.7416701171329453
  0.4377695317889330  0.1223262667954744  0.5218938470544413
  0.0623033925106203  0.2026076891400432  0.3464607868097885
  0.5617503912203579  0.7102868456732644  0.8306955445111366
  0.3123547764966527  0.3773421637684589  0.7852387098657660
  0.8128057734792052  0.0375145692179130  0.3902898336793977
  0.3120936027999839  0.3666126965067298  0.1697543827807098
  0.5625984788919540  0.5403273255144752  0.6099597644189870
  0.8123693888985017  0.8706300705671608  0.3024539824433937
  0.9377777449107445  0.4577819533223923  0.6976530069098801
  0.4374912919766658  0.1207225648586967  0.3025352382675541
  0.0626760916900921  0.0408623285669620  0.6098368516211072
  0.6871503894391343  0.6231913715771251  0.5222416668743380
  0.8115679406899198  0.5399772679687964  0.6096661360174416
  0.1881556970395888  0.1268009399329653  0.7856225931592283
  0.4369686501117290  0.9535342036127600  0.3464880241051937
  0.9380750763088140  0.7860156275548207  0.2586970561012942
  0.9375353794575579  0.2867056515595980  0.3901643322070493
  0.5616151780057432  0.3713809439026317  0.5221623783160040
  0.9378568651063490  0.7875983669063362  0.3903760738301622
  0.0648399662716732  0.5409293642002083  0.7416330105349564
  0.5622534642797219  0.8727209632005664  0.5220974705392770
  0.1884050595415822  0.1210955288515648  0.4350389130066967
  0.0627862661292027  0.5366898819298722  0.3904134747012926
  0.6874431412965631  0.2849016871646535  0.1249928457132266
  0.9380827106102803  0.7940655760826097  0.8728331518682926
  0.6866536343598668  0.1265452685382048  0.7859754210586104
  0.5617757784799792  0.0423946661992344  0.8727980211824007
  0.5626667694713841  0.0407005405677954  0.6098118344238739
  0.3122561431137891  0.7035174965861022  0.3465167255295736
  0.4377135328177865  0.4530792334269361  0.3463855877383822
  0.4373306309315502  0.2846688605040333  0.1250881064928577
  0.0629971634021077  0.5458406824047051  0.8728610405170005
  0.8137226375170531  0.7014473716623300  0.2146200347771971
  0.5608401901033350  0.3768510898835229  0.7857133379043026
  0.1881674157709176  0.4554494891429903  0.4786779863462106
  0.5617205272881659  0.7015715867876349  0.2146343968080662
  0.9386065061606933  0.4553957501673635  0.4787459725335961
  0.3122644232142593  0.3710287572404984  0.4348304428542439
  0.0629878192212524  0.7043116793268409  0.3464025571282967
  0.3138978605254825  0.3696888111505306  0.3026679603948076
  0.5618507020662011  0.3675749275266207  0.1695731175938262
  0.0632468084010789  0.7070780884285562  0.4787624088019263
  0.6876024648875525  0.7937285241852174  0.8727858439746666
  0.3134593897647210  0.7075155858332925  0.6979276296002624
  0.4377995516927187  0.2908199192882724  0.6098957074880265
  0.9380012385948957  0.9545328121391724  0.3464401457039019
  0.9373190536767486  0.4512016252728230  0.2143556339849879
  0.0639593937746770  0.8717765902571001  0.4349656423847086
  0.6865923672301637  0.4547340757970971  0.4788602429308712
  0.1873694199738063  0.6164998921377109  0.1696793465465068
  0.1874871427136484  0.6225458284959957  0.5218757456896146
  0.8128454214649340  0.5334793804216990  0.1244941148476430
  0.1877741661655025  0.4560830915643209  0.5654060179980719
  0.6868055845088451  0.9556246617123166  0.4790610952432945
  0.4355941202433437  0.7909239755785864  0.7413707447922101
  0.4377838245565099  0.4556172158453157  0.5654899883459353
  0.9385578170389178  0.1191466007228126  0.1698704680002086
  0.9380556573934709  0.4564557999535330  0.5653449373540356
  0.3122753691620596  0.7107876496628783  0.8306170206283928
  0.8133126673608588  0.8683893430679710  0.1695492365167997
  0.8130074005929009  0.7065155926671713  0.4789216504872569
  0.3124260635045751  0.5340361652739553  0.1249639840889308
  0.5625165882838693  0.2063952998372305  0.5654886240330447
  0.4360679296931494  0.7931248537223102  0.8727348345868131
  0.0626200773993285  0.7111376824228990  0.8307064829461543
  0.4357514941518648  0.2936252077691901  0.7413441957340104
  0.4372704952790211  0.7851650555196237  0.2589621139843946
  0.8117185871769323  0.8746526633192012  0.6534211044318752
  0.8120512193300512  0.2097644471357316  0.6973535242199373
  0.1896599629913621  0.7911862753007944  0.7416521364638415
  0.3126662802425154  0.2092161444390573  0.8303327027762081
  0.6878266068797372  0.2862660368437733  0.2589697090038219
  0.3121919014657727  0.8696018440916103  0.3023679956991783
  0.4385034358202024  0.9568666939735533  0.5654575643664915
  0.5623210079061666  0.7063727526681288  0.5654339656075558
  0.6865550947049193  0.9587966143779859  0.6973503840639408
  0.1878587379468859  0.9553311103585699  0.4788930286979763
  0.5630525809595585  0.3693355966804960  0.3023280150338897
  0.6863088143892144  0.6239812372142534  0.6534776180351276
  0.8111856338823872  0.3691922011313726  0.3023206107324417
  0.3125217333040287  0.5413729836125838  0.7415777566856756
  0.5610461829567422  0.3709598420739809  0.4346794963860339
  0.8121731039488010  0.5367252503476100  0.3902666085142595
  0.8129298039677230  0.0349377909210796  0.1246951906182270
  0.5630261005185961  0.2028595222976605  0.2145046096647307
  0.1875206624550982  0.1195958977676204  0.1698685934795061
  0.1878895157696343  0.2866574642062963  0.3904261773342424
  0.1877063903009241  0.1221797667446573  0.5217883863851848
  0.0637690310283616  0.3707136713433886  0.4347959874160698
  0.3113197939181226  0.0411443630036440  0.8728607910734468
  0.8120428293734950  0.5442533068224665  0.8729376701667722
  0.6877282752978251  0.4505869240430692  0.2147505666658680
  0.6874137772984407  0.6254782641582755  0.7859973207116573
  0.3120509150920267  0.0351753893992255  0.2589342165607290
  0.1893644354603807  0.2934659629203390  0.7414879953669669
  0.9385942238287428  0.6260541110086840  0.7857815614758669
  0.1883593523463770  0.9593182139305743  0.6977762730173537
  0.0644032427681802  0.3762428025301005  0.7853938266537490
  0.6868663261112629  0.1246888336084915  0.6534896899260230
  0.6880402460605106  0.9529621163246434  0.2145679600512959
  0.5620113367392919  0.5372015564977873  0.3902648801839046
  0.9390649640994944  0.1206671698929264  0.4348715178695802
  0.1875160653092987  0.9567301390025515  0.5653758581991281
  0.6871541518901780  0.4602950229613587  0.8305926601721969
  0.3133380052688738  0.5462484212778291  0.8726842001605688
  0.3123713320092391  0.0431007727227481  0.7414772600195123
  0.6868399448980621  0.4557870251763688  0.5655031661645609
  0.8124959343347471  0.2020790635693492  0.2144896494752277
  0.6872237696982364  0.4524902719414113  0.3464055220842963
  0.6867908606128736  0.1216364951765358  0.5221424823559633
  0.5629013363673238  0.2033416465991168  0.3464146752428154
  0.4360002529359969  0.6247745978859564  0.7855151828927389
  0.5599590801842816  0.5413671262695936  0.7413397410073654
  0.0625562653245298  0.7062056651575662  0.5653882124637999
  0.6876162486086327  0.9595954080241751  0.8307691424438608
  0.6870942393684355  0.7902463904239255  0.6097934022453906
  0.8116367999713013  0.2051763348675695  0.5653870080767028
  0.9370415437152381  0.1196809327246731  0.3026327039717763
  0.0630394036833138  0.0344633703042302  0.1248435418253779
  0.1881019924091980  0.6251622457111712  0.7854977268693856
  0.6858072558527920  0.4587616113228937  0.6975371232640488
  0.4376292359285753  0.4512842840656275  0.2143853361055506
  0.9369646398949997  0.7902823774864803  0.6096712649278799
  0.0629851720841344  0.8750888784317588  0.6534826853142808
  0.0627231796318305  0.5399621067857577  0.6097264766293607
  0.3121362644396810  0.8683974251312022  0.1695424545006917
  0.3120494322095220  0.7016788387769964  0.2143698917434859
  0.5634827969817124  0.5334690453822516  0.2591032124929201
  0.4372874239246403  0.7840407654895298  0.1248209188691907
  0.1881975276247747  0.7901374243333148  0.6097772276240836
  0.5624854751852613  0.7030980721442325  0.3465306812724800
  0.4373314845983914  0.4618737356735742  0.8303348805297970
  0.9389012265291817  0.6166100357564939  0.1695061733539526
  0.4371976047829857  0.2875478312452935  0.3904081135950117
  0.6864251470692772  0.6221354562593565  0.4346912962349004
  0.8127507501592290  0.8716411298547075  0.4350370671175045
  0.1881864837043551  0.6220066840575199  0.4350243844927806
  0.9378834604843639  0.7845561342606245  0.1247424368237593
  0.3122418407609036  0.8753788993976769  0.7856968174004899
  0.0619716736952654  0.3692423746083988  0.3027365173876810
  0.3122083539753137  0.2028711269381277  0.3465512270513950
  0.4363897097804577  0.1193290303153184  0.1697373209886230
  0.5629806948505607  0.8696878977956933  0.3025838121264335
  0.8126167893219275  0.2031401325267605  0.4791005220745145
  0.3120662851924058  0.8723194970580961  0.4351434879195035
  0.6859545870531849  0.2933029481587185  0.7414302661000457
  0.3128520208457294  0.5400164363386925  0.6098123844253081
  0.1876735075318587  0.7846710927404261  0.1248792040158148
  0.1882724476015905  0.9592605142446051  0.8309072050412762
  0.6873142738732166  0.9566460582298468  0.5653084003516523
  0.6876058329197591  0.1191155273923552  0.1697252042518842
  0.5612624760113848  0.8716049048558473  0.4350003417558136
  0.9385046663317108  0.9554606482804333  0.4788522504532047
  0.4375057435444576  0.1252588938115767  0.6535398616356638
  0.4380013808566533  0.6183977715943552  0.3025156452016773
  0.0630442228723600  0.2095194807485008  0.8304491844823165
  0.0630509487518355  0.0369964890941599  0.3903226537901911
  0.6874366443965155  0.6179440280702869  0.3024022860107308
  0.1868232916139992  0.7858786252570521  0.2588292369440752
  0.5621156299877610  0.0346930466230168  0.1247465603522099
  0.3125595765371193  0.2018852959713014  0.2141999306106321
  0.3130704702312002  0.0412419182516941  0.6098932644940842
  0.8127155088672485  0.0416072812852760  0.8727817124861217
  0.9369314196714101  0.6240481100827479  0.6533950314722794
  0.1874309938974827  0.1193030320828467  0.3026928447901188
  0.9376082250167463  0.1215566530361536  0.5220742434181436
  0.9366959863065561  0.9566109692985538  0.5652742741932745
  0.8111620308265672  0.7077474953465605  0.6973014969808337
  0.5612409501005472  0.7074838531933703  0.6974931345642379
  0.3127492559778228  0.7057197607046425  0.5650920662306269
  0.4367548335719786  0.1266694291988291  0.7858616494228221
  0.4374176777359189  0.2949288696720403  0.8727092919832741
  0.5625392912237351  0.2101444625393907  0.8303271474603456
  0.0636398231949247  0.2094787767996365  0.6976487823025778
  0.0628338923102414  0.5341460707577583  0.1248892711515535
  0.6873637827172941  0.2902958210489902  0.6097683646710010
  0.9383799774475436  0.1261385684440400  0.7859738025575358
  0.1881243884157314  0.6193012343977646  0.3024305950063150
  0.6866410574482332  0.7873340800688009  0.3904141759445259
  0.1867778645394675  0.9523452273602102  0.2144778427045737
  0.1872617641159518  0.4517021607249193  0.2140740623167775
  0.3127611925930779  0.5375205235086150  0.3904986181333983
  0.5616800572259522  0.2042406571573672  0.4790205241429784
  0.1883120711030594  0.7946772127474423  0.8728555920179409
  0.8130107923287303  0.3711301823804481  0.4349394108247591
  0.8126102494878010  0.2033774342335298  0.3464593786517214
  0.0614264124488481  0.5369462920834275  0.2588139401524929
  0.0625012148854506  0.2066695202538823  0.5652931290117691
  0.5610640274061365  0.8760810668449375  0.7859170739299703
  0.8124968418469937  0.7035405054169768  0.3463196202230527
  0.4367985084289586  0.6214937649433907  0.4348798188444289
  0.4373033014236197  0.4576974123968849  0.6977787342152227
  0.0635407629800898  0.7076974581843238  0.6976513643172469
  0.1871922845685984  0.9537412625606341  0.3466068476711275
  0.3124986830938259  0.2043740096552243  0.4788662566396549
  0.8114333019951689  0.3740759422665343  0.6536225739524163
  0.0626599081442735  0.7020551413071942  0.2144336556364793
  0.6877723132992571  0.2944552969005128  0.8727196832390632
  0.6872980795188663  0.7843382569437022  0.1243833446216575
  0.8129177183427662  0.3670429858039860  0.1697439864157425
  0.0632818254597275  0.3719065719737465  0.5220922405188998
  0.1881806914015918  0.4613176809391585  0.8303734415198581
  0.6867188688917034  0.7917071519751202  0.7416778248795978
  0.9379792923396755  0.6234902737563481  0.5221440116517151
  0.0620239107823453  0.2015433364401315  0.2140977121882354
  0.6873207900440280  0.2874771865496442  0.3900733426679830
  0.3127674383789281  0.5356886765908432  0.2589570796975063
  0.8123864865692743  0.3759300434292269  0.7857668325338595
  0.5620675626904720  0.5333233369424654  0.1245351125313419
  0.1884167915128180  0.7879835806938438  0.3904985232597079
  0.1889705229246465  0.4573293735858580  0.6978794932498952
  0.9375110969274669  0.9590187610337646  0.6974952402640019
  0.8114839540072181  0.0401900981335980  0.6097417713582441
  0.1879224395903246  0.4525583214597449  0.3462620536751993
  0.3120609938964789  0.0376154249948140  0.3905244689333419
  0.9378273110992592  0.9526694614977049  0.2146265477509022
  0.5613173913990167  0.7067407643424840  0.4787598024998952
  0.1879219642813526  0.2853819142785450  0.2588787077848657
  0.0643666136898957  0.0431651210108925  0.7415464393552332
  0.4366027135410738  0.6170697383183430  0.1695058372963470
  0.8116053035899264  0.2100998800421282  0.8304677319487427
  0.0617654110124677  0.0347566655448614  0.2588522901339328
  0.3120922300209552  0.0345671256540291  0.1247808469204933
  0.8126623512173629  0.5415202871593040  0.7416080889320001
  0.9362250302950605  0.6187642477036419  0.3022866634612921
  0.3132404814510590  0.2069853581785424  0.5653651221699471
  0.8130789940499112  0.0362790590029301  0.2589259309076316
  0.5622118449090115  0.8746990007423182  0.6536622917131139
  0.0635643289908133  0.3738894903694171  0.6536413448998324
  0.1887962927214078  0.6234906101177988  0.6534135119098198
  0.0632110211423963  0.3665115539136323  0.1698280490043277
  0.1881213133744592  0.1255113083745254  0.6536543968316887
  0.8124552433543577  0.8733240162832350  0.5221531310543077
  0.4373337276004843  0.6223352064813560  0.5219444009355928
  0.6879868014957894  0.1206904754839383  0.3023981013373769
  0.4359881089511276  0.1212080819197264  0.4350569922834206
  0.4367356583106253  0.9593029733248843  0.8306097010518481
  0.5607241107546918  0.0431206813300912  0.7414092553254169
  0.9369414751750442  0.2940205499404299  0.8729194661835087
  0.9389850457742721  0.2933887329771395  0.7414757934380422
  0.8130772254170180  0.7109571494873658  0.8307944726725698
  0.6866595533781299  0.1207196935097999  0.4348768931922636
  0.5618130834084724  0.3737540712456583  0.6535779023628551
  0.9375035713688422  0.1251321007983322  0.6534563936328911
  0.3131710133322312  0.3737328458278162  0.6535659483852916
  0.5615427205405216  0.5446351995833750  0.8726179890508933
  0.1876040908837543  0.2842911865746604  0.1252354462019850
  0.4373845792661635  0.9523890947733812  0.2144577837490214
  0.0641286973171802  0.0408335590845923  0.8728653760712605
  0.3130631252566493  0.8749958376216395  0.6536252982158183
  0.3125552169030059  0.8726271980468120  0.5216826948549063
  0.0630166337791483  0.2039013653516351  0.4788010698968256
  0.6879594563933116  0.9538585424667592  0.3463839985075200
  0.9375547515129296  0.9595458892158354  0.8308878768190170
  0.4368921388064922  0.7869027468705916  0.3906206814248969
  0.4380266749316259  0.6236246800331667  0.6535986310121840
  0.9377991483542517  0.2844301890129739  0.1250367547856193
  0.4368617049806710  0.9554596421233481  0.4788848803278227
  0.4388425055660537  0.2855769464803756  0.2589341122683145
  0.0634521606110274  0.8758122353155459  0.7858833603050968
  0.3126937550635996  0.3725027799315084  0.5219886945048166
  0.1876220954481550  0.2937811722675843  0.8727479721588122
  0.4374616871825516  0.9584578724704214  0.6976312638250620
  0.9371293147614332  0.4522813068777736  0.3463607982416853
  0.9386752880808311  0.7916756295511710  0.7417133094911468
  0.0625291435977207  0.8708797632751453  0.3024568934937550
  0.8129319165653277  0.8757510288516764  0.7859772489523904
  0.8120951894404588  0.7065177330358400  0.5654980032129778
  0.9390795149745064  0.6220734758150134  0.4348855778628678
  0.5619138702769949  0.0375063180320674  0.3903634709080347
  0.3122357262875313  0.7065697305855249  0.4789595554397484
  0.9371979608192974  0.4612691727695140  0.8309865220739081
  0.4380175597414989  0.7903408069934331  0.6100367102550057
  0.5628107515804939  0.0375694739014414  0.2590742026646787
  0.6887660439851309  0.7837219863383027  0.2591822070677945
  0.9365932581402351  0.2905449095174075  0.6099456178519180
  0.6873831147261731  0.6168335617578371  0.1693491155477281
  0.8123968440009063  0.3718074806162111  0.5222742878132000
 
  0.00000000E+00  0.00000000E+00  0.00000000E+00
  0.00000000E+00  0.00000000E+00  0.00000000E+00
  0.00000000E+00  0.00000000E+00  0.00000000E+00
  0.00000000E+00  0.00000000E+00  0.00000000E+00
  0.00000000E+00  0.00000000E+00  0.00000000E+00
  0.00000000E+00  0.00000000E+00  0.00000000E+00
  0.00000000E+00  0.00000000E+00  0.00000000E+00
  0.00000000E+00  0.00000000E+00  0.00000000E+00
  0.00000000E+00  0.00000000E+00  0.00000000E+00
  0.00000000E+00  0.00000000E+00  0.00000000E+00
  0.00000000E+00  0.00000000E+00  0.00000000E+00
  0.00000000E+00  0.00000000E+00  0.00000000E+00
  0.00000000E+00  0.00000000E+00  0.00000000E+00
  0.00000000E+00  0.00000000E+00  0.00000000E+00
  0.00000000E+00  0.00000000E+00  0.00000000E+00
  0.00000000E+00  0.00000000E+00  0.00000000E+00
  0.00000000E+00  0.00000000E+00  0.00000000E+00
  0.00000000E+00  0.00000000E+00  0.00000000E+00
  0.00000000E+00  0.00000000E+00  0.00000000E+00
  0.00000000E+00  0.00000000E+00  0.00000000E+00
  0.00000000E+00  0.00000000E+00  0.00000000E+00
  0.00000000E+00  0.00000000E+00  0.00000000E+00
  0.00000000E+00  0.00000000E+00  0.00000000E+00
  0.00000000E+00  0.00000000E+00  0.00000000E+00
  0.00000000E+00  0.00000000E+00  0.00000000E+00
  0.00000000E+00  0.00000000E+00  0.00000000E+00
  0.00000000E+00  0.00000000E+00  0.00000000E+00
  0.00000000E+00  0.00000000E+00  0.00000000E+00
  0.00000000E+00  0.00000000E+00  0.00000000E+00
  0.00000000E+00  0.00000000E+00  0.00000000E+00
  0.00000000E+00  0.00000000E+00  0.00000000E+00
  0.00000000E+00  0.00000000E+00  0.00000000E+00
  0.00000000E+00  0.00000000E+00  0.00000000E+00
  0.00000000E+00  0.00000000E+00  0.00000000E+00
  0.00000000E+00  0.00000000E+00  0.00000000E+00
  0.00000000E+00  0.00000000E+00  0.00000000E+00
  0.00000000E+00  0.00000000E+00  0.00000000E+00
  0.00000000E+00  0.00000000E+00  0.00000000E+00
  0.00000000E+00  0.00000000E+00  0.00000000E+00
  0.00000000E+00  0.00000000E+00  0.00000000E+00
  0.00000000E+00  0.00000000E+00  0.00000000E+00
  0.00000000E+00  0.00000000E+00  0.00000000E+00
  0.00000000E+00  0.00000000E+00  0.00000000E+00
  0.00000000E+00  0.00000000E+00  0.00000000E+00
  0.00000000E+00  0.00000000E+00  0.00000000E+00
  0.00000000E+00  0.00000000E+00  0.00000000E+00
  0.00000000E+00  0.00000000E+00  0.00000000E+00
  0.00000000E+00  0.00000000E+00  0.00000000E+00
  0.00000000E+00  0.00000000E+00  0.00000000E+00
  0.00000000E+00  0.00000000E+00  0.00000000E+00
  0.00000000E+00  0.00000000E+00  0.00000000E+00
  0.00000000E+00  0.00000000E+00  0.00000000E+00
  0.00000000E+00  0.00000000E+00  0.00000000E+00
  0.00000000E+00  0.00000000E+00  0.00000000E+00
  0.00000000E+00  0.00000000E+00  0.00000000E+00
  0.00000000E+00  0.00000000E+00  0.00000000E+00
  0.00000000E+00  0.00000000E+00  0.00000000E+00
  0.00000000E+00  0.00000000E+00  0.00000000E+00
  0.00000000E+00  0.00000000E+00  0.00000000E+00
  0.00000000E+00  0.00000000E+00  0.00000000E+00
  0.00000000E+00  0.00000000E+00  0.00000000E+00
  0.00000000E+00  0.00000000E+00  0.00000000E+00
  0.00000000E+00  0.00000000E+00  0.00000000E+00
  0.00000000E+00  0.00000000E+00  0.00000000E+00
  0.00000000E+00  0.00000000E+00  0.00000000E+00
  0.00000000E+00  0.00000000E+00  0.00000000E+00
  0.00000000E+00  0.00000000E+00  0.00000000E+00
  0.00000000E+00  0.00000000E+00  0.00000000E+00
  0.00000000E+00  0.00000000E+00  0.00000000E+00
  0.00000000E+00  0.00000000E+00  0.00000000E+00
  0.00000000E+00  0.00000000E+00  0.00000000E+00
  0.00000000E+00  0.00000000E+00  0.00000000E+00
  0.00000000E+00  0.00000000E+00  0.00000000E+00
  0.00000000E+00  0.00000000E+00  0.00000000E+00
  0.00000000E+00  0.00000000E+00  0.00000000E+00
  0.00000000E+00  0.00000000E+00  0.00000000E+00
  0.00000000E+00  0.00000000E+00  0.00000000E+00
  0.00000000E+00  0.00000000E+00  0.00000000E+00
  0.00000000E+00  0.00000000E+00  0.00000000E+00
  0.00000000E+00  0.00000000E+00  0.00000000E+00
  0.00000000E+00  0.00000000E+00  0.00000000E+00
  0.00000000E+00  0.00000000E+00  0.00000000E+00
  0.00000000E+00  0.00000000E+00  0.00000000E+00
  0.00000000E+00  0.00000000E+00  0.00000000E+00
  0.00000000E+00  0.00000000E+00  0.00000000E+00
  0.00000000E+00  0.00000000E+00  0.00000000E+00
  0.00000000E+00  0.00000000E+00  0.00000000E+00
  0.00000000E+00  0.00000000E+00  0.00000000E+00
  0.00000000E+00  0.00000000E+00  0.00000000E+00
  0.00000000E+00  0.00000000E+00  0.00000000E+00
  0.00000000E+00  0.00000000E+00  0.00000000E+00
  0.00000000E+00  0.00000000E+00  0.00000000E+00
  0.00000000E+00  0.00000000E+00  0.00000000E+00
  0.00000000E+00  0.00000000E+00  0.00000000E+00
  0.00000000E+00  0.00000000E+00  0.00000000E+00
  0.00000000E+00  0.00000000E+00  0.00000000E+00
  0.00000000E+00  0.00000000E+00  0.00000000E+00
  0.00000000E+00  0.00000000E+00  0.00000000E+00
  0.00000000E+00  0.00000000E+00  0.00000000E+00
  0.00000000E+00  0.00000000E+00  0.00000000E+00
  0.00000000E+00  0.00000000E+00  0.00000000E+00
  0.00000000E+00  0.00000000E+00  0.00000000E+00
  0.00000000E+00  0.00000000E+00  0.00000000E+00
  0.00000000E+00  0.00000000E+00  0.00000000E+00
  0.00000000E+00  0.00000000E+00  0.00000000E+00
  0.00000000E+00  0.00000000E+00  0.00000000E+00
  0.00000000E+00  0.00000000E+00  0.00000000E+00
  0.00000000E+00  0.00000000E+00  0.00000000E+00
  0.00000000E+00  0.00000000E+00  0.00000000E+00
  0.00000000E+00  0.00000000E+00  0.00000000E+00
  0.00000000E+00  0.00000000E+00  0.00000000E+00
  0.00000000E+00  0.00000000E+00  0.00000000E+00
  0.00000000E+00  0.00000000E+00  0.00000000E+00
  0.00000000E+00  0.00000000E+00  0.00000000E+00
  0.00000000E+00  0.00000000E+00  0.00000000E+00
  0.00000000E+00  0.00000000E+00  0.00000000E+00
  0.00000000E+00  0.00000000E+00  0.00000000E+00
  0.00000000E+00  0.00000000E+00  0.00000000E+00
  0.00000000E+00  0.00000000E+00  0.00000000E+00
  0.00000000E+00  0.00000000E+00  0.00000000E+00
  0.00000000E+00  0.00000000E+00  0.00000000E+00
  0.00000000E+00  0.00000000E+00  0.00000000E+00
  0.00000000E+00  0.00000000E+00  0.00000000E+00
  0.00000000E+00  0.00000000E+00  0.00000000E+00
  0.00000000E+00  0.00000000E+00  0.00000000E+00
  0.00000000E+00  0.00000000E+00  0.00000000E+00
  0.00000000E+00  0.00000000E+00  0.00000000E+00
  0.00000000E+00  0.00000000E+00  0.00000000E+00
  0.00000000E+00  0.00000000E+00  0.00000000E+00
  0.00000000E+00  0.00000000E+00  0.00000000E+00
  0.00000000E+00  0.00000000E+00  0.00000000E+00
  0.00000000E+00  0.00000000E+00  0.00000000E+00
  0.00000000E+00  0.00000000E+00  0.00000000E+00
  0.00000000E+00  0.00000000E+00  0.00000000E+00
  0.00000000E+00  0.00000000E+00  0.00000000E+00
  0.00000000E+00  0.00000000E+00  0.00000000E+00
  0.00000000E+00  0.00000000E+00  0.00000000E+00
  0.00000000E+00  0.00000000E+00  0.00000000E+00
  0.00000000E+00  0.00000000E+00  0.00000000E+00
  0.00000000E+00  0.00000000E+00  0.00000000E+00
  0.00000000E+00  0.00000000E+00  0.00000000E+00
  0.00000000E+00  0.00000000E+00  0.00000000E+00
  0.00000000E+00  0.00000000E+00  0.00000000E+00
  0.00000000E+00  0.00000000E+00  0.00000000E+00
  0.00000000E+00  0.00000000E+00  0.00000000E+00
  0.00000000E+00  0.00000000E+00  0.00000000E+00
  0.00000000E+00  0.00000000E+00  0.00000000E+00
  0.00000000E+00  0.00000000E+00  0.00000000E+00
  0.00000000E+00  0.00000000E+00  0.00000000E+00
  0.00000000E+00  0.00000000E+00  0.00000000E+00
  0.00000000E+00  0.00000000E+00  0.00000000E+00
  0.00000000E+00  0.00000000E+00  0.00000000E+00
  0.00000000E+00  0.00000000E+00  0.00000000E+00
  0.00000000E+00  0.00000000E+00  0.00000000E+00
  0.00000000E+00  0.00000000E+00  0.00000000E+00
  0.00000000E+00  0.00000000E+00  0.00000000E+00
  0.00000000E+00  0.00000000E+00  0.00000000E+00
  0.00000000E+00  0.00000000E+00  0.00000000E+00
  0.00000000E+00  0.00000000E+00  0.00000000E+00
  0.00000000E+00  0.00000000E+00  0.00000000E+00
  0.00000000E+00  0.00000000E+00  0.00000000E+00
  0.00000000E+00  0.00000000E+00  0.00000000E+00
  0.00000000E+00  0.00000000E+00  0.00000000E+00
  0.00000000E+00  0.00000000E+00  0.00000000E+00
  0.00000000E+00  0.00000000E+00  0.00000000E+00
  0.00000000E+00  0.00000000E+00  0.00000000E+00
  0.00000000E+00  0.00000000E+00  0.00000000E+00
  0.00000000E+00  0.00000000E+00  0.00000000E+00
  0.00000000E+00  0.00000000E+00  0.00000000E+00
  0.00000000E+00  0.00000000E+00  0.00000000E+00
  0.00000000E+00  0.00000000E+00  0.00000000E+00
  0.00000000E+00  0.00000000E+00  0.00000000E+00
  0.00000000E+00  0.00000000E+00  0.00000000E+00
  0.00000000E+00  0.00000000E+00  0.00000000E+00
  0.00000000E+00  0.00000000E+00  0.00000000E+00
  0.00000000E+00  0.00000000E+00  0.00000000E+00
  0.00000000E+00  0.00000000E+00  0.00000000E+00
  0.00000000E+00  0.00000000E+00  0.00000000E+00
  0.00000000E+00  0.00000000E+00  0.00000000E+00
  0.00000000E+00  0.00000000E+00  0.00000000E+00
  0.00000000E+00  0.00000000E+00  0.00000000E+00
  0.00000000E+00  0.00000000E+00  0.00000000E+00
  0.00000000E+00  0.00000000E+00  0.00000000E+00
  0.00000000E+00  0.00000000E+00  0.00000000E+00
  0.00000000E+00  0.00000000E+00  0.00000000E+00
  0.00000000E+00  0.00000000E+00  0.00000000E+00
  0.00000000E+00  0.00000000E+00  0.00000000E+00
  0.00000000E+00  0.00000000E+00  0.00000000E+00
  0.00000000E+00  0.00000000E+00  0.00000000E+00
  0.00000000E+00  0.00000000E+00  0.00000000E+00
  0.00000000E+00  0.00000000E+00  0.00000000E+00
  0.00000000E+00  0.00000000E+00  0.00000000E+00
  0.00000000E+00  0.00000000E+00  0.00000000E+00
  0.00000000E+00  0.00000000E+00  0.00000000E+00
  0.00000000E+00  0.00000000E+00  0.00000000E+00
  0.00000000E+00  0.00000000E+00  0.00000000E+00
  0.00000000E+00  0.00000000E+00  0.00000000E+00
  0.00000000E+00  0.00000000E+00  0.00000000E+00
  0.00000000E+00  0.00000000E+00  0.00000000E+00
  0.00000000E+00  0.00000000E+00  0.00000000E+00
  0.00000000E+00  0.00000000E+00  0.00000000E+00
  0.00000000E+00  0.00000000E+00  0.00000000E+00
  0.00000000E+00  0.00000000E+00  0.00000000E+00
  0.00000000E+00  0.00000000E+00  0.00000000E+00
  0.00000000E+00  0.00000000E+00  0.00000000E+00
  0.00000000E+00  0.00000000E+00  0.00000000E+00
  0.00000000E+00  0.00000000E+00  0.00000000E+00
  0.00000000E+00  0.00000000E+00  0.00000000E+00
  0.00000000E+00  0.00000000E+00  0.00000000E+00
  0.00000000E+00  0.00000000E+00  0.00000000E+00
  0.00000000E+00  0.00000000E+00  0.00000000E+00
  0.00000000E+00  0.00000000E+00  0.00000000E+00
  0.00000000E+00  0.00000000E+00  0.00000000E+00
  0.00000000E+00  0.00000000E+00  0.00000000E+00
  0.00000000E+00  0.00000000E+00  0.00000000E+00
  0.00000000E+00  0.00000000E+00  0.00000000E+00
  0.00000000E+00  0.00000000E+00  0.00000000E+00
  0.00000000E+00  0.00000000E+00  0.00000000E+00
  0.00000000E+00  0.00000000E+00  0.00000000E+00
  0.00000000E+00  0.00000000E+00  0.00000000E+00
  0.00000000E+00  0.00000000E+00  0.00000000E+00
  0.00000000E+00  0.00000000E+00  0.00000000E+00
  0.00000000E+00  0.00000000E+00  0.00000000E+00
  0.00000000E+00  0.00000000E+00  0.00000000E+00
  0.00000000E+00  0.00000000E+00  0.00000000E+00
  0.00000000E+00  0.00000000E+00  0.00000000E+00
  0.00000000E+00  0.00000000E+00  0.00000000E+00
  0.00000000E+00  0.00000000E+00  0.00000000E+00
  0.00000000E+00  0.00000000E+00  0.00000000E+00
  0.00000000E+00  0.00000000E+00  0.00000000E+00
  0.00000000E+00  0.00000000E+00  0.00000000E+00
  0.00000000E+00  0.00000000E+00  0.00000000E+00
  0.00000000E+00  0.00000000E+00  0.00000000E+00
  0.00000000E+00  0.00000000E+00  0.00000000E+00
  0.00000000E+00  0.00000000E+00  0.00000000E+00
  0.00000000E+00  0.00000000E+00  0.00000000E+00
  0.00000000E+00  0.00000000E+00  0.00000000E+00
  0.00000000E+00  0.00000000E+00  0.00000000E+00
  0.00000000E+00  0.00000000E+00  0.00000000E+00
  0.00000000E+00  0.00000000E+00  0.00000000E+00
  0.00000000E+00  0.00000000E+00  0.00000000E+00
  0.00000000E+00  0.00000000E+00  0.00000000E+00
  0.00000000E+00  0.00000000E+00  0.00000000E+00
  0.00000000E+00  0.00000000E+00  0.00000000E+00
  0.00000000E+00  0.00000000E+00  0.00000000E+00
  0.00000000E+00  0.00000000E+00  0.00000000E+00
  0.00000000E+00  0.00000000E+00  0.00000000E+00