CuInSe2gb                               
   1.00000000000000     
     9.7266780392896699    0.0000000000000000    0.0000000000000000
     0.0000000000000000    8.4235502764570693    0.0000000000000000
     0.0000000000000000    0.0000000000000000   45.0000000000000000
   Fe   Mn
   274    14
Direct
  0.0615532179540142  0.0325771587089841  0.1240978802842259
  0.3156495840308825  0.8751531746348518  0.6551126810688589
  0.1845077300788276  0.1238803602940133  0.7885346906941468
  0.4415020387892480  0.2886920443623043  0.3888660676301516
  0.3170002407352376  0.7141048208977130  0.8322592263236569
  0.8170048625554717  0.2137699318653526  0.8325607385456840
  0.1915091363133447  0.9631958691880139  0.8324392259877458
  0.5620934343483455  0.2066222607258913  0.5657915704020721
  0.0650164153102886  0.0411522140647824  0.7446532209137409
  0.8118696362606886  0.8716405648950318  0.5222869461163725
  0.1896561609070188  0.2906883342574305  0.7450168870795613
  0.9342771749531067  0.4530888015155731  0.3440073264652496
  0.9416856840238165  0.2880619791895974  0.3887450637489254
  0.8119002595939322  0.0419976366281637  0.8748371332079627
  0.1837333462828059  0.7884828342211958  0.6102724635935931
  0.5655626038233723  0.0377409088461454  0.3888143260228411
  0.9416803469861049  0.9652318583154735  0.8328088625772410
  0.3141309598853508  0.5427830302961896  0.8752836147696991
  0.6907920236462857  0.2907655676417154  0.7446101435129676
  0.1825687311273879  0.6128396449969398  0.1667841925136699
  0.8131038419160735  0.2051181602627558  0.4792990386131916
  0.8092243684700094  0.5383345180117554  0.6104043987580406
  0.3121843967261538  0.8707656183191178  0.4353689413057559
  0.8101317198321838  0.0379988119116468  0.2556065384477481
  0.6840022930639165  0.9514200922060998  0.3439294309333726
  0.9320589989540664  0.1151225936843516  0.1667424628296924
  0.0612241709268838  0.8722552749926129  0.5221983706194542
  0.5582332010637444  0.5370498955962599  0.2551858932071658
  0.6842098096201008  0.7979094070292334  0.8750141285072124
  0.5554382435241622  0.3640580364460747  0.1665781112002242
  0.4384079750843228  0.7919998305635769  0.7447021374433161
  0.8113906857679879  0.7064203023719328  0.5657339778816957
  0.5594018903875775  0.8748664553028801  0.7891480891023716
  0.6869563282855863  0.1219362809418141  0.5224972844265756
  0.8159484269263646  0.3741086667194218  0.6549402201397653
  0.9415636148054950  0.4640568757778897  0.8327138079458365
  0.0598914244461366  0.2080801949669460  0.7001889336382315
  0.4355684553873746  0.9586244508489136  0.7000689879338347
  0.3165298819136684  0.2130833324366156  0.8321970260248890
  0.4407395709587097  0.6239919883936960  0.6548997507411117
  0.3091466534252799  0.5383324834983461  0.6104866641531228
  0.9361520901787223  0.4564185290174947  0.5659246898347661
  0.6903577828732900  0.7918651981855358  0.7444500004402638
  0.9338416519540923  0.7865253337029208  0.1241972489619510
  0.6911498388264155  0.7858831124303068  0.3889182594047335
  0.9410757742692114  0.7916630141225249  0.7447207617761639
  0.0589171462824892  0.2028128015422444  0.3440037474793899
  0.6850397819402977  0.4533185804038067  0.3442190486604552
  0.4332977801240004  0.1235884002483418  0.7890340790855410
  0.0649171265512189  0.2042690829351290  0.2108228792185757
  0.0562392007587269  0.3636143442703617  0.1668263524626678
  0.9337814320775396  0.7871614537882262  0.2554253685067893
  0.5614956018113246  0.2074068168005982  0.7000196407391479
  0.6857383414053763  0.9586860136819882  0.7001609300833650
  0.8100801011908996  0.8758066373286741  0.7887992528419525
  0.4370567828686931  0.9577683671908735  0.5656426808820255
  0.8100482826893169  0.3745676599359270  0.7888191118853618
  0.6854911217750390  0.2873101409250962  0.2556808348475037
  0.1871633450046644  0.4566702330831113  0.5657311170615353
  0.0560405074721437  0.8663189823083518  0.1667549803318611
  0.1842053365379331  0.2883683578206528  0.6105340462582358
  0.0614539498628899  0.2067056876229034  0.5656336700526287
  0.3103708542285596  0.2072643510640483  0.7002757739867853
  0.5639695551766367  0.5420841696419767  0.8752957028572214
  0.0618889571079423  0.7064632610470366  0.5658198601027671
  0.6838271460806162  0.6233139853425138  0.7890720809116205
  0.3158353665503008  0.5379499996377571  0.3884798850712078
  0.1877798737866573  0.6216633788377577  0.5223997900953901
  0.5644276149174586  0.8707145433587302  0.4353355878143962
  0.4368123786485897  0.4563644349531769  0.5656463394682762
  0.4379683370705105  0.2917529965064793  0.7449577106852886
  0.8206805754006133  0.8734508572498056  0.3005227701799495
  0.8098855302938285  0.7024913752408677  0.3441954186118427
  0.4410171757348405  0.4622957576338400  0.8326910537961361
  0.6886247693530440  0.9551931320238929  0.4792458427636858
  0.6853607016242852  0.4567529794688315  0.7000677028112270
  0.5617498321730230  0.8716776809251270  0.5225146797094896
  0.5658727363705403  0.3741651235249242  0.6549135290875465
  0.8160672944116066  0.8751415769422006  0.6548476278885196
  0.8113897619333347  0.3714605983805155  0.4351883318874826
  0.8095962399420984  0.5363632807536571  0.2556407209940348
  0.6913316919259797  0.4621014517595998  0.8325029918485106
  0.1851461799225856  0.7861255788519956  0.1237187600093773
  0.6899966547307169  0.2889424439528612  0.3889495137524713
  0.3156643886615489  0.3737508817257467  0.6549086327930248
  0.3086643637003263  0.2027596608874609  0.3440832768342606
  0.8160703979331804  0.5394357864609376  0.7442576350961946
  0.6907242299633380  0.9629432613325413  0.8326092954853089
  0.5655579361564144  0.8749201047246452  0.6549704097350554
  0.3116926294161756  0.7069447438539141  0.5656542445732241
  0.3130056614887363  0.5299414114716109  0.1237560023659353
  0.6898551155428890  0.9545866045267692  0.2114466229403729
  0.3119073818934783  0.2062577916160719  0.5657197979788554
  0.1870739035184189  0.9550874521686373  0.4795609756110047
  0.6873957104412116  0.9572345702055131  0.5658768937345096
  0.4343856768171919  0.7886387746008244  0.6103106602647831
  0.6828374135241502  0.6129924279982838  0.1664811669669959
  0.3182826194363734  0.8733600880738444  0.3005352060587823
  0.3119247825723938  0.7053841307698321  0.4796473250319137
  0.9337854733583035  0.2875714041870783  0.6103880452695658
  0.4443177106818673  0.6232486750163075  0.3007084469307763
  0.8078606958493211  0.8655097529292827  0.1668333078592731
  0.5661553569703074  0.2038633217288921  0.2111702058054757
  0.9333661732722349  0.6130805616475272  0.1667469260255992
  0.4371972935789592  0.9549974125944722  0.4795061436007663
  0.5585061807414000  0.3732049485732434  0.7889375000974713
  0.0614134937339196  0.3722265077822008  0.5224494362209093
  0.3068675349679054  0.3629142209064619  0.1666542336588987
  0.6960484417175166  0.1228857993192792  0.3004035216884424
  0.4425258027073239  0.9630055939844965  0.8324347727504126
  0.1854165674680285  0.2837696834771604  0.1241104123177457
  0.1836031936977514  0.2879441577314705  0.2553957853395625
  0.3123649232597470  0.3705660348989385  0.4352050337303000
  0.5626792053418361  0.0354204265779898  0.1241029423672841
  0.4344901140978434  0.2881922857544648  0.6104541457842638
  0.1834050839859863  0.4527857930335432  0.3441354081212962
  0.4348957327799597  0.2843633931797734  0.1238925240828929
  0.6846295960507671  0.7877040771761206  0.2555369435398669
  0.4368609476707758  0.1220205790121134  0.5227602172889697
  0.1888556367512688  0.2971778121107574  0.8751830059788317
  0.1907259669654413  0.1254347353975861  0.6551743481728348
  0.9406437707807985  0.1255584249699566  0.6551148982471685
  0.8152907762866174  0.5380149784197543  0.3887737844856368
  0.0673784546040125  0.0382447684528799  0.3886299862094842
  0.1830898522922306  0.1137996518491567  0.1664496403264444
  0.0588067987435949  0.5382629796319489  0.6104413065056327
  0.9344881932823057  0.2875269625341541  0.2556106303903531
  0.5596199397556869  0.5379571141273894  0.6104942424920716
  0.9362532004509430  0.9577493909868516  0.5657894316656366
  0.6951960307835126  0.6230969585449760  0.3005724747071655
  0.9354812943653401  0.6202342801055866  0.4354364639003523
  0.9346191253342899  0.6241517794654269  0.7886964259026684
  0.5606698506357420  0.7072104534927234  0.7001188320075413
  0.0658629465173852  0.7160846317484132  0.8329591723403559
  0.9442518549397970  0.1230423641384425  0.3003235941107446
  0.9338913072395180  0.7878511093483812  0.6103066343063529
  0.4342247225797954  0.7877057049575302  0.2554313601578062
  0.1918275566710126  0.7871185166037494  0.3884326596690258
  0.4391248900267796  0.4537874007590525  0.2110856368645133
  0.1871194579114585  0.1220967299714189  0.5225482952058140
  0.8110774698738128  0.7069820613322065  0.7001841153491873
  0.0586173411920561  0.0383704245938114  0.6103671397450083
  0.5664454833362497  0.2120303885282218  0.8324888212224933
  0.3123898750034960  0.8716252960106653  0.5224092089228115
  0.6852290349441524  0.2837414519178665  0.1236176465931824
  0.1898366993089809  0.9557643890811474  0.2112066538703084
  0.6844938618919617  0.2882670443349623  0.6104813092960170
  0.3092234346806846  0.0389198309083335  0.6104331526713489
  0.9360795684037995  0.1245860637646750  0.7886234787416700
  0.4374788388591426  0.7979478533618239  0.8753132731454060
  0.8163493754390003  0.0415975513775697  0.7445491948354662
  0.9353902567339135  0.4571834385736280  0.7001546816331498
  0.1907367023715550  0.6242048573950282  0.6549302336965505
  0.3107631504726631  0.7080494093802370  0.7002091873534763
  0.9344492222215897  0.2838120545162200  0.1238055293290363
  0.4376427820094965  0.4564674922686412  0.4795830396290284
  0.0623915547885997  0.7056194371505105  0.4793974228776782
  0.9366548790302776  0.1210033576368708  0.4357375936637937
  0.4447038197574727  0.1227392186318051  0.3004862571367938
  0.1869119832386354  0.1214706065164288  0.4352657658343008
  0.5639114803132284  0.0411875097169626  0.8752111276980438
  0.1868657409026116  0.9574378972281953  0.5658544025691022
  0.6852758876791958  0.7861932702790406  0.1239465376443784
  0.5596503067263942  0.7018199320725913  0.3442679931382511
  0.3158990652837874  0.0371549881665678  0.3886744565888231
  0.6835043397480270  0.1139945848102122  0.1666713004496143
  0.8162751965086402  0.2035390682206546  0.2110021738832818
  0.0595819330399980  0.5362504806259540  0.2553963263665578
  0.5630970369816694  0.7048484991795714  0.4795022428913727
  0.4355874281704475  0.7848679605500730  0.1236514393240290
  0.5699918834163924  0.3722313713446062  0.3004418030888575
  0.4337673712352466  0.9518100317993989  0.3442856498166534
  0.1853439116246539  0.9585062565165382  0.7002290753224482
  0.4319867157924429  0.6123517827194100  0.1665256287397229
  0.9396012326176320  0.4524382178549144  0.2114322926160372
  0.0615589807907728  0.5309657347582194  0.1239641744063247
  0.8118169974691939  0.3721632134362760  0.5224017546430044
  0.9439067968282070  0.6220093093144358  0.3003666919182560
  0.3092709025994958  0.0382029918227948  0.2552300702294065
  0.6848086063178361  0.7887965157536503  0.6103037968854093
  0.1913436086136827  0.4631423468463464  0.8323504050616936
  0.4318970557143563  0.1130778775355418  0.1664545137951809
  0.3124654075334246  0.3724201860692823  0.5224874113964653
  0.4325044778137932  0.6222900335080008  0.7891430921306819
  0.0586191488478914  0.0382959861213746  0.2555396558554924
  0.5623767794760688  0.7068643505362626  0.5656495111993903
  0.9397617945435700  0.2900514792372500  0.7448117914702700
  0.6837029643811509  0.1232816759144938  0.7889254416040575
  0.1893883796801485  0.4522025191208059  0.2109880321169808
  0.9410803167257722  0.7862869556168381  0.3883342651843791
  0.6862337429036678  0.2984743673646314  0.8750199944462711
  0.5568282874182872  0.8639228128755351  0.1668205896513519
  0.4357478365646106  0.4572375139055375  0.7000455233063401
  0.9352444475356688  0.9507854654279417  0.3437925444491095
  0.6864621432946841  0.6217473136107493  0.5223423127729115
  0.0656730164415628  0.8746890552566622  0.6549185162340163
  0.0603009269565783  0.8765623754297078  0.7886914501753735
  0.0657349124703597  0.3741576682559552  0.6549519870797123
  0.6872179447304986  0.4568612039012226  0.4791981603076246
  0.1830976758626896  0.7871175196450477  0.2554472169497560
  0.4381547840770059  0.1214161571228962  0.4351155353652923
  0.8135523254973683  0.0330591019415555  0.1240765972463596
  0.9361842494927693  0.6222185482394947  0.5223771562206985
  0.4409385324810675  0.1252048498490572  0.6550023089923432
  0.8124109432999096  0.5308074097145513  0.1235566381052090
  0.4337761136856662  0.4529612178650286  0.3444096964326268
  0.8099420372565881  0.2038034001438510  0.3438382285440091
  0.3086482351668547  0.7019187901200982  0.3443527443496074
  0.6907162982315490  0.1258527239007820  0.6551323537319156
  0.5704350456746692  0.8733553646865467  0.3005483138308012
  0.0653223882179585  0.5399498859693498  0.7445237419565484
  0.9402146893897331  0.9550421774485898  0.2110453710666022
  0.8150709867867069  0.7025296017717807  0.2111218882909350
  0.0686510837294274  0.8733430997928886  0.3006647949220490
  0.1933934128506391  0.1235977568609401  0.3005442904235918
  0.0588837995991040  0.7020956283981022  0.3441548753070616
  0.8091886961304242  0.0385383823105138  0.6102363934132280
  0.0620615775298094  0.3706899724143184  0.4353080413463252
  0.5595282156275787  0.2031158798900405  0.3441814236671352
  0.8198725504576309  0.3728387814581963  0.3003679181961554
  0.5605509268402297  0.0380464721631543  0.2552701087156480
  0.5669633776719420  0.5372070983453864  0.3888540706315867
  0.0612273667191719  0.2045132124204312  0.4792647540725825
  0.3098294748270347  0.8738294218991995  0.7888134467144221
  0.9357125231539343  0.9589427729170727  0.7002407567597843
  0.0686180264525090  0.3731884528578986  0.3004110101947935
  0.6907469210957476  0.6241334916092781  0.6550692292030011
  0.6868612587478075  0.4568224589212625  0.5656331228964382
  0.4406358509606147  0.9550204782305152  0.2115235393658646
  0.3125977694450569  0.2057684836277673  0.4796118361567620
  0.8116592843813688  0.5411243242011049  0.8749270514212830
  0.6886713570668590  0.6206054251990598  0.4353958376003376
  0.8110356297736125  0.2076148173496884  0.7002733639293208
  0.8121859507424650  0.7060807083086137  0.4791985133245896
  0.8107341676678136  0.8702788083542500  0.4355202108840998
  0.9365913883424609  0.9559232676424776  0.4795381530530592
  0.5626048954209946  0.2061582252181371  0.4793306448236107
  0.1874981679049720  0.6197093876795584  0.4354107140715306
  0.3133573720625926  0.0419880485605611  0.7446815616206176
  0.9409913880221024  0.6242331177974834  0.6548994188283089
  0.5660329035535535  0.7139661232259831  0.8325789203410154
  0.3188859847827136  0.3725810574518039  0.3004408498554930
  0.3138478098852093  0.5401453391730244  0.7449453318667066
  0.1877562784405103  0.4567454293726738  0.4793821248026421
  0.3153806623364601  0.0407739448166683  0.8749237091435714
  0.1852339086687708  0.4573536818475295  0.7000909005175532
  0.5615102418848268  0.3724795256673446  0.5224573417735298
  0.1913460423743692  0.2878155884342332  0.3886461573379903
  0.3151626591085837  0.2046967400494325  0.2109020081813997
  0.0668243413545727  0.7021761495654211  0.2110656521792202
  0.5638072109404137  0.3713096679134746  0.4352929945028380
  0.4368730080154037  0.6219209609120098  0.5223289308241698
  0.8156811882923768  0.7144910868224258  0.8324781166564665
  0.0618137266483721  0.3744645282789469  0.7886052162404931
  0.4379780911700639  0.2979094136161782  0.8754508224200251
  0.3117686350438105  0.0347583877119789  0.1239999347273743
  0.6881056091009528  0.1207956451653131  0.4353371917802536
  0.1834033747736592  0.9517019936907624  0.3442992641111327
  0.0658547316313041  0.2143182300866613  0.8326928967531221
  0.5600181000271020  0.0389293660800360  0.6104169918922344
  0.6889125487876046  0.4538084813203255  0.2115467361391392
  0.1889220692572573  0.7921609829794445  0.7446566633096787
  0.1939405862357099  0.6218673758226634  0.3005954885289343
  0.4408604046972391  0.7874440264111662  0.3886334325344540
  0.4333914310249819  0.2878435986687174  0.2553639862776165
  0.0629119976892889  0.5421869433756104  0.8749859674623666
  0.5649962384682184  0.0418848979367893  0.7444256426521529
  0.1876667612018889  0.7981160818342342  0.8753138923281104
  0.9368739176082624  0.4561042705532677  0.4793751773754510
  0.5649660122750185  0.5400612071680821  0.7442470229681749
  0.8116594061960065  0.2067341131001444  0.5657073595309083
  0.1859664078443339  0.6223181801893547  0.7887129799760337
  0.0664484739259674  0.5379689726602939  0.3886506087062029
  0.0610232048794562  0.7074534528095276  0.7002654257182268
  0.3080162709567518  0.5356045207282895  0.2552183691185661
  0.3156091181926348  0.7017968664513980  0.2115453506506251
  0.3060354597740567  0.8663504670028397  0.1664973473348630
  0.4383078145731567  0.6203998745891405  0.4354221364368218
  0.8175290549280092  0.0377161597328968  0.3890314706656749
  0.9337655805598312  0.2978663884357562  0.8743289981511391
  0.9376141652508677  0.7957678594332008  0.8743732080313933
  0.0651109341002120  0.0384309950049543  0.8745526390694591
  0.5621677590015323  0.5290326761165429  0.1236153232569508
  0.8072227557521049  0.3631486938739936  0.1663072486222938
  0.0611316723373473  0.8718851993547511  0.4354032647395831
  0.9363277118572154  0.1215055132263730  0.5227025442340462
  0.3082478955696176  0.3744082511652120  0.7882880939024478
  0.5657776585841705  0.7020662995284538  0.2114537996865699
 
  0.00000000E+00  0.00000000E+00  0.00000000E+00
  0.00000000E+00  0.00000000E+00  0.00000000E+00
  0.00000000E+00  0.00000000E+00  0.00000000E+00
  0.00000000E+00  0.00000000E+00  0.00000000E+00
  0.00000000E+00  0.00000000E+00  0.00000000E+00
  0.00000000E+00  0.00000000E+00  0.00000000E+00
  0.00000000E+00  0.00000000E+00  0.00000000E+00
  0.00000000E+00  0.00000000E+00  0.00000000E+00
  0.00000000E+00  0.00000000E+00  0.00000000E+00
  0.00000000E+00  0.00000000E+00  0.00000000E+00
  0.00000000E+00  0.00000000E+00  0.00000000E+00
  0.00000000E+00  0.00000000E+00  0.00000000E+00
  0.00000000E+00  0.00000000E+00  0.00000000E+00
  0.00000000E+00  0.00000000E+00  0.00000000E+00
  0.00000000E+00  0.00000000E+00  0.00000000E+00
  0.00000000E+00  0.00000000E+00  0.00000000E+00
  0.00000000E+00  0.00000000E+00  0.00000000E+00
  0.00000000E+00  0.00000000E+00  0.00000000E+00
  0.00000000E+00  0.00000000E+00  0.00000000E+00
  0.00000000E+00  0.00000000E+00  0.00000000E+00
  0.00000000E+00  0.00000000E+00  0.00000000E+00
  0.00000000E+00  0.00000000E+00  0.00000000E+00
  0.00000000E+00  0.00000000E+00  0.00000000E+00
  0.00000000E+00  0.00000000E+00  0.00000000E+00
  0.00000000E+00  0.00000000E+00  0.00000000E+00
  0.00000000E+00  0.00000000E+00  0.00000000E+00
  0.00000000E+00  0.00000000E+00  0.00000000E+00
  0.00000000E+00  0.00000000E+00  0.00000000E+00
  0.00000000E+00  0.00000000E+00  0.00000000E+00
  0.00000000E+00  0.00000000E+00  0.00000000E+00
  0.00000000E+00  0.00000000E+00  0.00000000E+00
  0.00000000E+00  0.00000000E+00  0.00000000E+00
  0.00000000E+00  0.00000000E+00  0.00000000E+00
  0.00000000E+00  0.00000000E+00  0.00000000E+00
  0.00000000E+00  0.00000000E+00  0.00000000E+00
  0.00000000E+00  0.00000000E+00  0.00000000E+00
  0.00000000E+00  0.00000000E+00  0.00000000E+00
  0.00000000E+00  0.00000000E+00  0.00000000E+00
  0.00000000E+00  0.00000000E+00  0.00000000E+00
  0.00000000E+00  0.00000000E+00  0.00000000E+00
  0.00000000E+00  0.00000000E+00  0.00000000E+00
  0.00000000E+00  0.00000000E+00  0.00000000E+00
  0.00000000E+00  0.00000000E+00  0.00000000E+00
  0.00000000E+00  0.00000000E+00  0.00000000E+00
  0.00000000E+00  0.00000000E+00  0.00000000E+00
  0.00000000E+00  0.00000000E+00  0.00000000E+00
  0.00000000E+00  0.00000000E+00  0.00000000E+00
  0.00000000E+00  0.00000000E+00  0.00000000E+00
  0.00000000E+00  0.00000000E+00  0.00000000E+00
  0.00000000E+00  0.00000000E+00  0.00000000E+00
  0.00000000E+00  0.00000000E+00  0.00000000E+00
  0.00000000E+00  0.00000000E+00  0.00000000E+00
  0.00000000E+00  0.00000000E+00  0.00000000E+00
  0.00000000E+00  0.00000000E+00  0.00000000E+00
  0.00000000E+00  0.00000000E+00  0.00000000E+00
  0.00000000E+00  0.00000000E+00  0.00000000E+00
  0.00000000E+00  0.00000000E+00  0.00000000E+00
  0.00000000E+00  0.00000000E+00  0.00000000E+00
  0.00000000E+00  0.00000000E+00  0.00000000E+00
  0.00000000E+00  0.00000000E+00  0.00000000E+00
  0.00000000E+00  0.00000000E+00  0.00000000E+00
  0.00000000E+00  0.00000000E+00  0.00000000E+00
  0.00000000E+00  0.00000000E+00  0.00000000E+00
  0.00000000E+00  0.00000000E+00  0.00000000E+00
  0.00000000E+00  0.00000000E+00  0.00000000E+00
  0.00000000E+00  0.00000000E+00  0.00000000E+00
  0.00000000E+00  0.00000000E+00  0.00000000E+00
  0.00000000E+00  0.00000000E+00  0.00000000E+00
  0.00000000E+00  0.00000000E+00  0.00000000E+00
  0.00000000E+00  0.00000000E+00  0.00000000E+00
  0.00000000E+00  0.00000000E+00  0.00000000E+00
  0.00000000E+00  0.00000000E+00  0.00000000E+00
  0.00000000E+00  0.00000000E+00  0.00000000E+00
  0.00000000E+00  0.00000000E+00  0.00000000E+00
  0.00000000E+00  0.00000000E+00  0.00000000E+00
  0.00000000E+00  0.00000000E+00  0.00000000E+00
  0.00000000E+00  0.00000000E+00  0.00000000E+00
  0.00000000E+00  0.00000000E+00  0.00000000E+00
  0.00000000E+00  0.00000000E+00  0.00000000E+00
  0.00000000E+00  0.00000000E+00  0.00000000E+00
  0.00000000E+00  0.00000000E+00  0.00000000E+00
  0.00000000E+00  0.00000000E+00  0.00000000E+00
  0.00000000E+00  0.00000000E+00  0.00000000E+00
  0.00000000E+00  0.00000000E+00  0.00000000E+00
  0.00000000E+00  0.00000000E+00  0.00000000E+00
  0.00000000E+00  0.00000000E+00  0.00000000E+00
  0.00000000E+00  0.00000000E+00  0.00000000E+00
  0.00000000E+00  0.00000000E+00  0.00000000E+00
  0.00000000E+00  0.00000000E+00  0.00000000E+00
  0.00000000E+00  0.00000000E+00  0.00000000E+00
  0.00000000E+00  0.00000000E+00  0.00000000E+00
  0.00000000E+00  0.00000000E+00  0.00000000E+00
  0.00000000E+00  0.00000000E+00  0.00000000E+00
  0.00000000E+00  0.00000000E+00  0.00000000E+00
  0.00000000E+00  0.00000000E+00  0.00000000E+00
  0.00000000E+00  0.00000000E+00  0.00000000E+00
  0.00000000E+00  0.00000000E+00  0.00000000E+00
  0.00000000E+00  0.00000000E+00  0.00000000E+00
  0.00000000E+00  0.00000000E+00  0.00000000E+00
  0.00000000E+00  0.00000000E+00  0.00000000E+00
  0.00000000E+00  0.00000000E+00  0.00000000E+00
  0.00000000E+00  0.00000000E+00  0.00000000E+00
  0.00000000E+00  0.00000000E+00  0.00000000E+00
  0.00000000E+00  0.00000000E+00  0.00000000E+00
  0.00000000E+00  0.00000000E+00  0.00000000E+00
  0.00000000E+00  0.00000000E+00  0.00000000E+00
  0.00000000E+00  0.00000000E+00  0.00000000E+00
  0.00000000E+00  0.00000000E+00  0.00000000E+00
  0.00000000E+00  0.00000000E+00  0.00000000E+00
  0.00000000E+00  0.00000000E+00  0.00000000E+00
  0.00000000E+00  0.00000000E+00  0.00000000E+00
  0.00000000E+00  0.00000000E+00  0.00000000E+00
  0.00000000E+00  0.00000000E+00  0.00000000E+00
  0.00000000E+00  0.00000000E+00  0.00000000E+00
  0.00000000E+00  0.00000000E+00  0.00000000E+00
  0.00000000E+00  0.00000000E+00  0.00000000E+00
  0.00000000E+00  0.00000000E+00  0.00000000E+00
  0.00000000E+00  0.00000000E+00  0.00000000E+00
  0.00000000E+00  0.00000000E+00  0.00000000E+00
  0.00000000E+00  0.00000000E+00  0.00000000E+00
  0.00000000E+00  0.00000000E+00  0.00000000E+00
  0.00000000E+00  0.00000000E+00  0.00000000E+00
  0.00000000E+00  0.00000000E+00  0.00000000E+00
  0.00000000E+00  0.00000000E+00  0.00000000E+00
  0.00000000E+00  0.00000000E+00  0.00000000E+00
  0.00000000E+00  0.00000000E+00  0.00000000E+00
  0.00000000E+00  0.00000000E+00  0.00000000E+00
  0.00000000E+00  0.00000000E+00  0.00000000E+00
  0.00000000E+00  0.00000000E+00  0.00000000E+00
  0.00000000E+00  0.00000000E+00  0.00000000E+00
  0.00000000E+00  0.00000000E+00  0.00000000E+00
  0.00000000E+00  0.00000000E+00  0.00000000E+00
  0.00000000E+00  0.00000000E+00  0.00000000E+00
  0.00000000E+00  0.00000000E+00  0.00000000E+00
  0.00000000E+00  0.00000000E+00  0.00000000E+00
  0.00000000E+00  0.00000000E+00  0.00000000E+00
  0.00000000E+00  0.00000000E+00  0.00000000E+00
  0.00000000E+00  0.00000000E+00  0.00000000E+00
  0.00000000E+00  0.00000000E+00  0.00000000E+00
  0.00000000E+00  0.00000000E+00  0.00000000E+00
  0.00000000E+00  0.00000000E+00  0.00000000E+00
  0.00000000E+00  0.00000000E+00  0.00000000E+00
  0.00000000E+00  0.00000000E+00  0.00000000E+00
  0.00000000E+00  0.00000000E+00  0.00000000E+00
  0.00000000E+00  0.00000000E+00  0.00000000E+00
  0.00000000E+00  0.00000000E+00  0.00000000E+00
  0.00000000E+00  0.00000000E+00  0.00000000E+00
  0.00000000E+00  0.00000000E+00  0.00000000E+00
  0.00000000E+00  0.00000000E+00  0.00000000E+00
  0.00000000E+00  0.00000000E+00  0.00000000E+00
  0.00000000E+00  0.00000000E+00  0.00000000E+00
  0.00000000E+00  0.00000000E+00  0.00000000E+00
  0.00000000E+00  0.00000000E+00  0.00000000E+00
  0.00000000E+00  0.00000000E+00  0.00000000E+00
  0.00000000E+00  0.00000000E+00  0.00000000E+00
  0.00000000E+00  0.00000000E+00  0.00000000E+00
  0.00000000E+00  0.00000000E+00  0.00000000E+00
  0.00000000E+00  0.00000000E+00  0.00000000E+00
  0.00000000E+00  0.00000000E+00  0.00000000E+00
  0.00000000E+00  0.00000000E+00  0.00000000E+00
  0.00000000E+00  0.00000000E+00  0.00000000E+00
  0.00000000E+00  0.00000000E+00  0.00000000E+00
  0.00000000E+00  0.00000000E+00  0.00000000E+00
  0.00000000E+00  0.00000000E+00  0.00000000E+00
  0.00000000E+00  0.00000000E+00  0.00000000E+00
  0.00000000E+00  0.00000000E+00  0.00000000E+00
  0.00000000E+00  0.00000000E+00  0.00000000E+00
  0.00000000E+00  0.00000000E+00  0.00000000E+00
  0.00000000E+00  0.00000000E+00  0.00000000E+00
  0.00000000E+00  0.00000000E+00  0.00000000E+00
  0.00000000E+00  0.00000000E+00  0.00000000E+00
  0.00000000E+00  0.00000000E+00  0.00000000E+00
  0.00000000E+00  0.00000000E+00  0.00000000E+00
  0.00000000E+00  0.00000000E+00  0.00000000E+00
  0.00000000E+00  0.00000000E+00  0.00000000E+00
  0.00000000E+00  0.00000000E+00  0.00000000E+00
  0.00000000E+00  0.00000000E+00  0.00000000E+00
  0.00000000E+00  0.00000000E+00  0.00000000E+00
  0.00000000E+00  0.00000000E+00  0.00000000E+00
  0.00000000E+00  0.00000000E+00  0.00000000E+00
  0.00000000E+00  0.00000000E+00  0.00000000E+00
  0.00000000E+00  0.00000000E+00  0.00000000E+00
  0.00000000E+00  0.00000000E+00  0.00000000E+00
  0.00000000E+00  0.00000000E+00  0.00000000E+00
  0.00000000E+00  0.00000000E+00  0.00000000E+00
  0.00000000E+00  0.00000000E+00  0.00000000E+00
  0.00000000E+00  0.00000000E+00  0.00000000E+00
  0.00000000E+00  0.00000000E+00  0.00000000E+00
  0.00000000E+00  0.00000000E+00  0.00000000E+00
  0.00000000E+00  0.00000000E+00  0.00000000E+00
  0.00000000E+00  0.00000000E+00  0.00000000E+00
  0.00000000E+00  0.00000000E+00  0.00000000E+00
  0.00000000E+00  0.00000000E+00  0.00000000E+00
  0.00000000E+00  0.00000000E+00  0.00000000E+00
  0.00000000E+00  0.00000000E+00  0.00000000E+00
  0.00000000E+00  0.00000000E+00  0.00000000E+00
  0.00000000E+00  0.00000000E+00  0.00000000E+00
  0.00000000E+00  0.00000000E+00  0.00000000E+00
  0.00000000E+00  0.00000000E+00  0.00000000E+00
  0.00000000E+00  0.00000000E+00  0.00000000E+00
  0.00000000E+00  0.00000000E+00  0.00000000E+00
  0.00000000E+00  0.00000000E+00  0.00000000E+00
  0.00000000E+00  0.00000000E+00  0.00000000E+00
  0.00000000E+00  0.00000000E+00  0.00000000E+00
  0.00000000E+00  0.00000000E+00  0.00000000E+00
  0.00000000E+00  0.00000000E+00  0.00000000E+00
  0.00000000E+00  0.00000000E+00  0.00000000E+00
  0.00000000E+00  0.00000000E+00  0.00000000E+00
  0.00000000E+00  0.00000000E+00  0.00000000E+00
  0.00000000E+00  0.00000000E+00  0.00000000E+00
  0.00000000E+00  0.00000000E+00  0.00000000E+00
  0.00000000E+00  0.00000000E+00  0.00000000E+00
  0.00000000E+00  0.00000000E+00  0.00000000E+00
  0.00000000E+00  0.00000000E+00  0.00000000E+00
  0.00000000E+00  0.00000000E+00  0.00000000E+00
  0.00000000E+00  0.00000000E+00  0.00000000E+00
  0.00000000E+00  0.00000000E+00  0.00000000E+00
  0.00000000E+00  0.00000000E+00  0.00000000E+00
  0.00000000E+00  0.00000000E+00  0.00000000E+00
  0.00000000E+00  0.00000000E+00  0.00000000E+00
  0.00000000E+00  0.00000000E+00  0.00000000E+00
  0.00000000E+00  0.00000000E+00  0.00000000E+00
  0.00000000E+00  0.00000000E+00  0.00000000E+00
  0.00000000E+00  0.00000000E+00  0.00000000E+00
  0.00000000E+00  0.00000000E+00  0.00000000E+00
  0.00000000E+00  0.00000000E+00  0.00000000E+00
  0.00000000E+00  0.00000000E+00  0.00000000E+00
  0.00000000E+00  0.00000000E+00  0.00000000E+00
  0.00000000E+00  0.00000000E+00  0.00000000E+00
  0.00000000E+00  0.00000000E+00  0.00000000E+00
  0.00000000E+00  0.00000000E+00  0.00000000E+00
  0.00000000E+00  0.00000000E+00  0.00000000E+00
  0.00000000E+00  0.00000000E+00  0.00000000E+00
  0.00000000E+00  0.00000000E+00  0.00000000E+00
  0.00000000E+00  0.00000000E+00  0.00000000E+00
  0.00000000E+00  0.00000000E+00  0.00000000E+00
  0.00000000E+00  0.00000000E+00  0.00000000E+00
  0.00000000E+00  0.00000000E+00  0.00000000E+00
  0.00000000E+00  0.00000000E+00  0.00000000E+00
  0.00000000E+00  0.00000000E+00  0.00000000E+00
  0.00000000E+00  0.00000000E+00  0.00000000E+00
  0.00000000E+00  0.00000000E+00  0.00000000E+00
  0.00000000E+00  0.00000000E+00  0.00000000E+00
  0.00000000E+00  0.00000000E+00  0.00000000E+00
  0.00000000E+00  0.00000000E+00  0.00000000E+00
  0.00000000E+00  0.00000000E+00  0.00000000E+00
  0.00000000E+00  0.00000000E+00  0.00000000E+00