CuInSe2gb                               
   1.00000000000000     
     9.7266780392896699    0.0000000000000000    0.0000000000000000
     0.0000000000000000    8.4235502764570693    0.0000000000000000
     0.0000000000000000    0.0000000000000000   45.0000000000000000
   Fe   Mn
   274    14
Direct
  0.0618955099715754  0.0292095441144009  0.1240707539129931
  0.3163037610690401  0.8748823002412267  0.6551567628193150
  0.1842585014228845  0.1223083863258700  0.7884328608655357
  0.4414376701278531  0.2876645775353269  0.3891199664351493
  0.3179780177620019  0.7135770430328828  0.8331049750155727
  0.8181319401845990  0.2147829862901524  0.8336104337146182
  0.1915354933214051  0.9633646201504540  0.8335908946054860
  0.5622651147107807  0.2072702283418141  0.5655200456176613
  0.0653391587591539  0.0403692868598850  0.7440696521286907
  0.8116060341082750  0.8714572194501073  0.5213743360996637
  0.1904384066222879  0.2910299680817168  0.7443348968931364
  0.9336597603415145  0.4524595245440973  0.3449287819497108
  0.9411969376724582  0.2867492496398681  0.3889326773158036
  0.8127418987434096  0.0411100656360854  0.8757863809786205
  0.1837565599925848  0.7882088039878402  0.6108128061510325
  0.5664712448640563  0.0376455255501491  0.3890608876232428
  0.9423179618895402  0.9650629645343806  0.8339082370302413
  0.3136076668686886  0.5408830916929279  0.8761513998482403
  0.6903594789767539  0.2913652393424295  0.7444532423137145
  0.1822356721737927  0.6134529148380667  0.1665763049109184
  0.8122775046135224  0.2058472049439110  0.4786800015042295
  0.8088657268069186  0.5384942447616786  0.6110166765123701
  0.3117823181222140  0.8707997114307434  0.4344175882509344
  0.8092684396394020  0.0371191644260943  0.2558578098725309
  0.6830808440359004  0.9519342410751759  0.3447828308243073
  0.9310426282052808  0.1143668972854290  0.1668815856982343
  0.0617690210833864  0.8717016894348986  0.5213787619708892
  0.5576800121240105  0.5376813990306329  0.2555922256983530
  0.6840125398758852  0.7979509369569199  0.8760205812695830
  0.5562213398002351  0.3653333804853960  0.1665956281187932
  0.4396495529621023  0.7919658832525085  0.7443893401629310
  0.8113808941498597  0.7065290048628680  0.5654718159323854
  0.5596772395463019  0.8745184346209430  0.7886925922959593
  0.6867995998020754  0.1218244133597157  0.5213868610940954
  0.8165256252053960  0.3747984883452645  0.6549060527686347
  0.9420987126224276  0.4644932639965377  0.8337558850889880
  0.0600049009966787  0.2080095901823571  0.6996129071037906
  0.4352389724331833  0.9579619328308571  0.6996240584968804
  0.3168730527893335  0.2143375322369148  0.8335364945524251
  0.4413636788379538  0.6248061516204216  0.6549334755312534
  0.3089315888725362  0.5384566533525584  0.6109630025202212
  0.9365340794442994  0.4566486909367794  0.5656079240156513
  0.6901560220016774  0.7915516550042181  0.7442042465853949
  0.9341343500929834  0.7883999955706428  0.1244215621434802
  0.6914669317735799  0.7879147880797610  0.3890098231071401
  0.9404164415035589  0.7907154612149605  0.7444459095463831
  0.0587382246208123  0.2027084384883376  0.3448072290193119
  0.6837397728883209  0.4524006141804582  0.3449664515132824
  0.4341455246430530  0.1220394729342951  0.7887500284788028
  0.0652271949803200  0.2038092972432642  0.2110678049360573
  0.0553229898719588  0.3654780773956506  0.1666543294989876
  0.9334416857367338  0.7869432301977191  0.2555430388087845
  0.5608066123902669  0.2072348713454801  0.6996836683454841
  0.6850820855746295  0.9575074768012040  0.6997385839712870
  0.8090862119004172  0.8745932574320617  0.7884584594845390
  0.4368105258069347  0.9571218195154951  0.5654140324808792
  0.8089655685564647  0.3757951360907048  0.7885627198412177
  0.6842140246198517  0.2878991140037482  0.2560441841484097
  0.1873759201250578  0.4569710547479500  0.5654971536957913
  0.0560433912375880  0.8649477705928076  0.1666160753691893
  0.1840639202707797  0.2884087539201897  0.6110392068207070
  0.0622796345540578  0.2072905529078002  0.5653857209399253
  0.3101118836095664  0.2071751074233900  0.6998731255681631
  0.5633214066861809  0.5410403147533720  0.8760743427985452
  0.0623579525506828  0.7068190476977565  0.5655602740869619
  0.6834357708161687  0.6231484770822672  0.7887821368327537
  0.3161478203758804  0.5380161753435493  0.3889415372845409
  0.1868664935882220  0.6215143012141362  0.5214207532509760
  0.5624593205642424  0.8706735973017796  0.4344525289982610
  0.4366547140811398  0.4567103563757884  0.5655267373368047
  0.4394535944783466  0.2919938461273719  0.7444792583537009
  0.8210434537735706  0.8734391033798875  0.3002162573022206
  0.8086537812896949  0.7024910700588922  0.3449017300809146
  0.4414992337563968  0.4624520436411032  0.8335280678197813
  0.6874769143415006  0.9559520018819717  0.4786681850707255
  0.6841347442431812  0.4580018641431068  0.6997786785289316
  0.5620385652115437  0.8719569316020527  0.5214739132374848
  0.5663252610499130  0.3748386011376347  0.6548879484379371
  0.8163426343768716  0.8748288430748468  0.6549287135507509
  0.8121971680092157  0.3719592414389588  0.4342469491418164
  0.8086248481059503  0.5371766827153065  0.2559181328105409
  0.6914351550053086  0.4622746525447648  0.8332386218508514
  0.1859431600623310  0.7881356935944527  0.1240194083774938
  0.6914023842532903  0.2873778442632748  0.3890328230760370
  0.3161076216654489  0.3743176627299502  0.6549242929765404
  0.3088609640297237  0.2022933650685260  0.3446946169419089
  0.8154844306976629  0.5401806007174557  0.7440240342132693
  0.6915257747418695  0.9623604539497462  0.8335611203872656
  0.5659714303951604  0.8743273361885441  0.6550185702511760
  0.3115557191527759  0.7071608464419882  0.5655434367689132
  0.3127133642427672  0.5297972169474066  0.1239407191058958
  0.6898353756330281  0.9547418771126507  0.2117759963572556
  0.3115235896410658  0.2066248979766330  0.5655215227840830
  0.1875172764211454  0.9556522141182369  0.4787005930323417
  0.6874197975953388  0.9570477011842518  0.5655238216833123
  0.4338064491876907  0.7880802005303589  0.6109291469710592
  0.6826035774726840  0.6122015301708503  0.1662295648270230
  0.3191472340471981  0.8740352545101425  0.3001897097057731
  0.3122768811191311  0.7058020876105768  0.4786329092635500
  0.9336522163156840  0.2877105698449333  0.6109454857918108
  0.4449379459263668  0.6240082380201308  0.3003837364753719
  0.8071924669476555  0.8634815687822901  0.1668237797161689
  0.5667565839838421  0.2029589003927981  0.2114159039751099
  0.9327584464953801  0.6128190741120785  0.1666859840403312
  0.4373720670969009  0.9558501836639964  0.4786386098275551
  0.5594316874712448  0.3738897427995668  0.7887066688830883
  0.0615612980320771  0.3722981900542286  0.5214231496196517
  0.3071085837799972  0.3638499482838145  0.1666136901529683
  0.6955957742505667  0.1230780206631498  0.3002357814159349
  0.4426306437861940  0.9630278173043013  0.8333887900154761
  0.1851026803636198  0.2866670189349390  0.1241127439343212
  0.1837942810750766  0.2874347590787221  0.2558101404272237
  0.3126981898161164  0.3706636529539225  0.4344088095450386
  0.5629812788634355  0.0320515752303230  0.1242886954902118
  0.4338896220159603  0.2882620477646015  0.6109353202229391
  0.1834806884433458  0.4524360134654892  0.3448843144974615
  0.4345014346537289  0.2867142479754536  0.1241591240077830
  0.6836588731441365  0.7874820187844459  0.2557913215606555
  0.4369794764930827  0.1215864841627406  0.5215235055948252
  0.1886824642004229  0.2971895699799186  0.8762144933921258
  0.1914661168191757  0.1250842660557183  0.6551814148226395
  0.9411380212756322  0.1250661283274763  0.6551314526655756
  0.8161877212581845  0.5375138524638206  0.3890530569213772
  0.0663712773851286  0.0380511746769050  0.3891238861818826
  0.1833745495871044  0.1120833049458466  0.1664681888313901
  0.0587837312527092  0.5382863910868868  0.6110114570648766
  0.9340917009982843  0.2878866786889894  0.2558964245841616
  0.5588450732169025  0.5381468409452836  0.6110236471555434
  0.9366390376818796  0.9571358425562371  0.5655418910015400
  0.6947809209661979  0.6239489445238835  0.3001735967197749
  0.9374957484396492  0.6203459331968131  0.4344342077396989
  0.9335183629473365  0.6240970980888709  0.7884944052594398
  0.5602763719441554  0.7069466503569083  0.6997713907947847
  0.0656111280161651  0.7171266160407224  0.8340568518825969
  0.9450877940383425  0.1225471726976447  0.3000622971753207
  0.9336640754799593  0.7875669326962257  0.6109303192366281
  0.4334391812837829  0.7874755529534315  0.2556533391240079
  0.1914016467998089  0.7875979660380744  0.3890205096045474
  0.4396666998243179  0.4537606331844671  0.2113519148479659
  0.1868023301040071  0.1219219003511664  0.5214252511274566
  0.8104480784027718  0.7072886798436412  0.6997455651741553
  0.0587608272338261  0.0380009300590017  0.6108878773766904
  0.5662522367740223  0.2139131331227392  0.8333194396876625
  0.3115953896631898  0.8718445580113637  0.5213793514606843
  0.6864023722544382  0.2858950976533276  0.1239217950085399
  0.1901681395584651  0.9548338470559079  0.2116944278306833
  0.6839152460933174  0.2883575392830954  0.6110524480373692
  0.3088782164759445  0.0384910636673438  0.6110053464054920
  0.9349584429179602  0.1238669679259098  0.7885284467077900
  0.4367499477087687  0.7984513545036390  0.8763879919610817
  0.8152978967707849  0.0405463637811204  0.7442388873557310
  0.9352969435461561  0.4582777502280031  0.6996557108594452
  0.1912541710339289  0.6249762585116967  0.6549642726706695
  0.3107998072866239  0.7078550748931066  0.6997109158695218
  0.9341072319410907  0.2868242427156148  0.1238841621553713
  0.4374398944196989  0.4559414003603567  0.4785675452014717
  0.0624030978681313  0.7060505492084308  0.4784576073593667
  0.9371882483807005  0.1198451873752473  0.4345997588380933
  0.4447749414510100  0.1226199983878204  0.3003644854436867
  0.1876487452711149  0.1201266355590475  0.4344000664287785
  0.5632127622109184  0.0402587853515068  0.8761490802677903
  0.1869281819763448  0.9570526303557193  0.5655470372581537
  0.6846087606241416  0.7881077875401095  0.1243526291492025
  0.5587719094966832  0.7019456947766491  0.3448976139844694
  0.3165283855103780  0.0375703235672337  0.3890689096641732
  0.6825509755992406  0.1138300246390154  0.1669064448321331
  0.8159741905461417  0.2030446054998069  0.2111604334085172
  0.0593594299137764  0.5372932640973233  0.2557299966577739
  0.5624951222267266  0.7057216659565905  0.4786536657249425
  0.4350655795857858  0.7868710248860243  0.1241167257994084
  0.5699423746814939  0.3720094731716501  0.3001480763942835
  0.4336293325887236  0.9523940919474096  0.3449011793763329
  0.1851929590805644  0.9580203197392754  0.6996425045314418
  0.4318273318325205  0.6128111634994567  0.1660871139289389
  0.9397221056225660  0.4534922508538217  0.2116128789458064
  0.0617547793811716  0.5297616759364308  0.1240626139921524
  0.8119959655864233  0.3720703983947061  0.5213936043319597
  0.9447517661731227  0.6226732145713227  0.2999572781756307
  0.3089168007262564  0.0371912992769026  0.2555206176859529
  0.6842031051380247  0.7884868630974190  0.6109746964511855
  0.1917991125492254  0.4628718184722702  0.8336079189839271
  0.4322669976177236  0.1117638083752262  0.1665839239696887
  0.3116902960377673  0.3719851458072848  0.5214087902430098
  0.4331544194249887  0.6225385331526379  0.7890493262262316
  0.0590180914898101  0.0373098486669016  0.2558052351933077
  0.5622579231373082  0.7070243458872816  0.5655159454597234
  0.9391169780581471  0.2908706038828638  0.7445692068239029
  0.6826110327247530  0.1224769162271487  0.7885429414193853
  0.1896003370510904  0.4532033091204385  0.2111547711193791
  0.9412475337472298  0.7876910738513947  0.3888423660824692
  0.6861111996749182  0.2992257804514062  0.8759706085521466
  0.5564541190102111  0.8623697719785594  0.1663024171402825
  0.4354773530952391  0.4580887711566114  0.6997156124423539
  0.9338902357992167  0.9511008979252006  0.3447629296056506
  0.6865193022260606  0.6216456211713522  0.5213493553508934
  0.0661680764208887  0.8743347592370069  0.6549888883864553
  0.0590809895182421  0.8754429206112326  0.7885859412707411
  0.0663141740979291  0.3747663418209185  0.6549070432532718
  0.6872278011275943  0.4558726779722028  0.4786529266473235
  0.1835016061296313  0.7872800196203671  0.2554869845081516
  0.4369097642673965  0.1208425856347778  0.4343243942241937
  0.8141742850602769  0.0305799308087425  0.1240180580229546
  0.9367696642874420  0.6219964305928261  0.5214278351082279
  0.4413551140014766  0.1245873443246344  0.6549451247516116
  0.8132723666315103  0.5290377295653478  0.1239601321844271
  0.4336089032322676  0.4525718710065371  0.3450286952676055
  0.8088149040291132  0.2024573666499106  0.3449699975846941
  0.3091557645245327  0.7017079352432346  0.3448513515909162
  0.6910152453155440  0.1252001546380534  0.6551368842315811
  0.5704232401934070  0.8732756291609163  0.3002825854214948
  0.0654027955732866  0.5404849021993340  0.7441704558967314
  0.9407722323538844  0.9537451357016921  0.2112587179328067
  0.8158834263040127  0.7033666774372399  0.2113228506032132
  0.0699741431301369  0.8734317281600553  0.3003084169821023
  0.1952413264561187  0.1231831691980274  0.3002950109052766
  0.0585426698601578  0.7018827233262775  0.3449092423357740
  0.8087789176844763  0.0378885624358644  0.6108384798068059
  0.0626059535436069  0.3717833444960544  0.4343401744727763
  0.5587979526753902  0.2027487955210820  0.3448102941725748
  0.8196486948377828  0.3732438285099472  0.3000224770513179
  0.5600533855843518  0.0373843217725222  0.2554388459718720
  0.5665160943345049  0.5377279102263247  0.3890633762436052
  0.0625530117925614  0.2059314039267709  0.4786526056753217
  0.3104606005500132  0.8732629671716243  0.7885319943560845
  0.9353669260563400  0.9580177670916845  0.6996641662623655
  0.0698824460189710  0.3738755836290362  0.3001435910283048
  0.6910211884615307  0.6250476146733687  0.6551354480418803
  0.6865720477936577  0.4571500479789583  0.5653697607828267
  0.4408129015742060  0.9554888493356433  0.2120563415887850
  0.3126479568074108  0.2057451352834511  0.4786940740481203
  0.8123000854723400  0.5405606168372515  0.8759058472458213
  0.6878882258501920  0.6204381663667415  0.4344235196729665
  0.8104156971999151  0.2071362588597021  0.6997844682443631
  0.8125539616952744  0.7059401103446665  0.4786302410731894
  0.8116413101594662  0.8712151233998143  0.4342917635307901
  0.9374083594875602  0.9553719078490690  0.4786909199674733
  0.5622074576149437  0.2058225837022040  0.4786493116420980
  0.1874100044233376  0.6202436022143299  0.4344816013475092
  0.3149659168287274  0.0418377719554882  0.7442418107657580
  0.9414703917232260  0.6250156070809518  0.6549301879812939
  0.5663196219292522  0.7137788118035198  0.8333340840652375
  0.3200132889575035  0.3722530352083792  0.3002805100540651
  0.3152337716140527  0.5410843708910412  0.7443615354047467
  0.1873789317021405  0.4557617102148310  0.4786418365251051
  0.3147851870252734  0.0407305597605874  0.8759181265801396
  0.1851976602178749  0.4579794562027473  0.6996346975974774
  0.5617973804339669  0.3718686655561344  0.5214147162348475
  0.1912001361179972  0.2874947082775025  0.3889794634541155
  0.3158174286921983  0.2040211129396732  0.2112041979826798
  0.0672687420154552  0.7031853302768324  0.2113073069021749
  0.5620487438500278  0.3711624059841661  0.4344293925833313
  0.4369841997708830  0.6219056797690651  0.5214017464855778
  0.8165787671323436  0.7149027023801667  0.8332422630154573
  0.0600651059254814  0.3760544536582563  0.7884426073615711
  0.4365858888008073  0.2984466265036222  0.8764464109566455
  0.3115501800465912  0.0307825808221886  0.1241096774411626
  0.6877945310557892  0.1201071772391742  0.4342847433890821
  0.1837489858931483  0.9520251692423204  0.3449091153821703
  0.0665568063660784  0.2154191726778473  0.8340978516880075
  0.5593221437744575  0.0384376750234942  0.6110889375108101
  0.6890467824153467  0.4543084531043324  0.2117536119577267
  0.1895857254922468  0.7915352154632731  0.7441601594552654
  0.1949600177349530  0.6224897145578714  0.3002643131797214
  0.4414232312899994  0.7876438407633124  0.3890915588808641
  0.4333285768945806  0.2880613992492252  0.2558172458685480
  0.0628164497803007  0.5408518667487437  0.8759115799845874
  0.5654965929804008  0.0414810713701452  0.7441697351728630
  0.1873384117293655  0.7988299017302575  0.8763197347026477
  0.9375278132396686  0.4556540224547753  0.4786596702257477
  0.5656148690975601  0.5406802797698591  0.7438703126697269
  0.8112367301145756  0.2071539848001908  0.5654238122538924
  0.1851723116110500  0.6226568472018572  0.7885550460778307
  0.0665542973153812  0.5375007543777494  0.3890868682882856
  0.0609223417435210  0.7075073179131040  0.6997403613073493
  0.3085689954932025  0.5372925373031218  0.2555742926849871
  0.3145729246137677  0.7028799235912941  0.2122855737152184
  0.3061785882979077  0.8645712734414998  0.1657720063894383
  0.4368681173882226  0.6206938905088255  0.4343768957954178
  0.8178539220700027  0.0385039976836650  0.3890169944854975
  0.9344910239299096  0.2977263331276291  0.8755853402820748
  0.9376126114256441  0.7958648465812593  0.8756468935430851
  0.0650599716055528  0.0384664401529921  0.8758595010818214
  0.5623512125968865  0.5288110865724636  0.1244824079075301
  0.8056451248136121  0.3653781320327587  0.1659271896672167
  0.0627251334811113  0.8713813001372355  0.4342332788871118
  0.9366127683522645  0.1217370555239678  0.5215486026975842
  0.3089443633950676  0.3753187956492124  0.7881194479157283
  0.5668529504491572  0.7025971132896492  0.2119986005789210
 
  0.00000000E+00  0.00000000E+00  0.00000000E+00
  0.00000000E+00  0.00000000E+00  0.00000000E+00
  0.00000000E+00  0.00000000E+00  0.00000000E+00
  0.00000000E+00  0.00000000E+00  0.00000000E+00
  0.00000000E+00  0.00000000E+00  0.00000000E+00
  0.00000000E+00  0.00000000E+00  0.00000000E+00
  0.00000000E+00  0.00000000E+00  0.00000000E+00
  0.00000000E+00  0.00000000E+00  0.00000000E+00
  0.00000000E+00  0.00000000E+00  0.00000000E+00
  0.00000000E+00  0.00000000E+00  0.00000000E+00
  0.00000000E+00  0.00000000E+00  0.00000000E+00
  0.00000000E+00  0.00000000E+00  0.00000000E+00
  0.00000000E+00  0.00000000E+00  0.00000000E+00
  0.00000000E+00  0.00000000E+00  0.00000000E+00
  0.00000000E+00  0.00000000E+00  0.00000000E+00
  0.00000000E+00  0.00000000E+00  0.00000000E+00
  0.00000000E+00  0.00000000E+00  0.00000000E+00
  0.00000000E+00  0.00000000E+00  0.00000000E+00
  0.00000000E+00  0.00000000E+00  0.00000000E+00
  0.00000000E+00  0.00000000E+00  0.00000000E+00
  0.00000000E+00  0.00000000E+00  0.00000000E+00
  0.00000000E+00  0.00000000E+00  0.00000000E+00
  0.00000000E+00  0.00000000E+00  0.00000000E+00
  0.00000000E+00  0.00000000E+00  0.00000000E+00
  0.00000000E+00  0.00000000E+00  0.00000000E+00
  0.00000000E+00  0.00000000E+00  0.00000000E+00
  0.00000000E+00  0.00000000E+00  0.00000000E+00
  0.00000000E+00  0.00000000E+00  0.00000000E+00
  0.00000000E+00  0.00000000E+00  0.00000000E+00
  0.00000000E+00  0.00000000E+00  0.00000000E+00
  0.00000000E+00  0.00000000E+00  0.00000000E+00
  0.00000000E+00  0.00000000E+00  0.00000000E+00
  0.00000000E+00  0.00000000E+00  0.00000000E+00
  0.00000000E+00  0.00000000E+00  0.00000000E+00
  0.00000000E+00  0.00000000E+00  0.00000000E+00
  0.00000000E+00  0.00000000E+00  0.00000000E+00
  0.00000000E+00  0.00000000E+00  0.00000000E+00
  0.00000000E+00  0.00000000E+00  0.00000000E+00
  0.00000000E+00  0.00000000E+00  0.00000000E+00
  0.00000000E+00  0.00000000E+00  0.00000000E+00
  0.00000000E+00  0.00000000E+00  0.00000000E+00
  0.00000000E+00  0.00000000E+00  0.00000000E+00
  0.00000000E+00  0.00000000E+00  0.00000000E+00
  0.00000000E+00  0.00000000E+00  0.00000000E+00
  0.00000000E+00  0.00000000E+00  0.00000000E+00
  0.00000000E+00  0.00000000E+00  0.00000000E+00
  0.00000000E+00  0.00000000E+00  0.00000000E+00
  0.00000000E+00  0.00000000E+00  0.00000000E+00
  0.00000000E+00  0.00000000E+00  0.00000000E+00
  0.00000000E+00  0.00000000E+00  0.00000000E+00
  0.00000000E+00  0.00000000E+00  0.00000000E+00
  0.00000000E+00  0.00000000E+00  0.00000000E+00
  0.00000000E+00  0.00000000E+00  0.00000000E+00
  0.00000000E+00  0.00000000E+00  0.00000000E+00
  0.00000000E+00  0.00000000E+00  0.00000000E+00
  0.00000000E+00  0.00000000E+00  0.00000000E+00
  0.00000000E+00  0.00000000E+00  0.00000000E+00
  0.00000000E+00  0.00000000E+00  0.00000000E+00
  0.00000000E+00  0.00000000E+00  0.00000000E+00
  0.00000000E+00  0.00000000E+00  0.00000000E+00
  0.00000000E+00  0.00000000E+00  0.00000000E+00
  0.00000000E+00  0.00000000E+00  0.00000000E+00
  0.00000000E+00  0.00000000E+00  0.00000000E+00
  0.00000000E+00  0.00000000E+00  0.00000000E+00
  0.00000000E+00  0.00000000E+00  0.00000000E+00
  0.00000000E+00  0.00000000E+00  0.00000000E+00
  0.00000000E+00  0.00000000E+00  0.00000000E+00
  0.00000000E+00  0.00000000E+00  0.00000000E+00
  0.00000000E+00  0.00000000E+00  0.00000000E+00
  0.00000000E+00  0.00000000E+00  0.00000000E+00
  0.00000000E+00  0.00000000E+00  0.00000000E+00
  0.00000000E+00  0.00000000E+00  0.00000000E+00
  0.00000000E+00  0.00000000E+00  0.00000000E+00
  0.00000000E+00  0.00000000E+00  0.00000000E+00
  0.00000000E+00  0.00000000E+00  0.00000000E+00
  0.00000000E+00  0.00000000E+00  0.00000000E+00
  0.00000000E+00  0.00000000E+00  0.00000000E+00
  0.00000000E+00  0.00000000E+00  0.00000000E+00
  0.00000000E+00  0.00000000E+00  0.00000000E+00
  0.00000000E+00  0.00000000E+00  0.00000000E+00
  0.00000000E+00  0.00000000E+00  0.00000000E+00
  0.00000000E+00  0.00000000E+00  0.00000000E+00
  0.00000000E+00  0.00000000E+00  0.00000000E+00
  0.00000000E+00  0.00000000E+00  0.00000000E+00
  0.00000000E+00  0.00000000E+00  0.00000000E+00
  0.00000000E+00  0.00000000E+00  0.00000000E+00
  0.00000000E+00  0.00000000E+00  0.00000000E+00
  0.00000000E+00  0.00000000E+00  0.00000000E+00
  0.00000000E+00  0.00000000E+00  0.00000000E+00
  0.00000000E+00  0.00000000E+00  0.00000000E+00
  0.00000000E+00  0.00000000E+00  0.00000000E+00
  0.00000000E+00  0.00000000E+00  0.00000000E+00
  0.00000000E+00  0.00000000E+00  0.00000000E+00
  0.00000000E+00  0.00000000E+00  0.00000000E+00
  0.00000000E+00  0.00000000E+00  0.00000000E+00
  0.00000000E+00  0.00000000E+00  0.00000000E+00
  0.00000000E+00  0.00000000E+00  0.00000000E+00
  0.00000000E+00  0.00000000E+00  0.00000000E+00
  0.00000000E+00  0.00000000E+00  0.00000000E+00
  0.00000000E+00  0.00000000E+00  0.00000000E+00
  0.00000000E+00  0.00000000E+00  0.00000000E+00
  0.00000000E+00  0.00000000E+00  0.00000000E+00
  0.00000000E+00  0.00000000E+00  0.00000000E+00
  0.00000000E+00  0.00000000E+00  0.00000000E+00
  0.00000000E+00  0.00000000E+00  0.00000000E+00
  0.00000000E+00  0.00000000E+00  0.00000000E+00
  0.00000000E+00  0.00000000E+00  0.00000000E+00
  0.00000000E+00  0.00000000E+00  0.00000000E+00
  0.00000000E+00  0.00000000E+00  0.00000000E+00
  0.00000000E+00  0.00000000E+00  0.00000000E+00
  0.00000000E+00  0.00000000E+00  0.00000000E+00
  0.00000000E+00  0.00000000E+00  0.00000000E+00
  0.00000000E+00  0.00000000E+00  0.00000000E+00
  0.00000000E+00  0.00000000E+00  0.00000000E+00
  0.00000000E+00  0.00000000E+00  0.00000000E+00
  0.00000000E+00  0.00000000E+00  0.00000000E+00
  0.00000000E+00  0.00000000E+00  0.00000000E+00
  0.00000000E+00  0.00000000E+00  0.00000000E+00
  0.00000000E+00  0.00000000E+00  0.00000000E+00
  0.00000000E+00  0.00000000E+00  0.00000000E+00
  0.00000000E+00  0.00000000E+00  0.00000000E+00
  0.00000000E+00  0.00000000E+00  0.00000000E+00
  0.00000000E+00  0.00000000E+00  0.00000000E+00
  0.00000000E+00  0.00000000E+00  0.00000000E+00
  0.00000000E+00  0.00000000E+00  0.00000000E+00
  0.00000000E+00  0.00000000E+00  0.00000000E+00
  0.00000000E+00  0.00000000E+00  0.00000000E+00
  0.00000000E+00  0.00000000E+00  0.00000000E+00
  0.00000000E+00  0.00000000E+00  0.00000000E+00
  0.00000000E+00  0.00000000E+00  0.00000000E+00
  0.00000000E+00  0.00000000E+00  0.00000000E+00
  0.00000000E+00  0.00000000E+00  0.00000000E+00
  0.00000000E+00  0.00000000E+00  0.00000000E+00
  0.00000000E+00  0.00000000E+00  0.00000000E+00
  0.00000000E+00  0.00000000E+00  0.00000000E+00
  0.00000000E+00  0.00000000E+00  0.00000000E+00
  0.00000000E+00  0.00000000E+00  0.00000000E+00
  0.00000000E+00  0.00000000E+00  0.00000000E+00
  0.00000000E+00  0.00000000E+00  0.00000000E+00
  0.00000000E+00  0.00000000E+00  0.00000000E+00
  0.00000000E+00  0.00000000E+00  0.00000000E+00
  0.00000000E+00  0.00000000E+00  0.00000000E+00
  0.00000000E+00  0.00000000E+00  0.00000000E+00
  0.00000000E+00  0.00000000E+00  0.00000000E+00
  0.00000000E+00  0.00000000E+00  0.00000000E+00
  0.00000000E+00  0.00000000E+00  0.00000000E+00
  0.00000000E+00  0.00000000E+00  0.00000000E+00
  0.00000000E+00  0.00000000E+00  0.00000000E+00
  0.00000000E+00  0.00000000E+00  0.00000000E+00
  0.00000000E+00  0.00000000E+00  0.00000000E+00
  0.00000000E+00  0.00000000E+00  0.00000000E+00
  0.00000000E+00  0.00000000E+00  0.00000000E+00
  0.00000000E+00  0.00000000E+00  0.00000000E+00
  0.00000000E+00  0.00000000E+00  0.00000000E+00
  0.00000000E+00  0.00000000E+00  0.00000000E+00
  0.00000000E+00  0.00000000E+00  0.00000000E+00
  0.00000000E+00  0.00000000E+00  0.00000000E+00
  0.00000000E+00  0.00000000E+00  0.00000000E+00
  0.00000000E+00  0.00000000E+00  0.00000000E+00
  0.00000000E+00  0.00000000E+00  0.00000000E+00
  0.00000000E+00  0.00000000E+00  0.00000000E+00
  0.00000000E+00  0.00000000E+00  0.00000000E+00
  0.00000000E+00  0.00000000E+00  0.00000000E+00
  0.00000000E+00  0.00000000E+00  0.00000000E+00
  0.00000000E+00  0.00000000E+00  0.00000000E+00
  0.00000000E+00  0.00000000E+00  0.00000000E+00
  0.00000000E+00  0.00000000E+00  0.00000000E+00
  0.00000000E+00  0.00000000E+00  0.00000000E+00
  0.00000000E+00  0.00000000E+00  0.00000000E+00
  0.00000000E+00  0.00000000E+00  0.00000000E+00
  0.00000000E+00  0.00000000E+00  0.00000000E+00
  0.00000000E+00  0.00000000E+00  0.00000000E+00
  0.00000000E+00  0.00000000E+00  0.00000000E+00
  0.00000000E+00  0.00000000E+00  0.00000000E+00
  0.00000000E+00  0.00000000E+00  0.00000000E+00
  0.00000000E+00  0.00000000E+00  0.00000000E+00
  0.00000000E+00  0.00000000E+00  0.00000000E+00
  0.00000000E+00  0.00000000E+00  0.00000000E+00
  0.00000000E+00  0.00000000E+00  0.00000000E+00
  0.00000000E+00  0.00000000E+00  0.00000000E+00
  0.00000000E+00  0.00000000E+00  0.00000000E+00
  0.00000000E+00  0.00000000E+00  0.00000000E+00
  0.00000000E+00  0.00000000E+00  0.00000000E+00
  0.00000000E+00  0.00000000E+00  0.00000000E+00
  0.00000000E+00  0.00000000E+00  0.00000000E+00
  0.00000000E+00  0.00000000E+00  0.00000000E+00
  0.00000000E+00  0.00000000E+00  0.00000000E+00
  0.00000000E+00  0.00000000E+00  0.00000000E+00
  0.00000000E+00  0.00000000E+00  0.00000000E+00
  0.00000000E+00  0.00000000E+00  0.00000000E+00
  0.00000000E+00  0.00000000E+00  0.00000000E+00
  0.00000000E+00  0.00000000E+00  0.00000000E+00
  0.00000000E+00  0.00000000E+00  0.00000000E+00
  0.00000000E+00  0.00000000E+00  0.00000000E+00
  0.00000000E+00  0.00000000E+00  0.00000000E+00
  0.00000000E+00  0.00000000E+00  0.00000000E+00
  0.00000000E+00  0.00000000E+00  0.00000000E+00
  0.00000000E+00  0.00000000E+00  0.00000000E+00
  0.00000000E+00  0.00000000E+00  0.00000000E+00
  0.00000000E+00  0.00000000E+00  0.00000000E+00
  0.00000000E+00  0.00000000E+00  0.00000000E+00
  0.00000000E+00  0.00000000E+00  0.00000000E+00
  0.00000000E+00  0.00000000E+00  0.00000000E+00
  0.00000000E+00  0.00000000E+00  0.00000000E+00
  0.00000000E+00  0.00000000E+00  0.00000000E+00
  0.00000000E+00  0.00000000E+00  0.00000000E+00
  0.00000000E+00  0.00000000E+00  0.00000000E+00
  0.00000000E+00  0.00000000E+00  0.00000000E+00
  0.00000000E+00  0.00000000E+00  0.00000000E+00
  0.00000000E+00  0.00000000E+00  0.00000000E+00
  0.00000000E+00  0.00000000E+00  0.00000000E+00
  0.00000000E+00  0.00000000E+00  0.00000000E+00
  0.00000000E+00  0.00000000E+00  0.00000000E+00
  0.00000000E+00  0.00000000E+00  0.00000000E+00
  0.00000000E+00  0.00000000E+00  0.00000000E+00
  0.00000000E+00  0.00000000E+00  0.00000000E+00
  0.00000000E+00  0.00000000E+00  0.00000000E+00
  0.00000000E+00  0.00000000E+00  0.00000000E+00
  0.00000000E+00  0.00000000E+00  0.00000000E+00
  0.00000000E+00  0.00000000E+00  0.00000000E+00
  0.00000000E+00  0.00000000E+00  0.00000000E+00
  0.00000000E+00  0.00000000E+00  0.00000000E+00
  0.00000000E+00  0.00000000E+00  0.00000000E+00
  0.00000000E+00  0.00000000E+00  0.00000000E+00
  0.00000000E+00  0.00000000E+00  0.00000000E+00
  0.00000000E+00  0.00000000E+00  0.00000000E+00
  0.00000000E+00  0.00000000E+00  0.00000000E+00
  0.00000000E+00  0.00000000E+00  0.00000000E+00
  0.00000000E+00  0.00000000E+00  0.00000000E+00
  0.00000000E+00  0.00000000E+00  0.00000000E+00
  0.00000000E+00  0.00000000E+00  0.00000000E+00
  0.00000000E+00  0.00000000E+00  0.00000000E+00
  0.00000000E+00  0.00000000E+00  0.00000000E+00
  0.00000000E+00  0.00000000E+00  0.00000000E+00
  0.00000000E+00  0.00000000E+00  0.00000000E+00
  0.00000000E+00  0.00000000E+00  0.00000000E+00
  0.00000000E+00  0.00000000E+00  0.00000000E+00
  0.00000000E+00  0.00000000E+00  0.00000000E+00
  0.00000000E+00  0.00000000E+00  0.00000000E+00
  0.00000000E+00  0.00000000E+00  0.00000000E+00
  0.00000000E+00  0.00000000E+00  0.00000000E+00
  0.00000000E+00  0.00000000E+00  0.00000000E+00
  0.00000000E+00  0.00000000E+00  0.00000000E+00
  0.00000000E+00  0.00000000E+00  0.00000000E+00
  0.00000000E+00  0.00000000E+00  0.00000000E+00
  0.00000000E+00  0.00000000E+00  0.00000000E+00
  0.00000000E+00  0.00000000E+00  0.00000000E+00