CuInSe2gb                               
   1.00000000000000     
     9.7266780392896699    0.0000000000000000    0.0000000000000000
     0.0000000000000000    8.4235502764570693    0.0000000000000000
     0.0000000000000000    0.0000000000000000   45.0000000000000000
   Fe   Mn
   281     7
Direct
  0.0577761330830421  0.7009236319644674  0.2111024315931171
  0.3157479251056665  0.7200848761727144  0.8758400958259052
  0.6883743601403357  0.9578857677969324  0.6114293961669313
  0.4383018749303590  0.4580893983604744  0.6114755291977411
  0.4366609621539221  0.2868345702271304  0.2555525595781249
  0.0610041005728171  0.3865612640537212  0.8341982251713070
  0.3119103175422610  0.8868099040881323  0.8342205400783896
  0.4423357326708915  0.6267559034209009  0.7003514459318365
  0.0636659025864649  0.2133271669397875  0.7445256649147517
  0.1825810385484007  0.4512380339231808  0.2112752445212955
  0.5638396450042631  0.2090871559026403  0.4778540448307957
  0.0641823776481903  0.8747158690071265  0.5668809442797135
  0.5663879722580133  0.2197835905177210  0.8756335065388129
  0.8101663722729010  0.5303891401516360  0.1245405908787381
  0.4328332472492804  0.9510940653338641  0.2111726640225957
  0.5642868458172763  0.3746388370330548  0.5667595278106438
  0.8118385276360099  0.0420684754263995  0.3883736557712679
  0.6859793692767762  0.7909607469705380  0.5221411154559741
  0.4387241926226898  0.4589411498537778  0.4777947334804920
  0.4381636969037286  0.9627532146778423  0.7445164858329903
  0.4391057550637830  0.6245945590163064  0.5668250020481315
  0.5673748209933899  0.8762925834760144  0.7003030538160229
  0.3099856375631014  0.0308590854250405  0.1245050121772306
  0.6866317754426275  0.9579085400996515  0.3440238552040550
  0.6867913938758319  0.7792678217923010  0.1245577260366167
  0.0576346847586661  0.3732806776200221  0.2995810879531183
  0.6889034085120892  0.4715120024839998  0.8755441177330003
  0.4330100290721252  0.4513626607915771  0.2111445758189010
  0.8107896970021142  0.3753492694012123  0.4330211313004144
  0.5633588161155615  0.7080774830715146  0.6114891678319037
  0.5628397214286190  0.5413170965642735  0.6557672120105192
  0.8141754156269448  0.8639328601646908  0.1660209787550920
  0.5611159821820429  0.5370269695925729  0.2555608684788057
  0.6865711748369492  0.4580414409656439  0.3441182764631838
  0.1882760563414768  0.6127663190902528  0.1662506344612139
  0.1916581965296691  0.7988159674417489  0.7885689084771181
  0.4425379151850601  0.1264768632085433  0.7003889101637887
  0.9329035175583962  0.6232672134168151  0.2996752799858607
  0.3144552964107213  0.2194058008105832  0.8756635244069386
  0.3140058166991969  0.8746561519760629  0.5667662140841263
  0.8149691743588531  0.2196572724905020  0.8757426981702456
  0.8129626197953345  0.5417386297219732  0.6557450255934737
  0.5598750041915612  0.5301200531317801  0.1244053209274289
  0.5670117301295297  0.0495866011795518  0.7889465147871850
  0.1864922226464582  0.2870301073630610  0.2555339415095870
  0.8107098489987526  0.8753127122205410  0.4330526645450042
  0.5672072449273999  0.3766394013317542  0.7004642377784410
  0.0603466275351797  0.0297798022496557  0.1244391021903394
  0.3129490019560581  0.5412978183772059  0.6557860450773609
  0.5618011658931128  0.2080711399353374  0.3441835736309346
  0.1884030816231997  0.9578690083283840  0.6114251313017585
  0.3076653683302588  0.3736309866322737  0.2996226626797345
  0.4379317465677089  0.7914939868122561  0.6558479058996335
  0.1919485696733703  0.2983060157539753  0.7888124838120295
  0.0643660894081139  0.3636133034195594  0.1660421774487572
  0.6920109581690356  0.6269056528895761  0.7003542586460737
  0.3115959430019096  0.5416889141960071  0.3883999035177262
  0.0654031883152806  0.7191782458916244  0.8758249370783375
  0.9364226267727026  0.6367642714605745  0.8343035185338405
  0.3173247180835279  0.5499717990206092  0.7889818593868981
  0.3074116165439418  0.2006811518708612  0.2111647509448100
  0.0638881960669868  0.7089177815070489  0.4778837003015032
  0.5576289293559901  0.2010608745498675  0.2110600298247607
  0.3136361355727621  0.2132188800846006  0.7444399039913112
  0.0672038002896286  0.3769001096369034  0.7003769411520846
  0.1865433987564901  0.6367439040782563  0.8339171257216562
  0.0669334650183984  0.0493443952910302  0.7888652178658894
  0.4389938476095342  0.1247308875573864  0.5668189004516064
  0.9381516952136004  0.2916807966160412  0.6556861558969672
  0.8075590141921541  0.2014722777407582  0.2110847173666053
  0.9327751821597191  0.9516189116342657  0.2112180632623894
  0.9390194415416565  0.6249605561926310  0.5667762497706099
  0.8108734843882576  0.3865770123902152  0.8341842383552383
  0.1924220663994311  0.6268343303649329  0.7003278421364681
  0.8116344734031015  0.8862881890065505  0.8342112622671315
  0.6881164536968827  0.2912614816907940  0.6557914715143794
  0.3135254256338175  0.2080194068663863  0.6114908238914372
  0.4384183668345345  0.4625096409464994  0.7444018025491862
  0.4366650417923593  0.7916417285994891  0.3884334147163370
  0.6876812555400037  0.9629714781513485  0.7444748915682228
  0.8075534256525809  0.7010930569026448  0.2111477683181568
  0.8131072867145333  0.7080056048942124  0.6113988875252745
  0.4370705675377444  0.7793578301348609  0.1247027325836490
  0.3131913274573968  0.7130899883893729  0.7443887466443528
  0.3170941260738963  0.0495359428151800  0.7889865934498742
  0.8115832524108690  0.5417935532639215  0.3884229742049116
  0.6862143934975665  0.2910658480216005  0.5221356431755210
  0.6921471760219063  0.7990302722542879  0.7888240486944703
  0.1866069161601302  0.7877141882283102  0.2555214616585081
  0.6887577364491447  0.1127670891776243  0.1661812238235416
  0.6888198327228656  0.9591732220392124  0.4778901422566679
  0.9367595481491445  0.9582801218457178  0.3440856161811525
  0.8110172150688011  0.0404381546420878  0.5221100089848596
  0.6850046253635473  0.6250662728985893  0.4330625002299397
  0.4368652575732344  0.4583587416638188  0.3441656159725544
  0.8133650722302102  0.2133594034211156  0.7445318403288739
  0.3142001897572016  0.8633850064518673  0.1659588251375070
  0.5641184130252780  0.8744447805203521  0.5667551656603557
  0.8101921971138889  0.0298407479234187  0.1243860773315445
  0.4324059877671253  0.6233987256239397  0.2996890736406127
  0.8150536968592428  0.7201384888820660  0.8758540854514635
  0.6882285244599927  0.4578714130769059  0.6114200769957135
  0.5609431243334521  0.3874805735147909  0.8340635678921250
  0.8074651847192589  0.3731570735361773  0.2996311231870665
  0.1864344155812181  0.2917445623956168  0.3883911142993575
  0.8167521225983529  0.5493507609544834  0.7890691440002567
  0.1862002355532879  0.7907006499073399  0.5222042947100515
  0.3076600668013332  0.8734174808112438  0.2996970383848915
  0.1826276724833817  0.9513948551050646  0.2112353501780044
  0.1886755580160116  0.4627953880908504  0.7445138984931678
  0.4359419219981999  0.2906834724415494  0.5220649198440521
  0.0620451518595542  0.7086723351882512  0.3442101377576492
  0.1881399436212150  0.7911853666058355  0.6557124294089054
  0.4417332600180780  0.7994684880570887  0.7887522929395693
  0.6850301824183558  0.1250476788548229  0.4330790781319299
  0.9362166457742126  0.7904355782114229  0.5221977881412904
  0.6887757010761112  0.6137681698632341  0.1661364231716201
  0.8118131522233694  0.7086344991499048  0.3442632544968607
  0.9383794795794342  0.4627708547603351  0.7443915817163096
  0.1867970875966710  0.4582985663383281  0.3441438474649333
  0.5675998975075454  0.5492983135624124  0.7889995835345122
  0.5645997594718871  0.3637192451739685  0.1658510571439700
  0.5614177041967536  0.7084775168212286  0.3443033653264455
  0.5580361319646752  0.3733983254577198  0.2996151022726155
  0.1889034879857494  0.4714599426173905  0.8756214802924860
  0.1890378148592149  0.1131205735025415  0.1660642084294076
  0.4417716820791404  0.2994259443643081  0.7887342906008755
  0.6861927858072602  0.7873654540640487  0.2555088756877247
  0.9368481441887251  0.1364348024949034  0.8341198296841545
  0.4389521338668835  0.9591720843865974  0.4778023798503200
  0.5656756568786540  0.7188955792517193  0.8756477372710072
  0.1886249857659762  0.4589306588695152  0.4777782806724455
  0.9361722332286877  0.2795569705436130  0.1245402023224510
  0.3115082928146475  0.0416026592610288  0.3884624793923701
  0.0629869266436469  0.0410943989348593  0.6557748539334484
  0.5609983578005638  0.3752827974823850  0.4330463090964680
  0.6876250937031194  0.4625056752852193  0.7444751564081488
  0.5636482394814862  0.2133757894610340  0.7444135072403570
  0.9425461182432825  0.1269594747482086  0.7003612780426777
  0.5630899115107896  0.0413405741889381  0.6557701978097548
  0.5611209782669293  0.5408315509758672  0.5220876190465412
  0.1826662985103440  0.1232964039782869  0.2995836167909639
  0.4382174018612224  0.1125813866807774  0.1661603960624748
  0.6823939431941408  0.6232816128726946  0.2996581646607286
  0.9325603838427451  0.1230284451882655  0.2996580657471286
  0.8139148849063723  0.3748164372387867  0.5668630022972773
  0.0578123712064295  0.8732735134465123  0.2996214268228148
  0.1889676216180901  0.6248044575989165  0.5668668978082175
  0.9412711880012560  0.7989827002507965  0.7888808356749084
  0.3114175728896427  0.3872422862683392  0.8342532870094441
  0.9393155863857684  0.4722791738217435  0.8755555426915820
  0.4365486539419831  0.6375477298942590  0.8342554837026260
  0.0616329678302948  0.2085101690045755  0.3441801097215783
  0.1878155511090570  0.9723156714316288  0.8755870168991293
  0.9365397768229440  0.7793947431853233  0.1245479245927328
  0.6863811284868830  0.7917057609867533  0.3883951296719034
  0.9379538062047396  0.7914894302973265  0.6557715703491876
  0.9388424104249450  0.1127815904298156  0.1661215336230198
  0.4377953121264589  0.2915217333575767  0.6557969725061936
  0.0581147795440507  0.2010190359967047  0.2110629716363336
  0.6828160683503081  0.9515732024932260  0.2112891694321206
  0.1824553189821781  0.6234460120208521  0.2996707100296712
  0.8170556857687905  0.8763752930450235  0.7003388462841763
  0.9424032777865077  0.6267127496129888  0.7003669396587685
  0.1923129989756795  0.1268253011569424  0.7003795285370737
  0.9391534331372761  0.4587580900752832  0.4778221543996453
  0.8131056431209309  0.2079151471518177  0.6114335616750994
  0.1867154284587022  0.6251642572894978  0.4330402214766426
  0.4327015212386114  0.1234962245663688  0.2997071380702834
  0.6824000632107557  0.1230710886409258  0.2996613527814244
  0.5613561649178598  0.5416084751539660  0.3884262946077807
  0.8118613101023757  0.2080561557738157  0.3442440812903111
  0.4391129812246020  0.4711727516298072  0.8754752803191784
  0.5603005566745147  0.8871044391580134  0.8342316321002886
  0.3139970011240250  0.2093047401614664  0.4778180069375126
  0.1885018912131466  0.9591367101166929  0.4778410244774976
  0.0606271588235570  0.8866784452295029  0.8342437450470613
  0.0610378915610522  0.5404603784334169  0.5220355484200550
  0.9390098558709880  0.9588088784367652  0.4778291141726089
  0.0633102499448441  0.7079496323304323  0.6113891472262093
  0.5609729978731083  0.0406896203224248  0.5220764407792772
  0.6919308977669364  0.2987350055744639  0.7887126834979781
  0.8144125372840656  0.3634665365059789  0.1659952337295593
  0.4356992513697089  0.1249333481969685  0.4330430817742497
  0.0639597243967539  0.2091205413894720  0.4778611535541479
  0.3130302291466772  0.0412956733800524  0.6557778717843153
  0.4360316959226468  0.7907226386659065  0.5220911867573622
  0.1871893354059070  0.1370856918894824  0.8342949928796747
  0.1867109476984815  0.2789183699420529  0.1244356762099876
  0.9366247879796421  0.4585055043784459  0.3441133836790730
  0.5649814584002880  0.8636846318125988  0.1660048657365124
  0.3075542624194096  0.7007461670785654  0.2111206180326003
  0.9382835173334628  0.6136552639333788  0.1662094852411427
  0.1883196857516580  0.4579283394736470  0.6114368690832812
  0.0673831098138484  0.8766247673120304  0.7002187605302170
  0.0630851490234313  0.5414160502923520  0.6558418662329281
  0.3105972134726843  0.5303739642410934  0.1241135057932059
  0.9362867408026497  0.7920756162789484  0.3884367267731968
  0.9418194194022718  0.2984187397539856  0.7888869083633312
  0.1878937076065031  0.2915391377114248  0.6558036350050237
  0.9384743825800554  0.9580028001947195  0.6114927544847631
  0.8135664631438493  0.7131350140741304  0.7445670119901479
  0.6863514509585593  0.2874100942988840  0.2554742514560125
  0.0640828116242560  0.7131247426501531  0.7445195334114365
  0.6825694746425066  0.4511124345883959  0.2112345923887493
  0.8138324304485907  0.2089191518351977  0.4778443460013343
  0.5639246442086169  0.7091967408624941  0.4778549005738998
  0.0638561476764231  0.8635859545314619  0.1660104834704278
  0.9360226936798582  0.2905577052772643  0.5221761238022548
  0.6876516620722706  0.7913856210889408  0.6557694169808583
  0.0614077213379115  0.8747710192968788  0.4329702652670576
  0.0660369729683496  0.2195851877499480  0.8758245879041161
  0.8130208676231859  0.0412543641962205  0.6557558671550621
  0.5599516231260898  0.0297002939610431  0.1244504834972394
  0.3106065437498939  0.3749446024957689  0.4331175050280476
  0.3141164494963691  0.3747761929327428  0.5667683326675056
  0.3139332523125550  0.7092184571025256  0.4778386349685986
  0.0611904600386037  0.0405215347104962  0.5220319034711547
  0.3172021541614933  0.8763431008150425  0.7003373910119415
  0.0617498181179516  0.5369347345164743  0.2555582279195021
  0.6862139957609520  0.1373706851052490  0.8341976151022437
  0.8114674670807897  0.0367647302660856  0.2555624542815818
  0.1868780945269900  0.1250860692269259  0.4330390964464191
  0.6921862199980887  0.1264903693685685  0.7002936819094491
  0.1862469860776001  0.2907027770581928  0.5221840667666071
  0.4365664932588290  0.7873748725713869  0.2555212654527644
  0.4388957231202704  0.6126546501202538  0.1660808912627209
  0.0632995030843122  0.2079440500979167  0.6114155830914810
  0.1862885137106066  0.7916507187687044  0.3884027264915344
  0.3112333685023649  0.5409016093794671  0.5220960731863808
  0.8173876658029544  0.3766685018147116  0.7003494719099517
  0.6863498848519941  0.2920836768390634  0.3884015983709838
  0.1892174851258038  0.1246764057788217  0.5668291550694489
  0.6894054128400851  0.9725692906387413  0.8755326734527289
  0.6889585950308275  0.1248933641069193  0.5668454056361941
  0.4368590331541617  0.9584393697231961  0.3441535968130843
  0.1886041214843106  0.9630107647277591  0.7445117001316219
  0.9369745098646171  0.7876702911316711  0.2555440482236654
  0.5610587441211566  0.8752227105702188  0.4330118194747608
  0.3107745463510028  0.8750224375249360  0.4330284107036381
  0.8109650662769914  0.5403166278160508  0.5221249415415627
  0.9327510971309685  0.4512316706146373  0.2113546345924508
  0.3116332979398341  0.5367240122702782  0.2556544764818179
  0.5611568200145397  0.0416603673602172  0.3884103105205204
  0.9384366918216167  0.4578183567632259  0.6114792963428842
  0.0615287994480151  0.0417489789486066  0.3884344340868327
  0.0613004576079158  0.5417860289170683  0.3884247273511663
  0.4366057651673355  0.2917320559442219  0.3884261695238246
  0.6887362954371055  0.4590924202541301  0.4778841886964548
  0.0641363333538898  0.3748907985011216  0.5668880487643088
  0.5576819325565768  0.7009461486865642  0.2111442070694171
  0.9367607878702564  0.2870114149388050  0.2555234206617216
  0.8167732109057678  0.0495541783475560  0.7889057196824463
  0.1870091559207948  0.9581964311265468  0.3441022464528559
  0.5577925441085485  0.8734447148003767  0.2996948487258422
  0.0613374473631923  0.3748736876398974  0.4330319807965359
  0.3118447315655807  0.7080709800155596  0.3441672183482888
  0.3117812495368109  0.2079923616381998  0.3441586636503604
  0.9389819650476721  0.1248945630890033  0.5667847212431023
  0.4381313090714435  0.9581052519515638  0.6114722133297519
  0.5608900405251095  0.0371046395021339  0.2555612900241040
  0.1859934752049744  0.7792058178992024  0.1246250319248669
  0.0620149581815431  0.0370601958302914  0.2555315025506750
  0.6890480289039670  0.6246426605966000  0.5668616218115663
  0.0605417688294640  0.5300284238410432  0.1244232467313540
  0.3111503162285200  0.0410267420071055  0.5220790913513342
  0.6872707978594476  0.2800295365561390  0.1245791769769699
  0.8137546141938419  0.7090713019472221  0.4778388181799235
  0.4366714746590301  0.1362473917858686  0.8340672681042228
  0.3175304128689957  0.3764337476737677  0.7003663113976498
  0.6872059733498271  0.6367048419457395  0.8339152829432079
  0.5632212078550745  0.7127736231963091  0.7444622150206224
  0.9361760517430668  0.2922141987765364  0.3884226625466793
  0.9392769957974527  0.9711652277283961  0.8755236928781072
  0.5635372287499493  0.2080847635718695  0.6114598461391521
  0.8141113842372305  0.8747455128125792  0.5668679605912219
  0.8075574827307456  0.8733641867889985  0.2996107605228049
  0.3111537032025478  0.0369317031021741  0.2555245495526268
  0.4366784314721703  0.2796669038333729  0.1242048350124941
  0.3132301501435824  0.7080635907759445  0.6114492416018225
  0.4355762349415548  0.6250500111427945  0.4330475992590176
  0.9357892712116289  0.6251912666472887  0.4330922837089394
  0.4392999427929132  0.9708027875366033  0.8753821402017590
  0.0674274085062658  0.5490698786751731  0.7888185104724049
  0.9357058487767435  0.1252083787940915  0.4330989175339739
  0.3149549849042163  0.3633153054135743  0.1656352565887040
  0.9376445258151416  0.9631793459802233  0.7446604259976712
  0.8119571959992552  0.5367412277607928  0.2553980629610617
 
  0.00000000E+00  0.00000000E+00  0.00000000E+00
  0.00000000E+00  0.00000000E+00  0.00000000E+00
  0.00000000E+00  0.00000000E+00  0.00000000E+00
  0.00000000E+00  0.00000000E+00  0.00000000E+00
  0.00000000E+00  0.00000000E+00  0.00000000E+00
  0.00000000E+00  0.00000000E+00  0.00000000E+00
  0.00000000E+00  0.00000000E+00  0.00000000E+00
  0.00000000E+00  0.00000000E+00  0.00000000E+00
  0.00000000E+00  0.00000000E+00  0.00000000E+00
  0.00000000E+00  0.00000000E+00  0.00000000E+00
  0.00000000E+00  0.00000000E+00  0.00000000E+00
  0.00000000E+00  0.00000000E+00  0.00000000E+00
  0.00000000E+00  0.00000000E+00  0.00000000E+00
  0.00000000E+00  0.00000000E+00  0.00000000E+00
  0.00000000E+00  0.00000000E+00  0.00000000E+00
  0.00000000E+00  0.00000000E+00  0.00000000E+00
  0.00000000E+00  0.00000000E+00  0.00000000E+00
  0.00000000E+00  0.00000000E+00  0.00000000E+00
  0.00000000E+00  0.00000000E+00  0.00000000E+00
  0.00000000E+00  0.00000000E+00  0.00000000E+00
  0.00000000E+00  0.00000000E+00  0.00000000E+00
  0.00000000E+00  0.00000000E+00  0.00000000E+00
  0.00000000E+00  0.00000000E+00  0.00000000E+00
  0.00000000E+00  0.00000000E+00  0.00000000E+00
  0.00000000E+00  0.00000000E+00  0.00000000E+00
  0.00000000E+00  0.00000000E+00  0.00000000E+00
  0.00000000E+00  0.00000000E+00  0.00000000E+00
  0.00000000E+00  0.00000000E+00  0.00000000E+00
  0.00000000E+00  0.00000000E+00  0.00000000E+00
  0.00000000E+00  0.00000000E+00  0.00000000E+00
  0.00000000E+00  0.00000000E+00  0.00000000E+00
  0.00000000E+00  0.00000000E+00  0.00000000E+00
  0.00000000E+00  0.00000000E+00  0.00000000E+00
  0.00000000E+00  0.00000000E+00  0.00000000E+00
  0.00000000E+00  0.00000000E+00  0.00000000E+00
  0.00000000E+00  0.00000000E+00  0.00000000E+00
  0.00000000E+00  0.00000000E+00  0.00000000E+00
  0.00000000E+00  0.00000000E+00  0.00000000E+00
  0.00000000E+00  0.00000000E+00  0.00000000E+00
  0.00000000E+00  0.00000000E+00  0.00000000E+00
  0.00000000E+00  0.00000000E+00  0.00000000E+00
  0.00000000E+00  0.00000000E+00  0.00000000E+00
  0.00000000E+00  0.00000000E+00  0.00000000E+00
  0.00000000E+00  0.00000000E+00  0.00000000E+00
  0.00000000E+00  0.00000000E+00  0.00000000E+00
  0.00000000E+00  0.00000000E+00  0.00000000E+00
  0.00000000E+00  0.00000000E+00  0.00000000E+00
  0.00000000E+00  0.00000000E+00  0.00000000E+00
  0.00000000E+00  0.00000000E+00  0.00000000E+00
  0.00000000E+00  0.00000000E+00  0.00000000E+00
  0.00000000E+00  0.00000000E+00  0.00000000E+00
  0.00000000E+00  0.00000000E+00  0.00000000E+00
  0.00000000E+00  0.00000000E+00  0.00000000E+00
  0.00000000E+00  0.00000000E+00  0.00000000E+00
  0.00000000E+00  0.00000000E+00  0.00000000E+00
  0.00000000E+00  0.00000000E+00  0.00000000E+00
  0.00000000E+00  0.00000000E+00  0.00000000E+00
  0.00000000E+00  0.00000000E+00  0.00000000E+00
  0.00000000E+00  0.00000000E+00  0.00000000E+00
  0.00000000E+00  0.00000000E+00  0.00000000E+00
  0.00000000E+00  0.00000000E+00  0.00000000E+00
  0.00000000E+00  0.00000000E+00  0.00000000E+00
  0.00000000E+00  0.00000000E+00  0.00000000E+00
  0.00000000E+00  0.00000000E+00  0.00000000E+00
  0.00000000E+00  0.00000000E+00  0.00000000E+00
  0.00000000E+00  0.00000000E+00  0.00000000E+00
  0.00000000E+00  0.00000000E+00  0.00000000E+00
  0.00000000E+00  0.00000000E+00  0.00000000E+00
  0.00000000E+00  0.00000000E+00  0.00000000E+00
  0.00000000E+00  0.00000000E+00  0.00000000E+00
  0.00000000E+00  0.00000000E+00  0.00000000E+00
  0.00000000E+00  0.00000000E+00  0.00000000E+00
  0.00000000E+00  0.00000000E+00  0.00000000E+00
  0.00000000E+00  0.00000000E+00  0.00000000E+00
  0.00000000E+00  0.00000000E+00  0.00000000E+00
  0.00000000E+00  0.00000000E+00  0.00000000E+00
  0.00000000E+00  0.00000000E+00  0.00000000E+00
  0.00000000E+00  0.00000000E+00  0.00000000E+00
  0.00000000E+00  0.00000000E+00  0.00000000E+00
  0.00000000E+00  0.00000000E+00  0.00000000E+00
  0.00000000E+00  0.00000000E+00  0.00000000E+00
  0.00000000E+00  0.00000000E+00  0.00000000E+00
  0.00000000E+00  0.00000000E+00  0.00000000E+00
  0.00000000E+00  0.00000000E+00  0.00000000E+00
  0.00000000E+00  0.00000000E+00  0.00000000E+00
  0.00000000E+00  0.00000000E+00  0.00000000E+00
  0.00000000E+00  0.00000000E+00  0.00000000E+00
  0.00000000E+00  0.00000000E+00  0.00000000E+00
  0.00000000E+00  0.00000000E+00  0.00000000E+00
  0.00000000E+00  0.00000000E+00  0.00000000E+00
  0.00000000E+00  0.00000000E+00  0.00000000E+00
  0.00000000E+00  0.00000000E+00  0.00000000E+00
  0.00000000E+00  0.00000000E+00  0.00000000E+00
  0.00000000E+00  0.00000000E+00  0.00000000E+00
  0.00000000E+00  0.00000000E+00  0.00000000E+00
  0.00000000E+00  0.00000000E+00  0.00000000E+00
  0.00000000E+00  0.00000000E+00  0.00000000E+00
  0.00000000E+00  0.00000000E+00  0.00000000E+00
  0.00000000E+00  0.00000000E+00  0.00000000E+00
  0.00000000E+00  0.00000000E+00  0.00000000E+00
  0.00000000E+00  0.00000000E+00  0.00000000E+00
  0.00000000E+00  0.00000000E+00  0.00000000E+00
  0.00000000E+00  0.00000000E+00  0.00000000E+00
  0.00000000E+00  0.00000000E+00  0.00000000E+00
  0.00000000E+00  0.00000000E+00  0.00000000E+00
  0.00000000E+00  0.00000000E+00  0.00000000E+00
  0.00000000E+00  0.00000000E+00  0.00000000E+00
  0.00000000E+00  0.00000000E+00  0.00000000E+00
  0.00000000E+00  0.00000000E+00  0.00000000E+00
  0.00000000E+00  0.00000000E+00  0.00000000E+00
  0.00000000E+00  0.00000000E+00  0.00000000E+00
  0.00000000E+00  0.00000000E+00  0.00000000E+00
  0.00000000E+00  0.00000000E+00  0.00000000E+00
  0.00000000E+00  0.00000000E+00  0.00000000E+00
  0.00000000E+00  0.00000000E+00  0.00000000E+00
  0.00000000E+00  0.00000000E+00  0.00000000E+00
  0.00000000E+00  0.00000000E+00  0.00000000E+00
  0.00000000E+00  0.00000000E+00  0.00000000E+00
  0.00000000E+00  0.00000000E+00  0.00000000E+00
  0.00000000E+00  0.00000000E+00  0.00000000E+00
  0.00000000E+00  0.00000000E+00  0.00000000E+00
  0.00000000E+00  0.00000000E+00  0.00000000E+00
  0.00000000E+00  0.00000000E+00  0.00000000E+00
  0.00000000E+00  0.00000000E+00  0.00000000E+00
  0.00000000E+00  0.00000000E+00  0.00000000E+00
  0.00000000E+00  0.00000000E+00  0.00000000E+00
  0.00000000E+00  0.00000000E+00  0.00000000E+00
  0.00000000E+00  0.00000000E+00  0.00000000E+00
  0.00000000E+00  0.00000000E+00  0.00000000E+00
  0.00000000E+00  0.00000000E+00  0.00000000E+00
  0.00000000E+00  0.00000000E+00  0.00000000E+00
  0.00000000E+00  0.00000000E+00  0.00000000E+00
  0.00000000E+00  0.00000000E+00  0.00000000E+00
  0.00000000E+00  0.00000000E+00  0.00000000E+00
  0.00000000E+00  0.00000000E+00  0.00000000E+00
  0.00000000E+00  0.00000000E+00  0.00000000E+00
  0.00000000E+00  0.00000000E+00  0.00000000E+00
  0.00000000E+00  0.00000000E+00  0.00000000E+00
  0.00000000E+00  0.00000000E+00  0.00000000E+00
  0.00000000E+00  0.00000000E+00  0.00000000E+00
  0.00000000E+00  0.00000000E+00  0.00000000E+00
  0.00000000E+00  0.00000000E+00  0.00000000E+00
  0.00000000E+00  0.00000000E+00  0.00000000E+00
  0.00000000E+00  0.00000000E+00  0.00000000E+00
  0.00000000E+00  0.00000000E+00  0.00000000E+00
  0.00000000E+00  0.00000000E+00  0.00000000E+00
  0.00000000E+00  0.00000000E+00  0.00000000E+00
  0.00000000E+00  0.00000000E+00  0.00000000E+00
  0.00000000E+00  0.00000000E+00  0.00000000E+00
  0.00000000E+00  0.00000000E+00  0.00000000E+00
  0.00000000E+00  0.00000000E+00  0.00000000E+00
  0.00000000E+00  0.00000000E+00  0.00000000E+00
  0.00000000E+00  0.00000000E+00  0.00000000E+00
  0.00000000E+00  0.00000000E+00  0.00000000E+00
  0.00000000E+00  0.00000000E+00  0.00000000E+00
  0.00000000E+00  0.00000000E+00  0.00000000E+00
  0.00000000E+00  0.00000000E+00  0.00000000E+00
  0.00000000E+00  0.00000000E+00  0.00000000E+00
  0.00000000E+00  0.00000000E+00  0.00000000E+00
  0.00000000E+00  0.00000000E+00  0.00000000E+00
  0.00000000E+00  0.00000000E+00  0.00000000E+00
  0.00000000E+00  0.00000000E+00  0.00000000E+00
  0.00000000E+00  0.00000000E+00  0.00000000E+00
  0.00000000E+00  0.00000000E+00  0.00000000E+00
  0.00000000E+00  0.00000000E+00  0.00000000E+00
  0.00000000E+00  0.00000000E+00  0.00000000E+00
  0.00000000E+00  0.00000000E+00  0.00000000E+00
  0.00000000E+00  0.00000000E+00  0.00000000E+00
  0.00000000E+00  0.00000000E+00  0.00000000E+00
  0.00000000E+00  0.00000000E+00  0.00000000E+00
  0.00000000E+00  0.00000000E+00  0.00000000E+00
  0.00000000E+00  0.00000000E+00  0.00000000E+00
  0.00000000E+00  0.00000000E+00  0.00000000E+00
  0.00000000E+00  0.00000000E+00  0.00000000E+00
  0.00000000E+00  0.00000000E+00  0.00000000E+00
  0.00000000E+00  0.00000000E+00  0.00000000E+00
  0.00000000E+00  0.00000000E+00  0.00000000E+00
  0.00000000E+00  0.00000000E+00  0.00000000E+00
  0.00000000E+00  0.00000000E+00  0.00000000E+00
  0.00000000E+00  0.00000000E+00  0.00000000E+00
  0.00000000E+00  0.00000000E+00  0.00000000E+00
  0.00000000E+00  0.00000000E+00  0.00000000E+00
  0.00000000E+00  0.00000000E+00  0.00000000E+00
  0.00000000E+00  0.00000000E+00  0.00000000E+00
  0.00000000E+00  0.00000000E+00  0.00000000E+00
  0.00000000E+00  0.00000000E+00  0.00000000E+00
  0.00000000E+00  0.00000000E+00  0.00000000E+00
  0.00000000E+00  0.00000000E+00  0.00000000E+00
  0.00000000E+00  0.00000000E+00  0.00000000E+00
  0.00000000E+00  0.00000000E+00  0.00000000E+00
  0.00000000E+00  0.00000000E+00  0.00000000E+00
  0.00000000E+00  0.00000000E+00  0.00000000E+00
  0.00000000E+00  0.00000000E+00  0.00000000E+00
  0.00000000E+00  0.00000000E+00  0.00000000E+00
  0.00000000E+00  0.00000000E+00  0.00000000E+00
  0.00000000E+00  0.00000000E+00  0.00000000E+00
  0.00000000E+00  0.00000000E+00  0.00000000E+00
  0.00000000E+00  0.00000000E+00  0.00000000E+00
  0.00000000E+00  0.00000000E+00  0.00000000E+00
  0.00000000E+00  0.00000000E+00  0.00000000E+00
  0.00000000E+00  0.00000000E+00  0.00000000E+00
  0.00000000E+00  0.00000000E+00  0.00000000E+00
  0.00000000E+00  0.00000000E+00  0.00000000E+00
  0.00000000E+00  0.00000000E+00  0.00000000E+00
  0.00000000E+00  0.00000000E+00  0.00000000E+00
  0.00000000E+00  0.00000000E+00  0.00000000E+00
  0.00000000E+00  0.00000000E+00  0.00000000E+00
  0.00000000E+00  0.00000000E+00  0.00000000E+00
  0.00000000E+00  0.00000000E+00  0.00000000E+00
  0.00000000E+00  0.00000000E+00  0.00000000E+00
  0.00000000E+00  0.00000000E+00  0.00000000E+00
  0.00000000E+00  0.00000000E+00  0.00000000E+00
  0.00000000E+00  0.00000000E+00  0.00000000E+00
  0.00000000E+00  0.00000000E+00  0.00000000E+00
  0.00000000E+00  0.00000000E+00  0.00000000E+00
  0.00000000E+00  0.00000000E+00  0.00000000E+00
  0.00000000E+00  0.00000000E+00  0.00000000E+00
  0.00000000E+00  0.00000000E+00  0.00000000E+00
  0.00000000E+00  0.00000000E+00  0.00000000E+00
  0.00000000E+00  0.00000000E+00  0.00000000E+00
  0.00000000E+00  0.00000000E+00  0.00000000E+00
  0.00000000E+00  0.00000000E+00  0.00000000E+00
  0.00000000E+00  0.00000000E+00  0.00000000E+00
  0.00000000E+00  0.00000000E+00  0.00000000E+00
  0.00000000E+00  0.00000000E+00  0.00000000E+00
  0.00000000E+00  0.00000000E+00  0.00000000E+00
  0.00000000E+00  0.00000000E+00  0.00000000E+00
  0.00000000E+00  0.00000000E+00  0.00000000E+00
  0.00000000E+00  0.00000000E+00  0.00000000E+00
  0.00000000E+00  0.00000000E+00  0.00000000E+00
  0.00000000E+00  0.00000000E+00  0.00000000E+00
  0.00000000E+00  0.00000000E+00  0.00000000E+00
  0.00000000E+00  0.00000000E+00  0.00000000E+00
  0.00000000E+00  0.00000000E+00  0.00000000E+00
  0.00000000E+00  0.00000000E+00  0.00000000E+00
  0.00000000E+00  0.00000000E+00  0.00000000E+00
  0.00000000E+00  0.00000000E+00  0.00000000E+00
  0.00000000E+00  0.00000000E+00  0.00000000E+00
  0.00000000E+00  0.00000000E+00  0.00000000E+00
  0.00000000E+00  0.00000000E+00  0.00000000E+00
  0.00000000E+00  0.00000000E+00  0.00000000E+00
  0.00000000E+00  0.00000000E+00  0.00000000E+00
  0.00000000E+00  0.00000000E+00  0.00000000E+00
  0.00000000E+00  0.00000000E+00  0.00000000E+00
  0.00000000E+00  0.00000000E+00  0.00000000E+00
  0.00000000E+00  0.00000000E+00  0.00000000E+00
  0.00000000E+00  0.00000000E+00  0.00000000E+00