CuInSe2gb                               
   1.00000000000000     
     9.7266780392896699    0.0000000000000000    0.0000000000000000
     0.0000000000000000    8.4235502764570693    0.0000000000000000
     0.0000000000000000    0.0000000000000000   45.0000000000000000
   Fe   Mn
   281     7
Direct
  0.0538177363891611  0.7009250727135201  0.2112499264634882
  0.3193130241847221  0.7240592736355882  0.8762851103258424
  0.6883819443321975  0.9586258545249589  0.6114749418787114
  0.4384155945590696  0.4582646317199069  0.6115848529389151
  0.4406596073363852  0.2873554314010255  0.2550506858909391
  0.0585968956448834  0.3880154088950125  0.8335312504929032
  0.3087983449613886  0.8883167430646032  0.8336686527209316
  0.4469541440435913  0.6263032913245423  0.7003933359297986
  0.0599002550345224  0.2128095916025949  0.7449037965819644
  0.1787268190429527  0.4516062724555620  0.2113868433964685
  0.5677560777075781  0.2105451236552336  0.4774311394186875
  0.0665798164670800  0.8751768570386280  0.5668825385048833
  0.5690107874021934  0.2236907035980882  0.8761909479003928
  0.8086800243268377  0.5277995003411735  0.1239996708520452
  0.4286859189551935  0.9514901548642607  0.2113717132289192
  0.5665039652077258  0.3751023258011220  0.5668225945120470
  0.8110461350975554  0.0417909641439738  0.3882951280040898
  0.6819753826786088  0.7888300709842001  0.5224081627028139
  0.4427821413265435  0.4608324368268881  0.4774822283679657
  0.4338378666668103  0.9624055205164759  0.7446433660492535
  0.4413749928942243  0.6251249335933236  0.5668370912292361
  0.5716553175165542  0.8766497677389369  0.7005215996241660
  0.3075312326578989  0.0265348126940910  0.1238844224106999
  0.6896712825658395  0.9589276512891725  0.3439754186721617
  0.6860502557567301  0.7827194333148201  0.1242021376262660
  0.0528651793583082  0.3738303592692813  0.2995784516639037
  0.6899149166206696  0.4670608747541382  0.8761507127151523
  0.4291528974365024  0.4515183411118737  0.2115294914587264
  0.8085758914210056  0.3751882335456036  0.4330831913373838
  0.5632750158770837  0.7084242261185296  0.6115431934609090
  0.5598716930824468  0.5408521295215610  0.6559415414009494
  0.8170220090570212  0.8625727899754648  0.1665951166591154
  0.5656332204451047  0.5375206434515444  0.2551635915495147
  0.6894725134309618  0.4589546361677386  0.3438963254882920
  0.1914865647422644  0.6113249740731348  0.1665083833821512
  0.1941391071434338  0.7993562319868466  0.7887867151944675
  0.4471954074912256  0.1261132052911229  0.7003488623549778
  0.9279052702523828  0.6236073300372348  0.2996157039091990
  0.3162448746623715  0.2227873111461642  0.8762070915617829
  0.3165663763807244  0.8749356659342803  0.5668768736206820
  0.8172911385959656  0.2248529310672961  0.8762777298988623
  0.8097092032334934  0.5406952318331563  0.6558847371979293
  0.5587731016433313  0.5278309729726449  0.1238795783015427
  0.5692339420699156  0.0496979969667991  0.7889354386068191
  0.1909858752568159  0.2873356279735853  0.2552634475705781
  0.8087184119827876  0.8753353348648123  0.4330352916300594
  0.5722389038935960  0.3763516379438546  0.7003622537748981
  0.0577364100288947  0.0264396981602384  0.1240163624349507
  0.3099213838106903  0.5407914832308313  0.6559597917913420
  0.5648673362410057  0.2089524611298166  0.3439701750515918
  0.1881525868757659  0.9584791722157664  0.6114809899613382
  0.3029516529751649  0.3738558897121440  0.2996276627334992
  0.4346288567467319  0.7906512429879747  0.6558975373085004
  0.1949408981183736  0.2991863032266715  0.7888249561276570
  0.0674564189381501  0.3624484857454862  0.1665774500926173
  0.6971221940344136  0.6260265453888285  0.7004623309446746
  0.3113454613527980  0.5413753739670036  0.3884699826054785
  0.0676587304644305  0.7234936268769183  0.8761597332514675
  0.9337671990698186  0.6376472539339380  0.8339899507419205
  0.3197258068319173  0.5494274454004138  0.7888340262128344
  0.3045627162941171  0.2005388892087236  0.2112336225452815
  0.0679098519934044  0.7106659338701068  0.4774743947976631
  0.5541847597311645  0.2009511952805674  0.2111527848821054
  0.3096143969983597  0.2124743040659809  0.7449465017452788
  0.0719946840552543  0.3764190166788102  0.7004960326664349
  0.1827844177927770  0.6377193483450201  0.8334395616139462
  0.0694646781292219  0.0493536642583597  0.7889246913865854
  0.4416621984024223  0.1249220754738132  0.5669072692193597
  0.9348387749503970  0.2905750344345753  0.6558374079415632
  0.8042092572906924  0.2011085101660088  0.2112249018625625
  0.9287292894139545  0.9514916284287396  0.2112996558560210
  0.9415278308130057  0.6251644745754084  0.5668075196435279
  0.8084495476359638  0.3875058490795068  0.8335221582729445
  0.1968454141671458  0.6259092794414504  0.7003990386798397
  0.8086349879590398  0.8873941909401967  0.8335682908930757
  0.6848529354624336  0.2908323454425309  0.6560519332335525
  0.3131095593766635  0.2083199298103729  0.6115108554669860
  0.4345094794118786  0.4624583338413075  0.7449490845970398
  0.4361053690068326  0.7911946027190001  0.3883900991997227
  0.6844963380188940  0.9624451312236116  0.7448134152848663
  0.8039610660822699  0.7008783267582958  0.2112749692829423
  0.8135498250095090  0.7083574357056819  0.6116003943602508
  0.4368103262975653  0.7831282594045172  0.1242194699464647
  0.3098321894183956  0.7120164588664855  0.7448348457399248
  0.3209053324848682  0.0491935999963217  0.7887894140905822
  0.8111961832242486  0.5421052743484642  0.3883263342052507
  0.6819691856558209  0.2887977726816645  0.5224269715628039
  0.6959031108435288  0.7990149589618309  0.7887419432487974
  0.1906425624528820  0.7874565729741475  0.2552854995383698
  0.6916071537888991  0.1122134903153430  0.1664076822327298
  0.6926890358964468  0.9606760742655385  0.4774145240128115
  0.9404865052308105  0.9593170439364854  0.3441265908815455
  0.8071745431117087  0.0392149977069519  0.5225364848192992
  0.6838523821120263  0.6248379124957747  0.4329387655976459
  0.4396109594327932  0.4586705318722651  0.3440608196819757
  0.8101506785456243  0.2119824818215396  0.7445748640275230
  0.3167544134627266  0.8618506801890451  0.1666219060124268
  0.5666517493377301  0.8748868660434062  0.5668764644532298
  0.8076268405816942  0.0269495812373538  0.1239099415671794
  0.4283703061259825  0.6236675590965814  0.2994101138969221
  0.8171360618125656  0.7239804171543706  0.8763060377047991
  0.6882197839097873  0.4585353017727319  0.6114933867704667
  0.5586199357092076  0.3878325038845166  0.8335170815364357
  0.8031081877454211  0.3735877251050188  0.2994691842899947
  0.1859492177582349  0.2910811007786481  0.3883648658718878
  0.8199300163395326  0.5494171880519030  0.7889379488005726
  0.1822468956872218  0.7893156346484208  0.5225349709463887
  0.3029287943298678  0.8738373228628212  0.2995549230649379
  0.1788630586605669  0.9510845559338050  0.2112262801869544
  0.1845348784268604  0.4624522629163001  0.7449488383722622
  0.4323535705680276  0.2888685353690025  0.5223512828028206
  0.0648891397626480  0.7085759796561099  0.3438641322674676
  0.1847635259277153  0.7905090250281629  0.6558599761989472
  0.4446330526685220  0.7993758352436477  0.7888084130394877
  0.6836765873934927  0.1249854843151765  0.4329120150844440
  0.9321309367443930  0.7885869143201043  0.5224394363387452
  0.6917146966265740  0.6123577948452978  0.1667671108254337
  0.8145181585822212  0.7084522625001369  0.3438389158299879
  0.9344336585533032  0.4627156950920780  0.7449404638504831
  0.1898721092067914  0.4588764544591248  0.3439750677526173
  0.5704412240808098  0.5496135003050249  0.7888426332394171
  0.5664434564484612  0.3625108017531856  0.1664519468597390
  0.5646912300049701  0.7088387705357774  0.3439381163158872
  0.5529707092471552  0.3736626618396358  0.2995818574626972
  0.1895698928181625  0.4672458626614274  0.8761584960341073
  0.1924771196182882  0.1119337540734017  0.1665844819750975
  0.4450350118697353  0.2996049259298594  0.7887186490098299
  0.6909863089881148  0.7873691875530319  0.2554053388119971
  0.9338467390712359  0.1379145409081109  0.8335885205155773
  0.4426658369251900  0.9606164584573116  0.4774394833798288
  0.5659420939663466  0.7228133959502741  0.8761989731254588
  0.1926012496546365  0.4608664990400655  0.4774845529874556
  0.9354770433287102  0.2824934277837240  0.1242403932525153
  0.3113947353703683  0.0413877812886992  0.3884023252722525
  0.0600440969537200  0.0405497617472889  0.6560032877674745
  0.5585605843587562  0.3748932510602564  0.4330697870742314
  0.6843430293107112  0.4626584075947872  0.7449432525403680
  0.5600882284406140  0.2124169901972406  0.7448074773180866
  0.9470700638428239  0.1263297655236371  0.7003920332827985
  0.5597798703195117  0.0405913782983208  0.6558643411954906
  0.5570245036040052  0.5391699545028950  0.5224922945270535
  0.1780099920072855  0.1236757459366694  0.2995531346739215
  0.4414238228682215  0.1121354267603097  0.1665292629892882
  0.6777093794485476  0.6236952890286079  0.2996301124618756
  0.9280718226748509  0.1233849000391006  0.2996437260174751
  0.8166533166852883  0.3750791023727092  0.5668907530915930
  0.0529488894757009  0.8737312439374927  0.2995070245439159
  0.1916336681529184  0.6250073948898376  0.5669025425332966
  0.9447015374672433  0.7997424176042919  0.7888146230565128
  0.3084950889937654  0.3878943291327761  0.8335478390406597
  0.9397884286830012  0.4682505173394046  0.8760975154625370
  0.4340923802031447  0.6387380400326786  0.8337046022930440
  0.0645733317577455  0.2085386317729187  0.3438450816200872
  0.1888739922617902  0.9687696687031970  0.8759684326726883
  0.9357359279606389  0.7823063018642897  0.1242129012525371
  0.6865490326502026  0.7915412036254432  0.3884384289952527
  0.9347451008806275  0.7905669219114850  0.6559005616804423
  0.9415399250184454  0.1121576347548021  0.1664447636136761
  0.4350584935395479  0.2908549711582649  0.6560634822553105
  0.0546741192039614  0.2009424596259257  0.2111938442237220
  0.6789017347790969  0.9515355580356026  0.2113372149339089
  0.1784629747425921  0.6237018657713567  0.2994190488393514
  0.8221158897412398  0.8762203231042963  0.7004043403834983
  0.9470229918242904  0.6262661685184274  0.7004106397143293
  0.1972400825263618  0.1263828817482590  0.7003713972402014
  0.9425620462036772  0.4606713845675690  0.4771852632166592
  0.8134906129046042  0.2084780000236348  0.6115651709858357
  0.1835128965288526  0.6248974982774508  0.4330903981435691
  0.4280459936952816  0.1235754984748586  0.2994871902219981
  0.6782419991658380  0.1236294965423363  0.2994311523797379
  0.5614603228892978  0.5415579616848258  0.3884959461398074
  0.8143287735828978  0.2085756498637810  0.3439239979326835
  0.4399555394862503  0.4680593385773395  0.8760087445463379
  0.5584204178202330  0.8881643926420157  0.8335874817285476
  0.3176716910589870  0.2104963416261160  0.4772856631885549
  0.1926847331936575  0.9607417321346741  0.4774173472112244
  0.0582475044577689  0.8877240625429665  0.8334509804476569
  0.0572683053119688  0.5391375946416007  0.5225041796308868
  0.9426299941585082  0.9606817433625425  0.4772409609515915
  0.0633380639838387  0.7082423605846755  0.6115984422485625
  0.5573024321149779  0.0392824881199471  0.5224846667678824
  0.6950261835791419  0.2993585318924792  0.7887540311254981
  0.8175363561411960  0.3617609087456498  0.1666136396548154
  0.4337329919120188  0.1248483225715131  0.4329961475743441
  0.0679256863416594  0.2105750014525261  0.4774589813499193
  0.3098630699178294  0.0407963336290830  0.6559444170695339
  0.4321752608979625  0.7889473530802054  0.5223273248516834
  0.1841476594451003  0.1376817370421394  0.8336765735533307
  0.1861730802616787  0.2827972283269660  0.1242652392755921
  0.9398391480053458  0.4593024665399966  0.3439785111686398
  0.5674797868614102  0.8620827611115289  0.1666051482433054
  0.3040976043487167  0.7009617338392305  0.2112051704699380
  0.9415053189989612  0.6123550891779252  0.1666061772511143
  0.1882934024944818  0.4585790059110070  0.6114907318153852
  0.0720391589161578  0.8764391193447425  0.7003417563667159
  0.0597700130740197  0.5405905422835778  0.6559018374856814
  0.3083543555540171  0.5262990826741130  0.1239915154005386
  0.9365503398035978  0.7912980584816047  0.3884354228636603
  0.9447531625610207  0.2985884444191026  0.7888068229909868
  0.1847908359332026  0.2906071418995961  0.6559233381652553
  0.9381301610952287  0.9583384934944288  0.6115289177608678
  0.8099499603955755  0.7121675772595304  0.7448724346891439
  0.6912348565917591  0.2873827788253859  0.2552588651392583
  0.0592564063637181  0.7123837702840466  0.7449995332507413
  0.6789204114507104  0.4514762304036267  0.2112444850958882
  0.8177633486666011  0.2106830308108186  0.4774486709458157
  0.5675405501667065  0.7105481393047044  0.4774257230061338
  0.0669236681712874  0.8623494491614109  0.1666151662972105
  0.9324234322144955  0.2884915776000891  0.5224090289056991
  0.6846143768431714  0.7904472309894489  0.6558844830058714
  0.0584258136606192  0.8748945101282830  0.4330369805127500
  0.0680162312541987  0.2237328236388424  0.8763478249910355
  0.8098189539621691  0.0405667225602322  0.6559314334205932
  0.5589276846257371  0.0267917687105955  0.1240191624671553
  0.3088019019538270  0.3750883405455160  0.4328832867171818
  0.3164526288017093  0.3748254684612952  0.5668432943418743
  0.3176493134280626  0.7103817128537488  0.4773185077336982
  0.0570989671570817  0.0392772898266870  0.5225242239979796
  0.3218473628435715  0.8764750899869874  0.7005038043054227
  0.0653144018753780  0.5376867994026556  0.2551383350751200
  0.6833060335401172  0.1375450177384334  0.8335148009115199
  0.8151452752564712  0.0378640126279526  0.2551763805241120
  0.1834223597959346  0.1250097656236561  0.4331015280892851
  0.6974943912087941  0.1262614923723710  0.7004737813420894
  0.1823294414184568  0.2892532928670914  0.5225089836061353
  0.4409934055383363  0.7876131350690004  0.2552970214933022
  0.4415932350792163  0.6111137483848920  0.1664838220510547
  0.0633879400210833  0.2084128326504027  0.6115251401363372
  0.1863133235304076  0.7909534550512763  0.3882661258389241
  0.3068961776409874  0.5387869508948753  0.5224356846111076
  0.8218493362259863  0.3764804717185121  0.7002319875537348
  0.6863315506490363  0.2911265016576948  0.3884333848338731
  0.1916844490071322  0.1250688606949886  0.5668426274710564
  0.6900943256403405  0.9691205127374377  0.8759748042571150
  0.6917394052051068  0.1249083720362736  0.5669017423150762
  0.4400683859838666  0.9590307364335876  0.3440685278395153
  0.1837636970755865  0.9626042972585177  0.7446506550307125
  0.9404676344313374  0.7876997218026616  0.2551286109042495
  0.5586605606552282  0.8748865239599473  0.4330310247618368
  0.3086343214818696  0.8750495380417659  0.4330867120539680
  0.8072838372505109  0.5394168097124913  0.5225238678068108
  0.9292536163143182  0.4513256160996080  0.2112327541200681
  0.3154573914382385  0.5377297405160421  0.2551347629189988
  0.5617477465182398  0.0415467519105545  0.3884280163706709
  0.9381696458794749  0.4581485950562709  0.6115879166584908
  0.0616079398620796  0.0415867543948333  0.3884251807992886
  0.0614396054703402  0.5415969106296040  0.3884200686826232
  0.4360905737109023  0.2910489147897788  0.3883836166734772
  0.6927840192730360  0.4607218287316425  0.4774206830462670
  0.0666202893410891  0.3749457638593053  0.5668901090604576
  0.5542981354797174  0.7008615066986453  0.2111880377626398
  0.9404948358433879  0.2872737721571246  0.2552175259834777
  0.8197820454014281  0.0492862969143786  0.7889400007626668
  0.1897203768250979  0.9588554771941479  0.3439881277753631
  0.5529075096218422  0.8737686198643428  0.2995947258363479
  0.0584650523668452  0.3748689121693768  0.4328697499467004
  0.3147788766100100  0.7087234568057915  0.3439752669894274
  0.3146361657353835  0.2089421450009779  0.3439121134111054
  0.9416172098434971  0.1251880238924200  0.5668200802679749
  0.4385908583419317  0.9587203012581729  0.6115428839974325
  0.5651767693144010  0.0377134943199904  0.2551027622744848
  0.1860373950227762  0.7830435360189356  0.1242407844330921
  0.0655194050257604  0.0376614067103962  0.2551494887336301
  0.6915995218650751  0.6249692331484807  0.5668993521036697
  0.0574025579746372  0.5270790884307630  0.1240935829498780
  0.3071102995036840  0.0385481332274300  0.5223336075657677
  0.6872973185756872  0.2820934253338401  0.1242451604034002
  0.8177773300882935  0.7107543809326955  0.4774869985677113
  0.4335741808010888  0.1374883734987292  0.8336093440650101
  0.3222374784588858  0.3764355245001491  0.7003818780849025
  0.6841236783137971  0.6381703741242565  0.8333734792106600
  0.5596532914151431  0.7123397269362371  0.7448932439405360
  0.9364150284684016  0.2913473961876883  0.3884604964576315
  0.9398313293475304  0.9675781140097036  0.8762940887979971
  0.5629344690262246  0.2081415743237366  0.6113758805291043
  0.8166253617363728  0.8750671906659949  0.5668944194713089
  0.8032712363605351  0.8734247094076633  0.2994521547660534
  0.3156410387191256  0.0376708207688494  0.2553178733910785
  0.4360323601754100  0.2830997582858955  0.1240562157621435
  0.3134417267644980  0.7083986078775693  0.6115850599663349
  0.4335884289949841  0.6248968697685310  0.4329949499338318
  0.9329343350070903  0.6248682079542975  0.4331419338672752
  0.4399031238800837  0.9666853969918524  0.8758210930058681
  0.0712910072412623  0.5490755502629054  0.7888242045602464
  0.9335037300217661  0.1248644782771733  0.4330804646909363
  0.3185516243042062  0.3626714409336928  0.1658629807018738
  0.9335672962739454  0.9623878168640378  0.7446900071417697
  0.8162324571781572  0.5379195423323953  0.2553058323133460
 
  0.00000000E+00  0.00000000E+00  0.00000000E+00
  0.00000000E+00  0.00000000E+00  0.00000000E+00
  0.00000000E+00  0.00000000E+00  0.00000000E+00
  0.00000000E+00  0.00000000E+00  0.00000000E+00
  0.00000000E+00  0.00000000E+00  0.00000000E+00
  0.00000000E+00  0.00000000E+00  0.00000000E+00
  0.00000000E+00  0.00000000E+00  0.00000000E+00
  0.00000000E+00  0.00000000E+00  0.00000000E+00
  0.00000000E+00  0.00000000E+00  0.00000000E+00
  0.00000000E+00  0.00000000E+00  0.00000000E+00
  0.00000000E+00  0.00000000E+00  0.00000000E+00
  0.00000000E+00  0.00000000E+00  0.00000000E+00
  0.00000000E+00  0.00000000E+00  0.00000000E+00
  0.00000000E+00  0.00000000E+00  0.00000000E+00
  0.00000000E+00  0.00000000E+00  0.00000000E+00
  0.00000000E+00  0.00000000E+00  0.00000000E+00
  0.00000000E+00  0.00000000E+00  0.00000000E+00
  0.00000000E+00  0.00000000E+00  0.00000000E+00
  0.00000000E+00  0.00000000E+00  0.00000000E+00
  0.00000000E+00  0.00000000E+00  0.00000000E+00
  0.00000000E+00  0.00000000E+00  0.00000000E+00
  0.00000000E+00  0.00000000E+00  0.00000000E+00
  0.00000000E+00  0.00000000E+00  0.00000000E+00
  0.00000000E+00  0.00000000E+00  0.00000000E+00
  0.00000000E+00  0.00000000E+00  0.00000000E+00
  0.00000000E+00  0.00000000E+00  0.00000000E+00
  0.00000000E+00  0.00000000E+00  0.00000000E+00
  0.00000000E+00  0.00000000E+00  0.00000000E+00
  0.00000000E+00  0.00000000E+00  0.00000000E+00
  0.00000000E+00  0.00000000E+00  0.00000000E+00
  0.00000000E+00  0.00000000E+00  0.00000000E+00
  0.00000000E+00  0.00000000E+00  0.00000000E+00
  0.00000000E+00  0.00000000E+00  0.00000000E+00
  0.00000000E+00  0.00000000E+00  0.00000000E+00
  0.00000000E+00  0.00000000E+00  0.00000000E+00
  0.00000000E+00  0.00000000E+00  0.00000000E+00
  0.00000000E+00  0.00000000E+00  0.00000000E+00
  0.00000000E+00  0.00000000E+00  0.00000000E+00
  0.00000000E+00  0.00000000E+00  0.00000000E+00
  0.00000000E+00  0.00000000E+00  0.00000000E+00
  0.00000000E+00  0.00000000E+00  0.00000000E+00
  0.00000000E+00  0.00000000E+00  0.00000000E+00
  0.00000000E+00  0.00000000E+00  0.00000000E+00
  0.00000000E+00  0.00000000E+00  0.00000000E+00
  0.00000000E+00  0.00000000E+00  0.00000000E+00
  0.00000000E+00  0.00000000E+00  0.00000000E+00
  0.00000000E+00  0.00000000E+00  0.00000000E+00
  0.00000000E+00  0.00000000E+00  0.00000000E+00
  0.00000000E+00  0.00000000E+00  0.00000000E+00
  0.00000000E+00  0.00000000E+00  0.00000000E+00
  0.00000000E+00  0.00000000E+00  0.00000000E+00
  0.00000000E+00  0.00000000E+00  0.00000000E+00
  0.00000000E+00  0.00000000E+00  0.00000000E+00
  0.00000000E+00  0.00000000E+00  0.00000000E+00
  0.00000000E+00  0.00000000E+00  0.00000000E+00
  0.00000000E+00  0.00000000E+00  0.00000000E+00
  0.00000000E+00  0.00000000E+00  0.00000000E+00
  0.00000000E+00  0.00000000E+00  0.00000000E+00
  0.00000000E+00  0.00000000E+00  0.00000000E+00
  0.00000000E+00  0.00000000E+00  0.00000000E+00
  0.00000000E+00  0.00000000E+00  0.00000000E+00
  0.00000000E+00  0.00000000E+00  0.00000000E+00
  0.00000000E+00  0.00000000E+00  0.00000000E+00
  0.00000000E+00  0.00000000E+00  0.00000000E+00
  0.00000000E+00  0.00000000E+00  0.00000000E+00
  0.00000000E+00  0.00000000E+00  0.00000000E+00
  0.00000000E+00  0.00000000E+00  0.00000000E+00
  0.00000000E+00  0.00000000E+00  0.00000000E+00
  0.00000000E+00  0.00000000E+00  0.00000000E+00
  0.00000000E+00  0.00000000E+00  0.00000000E+00
  0.00000000E+00  0.00000000E+00  0.00000000E+00
  0.00000000E+00  0.00000000E+00  0.00000000E+00
  0.00000000E+00  0.00000000E+00  0.00000000E+00
  0.00000000E+00  0.00000000E+00  0.00000000E+00
  0.00000000E+00  0.00000000E+00  0.00000000E+00
  0.00000000E+00  0.00000000E+00  0.00000000E+00
  0.00000000E+00  0.00000000E+00  0.00000000E+00
  0.00000000E+00  0.00000000E+00  0.00000000E+00
  0.00000000E+00  0.00000000E+00  0.00000000E+00
  0.00000000E+00  0.00000000E+00  0.00000000E+00
  0.00000000E+00  0.00000000E+00  0.00000000E+00
  0.00000000E+00  0.00000000E+00  0.00000000E+00
  0.00000000E+00  0.00000000E+00  0.00000000E+00
  0.00000000E+00  0.00000000E+00  0.00000000E+00
  0.00000000E+00  0.00000000E+00  0.00000000E+00
  0.00000000E+00  0.00000000E+00  0.00000000E+00
  0.00000000E+00  0.00000000E+00  0.00000000E+00
  0.00000000E+00  0.00000000E+00  0.00000000E+00
  0.00000000E+00  0.00000000E+00  0.00000000E+00
  0.00000000E+00  0.00000000E+00  0.00000000E+00
  0.00000000E+00  0.00000000E+00  0.00000000E+00
  0.00000000E+00  0.00000000E+00  0.00000000E+00
  0.00000000E+00  0.00000000E+00  0.00000000E+00
  0.00000000E+00  0.00000000E+00  0.00000000E+00
  0.00000000E+00  0.00000000E+00  0.00000000E+00
  0.00000000E+00  0.00000000E+00  0.00000000E+00
  0.00000000E+00  0.00000000E+00  0.00000000E+00
  0.00000000E+00  0.00000000E+00  0.00000000E+00
  0.00000000E+00  0.00000000E+00  0.00000000E+00
  0.00000000E+00  0.00000000E+00  0.00000000E+00
  0.00000000E+00  0.00000000E+00  0.00000000E+00
  0.00000000E+00  0.00000000E+00  0.00000000E+00
  0.00000000E+00  0.00000000E+00  0.00000000E+00
  0.00000000E+00  0.00000000E+00  0.00000000E+00
  0.00000000E+00  0.00000000E+00  0.00000000E+00
  0.00000000E+00  0.00000000E+00  0.00000000E+00
  0.00000000E+00  0.00000000E+00  0.00000000E+00
  0.00000000E+00  0.00000000E+00  0.00000000E+00
  0.00000000E+00  0.00000000E+00  0.00000000E+00
  0.00000000E+00  0.00000000E+00  0.00000000E+00
  0.00000000E+00  0.00000000E+00  0.00000000E+00
  0.00000000E+00  0.00000000E+00  0.00000000E+00
  0.00000000E+00  0.00000000E+00  0.00000000E+00
  0.00000000E+00  0.00000000E+00  0.00000000E+00
  0.00000000E+00  0.00000000E+00  0.00000000E+00
  0.00000000E+00  0.00000000E+00  0.00000000E+00
  0.00000000E+00  0.00000000E+00  0.00000000E+00
  0.00000000E+00  0.00000000E+00  0.00000000E+00
  0.00000000E+00  0.00000000E+00  0.00000000E+00
  0.00000000E+00  0.00000000E+00  0.00000000E+00
  0.00000000E+00  0.00000000E+00  0.00000000E+00
  0.00000000E+00  0.00000000E+00  0.00000000E+00
  0.00000000E+00  0.00000000E+00  0.00000000E+00
  0.00000000E+00  0.00000000E+00  0.00000000E+00
  0.00000000E+00  0.00000000E+00  0.00000000E+00
  0.00000000E+00  0.00000000E+00  0.00000000E+00
  0.00000000E+00  0.00000000E+00  0.00000000E+00
  0.00000000E+00  0.00000000E+00  0.00000000E+00
  0.00000000E+00  0.00000000E+00  0.00000000E+00
  0.00000000E+00  0.00000000E+00  0.00000000E+00
  0.00000000E+00  0.00000000E+00  0.00000000E+00
  0.00000000E+00  0.00000000E+00  0.00000000E+00
  0.00000000E+00  0.00000000E+00  0.00000000E+00
  0.00000000E+00  0.00000000E+00  0.00000000E+00
  0.00000000E+00  0.00000000E+00  0.00000000E+00
  0.00000000E+00  0.00000000E+00  0.00000000E+00
  0.00000000E+00  0.00000000E+00  0.00000000E+00
  0.00000000E+00  0.00000000E+00  0.00000000E+00
  0.00000000E+00  0.00000000E+00  0.00000000E+00
  0.00000000E+00  0.00000000E+00  0.00000000E+00
  0.00000000E+00  0.00000000E+00  0.00000000E+00
  0.00000000E+00  0.00000000E+00  0.00000000E+00
  0.00000000E+00  0.00000000E+00  0.00000000E+00
  0.00000000E+00  0.00000000E+00  0.00000000E+00
  0.00000000E+00  0.00000000E+00  0.00000000E+00
  0.00000000E+00  0.00000000E+00  0.00000000E+00
  0.00000000E+00  0.00000000E+00  0.00000000E+00
  0.00000000E+00  0.00000000E+00  0.00000000E+00
  0.00000000E+00  0.00000000E+00  0.00000000E+00
  0.00000000E+00  0.00000000E+00  0.00000000E+00
  0.00000000E+00  0.00000000E+00  0.00000000E+00
  0.00000000E+00  0.00000000E+00  0.00000000E+00
  0.00000000E+00  0.00000000E+00  0.00000000E+00
  0.00000000E+00  0.00000000E+00  0.00000000E+00
  0.00000000E+00  0.00000000E+00  0.00000000E+00
  0.00000000E+00  0.00000000E+00  0.00000000E+00
  0.00000000E+00  0.00000000E+00  0.00000000E+00
  0.00000000E+00  0.00000000E+00  0.00000000E+00
  0.00000000E+00  0.00000000E+00  0.00000000E+00
  0.00000000E+00  0.00000000E+00  0.00000000E+00
  0.00000000E+00  0.00000000E+00  0.00000000E+00
  0.00000000E+00  0.00000000E+00  0.00000000E+00
  0.00000000E+00  0.00000000E+00  0.00000000E+00
  0.00000000E+00  0.00000000E+00  0.00000000E+00
  0.00000000E+00  0.00000000E+00  0.00000000E+00
  0.00000000E+00  0.00000000E+00  0.00000000E+00
  0.00000000E+00  0.00000000E+00  0.00000000E+00
  0.00000000E+00  0.00000000E+00  0.00000000E+00
  0.00000000E+00  0.00000000E+00  0.00000000E+00
  0.00000000E+00  0.00000000E+00  0.00000000E+00
  0.00000000E+00  0.00000000E+00  0.00000000E+00
  0.00000000E+00  0.00000000E+00  0.00000000E+00
  0.00000000E+00  0.00000000E+00  0.00000000E+00
  0.00000000E+00  0.00000000E+00  0.00000000E+00
  0.00000000E+00  0.00000000E+00  0.00000000E+00
  0.00000000E+00  0.00000000E+00  0.00000000E+00
  0.00000000E+00  0.00000000E+00  0.00000000E+00
  0.00000000E+00  0.00000000E+00  0.00000000E+00
  0.00000000E+00  0.00000000E+00  0.00000000E+00
  0.00000000E+00  0.00000000E+00  0.00000000E+00
  0.00000000E+00  0.00000000E+00  0.00000000E+00
  0.00000000E+00  0.00000000E+00  0.00000000E+00
  0.00000000E+00  0.00000000E+00  0.00000000E+00
  0.00000000E+00  0.00000000E+00  0.00000000E+00
  0.00000000E+00  0.00000000E+00  0.00000000E+00
  0.00000000E+00  0.00000000E+00  0.00000000E+00
  0.00000000E+00  0.00000000E+00  0.00000000E+00
  0.00000000E+00  0.00000000E+00  0.00000000E+00
  0.00000000E+00  0.00000000E+00  0.00000000E+00
  0.00000000E+00  0.00000000E+00  0.00000000E+00
  0.00000000E+00  0.00000000E+00  0.00000000E+00
  0.00000000E+00  0.00000000E+00  0.00000000E+00
  0.00000000E+00  0.00000000E+00  0.00000000E+00
  0.00000000E+00  0.00000000E+00  0.00000000E+00
  0.00000000E+00  0.00000000E+00  0.00000000E+00
  0.00000000E+00  0.00000000E+00  0.00000000E+00
  0.00000000E+00  0.00000000E+00  0.00000000E+00
  0.00000000E+00  0.00000000E+00  0.00000000E+00
  0.00000000E+00  0.00000000E+00  0.00000000E+00
  0.00000000E+00  0.00000000E+00  0.00000000E+00
  0.00000000E+00  0.00000000E+00  0.00000000E+00
  0.00000000E+00  0.00000000E+00  0.00000000E+00
  0.00000000E+00  0.00000000E+00  0.00000000E+00
  0.00000000E+00  0.00000000E+00  0.00000000E+00
  0.00000000E+00  0.00000000E+00  0.00000000E+00
  0.00000000E+00  0.00000000E+00  0.00000000E+00
  0.00000000E+00  0.00000000E+00  0.00000000E+00
  0.00000000E+00  0.00000000E+00  0.00000000E+00
  0.00000000E+00  0.00000000E+00  0.00000000E+00
  0.00000000E+00  0.00000000E+00  0.00000000E+00
  0.00000000E+00  0.00000000E+00  0.00000000E+00
  0.00000000E+00  0.00000000E+00  0.00000000E+00
  0.00000000E+00  0.00000000E+00  0.00000000E+00
  0.00000000E+00  0.00000000E+00  0.00000000E+00
  0.00000000E+00  0.00000000E+00  0.00000000E+00
  0.00000000E+00  0.00000000E+00  0.00000000E+00
  0.00000000E+00  0.00000000E+00  0.00000000E+00
  0.00000000E+00  0.00000000E+00  0.00000000E+00
  0.00000000E+00  0.00000000E+00  0.00000000E+00
  0.00000000E+00  0.00000000E+00  0.00000000E+00
  0.00000000E+00  0.00000000E+00  0.00000000E+00
  0.00000000E+00  0.00000000E+00  0.00000000E+00
  0.00000000E+00  0.00000000E+00  0.00000000E+00
  0.00000000E+00  0.00000000E+00  0.00000000E+00
  0.00000000E+00  0.00000000E+00  0.00000000E+00
  0.00000000E+00  0.00000000E+00  0.00000000E+00
  0.00000000E+00  0.00000000E+00  0.00000000E+00
  0.00000000E+00  0.00000000E+00  0.00000000E+00
  0.00000000E+00  0.00000000E+00  0.00000000E+00
  0.00000000E+00  0.00000000E+00  0.00000000E+00
  0.00000000E+00  0.00000000E+00  0.00000000E+00
  0.00000000E+00  0.00000000E+00  0.00000000E+00
  0.00000000E+00  0.00000000E+00  0.00000000E+00
  0.00000000E+00  0.00000000E+00  0.00000000E+00
  0.00000000E+00  0.00000000E+00  0.00000000E+00
  0.00000000E+00  0.00000000E+00  0.00000000E+00
  0.00000000E+00  0.00000000E+00  0.00000000E+00
  0.00000000E+00  0.00000000E+00  0.00000000E+00
  0.00000000E+00  0.00000000E+00  0.00000000E+00
  0.00000000E+00  0.00000000E+00  0.00000000E+00
  0.00000000E+00  0.00000000E+00  0.00000000E+00
  0.00000000E+00  0.00000000E+00  0.00000000E+00
  0.00000000E+00  0.00000000E+00  0.00000000E+00
  0.00000000E+00  0.00000000E+00  0.00000000E+00
  0.00000000E+00  0.00000000E+00  0.00000000E+00
  0.00000000E+00  0.00000000E+00  0.00000000E+00
  0.00000000E+00  0.00000000E+00  0.00000000E+00