FeMn_288_15                             
    1.000000000000000     
     9.7266779999999997    0.0000000000000000    0.0000000000000000
     0.0000000000000000    8.4235500000000005    0.0000000000000000
     0.0000000000000000    0.0000000000000000   45.0000000000000000
   Fe   Mn
   273    15
Direct
  0.8126393079928010  0.7009227727515266  0.3454060913679807
  0.3121972596752937  0.7075615333837828  0.5656024616857613
  0.8129473856387165  0.7121210647694913  0.6990846796003535
  0.5616880053576234  0.1963825641165343  0.2126117798952537
  0.6872172109772494  0.6268528759949682  0.6544675769910399
  0.5621089310029083  0.7076557555222803  0.5655724400113513
  0.4365944897236383  0.4633734760066129  0.8322452383184946
  0.5619742475564122  0.5303996765631602  0.1255130396058721
  0.4372262191885236  0.6198304969179836  0.4343934713649524
  0.5620445771924235  0.6958239170709068  0.2127105470006971
  0.3130495595192364  0.7119640328137347  0.6990758508159227
  0.0625241259944138  0.5357253153116597  0.3896333184416502
  0.1883587219349782  0.6309850114627253  0.7874057977504216
  0.8135217610207871  0.8810653759908178  0.7873430138093268
  0.4372575337466236  0.6156417386229195  0.3009817822007067
  0.5627789196392107  0.7012898726896678  0.3455375073370469
  0.6877538757668155  0.7969686325167606  0.8741967282213090
  0.3122590424684702  0.7049274438549326  0.4785195960490624
  0.9382780008929146  0.1229581520639154  0.5216903753991677
  0.3121666989926977  0.3660309999405809  0.3010749287089864
  0.3120209981114434  0.2132969448326879  0.8321648705059740
  0.8130911593162620  0.3643184673792425  0.1677831565099226
  0.3129790009814982  0.8703411254586839  0.4347210966118141
  0.6878999728933624  0.6143240193215453  0.1677105076500190
  0.1879592102324202  0.4622197199043843  0.6991648134605677
  0.0626073040314777  0.5469836452480514  0.8742088102114474
  0.5622556228658245  0.0467758057639890  0.7432601460361763
  0.6873957581933375  0.1159861442213130  0.3009768311882848
  0.4385372026954846  0.1313389594850450  0.7873795664603302
  0.1873680745120078  0.7814096888210651  0.2566758262343128
  0.5624308767290847  0.5421939938310588  0.6104117547203808
  0.9374279862318992  0.7856889200501814  0.3896205320938402
  0.4380543223056052  0.6135496015632135  0.1677883110101543
  0.5627028241979409  0.0310112335950270  0.2567216733097987
  0.4370140672072846  0.1230645640183920  0.5216515526117130
  0.1875104265632317  0.7966684185262914  0.7432440001778359
  0.6874072597019673  0.9541162458553688  0.4785515368358618
  0.5621526350990927  0.3765461130296122  0.6545736413823461
  0.9374454564565546  0.2969187592112538  0.7432754541187553
  0.9381369814863530  0.1313257232828104  0.7873382351436313
  0.9377767823290170  0.1204199062779841  0.4344691373112166
  0.4376567678933324  0.1204514053575688  0.4343153493332639
  0.9375964472225681  0.2967136911124876  0.8742791445577740
  0.8118644644850348  0.3660748793417082  0.3009870264535808
  0.1876495729607478  0.7924729550534720  0.6102748976583630
  0.6877228951939977  0.7919197305438571  0.6105188859882796
  0.9373366957223185  0.7814508882470235  0.2566706235011930
  0.8124705270253122  0.8699029389340709  0.4343718795435575
  0.0627190609953478  0.7079641008472684  0.5656046988961974
  0.0627962564317418  0.5424028755910447  0.6104381602577091
  0.3127735247303218  0.0466563788284641  0.8742555161159994
  0.0625891579419101  0.7048807680058380  0.4785460966188269
  0.8121200449564320  0.5359161438930072  0.3896356836693112
  0.3132494726974625  0.8808846599531710  0.7874601825068600
  0.8121904677402086  0.0352912536681573  0.3895856222754110
  0.0626940442188203  0.3654193039569473  0.1676600264650633
  0.3129789158404814  0.3708077950233322  0.4346255146146100
  0.6879428171535016  0.2815643299953410  0.2568107264354669
  0.0623657823764875  0.3732955940518627  0.5215557670501700
  0.8127987569207606  0.7050501087733587  0.4785143083099403
  0.1877031553696773  0.1204358032876621  0.4343328504757685
  0.1879263870538126  0.9617847161885399  0.6990237476163220
  0.0620570811236937  0.1967485443364976  0.2126187788725381
  0.1877798147546349  0.7968083050675190  0.8742195455160725
  0.4372503272983549  0.6265796745524264  0.6545860978520156
  0.6874421208759500  0.7965466508153978  0.7432675351066909
  0.8122331332472871  0.8660144541448540  0.3009142010515831
  0.3123580038550314  0.8765340942136269  0.6544807207614532
  0.1869577517443548  0.4628726451693951  0.8321513597795712
  0.9376656035660242  0.4549797858047304  0.4785674681880268
  0.6869017961275776  0.9627284402868393  0.8321154153546507
  0.5618571107639228  0.2129139397659846  0.8321482897834679
  0.8121101449024964  0.0465599823000191  0.7432535147457264
  0.4380500017621009  0.4548250664656381  0.4785233862310230
  0.1873006902055958  0.6267056133842013  0.6545709293999904
  0.6868296258882127  0.4630807845894795  0.8321074767034031
  0.6877032722726902  0.7857059945479408  0.3896241343659027
  0.5622168913057251  0.8766584822417244  0.6545355176200481
  0.0624612246188571  0.5317007403031264  0.2567438292515137
  0.0618466012313077  0.8659673195143632  0.3010243683044144
  0.0624407544104386  0.0423300559909898  0.6104281764682618
  0.1874146325572456  0.2966530971356983  0.7433367658832878
  0.1873365061985985  0.4579608925538268  0.5656805344019982
  0.6877508529388903  0.9513065483077841  0.3455514229395838
  0.6876990931924200  0.2855646280462183  0.3896295612498697
  0.8116583262312379  0.2130543138749581  0.8321780092180253
  0.0621206440281918  0.0302441432764201  0.1255760587757249
  0.5624082930494633  0.7049805248154714  0.4785154226274476
  0.3134521592018746  0.3813116688856825  0.7874507665527217
  0.9371114506153230  0.7802550514028292  0.1254256476977012
  0.6870004397386976  0.6157730976259062  0.3010225153815531
  0.5627738134347532  0.0467287618422826  0.8742491050135387
  0.9375232549727250  0.4579005591572040  0.5656149338392679
  0.5628430374032297  0.2016436865507138  0.3455293820358100
  0.5627303927663098  0.3643804374187996  0.1676085268531382
  0.0623567562081016  0.5468736245721310  0.7433166650166899
  0.4369935288818596  0.7962737524898816  0.7432542420470962
  0.1872127031958618  0.1236349086114752  0.5215767635415748
  0.4379858930432053  0.9619155574491202  0.6990983093181818
  0.6879402763763145  0.2967479606384935  0.8742258051417854
  0.1876108824348643  0.6197644039163659  0.4344574039248500
  0.8128292991953018  0.2080664056628284  0.5656109596525827
  0.8130344648777931  0.8729286035937551  0.5216214523972956
  0.6873643186839369  0.9576963928565764  0.5655571839185671
  0.1883764958923008  0.1312097545258818  0.7873850884184566
  0.9367027552253048  0.2813534598286856  0.1256802202630463
  0.1868159039747869  0.9629502317624213  0.8321094438398304
  0.6876965501950685  0.4516840200415477  0.3455654968956233
  0.3125809228058610  0.0423518657509142  0.6103714984256845
  0.4375233087563499  0.2965585056096171  0.8742660134564925
  0.9374541880166958  0.9551374317498119  0.4784942065118201
  0.9368372977454111  0.9468768347682525  0.2125186437921131
  0.5635136555353907  0.3814549471880561  0.7875105219556050
  0.6884127210226478  0.6310518640928239  0.7873514800131376
  0.6879342522708818  0.2816884414885449  0.1257161818168162
  0.5625740335754670  0.8700234317048502  0.4342435110986867
  0.5633001794760506  0.7120144174114558  0.6990884932917173
  0.8123527000480171  0.1971186890692674  0.2127244002222412
  0.9379149904694264  0.1146329679514650  0.1678129183307094
  0.5623971701656381  0.5466677531020684  0.7433204019795395
  0.6877942959398806  0.2921452716483139  0.6103820731387292
  0.5633798329294901  0.2119009176764939  0.6990430844920770
  0.3125965280052261  0.5421719301768378  0.6104291785511261
  0.8124722190786053  0.7077273410756189  0.5655742054262436
  0.8125439530108302  0.2015576375360105  0.3456168568040882
  0.9373428280234913  0.2811222127186667  0.2567431479720035
  0.1875393238138079  0.9548043348039142  0.4785372745798648
  0.0622582830623395  0.5299779415352698  0.1255034222888084
  0.9384324213852627  0.6311281524974661  0.7874105967307826
  0.6879007387470412  0.4620368207809195  0.6991337628201022
  0.3128561376772105  0.5311439102350478  0.2567704694226481
  0.9376402384691198  0.7921349428549705  0.6103577217594152
  0.1873206489816391  0.7853953217048327  0.3895556920850846
  0.1878824821421251  0.1148928484078031  0.1677789694716285
  0.4378924010080888  0.1139557683844961  0.1678452346933154
  0.3112514144064537  0.1963363463542934  0.2127786210217930
  0.0628758628510160  0.2120005006385742  0.6990705946595914
  0.9372227853147589  0.9580952386110361  0.5656050839791398
  0.9376715189516270  0.9509844997661648  0.3454883924640887
  0.0631629631960491  0.3812224418174732  0.7874682685303604
  0.8127821356759196  0.0466504704890337  0.8742391229940543
  0.1877759947518943  0.2814304303876127  0.1255759355061363
  0.0621859053119491  0.8764886842984045  0.6545198580463161
  0.9378593995041412  0.6201779570639114  0.4345418240753794
  0.4382823416575296  0.4618908681738898  0.6991107697298160
  0.0619562921329291  0.6967711544426785  0.2124856322629605
  0.8133334361409991  0.3812549658459602  0.7874049912210506
  0.3122665935004060  0.5357509029589392  0.3895882072066042
  0.6877071676344936  0.6199088560932364  0.4344834615687173
  0.3137669629968506  0.8651348338937416  0.1675633451683632
  0.0621525312630762  0.0353071895284768  0.3895968333432122
  0.4377947748344377  0.7810688191705923  0.2567233344957666
  0.9370042662464088  0.2855356334630511  0.3897032253661015
  0.9375782100888602  0.1263014168732383  0.6544664338087137
  0.4370703844830340  0.4465952321651749  0.2126353357543976
  0.3129250065062394  0.5466654517890095  0.8742672361819490
  0.6874139395771384  0.4577672604458715  0.5655900488919804
  0.8125248803751359  0.0310502342051402  0.2567516624431725
  0.5622240747910733  0.3659337661326921  0.3011102720298501
  0.3122314864507350  0.3767388629835006  0.6544901476327247
  0.9375564211954033  0.7966773878414969  0.7432904896889229
  0.3118208837587664  0.6964125350855427  0.2125656386552860
  0.0626586543912058  0.7011502140087590  0.3455524682464994
  0.4369070458815895  0.2823507210480847  0.1254969115274535
  0.4370573178498779  0.7858236329664550  0.3895026746333142
  0.0623760046664779  0.3767937398474268  0.6544514833398952
  0.1867456554314146  0.7809146587024892  0.1255780456564118
  0.5633635784840533  0.8660181455403908  0.1676412896701492
  0.0618477448079455  0.3660456237523471  0.3010481082858953
  0.6871193091232228  0.4462562864191859  0.2125275221567977
  0.4381746122743930  0.4517194607168334  0.3454566915921575
  0.8129862925347707  0.0303341539879485  0.1255514193673342
  0.9369706884478870  0.6159041997867546  0.3009207032683610
  0.4369171792964309  0.9630438267811832  0.8320774594077976
  0.1877358506330523  0.2922625848313231  0.6104249398511050
  0.8131495928119925  0.2119154688810048  0.6991659727044216
  0.3119134557432907  0.8663201888475048  0.3009382816721833
  0.8130068934346384  0.2051048909944111  0.4785602857784418
  0.3128433674789382  0.0308223660103157  0.2567632508244455
  0.4373475763309668  0.4580190669765348  0.5656493324512263
  0.4379767562504107  0.9510898880642523  0.3455130456773840
  0.9372037386914813  0.1159114612130908  0.3009660325813405
  0.1869697718563353  0.1160985080478007  0.3009605330848762
  0.0633993446358306  0.8811788599837834  0.7873753164021837
  0.5630017817382478  0.0422788076962007  0.6103528520535421
  0.5617761369547595  0.7127586453465093  0.8320913058433878
  0.9374792246516011  0.6153536305430347  0.1676676752873680
  0.4383565694717154  0.6311645735429042  0.7874282195449138
  0.9372686634263173  0.6266818891225814  0.6545302263026588
  0.4373251445071291  0.2922493736297988  0.6104744189616028
  0.1869752997360787  0.6160142427354648  0.3009921953026780
  0.1869672575909382  0.6230404627505937  0.5216212492620667
  0.9373656271336498  0.4513955569408987  0.3455436713364084
  0.9367286183272635  0.9629669115571943  0.8320651247520900
  0.6888829597823342  0.7807682867024609  0.1255946402072647
  0.3127926126644816  0.5466723825956569  0.7432387758579063
  0.5623333193633957  0.2080906344385913  0.5656729525669105
  0.5625257971846105  0.2052658226912436  0.4785362155451460
  0.4370841765148834  0.2969253636123616  0.7433624265786626
  0.0622355367002213  0.2079985244509631  0.5656670465614706
  0.4377381002189842  0.9548529709404658  0.4785766110228477
  0.4369195767263737  0.1159156883460275  0.3009914698125727
  0.3126140254172512  0.3733914019544761  0.5215315658377938
  0.9369479097260258  0.4629639480587702  0.8321893832026703
  0.0627551541196112  0.7121494708111675  0.6991381720389145
  0.3125629637367343  0.0465221623461980  0.7432638958725691
  0.1877888449801749  0.6145504343755211  0.1676959090816365
  0.8121470991438396  0.8764361231765181  0.6544504351073775
  0.6880352381280479  0.9619922932826226  0.6991386878517779
  0.3117886527247918  0.7132807491391506  0.8320469564013140
  0.9378657858207183  0.6231149424808342  0.5215910497089594
  0.0626760835946958  0.3702220415597060  0.4345248674082778
  0.0627471013606197  0.0467783848923924  0.8742354505544242
  0.1878404640170546  0.2968112499078526  0.8742736643114931
  0.0627462171221476  0.2012627063225433  0.3454473427590286
  0.0618433742959031  0.8728543625723002  0.5215109858206594
  0.8122514138778878  0.8647049508496015  0.1675977012127390
  0.4379092438614034  0.9579182797101679  0.5657505788318660
  0.5623984019300984  0.8726768172965822  0.5216187856538654
  0.6871485688765169  0.9465874366299307  0.2125873350359402
  0.9377348767007636  0.7966547847973278  0.8742345368911922
  0.6873782824503258  0.4545901925202952  0.4785268511284508
  0.5629247570170595  0.5311950044516559  0.2567166032544289
  0.8122980792571171  0.3765861935360298  0.6545928131232793
  0.4378025791213076  0.7967072191272501  0.8742258192936081
  0.6873026377075672  0.6231262964053011  0.5215355934660665
  0.1872092975485336  0.1265878763112031  0.6545183864297788
  0.0623997427931415  0.8650312444012808  0.1675827552220684
  0.8119761820269217  0.7127859691400205  0.8320784934190367
  0.5633730606250742  0.8809985788431015  0.7873395083010742
  0.5621289074782464  0.3704132909195810  0.4344448053818868
  0.4375433626598550  0.7924146368877450  0.6104012995456217
  0.6878921103356133  0.7811620030935285  0.2567266846627023
  0.6883886966110344  0.1313703213566796  0.7873764044547267
  0.0617766460561351  0.7128318005123757  0.8321364029363494
  0.3130628870313520  0.7009838489774318  0.3455394125188770
  0.1875424427586012  0.2816776065434510  0.2567051647600491
  0.1863376101281944  0.9465867182028315  0.2125297402984351
  0.6871819520330107  0.1265008034858647  0.6544781538101457
  0.3122462990316289  0.5302851675414159  0.1253275586437777
  0.3122602953076778  0.2076104679060892  0.5653748093121436
  0.8127971183707745  0.5421689161231569  0.6104119586997426
  0.5623576600169007  0.5354824701135981  0.3896866953328091
  0.6874875222553730  0.1135610069012321  0.1676837303533240
  0.5626837628594387  0.5470020317652747  0.8742562675127333
  0.1869866863102337  0.4550883667739139  0.4785448826826955
  0.8124207140301534  0.3705070107952159  0.4343688468460473
  0.8124778916586828  0.3737461718228735  0.5215952957722633
  0.4365673204187647  0.7813431684657890  0.1257348346308430
  0.5625055182840317  0.3736550708894771  0.5215941867571686
  0.1872139477313644  0.9578051761095620  0.5656402004402539
  0.9379660408294391  0.4622611599038556  0.6991381219008193
  0.1872247368056372  0.2853323305932972  0.3896969391544698
  0.9380581204865217  0.9618482291759474  0.6990413928987612
  0.5624588295247267  0.0354042575642628  0.3895900896407371
  0.3129190110641654  0.2015350271379630  0.3455909388610281
  0.8128142102129103  0.5468955386660037  0.8743013409632274
  0.8122282857993880  0.5314001791769566  0.2567550219302739
  0.5620060761401310  0.8658493274193012  0.3010204649906588
  0.4377405006073583  0.6230839829010377  0.5215824982744441
  0.1878765746246809  0.4513631794282923  0.3456032953931198
  0.8123204308444975  0.5304665374851570  0.1254682065815302
  0.9368814449240324  0.4471079392985119  0.2125174080802953
  0.8117514996622301  0.6962139488688012  0.2125134301146272
  0.0617497833916491  0.2129807095522406  0.8321329925666555
  0.8126233884024809  0.0421845104363595  0.6103035079482722
  0.9377562332437481  0.2924754761779463  0.6104161304785500
  0.3114093388141033  0.0305924419188515  0.1255860925861579
  0.3121628331444278  0.0352076533286593  0.3897682138704269
  0.4371455919488414  0.1264841280618820  0.6545038903160112
  0.8121980012161466  0.5467352140594457  0.7433137554858594
  0.1863898287096697  0.4471196942829291  0.2126067434174795
  0.0622292773854371  0.2047042511516475  0.4784594957823479
  0.6873415878500060  0.1206300805083098  0.4348233381197262
  0.0625615667850879  0.0465748267742385  0.7432142828786690
  0.3127195006540935  0.3652394185238174  0.1672675627576186
  0.5619661797509683  0.0299201298563290  0.1258528032668619
  0.3127506079241037  0.8731320922327899  0.5213759881835875
  0.4375960998262289  0.2847624467023699  0.3896141236056043
  0.4377525715794108  0.2808692518803284  0.2567337820623677
  0.1877279847972382  0.9511082658472596  0.3455269774800748
  0.0620874709444169  0.8700004136949695  0.4343817665439905
  0.0626679591637151  0.0310724461484646  0.2566197858657256
  0.4369604093631949  0.9470576913645186  0.2127981857204986
  0.3127374085365338  0.2116919222434823  0.6992453467963049
  0.3125483952500885  0.2045044350588079  0.4787268510811413
  0.6874051512514902  0.2971109948540371  0.7433351200927479
  0.6873547738631645  0.1231324511066651  0.5214032601952895
 
  0.00000000E+00  0.00000000E+00  0.00000000E+00
  0.00000000E+00  0.00000000E+00  0.00000000E+00
  0.00000000E+00  0.00000000E+00  0.00000000E+00
  0.00000000E+00  0.00000000E+00  0.00000000E+00
  0.00000000E+00  0.00000000E+00  0.00000000E+00
  0.00000000E+00  0.00000000E+00  0.00000000E+00
  0.00000000E+00  0.00000000E+00  0.00000000E+00
  0.00000000E+00  0.00000000E+00  0.00000000E+00
  0.00000000E+00  0.00000000E+00  0.00000000E+00
  0.00000000E+00  0.00000000E+00  0.00000000E+00
  0.00000000E+00  0.00000000E+00  0.00000000E+00
  0.00000000E+00  0.00000000E+00  0.00000000E+00
  0.00000000E+00  0.00000000E+00  0.00000000E+00
  0.00000000E+00  0.00000000E+00  0.00000000E+00
  0.00000000E+00  0.00000000E+00  0.00000000E+00
  0.00000000E+00  0.00000000E+00  0.00000000E+00
  0.00000000E+00  0.00000000E+00  0.00000000E+00
  0.00000000E+00  0.00000000E+00  0.00000000E+00
  0.00000000E+00  0.00000000E+00  0.00000000E+00
  0.00000000E+00  0.00000000E+00  0.00000000E+00
  0.00000000E+00  0.00000000E+00  0.00000000E+00
  0.00000000E+00  0.00000000E+00  0.00000000E+00
  0.00000000E+00  0.00000000E+00  0.00000000E+00
  0.00000000E+00  0.00000000E+00  0.00000000E+00
  0.00000000E+00  0.00000000E+00  0.00000000E+00
  0.00000000E+00  0.00000000E+00  0.00000000E+00
  0.00000000E+00  0.00000000E+00  0.00000000E+00
  0.00000000E+00  0.00000000E+00  0.00000000E+00
  0.00000000E+00  0.00000000E+00  0.00000000E+00
  0.00000000E+00  0.00000000E+00  0.00000000E+00
  0.00000000E+00  0.00000000E+00  0.00000000E+00
  0.00000000E+00  0.00000000E+00  0.00000000E+00
  0.00000000E+00  0.00000000E+00  0.00000000E+00
  0.00000000E+00  0.00000000E+00  0.00000000E+00
  0.00000000E+00  0.00000000E+00  0.00000000E+00
  0.00000000E+00  0.00000000E+00  0.00000000E+00
  0.00000000E+00  0.00000000E+00  0.00000000E+00
  0.00000000E+00  0.00000000E+00  0.00000000E+00
  0.00000000E+00  0.00000000E+00  0.00000000E+00
  0.00000000E+00  0.00000000E+00  0.00000000E+00
  0.00000000E+00  0.00000000E+00  0.00000000E+00
  0.00000000E+00  0.00000000E+00  0.00000000E+00
  0.00000000E+00  0.00000000E+00  0.00000000E+00
  0.00000000E+00  0.00000000E+00  0.00000000E+00
  0.00000000E+00  0.00000000E+00  0.00000000E+00
  0.00000000E+00  0.00000000E+00  0.00000000E+00
  0.00000000E+00  0.00000000E+00  0.00000000E+00
  0.00000000E+00  0.00000000E+00  0.00000000E+00
  0.00000000E+00  0.00000000E+00  0.00000000E+00
  0.00000000E+00  0.00000000E+00  0.00000000E+00
  0.00000000E+00  0.00000000E+00  0.00000000E+00
  0.00000000E+00  0.00000000E+00  0.00000000E+00
  0.00000000E+00  0.00000000E+00  0.00000000E+00
  0.00000000E+00  0.00000000E+00  0.00000000E+00
  0.00000000E+00  0.00000000E+00  0.00000000E+00
  0.00000000E+00  0.00000000E+00  0.00000000E+00
  0.00000000E+00  0.00000000E+00  0.00000000E+00
  0.00000000E+00  0.00000000E+00  0.00000000E+00
  0.00000000E+00  0.00000000E+00  0.00000000E+00
  0.00000000E+00  0.00000000E+00  0.00000000E+00
  0.00000000E+00  0.00000000E+00  0.00000000E+00
  0.00000000E+00  0.00000000E+00  0.00000000E+00
  0.00000000E+00  0.00000000E+00  0.00000000E+00
  0.00000000E+00  0.00000000E+00  0.00000000E+00
  0.00000000E+00  0.00000000E+00  0.00000000E+00
  0.00000000E+00  0.00000000E+00  0.00000000E+00
  0.00000000E+00  0.00000000E+00  0.00000000E+00
  0.00000000E+00  0.00000000E+00  0.00000000E+00
  0.00000000E+00  0.00000000E+00  0.00000000E+00
  0.00000000E+00  0.00000000E+00  0.00000000E+00
  0.00000000E+00  0.00000000E+00  0.00000000E+00
  0.00000000E+00  0.00000000E+00  0.00000000E+00
  0.00000000E+00  0.00000000E+00  0.00000000E+00
  0.00000000E+00  0.00000000E+00  0.00000000E+00
  0.00000000E+00  0.00000000E+00  0.00000000E+00
  0.00000000E+00  0.00000000E+00  0.00000000E+00
  0.00000000E+00  0.00000000E+00  0.00000000E+00
  0.00000000E+00  0.00000000E+00  0.00000000E+00
  0.00000000E+00  0.00000000E+00  0.00000000E+00
  0.00000000E+00  0.00000000E+00  0.00000000E+00
  0.00000000E+00  0.00000000E+00  0.00000000E+00
  0.00000000E+00  0.00000000E+00  0.00000000E+00
  0.00000000E+00  0.00000000E+00  0.00000000E+00
  0.00000000E+00  0.00000000E+00  0.00000000E+00
  0.00000000E+00  0.00000000E+00  0.00000000E+00
  0.00000000E+00  0.00000000E+00  0.00000000E+00
  0.00000000E+00  0.00000000E+00  0.00000000E+00
  0.00000000E+00  0.00000000E+00  0.00000000E+00
  0.00000000E+00  0.00000000E+00  0.00000000E+00
  0.00000000E+00  0.00000000E+00  0.00000000E+00
  0.00000000E+00  0.00000000E+00  0.00000000E+00
  0.00000000E+00  0.00000000E+00  0.00000000E+00
  0.00000000E+00  0.00000000E+00  0.00000000E+00
  0.00000000E+00  0.00000000E+00  0.00000000E+00
  0.00000000E+00  0.00000000E+00  0.00000000E+00
  0.00000000E+00  0.00000000E+00  0.00000000E+00
  0.00000000E+00  0.00000000E+00  0.00000000E+00
  0.00000000E+00  0.00000000E+00  0.00000000E+00
  0.00000000E+00  0.00000000E+00  0.00000000E+00
  0.00000000E+00  0.00000000E+00  0.00000000E+00
  0.00000000E+00  0.00000000E+00  0.00000000E+00
  0.00000000E+00  0.00000000E+00  0.00000000E+00
  0.00000000E+00  0.00000000E+00  0.00000000E+00
  0.00000000E+00  0.00000000E+00  0.00000000E+00
  0.00000000E+00  0.00000000E+00  0.00000000E+00
  0.00000000E+00  0.00000000E+00  0.00000000E+00
  0.00000000E+00  0.00000000E+00  0.00000000E+00
  0.00000000E+00  0.00000000E+00  0.00000000E+00
  0.00000000E+00  0.00000000E+00  0.00000000E+00
  0.00000000E+00  0.00000000E+00  0.00000000E+00
  0.00000000E+00  0.00000000E+00  0.00000000E+00
  0.00000000E+00  0.00000000E+00  0.00000000E+00
  0.00000000E+00  0.00000000E+00  0.00000000E+00
  0.00000000E+00  0.00000000E+00  0.00000000E+00
  0.00000000E+00  0.00000000E+00  0.00000000E+00
  0.00000000E+00  0.00000000E+00  0.00000000E+00
  0.00000000E+00  0.00000000E+00  0.00000000E+00
  0.00000000E+00  0.00000000E+00  0.00000000E+00
  0.00000000E+00  0.00000000E+00  0.00000000E+00
  0.00000000E+00  0.00000000E+00  0.00000000E+00
  0.00000000E+00  0.00000000E+00  0.00000000E+00
  0.00000000E+00  0.00000000E+00  0.00000000E+00
  0.00000000E+00  0.00000000E+00  0.00000000E+00
  0.00000000E+00  0.00000000E+00  0.00000000E+00
  0.00000000E+00  0.00000000E+00  0.00000000E+00
  0.00000000E+00  0.00000000E+00  0.00000000E+00
  0.00000000E+00  0.00000000E+00  0.00000000E+00
  0.00000000E+00  0.00000000E+00  0.00000000E+00
  0.00000000E+00  0.00000000E+00  0.00000000E+00
  0.00000000E+00  0.00000000E+00  0.00000000E+00
  0.00000000E+00  0.00000000E+00  0.00000000E+00
  0.00000000E+00  0.00000000E+00  0.00000000E+00
  0.00000000E+00  0.00000000E+00  0.00000000E+00
  0.00000000E+00  0.00000000E+00  0.00000000E+00
  0.00000000E+00  0.00000000E+00  0.00000000E+00
  0.00000000E+00  0.00000000E+00  0.00000000E+00
  0.00000000E+00  0.00000000E+00  0.00000000E+00
  0.00000000E+00  0.00000000E+00  0.00000000E+00
  0.00000000E+00  0.00000000E+00  0.00000000E+00
  0.00000000E+00  0.00000000E+00  0.00000000E+00
  0.00000000E+00  0.00000000E+00  0.00000000E+00
  0.00000000E+00  0.00000000E+00  0.00000000E+00
  0.00000000E+00  0.00000000E+00  0.00000000E+00
  0.00000000E+00  0.00000000E+00  0.00000000E+00
  0.00000000E+00  0.00000000E+00  0.00000000E+00
  0.00000000E+00  0.00000000E+00  0.00000000E+00
  0.00000000E+00  0.00000000E+00  0.00000000E+00
  0.00000000E+00  0.00000000E+00  0.00000000E+00
  0.00000000E+00  0.00000000E+00  0.00000000E+00
  0.00000000E+00  0.00000000E+00  0.00000000E+00
  0.00000000E+00  0.00000000E+00  0.00000000E+00
  0.00000000E+00  0.00000000E+00  0.00000000E+00
  0.00000000E+00  0.00000000E+00  0.00000000E+00
  0.00000000E+00  0.00000000E+00  0.00000000E+00
  0.00000000E+00  0.00000000E+00  0.00000000E+00
  0.00000000E+00  0.00000000E+00  0.00000000E+00
  0.00000000E+00  0.00000000E+00  0.00000000E+00
  0.00000000E+00  0.00000000E+00  0.00000000E+00
  0.00000000E+00  0.00000000E+00  0.00000000E+00
  0.00000000E+00  0.00000000E+00  0.00000000E+00
  0.00000000E+00  0.00000000E+00  0.00000000E+00
  0.00000000E+00  0.00000000E+00  0.00000000E+00
  0.00000000E+00  0.00000000E+00  0.00000000E+00
  0.00000000E+00  0.00000000E+00  0.00000000E+00
  0.00000000E+00  0.00000000E+00  0.00000000E+00
  0.00000000E+00  0.00000000E+00  0.00000000E+00
  0.00000000E+00  0.00000000E+00  0.00000000E+00
  0.00000000E+00  0.00000000E+00  0.00000000E+00
  0.00000000E+00  0.00000000E+00  0.00000000E+00
  0.00000000E+00  0.00000000E+00  0.00000000E+00
  0.00000000E+00  0.00000000E+00  0.00000000E+00
  0.00000000E+00  0.00000000E+00  0.00000000E+00
  0.00000000E+00  0.00000000E+00  0.00000000E+00
  0.00000000E+00  0.00000000E+00  0.00000000E+00
  0.00000000E+00  0.00000000E+00  0.00000000E+00
  0.00000000E+00  0.00000000E+00  0.00000000E+00
  0.00000000E+00  0.00000000E+00  0.00000000E+00
  0.00000000E+00  0.00000000E+00  0.00000000E+00
  0.00000000E+00  0.00000000E+00  0.00000000E+00
  0.00000000E+00  0.00000000E+00  0.00000000E+00
  0.00000000E+00  0.00000000E+00  0.00000000E+00
  0.00000000E+00  0.00000000E+00  0.00000000E+00
  0.00000000E+00  0.00000000E+00  0.00000000E+00
  0.00000000E+00  0.00000000E+00  0.00000000E+00
  0.00000000E+00  0.00000000E+00  0.00000000E+00
  0.00000000E+00  0.00000000E+00  0.00000000E+00
  0.00000000E+00  0.00000000E+00  0.00000000E+00
  0.00000000E+00  0.00000000E+00  0.00000000E+00
  0.00000000E+00  0.00000000E+00  0.00000000E+00
  0.00000000E+00  0.00000000E+00  0.00000000E+00
  0.00000000E+00  0.00000000E+00  0.00000000E+00
  0.00000000E+00  0.00000000E+00  0.00000000E+00
  0.00000000E+00  0.00000000E+00  0.00000000E+00
  0.00000000E+00  0.00000000E+00  0.00000000E+00
  0.00000000E+00  0.00000000E+00  0.00000000E+00
  0.00000000E+00  0.00000000E+00  0.00000000E+00
  0.00000000E+00  0.00000000E+00  0.00000000E+00
  0.00000000E+00  0.00000000E+00  0.00000000E+00
  0.00000000E+00  0.00000000E+00  0.00000000E+00
  0.00000000E+00  0.00000000E+00  0.00000000E+00
  0.00000000E+00  0.00000000E+00  0.00000000E+00
  0.00000000E+00  0.00000000E+00  0.00000000E+00
  0.00000000E+00  0.00000000E+00  0.00000000E+00
  0.00000000E+00  0.00000000E+00  0.00000000E+00
  0.00000000E+00  0.00000000E+00  0.00000000E+00
  0.00000000E+00  0.00000000E+00  0.00000000E+00
  0.00000000E+00  0.00000000E+00  0.00000000E+00
  0.00000000E+00  0.00000000E+00  0.00000000E+00
  0.00000000E+00  0.00000000E+00  0.00000000E+00
  0.00000000E+00  0.00000000E+00  0.00000000E+00
  0.00000000E+00  0.00000000E+00  0.00000000E+00
  0.00000000E+00  0.00000000E+00  0.00000000E+00
  0.00000000E+00  0.00000000E+00  0.00000000E+00
  0.00000000E+00  0.00000000E+00  0.00000000E+00
  0.00000000E+00  0.00000000E+00  0.00000000E+00
  0.00000000E+00  0.00000000E+00  0.00000000E+00
  0.00000000E+00  0.00000000E+00  0.00000000E+00
  0.00000000E+00  0.00000000E+00  0.00000000E+00
  0.00000000E+00  0.00000000E+00  0.00000000E+00
  0.00000000E+00  0.00000000E+00  0.00000000E+00
  0.00000000E+00  0.00000000E+00  0.00000000E+00
  0.00000000E+00  0.00000000E+00  0.00000000E+00
  0.00000000E+00  0.00000000E+00  0.00000000E+00
  0.00000000E+00  0.00000000E+00  0.00000000E+00
  0.00000000E+00  0.00000000E+00  0.00000000E+00
  0.00000000E+00  0.00000000E+00  0.00000000E+00
  0.00000000E+00  0.00000000E+00  0.00000000E+00
  0.00000000E+00  0.00000000E+00  0.00000000E+00
  0.00000000E+00  0.00000000E+00  0.00000000E+00
  0.00000000E+00  0.00000000E+00  0.00000000E+00
  0.00000000E+00  0.00000000E+00  0.00000000E+00
  0.00000000E+00  0.00000000E+00  0.00000000E+00
  0.00000000E+00  0.00000000E+00  0.00000000E+00
  0.00000000E+00  0.00000000E+00  0.00000000E+00
  0.00000000E+00  0.00000000E+00  0.00000000E+00
  0.00000000E+00  0.00000000E+00  0.00000000E+00
  0.00000000E+00  0.00000000E+00  0.00000000E+00
  0.00000000E+00  0.00000000E+00  0.00000000E+00
  0.00000000E+00  0.00000000E+00  0.00000000E+00
  0.00000000E+00  0.00000000E+00  0.00000000E+00
  0.00000000E+00  0.00000000E+00  0.00000000E+00
  0.00000000E+00  0.00000000E+00  0.00000000E+00
  0.00000000E+00  0.00000000E+00  0.00000000E+00
  0.00000000E+00  0.00000000E+00  0.00000000E+00
  0.00000000E+00  0.00000000E+00  0.00000000E+00
  0.00000000E+00  0.00000000E+00  0.00000000E+00
  0.00000000E+00  0.00000000E+00  0.00000000E+00