FeMn_288_15                             
    1.000000000000000     
     9.7266779999999997    0.0000000000000000    0.0000000000000000
     0.0000000000000000    8.4235500000000005    0.0000000000000000
     0.0000000000000000    0.0000000000000000   45.0000000000000000
   Fe   Mn
   273    15
Direct
  0.8123186484456861  0.7013944182952316  0.3449661180777946
  0.3123623519928915  0.7063082542370298  0.5658120400599852
  0.8121364423125207  0.7110812735906346  0.6996893202418938
  0.5623761958325805  0.1968011828002330  0.2112945705844458
  0.6874781846918402  0.6264958799363288  0.6548805637858112
  0.5622933253356786  0.7065525016434493  0.5658274078405738
  0.4381206127275999  0.4676939739327547  0.8336200907865420
  0.5620756900572503  0.5268787678552165  0.1240422484719370
  0.4371221499080414  0.6208788747088245  0.4342868594023087
  0.5625697113375333  0.6963958531004153  0.2114953922672001
  0.3122036269114914  0.7108640349023606  0.6996971096653450
  0.0628831542217847  0.5368910513316245  0.3892947842877416
  0.1872378052434765  0.6306898249085410  0.7885430520865336
  0.8123974620094097  0.8809298175771448  0.7884951539016581
  0.4377914123466832  0.6167631826094292  0.3002856672540055
  0.5623882557309106  0.7016771073302555  0.3450475983475351
  0.6878812813541981  0.8009885078164801  0.8757398001498076
  0.3123739099169320  0.7047634678160593  0.4786202782427138
  0.9382074455496529  0.1226974440664700  0.5217646016276992
  0.3128190757873175  0.3669232158596706  0.3002894035090745
  0.3134810609922343  0.2176353634591296  0.8335896882181302
  0.8120192648041606  0.3598286063032669  0.1664918902252552
  0.3127922712971374  0.8714424470421716  0.4346015126881205
  0.6869110717706558  0.6101825316276580  0.1663699327228378
  0.1871668866530314  0.4610173970407401  0.6997656191942082
  0.0627768440301684  0.5510131306013506  0.8757187915959250
  0.5625198422131518  0.0463311233114676  0.7441199750805977
  0.6879473705811751  0.1170894493303022  0.3003135129855291
  0.4375142992935761  0.1310948175944829  0.7885202757223317
  0.1871863277214250  0.7818456810000215  0.2556886072570458
  0.5622238792119423  0.5414548009695422  0.6107550971884821
  0.9378444795349810  0.7867305096967128  0.3893361705864374
  0.4371050972166357  0.6095844525977031  0.1662613813634757
  0.5622762112191796  0.0316708202853001  0.2557169863186751
  0.4372620023110160  0.1226324467730453  0.5217381861711337
  0.1877116456672822  0.7960545529606960  0.7441482299654785
  0.6873527039711438  0.9542135577663724  0.4786464970208333
  0.5623708107265556  0.3762035721798476  0.6549811817163864
  0.9376307339725900  0.2961128801184674  0.7441566499979280
  0.9371167763072562  0.1311086052720610  0.7885171445180489
  0.9376118266199509  0.1213578274389172  0.4343331300946954
  0.4374018186131686  0.1214824510032892  0.4342214238701670
  0.9378670808227249  0.3010387939642302  0.8758076898464959
  0.8125412740021228  0.3670409088780845  0.3002438815479213
  0.1873862495980688  0.7917293989798548  0.6106515548515750
  0.6875545108562996  0.7912039235254820  0.6108681316927619
  0.9370465409909247  0.7816804118769572  0.2557523722845540
  0.8123561007500563  0.8712171105753377  0.4342679420676738
  0.0628138455267254  0.7068050777988656  0.5658542219003405
  0.0624523870284070  0.5415698332960263  0.6107709197042489
  0.3129470940987374  0.0508490147683580  0.8758143342186036
  0.0625085617617271  0.7052186913495615  0.4785796750719465
  0.8124949399926978  0.5369210905562199  0.3893545879011703
  0.3121383129329343  0.8807030293086574  0.7886384789775644
  0.8124895674785515  0.0364279509766346  0.3893168220346970
  0.0617918884711476  0.3608911696051566  0.1662702044397596
  0.3127707458706757  0.3719828644254701  0.4344773827618445
  0.6875035612949958  0.2818321158699969  0.2558466877002541
  0.0622836084457963  0.3728200767950262  0.5216163803138374
  0.8127869715193924  0.7051591137247235  0.4785791106769945
  0.1876770158528772  0.1215024601902891  0.4342068706843701
  0.1870531129274504  0.9607081174723078  0.6996570263697603
  0.0628103994025397  0.1967322383209034  0.2113526195209537
  0.1879887737101302  0.8008725957306696  0.8757773514441316
  0.4376030735018380  0.6262336256141969  0.6550003288109105
  0.6876544070835329  0.7959604802780925  0.7441448533025598
  0.8128653031558422  0.8669220873154558  0.3001835740010938
  0.3126860346240740  0.8761906807024471  0.6548958645541909
  0.1884236894731019  0.4671563797827492  0.8335211195229916
  0.9375628811183283  0.4551835709020193  0.4786065740935628
  0.6883743509296082  0.9670840760748495  0.8335753379999183
  0.5633618002988395  0.2171580536836087  0.8335336418536472
  0.8124465065045151  0.0459836164129405  0.7441255782770053
  0.4378354056362336  0.4551286103244113  0.4785831455434650
  0.1875588645959844  0.6262918379011123  0.6550060066821463
  0.6882200089945443  0.4674737236228882  0.8334946063628156
  0.6881041143008886  0.7867625132261735  0.3893223313918930
  0.5625793488206048  0.8763516363797295  0.6549873868539358
  0.0622652676424087  0.5321734228579338  0.2558580180131512
  0.0625244509314452  0.8669000922907112  0.3003008906258200
  0.0621540128447581  0.0415769845828928  0.6107568723607876
  0.1877623195553272  0.2960204637438710  0.7441610443365692
  0.1873854840253212  0.4567693570996691  0.5659084945457922
  0.6873156891740946  0.9516301973100664  0.3450712413779065
  0.6881646287749015  0.2864731630091858  0.3892840588094065
  0.8131309602891262  0.2173857960905596  0.8335874044854397
  0.0621983310972171  0.0265511489347192  0.1242035320397036
  0.5624966582589535  0.7051609945638043  0.4785687871836098
  0.3123209121508834  0.3810048599738881  0.7885731284361973
  0.9368747025898597  0.7758771474819579  0.1241247585258501
  0.6876215769806511  0.6168926031832961  0.3003287338340190
  0.5629699734677521  0.0508344897451254  0.8758264079459345
  0.9376177019232648  0.4567241577913951  0.5658383314652219
  0.5623735983135075  0.2020330689265542  0.3450661368896469
  0.5617969498360077  0.3600869826280496  0.1661826776651449
  0.0624948945349385  0.5462129417969754  0.7441710036322817
  0.4371908802437824  0.7957243883153647  0.7441346276073666
  0.1871560589105283  0.1231957168031027  0.5216771439982912
  0.4372564431435563  0.9608966022603562  0.6996995886158877
  0.6881834858192920  0.3009337423329492  0.8757646097208269
  0.1874703218348455  0.6209248816216838  0.4343682771646033
  0.8128384781234723  0.2068968963439272  0.5658342381899483
  0.8129840324223037  0.8728918634248031  0.5217178117761990
  0.6874751710705457  0.9564811603539271  0.5658286482180087
  0.1872893473412154  0.1308944530032074  0.7885131653259437
  0.9363360662729255  0.2769963698595795  0.1243075505533778
  0.1882483346342370  0.9671930637036292  0.8335400252786435
  0.6872328407657560  0.4520796155708955  0.3450597674078992
  0.3123098226067006  0.0415728654919165  0.6106992201536144
  0.4377545825035952  0.3008165784065609  0.8757920037881004
  0.9373421569259970  0.9553620364141417  0.4785550347007695
  0.9375041272786284  0.9470168955555114  0.2113884408716250
  0.5623818172537982  0.3811941780885809  0.7886330398755694
  0.6872977100426099  0.6308634822633007  0.7885041491862468
  0.6878346166058491  0.2776918803454260  0.1242322020129942
  0.5624008575032821  0.8712001618242208  0.4341236890076126
  0.5624539490467065  0.7110286891617008  0.6996964503521131
  0.8129104106092927  0.1969845868470770  0.2115006532894337
  0.9371678493200334  0.1102449607966761  0.1664766806372669
  0.5626079239185425  0.5459039934655441  0.7441756577155020
  0.6874774952268224  0.2913745928249023  0.6107218747118363
  0.5625100150291992  0.2108600046277804  0.6996342488596643
  0.3123047443681696  0.5414398841652323  0.6107453627285534
  0.8125789968183939  0.7065999680266585  0.5658128360675785
  0.8122864067501885  0.2019861682788991  0.3450857642092601
  0.9370062763383228  0.2813072609203582  0.2557698232590994
  0.1873746924231341  0.9550035716759850  0.4786394784046401
  0.0620211501575811  0.5264543895383175  0.1241930197768940
  0.9373219973266166  0.6308999175904398  0.7885315539201201
  0.6870636847885629  0.4609721148673235  0.6997205776834472
  0.3125874873920389  0.5316200578597062  0.2557781261248464
  0.9372775653705174  0.7913135156443911  0.6107218934817439
  0.1876803593491864  0.7865482328886403  0.3892957727464522
  0.1871216545708821  0.1105961156416070  0.1662220892491615
  0.4370797901498541  0.1096136910295648  0.1662272269163113
  0.3120819583634399  0.1965707187834757  0.2114576914576486
  0.0619819424535842  0.2108577212471607  0.6996597121486267
  0.9374213667729605  0.9569644489261465  0.5658566377199905
  0.9372730174554144  0.9515370964753354  0.3449866447688988
  0.0621306542752300  0.3809931173806727  0.7886056765317777
  0.8129317200665509  0.0508923580507705  0.8758190814799384
  0.1875563549073130  0.2770451672395652  0.1240121917559995
  0.0624971584240605  0.8761357791411590  0.6549535433771124
  0.9376105442486319  0.6213249810878653  0.4344083514338663
  0.4374479057767585  0.4607233385031145  0.6996961006794704
  0.0627320559898714  0.6966800855719693  0.2113348055081312
  0.8122379088522583  0.3810002122073249  0.7885120891462154
  0.3125503555228232  0.5367347170818867  0.3892546697364777
  0.6876413145154400  0.6209779175022949  0.4343674507103222
  0.3126492407642396  0.8605461452250041  0.1659277252859440
  0.0625089692244241  0.0364088663000899  0.3892773675072578
  0.4373222698521315  0.7815159851681732  0.2556992619256138
  0.9374146265219263  0.2865023977979825  0.3894202963508677
  0.9377954543615172  0.1259612197987300  0.6548730053825428
  0.4378338491297886  0.4471932909424906  0.2113875134618008
  0.3131028337648982  0.5506743071622657  0.8757760904864228
  0.6875594707673720  0.4564404369473082  0.5658057341983703
  0.8120898999042632  0.0315001416382297  0.2558558544635240
  0.5628918058515104  0.3668878548767155  0.3003505807966822
  0.3125707716672594  0.3763662495487711  0.6548832212226979
  0.9377517983480849  0.7962481714424554  0.7441706605983631
  0.3125828982897436  0.6968087322975146  0.2112837916973687
  0.0622976758335936  0.7015845995253320  0.3450677678977241
  0.4366796606360621  0.2780672434451132  0.1238830396040436
  0.4374280256989370  0.7868653300982545  0.3892356071732633
  0.0626642223903990  0.3763708362135479  0.6548663802491584
  0.1865790394484053  0.7762986611485495  0.1240896840254289
  0.5622771806422453  0.8613500926912236  0.1660683857851784
  0.0625359833562904  0.3668904576384925  0.3003102334409371
  0.6877305941217032  0.4467737742770733  0.2113750473870925
  0.4377778959380244  0.4520308124357966  0.3449954038846323
  0.8128625033985573  0.0266507117354293  0.1241314095382916
  0.9376371166978233  0.6167586817732115  0.3002533131910177
  0.4383213178074682  0.9673313567426854  0.8335118608478054
  0.1874474837435198  0.2915258843151973  0.6107566799962049
  0.8122089818197631  0.2108784004076781  0.6997785338193038
  0.3125188616899227  0.8673437403013489  0.3002047776536618
  0.8132856287825114  0.2052683884678506  0.4786344260995276
  0.3125714687017690  0.0314138754692086  0.2557919186452013
  0.4375344333582136  0.4567913572602857  0.5658767894781038
  0.4375473289077501  0.9515449942525892  0.3450371069665134
  0.9379052266033155  0.1168597272500210  0.3002582937597607
  0.1875915525038204  0.1171417603999214  0.3002956273740192
  0.0622910190950964  0.8808481753771162  0.7885535236032589
  0.5626843441193543  0.0416065968094686  0.6106922047716054
  0.5632207307706187  0.7171701452617948  0.8334900944242006
  0.9366174844380033  0.6109163086079400  0.1664224889981631
  0.4372720820255274  0.6308787358945317  0.7885443539062882
  0.9376067176415558  0.6263261623894930  0.6549646357217308
  0.4370590686661838  0.2915184195435262  0.6107940269998704
  0.1877258368229874  0.6170919746078232  0.3003108126662709
  0.1873316833418899  0.6230938342238252  0.5216977832446880
  0.9369951925266791  0.4517418700989703  0.3450786003047167
  0.9382503876776499  0.9671944553345077  0.8335078094067969
  0.6886906243829706  0.7762395755010268  0.1240808233216036
  0.3130202316214087  0.5460581262704762  0.7441138977491496
  0.5625334956073033  0.2068488549221100  0.5658901333933413
  0.5623800497422674  0.2055208445996532  0.4786178454898450
  0.4373191804860016  0.2962536550184812  0.7442064562884497
  0.0623482240533311  0.2068758423435469  0.5658966239274732
  0.4380937702758491  0.9552421530119428  0.4786829620549422
  0.4374623352795546  0.1170530319238901  0.3002950851846823
  0.3126678693763978  0.3734075145697320  0.5215904750436980
  0.9384584168737165  0.4673509272543586  0.8335343564151885
  0.0619087299807504  0.7110493698028164  0.6997514478655692
  0.3128595343008163  0.0458612783499149  0.7441372622613143
  0.1870766058273822  0.6099892836573723  0.1663325112069768
  0.8125114350955526  0.8762143251582519  0.6548864449713916
  0.6871966246830504  0.9609672772298676  0.6997507943480801
  0.3132728233096146  0.7175093069654576  0.8334686334441347
  0.9377295860379342  0.6227728362615010  0.5216633287305991
  0.0625739360212610  0.3713934573205571  0.4343968067267894
  0.0629794742250423  0.0508943431182877  0.8758086030313581
  0.1880468189151728  0.3009293263155653  0.8758172217411568
  0.0623742327118399  0.2017266025980043  0.3449526899802716
  0.0621858014855280  0.8726371701777444  0.5216023827114691
  0.8111067691622692  0.8605471365338649  0.1662014036575993
  0.4379314355081856  0.9566668156001552  0.5659936868629595
  0.5623833742999033  0.8724953709429598  0.5217210676858356
  0.6876704490379499  0.9468490161975243  0.2113602930146729
  0.9379243147272048  0.8007116755193266  0.8758080458985504
  0.6874886755324452  0.4550081947805250  0.4786099675595590
  0.5625457927479426  0.5317468931846031  0.2557635521369060
  0.8125691071491830  0.3762543259426414  0.6549972468542183
  0.4379737030473778  0.8007358609853988  0.8757600805574459
  0.6874935865461256  0.6228540185607175  0.5215945912356375
  0.1875623284046430  0.1262596467349602  0.6549768928572554
  0.0614477148600809  0.8604300063522048  0.1662491270973488
  0.8134287887963626  0.7171156641378961  0.8334927217915205
  0.5622911150443397  0.8807873033413991  0.7884820506097445
  0.5620941639847399  0.3714667650850324  0.4342800247865301
  0.4372587229020743  0.7916269914827265  0.6107678517993652
  0.6875571903433818  0.7815962602524317  0.2557685208975657
  0.6872542945289902  0.1310840149754345  0.7885283892916768
  0.0632778205965174  0.7172126899159363  0.8335947126702100
  0.3126811572376443  0.7014538476752215  0.3450403294737576
  0.1873295190366643  0.2818715998092217  0.2557469474003787
  0.1872496809435516  0.9468038878870123  0.2113060611698070
  0.6875316058451446  0.1261376665544866  0.6548910997761590
  0.3121707359569872  0.5267024664313130  0.1238581554313856
  0.3123294174215386  0.2064894475680429  0.5655862045064590
  0.8124859186515312  0.5414135976139990  0.6107408096018720
  0.5627484308140100  0.5365375114812115  0.3893462172101326
  0.6863435044160788  0.1092420218896906  0.1661231360955428
  0.5629009237065333  0.5510563244263884  0.8757605521299533
  0.1872667205210426  0.4550934271046571  0.4786065416004856
  0.8122363766882179  0.3716582868142877  0.4342415067609802
  0.8124276816848970  0.3733752367657913  0.5216717965447757
  0.4362367072964816  0.7767294375949166  0.1240567711749213
  0.5627116604011657  0.3731393168406507  0.5216937962246887
  0.1873296471200250  0.9565551824433381  0.5658711919798052
  0.9371169442022396  0.4611153662900140  0.6997515528454862
  0.1875732622899104  0.2863881473620839  0.3894170915033983
  0.9372904645715807  0.9607817523816188  0.6996591275687831
  0.5628691470448035  0.0363885129221808  0.3893082775639909
  0.3125638662959550  0.2017911317652813  0.3451077591951546
  0.8130091622296576  0.5509177226908207  0.8758065327205993
  0.8118320530894526  0.5318774888027078  0.2558394946216377
  0.5626123803861669  0.8669990980559507  0.3002455460908918
  0.4374875930031112  0.6229712242701023  0.5216400080964387
  0.1874612773786520  0.4518134648677666  0.3451338225281382
  0.8124967940626953  0.5269079585824753  0.1241909446757778
  0.9377206500961447  0.4468971510333512  0.2114248036895048
  0.8124455142654450  0.6963045393766292  0.2113565852715888
  0.0632432040884907  0.2173714622782082  0.8335456679147436
  0.8123146548000140  0.0414240940955546  0.6106426730646487
  0.9374696539576948  0.2916650203902902  0.6107580798080665
  0.3115758180316112  0.0270760353903946  0.1239743056133841
  0.3125155196999366  0.0363977672344226  0.3894592744419623
  0.4374580546156169  0.1261051840414533  0.6549186618816125
  0.8123855821290797  0.5461222864715349  0.7441751629881250
  0.1871527774955754  0.4472889508032478  0.2114429447769992
  0.0622084276775861  0.2052807049728951  0.4785135509080805
  0.6872680138258397  0.1215202833917895  0.4347194657580924
  0.0629648405727286  0.0459699773478163  0.7441561740837527
  0.3116262879878018  0.3601210559370080  0.1656965785637308
  0.5621413721494646  0.0263110587460689  0.1242236903028447
  0.3126257172729702  0.8729094676710286  0.5214855253319626
  0.4380521525478355  0.2859980016855866  0.3893621199543428
  0.4372321433177895  0.2813972082735565  0.2556158280828700
  0.1871970747693052  0.9514685059442287  0.3450574221063339
  0.0620043488833788  0.8711330872393160  0.4342799680480574
  0.0624710780027969  0.0313328200284176  0.2555963042427918
  0.4379389232599429  0.9479560329683746  0.2115390482726955
  0.3117772574380004  0.2105670388744177  0.6998508660434840
  0.3125389717854153  0.2048988369808672  0.4788095677614974
  0.6878416050160020  0.2965137572548705  0.7442245311978634
  0.6873726897659674  0.1229290106941428  0.5214931554371665
 
  0.00000000E+00  0.00000000E+00  0.00000000E+00
  0.00000000E+00  0.00000000E+00  0.00000000E+00
  0.00000000E+00  0.00000000E+00  0.00000000E+00
  0.00000000E+00  0.00000000E+00  0.00000000E+00
  0.00000000E+00  0.00000000E+00  0.00000000E+00
  0.00000000E+00  0.00000000E+00  0.00000000E+00
  0.00000000E+00  0.00000000E+00  0.00000000E+00
  0.00000000E+00  0.00000000E+00  0.00000000E+00
  0.00000000E+00  0.00000000E+00  0.00000000E+00
  0.00000000E+00  0.00000000E+00  0.00000000E+00
  0.00000000E+00  0.00000000E+00  0.00000000E+00
  0.00000000E+00  0.00000000E+00  0.00000000E+00
  0.00000000E+00  0.00000000E+00  0.00000000E+00
  0.00000000E+00  0.00000000E+00  0.00000000E+00
  0.00000000E+00  0.00000000E+00  0.00000000E+00
  0.00000000E+00  0.00000000E+00  0.00000000E+00
  0.00000000E+00  0.00000000E+00  0.00000000E+00
  0.00000000E+00  0.00000000E+00  0.00000000E+00
  0.00000000E+00  0.00000000E+00  0.00000000E+00
  0.00000000E+00  0.00000000E+00  0.00000000E+00
  0.00000000E+00  0.00000000E+00  0.00000000E+00
  0.00000000E+00  0.00000000E+00  0.00000000E+00
  0.00000000E+00  0.00000000E+00  0.00000000E+00
  0.00000000E+00  0.00000000E+00  0.00000000E+00
  0.00000000E+00  0.00000000E+00  0.00000000E+00
  0.00000000E+00  0.00000000E+00  0.00000000E+00
  0.00000000E+00  0.00000000E+00  0.00000000E+00
  0.00000000E+00  0.00000000E+00  0.00000000E+00
  0.00000000E+00  0.00000000E+00  0.00000000E+00
  0.00000000E+00  0.00000000E+00  0.00000000E+00
  0.00000000E+00  0.00000000E+00  0.00000000E+00
  0.00000000E+00  0.00000000E+00  0.00000000E+00
  0.00000000E+00  0.00000000E+00  0.00000000E+00
  0.00000000E+00  0.00000000E+00  0.00000000E+00
  0.00000000E+00  0.00000000E+00  0.00000000E+00
  0.00000000E+00  0.00000000E+00  0.00000000E+00
  0.00000000E+00  0.00000000E+00  0.00000000E+00
  0.00000000E+00  0.00000000E+00  0.00000000E+00
  0.00000000E+00  0.00000000E+00  0.00000000E+00
  0.00000000E+00  0.00000000E+00  0.00000000E+00
  0.00000000E+00  0.00000000E+00  0.00000000E+00
  0.00000000E+00  0.00000000E+00  0.00000000E+00
  0.00000000E+00  0.00000000E+00  0.00000000E+00
  0.00000000E+00  0.00000000E+00  0.00000000E+00
  0.00000000E+00  0.00000000E+00  0.00000000E+00
  0.00000000E+00  0.00000000E+00  0.00000000E+00
  0.00000000E+00  0.00000000E+00  0.00000000E+00
  0.00000000E+00  0.00000000E+00  0.00000000E+00
  0.00000000E+00  0.00000000E+00  0.00000000E+00
  0.00000000E+00  0.00000000E+00  0.00000000E+00
  0.00000000E+00  0.00000000E+00  0.00000000E+00
  0.00000000E+00  0.00000000E+00  0.00000000E+00
  0.00000000E+00  0.00000000E+00  0.00000000E+00
  0.00000000E+00  0.00000000E+00  0.00000000E+00
  0.00000000E+00  0.00000000E+00  0.00000000E+00
  0.00000000E+00  0.00000000E+00  0.00000000E+00
  0.00000000E+00  0.00000000E+00  0.00000000E+00
  0.00000000E+00  0.00000000E+00  0.00000000E+00
  0.00000000E+00  0.00000000E+00  0.00000000E+00
  0.00000000E+00  0.00000000E+00  0.00000000E+00
  0.00000000E+00  0.00000000E+00  0.00000000E+00
  0.00000000E+00  0.00000000E+00  0.00000000E+00
  0.00000000E+00  0.00000000E+00  0.00000000E+00
  0.00000000E+00  0.00000000E+00  0.00000000E+00
  0.00000000E+00  0.00000000E+00  0.00000000E+00
  0.00000000E+00  0.00000000E+00  0.00000000E+00
  0.00000000E+00  0.00000000E+00  0.00000000E+00
  0.00000000E+00  0.00000000E+00  0.00000000E+00
  0.00000000E+00  0.00000000E+00  0.00000000E+00
  0.00000000E+00  0.00000000E+00  0.00000000E+00
  0.00000000E+00  0.00000000E+00  0.00000000E+00
  0.00000000E+00  0.00000000E+00  0.00000000E+00
  0.00000000E+00  0.00000000E+00  0.00000000E+00
  0.00000000E+00  0.00000000E+00  0.00000000E+00
  0.00000000E+00  0.00000000E+00  0.00000000E+00
  0.00000000E+00  0.00000000E+00  0.00000000E+00
  0.00000000E+00  0.00000000E+00  0.00000000E+00
  0.00000000E+00  0.00000000E+00  0.00000000E+00
  0.00000000E+00  0.00000000E+00  0.00000000E+00
  0.00000000E+00  0.00000000E+00  0.00000000E+00
  0.00000000E+00  0.00000000E+00  0.00000000E+00
  0.00000000E+00  0.00000000E+00  0.00000000E+00
  0.00000000E+00  0.00000000E+00  0.00000000E+00
  0.00000000E+00  0.00000000E+00  0.00000000E+00
  0.00000000E+00  0.00000000E+00  0.00000000E+00
  0.00000000E+00  0.00000000E+00  0.00000000E+00
  0.00000000E+00  0.00000000E+00  0.00000000E+00
  0.00000000E+00  0.00000000E+00  0.00000000E+00
  0.00000000E+00  0.00000000E+00  0.00000000E+00
  0.00000000E+00  0.00000000E+00  0.00000000E+00
  0.00000000E+00  0.00000000E+00  0.00000000E+00
  0.00000000E+00  0.00000000E+00  0.00000000E+00
  0.00000000E+00  0.00000000E+00  0.00000000E+00
  0.00000000E+00  0.00000000E+00  0.00000000E+00
  0.00000000E+00  0.00000000E+00  0.00000000E+00
  0.00000000E+00  0.00000000E+00  0.00000000E+00
  0.00000000E+00  0.00000000E+00  0.00000000E+00
  0.00000000E+00  0.00000000E+00  0.00000000E+00
  0.00000000E+00  0.00000000E+00  0.00000000E+00
  0.00000000E+00  0.00000000E+00  0.00000000E+00
  0.00000000E+00  0.00000000E+00  0.00000000E+00
  0.00000000E+00  0.00000000E+00  0.00000000E+00
  0.00000000E+00  0.00000000E+00  0.00000000E+00
  0.00000000E+00  0.00000000E+00  0.00000000E+00
  0.00000000E+00  0.00000000E+00  0.00000000E+00
  0.00000000E+00  0.00000000E+00  0.00000000E+00
  0.00000000E+00  0.00000000E+00  0.00000000E+00
  0.00000000E+00  0.00000000E+00  0.00000000E+00
  0.00000000E+00  0.00000000E+00  0.00000000E+00
  0.00000000E+00  0.00000000E+00  0.00000000E+00
  0.00000000E+00  0.00000000E+00  0.00000000E+00
  0.00000000E+00  0.00000000E+00  0.00000000E+00
  0.00000000E+00  0.00000000E+00  0.00000000E+00
  0.00000000E+00  0.00000000E+00  0.00000000E+00
  0.00000000E+00  0.00000000E+00  0.00000000E+00
  0.00000000E+00  0.00000000E+00  0.00000000E+00
  0.00000000E+00  0.00000000E+00  0.00000000E+00
  0.00000000E+00  0.00000000E+00  0.00000000E+00
  0.00000000E+00  0.00000000E+00  0.00000000E+00
  0.00000000E+00  0.00000000E+00  0.00000000E+00
  0.00000000E+00  0.00000000E+00  0.00000000E+00
  0.00000000E+00  0.00000000E+00  0.00000000E+00
  0.00000000E+00  0.00000000E+00  0.00000000E+00
  0.00000000E+00  0.00000000E+00  0.00000000E+00
  0.00000000E+00  0.00000000E+00  0.00000000E+00
  0.00000000E+00  0.00000000E+00  0.00000000E+00
  0.00000000E+00  0.00000000E+00  0.00000000E+00
  0.00000000E+00  0.00000000E+00  0.00000000E+00
  0.00000000E+00  0.00000000E+00  0.00000000E+00
  0.00000000E+00  0.00000000E+00  0.00000000E+00
  0.00000000E+00  0.00000000E+00  0.00000000E+00
  0.00000000E+00  0.00000000E+00  0.00000000E+00
  0.00000000E+00  0.00000000E+00  0.00000000E+00
  0.00000000E+00  0.00000000E+00  0.00000000E+00
  0.00000000E+00  0.00000000E+00  0.00000000E+00
  0.00000000E+00  0.00000000E+00  0.00000000E+00
  0.00000000E+00  0.00000000E+00  0.00000000E+00
  0.00000000E+00  0.00000000E+00  0.00000000E+00
  0.00000000E+00  0.00000000E+00  0.00000000E+00
  0.00000000E+00  0.00000000E+00  0.00000000E+00
  0.00000000E+00  0.00000000E+00  0.00000000E+00
  0.00000000E+00  0.00000000E+00  0.00000000E+00
  0.00000000E+00  0.00000000E+00  0.00000000E+00
  0.00000000E+00  0.00000000E+00  0.00000000E+00
  0.00000000E+00  0.00000000E+00  0.00000000E+00
  0.00000000E+00  0.00000000E+00  0.00000000E+00
  0.00000000E+00  0.00000000E+00  0.00000000E+00
  0.00000000E+00  0.00000000E+00  0.00000000E+00
  0.00000000E+00  0.00000000E+00  0.00000000E+00
  0.00000000E+00  0.00000000E+00  0.00000000E+00
  0.00000000E+00  0.00000000E+00  0.00000000E+00
  0.00000000E+00  0.00000000E+00  0.00000000E+00
  0.00000000E+00  0.00000000E+00  0.00000000E+00
  0.00000000E+00  0.00000000E+00  0.00000000E+00
  0.00000000E+00  0.00000000E+00  0.00000000E+00
  0.00000000E+00  0.00000000E+00  0.00000000E+00
  0.00000000E+00  0.00000000E+00  0.00000000E+00
  0.00000000E+00  0.00000000E+00  0.00000000E+00
  0.00000000E+00  0.00000000E+00  0.00000000E+00
  0.00000000E+00  0.00000000E+00  0.00000000E+00
  0.00000000E+00  0.00000000E+00  0.00000000E+00
  0.00000000E+00  0.00000000E+00  0.00000000E+00
  0.00000000E+00  0.00000000E+00  0.00000000E+00
  0.00000000E+00  0.00000000E+00  0.00000000E+00
  0.00000000E+00  0.00000000E+00  0.00000000E+00
  0.00000000E+00  0.00000000E+00  0.00000000E+00
  0.00000000E+00  0.00000000E+00  0.00000000E+00
  0.00000000E+00  0.00000000E+00  0.00000000E+00
  0.00000000E+00  0.00000000E+00  0.00000000E+00
  0.00000000E+00  0.00000000E+00  0.00000000E+00
  0.00000000E+00  0.00000000E+00  0.00000000E+00
  0.00000000E+00  0.00000000E+00  0.00000000E+00
  0.00000000E+00  0.00000000E+00  0.00000000E+00
  0.00000000E+00  0.00000000E+00  0.00000000E+00
  0.00000000E+00  0.00000000E+00  0.00000000E+00
  0.00000000E+00  0.00000000E+00  0.00000000E+00
  0.00000000E+00  0.00000000E+00  0.00000000E+00
  0.00000000E+00  0.00000000E+00  0.00000000E+00
  0.00000000E+00  0.00000000E+00  0.00000000E+00
  0.00000000E+00  0.00000000E+00  0.00000000E+00
  0.00000000E+00  0.00000000E+00  0.00000000E+00
  0.00000000E+00  0.00000000E+00  0.00000000E+00
  0.00000000E+00  0.00000000E+00  0.00000000E+00
  0.00000000E+00  0.00000000E+00  0.00000000E+00
  0.00000000E+00  0.00000000E+00  0.00000000E+00
  0.00000000E+00  0.00000000E+00  0.00000000E+00
  0.00000000E+00  0.00000000E+00  0.00000000E+00
  0.00000000E+00  0.00000000E+00  0.00000000E+00
  0.00000000E+00  0.00000000E+00  0.00000000E+00
  0.00000000E+00  0.00000000E+00  0.00000000E+00
  0.00000000E+00  0.00000000E+00  0.00000000E+00
  0.00000000E+00  0.00000000E+00  0.00000000E+00
  0.00000000E+00  0.00000000E+00  0.00000000E+00
  0.00000000E+00  0.00000000E+00  0.00000000E+00
  0.00000000E+00  0.00000000E+00  0.00000000E+00
  0.00000000E+00  0.00000000E+00  0.00000000E+00
  0.00000000E+00  0.00000000E+00  0.00000000E+00
  0.00000000E+00  0.00000000E+00  0.00000000E+00
  0.00000000E+00  0.00000000E+00  0.00000000E+00
  0.00000000E+00  0.00000000E+00  0.00000000E+00
  0.00000000E+00  0.00000000E+00  0.00000000E+00
  0.00000000E+00  0.00000000E+00  0.00000000E+00
  0.00000000E+00  0.00000000E+00  0.00000000E+00
  0.00000000E+00  0.00000000E+00  0.00000000E+00
  0.00000000E+00  0.00000000E+00  0.00000000E+00
  0.00000000E+00  0.00000000E+00  0.00000000E+00
  0.00000000E+00  0.00000000E+00  0.00000000E+00
  0.00000000E+00  0.00000000E+00  0.00000000E+00
  0.00000000E+00  0.00000000E+00  0.00000000E+00
  0.00000000E+00  0.00000000E+00  0.00000000E+00
  0.00000000E+00  0.00000000E+00  0.00000000E+00
  0.00000000E+00  0.00000000E+00  0.00000000E+00
  0.00000000E+00  0.00000000E+00  0.00000000E+00
  0.00000000E+00  0.00000000E+00  0.00000000E+00
  0.00000000E+00  0.00000000E+00  0.00000000E+00
  0.00000000E+00  0.00000000E+00  0.00000000E+00
  0.00000000E+00  0.00000000E+00  0.00000000E+00
  0.00000000E+00  0.00000000E+00  0.00000000E+00
  0.00000000E+00  0.00000000E+00  0.00000000E+00
  0.00000000E+00  0.00000000E+00  0.00000000E+00
  0.00000000E+00  0.00000000E+00  0.00000000E+00
  0.00000000E+00  0.00000000E+00  0.00000000E+00
  0.00000000E+00  0.00000000E+00  0.00000000E+00
  0.00000000E+00  0.00000000E+00  0.00000000E+00
  0.00000000E+00  0.00000000E+00  0.00000000E+00
  0.00000000E+00  0.00000000E+00  0.00000000E+00
  0.00000000E+00  0.00000000E+00  0.00000000E+00
  0.00000000E+00  0.00000000E+00  0.00000000E+00
  0.00000000E+00  0.00000000E+00  0.00000000E+00
  0.00000000E+00  0.00000000E+00  0.00000000E+00
  0.00000000E+00  0.00000000E+00  0.00000000E+00
  0.00000000E+00  0.00000000E+00  0.00000000E+00
  0.00000000E+00  0.00000000E+00  0.00000000E+00
  0.00000000E+00  0.00000000E+00  0.00000000E+00
  0.00000000E+00  0.00000000E+00  0.00000000E+00
  0.00000000E+00  0.00000000E+00  0.00000000E+00
  0.00000000E+00  0.00000000E+00  0.00000000E+00
  0.00000000E+00  0.00000000E+00  0.00000000E+00
  0.00000000E+00  0.00000000E+00  0.00000000E+00
  0.00000000E+00  0.00000000E+00  0.00000000E+00
  0.00000000E+00  0.00000000E+00  0.00000000E+00
  0.00000000E+00  0.00000000E+00  0.00000000E+00
  0.00000000E+00  0.00000000E+00  0.00000000E+00
  0.00000000E+00  0.00000000E+00  0.00000000E+00
  0.00000000E+00  0.00000000E+00  0.00000000E+00
  0.00000000E+00  0.00000000E+00  0.00000000E+00
  0.00000000E+00  0.00000000E+00  0.00000000E+00