CuInSe2gb                               
   1.00000000000000     
     9.7266780392896699    0.0000000000000000    0.0000000000000000
     0.0000000000000000    8.4235502764570693    0.0000000000000000
     0.0000000000000000    0.0000000000000000   45.0000000000000000
   Fe   Mn
   281     7
Direct
  0.0575742407050807  0.7011612197595999  0.2112529386541404
  0.3160242881622990  0.7198175700996019  0.8756567895846007
  0.6881575971103722  0.9578834946368282  0.6113896825619095
  0.4382308257788313  0.4575970707598425  0.6113545854902932
  0.4359486164300648  0.2872901170964122  0.2555947572148405
  0.0609404623881423  0.3865367097627923  0.8340249386579387
  0.3110660911156259  0.8867103624518201  0.8341080404032180
  0.4423139039036714  0.6264571685119331  0.7003190721508726
  0.0642332477278466  0.2129966938395717  0.7443796448457788
  0.1826067566793645  0.4513944705432787  0.2112862459220644
  0.5638567914890745  0.2091380425803984  0.4778824747136849
  0.0638983422787979  0.8745800941276887  0.5667878872703901
  0.5652943063235465  0.2195688758804182  0.8755515698748242
  0.8111957590038477  0.5314059784449219  0.1246556869544793
  0.4326487158263281  0.9513767971506784  0.2112809280075943
  0.5639836472813943  0.3745997510955690  0.5667518653209477
  0.8119483934550401  0.0422707667520003  0.3885464136033952
  0.6860343831122953  0.7905400422574720  0.5221547045042437
  0.4388680191842391  0.4590503584025399  0.4778728464480266
  0.4385822044785583  0.9624967052609794  0.7444637188646387
  0.4388180057398847  0.6245545425372996  0.5667906153228330
  0.5671854160603856  0.8761887462756510  0.7001947320549279
  0.3108128794733090  0.0305616894335480  0.1242038227411736
  0.6868807667031703  0.9586588417259618  0.3443744103441484
  0.6875022614240456  0.7798560737731566  0.1244755721289062
  0.0577343404667265  0.3735943384791811  0.2997101856393866
  0.6885818940401591  0.4715252120071063  0.8753531085959387
  0.4327369063829083  0.4511380442534526  0.2113811191749257
  0.8111364715532714  0.3751378195837423  0.4331567785032196
  0.5630260403922370  0.7078703377385189  0.6114611968511615
  0.5630937549953710  0.5413766186901275  0.6556488333238364
  0.9360480168490225  0.1252850571619148  0.4331515794497799
  0.5606172659334231  0.5372434644247546  0.2555243324916424
  0.6866258965802212  0.4584073327516801  0.3441742924432338
  0.1885501869112148  0.6133833863560055  0.1661708975878795
  0.1927368975173618  0.7987296966714312  0.7885659317907914
  0.4425556716442148  0.1262837986491356  0.7002676270214586
  0.9326153061047371  0.6234623867638247  0.2997940614347288
  0.3153709018025767  0.2193498262719513  0.8755794714896322
  0.3137564859177830  0.8746082263003646  0.5667597232253155
  0.8154165608566811  0.2193319914423076  0.8756204665901800
  0.8128730167643512  0.5414764858293759  0.6555881143791326
  0.5600454477884632  0.5297824930670527  0.1241523773487907
  0.5671532732212455  0.0496989828814862  0.7888068800631218
  0.1861087097034069  0.2873152849227735  0.2555497379579442
  0.8110241738279211  0.8755685041138574  0.4330989620908376
  0.5672129090672559  0.3764658634965182  0.7003579013797958
  0.0614730731465128  0.0300471382949155  0.1245080888654026
  0.3128757531805598  0.5413163780463124  0.6556399022380236
  0.5618231334079180  0.2085584700364183  0.3443182345004211
  0.1880582780290504  0.9578647201996093  0.6113937101879660
  0.3075710808237456  0.3735091657428544  0.2997877532765921
  0.4379821577673571  0.7914767517053745  0.6556578146023621
  0.1922322831316503  0.2980942546121609  0.7886978925892484
  0.0640830470567735  0.3635910562205805  0.1660453875779479
  0.6918907487963465  0.6262532778693489  0.7001819358873598
  0.3117595931478723  0.5419245661404527  0.3885563669916587
  0.0651578999152725  0.7196083367280522  0.8757587245913688
  0.9365642866049565  0.6369563348847151  0.8340899120474069
  0.3177844941225081  0.5495767678296809  0.7887761800857291
  0.3071910176467292  0.2011140343101084  0.2111468034808757
  0.0638292781599337  0.7090677286804729  0.4779340064796262
  0.5576074228556058  0.2014291701633926  0.2112053131242414
  0.3140125107671083  0.2131437121389581  0.7443734505688907
  0.0672048403028286  0.3768610943745169  0.7002524546264113
  0.1862932041569116  0.6369205364504482  0.8339369987258486
  0.0675884200520092  0.0494584899532075  0.7887696748309798
  0.4389385106742437  0.1245357858101948  0.5667447966810317
  0.9381087557733269  0.2915391526745162  0.6555531489892684
  0.8073219769006328  0.2007772331494244  0.2112697748436578
  0.9325999492609710  0.9519227946586484  0.2113904796610854
  0.9389018339573129  0.6246775456418477  0.5667758985030300
  0.8110955468855753  0.3862632077537108  0.8340450053402194
  0.1922758088203346  0.6264379017446207  0.7002175963261510
  0.8110063056408441  0.8864817914399168  0.8344076490584483
  0.6881958254442099  0.2913394606882316  0.6556753078005981
  0.3132596755576431  0.2079269170390792  0.6114736517920077
  0.4387265149492096  0.4626390082014421  0.7442743146302149
  0.4368554180200193  0.7920855541159629  0.3885647428252790
  0.6882801631350123  0.9624958348089346  0.7445315721053307
  0.8070285150846292  0.7007533611758130  0.2112695403650265
  0.8129512470540182  0.7076662891964287  0.6113481337938083
  0.4364692755454823  0.7797276715871152  0.1240363925497655
  0.3137114433783902  0.7125520497814123  0.7443273180642371
  0.3173599741909479  0.0493717525259200  0.7888176804717584
  0.8121778987916056  0.5422471552544920  0.3885786201633801
  0.6861648036087472  0.2910323892337299  0.5221037053219892
  0.6918088324740014  0.7990929087273804  0.7887627966477977
  0.1861710193088482  0.7877660898927378  0.2556033356864806
  0.6890416789207819  0.1128960842286901  0.1661739768545649
  0.6886436723380785  0.9591066848506310  0.4779092474548467
  0.9369950645516153  0.9589714291411416  0.3443452086494373
  0.8111376679255288  0.0402215257628967  0.5220735315804805
  0.6855676831358897  0.6251593301655677  0.4331314808227641
  0.4369680260031644  0.4587208667215842  0.3442954541484873
  0.8136611600416761  0.2134914613901100  0.7443776504467534
  0.4391744343232990  0.9717836127735179  0.8754322016729637
  0.5639124063227541  0.8744214600786830  0.5667227833429278
  0.8109203446895830  0.0300414631195906  0.1243401223175684
  0.4326909654473904  0.6234904284629353  0.2997904904040176
  0.8153327425144153  0.7199894477034089  0.8757568215493177
  0.6881940888646465  0.4578086185373453  0.6114384222924789
  0.5611000523167341  0.3867847914108182  0.8340172401540417
  0.8073639797541607  0.3737062013048105  0.2997420744577828
  0.1869528805423794  0.2919952959473996  0.3885357287431390
  0.8165346116223091  0.5491885354446724  0.7889185806650009
  0.1862749377191419  0.7904246897764913  0.5221924519675661
  0.3076499949544719  0.8736195966161189  0.2997238818831578
  0.1824950123759709  0.9517511769376693  0.2115218206505581
  0.1894894329129614  0.4627756146815089  0.7442025752317850
  0.4361322514040307  0.2908179056819523  0.5220775758346394
  0.0618864912291562  0.7085720234234597  0.3443086835618067
  0.1881880621716607  0.7911255865904085  0.6555462564349002
  0.4419745956909412  0.7991428707949579  0.7886288410672491
  0.6855648849384245  0.1251228961920534  0.4331624277815120
  0.9361012854246270  0.7906041560765887  0.5221423321532207
  0.6890058378213854  0.6133666602481427  0.1661800190424039
  0.8119468720953751  0.7084491220363436  0.3442989223745253
  0.9387844459917162  0.4626525883454546  0.7443502342043410
  0.1871054609108022  0.4586078982680480  0.3442805164758170
  0.5677538023556808  0.5488335311989136  0.7888158740477528
  0.5629733810724195  0.3638367912926572  0.1659931626253030
  0.5619802847378813  0.7085721285639399  0.3443528703287883
  0.5576445738994626  0.3735641893573297  0.2998065282624726
  0.1887549001569959  0.4713209241790584  0.8754667910594792
  0.1880543443956501  0.1130970115972329  0.1662250115900399
  0.4422588039483042  0.2985757610058306  0.7886116233877777
  0.6858735195217540  0.7876785583869756  0.2555393860280119
  0.9369075110363458  0.1366874568441671  0.8340229567019909
  0.4386425610266494  0.9589320648849293  0.4778863555720413
  0.5653897205499842  0.7197251537082414  0.8755972543347227
  0.1885358300068549  0.4590913904962781  0.4778773355422587
  0.9368052055604912  0.2798634973450778  0.1247547270177070
  0.3117463215145622  0.0420614972267699  0.3885340345269704
  0.0630291966462186  0.0408952248862764  0.6555980131911977
  0.5610673408814574  0.3748616217240306  0.4331165646532272
  0.6879353832705221  0.4623072049225013  0.7443282005581757
  0.5640077151498428  0.2131909322204841  0.7444170770844188
  0.9424486198969841  0.1270807522523318  0.7002865992393215
  0.5629362579979391  0.0411518780671118  0.6556414941161856
  0.5611935251453963  0.5406009017416540  0.5220625533943227
  0.1825175701429731  0.1233885097774513  0.2996630485015189
  0.4383077805298014  0.1134405496556639  0.1661813104532086
  0.6825892426498106  0.6234222060350542  0.2998183071422740
  0.9327126613037858  0.1231425127988465  0.2997335341710811
  0.8138870989011565  0.3746855703265112  0.5667872676150035
  0.0576924100444295  0.8733850053741758  0.2997298888596859
  0.1888688686569103  0.6246110947383871  0.5668441583472129
  0.3144326960292686  0.3634855600923714  0.1659749087284949
  0.3114868209994069  0.3865462759071397  0.8340530052830919
  0.9391180888933284  0.4712802606310819  0.8754573700306343
  0.4366351785215011  0.6371253919866455  0.8338679363968758
  0.0620088008571110  0.2088182456835854  0.3443507679221308
  0.1893587838211988  0.9715331961171706  0.8754369283514722
  0.9361946191182438  0.7796948636763973  0.1244842864446215
  0.6869098863909233  0.7920707786482689  0.3885587162019053
  0.9380870414813650  0.7913024113233650  0.6556567358853324
  0.9383024932953522  0.1136055696146804  0.1663271734346990
  0.4378997376119452  0.2914073862149927  0.6556837616449775
  0.0575289902619972  0.2012167649833868  0.2113422572883595
  0.6823510764272546  0.9515816843591410  0.2114762307863556
  0.1825048291375138  0.6235731098277537  0.2997661585235762
  0.8171174659744940  0.8762772027954214  0.7001890604380789
  0.9423684603475280  0.6267133475473495  0.7002998358788416
  0.1920977312985630  0.1266993665225776  0.7002497099679774
  0.9388842724677603  0.4588442068683077  0.4779137171595966
  0.8131478017336795  0.2077561472854724  0.6114518596799728
  0.1863310074150379  0.6252504782479744  0.4331130919467636
  0.4325004611088600  0.1235396117036763  0.2997061955164594
  0.6823761952026480  0.1233397609145993  0.2997343649451755
  0.5617176572517069  0.5418823148290846  0.3885608001045818
  0.8118663626328665  0.2087378029923159  0.3444393110367256
  0.4391072851414289  0.4713458010849475  0.8753083238611585
  0.5612911931630302  0.8866258908876533  0.8341204460018083
  0.3138753037841738  0.2090244395409336  0.4778867771661889
  0.1887649170960903  0.9589560457152647  0.4778619996712309
  0.0609130644098251  0.8865304235726903  0.8342090052578462
  0.0613461862131307  0.5405163132985883  0.5221002125990163
  0.9386970130082680  0.9588652230387718  0.4778281079595434
  0.0630554002925920  0.7076845930400164  0.6113813994707363
  0.5609519231322362  0.0408784647166546  0.5220930659397988
  0.6917456417697001  0.2986215458235267  0.7886825594819200
  0.8138890488998581  0.3631643318926788  0.1661131835958354
  0.4360000748739012  0.1250747234268112  0.4331281822598022
  0.0636911532222819  0.2087320827679888  0.4778742004324333
  0.3130178882575052  0.0412914978383246  0.6556035615488307
  0.4362321235602479  0.7903388090699075  0.5220674749084471
  0.1870378456267403  0.1367109331274787  0.8340589892605718
  0.1858578145501605  0.2785332638162130  0.1247759289779766
  0.9370071191589610  0.4587808186613319  0.3442675933480154
  0.5643406864403357  0.8641251708388163  0.1660326819455633
  0.3071441850195041  0.7013684204626388  0.2113190762323835
  0.9376750301086769  0.6128915295177019  0.1661989680639741
  0.1880884843042130  0.4577492255739111  0.6114330141509062
  0.0672316952883158  0.8764845394621845  0.7001492780271437
  0.0630483973955992  0.5412610814712928  0.6556883284168438
  0.3106012748558544  0.5314233722202502  0.1243442585022004
  0.9367678865270669  0.7920947191555703  0.3885492296276451
  0.9416998674076027  0.2979627147152528  0.7887107316335653
  0.1879242863368447  0.2914393025608742  0.6556207058093927
  0.9381387499728268  0.9577918735044447  0.6114636814733878
  0.8136833413540665  0.7129534223516081  0.7444758125618611
  0.6860304273281648  0.2874229981220388  0.2555420249062099
  0.0642268699202181  0.7129056438653529  0.7443822908323026
  0.6823042710319661  0.4514773613017528  0.2113729117948925
  0.8137518258928518  0.2087174024858388  0.4778781404404839
  0.5636730613679438  0.7090729133915227  0.4779449754952270
  0.0638474819318477  0.8646990036179154  0.1660883210791005
  0.9362387795416328  0.2906540715456191  0.5221727322149171
  0.6875916248505486  0.7912641875147801  0.6556563333615275
  0.0610551601543804  0.8750233554413712  0.4331130984359512
  0.0655188211633099  0.2189196102537394  0.8757060729042193
  0.8130416102385150  0.0411812372379514  0.6556027050847056
  0.5613657120659253  0.0306157938624903  0.1245872951845156
  0.3109948116833031  0.3748939613551179  0.4331019749339786
  0.3140000835461870  0.3746137069547412  0.5667284300625899
  0.3137805281866133  0.7090291331604023  0.4778875122975413
  0.0612105573263723  0.0404927816082734  0.5220522524484925
  0.3170873492079824  0.8761793026992247  0.7002445284727690
  0.0606712598420706  0.5370513699655014  0.2555625272269295
  0.6864968011210495  0.1370734933933809  0.8340270001177956
  0.8109779270470486  0.0371935388741568  0.2556675561252970
  0.1865061418784732  0.1251030044923779  0.4331364410667012
  0.6923123384205067  0.1265051100115283  0.7002135965555820
  0.1861075448277995  0.2908188606127008  0.5221214399115636
  0.4355716327563530  0.7869856853208428  0.2556562911099113
  0.8108433014616980  0.5371292499098623  0.2555390478726272
  0.0631570806844578  0.2079198045638046  0.6113872639736093
  0.1866678230516526  0.7920661876124537  0.3885840741831326
  0.3111891688371580  0.5406264993031694  0.5220807017063094
  0.8171323669989976  0.3766008051693051  0.7003093293099969
  0.6867057003747136  0.2920609059877635  0.3885243292530779
  0.1889178921468715  0.1245957942803434  0.5667265194490476
  0.6885516719976312  0.9716165820211555  0.8754435725633136
  0.6888248553059452  0.1246781360357993  0.5667684301287632
  0.4370000499103218  0.9587034915750700  0.3443854553110951
  0.1887257248834271  0.9626013814770081  0.7444387066478848
  0.9357578081413902  0.7870827119319788  0.2556714754239222
  0.5611032042981762  0.8756181928368363  0.4331452933754584
  0.3108652045708135  0.8754457579125251  0.4331558187380241
  0.8110446411979285  0.5403577807631905  0.5221026013428623
  0.9325674816693221  0.4516050686269740  0.2113943364170463
  0.3110754433153429  0.5372853818677542  0.2555833450122477
  0.5616129754885753  0.0419120301916048  0.3885397029717560
  0.9380800768426203  0.4576141741933412  0.6113806207470018
  0.0617162496309755  0.0421443241348342  0.3885615825229291
  0.0617917942789587  0.5420261230692516  0.3885691821563198
  0.4369020217748072  0.2919917714202420  0.3885406671149515
  0.6888359786359974  0.4589431901662079  0.4779543139715742
  0.0640748184093922  0.3746515941771167  0.5667751733487159
  0.5576799414399365  0.7013752395291205  0.2112460888919583
  0.9361541869542901  0.2873041897908564  0.2556070859261545
  0.8164504631813935  0.0488716177434393  0.7888125163422246
  0.1869776307231698  0.9586788392405861  0.3443509885454752
  0.5576542476628754  0.8734602119889324  0.2997556785149245
  0.0612072870857825  0.3752078617762736  0.4330923754949988
  0.3119264240750960  0.7086410345735408  0.3443211447693098
  0.3119683022937845  0.2084593073422693  0.3443556165335272
  0.9388624932551178  0.1247100485009492  0.5667233401741743
  0.4380350972351583  0.9578401743190749  0.6114461970807679
  0.5609182923941742  0.0374844528929220  0.2556427067749418
  0.1878932623583160  0.7796689699954625  0.1244169887831390
  0.0609324282653426  0.0376680578488647  0.2556939880947630
  0.6889027589439918  0.6246007561456821  0.5668299467613800
  0.0602660288288222  0.5298272339603916  0.1245473484244790
  0.3111802372504918  0.0409023963726616  0.5221089636550635
  0.6864526953744662  0.2789788960439064  0.1247279773789304
  0.8136606669027442  0.7090309787746104  0.4779201548627473
  0.4368025220146285  0.1365496638982176  0.8338513510707110
  0.3175357808115707  0.3761384293586239  0.7002273246979432
  0.6871062911008911  0.6370152175746707  0.8339236343044764
  0.5636982635390226  0.7122433147634971  0.7444080795023383
  0.9366672809688078  0.2920315381917902  0.3885645310301286
  0.9390580869773760  0.9709396183555480  0.8755094995453556
  0.5630714022787359  0.2077209323982110  0.6114243447469971
  0.8139482690986425  0.8745115818121648  0.5667847714675164
  0.8075626646136322  0.8733610105868678  0.2997012924615722
  0.3108200223774827  0.0370199111410307  0.2556979110779772
  0.4370434126505989  0.2799046709412513  0.1247198137792911
  0.3130492835299377  0.7077840128942331  0.6114110008878462
  0.4356647006852185  0.6251819183537344  0.4331569058935366
  0.9360474116282609  0.6251603168868176  0.4331877181590184
  0.3142225545589823  0.8633301688457512  0.1658461465415584
  0.0679433917448075  0.5481201862056138  0.7887002171178010
  0.8148533726731375  0.8636480682149387  0.1656732504976434
  0.9418085132194230  0.7983851924669064  0.7886906309019834
  0.9380441653596159  0.9633683695050747  0.7444382622310241
  0.4390495476166634  0.6115817147017268  0.1656961777447813
 
  0.00000000E+00  0.00000000E+00  0.00000000E+00
  0.00000000E+00  0.00000000E+00  0.00000000E+00
  0.00000000E+00  0.00000000E+00  0.00000000E+00
  0.00000000E+00  0.00000000E+00  0.00000000E+00
  0.00000000E+00  0.00000000E+00  0.00000000E+00
  0.00000000E+00  0.00000000E+00  0.00000000E+00
  0.00000000E+00  0.00000000E+00  0.00000000E+00
  0.00000000E+00  0.00000000E+00  0.00000000E+00
  0.00000000E+00  0.00000000E+00  0.00000000E+00
  0.00000000E+00  0.00000000E+00  0.00000000E+00
  0.00000000E+00  0.00000000E+00  0.00000000E+00
  0.00000000E+00  0.00000000E+00  0.00000000E+00
  0.00000000E+00  0.00000000E+00  0.00000000E+00
  0.00000000E+00  0.00000000E+00  0.00000000E+00
  0.00000000E+00  0.00000000E+00  0.00000000E+00
  0.00000000E+00  0.00000000E+00  0.00000000E+00
  0.00000000E+00  0.00000000E+00  0.00000000E+00
  0.00000000E+00  0.00000000E+00  0.00000000E+00
  0.00000000E+00  0.00000000E+00  0.00000000E+00
  0.00000000E+00  0.00000000E+00  0.00000000E+00
  0.00000000E+00  0.00000000E+00  0.00000000E+00
  0.00000000E+00  0.00000000E+00  0.00000000E+00
  0.00000000E+00  0.00000000E+00  0.00000000E+00
  0.00000000E+00  0.00000000E+00  0.00000000E+00
  0.00000000E+00  0.00000000E+00  0.00000000E+00
  0.00000000E+00  0.00000000E+00  0.00000000E+00
  0.00000000E+00  0.00000000E+00  0.00000000E+00
  0.00000000E+00  0.00000000E+00  0.00000000E+00
  0.00000000E+00  0.00000000E+00  0.00000000E+00
  0.00000000E+00  0.00000000E+00  0.00000000E+00
  0.00000000E+00  0.00000000E+00  0.00000000E+00
  0.00000000E+00  0.00000000E+00  0.00000000E+00
  0.00000000E+00  0.00000000E+00  0.00000000E+00
  0.00000000E+00  0.00000000E+00  0.00000000E+00
  0.00000000E+00  0.00000000E+00  0.00000000E+00
  0.00000000E+00  0.00000000E+00  0.00000000E+00
  0.00000000E+00  0.00000000E+00  0.00000000E+00
  0.00000000E+00  0.00000000E+00  0.00000000E+00
  0.00000000E+00  0.00000000E+00  0.00000000E+00
  0.00000000E+00  0.00000000E+00  0.00000000E+00
  0.00000000E+00  0.00000000E+00  0.00000000E+00
  0.00000000E+00  0.00000000E+00  0.00000000E+00
  0.00000000E+00  0.00000000E+00  0.00000000E+00
  0.00000000E+00  0.00000000E+00  0.00000000E+00
  0.00000000E+00  0.00000000E+00  0.00000000E+00
  0.00000000E+00  0.00000000E+00  0.00000000E+00
  0.00000000E+00  0.00000000E+00  0.00000000E+00
  0.00000000E+00  0.00000000E+00  0.00000000E+00
  0.00000000E+00  0.00000000E+00  0.00000000E+00
  0.00000000E+00  0.00000000E+00  0.00000000E+00
  0.00000000E+00  0.00000000E+00  0.00000000E+00
  0.00000000E+00  0.00000000E+00  0.00000000E+00
  0.00000000E+00  0.00000000E+00  0.00000000E+00
  0.00000000E+00  0.00000000E+00  0.00000000E+00
  0.00000000E+00  0.00000000E+00  0.00000000E+00
  0.00000000E+00  0.00000000E+00  0.00000000E+00
  0.00000000E+00  0.00000000E+00  0.00000000E+00
  0.00000000E+00  0.00000000E+00  0.00000000E+00
  0.00000000E+00  0.00000000E+00  0.00000000E+00
  0.00000000E+00  0.00000000E+00  0.00000000E+00
  0.00000000E+00  0.00000000E+00  0.00000000E+00
  0.00000000E+00  0.00000000E+00  0.00000000E+00
  0.00000000E+00  0.00000000E+00  0.00000000E+00
  0.00000000E+00  0.00000000E+00  0.00000000E+00
  0.00000000E+00  0.00000000E+00  0.00000000E+00
  0.00000000E+00  0.00000000E+00  0.00000000E+00
  0.00000000E+00  0.00000000E+00  0.00000000E+00
  0.00000000E+00  0.00000000E+00  0.00000000E+00
  0.00000000E+00  0.00000000E+00  0.00000000E+00
  0.00000000E+00  0.00000000E+00  0.00000000E+00
  0.00000000E+00  0.00000000E+00  0.00000000E+00
  0.00000000E+00  0.00000000E+00  0.00000000E+00
  0.00000000E+00  0.00000000E+00  0.00000000E+00
  0.00000000E+00  0.00000000E+00  0.00000000E+00
  0.00000000E+00  0.00000000E+00  0.00000000E+00
  0.00000000E+00  0.00000000E+00  0.00000000E+00
  0.00000000E+00  0.00000000E+00  0.00000000E+00
  0.00000000E+00  0.00000000E+00  0.00000000E+00
  0.00000000E+00  0.00000000E+00  0.00000000E+00
  0.00000000E+00  0.00000000E+00  0.00000000E+00
  0.00000000E+00  0.00000000E+00  0.00000000E+00
  0.00000000E+00  0.00000000E+00  0.00000000E+00
  0.00000000E+00  0.00000000E+00  0.00000000E+00
  0.00000000E+00  0.00000000E+00  0.00000000E+00
  0.00000000E+00  0.00000000E+00  0.00000000E+00
  0.00000000E+00  0.00000000E+00  0.00000000E+00
  0.00000000E+00  0.00000000E+00  0.00000000E+00
  0.00000000E+00  0.00000000E+00  0.00000000E+00
  0.00000000E+00  0.00000000E+00  0.00000000E+00
  0.00000000E+00  0.00000000E+00  0.00000000E+00
  0.00000000E+00  0.00000000E+00  0.00000000E+00
  0.00000000E+00  0.00000000E+00  0.00000000E+00
  0.00000000E+00  0.00000000E+00  0.00000000E+00
  0.00000000E+00  0.00000000E+00  0.00000000E+00
  0.00000000E+00  0.00000000E+00  0.00000000E+00
  0.00000000E+00  0.00000000E+00  0.00000000E+00
  0.00000000E+00  0.00000000E+00  0.00000000E+00
  0.00000000E+00  0.00000000E+00  0.00000000E+00
  0.00000000E+00  0.00000000E+00  0.00000000E+00
  0.00000000E+00  0.00000000E+00  0.00000000E+00
  0.00000000E+00  0.00000000E+00  0.00000000E+00
  0.00000000E+00  0.00000000E+00  0.00000000E+00
  0.00000000E+00  0.00000000E+00  0.00000000E+00
  0.00000000E+00  0.00000000E+00  0.00000000E+00
  0.00000000E+00  0.00000000E+00  0.00000000E+00
  0.00000000E+00  0.00000000E+00  0.00000000E+00
  0.00000000E+00  0.00000000E+00  0.00000000E+00
  0.00000000E+00  0.00000000E+00  0.00000000E+00
  0.00000000E+00  0.00000000E+00  0.00000000E+00
  0.00000000E+00  0.00000000E+00  0.00000000E+00
  0.00000000E+00  0.00000000E+00  0.00000000E+00
  0.00000000E+00  0.00000000E+00  0.00000000E+00
  0.00000000E+00  0.00000000E+00  0.00000000E+00
  0.00000000E+00  0.00000000E+00  0.00000000E+00
  0.00000000E+00  0.00000000E+00  0.00000000E+00
  0.00000000E+00  0.00000000E+00  0.00000000E+00
  0.00000000E+00  0.00000000E+00  0.00000000E+00
  0.00000000E+00  0.00000000E+00  0.00000000E+00
  0.00000000E+00  0.00000000E+00  0.00000000E+00
  0.00000000E+00  0.00000000E+00  0.00000000E+00
  0.00000000E+00  0.00000000E+00  0.00000000E+00
  0.00000000E+00  0.00000000E+00  0.00000000E+00
  0.00000000E+00  0.00000000E+00  0.00000000E+00
  0.00000000E+00  0.00000000E+00  0.00000000E+00
  0.00000000E+00  0.00000000E+00  0.00000000E+00
  0.00000000E+00  0.00000000E+00  0.00000000E+00
  0.00000000E+00  0.00000000E+00  0.00000000E+00
  0.00000000E+00  0.00000000E+00  0.00000000E+00
  0.00000000E+00  0.00000000E+00  0.00000000E+00
  0.00000000E+00  0.00000000E+00  0.00000000E+00
  0.00000000E+00  0.00000000E+00  0.00000000E+00
  0.00000000E+00  0.00000000E+00  0.00000000E+00
  0.00000000E+00  0.00000000E+00  0.00000000E+00
  0.00000000E+00  0.00000000E+00  0.00000000E+00
  0.00000000E+00  0.00000000E+00  0.00000000E+00
  0.00000000E+00  0.00000000E+00  0.00000000E+00
  0.00000000E+00  0.00000000E+00  0.00000000E+00
  0.00000000E+00  0.00000000E+00  0.00000000E+00
  0.00000000E+00  0.00000000E+00  0.00000000E+00
  0.00000000E+00  0.00000000E+00  0.00000000E+00
  0.00000000E+00  0.00000000E+00  0.00000000E+00
  0.00000000E+00  0.00000000E+00  0.00000000E+00
  0.00000000E+00  0.00000000E+00  0.00000000E+00
  0.00000000E+00  0.00000000E+00  0.00000000E+00
  0.00000000E+00  0.00000000E+00  0.00000000E+00
  0.00000000E+00  0.00000000E+00  0.00000000E+00
  0.00000000E+00  0.00000000E+00  0.00000000E+00
  0.00000000E+00  0.00000000E+00  0.00000000E+00
  0.00000000E+00  0.00000000E+00  0.00000000E+00
  0.00000000E+00  0.00000000E+00  0.00000000E+00
  0.00000000E+00  0.00000000E+00  0.00000000E+00
  0.00000000E+00  0.00000000E+00  0.00000000E+00
  0.00000000E+00  0.00000000E+00  0.00000000E+00
  0.00000000E+00  0.00000000E+00  0.00000000E+00
  0.00000000E+00  0.00000000E+00  0.00000000E+00
  0.00000000E+00  0.00000000E+00  0.00000000E+00
  0.00000000E+00  0.00000000E+00  0.00000000E+00
  0.00000000E+00  0.00000000E+00  0.00000000E+00
  0.00000000E+00  0.00000000E+00  0.00000000E+00
  0.00000000E+00  0.00000000E+00  0.00000000E+00
  0.00000000E+00  0.00000000E+00  0.00000000E+00
  0.00000000E+00  0.00000000E+00  0.00000000E+00
  0.00000000E+00  0.00000000E+00  0.00000000E+00
  0.00000000E+00  0.00000000E+00  0.00000000E+00
  0.00000000E+00  0.00000000E+00  0.00000000E+00
  0.00000000E+00  0.00000000E+00  0.00000000E+00
  0.00000000E+00  0.00000000E+00  0.00000000E+00
  0.00000000E+00  0.00000000E+00  0.00000000E+00
  0.00000000E+00  0.00000000E+00  0.00000000E+00
  0.00000000E+00  0.00000000E+00  0.00000000E+00
  0.00000000E+00  0.00000000E+00  0.00000000E+00
  0.00000000E+00  0.00000000E+00  0.00000000E+00
  0.00000000E+00  0.00000000E+00  0.00000000E+00
  0.00000000E+00  0.00000000E+00  0.00000000E+00
  0.00000000E+00  0.00000000E+00  0.00000000E+00
  0.00000000E+00  0.00000000E+00  0.00000000E+00
  0.00000000E+00  0.00000000E+00  0.00000000E+00
  0.00000000E+00  0.00000000E+00  0.00000000E+00
  0.00000000E+00  0.00000000E+00  0.00000000E+00
  0.00000000E+00  0.00000000E+00  0.00000000E+00
  0.00000000E+00  0.00000000E+00  0.00000000E+00
  0.00000000E+00  0.00000000E+00  0.00000000E+00
  0.00000000E+00  0.00000000E+00  0.00000000E+00
  0.00000000E+00  0.00000000E+00  0.00000000E+00
  0.00000000E+00  0.00000000E+00  0.00000000E+00
  0.00000000E+00  0.00000000E+00  0.00000000E+00
  0.00000000E+00  0.00000000E+00  0.00000000E+00
  0.00000000E+00  0.00000000E+00  0.00000000E+00
  0.00000000E+00  0.00000000E+00  0.00000000E+00
  0.00000000E+00  0.00000000E+00  0.00000000E+00
  0.00000000E+00  0.00000000E+00  0.00000000E+00
  0.00000000E+00  0.00000000E+00  0.00000000E+00
  0.00000000E+00  0.00000000E+00  0.00000000E+00
  0.00000000E+00  0.00000000E+00  0.00000000E+00
  0.00000000E+00  0.00000000E+00  0.00000000E+00
  0.00000000E+00  0.00000000E+00  0.00000000E+00
  0.00000000E+00  0.00000000E+00  0.00000000E+00
  0.00000000E+00  0.00000000E+00  0.00000000E+00
  0.00000000E+00  0.00000000E+00  0.00000000E+00
  0.00000000E+00  0.00000000E+00  0.00000000E+00
  0.00000000E+00  0.00000000E+00  0.00000000E+00
  0.00000000E+00  0.00000000E+00  0.00000000E+00
  0.00000000E+00  0.00000000E+00  0.00000000E+00
  0.00000000E+00  0.00000000E+00  0.00000000E+00
  0.00000000E+00  0.00000000E+00  0.00000000E+00
  0.00000000E+00  0.00000000E+00  0.00000000E+00
  0.00000000E+00  0.00000000E+00  0.00000000E+00
  0.00000000E+00  0.00000000E+00  0.00000000E+00
  0.00000000E+00  0.00000000E+00  0.00000000E+00
  0.00000000E+00  0.00000000E+00  0.00000000E+00
  0.00000000E+00  0.00000000E+00  0.00000000E+00
  0.00000000E+00  0.00000000E+00  0.00000000E+00
  0.00000000E+00  0.00000000E+00  0.00000000E+00
  0.00000000E+00  0.00000000E+00  0.00000000E+00
  0.00000000E+00  0.00000000E+00  0.00000000E+00
  0.00000000E+00  0.00000000E+00  0.00000000E+00
  0.00000000E+00  0.00000000E+00  0.00000000E+00
  0.00000000E+00  0.00000000E+00  0.00000000E+00
  0.00000000E+00  0.00000000E+00  0.00000000E+00
  0.00000000E+00  0.00000000E+00  0.00000000E+00
  0.00000000E+00  0.00000000E+00  0.00000000E+00
  0.00000000E+00  0.00000000E+00  0.00000000E+00
  0.00000000E+00  0.00000000E+00  0.00000000E+00
  0.00000000E+00  0.00000000E+00  0.00000000E+00
  0.00000000E+00  0.00000000E+00  0.00000000E+00
  0.00000000E+00  0.00000000E+00  0.00000000E+00
  0.00000000E+00  0.00000000E+00  0.00000000E+00
  0.00000000E+00  0.00000000E+00  0.00000000E+00
  0.00000000E+00  0.00000000E+00  0.00000000E+00
  0.00000000E+00  0.00000000E+00  0.00000000E+00
  0.00000000E+00  0.00000000E+00  0.00000000E+00
  0.00000000E+00  0.00000000E+00  0.00000000E+00
  0.00000000E+00  0.00000000E+00  0.00000000E+00
  0.00000000E+00  0.00000000E+00  0.00000000E+00
  0.00000000E+00  0.00000000E+00  0.00000000E+00
  0.00000000E+00  0.00000000E+00  0.00000000E+00
  0.00000000E+00  0.00000000E+00  0.00000000E+00
  0.00000000E+00  0.00000000E+00  0.00000000E+00
  0.00000000E+00  0.00000000E+00  0.00000000E+00
  0.00000000E+00  0.00000000E+00  0.00000000E+00
  0.00000000E+00  0.00000000E+00  0.00000000E+00
  0.00000000E+00  0.00000000E+00  0.00000000E+00
  0.00000000E+00  0.00000000E+00  0.00000000E+00
  0.00000000E+00  0.00000000E+00  0.00000000E+00
  0.00000000E+00  0.00000000E+00  0.00000000E+00
  0.00000000E+00  0.00000000E+00  0.00000000E+00
  0.00000000E+00  0.00000000E+00  0.00000000E+00