CuInSe2gb                               
   1.00000000000000     
     9.7266780392896699    0.0000000000000000    0.0000000000000000
     0.0000000000000000    8.4235502764570693    0.0000000000000000
     0.0000000000000000    0.0000000000000000   45.0000000000000000
   Fe   Mn
   281     7
Direct
  0.0537144741731578  0.7015380385051865  0.2113308112919091
  0.3184077463165539  0.7240377310420388  0.8761220917815935
  0.6877745443001783  0.9581497379229131  0.6113880184853012
  0.4378420247954395  0.4581064422376923  0.6114245096734700
  0.4401473260802093  0.2881444224191125  0.2554589866568897
  0.0584539851558558  0.3883568169211707  0.8334115082665606
  0.3085679901939730  0.8877460977147912  0.8334767174701854
  0.4471319115146665  0.6260283327629671  0.7002080362933553
  0.0602192457432008  0.2127851688438483  0.7448102512479083
  0.1792711280431741  0.4511812823385538  0.2113158273564669
  0.5679131532491075  0.2105689260337395  0.4774942435913128
  0.0666035379108864  0.8750191936500965  0.5668726490247995
  0.5682651504867544  0.2240331753278143  0.8761232683161403
  0.8096800652428420  0.5282686000311699  0.1240195247318514
  0.4299024951418776  0.9510689946651361  0.2113904256677599
  0.5665631046997707  0.3750182420930704  0.5668681414118542
  0.8121061850557902  0.0418841805259490  0.3885463822533853
  0.6817128461034970  0.7890587068602822  0.5224874078310247
  0.4428975114316598  0.4605988290173824  0.4775093136959719
  0.4339091056075342  0.9623474499327725  0.7445317660532994
  0.4416066699640770  0.6249072152995832  0.5668613855774169
  0.5720215430607267  0.8762709775938685  0.7004297540735408
  0.3099725623646163  0.0284316827620815  0.1240400378722543
  0.6903100476649996  0.9593148746455451  0.3441733624754920
  0.6875026075185190  0.7822214862965556  0.1242788976851901
  0.0525353708434845  0.3737130779697734  0.2996825356555202
  0.6895996050825924  0.4668827929579882  0.8759205756439858
  0.4283680606709088  0.4514564087871141  0.2113663740014418
  0.8084826728056007  0.3751459234232509  0.4331104722808462
  0.5630179226034302  0.7082046144327633  0.6115233712503165
  0.5597279444384440  0.5406349122146169  0.6558380693096137
  0.9333829335363979  0.1249306767937581  0.4330913436832217
  0.5648377478700539  0.5378740360077285  0.2553755899815084
  0.6903119641950077  0.4592687124333897  0.3441747646469369
  0.1915768161428109  0.6124195460339644  0.1664853109419997
  0.1949968372687378  0.7997299407146352  0.7886995154387625
  0.4471836553141050  0.1261059102777955  0.7003046499269228
  0.9276217028541267  0.6235090842167023  0.2996662844601201
  0.3172135357601524  0.2234055177188552  0.8760753658104308
  0.3165641646637183  0.8747752538126574  0.5668403164632582
  0.8173075278207204  0.2241264515058584  0.8761755619007129
  0.8096975993914726  0.5407241824539899  0.6557971410632684
  0.5574354782007779  0.5268396791625415  0.1237976127154372
  0.5698660303180214  0.0492324765233013  0.7888513535455161
  0.1900059802661447  0.2880071080266781  0.2554376016642257
  0.8084902940265549  0.8750307495410514  0.4330987657516106
  0.5723772053849006  0.3762085684253453  0.7002574281638582
  0.0586320703593869  0.0281378140919937  0.1240608222877543
  0.3096131232662121  0.5406219358769482  0.6558976489845999
  0.5652060028123449  0.2093350992723981  0.3441148871891209
  0.1877203307019629  0.9581852235593749  0.6113713692295369
  0.3027392455820334  0.3738545460135791  0.2997188997311666
  0.4346036584853192  0.7905362883995991  0.6558478832053544
  0.1960420644298858  0.2988417862716537  0.7886539877144556
  0.0664640209541893  0.3626968745860915  0.1667025512200556
  0.6970673226819931  0.6260591661723419  0.7002169398185778
  0.3120648043358820  0.5417465978016623  0.3885433763170211
  0.0676230593338790  0.7236865906573006  0.8761419794653402
  0.9336456532913840  0.6384834220304759  0.8336757757726367
  0.3197164509166717  0.5491808101798222  0.7887922346739478
  0.3041263180871490  0.2010746845227772  0.2112645874310267
  0.0680080594263364  0.7107027557567320  0.4774658329904252
  0.5537098020387379  0.2009509949245707  0.2113045133051940
  0.3101576735170301  0.2119219829133343  0.7445387747059075
  0.0722025194729507  0.3761576813218519  0.7002572138535899
  0.1834148631800744  0.6376379927954205  0.8335271228733206
  0.0698723903427484  0.0491424589046147  0.7888357025333405
  0.4415842928828470  0.1250026741523108  0.5669257880521309
  0.9347682944424213  0.2906213352325314  0.6558747944978545
  0.8040835622120729  0.2012217344958250  0.2112787088590571
  0.9297176902793016  0.9509319464397106  0.2114713717113521
  0.9415374378464937  0.6249686674818848  0.5668671021322722
  0.8082892313273495  0.3876392500386830  0.8335002271099875
  0.1973370108863773  0.6258985628329370  0.7000990367230433
  0.8085872254820793  0.8879864697347948  0.8335859905870697
  0.6847797728155014  0.2906420947264224  0.6559146960981305
  0.3126507118744744  0.2079063951458125  0.6113466613009763
  0.4350057520729335  0.4625655428913175  0.7447205274712554
  0.4368497484309825  0.7916564872347438  0.3884871214142039
  0.6849085784514966  0.9623380169654300  0.7444874587641028
  0.8031748369549686  0.7010404565849550  0.2113101538140359
  0.8131297978898627  0.7083653286054562  0.6115172203573302
  0.4364802128718988  0.7825302550818157  0.1242046769850087
  0.3101364307574255  0.7120522517773784  0.7445726434896736
  0.3205914489585415  0.0488761570307778  0.7887510084410637
  0.8115962758305488  0.5414556588898891  0.3884132020484805
  0.6824294437946218  0.2883054260293100  0.5223539236417950
  0.6959247913178483  0.7992099381642633  0.7887558826855724
  0.1900933095121935  0.7879657146772433  0.2554466064909624
  0.6915704045677532  0.1119960316715705  0.1665592093669645
  0.6926104628724530  0.9606462094200395  0.4774900490695042
  0.9403383806242721  0.9594114717635266  0.3441262703957548
  0.8069416101762946  0.0390046788839549  0.5225259042251467
  0.6834513457589728  0.6249937683898485  0.4331150779978408
  0.4403278853105734  0.4594115914435880  0.3441801285479386
  0.8107259599490301  0.2114477638078202  0.7445797723611937
  0.4394723267196324  0.9674611705897359  0.8759355071282706
  0.5666113447747362  0.8748723449426226  0.5668249600289419
  0.8110961624504328  0.0281247341258570  0.1239580479305999
  0.4276144508478857  0.6238057389008154  0.2997370250106859
  0.8173258566865909  0.7232712559698611  0.8762305479449050
  0.6876553521010002  0.4579304992281635  0.6113870890448403
  0.5583030992974131  0.3875429373306690  0.8332078462122233
  0.8029126767270474  0.3735371902230758  0.2996266608145931
  0.1870115373009311  0.2917491715720069  0.3884480440147117
  0.8206261837954968  0.5488138745533750  0.7887409676278087
  0.1822533579494377  0.7890628606847988  0.5225409036265212
  0.3026336696197621  0.8740392964762260  0.2997687381811086
  0.1782432490725226  0.9515692244997548  0.2114298195907387
  0.1850031704275366  0.4621139601756390  0.7447828258818778
  0.4323539579876375  0.2884590093846481  0.5223469846336156
  0.0651756912457140  0.7092020816851724  0.3440664694886407
  0.1847149811947982  0.7906091670314239  0.6557977154023634
  0.4456558677760136  0.7990442949985780  0.7886996059706620
  0.6833832045044252  0.1250115715357096  0.4330808968462368
  0.9321111702235135  0.7884167690817436  0.5223490225046233
  0.6913483679750299  0.6125355953246214  0.1664991499147375
  0.8154314446410453  0.7093203763608203  0.3441009287485506
  0.9348143502428004  0.4628088942590939  0.7449186417127527
  0.1902978904374346  0.4593509010906831  0.3441822800012170
  0.5705126683132627  0.5490609734552402  0.7888663640542860
  0.5662797272145104  0.3628460155799534  0.1665492336718464
  0.5652493160123769  0.7094606828951445  0.3441007309155560
  0.5526612749174924  0.3738179739856365  0.2997312671616443
  0.1894072620034482  0.4672105166873232  0.8759021167962462
  0.1910216966218934  0.1113531732751769  0.1666181291468974
  0.4450627715023223  0.2988222571263562  0.7887162847222702
  0.6901604927725401  0.7879389828675408  0.2554474816049702
  0.9336575864822718  0.1376333986742417  0.8335188222659308
  0.4427501447950292  0.9606981615069519  0.4774701308551408
  0.5675002370818973  0.7244415672508878  0.8760766467324095
  0.1927287224370484  0.4607842281992426  0.4774591439152074
  0.9354514393806361  0.2822501352511079  0.1241227061926067
  0.3121780189506088  0.0418438628612572  0.3885679824071312
  0.0597036840505047  0.0405700891552250  0.6558963518500656
  0.5584451818979527  0.3749173943742731  0.4331064299367918
  0.6844967342529410  0.4626456077933276  0.7448884667060591
  0.5604294355407241  0.2124011021493526  0.7445978136370677
  0.9470873937077038  0.1262976679071176  0.7002158934064098
  0.5597228835749770  0.0406860852421187  0.6557975383680343
  0.5569567672285400  0.5391049039388737  0.5225322603285127
  0.1776992222485933  0.1238671525945946  0.2996897326801558
  0.4412290652511725  0.1105924977269735  0.1665452059733407
  0.6776556617922058  0.6237233685639507  0.2996145103670584
  0.9276920419005782  0.1239242861355646  0.2998096749920532
  0.8166313933488637  0.3750349219163152  0.5668711315231698
  0.0526518660375963  0.8739216655750279  0.2997591369304386
  0.1915895742939497  0.6248549130186919  0.5668866471282760
  0.3171647427352748  0.3627608283305878  0.1665531362947571
  0.3084008804972163  0.3874493726037493  0.8334681354065836
  0.9393146409351442  0.4668369117189289  0.8759481844867415
  0.4336138791066431  0.6377743745200057  0.8334747546815959
  0.0651189154617396  0.2091902687199123  0.3440202559064097
  0.1901366405183675  0.9678653444666960  0.8760931287832231
  0.9357734574779899  0.7825504615672479  0.1241371651429672
  0.6869026347517396  0.7915661595156368  0.3885039395921859
  0.9346992096570459  0.7906403478196931  0.6558106144945394
  0.9409113713931454  0.1112805929755422  0.1666484021103899
  0.4349312680614141  0.2907944200286072  0.6559403494441067
  0.0536852553977290  0.2010851406705711  0.2113210543726420
  0.6785157424926249  0.9517380629747487  0.2114201372775354
  0.1777486530381207  0.6235899922261839  0.2996317755960603
  0.8221597032613743  0.8761924622804279  0.7003379818339823
  0.9470265076294830  0.6263822927703442  0.7004139437102658
  0.1972201605186829  0.1260899432017425  0.7001318286054905
  0.9429597427166992  0.4607252397140091  0.4774434366386566
  0.8127091378100542  0.2081087037775659  0.6113602825368774
  0.1833619149572842  0.6250382247878289  0.4331280205615173
  0.4278468688708286  0.1236988930560975  0.2996302241541552
  0.6777692459828846  0.1237964594971530  0.2997020977687798
  0.5620304193133846  0.5417776837513613  0.3885084423915354
  0.8150293472273885  0.2091517145267878  0.3440138038888186
  0.4392205880278659  0.4674972907172098  0.8757940876228457
  0.5585787178009719  0.8874045129753970  0.8332637260864447
  0.3177953075298799  0.2106808817877402  0.4774674851357782
  0.1927465717278073  0.9606003944201287  0.4775061295065139
  0.0579967306623771  0.8872657112034791  0.8334516474905914
  0.0569064880126420  0.5390936060925687  0.5224835323533197
  0.9427691289442657  0.9604998847344451  0.4774500171105360
  0.0629320582376446  0.7082066626840609  0.6115079495606685
  0.5571965333103223  0.0386173827299716  0.5223760044162125
  0.6956619772668886  0.2988173562750351  0.7886947714647062
  0.8167930367286469  0.3622633883285700  0.1667349817068523
  0.4333959449600763  0.1249932980987704  0.4330797560384169
  0.0679404570984141  0.2107425555693054  0.4774610411665138
  0.3097206009273795  0.0406403659970480  0.6558075588628198
  0.4318159826484879  0.7889989641902584  0.5224998545058438
  0.1836629475182228  0.1377511544782777  0.8335578461344495
  0.1855591903719853  0.2822308496789739  0.1242590152250007
  0.9402870774946889  0.4594382510904587  0.3441822700735762
  0.5666426705133518  0.8623773984851556  0.1664530621331266
  0.3030366740216887  0.7008870490502401  0.2114441871408585
  0.9410762831650954  0.6115410322883528  0.1665884114163319
  0.1877555707673651  0.4581190681331723  0.6113995671092185
  0.0722002547807271  0.8761508082088171  0.7001190921497479
  0.0596478979468796  0.5406410796543364  0.6558106421801532
  0.3094486919162266  0.5271498741764390  0.1237947290573050
  0.9368148986523226  0.7915925654901784  0.3884883420375750
  0.9456305151174594  0.2981868167952638  0.7886654038122735
  0.1845921965064359  0.2904786840010515  0.6558719651904216
  0.9376247465841612  0.9579536016397764  0.6113652214138490
  0.8108300249283502  0.7113141720005243  0.7446431349791948
  0.6899419976498110  0.2878584015690474  0.2554290279934967
  0.0597220566296700  0.7119689112106212  0.7449280450431127
  0.6787045819695178  0.4509570437308005  0.2113237266009432
  0.8180193265594488  0.2108485731847899  0.4776143369219809
  0.5677139277496565  0.7105440640245151  0.4774537352415721
  0.0675676502010442  0.8634916604620523  0.1665826354441364
  0.9322847542526121  0.2882806652612083  0.5224630288232447
  0.6846614416402886  0.7906117168182023  0.6557967339423627
  0.0582784636520897  0.8748245372882854  0.4331189940634614
  0.0676454418773712  0.2233725190824135  0.8761382173430416
  0.8096501066757603  0.0405384449523782  0.6558547406502290
  0.5605939762973826  0.0290942710847469  0.1240514802364749
  0.3084461955368010  0.3749474594698530  0.4330701802601597
  0.3165599204241519  0.3749518360931372  0.5668691331848730
  0.3178428030714489  0.7105778346194598  0.4774155610298679
  0.0570995331712405  0.0385808455921458  0.5224864996970596
  0.3221808957926234  0.8763207879455812  0.7003385881286422
  0.0652141116344992  0.5377753659694744  0.2552472277071491
  0.6834689925316165  0.1376223586120671  0.8335032767130354
  0.8146114264129020  0.0375371918895752  0.2553887148259263
  0.1835298841870500  0.1250131272103197  0.4331116054609730
  0.6974011882982780  0.1263752006631556  0.7003305171133640
  0.1823668253787549  0.2884521797207364  0.5223527606205632
  0.4399563117274274  0.7878869368954872  0.2553999081641452
  0.8146440282848495  0.5379861118988387  0.2554948559003183
  0.0627584453056207  0.2080801926736587  0.6113537227750860
  0.1865153967388523  0.7913539353288501  0.3884215024750826
  0.3070460783297466  0.5386132390647717  0.5224823414842694
  0.8218556105778050  0.3762488258024984  0.7000480532782758
  0.6869669152231567  0.2916828614261504  0.3884981660138373
  0.1916357324406260  0.1250670493973559  0.5668845699336486
  0.6894777501240289  0.9680206808315464  0.8760976100620516
  0.6915689867772077  0.1250096982632167  0.5669041199462989
  0.4402694421618906  0.9592702038001109  0.3441648250493030
  0.1840231696916857  0.9624136991896514  0.7444870118966608
  0.9399597346506324  0.7878739743867766  0.2554406357853348
  0.5584714961590954  0.8750045536156899  0.4331107101661773
  0.3084112499481626  0.8750547055381784  0.4331050250214558
  0.8071522492921002  0.5392489837772048  0.5225505011907375
  0.9283156067926179  0.4515543884583015  0.2114350467889468
  0.3146992378867383  0.5381025956451454  0.2554891427142947
  0.5623514461316802  0.0419891413535452  0.3886446062311794
  0.9378939416883130  0.4581415868504274  0.6114699376022632
  0.0621457775227119  0.0417927551550721  0.3885674008061040
  0.0619959826865518  0.5416235424668331  0.3884611080197382
  0.4368605809269569  0.2914858515242422  0.3884958152646187
  0.6928340605442883  0.4607088080961802  0.4774569396964805
  0.0666491042649889  0.3749503136464191  0.5668718145443510
  0.5537837722887707  0.7015091159192928  0.2113845712075666
  0.9399096996595172  0.2880986420463469  0.2554828830659341
  0.8197092140200498  0.0490545835583251  0.7889614801937407
  0.1903062414288853  0.9594544366600798  0.3441202069850650
  0.5527332854614506  0.8739422801312529  0.2998069388702186
  0.0583501638470477  0.3750499524769473  0.4331148368342238
  0.3153118164582577  0.7094169181355600  0.3441410708462743
  0.3151268169560936  0.2092972298811099  0.3441130047703208
  0.9417054629207324  0.1250110035159124  0.5667819894656908
  0.4379344426327550  0.9583164670114797  0.6114761963343004
  0.5647905166326526  0.0376610617146959  0.2553640603654936
  0.1866272401143076  0.7830254447916563  0.1242566011256680
  0.0649544530568581  0.0374519056629064  0.2553094204776686
  0.6915973837330281  0.6248955334330323  0.5668918500425093
  0.0571214721700323  0.5264007200255312  0.1242285208341642
  0.3070157160669913  0.0385326249364030  0.5223201542301261
  0.6864829315159002  0.2819735457268193  0.1242626901647169
  0.8177433472731351  0.7107856180773945  0.4774618113957050
  0.4335322451330804  0.1376710872896757  0.8333846025287949
  0.3223935740611041  0.3760619424526769  0.7002271326034506
  0.6835752603831292  0.6378375114387324  0.8334919420745356
  0.5601122499966510  0.7121206130462738  0.7446869652468164
  0.9371896044821250  0.2918597023173365  0.3885772719375015
  0.9396202092913354  0.9678471087956356  0.8761340927129732
  0.5627386345767763  0.2079627664570538  0.6112848381984238
  0.8166019132186010  0.8749757111825354  0.5668721930990774
  0.8026749932372880  0.8739417092109373  0.2997749951320958
  0.3149477717321002  0.0375895408857787  0.2551875665538590
  0.4353895430813519  0.2833333121605350  0.1239096296997326
  0.3131029429320886  0.7082805127999007  0.6115387813855083
  0.4333285836151277  0.6250539322831391  0.4331038176067363
  0.9323592301369662  0.6250186263845307  0.4333150297446514
  0.3178097335592643  0.8628556131293735  0.1658220293175786
  0.0716197042395512  0.5472692584063072  0.7885581057255194
  0.8179940190981414  0.8628333161058745  0.1661140926516732
  0.9454590166166550  0.8003515925083229  0.7886556820936135
  0.9337135703351260  0.9621816123562847  0.7445790607546894
  0.4413483043290046  0.6094579388112077  0.1656820635485669
 
  0.00000000E+00  0.00000000E+00  0.00000000E+00
  0.00000000E+00  0.00000000E+00  0.00000000E+00
  0.00000000E+00  0.00000000E+00  0.00000000E+00
  0.00000000E+00  0.00000000E+00  0.00000000E+00
  0.00000000E+00  0.00000000E+00  0.00000000E+00
  0.00000000E+00  0.00000000E+00  0.00000000E+00
  0.00000000E+00  0.00000000E+00  0.00000000E+00
  0.00000000E+00  0.00000000E+00  0.00000000E+00
  0.00000000E+00  0.00000000E+00  0.00000000E+00
  0.00000000E+00  0.00000000E+00  0.00000000E+00
  0.00000000E+00  0.00000000E+00  0.00000000E+00
  0.00000000E+00  0.00000000E+00  0.00000000E+00
  0.00000000E+00  0.00000000E+00  0.00000000E+00
  0.00000000E+00  0.00000000E+00  0.00000000E+00
  0.00000000E+00  0.00000000E+00  0.00000000E+00
  0.00000000E+00  0.00000000E+00  0.00000000E+00
  0.00000000E+00  0.00000000E+00  0.00000000E+00
  0.00000000E+00  0.00000000E+00  0.00000000E+00
  0.00000000E+00  0.00000000E+00  0.00000000E+00
  0.00000000E+00  0.00000000E+00  0.00000000E+00
  0.00000000E+00  0.00000000E+00  0.00000000E+00
  0.00000000E+00  0.00000000E+00  0.00000000E+00
  0.00000000E+00  0.00000000E+00  0.00000000E+00
  0.00000000E+00  0.00000000E+00  0.00000000E+00
  0.00000000E+00  0.00000000E+00  0.00000000E+00
  0.00000000E+00  0.00000000E+00  0.00000000E+00
  0.00000000E+00  0.00000000E+00  0.00000000E+00
  0.00000000E+00  0.00000000E+00  0.00000000E+00
  0.00000000E+00  0.00000000E+00  0.00000000E+00
  0.00000000E+00  0.00000000E+00  0.00000000E+00
  0.00000000E+00  0.00000000E+00  0.00000000E+00
  0.00000000E+00  0.00000000E+00  0.00000000E+00
  0.00000000E+00  0.00000000E+00  0.00000000E+00
  0.00000000E+00  0.00000000E+00  0.00000000E+00
  0.00000000E+00  0.00000000E+00  0.00000000E+00
  0.00000000E+00  0.00000000E+00  0.00000000E+00
  0.00000000E+00  0.00000000E+00  0.00000000E+00
  0.00000000E+00  0.00000000E+00  0.00000000E+00
  0.00000000E+00  0.00000000E+00  0.00000000E+00
  0.00000000E+00  0.00000000E+00  0.00000000E+00
  0.00000000E+00  0.00000000E+00  0.00000000E+00
  0.00000000E+00  0.00000000E+00  0.00000000E+00
  0.00000000E+00  0.00000000E+00  0.00000000E+00
  0.00000000E+00  0.00000000E+00  0.00000000E+00
  0.00000000E+00  0.00000000E+00  0.00000000E+00
  0.00000000E+00  0.00000000E+00  0.00000000E+00
  0.00000000E+00  0.00000000E+00  0.00000000E+00
  0.00000000E+00  0.00000000E+00  0.00000000E+00
  0.00000000E+00  0.00000000E+00  0.00000000E+00
  0.00000000E+00  0.00000000E+00  0.00000000E+00
  0.00000000E+00  0.00000000E+00  0.00000000E+00
  0.00000000E+00  0.00000000E+00  0.00000000E+00
  0.00000000E+00  0.00000000E+00  0.00000000E+00
  0.00000000E+00  0.00000000E+00  0.00000000E+00
  0.00000000E+00  0.00000000E+00  0.00000000E+00
  0.00000000E+00  0.00000000E+00  0.00000000E+00
  0.00000000E+00  0.00000000E+00  0.00000000E+00
  0.00000000E+00  0.00000000E+00  0.00000000E+00
  0.00000000E+00  0.00000000E+00  0.00000000E+00
  0.00000000E+00  0.00000000E+00  0.00000000E+00
  0.00000000E+00  0.00000000E+00  0.00000000E+00
  0.00000000E+00  0.00000000E+00  0.00000000E+00
  0.00000000E+00  0.00000000E+00  0.00000000E+00
  0.00000000E+00  0.00000000E+00  0.00000000E+00
  0.00000000E+00  0.00000000E+00  0.00000000E+00
  0.00000000E+00  0.00000000E+00  0.00000000E+00
  0.00000000E+00  0.00000000E+00  0.00000000E+00
  0.00000000E+00  0.00000000E+00  0.00000000E+00
  0.00000000E+00  0.00000000E+00  0.00000000E+00
  0.00000000E+00  0.00000000E+00  0.00000000E+00
  0.00000000E+00  0.00000000E+00  0.00000000E+00
  0.00000000E+00  0.00000000E+00  0.00000000E+00
  0.00000000E+00  0.00000000E+00  0.00000000E+00
  0.00000000E+00  0.00000000E+00  0.00000000E+00
  0.00000000E+00  0.00000000E+00  0.00000000E+00
  0.00000000E+00  0.00000000E+00  0.00000000E+00
  0.00000000E+00  0.00000000E+00  0.00000000E+00
  0.00000000E+00  0.00000000E+00  0.00000000E+00
  0.00000000E+00  0.00000000E+00  0.00000000E+00
  0.00000000E+00  0.00000000E+00  0.00000000E+00
  0.00000000E+00  0.00000000E+00  0.00000000E+00
  0.00000000E+00  0.00000000E+00  0.00000000E+00
  0.00000000E+00  0.00000000E+00  0.00000000E+00
  0.00000000E+00  0.00000000E+00  0.00000000E+00
  0.00000000E+00  0.00000000E+00  0.00000000E+00
  0.00000000E+00  0.00000000E+00  0.00000000E+00
  0.00000000E+00  0.00000000E+00  0.00000000E+00
  0.00000000E+00  0.00000000E+00  0.00000000E+00
  0.00000000E+00  0.00000000E+00  0.00000000E+00
  0.00000000E+00  0.00000000E+00  0.00000000E+00
  0.00000000E+00  0.00000000E+00  0.00000000E+00
  0.00000000E+00  0.00000000E+00  0.00000000E+00
  0.00000000E+00  0.00000000E+00  0.00000000E+00
  0.00000000E+00  0.00000000E+00  0.00000000E+00
  0.00000000E+00  0.00000000E+00  0.00000000E+00
  0.00000000E+00  0.00000000E+00  0.00000000E+00
  0.00000000E+00  0.00000000E+00  0.00000000E+00
  0.00000000E+00  0.00000000E+00  0.00000000E+00
  0.00000000E+00  0.00000000E+00  0.00000000E+00
  0.00000000E+00  0.00000000E+00  0.00000000E+00
  0.00000000E+00  0.00000000E+00  0.00000000E+00
  0.00000000E+00  0.00000000E+00  0.00000000E+00
  0.00000000E+00  0.00000000E+00  0.00000000E+00
  0.00000000E+00  0.00000000E+00  0.00000000E+00
  0.00000000E+00  0.00000000E+00  0.00000000E+00
  0.00000000E+00  0.00000000E+00  0.00000000E+00
  0.00000000E+00  0.00000000E+00  0.00000000E+00
  0.00000000E+00  0.00000000E+00  0.00000000E+00
  0.00000000E+00  0.00000000E+00  0.00000000E+00
  0.00000000E+00  0.00000000E+00  0.00000000E+00
  0.00000000E+00  0.00000000E+00  0.00000000E+00
  0.00000000E+00  0.00000000E+00  0.00000000E+00
  0.00000000E+00  0.00000000E+00  0.00000000E+00
  0.00000000E+00  0.00000000E+00  0.00000000E+00
  0.00000000E+00  0.00000000E+00  0.00000000E+00
  0.00000000E+00  0.00000000E+00  0.00000000E+00
  0.00000000E+00  0.00000000E+00  0.00000000E+00
  0.00000000E+00  0.00000000E+00  0.00000000E+00
  0.00000000E+00  0.00000000E+00  0.00000000E+00
  0.00000000E+00  0.00000000E+00  0.00000000E+00
  0.00000000E+00  0.00000000E+00  0.00000000E+00
  0.00000000E+00  0.00000000E+00  0.00000000E+00
  0.00000000E+00  0.00000000E+00  0.00000000E+00
  0.00000000E+00  0.00000000E+00  0.00000000E+00
  0.00000000E+00  0.00000000E+00  0.00000000E+00
  0.00000000E+00  0.00000000E+00  0.00000000E+00
  0.00000000E+00  0.00000000E+00  0.00000000E+00
  0.00000000E+00  0.00000000E+00  0.00000000E+00
  0.00000000E+00  0.00000000E+00  0.00000000E+00
  0.00000000E+00  0.00000000E+00  0.00000000E+00
  0.00000000E+00  0.00000000E+00  0.00000000E+00
  0.00000000E+00  0.00000000E+00  0.00000000E+00
  0.00000000E+00  0.00000000E+00  0.00000000E+00
  0.00000000E+00  0.00000000E+00  0.00000000E+00
  0.00000000E+00  0.00000000E+00  0.00000000E+00
  0.00000000E+00  0.00000000E+00  0.00000000E+00
  0.00000000E+00  0.00000000E+00  0.00000000E+00
  0.00000000E+00  0.00000000E+00  0.00000000E+00
  0.00000000E+00  0.00000000E+00  0.00000000E+00
  0.00000000E+00  0.00000000E+00  0.00000000E+00
  0.00000000E+00  0.00000000E+00  0.00000000E+00
  0.00000000E+00  0.00000000E+00  0.00000000E+00
  0.00000000E+00  0.00000000E+00  0.00000000E+00
  0.00000000E+00  0.00000000E+00  0.00000000E+00
  0.00000000E+00  0.00000000E+00  0.00000000E+00
  0.00000000E+00  0.00000000E+00  0.00000000E+00
  0.00000000E+00  0.00000000E+00  0.00000000E+00
  0.00000000E+00  0.00000000E+00  0.00000000E+00
  0.00000000E+00  0.00000000E+00  0.00000000E+00
  0.00000000E+00  0.00000000E+00  0.00000000E+00
  0.00000000E+00  0.00000000E+00  0.00000000E+00
  0.00000000E+00  0.00000000E+00  0.00000000E+00
  0.00000000E+00  0.00000000E+00  0.00000000E+00
  0.00000000E+00  0.00000000E+00  0.00000000E+00
  0.00000000E+00  0.00000000E+00  0.00000000E+00
  0.00000000E+00  0.00000000E+00  0.00000000E+00
  0.00000000E+00  0.00000000E+00  0.00000000E+00
  0.00000000E+00  0.00000000E+00  0.00000000E+00
  0.00000000E+00  0.00000000E+00  0.00000000E+00
  0.00000000E+00  0.00000000E+00  0.00000000E+00
  0.00000000E+00  0.00000000E+00  0.00000000E+00
  0.00000000E+00  0.00000000E+00  0.00000000E+00
  0.00000000E+00  0.00000000E+00  0.00000000E+00
  0.00000000E+00  0.00000000E+00  0.00000000E+00
  0.00000000E+00  0.00000000E+00  0.00000000E+00
  0.00000000E+00  0.00000000E+00  0.00000000E+00
  0.00000000E+00  0.00000000E+00  0.00000000E+00
  0.00000000E+00  0.00000000E+00  0.00000000E+00
  0.00000000E+00  0.00000000E+00  0.00000000E+00
  0.00000000E+00  0.00000000E+00  0.00000000E+00
  0.00000000E+00  0.00000000E+00  0.00000000E+00
  0.00000000E+00  0.00000000E+00  0.00000000E+00
  0.00000000E+00  0.00000000E+00  0.00000000E+00
  0.00000000E+00  0.00000000E+00  0.00000000E+00
  0.00000000E+00  0.00000000E+00  0.00000000E+00
  0.00000000E+00  0.00000000E+00  0.00000000E+00
  0.00000000E+00  0.00000000E+00  0.00000000E+00
  0.00000000E+00  0.00000000E+00  0.00000000E+00
  0.00000000E+00  0.00000000E+00  0.00000000E+00
  0.00000000E+00  0.00000000E+00  0.00000000E+00
  0.00000000E+00  0.00000000E+00  0.00000000E+00
  0.00000000E+00  0.00000000E+00  0.00000000E+00
  0.00000000E+00  0.00000000E+00  0.00000000E+00
  0.00000000E+00  0.00000000E+00  0.00000000E+00
  0.00000000E+00  0.00000000E+00  0.00000000E+00
  0.00000000E+00  0.00000000E+00  0.00000000E+00
  0.00000000E+00  0.00000000E+00  0.00000000E+00
  0.00000000E+00  0.00000000E+00  0.00000000E+00
  0.00000000E+00  0.00000000E+00  0.00000000E+00
  0.00000000E+00  0.00000000E+00  0.00000000E+00
  0.00000000E+00  0.00000000E+00  0.00000000E+00
  0.00000000E+00  0.00000000E+00  0.00000000E+00
  0.00000000E+00  0.00000000E+00  0.00000000E+00
  0.00000000E+00  0.00000000E+00  0.00000000E+00
  0.00000000E+00  0.00000000E+00  0.00000000E+00
  0.00000000E+00  0.00000000E+00  0.00000000E+00
  0.00000000E+00  0.00000000E+00  0.00000000E+00
  0.00000000E+00  0.00000000E+00  0.00000000E+00
  0.00000000E+00  0.00000000E+00  0.00000000E+00
  0.00000000E+00  0.00000000E+00  0.00000000E+00
  0.00000000E+00  0.00000000E+00  0.00000000E+00
  0.00000000E+00  0.00000000E+00  0.00000000E+00
  0.00000000E+00  0.00000000E+00  0.00000000E+00
  0.00000000E+00  0.00000000E+00  0.00000000E+00
  0.00000000E+00  0.00000000E+00  0.00000000E+00
  0.00000000E+00  0.00000000E+00  0.00000000E+00
  0.00000000E+00  0.00000000E+00  0.00000000E+00
  0.00000000E+00  0.00000000E+00  0.00000000E+00
  0.00000000E+00  0.00000000E+00  0.00000000E+00
  0.00000000E+00  0.00000000E+00  0.00000000E+00
  0.00000000E+00  0.00000000E+00  0.00000000E+00
  0.00000000E+00  0.00000000E+00  0.00000000E+00
  0.00000000E+00  0.00000000E+00  0.00000000E+00
  0.00000000E+00  0.00000000E+00  0.00000000E+00
  0.00000000E+00  0.00000000E+00  0.00000000E+00
  0.00000000E+00  0.00000000E+00  0.00000000E+00
  0.00000000E+00  0.00000000E+00  0.00000000E+00
  0.00000000E+00  0.00000000E+00  0.00000000E+00
  0.00000000E+00  0.00000000E+00  0.00000000E+00
  0.00000000E+00  0.00000000E+00  0.00000000E+00
  0.00000000E+00  0.00000000E+00  0.00000000E+00
  0.00000000E+00  0.00000000E+00  0.00000000E+00
  0.00000000E+00  0.00000000E+00  0.00000000E+00
  0.00000000E+00  0.00000000E+00  0.00000000E+00
  0.00000000E+00  0.00000000E+00  0.00000000E+00
  0.00000000E+00  0.00000000E+00  0.00000000E+00
  0.00000000E+00  0.00000000E+00  0.00000000E+00
  0.00000000E+00  0.00000000E+00  0.00000000E+00
  0.00000000E+00  0.00000000E+00  0.00000000E+00
  0.00000000E+00  0.00000000E+00  0.00000000E+00
  0.00000000E+00  0.00000000E+00  0.00000000E+00
  0.00000000E+00  0.00000000E+00  0.00000000E+00
  0.00000000E+00  0.00000000E+00  0.00000000E+00
  0.00000000E+00  0.00000000E+00  0.00000000E+00
  0.00000000E+00  0.00000000E+00  0.00000000E+00
  0.00000000E+00  0.00000000E+00  0.00000000E+00
  0.00000000E+00  0.00000000E+00  0.00000000E+00
  0.00000000E+00  0.00000000E+00  0.00000000E+00
  0.00000000E+00  0.00000000E+00  0.00000000E+00
  0.00000000E+00  0.00000000E+00  0.00000000E+00
  0.00000000E+00  0.00000000E+00  0.00000000E+00
  0.00000000E+00  0.00000000E+00  0.00000000E+00
  0.00000000E+00  0.00000000E+00  0.00000000E+00
  0.00000000E+00  0.00000000E+00  0.00000000E+00
  0.00000000E+00  0.00000000E+00  0.00000000E+00
  0.00000000E+00  0.00000000E+00  0.00000000E+00
  0.00000000E+00  0.00000000E+00  0.00000000E+00