FeMn_288_25                             
    1.000000000000000     
     9.7266779999999997    0.0000000000000000    0.0000000000000000
     0.0000000000000000    8.4235500000000005    0.0000000000000000
     0.0000000000000000    0.0000000000000000   45.0000000000000000
   Fe   Mn
   263    25
Direct
  0.3126793561144062  0.5381296995550774  0.3901087299916655
  0.0635328289667987  0.0373693079257586  0.1263523427797552
  0.8121203809458015  0.2061012085596060  0.5650422862553579
  0.3128465170020947  0.2061262101874068  0.5651589818849210
  0.0624611150131860  0.8730221889859403  0.6536868486141325
  0.9375990266051637  0.7878488860851913  0.3900869538506229
  0.8123550336515207  0.7060263885361306  0.5650581810685641
  0.8124936112206019  0.5380412161223964  0.3901133268600926
  0.6875622445771684  0.2894391506086568  0.6096412495808109
  0.4375149099163775  0.7900641629776128  0.6097702552416657
  0.1877071738066471  0.4569959628198401  0.6982700777217383
  0.0616267849171491  0.0424349041273119  0.8736754935676467
  0.9379754525122420  0.9543783352313594  0.2133995250653586
  0.0624399621251067  0.0400327143761093  0.6097119238403247
  0.0626518615517464  0.0380578335617144  0.3901017788572471
  0.4380500593534217  0.9544460356961533  0.3461769225278555
  0.9375640621110179  0.2876132669628560  0.2576480623280732
  0.3122574036431355  0.0381621973172603  0.3901051948283450
  0.0624783218981746  0.3730978194296209  0.6537355678649313
  0.6873890943865233  0.6223164614969577  0.5213377582393918
  0.6875749515182996  0.2905791463710672  0.7423925186304341
  0.3125472699905651  0.3710238144870917  0.3017595308183896
  0.6873300117065909  0.6206036370007676  0.3018044134222141
  0.3126212491515831  0.0397750790780297  0.6097570340190569
  0.1881186263819144  0.9568312589145563  0.6982177518360788
  0.4377534538408304  0.9555959024977921  0.4785101635321893
  0.5625165866079017  0.0425084818584224  0.8736041016480549
  0.9376809276125003  0.4558472162738945  0.5651342446994136
  0.6873360829849714  0.1207284942105981  0.3017999843799632
  0.1876284229249029  0.4558121167682812  0.5651061960729545
  0.3119580866399101  0.5410303306406525  0.7424742912797445
  0.9370238011871549  0.9584629235727730  0.8317623468050527
  0.1874625676400525  0.4545681627672077  0.3461184031606180
  0.3125506452172737  0.2055409834794801  0.4785846542632113
  0.9377165326255675  0.1207557200046910  0.3017804025773393
  0.9378612499880941  0.6233932640352690  0.7867026017259748
  0.3125210946709824  0.3723666557979531  0.5212801576899818
  0.9376910241060371  0.9555781555570625  0.4784862401955089
  0.8125311396717446  0.5408150586020142  0.7423738258195814
  0.1876115213647324  0.7897420741091972  0.6097642555413971
  0.5629961236624933  0.2070178547121112  0.6981006826671038
  0.6873559875726694  0.6235143086824578  0.6537822778771993
  0.6879423673450308  0.7865679970262356  0.1262243472657228
  0.6873355065609256  0.4579776078548612  0.8316117921050546
  0.3125198960186419  0.0400826019549722  0.8737471072305718
  0.1879024583837345  0.2905037272442259  0.8735386475060394
  0.4375247349447550  0.6214011584716306  0.4346933398327744
  0.1866472169439202  0.6238370859060047  0.7866966680137424
  0.1877622316238776  0.4550962652565737  0.4784652800043370
  0.9373697566378144  0.1222864734809140  0.5213545209606710
  0.1878644005942409  0.1212844810456611  0.3017780606645926
  0.8119119333457062  0.2069500721491384  0.6981691337930146
  0.4379042583181535  0.6212822023648149  0.1686889144520626
  0.8122938340138862  0.8718707610916471  0.4347764807914788
  0.5625785613488503  0.7070223149748456  0.6981045301029098
  0.8123499494549571  0.0414897604655329  0.8738718201388705
  0.0630868505635810  0.2042962640577610  0.2135788103488576
  0.0625543747196777  0.3725532573811688  0.5213012005333000
  0.9369621278410204  0.7895221269995606  0.7424287272451753
  0.9374309268249927  0.6234819739157308  0.6536231788369422
  0.5619125922401563  0.7041012822728948  0.2136370717671338
  0.1877917605037752  0.6213647997781142  0.3017402337623891
  0.3126046748447938  0.7071280900848763  0.6981300548541570
  0.5625688315267187  0.2061042936143825  0.5651396733907261
  0.1874632328540787  0.6222184338427966  0.5212602201675606
  0.4374179913678028  0.9568354497976106  0.6981895798140489
  0.1880534043273354  0.7878085598885336  0.3901517297835640
  0.6875828501684647  0.2878084994787678  0.3901494017769621
  0.1875535419714358  0.1223180217709592  0.5213568742584551
  0.1870404540570114  0.1241077569040098  0.7867045861264906
  0.1878260053464152  0.2899130447316119  0.6097232158503947
  0.5624798165722549  0.8711361684888944  0.3019183193153323
  0.4372265297825240  0.1239901670230501  0.7866918841865363
  0.8124211723509851  0.7043213263038468  0.3460855947650373
  0.4363604496237334  0.9569280523428121  0.8316240057181732
  0.5633022590105976  0.3715990705686393  0.1686477973227100
  0.5627548090345481  0.5378572116335536  0.3899870216169298
  0.6875640287034681  0.1222599124173694  0.5213159578657888
  0.9384280044408648  0.1236101168438180  0.7866443350297569
  0.8126076708057691  0.3722910961690231  0.5212865122318449
  0.1877329130574803  0.1218040922257409  0.4347871853359028
  0.9373431878187359  0.6223291997475742  0.5212587879169465
  0.3127528671055142  0.8712754472858530  0.3017230519528725
  0.3126589191688403  0.5396555791526345  0.6098022635494814
  0.0628052842362041  0.8710435197172499  0.3018096179250550
  0.3128231256617220  0.7043770620594275  0.3461198683718773
  0.6876984814310423  0.4544248893202008  0.3462783132388550
  0.9368200198290684  0.7902444751273414  0.8737914634053632
  0.1875601772501795  0.7872554221479755  0.2576265574844834
  0.0625037047455218  0.3699580055647876  0.1686065684128539
  0.6874132329359682  0.2897462585881648  0.8737695958306834
  0.8124729632459051  0.3743274383983148  0.7866593596851867
  0.6874248070906048  0.9544550436576141  0.3462768871408015
  0.0621183170726454  0.2066287226277459  0.8316942004861407
  0.4375773935937916  0.2906156632775095  0.7423594562358009
  0.8123135693587638  0.7073318766316574  0.6981960957221246
  0.4378311725589824  0.6220282876256449  0.5212026696179388
  0.1880086122527427  0.7872605716525217  0.1265774846545176
  0.0627720944337898  0.3711646202813558  0.3019106978166913
  0.8120954132973160  0.3709304602973484  0.1685826560969721
  0.4376167031653058  0.7863183779237670  0.1265416306515104
  0.1875979370968938  0.9560065183624982  0.5652049561173389
  0.4372627014045165  0.7900564809310605  0.7423857009791458
  0.5626040071482197  0.3718265015609746  0.4347844922235395
  0.9375420783111640  0.4553666089137354  0.4785006276781008
  0.0624551342182230  0.3717523927262567  0.4348214739990676
  0.9370804249224233  0.7865119187073883  0.1265011241003896
  0.5625845074997567  0.8700720869781267  0.1686314355621585
  0.9373192834126384  0.2900221044909667  0.6097698098362955
  0.1876386631524508  0.2907579408456528  0.7424459834270875
  0.0625157636185302  0.5376944622678779  0.2575729048705272
  0.1876169592452110  0.4535003397418263  0.2133915204037905
  0.5624100248953711  0.7061840130609562  0.8317748119034049
  0.3127202548120943  0.3698991148716953  0.1687552642159731
  0.0627211368274601  0.7066431464842708  0.8316350402922716
  0.4374610828652463  0.6231317775648619  0.6535239914896545
  0.5623181937616668  0.0374284144940029  0.1266225370057344
  0.6876881096602239  0.1219877485455542  0.4348042563976603
  0.9368521480268341  0.6212364976406254  0.1685652131947725
  0.8124351235204372  0.8705128490571883  0.3018400918901709
  0.8126167009052564  0.0377843651754189  0.3901911978228692
  0.4368435145748358  0.2902117783619532  0.8735774413181080
  0.9375661362245362  0.6216282228575055  0.4347287859195195
  0.1873761547555470  0.9533137732585535  0.2134898023605841
  0.3128753328549755  0.8720418438792211  0.4347078279087323
  0.0623300261816555  0.2053408212816155  0.4785786648804450
  0.1880421598924622  0.9567362844509320  0.8315748749920925
  0.1876237554932940  0.6202337320450145  0.1686667570581643
  0.5625979185714474  0.7040713489582092  0.3462071223581357
  0.0623032004478266  0.0405176015254121  0.7424255357430881
  0.3124591035146978  0.2043796719530494  0.3462841893746859
  0.8127368657292654  0.3702502778337565  0.3018090028784597
  0.5624708411324550  0.3703578679118962  0.3018244137972625
  0.3129205995392280  0.3719735355855536  0.4347273954079725
  0.6873632318222453  0.4553267000738825  0.4785631788110699
  0.4375957916507503  0.1221380743272502  0.5213315378069100
  0.3129360640222166  0.2038265369771218  0.2135643131946320
  0.9371590537674227  0.1220129592175865  0.4347984266289064
  0.4377768555366955  0.2881066685871658  0.3900911813931459
  0.8126388372760378  0.8720502926033717  0.5212620702593852
  0.6874465815608984  0.9554640889202243  0.4785841349905693
  0.6879740551487692  0.1205865749079730  0.1686410164837036
  0.4371484055554714  0.4570539941079414  0.6980188278989183
  0.8122854070005886  0.8737046909523362  0.6536545327726422
  0.8127238230787742  0.0373519101044954  0.2575336915367691
  0.9376736777439157  0.1236653289911494  0.6538518206343006
  0.4379470331296703  0.4542217364621198  0.3461029935339445
  0.5631539859064566  0.8743931255640396  0.7866406263018685
  0.4376306414948045  0.9537661498434857  0.2134872544552575
  0.8125098195567877  0.3737364691195194  0.6536904036592842
  0.5630027410047059  0.3740472443534765  0.7865980973967830
  0.8128808552169096  0.8694379385637865  0.1685411677683022
  0.0616763165408201  0.8742112938784801  0.7865846876353683
  0.6873286507051291  0.1232715922920903  0.6536299432144946
  0.3121915418379981  0.0375529759198525  0.2576318861320197
  0.5629807142977169  0.5421817246249595  0.8736707826258843
  0.6871685085936168  0.4538729309377149  0.2134296776975125
  0.5628316523660917  0.5370419948773641  0.1263895086771178
  0.9373961699375329  0.2876346849768654  0.3901793735971465
  0.6875961113744050  0.4559825558390627  0.5650446392037967
  0.6879010001506655  0.2871864541565934  0.1264772480551609
  0.3122887567324154  0.5374399208902539  0.2576141209546375
  0.6876264703644247  0.6214681307757154  0.4347577367184422
  0.8119643275652662  0.5415398975212243  0.8739170224866246
  0.5620079838090275  0.2039720308046585  0.2134469077804068
  0.0618447927761164  0.3742975501063296  0.7867328120030656
  0.0622291936997784  0.7054701759457804  0.4784804523346904
  0.6875663842635932  0.7878888450588841  0.3901349827643653
  0.3127177933646719  0.7038737535408566  0.2133895737945101
  0.5623655553383268  0.8716376966128631  0.4346998435081968
  0.9377471260300975  0.1211828626512756  0.1685549088596010
  0.6872163784784733  0.4571269505799254  0.6981950558209395
  0.6876588593271482  0.7869237872973802  0.2576894746323427
  0.3125060918414088  0.0407696585111523  0.7424975613061530
  0.5624086787804706  0.3723356175768219  0.5213370011619588
  0.5625886601991789  0.7061854417473226  0.5652058870054296
  0.3123788545269836  0.2070880146986611  0.6981327387528338
  0.8127536952132002  0.2047814485685064  0.3462085176538621
  0.0626297482676419  0.2045947956441690  0.3461650176635335
  0.3124099171712089  0.8728734567375931  0.6536544752275777
  0.3121784574895262  0.0372529825938880  0.1263437893465752
  0.4374938134961973  0.4550611541679050  0.4785329641159987
  0.4379918036019290  0.4539099406446979  0.2134853913542097
  0.0626629420534855  0.7067236489553000  0.6980927997289542
  0.8123453618379379  0.0384295803737693  0.1265262311662977
  0.3124584920286772  0.5373719313197745  0.1266226213860061
  0.6867633273448486  0.9573861828958169  0.6980087511592137
  0.8126095846339467  0.2054132807031278  0.4785171202593352
  0.4377182750325632  0.7874066660918324  0.2575962397329667
  0.4375368491893381  0.1222306048120667  0.4348885804618370
  0.0622578758945651  0.7057419039336000  0.5650562351738448
  0.3119443284703869  0.8708776151605784  0.1686463462086356
  0.8121668983505812  0.5383231730323376  0.1262258878697363
  0.4372870356504690  0.6243699589281833  0.7864416807146093
  0.0625505863081981  0.7045075560174827  0.3461921971552900
  0.4373872235651816  0.2862234300107606  0.1265496630213881
  0.9367816037329284  0.4576350762147601  0.8314487721264096
  0.1875628196826989  0.2879232407261469  0.3900050885997216
  0.3125499450860797  0.8725705987411668  0.5212448985497236
  0.0623562973020655  0.5378715361574765  0.3900742866841064
  0.9376132601499827  0.9556277613250047  0.5650883371672341
  0.6876041024924837  0.2871209401355763  0.2575986148327739
  0.4373338243004161  0.1232929304846287  0.6537911094157662
  0.9370083130447211  0.2898329459074768  0.8737860993426401
  0.1875710976512648  0.1232598501349577  0.6535950552096440
  0.8122531763704534  0.3718720857630849  0.4347372831027174
  0.0627227307423487  0.8723755627723887  0.5212165403588258
  0.1876745362950058  0.4577480135764663  0.8316400739428752
  0.5624746553693984  0.5396067134520105  0.6098141770804284
  0.8127237112420469  0.8745162931274976  0.7866605081488656
  0.5622926620275542  0.0397113865306063  0.6097676499994584
  0.8121864695524084  0.5395761591428284  0.6097689825002814
  0.4375815160951215  0.6210499715849789  0.3017680817416784
  0.9376998397992024  0.4540764388173019  0.2134259127334133
  0.0628017460041465  0.0377112217206721  0.2576179956705079
  0.5621694778057135  0.5410471539213098  0.7425543123508631
  0.4368541566406066  0.4572782608380589  0.8314811696440405
  0.5629738851815657  0.7054807692108498  0.4784496613650680
  0.1873919570740317  0.6233474588713707  0.6537126521472961
  0.5623190722256020  0.8732204229697423  0.6536303163156331
  0.6874147061705913  0.7897609699542697  0.6097178098316578
  0.9373737779080207  0.7902359727750229  0.6096488362236009
  0.6876726401589075  0.7899362955306429  0.8738781013834990
  0.3126761327862319  0.3733918888428711  0.6538377128760483
  0.1884107979679258  0.7905067898972008  0.8738998428422118
  0.4372365858252680  0.7878441630574827  0.3901154036073654
  0.9376908309040571  0.2863513728776786  0.1264721218015153
  0.5627281917121134  0.5373636493728160  0.2576123312407728
  0.3127045200680205  0.7058217660834396  0.5648325138915938
  0.5626225927874139  0.0382413811870732  0.3901425337337904
  0.5621697800838026  0.8720845986485433  0.5213000568152790
  0.9373926619191221  0.7871201863482501  0.2574475170995733
  0.4375055663369780  0.2872763674901858  0.2576271384540738
  0.5624696682713944  0.3732803307018041  0.6536297778059331
  0.0630134291888597  0.7037305497199102  0.2133735181664555
  0.0632938885802031  0.8713908386537565  0.1686555218790174
  0.9374255213871915  0.9543847519179287  0.3461708064269210
  0.0626044039795429  0.5395635571482511  0.7424905198663893
  0.0624438810012702  0.2067173023016637  0.6981539906192766
  0.4374057792227482  0.1210245586686850  0.3018249754094957
  0.3118996418859777  0.2079924221889522  0.8314696012696792
  0.1875343164678147  0.6212328732845288  0.4347989605372863
  0.4371177925593782  0.1210437856051550  0.1686474046424463
  0.6874698699344672  0.9539916164725615  0.2134336017384710
  0.5625752259650340  0.2045000474256873  0.3462461312782207
  0.4370991227123485  0.4558893934789245  0.5652628923185377
  0.1878233103676990  0.2878479171163999  0.2576149581967106
  0.5622590873458392  0.2065810430467922  0.8316040215442804
  0.5626439826452472  0.2053565519936411  0.4784962458746794
  0.9373866752950436  0.4547594427958598  0.3462501031809702
  0.8127693919987430  0.5371804887766783  0.2575579813033747
  0.4355948673592402  0.7908491535825467  0.8739039261820518
  0.1873079607733545  0.9554395724715978  0.4784694202029321
  0.4373218733668097  0.9557548401990367  0.5651228854195508
  0.1878675902839669  0.2864352869841294  0.1263598540879696
  0.0632977997742052  0.5373002894929713  0.1266139729562693
  0.6869971539918895  0.1234679662866677  0.7865563892778391
  0.6874546489195018  0.9578697788302684  0.8314757347762903
  0.0620030737998097  0.5419616817546522  0.8736644665235500
  0.4372951175075246  0.2896135775379696  0.6098025241639655
  0.8124506410003296  0.0398485023269935  0.6096697888733317
  0.3119872231328172  0.5409179226803289  0.8738652167686212
  0.8124792583737012  0.7051398875283373  0.4784708983131908
  0.9376376586070969  0.6207308555194350  0.3017488115370741
  0.8124504955634906  0.2075165068759313  0.8321283708682214
  0.8125334951651743  0.2041795159605476  0.2136912597622476
  0.8128158773224855  0.0407232606540494  0.7427249092402864
  0.3129682850453095  0.8756988663881931  0.7864036419876557
  0.6876968048018299  0.6210451065565005  0.1678283621066875
  0.8121868565779270  0.7074930361289145  0.8324295312334230
  0.1874711024380697  0.7898498524418471  0.7423366242846493
  0.9374783692902590  0.2895182325890452  0.7425272803372862
  0.9376679415420498  0.9565574121945307  0.6982508118294027
  0.1874122948973516  0.9543214745807721  0.3462409165081259
  0.6876761357042565  0.9556898352778650  0.5650123665796339
  0.8133668450086834  0.7046135324990530  0.2138876721678533
  0.6858211857880120  0.6229386704216339  0.7864231224325702
  0.6877443052280127  0.7901299087691938  0.7422399437686968
  0.1877206035290914  0.1207792528977098  0.1681070651656572
  0.3121263970777541  0.7070022889913756  0.8322369306062086
  0.0628216810926219  0.8716989024137950  0.4347665228686953
  0.3124711757685700  0.7055498671351629  0.4785542263981150
  0.3125428674022379  0.3744601014585421  0.7865210175280181
  0.0624489508995064  0.2065965529365384  0.5650971040429656
  0.9375047999577369  0.4573150368167141  0.6979329986452750
  0.5608559878126518  0.0410364838541016  0.7426342770004937
  0.5628020614181531  0.0376617316155126  0.2574610918295256
  0.0626785095704327  0.5394861225529606  0.6098101131882947
 
  0.00000000E+00  0.00000000E+00  0.00000000E+00
  0.00000000E+00  0.00000000E+00  0.00000000E+00
  0.00000000E+00  0.00000000E+00  0.00000000E+00
  0.00000000E+00  0.00000000E+00  0.00000000E+00
  0.00000000E+00  0.00000000E+00  0.00000000E+00
  0.00000000E+00  0.00000000E+00  0.00000000E+00
  0.00000000E+00  0.00000000E+00  0.00000000E+00
  0.00000000E+00  0.00000000E+00  0.00000000E+00
  0.00000000E+00  0.00000000E+00  0.00000000E+00
  0.00000000E+00  0.00000000E+00  0.00000000E+00
  0.00000000E+00  0.00000000E+00  0.00000000E+00
  0.00000000E+00  0.00000000E+00  0.00000000E+00
  0.00000000E+00  0.00000000E+00  0.00000000E+00
  0.00000000E+00  0.00000000E+00  0.00000000E+00
  0.00000000E+00  0.00000000E+00  0.00000000E+00
  0.00000000E+00  0.00000000E+00  0.00000000E+00
  0.00000000E+00  0.00000000E+00  0.00000000E+00
  0.00000000E+00  0.00000000E+00  0.00000000E+00
  0.00000000E+00  0.00000000E+00  0.00000000E+00
  0.00000000E+00  0.00000000E+00  0.00000000E+00
  0.00000000E+00  0.00000000E+00  0.00000000E+00
  0.00000000E+00  0.00000000E+00  0.00000000E+00
  0.00000000E+00  0.00000000E+00  0.00000000E+00
  0.00000000E+00  0.00000000E+00  0.00000000E+00
  0.00000000E+00  0.00000000E+00  0.00000000E+00
  0.00000000E+00  0.00000000E+00  0.00000000E+00
  0.00000000E+00  0.00000000E+00  0.00000000E+00
  0.00000000E+00  0.00000000E+00  0.00000000E+00
  0.00000000E+00  0.00000000E+00  0.00000000E+00
  0.00000000E+00  0.00000000E+00  0.00000000E+00
  0.00000000E+00  0.00000000E+00  0.00000000E+00
  0.00000000E+00  0.00000000E+00  0.00000000E+00
  0.00000000E+00  0.00000000E+00  0.00000000E+00
  0.00000000E+00  0.00000000E+00  0.00000000E+00
  0.00000000E+00  0.00000000E+00  0.00000000E+00
  0.00000000E+00  0.00000000E+00  0.00000000E+00
  0.00000000E+00  0.00000000E+00  0.00000000E+00
  0.00000000E+00  0.00000000E+00  0.00000000E+00
  0.00000000E+00  0.00000000E+00  0.00000000E+00
  0.00000000E+00  0.00000000E+00  0.00000000E+00
  0.00000000E+00  0.00000000E+00  0.00000000E+00
  0.00000000E+00  0.00000000E+00  0.00000000E+00
  0.00000000E+00  0.00000000E+00  0.00000000E+00
  0.00000000E+00  0.00000000E+00  0.00000000E+00
  0.00000000E+00  0.00000000E+00  0.00000000E+00
  0.00000000E+00  0.00000000E+00  0.00000000E+00
  0.00000000E+00  0.00000000E+00  0.00000000E+00
  0.00000000E+00  0.00000000E+00  0.00000000E+00
  0.00000000E+00  0.00000000E+00  0.00000000E+00
  0.00000000E+00  0.00000000E+00  0.00000000E+00
  0.00000000E+00  0.00000000E+00  0.00000000E+00
  0.00000000E+00  0.00000000E+00  0.00000000E+00
  0.00000000E+00  0.00000000E+00  0.00000000E+00
  0.00000000E+00  0.00000000E+00  0.00000000E+00
  0.00000000E+00  0.00000000E+00  0.00000000E+00
  0.00000000E+00  0.00000000E+00  0.00000000E+00
  0.00000000E+00  0.00000000E+00  0.00000000E+00
  0.00000000E+00  0.00000000E+00  0.00000000E+00
  0.00000000E+00  0.00000000E+00  0.00000000E+00
  0.00000000E+00  0.00000000E+00  0.00000000E+00
  0.00000000E+00  0.00000000E+00  0.00000000E+00
  0.00000000E+00  0.00000000E+00  0.00000000E+00
  0.00000000E+00  0.00000000E+00  0.00000000E+00
  0.00000000E+00  0.00000000E+00  0.00000000E+00
  0.00000000E+00  0.00000000E+00  0.00000000E+00
  0.00000000E+00  0.00000000E+00  0.00000000E+00
  0.00000000E+00  0.00000000E+00  0.00000000E+00
  0.00000000E+00  0.00000000E+00  0.00000000E+00
  0.00000000E+00  0.00000000E+00  0.00000000E+00
  0.00000000E+00  0.00000000E+00  0.00000000E+00
  0.00000000E+00  0.00000000E+00  0.00000000E+00
  0.00000000E+00  0.00000000E+00  0.00000000E+00
  0.00000000E+00  0.00000000E+00  0.00000000E+00
  0.00000000E+00  0.00000000E+00  0.00000000E+00
  0.00000000E+00  0.00000000E+00  0.00000000E+00
  0.00000000E+00  0.00000000E+00  0.00000000E+00
  0.00000000E+00  0.00000000E+00  0.00000000E+00
  0.00000000E+00  0.00000000E+00  0.00000000E+00
  0.00000000E+00  0.00000000E+00  0.00000000E+00
  0.00000000E+00  0.00000000E+00  0.00000000E+00
  0.00000000E+00  0.00000000E+00  0.00000000E+00
  0.00000000E+00  0.00000000E+00  0.00000000E+00
  0.00000000E+00  0.00000000E+00  0.00000000E+00
  0.00000000E+00  0.00000000E+00  0.00000000E+00
  0.00000000E+00  0.00000000E+00  0.00000000E+00
  0.00000000E+00  0.00000000E+00  0.00000000E+00
  0.00000000E+00  0.00000000E+00  0.00000000E+00
  0.00000000E+00  0.00000000E+00  0.00000000E+00
  0.00000000E+00  0.00000000E+00  0.00000000E+00
  0.00000000E+00  0.00000000E+00  0.00000000E+00
  0.00000000E+00  0.00000000E+00  0.00000000E+00
  0.00000000E+00  0.00000000E+00  0.00000000E+00
  0.00000000E+00  0.00000000E+00  0.00000000E+00
  0.00000000E+00  0.00000000E+00  0.00000000E+00
  0.00000000E+00  0.00000000E+00  0.00000000E+00
  0.00000000E+00  0.00000000E+00  0.00000000E+00
  0.00000000E+00  0.00000000E+00  0.00000000E+00
  0.00000000E+00  0.00000000E+00  0.00000000E+00
  0.00000000E+00  0.00000000E+00  0.00000000E+00
  0.00000000E+00  0.00000000E+00  0.00000000E+00
  0.00000000E+00  0.00000000E+00  0.00000000E+00
  0.00000000E+00  0.00000000E+00  0.00000000E+00
  0.00000000E+00  0.00000000E+00  0.00000000E+00
  0.00000000E+00  0.00000000E+00  0.00000000E+00
  0.00000000E+00  0.00000000E+00  0.00000000E+00
  0.00000000E+00  0.00000000E+00  0.00000000E+00
  0.00000000E+00  0.00000000E+00  0.00000000E+00
  0.00000000E+00  0.00000000E+00  0.00000000E+00
  0.00000000E+00  0.00000000E+00  0.00000000E+00
  0.00000000E+00  0.00000000E+00  0.00000000E+00
  0.00000000E+00  0.00000000E+00  0.00000000E+00
  0.00000000E+00  0.00000000E+00  0.00000000E+00
  0.00000000E+00  0.00000000E+00  0.00000000E+00
  0.00000000E+00  0.00000000E+00  0.00000000E+00
  0.00000000E+00  0.00000000E+00  0.00000000E+00
  0.00000000E+00  0.00000000E+00  0.00000000E+00
  0.00000000E+00  0.00000000E+00  0.00000000E+00
  0.00000000E+00  0.00000000E+00  0.00000000E+00
  0.00000000E+00  0.00000000E+00  0.00000000E+00
  0.00000000E+00  0.00000000E+00  0.00000000E+00
  0.00000000E+00  0.00000000E+00  0.00000000E+00
  0.00000000E+00  0.00000000E+00  0.00000000E+00
  0.00000000E+00  0.00000000E+00  0.00000000E+00
  0.00000000E+00  0.00000000E+00  0.00000000E+00
  0.00000000E+00  0.00000000E+00  0.00000000E+00
  0.00000000E+00  0.00000000E+00  0.00000000E+00
  0.00000000E+00  0.00000000E+00  0.00000000E+00
  0.00000000E+00  0.00000000E+00  0.00000000E+00
  0.00000000E+00  0.00000000E+00  0.00000000E+00
  0.00000000E+00  0.00000000E+00  0.00000000E+00
  0.00000000E+00  0.00000000E+00  0.00000000E+00
  0.00000000E+00  0.00000000E+00  0.00000000E+00
  0.00000000E+00  0.00000000E+00  0.00000000E+00
  0.00000000E+00  0.00000000E+00  0.00000000E+00
  0.00000000E+00  0.00000000E+00  0.00000000E+00
  0.00000000E+00  0.00000000E+00  0.00000000E+00
  0.00000000E+00  0.00000000E+00  0.00000000E+00
  0.00000000E+00  0.00000000E+00  0.00000000E+00
  0.00000000E+00  0.00000000E+00  0.00000000E+00
  0.00000000E+00  0.00000000E+00  0.00000000E+00
  0.00000000E+00  0.00000000E+00  0.00000000E+00
  0.00000000E+00  0.00000000E+00  0.00000000E+00
  0.00000000E+00  0.00000000E+00  0.00000000E+00
  0.00000000E+00  0.00000000E+00  0.00000000E+00
  0.00000000E+00  0.00000000E+00  0.00000000E+00
  0.00000000E+00  0.00000000E+00  0.00000000E+00
  0.00000000E+00  0.00000000E+00  0.00000000E+00
  0.00000000E+00  0.00000000E+00  0.00000000E+00
  0.00000000E+00  0.00000000E+00  0.00000000E+00
  0.00000000E+00  0.00000000E+00  0.00000000E+00
  0.00000000E+00  0.00000000E+00  0.00000000E+00
  0.00000000E+00  0.00000000E+00  0.00000000E+00
  0.00000000E+00  0.00000000E+00  0.00000000E+00
  0.00000000E+00  0.00000000E+00  0.00000000E+00
  0.00000000E+00  0.00000000E+00  0.00000000E+00
  0.00000000E+00  0.00000000E+00  0.00000000E+00
  0.00000000E+00  0.00000000E+00  0.00000000E+00
  0.00000000E+00  0.00000000E+00  0.00000000E+00
  0.00000000E+00  0.00000000E+00  0.00000000E+00
  0.00000000E+00  0.00000000E+00  0.00000000E+00
  0.00000000E+00  0.00000000E+00  0.00000000E+00
  0.00000000E+00  0.00000000E+00  0.00000000E+00
  0.00000000E+00  0.00000000E+00  0.00000000E+00
  0.00000000E+00  0.00000000E+00  0.00000000E+00
  0.00000000E+00  0.00000000E+00  0.00000000E+00
  0.00000000E+00  0.00000000E+00  0.00000000E+00
  0.00000000E+00  0.00000000E+00  0.00000000E+00
  0.00000000E+00  0.00000000E+00  0.00000000E+00
  0.00000000E+00  0.00000000E+00  0.00000000E+00
  0.00000000E+00  0.00000000E+00  0.00000000E+00
  0.00000000E+00  0.00000000E+00  0.00000000E+00
  0.00000000E+00  0.00000000E+00  0.00000000E+00
  0.00000000E+00  0.00000000E+00  0.00000000E+00
  0.00000000E+00  0.00000000E+00  0.00000000E+00
  0.00000000E+00  0.00000000E+00  0.00000000E+00
  0.00000000E+00  0.00000000E+00  0.00000000E+00
  0.00000000E+00  0.00000000E+00  0.00000000E+00
  0.00000000E+00  0.00000000E+00  0.00000000E+00
  0.00000000E+00  0.00000000E+00  0.00000000E+00
  0.00000000E+00  0.00000000E+00  0.00000000E+00
  0.00000000E+00  0.00000000E+00  0.00000000E+00
  0.00000000E+00  0.00000000E+00  0.00000000E+00
  0.00000000E+00  0.00000000E+00  0.00000000E+00
  0.00000000E+00  0.00000000E+00  0.00000000E+00
  0.00000000E+00  0.00000000E+00  0.00000000E+00
  0.00000000E+00  0.00000000E+00  0.00000000E+00
  0.00000000E+00  0.00000000E+00  0.00000000E+00
  0.00000000E+00  0.00000000E+00  0.00000000E+00
  0.00000000E+00  0.00000000E+00  0.00000000E+00
  0.00000000E+00  0.00000000E+00  0.00000000E+00
  0.00000000E+00  0.00000000E+00  0.00000000E+00
  0.00000000E+00  0.00000000E+00  0.00000000E+00
  0.00000000E+00  0.00000000E+00  0.00000000E+00
  0.00000000E+00  0.00000000E+00  0.00000000E+00
  0.00000000E+00  0.00000000E+00  0.00000000E+00
  0.00000000E+00  0.00000000E+00  0.00000000E+00
  0.00000000E+00  0.00000000E+00  0.00000000E+00
  0.00000000E+00  0.00000000E+00  0.00000000E+00
  0.00000000E+00  0.00000000E+00  0.00000000E+00
  0.00000000E+00  0.00000000E+00  0.00000000E+00
  0.00000000E+00  0.00000000E+00  0.00000000E+00
  0.00000000E+00  0.00000000E+00  0.00000000E+00
  0.00000000E+00  0.00000000E+00  0.00000000E+00
  0.00000000E+00  0.00000000E+00  0.00000000E+00
  0.00000000E+00  0.00000000E+00  0.00000000E+00
  0.00000000E+00  0.00000000E+00  0.00000000E+00
  0.00000000E+00  0.00000000E+00  0.00000000E+00
  0.00000000E+00  0.00000000E+00  0.00000000E+00
  0.00000000E+00  0.00000000E+00  0.00000000E+00
  0.00000000E+00  0.00000000E+00  0.00000000E+00
  0.00000000E+00  0.00000000E+00  0.00000000E+00
  0.00000000E+00  0.00000000E+00  0.00000000E+00
  0.00000000E+00  0.00000000E+00  0.00000000E+00
  0.00000000E+00  0.00000000E+00  0.00000000E+00
  0.00000000E+00  0.00000000E+00  0.00000000E+00
  0.00000000E+00  0.00000000E+00  0.00000000E+00
  0.00000000E+00  0.00000000E+00  0.00000000E+00
  0.00000000E+00  0.00000000E+00  0.00000000E+00
  0.00000000E+00  0.00000000E+00  0.00000000E+00
  0.00000000E+00  0.00000000E+00  0.00000000E+00
  0.00000000E+00  0.00000000E+00  0.00000000E+00
  0.00000000E+00  0.00000000E+00  0.00000000E+00
  0.00000000E+00  0.00000000E+00  0.00000000E+00
  0.00000000E+00  0.00000000E+00  0.00000000E+00
  0.00000000E+00  0.00000000E+00  0.00000000E+00
  0.00000000E+00  0.00000000E+00  0.00000000E+00
  0.00000000E+00  0.00000000E+00  0.00000000E+00
  0.00000000E+00  0.00000000E+00  0.00000000E+00
  0.00000000E+00  0.00000000E+00  0.00000000E+00
  0.00000000E+00  0.00000000E+00  0.00000000E+00
  0.00000000E+00  0.00000000E+00  0.00000000E+00
  0.00000000E+00  0.00000000E+00  0.00000000E+00
  0.00000000E+00  0.00000000E+00  0.00000000E+00
  0.00000000E+00  0.00000000E+00  0.00000000E+00
  0.00000000E+00  0.00000000E+00  0.00000000E+00
  0.00000000E+00  0.00000000E+00  0.00000000E+00
  0.00000000E+00  0.00000000E+00  0.00000000E+00
  0.00000000E+00  0.00000000E+00  0.00000000E+00
  0.00000000E+00  0.00000000E+00  0.00000000E+00
  0.00000000E+00  0.00000000E+00  0.00000000E+00
  0.00000000E+00  0.00000000E+00  0.00000000E+00
  0.00000000E+00  0.00000000E+00  0.00000000E+00
  0.00000000E+00  0.00000000E+00  0.00000000E+00
  0.00000000E+00  0.00000000E+00  0.00000000E+00
  0.00000000E+00  0.00000000E+00  0.00000000E+00
  0.00000000E+00  0.00000000E+00  0.00000000E+00
  0.00000000E+00  0.00000000E+00  0.00000000E+00