CuInSe2gb                               
   1.00000000000000     
     9.7266780392896699    0.0000000000000000    0.0000000000000000
     0.0000000000000000    8.4235502764570693    0.0000000000000000
     0.0000000000000000    0.0000000000000000   45.0000000000000000
   Fe   Mn
   274    14
Direct
  0.0621163967648132  0.0305435798802467  0.1242017587776319
  0.3163036680601931  0.8747403223374842  0.6550650288463745
  0.1847471961011165  0.1226592452734584  0.7886534650440497
  0.4414594635433586  0.2876613805916048  0.3891199814891690
  0.3176944599402187  0.7131911885727380  0.8330698597879438
  0.8178656531592080  0.2144137125775433  0.8335424611512192
  0.1915460444076074  0.9630128458982453  0.8335074766640693
  0.5621589111249683  0.2071690408523527  0.5654915108257127
  0.0655697249411624  0.0401180708289346  0.7440800371997727
  0.8114732817946665  0.8712583172536174  0.5213518758649273
  0.1905584200156768  0.2904672797972833  0.7442337631666222
  0.9336189453538276  0.4524980831975367  0.3448864392970319
  0.9414003630372948  0.2870476451137404  0.3890385577381446
  0.8129684175561479  0.0401708037773852  0.8756135491274193
  0.1839453087462077  0.7882955911792732  0.6108749088811968
  0.5662978445088179  0.0382114524453095  0.3890283001377372
  0.9418803356424054  0.9642562549190146  0.8337630417024769
  0.3138049268981756  0.5395071684736737  0.8759200234947123
  0.6901101708378796  0.2908810902366147  0.7441727523878205
  0.1826924233263013  0.6138126104897629  0.1665112812618531
  0.8122835401090045  0.2056501510223578  0.4787244871871101
  0.8090373922279840  0.5384258460079508  0.6109490345142006
  0.3118925733433598  0.8706451560721029  0.4344779396541442
  0.8093668612591525  0.0386967463675279  0.2559142913053106
  0.6833719816381939  0.9518389199490931  0.3447831089177338
  0.9309505436166605  0.1147848527760414  0.1668749173392851
  0.0617253763707009  0.8714119820708449  0.5213547926358221
  0.5585890522867939  0.5381097574715933  0.2558654732929922
  0.6854313252263470  0.7964579217278241  0.8758208091631025
  0.5568674430364410  0.3652536384870560  0.1665330317994257
  0.4398119452614017  0.7917668941700053  0.7444408315212617
  0.8114503212972681  0.7066163663054313  0.5654673705632706
  0.5593966566234420  0.8728491024859826  0.7886077491639898
  0.6865902104439476  0.1215396858430730  0.5213968417559676
  0.8161636487149367  0.3748376349850044  0.6550265851964419
  0.9417667023471337  0.4634508046239913  0.8336515112723375
  0.0603438641670653  0.2079428417409071  0.6996979879628009
  0.4353286992740054  0.9574411822022705  0.6996980046640813
  0.3167669918714194  0.2127882105459058  0.8334856182839466
  0.4412883630358563  0.6248357228743806  0.6549652894474348
  0.3089745562065785  0.5384630122540098  0.6109844499754150
  0.9364898382013244  0.4566343689186129  0.5655531309289710
  0.6902672944881008  0.7914399245695238  0.7442990345782731
  0.9340387001217454  0.7880459010795099  0.1244887934735886
  0.6917235125038267  0.7876313670449300  0.3890802441456810
  0.9404869692808646  0.7904363871114298  0.7445350460699507
  0.0587419367169503  0.2027998366094740  0.3449316958265010
  0.6836980705983196  0.4523549856473282  0.3449288900200952
  0.4348370194431182  0.1224595415805813  0.7888583073796331
  0.0648187091155370  0.2041833898826448  0.2112157291912448
  0.0553684179410801  0.3653884785459376  0.1666612065494454
  0.9336279467962479  0.7881147855680819  0.2557186341873898
  0.5605116310544761  0.2073035488002069  0.6997937495370601
  0.6850600045314742  0.9571683273736571  0.6997437255819996
  0.8094695710085520  0.8731436891548320  0.7883920319935304
  0.4369936615690390  0.9573301227364378  0.5653696669421040
  0.8099148488727034  0.3741073000164676  0.7885103891679076
  0.6843491459712356  0.2891708894279265  0.2560201869871944
  0.1873439045031340  0.4571398331976111  0.5654846549184254
  0.0561721252233822  0.8654773060855859  0.1666615025479028
  0.1843195496528283  0.2889128988611586  0.6109732354062379
  0.0621427345331915  0.2072556827821732  0.5653692563233434
  0.3104912628135899  0.2075588711754978  0.6997659865730350
  0.5632677953032904  0.5398115991908882  0.8758390029705910
  0.0622883147345197  0.7069583564580751  0.5655218881889527
  0.6843130363280242  0.6222595423006910  0.7884883945954174
  0.3161155980208146  0.5381571882310024  0.3889885280419431
  0.1867405240630167  0.6214022210040219  0.5214075092314361
  0.5622191808343386  0.8705807999328982  0.4344571469972270
  0.4367300591074645  0.4567698161031526  0.5655301073793607
  0.4398206801063380  0.2916262505292557  0.7442452660809543
  0.8191997524646301  0.8749996892238699  0.3001949277369890
  0.8084107626546354  0.7024761881965614  0.3450163951888866
  0.4418486522439102  0.4626474287451286  0.8332730061059216
  0.6874373500072402  0.9556307362042024  0.4786978059557491
  0.6845229136566751  0.4576293889282111  0.6996947347487177
  0.5618177131463321  0.8718578681792576  0.5214234964056013
  0.5661810906230107  0.3745334399043744  0.6549625078830995
  0.8161500333595233  0.8747877931550242  0.6550162784708655
  0.8114919878851911  0.3713184851835842  0.4341973486483381
  0.8092693120728979  0.5386661390663113  0.2559436350667480
  0.6918013513666907  0.4621777251419092  0.8332548509748380
  0.1856867409014576  0.7876425386386322  0.1240597688193766
  0.6912925277306748  0.2872531235452708  0.3890109560355732
  0.3160544733258563  0.3740839897180316  0.6549635707507638
  0.3087475610608774  0.2026380031063179  0.3447230072008956
  0.8157216019094834  0.5400473962082175  0.7442565661452755
  0.6917374957605233  0.9617961035459837  0.8333588960138683
  0.5661477234961194  0.8743992564331072  0.6549638210011915
  0.3114230709242392  0.7070290966522796  0.5654596080328415
  0.3119544056198978  0.5305453197217797  0.1241758005665361
  0.6894719885525405  0.9549026164971927  0.2116756528233642
  0.3114006454498596  0.2065837813184102  0.5655056093356990
  0.1873317704001029  0.9558091312778036  0.4787086237530681
  0.6873944869828392  0.9567980204352824  0.5655081520544001
  0.4339260391252628  0.7884235890929534  0.6109260746674151
  0.6823431769502850  0.6117562976361048  0.1666609672082918
  0.3192341036705249  0.8733710643059626  0.2999007534978918
  0.3121877288720680  0.7057193404705572  0.4786882182417128
  0.9338471846938315  0.2879606131239753  0.6109073564452935
  0.4451111902924623  0.6238303952064791  0.3002898395684684
  0.8070259478911486  0.8636731275254995  0.1669612331329405
  0.5662254897804853  0.2028094438412160  0.2114432469310595
  0.9329303170268056  0.6127920556834547  0.1667234729296369
  0.4371533067937812  0.9558411822723876  0.4786299015315377
  0.5599622371541582  0.3726740425061668  0.7886531039039574
  0.0612857952083961  0.3721043403976623  0.5213801208701626
  0.3070652298707619  0.3638605199315768  0.1667159694995212
  0.5657459334714252  0.7034474504729288  0.2113940874541262
  0.4426196511657950  0.9626749685117344  0.8332799202897447
  0.1847934697674810  0.2869248649428209  0.1242665785429750
  0.1843592194882911  0.2889296580106008  0.2559418559951792
  0.3121055114102108  0.3704370726549746  0.4344106903105799
  0.5626092113119988  0.0319172865240291  0.1242999878962970
  0.4339789526941453  0.2886167435724564  0.6109174757717676
  0.1838489019281064  0.4527915296212127  0.3450083987918780
  0.4346035852109436  0.2868714812365529  0.1243197271558064
  0.6842474136684946  0.7890045319604914  0.2559536877388104
  0.4366179439904237  0.1214391666598624  0.5214060342776122
  0.1884576448401154  0.2953182321711845  0.8759685585525041
  0.1911638968809511  0.1250943454437425  0.6550695318705223
  0.9412874682697571  0.1249149203487514  0.6549917296310552
  0.8161289768714979  0.5376513990989314  0.3890849911444054
  0.0662269617187244  0.0377938622413946  0.3890828435355574
  0.1833730560246604  0.1121832748649093  0.1664887089235663
  0.0588657236855855  0.5382974723936392  0.6109927879754593
  0.9343064560049387  0.2890751058460828  0.2559657893283953
  0.5588862130696995  0.5384356362235541  0.6109482673898180
  0.9368980193263146  0.9574162108957243  0.5654652189260191
  0.6939061913892000  0.6244263729442604  0.3000846817994235
  0.9373005947619175  0.6205186741943768  0.4344919806373880
  0.9342089918736528  0.6234082508401725  0.7883397157491132
  0.5602913101685368  0.7071646296047781  0.6997039022023540
  0.0661445094157344  0.7156884427841205  0.8337796108918262
  0.9449946703367400  0.1231169753075251  0.3001342410511691
  0.9339357111227684  0.7878460809992665  0.6109327572553115
  0.4335889225697026  0.7885092269952793  0.2557519496238447
  0.3097723644067901  0.3729887198021147  0.7886719512095653
  0.4399192418097122  0.4543351988216162  0.2114488762508317
  0.1867266743904966  0.1215938856051643  0.5214053703394029
  0.8101129832688767  0.7073774207231220  0.6996756198137170
  0.0588111843675728  0.0382422912367289  0.6108603205950043
  0.5662240620379573  0.2131868873400164  0.8331496023513083
  0.3116341119609204  0.8717512179199579  0.5213990717256515
  0.6859355371257163  0.2871057598850819  0.1240483698380261
  0.1900284695148792  0.9549180190583352  0.2118547050185876
  0.6839346517272628  0.2885361068683874  0.6109661369779327
  0.3087693624009268  0.0384145404380348  0.6110402622746003
  0.9352912128163414  0.1237074510270567  0.7886108025312746
  0.4366967899595990  0.7962541309964584  0.8759139292565248
  0.8155747770143800  0.0404747974563043  0.7442270691927161
  0.9352676955063486  0.4577818057814755  0.6996553771244115
  0.1911058343136668  0.6251290010417665  0.6550483383561266
  0.3102083020423031  0.7067921014153378  0.6997729561611938
  0.9344621056827853  0.2869122507997427  0.1241078766266798
  0.4372083661338457  0.4558980302618002  0.4784974697098064
  0.0621961703521308  0.7057405292896654  0.4784702187908178
  0.9368395780362528  0.1198608323447889  0.4346062591936499
  0.4443251407997577  0.1239397815496996  0.3004036777339674
  0.1871754064607825  0.1204583385206060  0.4343091040141634
  0.5629394130784455  0.0400154829230638  0.8759369585072412
  0.1869374658734512  0.9571772035336265  0.5655017708754844
  0.6849542996612235  0.7882671642028051  0.1245097021412895
  0.5587684702509323  0.7022333488820629  0.3449446293205467
  0.3160531473688359  0.0366105176292244  0.3889409245826853
  0.6828207416825725  0.1136949013527689  0.1669535023850280
  0.8150655677078574  0.2036148161081814  0.2112121928886756
  0.0596478904551723  0.5378037214412824  0.2557875378399766
  0.5622906530352498  0.7056547987128591  0.4785355587403678
  0.4348599696328627  0.7874902426186859  0.1242596649205043
  0.5694111872485575  0.3738754137799573  0.3002227393794287
  0.4337333506025688  0.9528484786708886  0.3449910390187635
  0.1851856268227497  0.9575964889839305  0.6997916827806173
  0.4318390678298563  0.6136170929248215  0.1665424398537139
  0.9398985424553972  0.4547864231208132  0.2117934411544005
  0.0618208396684282  0.5301615218816044  0.1241710571045267
  0.8117753585263605  0.3719307705704538  0.5213520702690563
  0.9448636584975821  0.6234825080755366  0.2999520811348979
  0.3091640092567300  0.0378405873444669  0.2557731965550132
  0.6839967918662031  0.7883705788579977  0.6108968380778742
  0.1916096619131329  0.4632315033821530  0.8334081049376890
  0.4325796018580039  0.1122427777562062  0.1665794459582528
  0.3114496601845961  0.3717973445166534  0.5214078302327183
  0.4338440682965823  0.6220538344248631  0.7888963154914979
  0.0589330693402251  0.0382422026439792  0.2558609137058281
  0.5621709205640112  0.7071757608685368  0.5654787364882052
  0.9397978563532058  0.2904202537799281  0.7444570482249261
  0.6838164859489864  0.1222221777665420  0.7884563519804140
  0.1896350925602401  0.4542642855132296  0.2113253732805804
  0.9411716541457724  0.7876252916201670  0.3889406538656797
  0.6861451151312012  0.2984003725564204  0.8759905732121918
  0.5563220741202366  0.8639376964433289  0.1664926800883220
  0.4353045008092515  0.4577946463722684  0.6996870569266719
  0.9338839935340898  0.9516510196120153  0.3448695887179141
  0.6863770848314135  0.6211731231189637  0.5212081006428227
  0.0660237346477938  0.8745159406955487  0.6549355631243430
  0.0596695365467429  0.8734027188462367  0.7884697162184223
  0.0660367548770315  0.3744934231455536  0.6550023555890131
  0.6868998208108229  0.4555253116903663  0.4786550305729755
  0.1843461921667577  0.7887422210234529  0.2557645095285796
  0.4370193161388241  0.1208415126357476  0.4343733472069591
  0.8130993712880202  0.0307628909772447  0.1241731255473321
  0.9366245587796952  0.6216478142639923  0.5214022533785714
  0.4411656698743380  0.1245582785311651  0.6548467747003364
  0.8126217870512119  0.5298726983007190  0.1240701442019689
  0.4337386723270508  0.4526751024326615  0.3450954995887946
  0.8089405302842927  0.2022621355027772  0.3449712011428088
  0.3089354888011969  0.7022318590773220  0.3448507307196356
  0.6911393488040667  0.1250077304713958  0.6550226284003805
  0.5702404013892769  0.8742789463733295  0.3003592402046020
  0.0656187245543997  0.5405513965144888  0.7443574573123275
  0.9410333698934458  0.9541332776676679  0.2112347832404984
  0.8163449962099647  0.7042081580251208  0.2114737374410689
  0.0692121268352397  0.8732629581729877  0.3003447422316116
  0.1948631001550440  0.1237716550949426  0.3002859330270516
  0.0583113249760239  0.7023799782794616  0.3449481438828991
  0.8090933706498415  0.0382165753212695  0.6109366970434136
  0.0627797225368081  0.3715694218942325  0.4342835785994635
  0.5586944272545963  0.2022094263801049  0.3449089252940818
  0.8191571961110711  0.3735838622153196  0.3000332384021917
  0.5592286918075624  0.0386819013275634  0.2556875654596985
  0.5664249979598793  0.5378039116645594  0.3890966820256713
  0.0626038488284009  0.2059634191329400  0.4786665262950210
  0.3108870029838056  0.8722140158231171  0.7882729449782004
  0.9352709230179272  0.9581414354970921  0.6996676946012785
  0.0685766860826628  0.3746496104789797  0.3001703326003586
  0.6910595209654098  0.6249228998465366  0.6551720418328167
  0.6868876519407767  0.4570062462422583  0.5654167429418151
  0.4401845454590324  0.9556307372013271  0.2120030914329689
  0.3123406998536771  0.2056150127610874  0.4787321151701108
  0.8128135110813478  0.5392435976176985  0.8758077708246931
  0.6879443765008960  0.6207745479881498  0.4343982917034626
  0.8106848316169113  0.2074019784411446  0.6997792804416354
  0.8123709650421168  0.7057252201700097  0.4786417224812853
  0.8111293166081628  0.8711980941591584  0.4342799690586028
  0.9371456246795520  0.9553849427021220  0.4786508419654169
  0.5621635295437587  0.2057279075828032  0.4786687521285186
  0.1871126428889119  0.6203906931426757  0.4344886656767946
  0.3152300734023023  0.0411320283692513  0.7440329404569949
  0.9414011819051369  0.6255047717914535  0.6549501101518793
  0.5662901079917568  0.7130044091410013  0.8331336997344045
  0.3199889937269625  0.3732065064588315  0.3002367133266242
  0.3153949115023209  0.5409687568854968  0.7443178787583523
  0.1874151070811282  0.4556301098839330  0.4787225356209110
  0.3144139535773978  0.0402053788591588  0.8757597205420822
  0.1851080129883672  0.4580825085309680  0.6996696624304178
  0.5616208734720153  0.3715087673026183  0.5214036184052030
  0.1910902393939842  0.2878901729228430  0.3889867723499045
  0.3156794789636536  0.2047848308482379  0.2114181582678078
  0.0664190122817824  0.7041661614928421  0.2114504712602973
  0.5618042736880666  0.3710405957312098  0.4342877590849086
  0.4364396715921043  0.6216974918088471  0.5213084333828439
  0.8167412552969028  0.7149563868722593  0.8332867680301052
  0.0598948024590289  0.3736653718931432  0.7884683761271801
  0.4370754545946599  0.2975249489601957  0.8761919473485189
  0.3111363630563675  0.0309524668699516  0.1242284703482026
  0.6875738376288575  0.1200475324115933  0.4343189981512695
  0.1836562120708514  0.9525853889530889  0.3450641107443051
  0.0667552943020796  0.2144800727899425  0.8338523761364319
  0.5591670958015756  0.0387212974337388  0.6110616815616914
  0.6894090525467949  0.4542442058935720  0.2116849181998625
  0.1899825868960971  0.7913633889518994  0.7443935213630987
  0.1941330350445932  0.6240984472182100  0.3003135240266487
  0.4412788703577662  0.7876656792072275  0.3890769233857762
  0.4342152223933592  0.2890231209713343  0.2559262137991904
  0.0637705351349966  0.5396786489608457  0.8757816557515529
  0.5654132391984519  0.0412578289018345  0.7442997372355428
  0.1879986075162342  0.7958080900085135  0.8758338689202591
  0.9372404616257873  0.4555556962450283  0.4786133825421548
  0.5655603528201948  0.5412251845349483  0.7441548815183248
  0.8111541082154470  0.2070249939290855  0.5654253234880443
  0.1854908119331092  0.6220885055446035  0.7884367447419737
  0.0670581361411527  0.5386201489079058  0.3891272506391606
  0.0605588685305304  0.7075339440471381  0.6996675669162067
  0.3088007139062945  0.5384230462299722  0.2555982206876979
  0.3155890760726105  0.7033822298275173  0.2121823395409879
  0.3058404482307925  0.8651474228932847  0.1658221492642841
  0.4366575479566429  0.6208147815309620  0.4343844142682919
  0.8177575384641782  0.0396259916017312  0.3892870470595763
  0.9352006991562981  0.2969576371126165  0.8754927625604878
  0.9377868574714859  0.7946083475730646  0.8754079832416400
  0.0656332254898377  0.0383102294028925  0.8755479158563823
  0.5629006053883057  0.5291157749225724  0.1246133989179125
  0.8054273993809912  0.3661623678664334  0.1660168569612666
  0.0618357419769862  0.8711222866356114  0.4344313131973482
  0.9365601712357747  0.1214900517491556  0.5214278461592821
  0.1928564074415516  0.7875884938630947  0.3889569160072066
  0.6956073307114418  0.1235901217878995  0.3001924378057939
 
  0.00000000E+00  0.00000000E+00  0.00000000E+00
  0.00000000E+00  0.00000000E+00  0.00000000E+00
  0.00000000E+00  0.00000000E+00  0.00000000E+00
  0.00000000E+00  0.00000000E+00  0.00000000E+00
  0.00000000E+00  0.00000000E+00  0.00000000E+00
  0.00000000E+00  0.00000000E+00  0.00000000E+00
  0.00000000E+00  0.00000000E+00  0.00000000E+00
  0.00000000E+00  0.00000000E+00  0.00000000E+00
  0.00000000E+00  0.00000000E+00  0.00000000E+00
  0.00000000E+00  0.00000000E+00  0.00000000E+00
  0.00000000E+00  0.00000000E+00  0.00000000E+00
  0.00000000E+00  0.00000000E+00  0.00000000E+00
  0.00000000E+00  0.00000000E+00  0.00000000E+00
  0.00000000E+00  0.00000000E+00  0.00000000E+00
  0.00000000E+00  0.00000000E+00  0.00000000E+00
  0.00000000E+00  0.00000000E+00  0.00000000E+00
  0.00000000E+00  0.00000000E+00  0.00000000E+00
  0.00000000E+00  0.00000000E+00  0.00000000E+00
  0.00000000E+00  0.00000000E+00  0.00000000E+00
  0.00000000E+00  0.00000000E+00  0.00000000E+00
  0.00000000E+00  0.00000000E+00  0.00000000E+00
  0.00000000E+00  0.00000000E+00  0.00000000E+00
  0.00000000E+00  0.00000000E+00  0.00000000E+00
  0.00000000E+00  0.00000000E+00  0.00000000E+00
  0.00000000E+00  0.00000000E+00  0.00000000E+00
  0.00000000E+00  0.00000000E+00  0.00000000E+00
  0.00000000E+00  0.00000000E+00  0.00000000E+00
  0.00000000E+00  0.00000000E+00  0.00000000E+00
  0.00000000E+00  0.00000000E+00  0.00000000E+00
  0.00000000E+00  0.00000000E+00  0.00000000E+00
  0.00000000E+00  0.00000000E+00  0.00000000E+00
  0.00000000E+00  0.00000000E+00  0.00000000E+00
  0.00000000E+00  0.00000000E+00  0.00000000E+00
  0.00000000E+00  0.00000000E+00  0.00000000E+00
  0.00000000E+00  0.00000000E+00  0.00000000E+00
  0.00000000E+00  0.00000000E+00  0.00000000E+00
  0.00000000E+00  0.00000000E+00  0.00000000E+00
  0.00000000E+00  0.00000000E+00  0.00000000E+00
  0.00000000E+00  0.00000000E+00  0.00000000E+00
  0.00000000E+00  0.00000000E+00  0.00000000E+00
  0.00000000E+00  0.00000000E+00  0.00000000E+00
  0.00000000E+00  0.00000000E+00  0.00000000E+00
  0.00000000E+00  0.00000000E+00  0.00000000E+00
  0.00000000E+00  0.00000000E+00  0.00000000E+00
  0.00000000E+00  0.00000000E+00  0.00000000E+00
  0.00000000E+00  0.00000000E+00  0.00000000E+00
  0.00000000E+00  0.00000000E+00  0.00000000E+00
  0.00000000E+00  0.00000000E+00  0.00000000E+00
  0.00000000E+00  0.00000000E+00  0.00000000E+00
  0.00000000E+00  0.00000000E+00  0.00000000E+00
  0.00000000E+00  0.00000000E+00  0.00000000E+00
  0.00000000E+00  0.00000000E+00  0.00000000E+00
  0.00000000E+00  0.00000000E+00  0.00000000E+00
  0.00000000E+00  0.00000000E+00  0.00000000E+00
  0.00000000E+00  0.00000000E+00  0.00000000E+00
  0.00000000E+00  0.00000000E+00  0.00000000E+00
  0.00000000E+00  0.00000000E+00  0.00000000E+00
  0.00000000E+00  0.00000000E+00  0.00000000E+00
  0.00000000E+00  0.00000000E+00  0.00000000E+00
  0.00000000E+00  0.00000000E+00  0.00000000E+00
  0.00000000E+00  0.00000000E+00  0.00000000E+00
  0.00000000E+00  0.00000000E+00  0.00000000E+00
  0.00000000E+00  0.00000000E+00  0.00000000E+00
  0.00000000E+00  0.00000000E+00  0.00000000E+00
  0.00000000E+00  0.00000000E+00  0.00000000E+00
  0.00000000E+00  0.00000000E+00  0.00000000E+00
  0.00000000E+00  0.00000000E+00  0.00000000E+00
  0.00000000E+00  0.00000000E+00  0.00000000E+00
  0.00000000E+00  0.00000000E+00  0.00000000E+00
  0.00000000E+00  0.00000000E+00  0.00000000E+00
  0.00000000E+00  0.00000000E+00  0.00000000E+00
  0.00000000E+00  0.00000000E+00  0.00000000E+00
  0.00000000E+00  0.00000000E+00  0.00000000E+00
  0.00000000E+00  0.00000000E+00  0.00000000E+00
  0.00000000E+00  0.00000000E+00  0.00000000E+00
  0.00000000E+00  0.00000000E+00  0.00000000E+00
  0.00000000E+00  0.00000000E+00  0.00000000E+00
  0.00000000E+00  0.00000000E+00  0.00000000E+00
  0.00000000E+00  0.00000000E+00  0.00000000E+00
  0.00000000E+00  0.00000000E+00  0.00000000E+00
  0.00000000E+00  0.00000000E+00  0.00000000E+00
  0.00000000E+00  0.00000000E+00  0.00000000E+00
  0.00000000E+00  0.00000000E+00  0.00000000E+00
  0.00000000E+00  0.00000000E+00  0.00000000E+00
  0.00000000E+00  0.00000000E+00  0.00000000E+00
  0.00000000E+00  0.00000000E+00  0.00000000E+00
  0.00000000E+00  0.00000000E+00  0.00000000E+00
  0.00000000E+00  0.00000000E+00  0.00000000E+00
  0.00000000E+00  0.00000000E+00  0.00000000E+00
  0.00000000E+00  0.00000000E+00  0.00000000E+00
  0.00000000E+00  0.00000000E+00  0.00000000E+00
  0.00000000E+00  0.00000000E+00  0.00000000E+00
  0.00000000E+00  0.00000000E+00  0.00000000E+00
  0.00000000E+00  0.00000000E+00  0.00000000E+00
  0.00000000E+00  0.00000000E+00  0.00000000E+00
  0.00000000E+00  0.00000000E+00  0.00000000E+00
  0.00000000E+00  0.00000000E+00  0.00000000E+00
  0.00000000E+00  0.00000000E+00  0.00000000E+00
  0.00000000E+00  0.00000000E+00  0.00000000E+00
  0.00000000E+00  0.00000000E+00  0.00000000E+00
  0.00000000E+00  0.00000000E+00  0.00000000E+00
  0.00000000E+00  0.00000000E+00  0.00000000E+00
  0.00000000E+00  0.00000000E+00  0.00000000E+00
  0.00000000E+00  0.00000000E+00  0.00000000E+00
  0.00000000E+00  0.00000000E+00  0.00000000E+00
  0.00000000E+00  0.00000000E+00  0.00000000E+00
  0.00000000E+00  0.00000000E+00  0.00000000E+00
  0.00000000E+00  0.00000000E+00  0.00000000E+00
  0.00000000E+00  0.00000000E+00  0.00000000E+00
  0.00000000E+00  0.00000000E+00  0.00000000E+00
  0.00000000E+00  0.00000000E+00  0.00000000E+00
  0.00000000E+00  0.00000000E+00  0.00000000E+00
  0.00000000E+00  0.00000000E+00  0.00000000E+00
  0.00000000E+00  0.00000000E+00  0.00000000E+00
  0.00000000E+00  0.00000000E+00  0.00000000E+00
  0.00000000E+00  0.00000000E+00  0.00000000E+00
  0.00000000E+00  0.00000000E+00  0.00000000E+00
  0.00000000E+00  0.00000000E+00  0.00000000E+00
  0.00000000E+00  0.00000000E+00  0.00000000E+00
  0.00000000E+00  0.00000000E+00  0.00000000E+00
  0.00000000E+00  0.00000000E+00  0.00000000E+00
  0.00000000E+00  0.00000000E+00  0.00000000E+00
  0.00000000E+00  0.00000000E+00  0.00000000E+00
  0.00000000E+00  0.00000000E+00  0.00000000E+00
  0.00000000E+00  0.00000000E+00  0.00000000E+00
  0.00000000E+00  0.00000000E+00  0.00000000E+00
  0.00000000E+00  0.00000000E+00  0.00000000E+00
  0.00000000E+00  0.00000000E+00  0.00000000E+00
  0.00000000E+00  0.00000000E+00  0.00000000E+00
  0.00000000E+00  0.00000000E+00  0.00000000E+00
  0.00000000E+00  0.00000000E+00  0.00000000E+00
  0.00000000E+00  0.00000000E+00  0.00000000E+00
  0.00000000E+00  0.00000000E+00  0.00000000E+00
  0.00000000E+00  0.00000000E+00  0.00000000E+00
  0.00000000E+00  0.00000000E+00  0.00000000E+00
  0.00000000E+00  0.00000000E+00  0.00000000E+00
  0.00000000E+00  0.00000000E+00  0.00000000E+00
  0.00000000E+00  0.00000000E+00  0.00000000E+00
  0.00000000E+00  0.00000000E+00  0.00000000E+00
  0.00000000E+00  0.00000000E+00  0.00000000E+00
  0.00000000E+00  0.00000000E+00  0.00000000E+00
  0.00000000E+00  0.00000000E+00  0.00000000E+00
  0.00000000E+00  0.00000000E+00  0.00000000E+00
  0.00000000E+00  0.00000000E+00  0.00000000E+00
  0.00000000E+00  0.00000000E+00  0.00000000E+00
  0.00000000E+00  0.00000000E+00  0.00000000E+00
  0.00000000E+00  0.00000000E+00  0.00000000E+00
  0.00000000E+00  0.00000000E+00  0.00000000E+00
  0.00000000E+00  0.00000000E+00  0.00000000E+00
  0.00000000E+00  0.00000000E+00  0.00000000E+00
  0.00000000E+00  0.00000000E+00  0.00000000E+00
  0.00000000E+00  0.00000000E+00  0.00000000E+00
  0.00000000E+00  0.00000000E+00  0.00000000E+00
  0.00000000E+00  0.00000000E+00  0.00000000E+00
  0.00000000E+00  0.00000000E+00  0.00000000E+00
  0.00000000E+00  0.00000000E+00  0.00000000E+00
  0.00000000E+00  0.00000000E+00  0.00000000E+00
  0.00000000E+00  0.00000000E+00  0.00000000E+00
  0.00000000E+00  0.00000000E+00  0.00000000E+00
  0.00000000E+00  0.00000000E+00  0.00000000E+00
  0.00000000E+00  0.00000000E+00  0.00000000E+00
  0.00000000E+00  0.00000000E+00  0.00000000E+00
  0.00000000E+00  0.00000000E+00  0.00000000E+00
  0.00000000E+00  0.00000000E+00  0.00000000E+00
  0.00000000E+00  0.00000000E+00  0.00000000E+00
  0.00000000E+00  0.00000000E+00  0.00000000E+00
  0.00000000E+00  0.00000000E+00  0.00000000E+00
  0.00000000E+00  0.00000000E+00  0.00000000E+00
  0.00000000E+00  0.00000000E+00  0.00000000E+00
  0.00000000E+00  0.00000000E+00  0.00000000E+00
  0.00000000E+00  0.00000000E+00  0.00000000E+00
  0.00000000E+00  0.00000000E+00  0.00000000E+00
  0.00000000E+00  0.00000000E+00  0.00000000E+00
  0.00000000E+00  0.00000000E+00  0.00000000E+00
  0.00000000E+00  0.00000000E+00  0.00000000E+00
  0.00000000E+00  0.00000000E+00  0.00000000E+00
  0.00000000E+00  0.00000000E+00  0.00000000E+00
  0.00000000E+00  0.00000000E+00  0.00000000E+00
  0.00000000E+00  0.00000000E+00  0.00000000E+00
  0.00000000E+00  0.00000000E+00  0.00000000E+00
  0.00000000E+00  0.00000000E+00  0.00000000E+00
  0.00000000E+00  0.00000000E+00  0.00000000E+00
  0.00000000E+00  0.00000000E+00  0.00000000E+00
  0.00000000E+00  0.00000000E+00  0.00000000E+00
  0.00000000E+00  0.00000000E+00  0.00000000E+00
  0.00000000E+00  0.00000000E+00  0.00000000E+00
  0.00000000E+00  0.00000000E+00  0.00000000E+00
  0.00000000E+00  0.00000000E+00  0.00000000E+00
  0.00000000E+00  0.00000000E+00  0.00000000E+00
  0.00000000E+00  0.00000000E+00  0.00000000E+00
  0.00000000E+00  0.00000000E+00  0.00000000E+00
  0.00000000E+00  0.00000000E+00  0.00000000E+00
  0.00000000E+00  0.00000000E+00  0.00000000E+00
  0.00000000E+00  0.00000000E+00  0.00000000E+00
  0.00000000E+00  0.00000000E+00  0.00000000E+00
  0.00000000E+00  0.00000000E+00  0.00000000E+00
  0.00000000E+00  0.00000000E+00  0.00000000E+00
  0.00000000E+00  0.00000000E+00  0.00000000E+00
  0.00000000E+00  0.00000000E+00  0.00000000E+00
  0.00000000E+00  0.00000000E+00  0.00000000E+00
  0.00000000E+00  0.00000000E+00  0.00000000E+00
  0.00000000E+00  0.00000000E+00  0.00000000E+00
  0.00000000E+00  0.00000000E+00  0.00000000E+00
  0.00000000E+00  0.00000000E+00  0.00000000E+00
  0.00000000E+00  0.00000000E+00  0.00000000E+00
  0.00000000E+00  0.00000000E+00  0.00000000E+00
  0.00000000E+00  0.00000000E+00  0.00000000E+00
  0.00000000E+00  0.00000000E+00  0.00000000E+00
  0.00000000E+00  0.00000000E+00  0.00000000E+00
  0.00000000E+00  0.00000000E+00  0.00000000E+00
  0.00000000E+00  0.00000000E+00  0.00000000E+00
  0.00000000E+00  0.00000000E+00  0.00000000E+00
  0.00000000E+00  0.00000000E+00  0.00000000E+00
  0.00000000E+00  0.00000000E+00  0.00000000E+00
  0.00000000E+00  0.00000000E+00  0.00000000E+00
  0.00000000E+00  0.00000000E+00  0.00000000E+00
  0.00000000E+00  0.00000000E+00  0.00000000E+00
  0.00000000E+00  0.00000000E+00  0.00000000E+00
  0.00000000E+00  0.00000000E+00  0.00000000E+00
  0.00000000E+00  0.00000000E+00  0.00000000E+00
  0.00000000E+00  0.00000000E+00  0.00000000E+00
  0.00000000E+00  0.00000000E+00  0.00000000E+00
  0.00000000E+00  0.00000000E+00  0.00000000E+00
  0.00000000E+00  0.00000000E+00  0.00000000E+00
  0.00000000E+00  0.00000000E+00  0.00000000E+00
  0.00000000E+00  0.00000000E+00  0.00000000E+00
  0.00000000E+00  0.00000000E+00  0.00000000E+00
  0.00000000E+00  0.00000000E+00  0.00000000E+00
  0.00000000E+00  0.00000000E+00  0.00000000E+00
  0.00000000E+00  0.00000000E+00  0.00000000E+00
  0.00000000E+00  0.00000000E+00  0.00000000E+00
  0.00000000E+00  0.00000000E+00  0.00000000E+00
  0.00000000E+00  0.00000000E+00  0.00000000E+00
  0.00000000E+00  0.00000000E+00  0.00000000E+00
  0.00000000E+00  0.00000000E+00  0.00000000E+00
  0.00000000E+00  0.00000000E+00  0.00000000E+00
  0.00000000E+00  0.00000000E+00  0.00000000E+00
  0.00000000E+00  0.00000000E+00  0.00000000E+00
  0.00000000E+00  0.00000000E+00  0.00000000E+00
  0.00000000E+00  0.00000000E+00  0.00000000E+00
  0.00000000E+00  0.00000000E+00  0.00000000E+00
  0.00000000E+00  0.00000000E+00  0.00000000E+00
  0.00000000E+00  0.00000000E+00  0.00000000E+00
  0.00000000E+00  0.00000000E+00  0.00000000E+00
  0.00000000E+00  0.00000000E+00  0.00000000E+00
  0.00000000E+00  0.00000000E+00  0.00000000E+00
  0.00000000E+00  0.00000000E+00  0.00000000E+00