CuInSe2gb                               
   1.00000000000000     
     9.7266780392896699    0.0000000000000000    0.0000000000000000
     0.0000000000000000    8.4235502764570693    0.0000000000000000
     0.0000000000000000    0.0000000000000000   45.0000000000000000
   Fe   Mn
   274    14
Direct
  0.0610855284423738  0.0335423054914345  0.1247008824529560
  0.3141793706959712  0.8741794360261140  0.6549255014894126
  0.1863703518838133  0.1235857384815554  0.7882173820508337
  0.4404266270684734  0.2880477096995844  0.3895460825138388
  0.3151485204423934  0.7109054989295255  0.8332945033581056
  0.8155220499752227  0.2113286907359419  0.8334377614809461
  0.1893518517459743  0.9611037185471699  0.8335683254061454
  0.5617012392426042  0.2062818512969648  0.5657327611187607
  0.0635795501421565  0.0403270999274940  0.7439912164836164
  0.8110205092206184  0.8722089633263060  0.5218670349802262
  0.1889102825812655  0.2903745590558595  0.7439486757098088
  0.9365022954115007  0.4540086680253170  0.3450753440665836
  0.9395944810338868  0.2876271227476575  0.3894149438795651
  0.8121320811125070  0.0445502047503046  0.8752597818389850
  0.1855581490122643  0.7889692413115853  0.6103728294620376
  0.5645917948213766  0.0381317601339597  0.3894925644823611
  0.9411757468040380  0.9614471243631189  0.8334199093317327
  0.3137346693673556  0.5430394235051669  0.8752908060440201
  0.6889718886282525  0.2905253081659962  0.7439352580238671
  0.1842637074789263  0.6164699318648998  0.1665673980705004
  0.8120392450738348  0.2052497309296694  0.4782674808857199
  0.8104266479893958  0.5388081521953415  0.6104879056340645
  0.3128878325841476  0.8712643415226187  0.4343524134952158
  0.8115706323253408  0.0380576165090022  0.2561033550385015
  0.6864990569772094  0.9537983757872804  0.3450178055754295
  0.9329324699828195  0.1163966749777239  0.1667661605152837
  0.0625527325019965  0.8725025463662628  0.5217519005781449
  0.5612131630434427  0.5384652887715702  0.2560418768263183
  0.6869221759003276  0.7931183399333008  0.8752926885060512
  0.5581300714081621  0.3666701841421059  0.1664855398741937
  0.4389166217401771  0.7909724468401480  0.7439891677235809
  0.8117572906899978  0.7065003653018361  0.5657130621455637
  0.5614473321465904  0.8735188878829071  0.7881213603979209
  0.6863857213437317  0.1220558424902355  0.5217349090569833
  0.8141750398544771  0.3742465646162052  0.6549296696197718
  0.9407195583373228  0.4621675714952529  0.8333735325810189
  0.0611005025975201  0.2074692329966687  0.6995897109966464
  0.4367900631522774  0.9573760260553524  0.6996499392425931
  0.3148283876344418  0.2108810862372075  0.8336240173553662
  0.4392495356748701  0.6242077847250732  0.6548023092944101
  0.3107641752377014  0.5391180124667406  0.6103841259864184
  0.9368959354960101  0.4559950147924194  0.5658266954971661
  0.6890994051572065  0.7912640778408127  0.7439432792308711
  0.9338234997798835  0.7843965042265288  0.1249837091019518
  0.6902435148312330  0.7876936023027903  0.3894534130621836
  0.9390989833746283  0.7910180053810927  0.7439561627518039
  0.0617261221264305  0.2042522135532579  0.3450185170100958
  0.6869590934910577  0.4535457584711432  0.3450119913898445
  0.4362626776956386  0.1233289916374922  0.7882137833161672
  0.0634521040616455  0.2042731431417359  0.2117582580267772
  0.0570955851537645  0.3665618755395449  0.1664728986570215
  0.9360656927845165  0.7885511526167532  0.2560006251407113
  0.5620693366899175  0.2073621273884008  0.6995817092090199
  0.6863801376911428  0.9575994890644007  0.6996356757700330
  0.8110927068461954  0.8733318045915336  0.7880603057448268
  0.4368351109251711  0.9563675328524844  0.5657364239682194
  0.8113291401961917  0.3736910957664411  0.7880199003520509
  0.6861738545280002  0.2879635729627640  0.2561485059658590
  0.1867380268346256  0.4562069858383630  0.5657147622015433
  0.0584030878924148  0.8668838549210195  0.1664859473177089
  0.1856726660114640  0.2891927964363133  0.6105218455200834
  0.0618427370992627  0.2063362941698908  0.5657067302605083
  0.3118168099811002  0.2076084329274272  0.6996388867377090
  0.5642105784205232  0.5434796259213392  0.8752013947806974
  0.0617881175702546  0.7061409682391270  0.5656949326829909
  0.6861523067922483  0.6233898700344768  0.7881058775679259
  0.3147631387830575  0.5374895353956034  0.3894976233968058
  0.1870476365462159  0.6226525290068428  0.5218327330809676
  0.5624743720325208  0.8713286301624722  0.4342641991775674
  0.4367993706919602  0.4562933827167984  0.5657131305601303
  0.4391459790807005  0.2906512428499611  0.7439079044171510
  0.8161497180432691  0.8731575050718100  0.3002451767817534
  0.8115258661757158  0.7032587388193766  0.3450924764000724
  0.4406369282529691  0.4606075277447325  0.8334812680007239
  0.6875194976190974  0.9549309450457359  0.4782900143603086
  0.6865665049707630  0.4571104081911104  0.6996307444690000
  0.5618279636251878  0.8723483627917481  0.5217561825505405
  0.5644501935407693  0.3741155376727756  0.6548106862524623
  0.8140598324719889  0.8740298105140739  0.6549538437769381
  0.8119371052418333  0.3706455777665764  0.4341343915077758
  0.8111944229842971  0.5378886426009168  0.2561673148798764
  0.6904871219582615  0.4612279981522452  0.8333341564251493
  0.1851964710400675  0.7842088995894326  0.1245249807866615
  0.6895032114192213  0.2876464846349232  0.3894212268750918
  0.3139916303563066  0.3742446904118068  0.6548299535885531
  0.3117219904184785  0.2038418560868319  0.3451075961220292
  0.8141167912827607  0.5405741742898954  0.7438795950695948
  0.6904570151417304  0.9609515281903092  0.8335176346070372
  0.5639241989697661  0.8741729747297938  0.6549332531129659
  0.3117612748969130  0.7064023697600441  0.5657192319305768
  0.3104780599295522  0.5344049623260915  0.1245434132292585
  0.6886452134397260  0.9543787087309532  0.2119677801352882
  0.3118742836624478  0.2063696568108011  0.5657471548589157
  0.1871829977882259  0.9551138703953024  0.4783356876370641
  0.6872124720885550  0.9563172695068857  0.5657987161220166
  0.4355257249804923  0.7889444221314711  0.6103820079281637
  0.6826278748408217  0.6150662787113803  0.1667489933064780
  0.3160617215313391  0.8727276693123380  0.3002958690019236
  0.3119990045922544  0.7051244595449332  0.4781814232000618
  0.9355259864885324  0.2887334173310717  0.6104369072611702
  0.4410022763560829  0.6228581766404545  0.3004440186030833
  0.8076495660336070  0.8657440412605144  0.1667231225078813
  0.5642562447709908  0.2036766644262902  0.2120508601557280
  0.9343098154994343  0.6153000307080819  0.1668053461383053
  0.4373794342029394  0.9547620124136628  0.4782365608084980
  0.5614705592891185  0.3728951765594482  0.7882314717626333
  0.0617568227412483  0.3728577728897999  0.5217412927718211
  0.3080081597318075  0.3661430305720292  0.1664098765151404
  0.6913497769049338  0.1231010089686004  0.3004462967173298
  0.4411051036688332  0.9607584568763955  0.8335077846204552
  0.1849635960117843  0.2842832269580922  0.1248843993980299
  0.1862040134558772  0.2874929283195387  0.2561447394187424
  0.3127942218345471  0.3709769357277267  0.4342668757392992
  0.5610330264872980  0.0338202319153747  0.1247075563087316
  0.4354660584445573  0.2891405236804325  0.6104093409272072
  0.1864778310423851  0.4538667918858265  0.3450825327128877
  0.4336357917070719  0.2838713087098444  0.1248669157605814
  0.6863122580328970  0.7881891310857962  0.2561367335601957
  0.4368397683838040  0.1229361793361301  0.5217071895813973
  0.1888453938551304  0.2928898388007738  0.8755155588558202
  0.1891091038077048  0.1243017048921192  0.6549335255170328
  0.9392416377180454  0.1240531399090921  0.6548907847261414
  0.8147183308418360  0.5374920528543392  0.3894327153905297
  0.0648823459977862  0.0382292971183395  0.3894648340249451
  0.1832416433863425  0.1154860939058999  0.1667319795268584
  0.0602985907091993  0.5386037978952842  0.6103681769656147
  0.9363141133484776  0.2879203813482689  0.2560793688258778
  0.5605715240776546  0.5389764431301532  0.6103340824996792
  0.9368783615718058  0.9558247686109854  0.5657569682966890
  0.6912386093300205  0.6233998381393356  0.3004893204173572
  0.9376272086618294  0.6210139748535649  0.4342158149075651
  0.9359333892311285  0.6238118154709313  0.7882137793321599
  0.5616958793394257  0.7069436455826380  0.6995697855469175
  0.0645735565981250  0.7122124249041567  0.8335485290550868
  0.9411165634715589  0.1232546866002261  0.3003417927073143
  0.9353684696716956  0.7885705755929778  0.6105185806782522
  0.4363627704757755  0.7884671753462255  0.2562031808831799
  0.3112919174223638  0.3724170532993973  0.7881711688049678
  0.4391675986044113  0.4543578916783629  0.2119187775902789
  0.1869111137938598  0.1223433199584287  0.5217706917423839
  0.8112198111511942  0.7072533774860443  0.6995817556479983
  0.0604389934049847  0.0390113800782800  0.6103957264007890
  0.5652219230547322  0.2113368261877015  0.8334060491535644
  0.3117563454468794  0.8722993885441181  0.5218388850779232
  0.6859531881887659  0.2834827616562596  0.1247056514913272
  0.1882658150137173  0.9554275473238116  0.2119618467118476
  0.6854413997280914  0.2892551410698219  0.6105379808923089
  0.3105323535173780  0.0391362272104919  0.6103790020846489
  0.9362013128222331  0.1246114090563953  0.7881028351461266
  0.4376859566474025  0.7923602991914788  0.8753491119446606
  0.8140336379599570  0.0407669463413721  0.7439272132472816
  0.9365842898086992  0.4570057679371802  0.6995922170532336
  0.1890806327688466  0.6241384344392831  0.6548828191887311
  0.9368683917556865  0.2928260749746857  0.8755458932566279
  0.9342010612603334  0.2837427748593724  0.1247415065712730
  0.4370503646055173  0.4542715336845411  0.4782089343410719
  0.0623798983572567  0.7042439316301057  0.4782763874574875
  0.9374877875953209  0.1210457752760533  0.4345470960722943
  0.4414804464248230  0.1225874983154715  0.3004136476396286
  0.1873412587030853  0.1209522402402002  0.4341329763174102
  0.5639806711618134  0.0435997795890610  0.8753536001360023
  0.1864170981716742  0.9563120626313294  0.5657561841054471
  0.6852583767893262  0.7849757022315769  0.1250804082531408
  0.5617300830241421  0.7036274803338357  0.3451158531387004
  0.3150215959920166  0.0379219580072810  0.3894928622749983
  0.6844675413910696  0.1158917050567903  0.1668747087208838
  0.8141927988366209  0.2039016386232141  0.2119113219806835
  0.0611014856854652  0.5383391176067706  0.2559864839697351
  0.5624557375540142  0.7052119827873014  0.4782273185958038
  0.4343455884395081  0.7844483067501479  0.1245545579606397
  0.5659785367266998  0.3729636936469768  0.3003520828231621
  0.4364463064584355  0.9537614234920334  0.3449873892283039
  0.1866557488012896  0.9578184445773222  0.6996433860044728
  0.4335216935021962  0.6160515059532650  0.1666499017910353
  0.9389339763742126  0.4547079474443056  0.2120617638089977
  0.0607113314507682  0.5331813730923951  0.1246159958529319
  0.8118195588052135  0.3728323804994568  0.5217336557129599
  0.9413883502903448  0.6235997008664278  0.3002629454861097
  0.3113706790114998  0.0381668979760738  0.2560533032761185
  0.6855777107773431  0.7889370188523687  0.6104530411061694
  0.1904630526066754  0.4616690346608416  0.8333902595115658
  0.4343094037816831  0.1151380932541774  0.1668682122764423
  0.3115854915845494  0.3727838572106326  0.5217653500007761
  0.4365208705264338  0.6236304287513177  0.7882603993204738
  0.0608489852463763  0.0381918279959943  0.2560620582207336
  0.5615900124943548  0.7062449690907515  0.5656805434602479
  0.9390139171987262  0.2903025978677681  0.7439117449190881
  0.6859458968055380  0.1239679872423462  0.7881646821018635
  0.1877634081457543  0.4546074927692420  0.2118069129754438
  0.9392398765423882  0.7872994423830598  0.3894470183534381
  0.6880885413760396  0.2932465771661370  0.8754563022504042
  0.5571357318404094  0.8660800490216571  0.1666476410535549
  0.4369543015470828  0.4575473760204614  0.6996251302018531
  0.9370849365173259  0.9536237426960775  0.3450870672065281
  0.6864580565242298  0.6226810448619169  0.5217794854262878
  0.0641483713961923  0.8742301171326282  0.6548912272998716
  0.0612064879115665  0.8735031168508156  0.7882269697544373
  0.0639289657215970  0.3740961883737075  0.6548778322100384
  0.6871340835649190  0.4544103337472514  0.4780711721614149
  0.1860886043524354  0.7886213213431422  0.2561777053853195
  0.4374991735578105  0.1212313641041011  0.4342984089089025
  0.8113272411373484  0.0342041567662780  0.1248600938602548
  0.9367191710149170  0.6223686439477271  0.5217581403093385
  0.4392901960143510  0.1241055388293135  0.6548948084513109
  0.8121076255177566  0.5338254237364750  0.1244139185848869
  0.4368566529917709  0.4538569842646817  0.3450679810057213
  0.8115392137661277  0.2034924292215173  0.3450725681040215
  0.3119169920172893  0.7037052332664522  0.3449991278171484
  0.6891461746143035  0.1240889630024099  0.6549206388383718
  0.5662302792908805  0.8728986359804617  0.3004131647781383
  0.0636233390105273  0.5402878286839854  0.7438814236675683
  0.9391346584235610  0.9550090174532579  0.2119320551630386
  0.8142147333461481  0.7038435398050374  0.2119411674515796
  0.0660122165911752  0.8729553065391896  0.3004751453629126
  0.1910883062767580  0.1232128206408821  0.3002708915696708
  0.0616040630133277  0.7037428618247950  0.3450431323086194
  0.8107692283388733  0.0389428068476486  0.6104202463819256
  0.0626731710343963  0.3706711963178066  0.4341641539547076
  0.5619576318485748  0.2034361926333307  0.3451399491650150
  0.8162432942476915  0.3733356351325796  0.3003510428913754
  0.5617412675144038  0.0387324884426979  0.2561286115964089
  0.5644088791104380  0.5373167740769411  0.3894773959319873
  0.0624343104091337  0.2048847440604172  0.4782864515832724
  0.3117373554217956  0.8730589525787169  0.7879497817288966
  0.9364655350693373  0.9577184217437198  0.6995990837737186
  0.0665735665987431  0.3733437592657769  0.3004103823610525
  0.6892947996239696  0.6241592886630095  0.6549257123932188
  0.6866914856013298  0.4562157712494433  0.5657452471084125
  0.4388489634825327  0.9550767143390444  0.2120695729113231
  0.3122720933109944  0.2047865404251648  0.4782303059243057
  0.8139588508000208  0.5426653138309999  0.8752760867653236
  0.6880111080534099  0.6206062799814022  0.4342107924890796
  0.8117039989671491  0.2074908022204950  0.6995957430294862
  0.8122683852381068  0.7049566026735170  0.4782254400634063
  0.8118158389261828  0.8710708217505873  0.4342444192217682
  0.9372373458504029  0.9546861194563466  0.4783263762150495
  0.5624512907056429  0.2045995918966007  0.4782348471584593
  0.1871834311020150  0.6206006859690354  0.4343073127316067
  0.3139481347577873  0.0408489367208895  0.7439069272744453
  0.9390450521789705  0.6241386958897773  0.6548529974427580
  0.5653036332559338  0.7110258876862061  0.8333625523242698
  0.3159709948847205  0.3730514447969170  0.3004439796731710
  0.5640577240070195  0.7040742385640009  0.2118355520384807
  0.1875416906068320  0.4547625344348494  0.4782110893074734
  0.3145110930456952  0.0448552316931044  0.8753349183118588
  0.1862025245824999  0.4572701087147248  0.6996059363414442
  0.5619080103747199  0.3728275765314251  0.5217665357572729
  0.1893539228485754  0.2878715219628398  0.3895039607768191
  0.3139221552236971  0.2045751449517428  0.2117824885414920
  0.0641598144341113  0.7039956361757930  0.2117347429927132
  0.5623961632859776  0.3709098302090080  0.4342705209604273
  0.4368351349434139  0.6227010095018566  0.5216816288648272
  0.8156118932066465  0.7112390771597710  0.8332321478735452
  0.0616795045952214  0.3740383905762468  0.7880414004040043
  0.4376678325314420  0.2933776502974678  0.8754742555391742
  0.3110171837366891  0.0339935518332447  0.1243043468645796
  0.6877674728957121  0.1215222906886321  0.4342322611295069
  0.1864996387732729  0.9534436784369240  0.3450468494182679
  0.0652840543234695  0.2113141503420964  0.8333993192417400
  0.5605594109193737  0.0388761779587559  0.6104538589100797
  0.6882684153316749  0.4545277978760622  0.2120003717243880
  0.1888143930557404  0.7907647383448456  0.7438727690826122
  0.1912727704635818  0.6229881140889264  0.3003436095992449
  0.4402223008327966  0.7874430413346331  0.3894730826378422
  0.4363178572830804  0.2880765552721493  0.2560314464151821
  0.0640615437735672  0.5423824892532406  0.8753310494607498
  0.5643863032215957  0.0407805468627971  0.7439738702197393
  0.1884815466569803  0.7926491263728687  0.8755082845339371
  0.9372903552880021  0.4543228575723760  0.4782010062070373
  0.5643656215249147  0.5409587812480998  0.7438440823401038
  0.8115851627864468  0.2065446143206267  0.5657458520491770
  0.1865100720645582  0.6237406415479418  0.7881581374687981
  0.0654345996566846  0.5379979345131748  0.3895484600740251
  0.0613385179811695  0.7072895185933044  0.6995577550305044
  0.3106376654420859  0.5380462682314289  0.2560255957406983
  0.3142378754826049  0.7040056372592962  0.2121275506131272
  0.3070569459379027  0.8659475028974098  0.1661369300099899
  0.4369392535243171  0.6205907999793779  0.4342246086484153
  0.8157695800048538  0.0379721383824315  0.3894667369251196
  0.3114561079204144  0.7078061696842609  0.6994455746683160
  0.9374581315439615  0.7912156820999401  0.8752322384028637
  0.0645045408235531  0.0432644821444455  0.8752271117273365
  0.5618031965574078  0.5330531669830305  0.1249139001740851
  0.8072153984221923  0.3665630136717957  0.1661268263545547
  0.0620794409041623  0.8713832859858552  0.4342707948727673
  0.9370199723574864  0.1226662324923568  0.5215939634611908
  0.1905832235316773  0.7867990455719369  0.3892777545735961
  0.3143353630962105  0.5397999116383609  0.7442230054727630
 
  0.00000000E+00  0.00000000E+00  0.00000000E+00
  0.00000000E+00  0.00000000E+00  0.00000000E+00
  0.00000000E+00  0.00000000E+00  0.00000000E+00
  0.00000000E+00  0.00000000E+00  0.00000000E+00
  0.00000000E+00  0.00000000E+00  0.00000000E+00
  0.00000000E+00  0.00000000E+00  0.00000000E+00
  0.00000000E+00  0.00000000E+00  0.00000000E+00
  0.00000000E+00  0.00000000E+00  0.00000000E+00
  0.00000000E+00  0.00000000E+00  0.00000000E+00
  0.00000000E+00  0.00000000E+00  0.00000000E+00
  0.00000000E+00  0.00000000E+00  0.00000000E+00
  0.00000000E+00  0.00000000E+00  0.00000000E+00
  0.00000000E+00  0.00000000E+00  0.00000000E+00
  0.00000000E+00  0.00000000E+00  0.00000000E+00
  0.00000000E+00  0.00000000E+00  0.00000000E+00
  0.00000000E+00  0.00000000E+00  0.00000000E+00
  0.00000000E+00  0.00000000E+00  0.00000000E+00
  0.00000000E+00  0.00000000E+00  0.00000000E+00
  0.00000000E+00  0.00000000E+00  0.00000000E+00
  0.00000000E+00  0.00000000E+00  0.00000000E+00
  0.00000000E+00  0.00000000E+00  0.00000000E+00
  0.00000000E+00  0.00000000E+00  0.00000000E+00
  0.00000000E+00  0.00000000E+00  0.00000000E+00
  0.00000000E+00  0.00000000E+00  0.00000000E+00
  0.00000000E+00  0.00000000E+00  0.00000000E+00
  0.00000000E+00  0.00000000E+00  0.00000000E+00
  0.00000000E+00  0.00000000E+00  0.00000000E+00
  0.00000000E+00  0.00000000E+00  0.00000000E+00
  0.00000000E+00  0.00000000E+00  0.00000000E+00
  0.00000000E+00  0.00000000E+00  0.00000000E+00
  0.00000000E+00  0.00000000E+00  0.00000000E+00
  0.00000000E+00  0.00000000E+00  0.00000000E+00
  0.00000000E+00  0.00000000E+00  0.00000000E+00
  0.00000000E+00  0.00000000E+00  0.00000000E+00
  0.00000000E+00  0.00000000E+00  0.00000000E+00
  0.00000000E+00  0.00000000E+00  0.00000000E+00
  0.00000000E+00  0.00000000E+00  0.00000000E+00
  0.00000000E+00  0.00000000E+00  0.00000000E+00
  0.00000000E+00  0.00000000E+00  0.00000000E+00
  0.00000000E+00  0.00000000E+00  0.00000000E+00
  0.00000000E+00  0.00000000E+00  0.00000000E+00
  0.00000000E+00  0.00000000E+00  0.00000000E+00
  0.00000000E+00  0.00000000E+00  0.00000000E+00
  0.00000000E+00  0.00000000E+00  0.00000000E+00
  0.00000000E+00  0.00000000E+00  0.00000000E+00
  0.00000000E+00  0.00000000E+00  0.00000000E+00
  0.00000000E+00  0.00000000E+00  0.00000000E+00
  0.00000000E+00  0.00000000E+00  0.00000000E+00
  0.00000000E+00  0.00000000E+00  0.00000000E+00
  0.00000000E+00  0.00000000E+00  0.00000000E+00
  0.00000000E+00  0.00000000E+00  0.00000000E+00
  0.00000000E+00  0.00000000E+00  0.00000000E+00
  0.00000000E+00  0.00000000E+00  0.00000000E+00
  0.00000000E+00  0.00000000E+00  0.00000000E+00
  0.00000000E+00  0.00000000E+00  0.00000000E+00
  0.00000000E+00  0.00000000E+00  0.00000000E+00
  0.00000000E+00  0.00000000E+00  0.00000000E+00
  0.00000000E+00  0.00000000E+00  0.00000000E+00
  0.00000000E+00  0.00000000E+00  0.00000000E+00
  0.00000000E+00  0.00000000E+00  0.00000000E+00
  0.00000000E+00  0.00000000E+00  0.00000000E+00
  0.00000000E+00  0.00000000E+00  0.00000000E+00
  0.00000000E+00  0.00000000E+00  0.00000000E+00
  0.00000000E+00  0.00000000E+00  0.00000000E+00
  0.00000000E+00  0.00000000E+00  0.00000000E+00
  0.00000000E+00  0.00000000E+00  0.00000000E+00
  0.00000000E+00  0.00000000E+00  0.00000000E+00
  0.00000000E+00  0.00000000E+00  0.00000000E+00
  0.00000000E+00  0.00000000E+00  0.00000000E+00
  0.00000000E+00  0.00000000E+00  0.00000000E+00
  0.00000000E+00  0.00000000E+00  0.00000000E+00
  0.00000000E+00  0.00000000E+00  0.00000000E+00
  0.00000000E+00  0.00000000E+00  0.00000000E+00
  0.00000000E+00  0.00000000E+00  0.00000000E+00
  0.00000000E+00  0.00000000E+00  0.00000000E+00
  0.00000000E+00  0.00000000E+00  0.00000000E+00
  0.00000000E+00  0.00000000E+00  0.00000000E+00
  0.00000000E+00  0.00000000E+00  0.00000000E+00
  0.00000000E+00  0.00000000E+00  0.00000000E+00
  0.00000000E+00  0.00000000E+00  0.00000000E+00
  0.00000000E+00  0.00000000E+00  0.00000000E+00
  0.00000000E+00  0.00000000E+00  0.00000000E+00
  0.00000000E+00  0.00000000E+00  0.00000000E+00
  0.00000000E+00  0.00000000E+00  0.00000000E+00
  0.00000000E+00  0.00000000E+00  0.00000000E+00
  0.00000000E+00  0.00000000E+00  0.00000000E+00
  0.00000000E+00  0.00000000E+00  0.00000000E+00
  0.00000000E+00  0.00000000E+00  0.00000000E+00
  0.00000000E+00  0.00000000E+00  0.00000000E+00
  0.00000000E+00  0.00000000E+00  0.00000000E+00
  0.00000000E+00  0.00000000E+00  0.00000000E+00
  0.00000000E+00  0.00000000E+00  0.00000000E+00
  0.00000000E+00  0.00000000E+00  0.00000000E+00
  0.00000000E+00  0.00000000E+00  0.00000000E+00
  0.00000000E+00  0.00000000E+00  0.00000000E+00
  0.00000000E+00  0.00000000E+00  0.00000000E+00
  0.00000000E+00  0.00000000E+00  0.00000000E+00
  0.00000000E+00  0.00000000E+00  0.00000000E+00
  0.00000000E+00  0.00000000E+00  0.00000000E+00
  0.00000000E+00  0.00000000E+00  0.00000000E+00
  0.00000000E+00  0.00000000E+00  0.00000000E+00
  0.00000000E+00  0.00000000E+00  0.00000000E+00
  0.00000000E+00  0.00000000E+00  0.00000000E+00
  0.00000000E+00  0.00000000E+00  0.00000000E+00
  0.00000000E+00  0.00000000E+00  0.00000000E+00
  0.00000000E+00  0.00000000E+00  0.00000000E+00
  0.00000000E+00  0.00000000E+00  0.00000000E+00
  0.00000000E+00  0.00000000E+00  0.00000000E+00
  0.00000000E+00  0.00000000E+00  0.00000000E+00
  0.00000000E+00  0.00000000E+00  0.00000000E+00
  0.00000000E+00  0.00000000E+00  0.00000000E+00
  0.00000000E+00  0.00000000E+00  0.00000000E+00
  0.00000000E+00  0.00000000E+00  0.00000000E+00
  0.00000000E+00  0.00000000E+00  0.00000000E+00
  0.00000000E+00  0.00000000E+00  0.00000000E+00
  0.00000000E+00  0.00000000E+00  0.00000000E+00
  0.00000000E+00  0.00000000E+00  0.00000000E+00
  0.00000000E+00  0.00000000E+00  0.00000000E+00
  0.00000000E+00  0.00000000E+00  0.00000000E+00
  0.00000000E+00  0.00000000E+00  0.00000000E+00
  0.00000000E+00  0.00000000E+00  0.00000000E+00
  0.00000000E+00  0.00000000E+00  0.00000000E+00
  0.00000000E+00  0.00000000E+00  0.00000000E+00
  0.00000000E+00  0.00000000E+00  0.00000000E+00
  0.00000000E+00  0.00000000E+00  0.00000000E+00
  0.00000000E+00  0.00000000E+00  0.00000000E+00
  0.00000000E+00  0.00000000E+00  0.00000000E+00
  0.00000000E+00  0.00000000E+00  0.00000000E+00
  0.00000000E+00  0.00000000E+00  0.00000000E+00
  0.00000000E+00  0.00000000E+00  0.00000000E+00
  0.00000000E+00  0.00000000E+00  0.00000000E+00
  0.00000000E+00  0.00000000E+00  0.00000000E+00
  0.00000000E+00  0.00000000E+00  0.00000000E+00
  0.00000000E+00  0.00000000E+00  0.00000000E+00
  0.00000000E+00  0.00000000E+00  0.00000000E+00
  0.00000000E+00  0.00000000E+00  0.00000000E+00
  0.00000000E+00  0.00000000E+00  0.00000000E+00
  0.00000000E+00  0.00000000E+00  0.00000000E+00
  0.00000000E+00  0.00000000E+00  0.00000000E+00
  0.00000000E+00  0.00000000E+00  0.00000000E+00
  0.00000000E+00  0.00000000E+00  0.00000000E+00
  0.00000000E+00  0.00000000E+00  0.00000000E+00
  0.00000000E+00  0.00000000E+00  0.00000000E+00
  0.00000000E+00  0.00000000E+00  0.00000000E+00
  0.00000000E+00  0.00000000E+00  0.00000000E+00
  0.00000000E+00  0.00000000E+00  0.00000000E+00
  0.00000000E+00  0.00000000E+00  0.00000000E+00
  0.00000000E+00  0.00000000E+00  0.00000000E+00
  0.00000000E+00  0.00000000E+00  0.00000000E+00
  0.00000000E+00  0.00000000E+00  0.00000000E+00
  0.00000000E+00  0.00000000E+00  0.00000000E+00
  0.00000000E+00  0.00000000E+00  0.00000000E+00
  0.00000000E+00  0.00000000E+00  0.00000000E+00
  0.00000000E+00  0.00000000E+00  0.00000000E+00
  0.00000000E+00  0.00000000E+00  0.00000000E+00
  0.00000000E+00  0.00000000E+00  0.00000000E+00
  0.00000000E+00  0.00000000E+00  0.00000000E+00
  0.00000000E+00  0.00000000E+00  0.00000000E+00
  0.00000000E+00  0.00000000E+00  0.00000000E+00
  0.00000000E+00  0.00000000E+00  0.00000000E+00
  0.00000000E+00  0.00000000E+00  0.00000000E+00
  0.00000000E+00  0.00000000E+00  0.00000000E+00
  0.00000000E+00  0.00000000E+00  0.00000000E+00
  0.00000000E+00  0.00000000E+00  0.00000000E+00
  0.00000000E+00  0.00000000E+00  0.00000000E+00
  0.00000000E+00  0.00000000E+00  0.00000000E+00
  0.00000000E+00  0.00000000E+00  0.00000000E+00
  0.00000000E+00  0.00000000E+00  0.00000000E+00
  0.00000000E+00  0.00000000E+00  0.00000000E+00
  0.00000000E+00  0.00000000E+00  0.00000000E+00
  0.00000000E+00  0.00000000E+00  0.00000000E+00
  0.00000000E+00  0.00000000E+00  0.00000000E+00
  0.00000000E+00  0.00000000E+00  0.00000000E+00
  0.00000000E+00  0.00000000E+00  0.00000000E+00
  0.00000000E+00  0.00000000E+00  0.00000000E+00
  0.00000000E+00  0.00000000E+00  0.00000000E+00
  0.00000000E+00  0.00000000E+00  0.00000000E+00
  0.00000000E+00  0.00000000E+00  0.00000000E+00
  0.00000000E+00  0.00000000E+00  0.00000000E+00
  0.00000000E+00  0.00000000E+00  0.00000000E+00
  0.00000000E+00  0.00000000E+00  0.00000000E+00
  0.00000000E+00  0.00000000E+00  0.00000000E+00
  0.00000000E+00  0.00000000E+00  0.00000000E+00
  0.00000000E+00  0.00000000E+00  0.00000000E+00
  0.00000000E+00  0.00000000E+00  0.00000000E+00
  0.00000000E+00  0.00000000E+00  0.00000000E+00
  0.00000000E+00  0.00000000E+00  0.00000000E+00
  0.00000000E+00  0.00000000E+00  0.00000000E+00
  0.00000000E+00  0.00000000E+00  0.00000000E+00
  0.00000000E+00  0.00000000E+00  0.00000000E+00
  0.00000000E+00  0.00000000E+00  0.00000000E+00
  0.00000000E+00  0.00000000E+00  0.00000000E+00
  0.00000000E+00  0.00000000E+00  0.00000000E+00
  0.00000000E+00  0.00000000E+00  0.00000000E+00
  0.00000000E+00  0.00000000E+00  0.00000000E+00
  0.00000000E+00  0.00000000E+00  0.00000000E+00
  0.00000000E+00  0.00000000E+00  0.00000000E+00
  0.00000000E+00  0.00000000E+00  0.00000000E+00
  0.00000000E+00  0.00000000E+00  0.00000000E+00
  0.00000000E+00  0.00000000E+00  0.00000000E+00
  0.00000000E+00  0.00000000E+00  0.00000000E+00
  0.00000000E+00  0.00000000E+00  0.00000000E+00
  0.00000000E+00  0.00000000E+00  0.00000000E+00
  0.00000000E+00  0.00000000E+00  0.00000000E+00
  0.00000000E+00  0.00000000E+00  0.00000000E+00
  0.00000000E+00  0.00000000E+00  0.00000000E+00
  0.00000000E+00  0.00000000E+00  0.00000000E+00
  0.00000000E+00  0.00000000E+00  0.00000000E+00
  0.00000000E+00  0.00000000E+00  0.00000000E+00
  0.00000000E+00  0.00000000E+00  0.00000000E+00
  0.00000000E+00  0.00000000E+00  0.00000000E+00
  0.00000000E+00  0.00000000E+00  0.00000000E+00
  0.00000000E+00  0.00000000E+00  0.00000000E+00
  0.00000000E+00  0.00000000E+00  0.00000000E+00
  0.00000000E+00  0.00000000E+00  0.00000000E+00
  0.00000000E+00  0.00000000E+00  0.00000000E+00
  0.00000000E+00  0.00000000E+00  0.00000000E+00
  0.00000000E+00  0.00000000E+00  0.00000000E+00
  0.00000000E+00  0.00000000E+00  0.00000000E+00
  0.00000000E+00  0.00000000E+00  0.00000000E+00
  0.00000000E+00  0.00000000E+00  0.00000000E+00
  0.00000000E+00  0.00000000E+00  0.00000000E+00
  0.00000000E+00  0.00000000E+00  0.00000000E+00
  0.00000000E+00  0.00000000E+00  0.00000000E+00
  0.00000000E+00  0.00000000E+00  0.00000000E+00
  0.00000000E+00  0.00000000E+00  0.00000000E+00
  0.00000000E+00  0.00000000E+00  0.00000000E+00
  0.00000000E+00  0.00000000E+00  0.00000000E+00
  0.00000000E+00  0.00000000E+00  0.00000000E+00
  0.00000000E+00  0.00000000E+00  0.00000000E+00
  0.00000000E+00  0.00000000E+00  0.00000000E+00
  0.00000000E+00  0.00000000E+00  0.00000000E+00
  0.00000000E+00  0.00000000E+00  0.00000000E+00
  0.00000000E+00  0.00000000E+00  0.00000000E+00
  0.00000000E+00  0.00000000E+00  0.00000000E+00
  0.00000000E+00  0.00000000E+00  0.00000000E+00
  0.00000000E+00  0.00000000E+00  0.00000000E+00
  0.00000000E+00  0.00000000E+00  0.00000000E+00
  0.00000000E+00  0.00000000E+00  0.00000000E+00
  0.00000000E+00  0.00000000E+00  0.00000000E+00
  0.00000000E+00  0.00000000E+00  0.00000000E+00
  0.00000000E+00  0.00000000E+00  0.00000000E+00
  0.00000000E+00  0.00000000E+00  0.00000000E+00
  0.00000000E+00  0.00000000E+00  0.00000000E+00
  0.00000000E+00  0.00000000E+00  0.00000000E+00
  0.00000000E+00  0.00000000E+00  0.00000000E+00
  0.00000000E+00  0.00000000E+00  0.00000000E+00