CuInSe2gb                               
   1.00000000000000     
     9.7266780392896699    0.0000000000000000    0.0000000000000000
     0.0000000000000000    8.4235502764570693    0.0000000000000000
     0.0000000000000000    0.0000000000000000   45.0000000000000000
   Fe   Mn
   274    14
Direct
  0.0618337846867054  0.0312079629668354  0.1243642377793478
  0.3164650571209736  0.8748047771284334  0.6548997211349201
  0.1835744829722057  0.1223554322023369  0.7885908614751276
  0.4414737539130195  0.2877176851033397  0.3890994685044875
  0.3175745318929343  0.7131149745614120  0.8329687957551620
  0.8175770732463400  0.2132637880620277  0.8332657610868794
  0.1911164641414665  0.9627958029148631  0.8333936857621477
  0.5623112580147759  0.2071535747298162  0.5654748008251693
  0.0654815781369204  0.0397733062130506  0.7439700549387153
  0.8115452686099374  0.8714585946564385  0.5213538690549194
  0.1909457106002038  0.2899808277257037  0.7440517152038549
  0.9335672503481288  0.4524113353942092  0.3449086327253144
  0.9411229839395161  0.2866899266065364  0.3889829902269059
  0.8120399766800642  0.0418228721147425  0.8754952678202534
  0.1836352458856569  0.7879964435797342  0.6108529872577992
  0.5663391592578479  0.0378229612087992  0.3890563132890622
  0.9423115730172205  0.9632889257266912  0.8333417686551204
  0.3134992021214752  0.5393939934625989  0.8756708632328720
  0.6905616047463012  0.2898785770128831  0.7439762499947699
  0.1822950411920744  0.6137452054636529  0.1666851047311500
  0.8122335394038129  0.2057891384893165  0.4786745154846052
  0.8087478679579901  0.5379622142884610  0.6109017706258963
  0.3119982682042339  0.8704790311336081  0.4344576885032944
  0.8092236597489314  0.0382439618279713  0.2561366116376530
  0.6835232919754439  0.9516920592595205  0.3448837445966809
  0.9314020696310868  0.1145580423827342  0.1672303506423527
  0.0616852275193946  0.8712984392167592  0.5213922767805591
  0.5586571862838574  0.5382301472108647  0.2560882319343497
  0.6855379811873641  0.7955282094985195  0.8754922377502122
  0.5561452341779479  0.3656498032496232  0.1667776959568281
  0.4402558242308766  0.7905227741910805  0.7440242791409131
  0.8114586099597001  0.7065808908342052  0.5654671295098047
  0.5598625797274165  0.8721886897286771  0.7883244011837843
  0.6866133938886690  0.1216660934553168  0.5213693095072588
  0.8163506954820096  0.3748720584412240  0.6549162291826033
  0.9419622182537744  0.4634469327496223  0.8333525634768904
  0.0603236879800361  0.2078762275777756  0.6995623893899423
  0.4344262251598802  0.9579585722482135  0.6995828878402449
  0.3163622809425182  0.2125059269732709  0.8333085175092794
  0.4416282114492822  0.6250141777290654  0.6548534418734930
  0.3086880073686653  0.5379540181362259  0.6108773672182853
  0.9368113059128301  0.4567465659475867  0.5655764745530718
  0.6901393760187980  0.7909951149322586  0.7439081731610769
  0.9337222069124052  0.7883357014629523  0.1246612909209264
  0.6916878322120958  0.7877282263497751  0.3890639989666739
  0.9405235666676679  0.7902665123231257  0.7439110180915626
  0.0587786803418126  0.2028866427842611  0.3450120991894439
  0.6836530437133070  0.4524564753994200  0.3450667980185052
  0.4349630430357393  0.1218708012130095  0.7887942732197217
  0.0648025506793805  0.2050028672969133  0.2116114039926125
  0.0554581944468633  0.3655409808501228  0.1668038492265604
  0.9332946757381422  0.7883600615963726  0.2557942529687362
  0.5604656224601782  0.2078800186238040  0.6995741599703916
  0.6851709896882260  0.9582136951719020  0.6996545236555916
  0.8096245752040591  0.8721214455972841  0.7883227453581583
  0.4371183617169843  0.9572316750104738  0.5653517936538752
  0.8097287287270686  0.3723785266698443  0.7882568257437508
  0.6839707706972817  0.2892309589159986  0.2561423814487563
  0.1873085751288111  0.4572106238465899  0.5654735946936321
  0.0557029152444433  0.8656414646511514  0.1667835949333819
  0.1837720723378711  0.2879716002142644  0.6108332897611142
  0.0621930555843723  0.2072916834782599  0.5653475324657027
  0.3107649904459249  0.2082251660147400  0.6996341529986314
  0.5635021500028109  0.5395874072116152  0.8755428147252959
  0.0618223186673537  0.7063445027019992  0.5655122199112236
  0.6846381751610195  0.6218005396796518  0.7882508293648637
  0.3161990673272818  0.5378562850373665  0.3890495018836225
  0.1866979884107187  0.6214278064881302  0.5214014400635905
  0.5624203763909680  0.8703489585718668  0.4344563788909480
  0.4370014383266441  0.4571146120018970  0.5654960111399959
  0.4398372302152478  0.2907123247197470  0.7440205212675657
  0.8195100143765686  0.8749600118034190  0.3003838886489061
  0.8086432864472034  0.7027541662600693  0.3450685626100441
  0.4418702583132314  0.4625371644369671  0.8331666688626079
  0.6874671637731361  0.9556590338796636  0.4786702302393309
  0.6849754008211668  0.4578158318304884  0.6996077106160963
  0.5618263928911877  0.8720236023873763  0.5213949190423445
  0.5665806802533657  0.3749420486848598  0.6548549282381491
  0.8164376361361859  0.8748339284773217  0.6549172360627666
  0.8115494152753124  0.3712919123940121  0.4341974042154994
  0.8087862641356873  0.5380113399344664  0.2562234215660018
  0.6914153971553408  0.4625632619092360  0.8331107101223676
  0.1861310293145447  0.7885489820438667  0.1242640462090483
  0.6913067933279987  0.2873367355800214  0.3890522202994676
  0.3163501319752868  0.3749456512048969  0.6549286163611668
  0.3087420394307033  0.2025154374831373  0.3448542606876312
  0.8158401334261647  0.5399460615761218  0.7440041500290823
  0.6918283698789791  0.9618614671371446  0.8331657480379294
  0.5662461125475389  0.8744365552582660  0.6548861080291366
  0.3114524134241388  0.7073206281938882  0.5654363170439975
  0.3123962292076425  0.5315396517458274  0.1242681287279832
  0.6897737965961548  0.9556005615212663  0.2119122627430982
  0.3114178727044195  0.2065711735585604  0.5655218971048619
  0.1873422051886901  0.9557978906172052  0.4786837186529428
  0.6873529465940172  0.9571898222982713  0.5654774836451961
  0.4336225964569805  0.7880797040963209  0.6108555509829817
  0.6823680707591683  0.6120722995760491  0.1667196734306783
  0.3191775638459628  0.8743654463572134  0.3001547021873150
  0.3121490537986671  0.7057714379494042  0.4786607179869724
  0.9337004354616887  0.2878503860479574  0.6109115600500893
  0.4454183690122806  0.6244788411556221  0.3004031099683869
  0.8068567225439182  0.8641274052367619  0.1672525871317600
  0.5666993298916477  0.2031120166814307  0.2117551053989380
  0.9329687643584665  0.6129920675302247  0.1668260921799649
  0.4372438051010666  0.9557198278549786  0.4786497390029356
  0.5602089695166156  0.3716982844329425  0.7884285227150075
  0.0614355152876903  0.3722340563249270  0.5213819893498675
  0.3068603268250432  0.3646874207183219  0.1668795073167085
  0.6950840835097286  0.1237722747449232  0.3003631738636392
  0.4421835070065705  0.9625969664328864  0.8331736721815166
  0.1846808508499639  0.2875097841261808  0.1245017881262852
  0.1840266627328206  0.2892026680919199  0.2561287125225094
  0.3124033707582430  0.3704025262062309  0.4344551106936867
  0.5625563031579924  0.0326870656238452  0.1245938683358241
  0.4340486369314975  0.2880165190539463  0.6107657324834961
  0.1836886735785304  0.4527458269469564  0.3450704477285039
  0.4345625979681835  0.2874247701920555  0.1245634096267418
  0.6838784749631288  0.7891483203180613  0.2560429311518494
  0.4366385157198647  0.1215661654066382  0.5213611903196138
  0.1881325867178172  0.2941274923413878  0.8757638712477462
  0.1915825969871527  0.1249811249929154  0.6548573370763072
  0.9416082334003878  0.1249989972363832  0.6548950111201028
  0.8163216211971862  0.5375314902907953  0.3890687695701852
  0.0664941127949278  0.0379158249666629  0.3891056802668732
  0.1829073313999436  0.1121271346926550  0.1666741177574001
  0.0585665537660672  0.5377458576100849  0.6108811268526725
  0.9342536227782622  0.2890419383594213  0.2560932848501584
  0.5589359486386384  0.5381710941629129  0.6107810230251040
  0.9369124156978307  0.9573622372051479  0.5654337777478302
  0.6941144468358065  0.6247826606315420  0.3002259379569299
  0.9373919484975806  0.6203216632741277  0.4344672386983617
  0.9339425184764026  0.6226415748275159  0.7883167169933726
  0.5601309113196942  0.7075069392661752  0.6996055686281208
  0.0664472909230875  0.7143660914869833  0.8336306971543573
  0.9450556567777415  0.1236829329889166  0.3002898739059561
  0.9338203894768888  0.7877009750821218  0.6108963980357622
  0.4337607623068946  0.7893419201537037  0.2560327047508614
  0.3097596392121388  0.3721987042702418  0.7883239221143946
  0.4398701293801860  0.4552703441914863  0.2118174876626781
  0.1867084270561604  0.1216742478445817  0.5213638791651352
  0.8102764729892526  0.7077773690220782  0.6995602109179779
  0.0586305477495359  0.0379790756650902  0.6108623529252328
  0.5664384880318877  0.2131900770370301  0.8330854830063531
  0.3116803724873933  0.8718416816255994  0.5213962661639732
  0.6863979210921245  0.2870628834634911  0.1243863228847447
  0.1902716233920736  0.9562196098959665  0.2120162263547628
  0.6835735704191739  0.2879633764337993  0.6109275766738476
  0.3086142815944493  0.0381048395221966  0.6108970945767843
  0.9347696670505903  0.1232220507760107  0.7884511321320851
  0.4370322136810706  0.7954295574935526  0.8757242270417167
  0.8152301930857866  0.0405484865693240  0.7438678905432117
  0.9353922628666161  0.4578891369801159  0.6996341519335180
  0.1915994245423696  0.6249856193473486  0.6548567676190190
  0.9365111769449398  0.2937370575729419  0.8756910110136095
  0.9344875896785968  0.2870800640550314  0.1244129302985570
  0.4374795498873505  0.4559618981432528  0.4785392135055158
  0.0622394598970387  0.7057615587853997  0.4785727960273436
  0.9371088344291812  0.1196336709108483  0.4346145793602839
  0.4443052233551536  0.1242740357943916  0.3004557452482411
  0.1875209648404660  0.1199113945833433  0.4343741399348797
  0.5622460340776773  0.0402752429359414  0.8758847721130391
  0.1869885427958781  0.9573469647159735  0.5654395199543955
  0.6842402130119860  0.7884674423606259  0.1247507785916582
  0.5587632572800046  0.7025107352502871  0.3450311057575914
  0.3163671462624609  0.0370286727767277  0.3890335034464100
  0.6823666170500791  0.1143622121355088  0.1671881327941135
  0.8151891859329248  0.2050179453050298  0.2116349229317176
  0.0597796902418874  0.5381560316743162  0.2559696547189031
  0.5623242006827910  0.7057719349914177  0.4786174066175318
  0.4346695202504450  0.7876858972472429  0.1245126418766713
  0.5692175132337370  0.3736137516778226  0.3003717533323940
  0.4335800780809210  0.9526294723684930  0.3450703623260324
  0.1853858683925839  0.9582464805257818  0.6996672494647488
  0.4317712787367181  0.6137313384903751  0.1666262155538612
  0.9400347396981190  0.4554616081150020  0.2119915981417788
  0.0617704985458415  0.5311286705246969  0.1243006352041684
  0.8116743957377013  0.3719180626234294  0.5213420598086737
  0.9446835114098995  0.6244191554025140  0.3001373427607955
  0.3091586723010749  0.0380570816809676  0.2558016620049867
  0.6835957579913546  0.7880795775713459  0.6108599837166685
  0.1925932556216230  0.4636762199733956  0.8331532095807769
  0.4320693954237763  0.1122591572303473  0.1666908167651991
  0.3115361427016024  0.3717182334083596  0.5213651171629941
  0.4341822000778942  0.6221845910773274  0.7884711159729710
  0.0589253868597840  0.0383201834742534  0.2560554199957383
  0.5622454622982900  0.7072131205854028  0.5654710320591371
  0.9401564597327389  0.2897840086020159  0.7440149491991321
  0.6840177699463952  0.1224405260016451  0.7884523267832436
  0.1896487865287409  0.4549920262936243  0.2116338768163863
  0.9412585953973167  0.7875466695177097  0.3890358610186131
  0.6866525523274259  0.2959663417267955  0.8759086688566313
  0.5556928276185705  0.8648565033509761  0.1666581977015076
  0.4350972896920810  0.4582136156413453  0.6995466428060778
  0.9340007955893657  0.9516072006483828  0.3449053963943715
  0.6865048592983227  0.6213621799332147  0.5212631810413945
  0.0662372161325244  0.8744911719902901  0.6549055403140376
  0.0590728667868773  0.8726541704228736  0.7884008069061945
  0.0664224806260653  0.3748092709426334  0.6548803515728172
  0.6871022899013277  0.4556359643846334  0.4786266027859250
  0.1842940880381540  0.7892603136625205  0.2559333651098878
  0.4371535947580621  0.1204295118332322  0.4344327687767263
  0.8135149863353471  0.0315140106464248  0.1243364345158856
  0.9363839663776576  0.6217241943273549  0.5214020598874227
  0.4415507836108446  0.1248987085091099  0.6548487157457830
  0.8126098311554881  0.5307162703761416  0.1244135765305736
  0.4336930874478951  0.4526716371437726  0.3450994930269484
  0.8088962054125109  0.2026231207524781  0.3450831394000775
  0.3089080726603026  0.7019842118827253  0.3449137356571246
  0.6913813436419561  0.1250132543548384  0.6549092727576421
  0.5694939416840673  0.8740520864209000  0.3004745035078746
  0.0653268844440639  0.5404204225017893  0.7439977506996491
  0.9409256625522768  0.9554039828869996  0.2116450713307921
  0.8166869586192130  0.7052198989565575  0.2117174267568653
  0.0693315126140454  0.8742726353740263  0.3004621227517458
  0.1946208276488027  0.1244027811083081  0.3004359367641697
  0.0584391729839517  0.7022209175284466  0.3449785611526647
  0.8088121411494504  0.0379018251712711  0.6108757701102190
  0.0629187007991314  0.3711339089687285  0.4343861654541162
  0.5586816163004082  0.2025375083395355  0.3449037744068860
  0.8194137006236999  0.3745542605578029  0.3003912299855805
  0.5594064076998140  0.0387398133808306  0.2558954214061585
  0.5664105517966848  0.5376862744412113  0.3890838872944183
  0.0625087442349034  0.2059215545300687  0.4786580049944806
  0.3106524514909756  0.8710432583873462  0.7881499648349608
  0.9352766486729140  0.9583134990025587  0.6996215908468228
  0.0691312057742858  0.3750060166961574  0.3004051469806874
  0.6913157165351732  0.6249311063153590  0.6549419720088145
  0.6867859330869053  0.4574131013981516  0.5654144701828328
  0.4402374479474550  0.9565245989252835  0.2122475210460814
  0.3123099196999214  0.2057212549536153  0.4786909763808136
  0.8145086110998067  0.5387993258853431  0.8755487149838126
  0.6877685303977742  0.6203123436970157  0.4344604419639003
  0.8107934411771165  0.2074827765341308  0.6996487105024995
  0.8124372445274654  0.7056718292622730  0.4786392871948851
  0.8116358021586697  0.8707941818957163  0.4342724959067473
  0.9373216173157135  0.9551537832999204  0.4787184705824465
  0.5622628844426653  0.2057165165856511  0.4786354615025801
  0.1871313396079221  0.6201238115823317  0.4344367283156114
  0.3153821383058391  0.0405126846579108  0.7438721553413487
  0.9414516648992904  0.6252753449853148  0.6548874484739856
  0.5665357381391284  0.7126720863446706  0.8331482060329345
  0.3202766796254853  0.3731726255829399  0.3002723324258758
  0.5652100825736921  0.7045131777176843  0.2117264793232354
  0.1872785760626274  0.4557041841323131  0.4786625385751799
  0.3139132514977145  0.0417450481019520  0.8756079735869015
  0.1853203889801034  0.4581696663201372  0.6995474460154787
  0.5616939251319110  0.3716019285777395  0.5213730299417713
  0.1912496539512302  0.2877466211472393  0.3890399110456337
  0.3156620397657132  0.2052619324166383  0.2115850548128226
  0.0669572276968523  0.7056395564457757  0.2116660730792877
  0.5619968041430004  0.3705126151657385  0.4344223732122710
  0.4365195973008620  0.6218509501831804  0.5212899733816033
  0.8166307949307007  0.7138124415566500  0.8331907404272295
  0.0607027434694767  0.3730489418325353  0.7881228718163446
  0.4368116900791135  0.2960054456082405  0.8759180004643167
  0.3113138937559070  0.0316569910504195  0.1244156414541378
  0.6878612703530862  0.1195898603936323  0.4343560852233637
  0.1837339045107494  0.9527147692710708  0.3450860970388704
  0.0664948294773603  0.2128231425078540  0.8335046312768336
  0.5588918951267137  0.0383208209360020  0.6109567411262325
  0.6896564709550759  0.4553036202958557  0.2120121149400337
  0.1905279926679014  0.7902205208796690  0.7439618586330743
  0.1942166103576962  0.6244690279045481  0.3004402826931000
  0.4413581651351643  0.7876748746356401  0.3890935345942405
  0.4337434387910005  0.2894229338692776  0.2560505803846673
  0.0632236575708472  0.5394565723853932  0.8755678156321958
  0.5659027529486433  0.0401206945346164  0.7439320572021461
  0.1867850784636823  0.7948834258792973  0.8757177096286112
  0.9371780135093865  0.4555822662573644  0.4786541593195982
  0.5652959133109456  0.5405852884487201  0.7440111563351960
  0.8114546924853975  0.2067845118894701  0.5654007940209831
  0.1856290180839144  0.6211875381860921  0.7881366652719254
  0.0670502123353578  0.5385742064723936  0.3891704964638248
  0.0604378749948416  0.7077370348404678  0.6995695418392830
  0.3081310441803419  0.5384674888692375  0.2556944162755544
  0.3152256430778336  0.7037539668506259  0.2123855427324573
  0.3052489965604156  0.8651937376648722  0.1661349861133227
  0.4369422389997640  0.6207106173511659  0.4344479299386216
  0.8180025430497253  0.0391540926990524  0.3892481913579438
  0.3091820889767958  0.7071651155274604  0.6995505101708429
  0.9374525361570787  0.7939812857053249  0.8751253994603710
  0.0644002892038530  0.0400370688468527  0.8754342704927107
  0.5628400563818058  0.5299769862350281  0.1248906185094804
  0.8050074777766394  0.3662678867654004  0.1664557631879039
  0.0620941901644457  0.8709855431415954  0.4344387277852646
  0.9364804517013233  0.1216718174171248  0.5214437270421165
  0.1929598437600629  0.7875852793768482  0.3890239847511072
  0.3154178844659142  0.5394385093872951  0.7443899963306009
 
  0.00000000E+00  0.00000000E+00  0.00000000E+00
  0.00000000E+00  0.00000000E+00  0.00000000E+00
  0.00000000E+00  0.00000000E+00  0.00000000E+00
  0.00000000E+00  0.00000000E+00  0.00000000E+00
  0.00000000E+00  0.00000000E+00  0.00000000E+00
  0.00000000E+00  0.00000000E+00  0.00000000E+00
  0.00000000E+00  0.00000000E+00  0.00000000E+00
  0.00000000E+00  0.00000000E+00  0.00000000E+00
  0.00000000E+00  0.00000000E+00  0.00000000E+00
  0.00000000E+00  0.00000000E+00  0.00000000E+00
  0.00000000E+00  0.00000000E+00  0.00000000E+00
  0.00000000E+00  0.00000000E+00  0.00000000E+00
  0.00000000E+00  0.00000000E+00  0.00000000E+00
  0.00000000E+00  0.00000000E+00  0.00000000E+00
  0.00000000E+00  0.00000000E+00  0.00000000E+00
  0.00000000E+00  0.00000000E+00  0.00000000E+00
  0.00000000E+00  0.00000000E+00  0.00000000E+00
  0.00000000E+00  0.00000000E+00  0.00000000E+00
  0.00000000E+00  0.00000000E+00  0.00000000E+00
  0.00000000E+00  0.00000000E+00  0.00000000E+00
  0.00000000E+00  0.00000000E+00  0.00000000E+00
  0.00000000E+00  0.00000000E+00  0.00000000E+00
  0.00000000E+00  0.00000000E+00  0.00000000E+00
  0.00000000E+00  0.00000000E+00  0.00000000E+00
  0.00000000E+00  0.00000000E+00  0.00000000E+00
  0.00000000E+00  0.00000000E+00  0.00000000E+00
  0.00000000E+00  0.00000000E+00  0.00000000E+00
  0.00000000E+00  0.00000000E+00  0.00000000E+00
  0.00000000E+00  0.00000000E+00  0.00000000E+00
  0.00000000E+00  0.00000000E+00  0.00000000E+00
  0.00000000E+00  0.00000000E+00  0.00000000E+00
  0.00000000E+00  0.00000000E+00  0.00000000E+00
  0.00000000E+00  0.00000000E+00  0.00000000E+00
  0.00000000E+00  0.00000000E+00  0.00000000E+00
  0.00000000E+00  0.00000000E+00  0.00000000E+00
  0.00000000E+00  0.00000000E+00  0.00000000E+00
  0.00000000E+00  0.00000000E+00  0.00000000E+00
  0.00000000E+00  0.00000000E+00  0.00000000E+00
  0.00000000E+00  0.00000000E+00  0.00000000E+00
  0.00000000E+00  0.00000000E+00  0.00000000E+00
  0.00000000E+00  0.00000000E+00  0.00000000E+00
  0.00000000E+00  0.00000000E+00  0.00000000E+00
  0.00000000E+00  0.00000000E+00  0.00000000E+00
  0.00000000E+00  0.00000000E+00  0.00000000E+00
  0.00000000E+00  0.00000000E+00  0.00000000E+00
  0.00000000E+00  0.00000000E+00  0.00000000E+00
  0.00000000E+00  0.00000000E+00  0.00000000E+00
  0.00000000E+00  0.00000000E+00  0.00000000E+00
  0.00000000E+00  0.00000000E+00  0.00000000E+00
  0.00000000E+00  0.00000000E+00  0.00000000E+00
  0.00000000E+00  0.00000000E+00  0.00000000E+00
  0.00000000E+00  0.00000000E+00  0.00000000E+00
  0.00000000E+00  0.00000000E+00  0.00000000E+00
  0.00000000E+00  0.00000000E+00  0.00000000E+00
  0.00000000E+00  0.00000000E+00  0.00000000E+00
  0.00000000E+00  0.00000000E+00  0.00000000E+00
  0.00000000E+00  0.00000000E+00  0.00000000E+00
  0.00000000E+00  0.00000000E+00  0.00000000E+00
  0.00000000E+00  0.00000000E+00  0.00000000E+00
  0.00000000E+00  0.00000000E+00  0.00000000E+00
  0.00000000E+00  0.00000000E+00  0.00000000E+00
  0.00000000E+00  0.00000000E+00  0.00000000E+00
  0.00000000E+00  0.00000000E+00  0.00000000E+00
  0.00000000E+00  0.00000000E+00  0.00000000E+00
  0.00000000E+00  0.00000000E+00  0.00000000E+00
  0.00000000E+00  0.00000000E+00  0.00000000E+00
  0.00000000E+00  0.00000000E+00  0.00000000E+00
  0.00000000E+00  0.00000000E+00  0.00000000E+00
  0.00000000E+00  0.00000000E+00  0.00000000E+00
  0.00000000E+00  0.00000000E+00  0.00000000E+00
  0.00000000E+00  0.00000000E+00  0.00000000E+00
  0.00000000E+00  0.00000000E+00  0.00000000E+00
  0.00000000E+00  0.00000000E+00  0.00000000E+00
  0.00000000E+00  0.00000000E+00  0.00000000E+00
  0.00000000E+00  0.00000000E+00  0.00000000E+00
  0.00000000E+00  0.00000000E+00  0.00000000E+00
  0.00000000E+00  0.00000000E+00  0.00000000E+00
  0.00000000E+00  0.00000000E+00  0.00000000E+00
  0.00000000E+00  0.00000000E+00  0.00000000E+00
  0.00000000E+00  0.00000000E+00  0.00000000E+00
  0.00000000E+00  0.00000000E+00  0.00000000E+00
  0.00000000E+00  0.00000000E+00  0.00000000E+00
  0.00000000E+00  0.00000000E+00  0.00000000E+00
  0.00000000E+00  0.00000000E+00  0.00000000E+00
  0.00000000E+00  0.00000000E+00  0.00000000E+00
  0.00000000E+00  0.00000000E+00  0.00000000E+00
  0.00000000E+00  0.00000000E+00  0.00000000E+00
  0.00000000E+00  0.00000000E+00  0.00000000E+00
  0.00000000E+00  0.00000000E+00  0.00000000E+00
  0.00000000E+00  0.00000000E+00  0.00000000E+00
  0.00000000E+00  0.00000000E+00  0.00000000E+00
  0.00000000E+00  0.00000000E+00  0.00000000E+00
  0.00000000E+00  0.00000000E+00  0.00000000E+00
  0.00000000E+00  0.00000000E+00  0.00000000E+00
  0.00000000E+00  0.00000000E+00  0.00000000E+00
  0.00000000E+00  0.00000000E+00  0.00000000E+00
  0.00000000E+00  0.00000000E+00  0.00000000E+00
  0.00000000E+00  0.00000000E+00  0.00000000E+00
  0.00000000E+00  0.00000000E+00  0.00000000E+00
  0.00000000E+00  0.00000000E+00  0.00000000E+00
  0.00000000E+00  0.00000000E+00  0.00000000E+00
  0.00000000E+00  0.00000000E+00  0.00000000E+00
  0.00000000E+00  0.00000000E+00  0.00000000E+00
  0.00000000E+00  0.00000000E+00  0.00000000E+00
  0.00000000E+00  0.00000000E+00  0.00000000E+00
  0.00000000E+00  0.00000000E+00  0.00000000E+00
  0.00000000E+00  0.00000000E+00  0.00000000E+00
  0.00000000E+00  0.00000000E+00  0.00000000E+00
  0.00000000E+00  0.00000000E+00  0.00000000E+00
  0.00000000E+00  0.00000000E+00  0.00000000E+00
  0.00000000E+00  0.00000000E+00  0.00000000E+00
  0.00000000E+00  0.00000000E+00  0.00000000E+00
  0.00000000E+00  0.00000000E+00  0.00000000E+00
  0.00000000E+00  0.00000000E+00  0.00000000E+00
  0.00000000E+00  0.00000000E+00  0.00000000E+00
  0.00000000E+00  0.00000000E+00  0.00000000E+00
  0.00000000E+00  0.00000000E+00  0.00000000E+00
  0.00000000E+00  0.00000000E+00  0.00000000E+00
  0.00000000E+00  0.00000000E+00  0.00000000E+00
  0.00000000E+00  0.00000000E+00  0.00000000E+00
  0.00000000E+00  0.00000000E+00  0.00000000E+00
  0.00000000E+00  0.00000000E+00  0.00000000E+00
  0.00000000E+00  0.00000000E+00  0.00000000E+00
  0.00000000E+00  0.00000000E+00  0.00000000E+00
  0.00000000E+00  0.00000000E+00  0.00000000E+00
  0.00000000E+00  0.00000000E+00  0.00000000E+00
  0.00000000E+00  0.00000000E+00  0.00000000E+00
  0.00000000E+00  0.00000000E+00  0.00000000E+00
  0.00000000E+00  0.00000000E+00  0.00000000E+00
  0.00000000E+00  0.00000000E+00  0.00000000E+00
  0.00000000E+00  0.00000000E+00  0.00000000E+00
  0.00000000E+00  0.00000000E+00  0.00000000E+00
  0.00000000E+00  0.00000000E+00  0.00000000E+00
  0.00000000E+00  0.00000000E+00  0.00000000E+00
  0.00000000E+00  0.00000000E+00  0.00000000E+00
  0.00000000E+00  0.00000000E+00  0.00000000E+00
  0.00000000E+00  0.00000000E+00  0.00000000E+00
  0.00000000E+00  0.00000000E+00  0.00000000E+00
  0.00000000E+00  0.00000000E+00  0.00000000E+00
  0.00000000E+00  0.00000000E+00  0.00000000E+00
  0.00000000E+00  0.00000000E+00  0.00000000E+00
  0.00000000E+00  0.00000000E+00  0.00000000E+00
  0.00000000E+00  0.00000000E+00  0.00000000E+00
  0.00000000E+00  0.00000000E+00  0.00000000E+00
  0.00000000E+00  0.00000000E+00  0.00000000E+00
  0.00000000E+00  0.00000000E+00  0.00000000E+00
  0.00000000E+00  0.00000000E+00  0.00000000E+00
  0.00000000E+00  0.00000000E+00  0.00000000E+00
  0.00000000E+00  0.00000000E+00  0.00000000E+00
  0.00000000E+00  0.00000000E+00  0.00000000E+00
  0.00000000E+00  0.00000000E+00  0.00000000E+00
  0.00000000E+00  0.00000000E+00  0.00000000E+00
  0.00000000E+00  0.00000000E+00  0.00000000E+00
  0.00000000E+00  0.00000000E+00  0.00000000E+00
  0.00000000E+00  0.00000000E+00  0.00000000E+00
  0.00000000E+00  0.00000000E+00  0.00000000E+00
  0.00000000E+00  0.00000000E+00  0.00000000E+00
  0.00000000E+00  0.00000000E+00  0.00000000E+00
  0.00000000E+00  0.00000000E+00  0.00000000E+00
  0.00000000E+00  0.00000000E+00  0.00000000E+00
  0.00000000E+00  0.00000000E+00  0.00000000E+00
  0.00000000E+00  0.00000000E+00  0.00000000E+00
  0.00000000E+00  0.00000000E+00  0.00000000E+00
  0.00000000E+00  0.00000000E+00  0.00000000E+00
  0.00000000E+00  0.00000000E+00  0.00000000E+00
  0.00000000E+00  0.00000000E+00  0.00000000E+00
  0.00000000E+00  0.00000000E+00  0.00000000E+00
  0.00000000E+00  0.00000000E+00  0.00000000E+00
  0.00000000E+00  0.00000000E+00  0.00000000E+00
  0.00000000E+00  0.00000000E+00  0.00000000E+00
  0.00000000E+00  0.00000000E+00  0.00000000E+00
  0.00000000E+00  0.00000000E+00  0.00000000E+00
  0.00000000E+00  0.00000000E+00  0.00000000E+00
  0.00000000E+00  0.00000000E+00  0.00000000E+00
  0.00000000E+00  0.00000000E+00  0.00000000E+00
  0.00000000E+00  0.00000000E+00  0.00000000E+00
  0.00000000E+00  0.00000000E+00  0.00000000E+00
  0.00000000E+00  0.00000000E+00  0.00000000E+00
  0.00000000E+00  0.00000000E+00  0.00000000E+00
  0.00000000E+00  0.00000000E+00  0.00000000E+00
  0.00000000E+00  0.00000000E+00  0.00000000E+00
  0.00000000E+00  0.00000000E+00  0.00000000E+00
  0.00000000E+00  0.00000000E+00  0.00000000E+00
  0.00000000E+00  0.00000000E+00  0.00000000E+00
  0.00000000E+00  0.00000000E+00  0.00000000E+00
  0.00000000E+00  0.00000000E+00  0.00000000E+00
  0.00000000E+00  0.00000000E+00  0.00000000E+00
  0.00000000E+00  0.00000000E+00  0.00000000E+00
  0.00000000E+00  0.00000000E+00  0.00000000E+00
  0.00000000E+00  0.00000000E+00  0.00000000E+00
  0.00000000E+00  0.00000000E+00  0.00000000E+00
  0.00000000E+00  0.00000000E+00  0.00000000E+00
  0.00000000E+00  0.00000000E+00  0.00000000E+00
  0.00000000E+00  0.00000000E+00  0.00000000E+00
  0.00000000E+00  0.00000000E+00  0.00000000E+00
  0.00000000E+00  0.00000000E+00  0.00000000E+00
  0.00000000E+00  0.00000000E+00  0.00000000E+00
  0.00000000E+00  0.00000000E+00  0.00000000E+00
  0.00000000E+00  0.00000000E+00  0.00000000E+00
  0.00000000E+00  0.00000000E+00  0.00000000E+00
  0.00000000E+00  0.00000000E+00  0.00000000E+00
  0.00000000E+00  0.00000000E+00  0.00000000E+00
  0.00000000E+00  0.00000000E+00  0.00000000E+00
  0.00000000E+00  0.00000000E+00  0.00000000E+00
  0.00000000E+00  0.00000000E+00  0.00000000E+00
  0.00000000E+00  0.00000000E+00  0.00000000E+00
  0.00000000E+00  0.00000000E+00  0.00000000E+00
  0.00000000E+00  0.00000000E+00  0.00000000E+00
  0.00000000E+00  0.00000000E+00  0.00000000E+00
  0.00000000E+00  0.00000000E+00  0.00000000E+00
  0.00000000E+00  0.00000000E+00  0.00000000E+00
  0.00000000E+00  0.00000000E+00  0.00000000E+00
  0.00000000E+00  0.00000000E+00  0.00000000E+00
  0.00000000E+00  0.00000000E+00  0.00000000E+00
  0.00000000E+00  0.00000000E+00  0.00000000E+00
  0.00000000E+00  0.00000000E+00  0.00000000E+00
  0.00000000E+00  0.00000000E+00  0.00000000E+00
  0.00000000E+00  0.00000000E+00  0.00000000E+00
  0.00000000E+00  0.00000000E+00  0.00000000E+00
  0.00000000E+00  0.00000000E+00  0.00000000E+00
  0.00000000E+00  0.00000000E+00  0.00000000E+00
  0.00000000E+00  0.00000000E+00  0.00000000E+00
  0.00000000E+00  0.00000000E+00  0.00000000E+00
  0.00000000E+00  0.00000000E+00  0.00000000E+00
  0.00000000E+00  0.00000000E+00  0.00000000E+00
  0.00000000E+00  0.00000000E+00  0.00000000E+00
  0.00000000E+00  0.00000000E+00  0.00000000E+00
  0.00000000E+00  0.00000000E+00  0.00000000E+00
  0.00000000E+00  0.00000000E+00  0.00000000E+00
  0.00000000E+00  0.00000000E+00  0.00000000E+00
  0.00000000E+00  0.00000000E+00  0.00000000E+00
  0.00000000E+00  0.00000000E+00  0.00000000E+00
  0.00000000E+00  0.00000000E+00  0.00000000E+00
  0.00000000E+00  0.00000000E+00  0.00000000E+00
  0.00000000E+00  0.00000000E+00  0.00000000E+00
  0.00000000E+00  0.00000000E+00  0.00000000E+00
  0.00000000E+00  0.00000000E+00  0.00000000E+00
  0.00000000E+00  0.00000000E+00  0.00000000E+00
  0.00000000E+00  0.00000000E+00  0.00000000E+00
  0.00000000E+00  0.00000000E+00  0.00000000E+00
  0.00000000E+00  0.00000000E+00  0.00000000E+00
  0.00000000E+00  0.00000000E+00  0.00000000E+00
  0.00000000E+00  0.00000000E+00  0.00000000E+00
  0.00000000E+00  0.00000000E+00  0.00000000E+00
  0.00000000E+00  0.00000000E+00  0.00000000E+00
  0.00000000E+00  0.00000000E+00  0.00000000E+00
  0.00000000E+00  0.00000000E+00  0.00000000E+00