CuInSe2gb                               
   1.00000000000000     
     9.7266780392896699    0.0000000000000000    0.0000000000000000
     0.0000000000000000    8.4235502764570693    0.0000000000000000
     0.0000000000000000    0.0000000000000000   45.0000000000000000
   Fe   Mn
   281     7
Direct
  0.0578729044208941  0.7009294428598561  0.2111002273662716
  0.3160414077464305  0.7203142365642016  0.8757485109424203
  0.6883163315051970  0.9579168308300269  0.6114135093608908
  0.4385493067164549  0.4580498138991516  0.6114269086723154
  0.4366119233983644  0.2868758258958281  0.2555324357723567
  0.0609566647353104  0.3866698497859364  0.8341457928953673
  0.3112028231862878  0.8867379415894148  0.8342637105580856
  0.4422495543894994  0.6265276571421772  0.7004008145248902
  0.0636980444476950  0.2132588265030503  0.7445134866014085
  0.1824588847097633  0.4513627808027886  0.2112381789965241
  0.5640314157480428  0.2089161169471000  0.4777745073072007
  0.0642300593962028  0.8744433663769332  0.5668254609989529
  0.5656688580698338  0.2197948309923644  0.8757131634542134
  0.8100764794205801  0.5303465117465174  0.1245416332290132
  0.4331633396307601  0.9511368062864538  0.2111547316183183
  0.5642488795140538  0.3746171258182272  0.5667590595876815
  0.8115890346862575  0.0420983400208379  0.3884273432660618
  0.6861768147615610  0.7911034023919054  0.5221171159195663
  0.4389669883785390  0.4588223787621972  0.4777854955020935
  0.4378653241247094  0.9628980858033652  0.7444668723276988
  0.4389222225744875  0.6247022966623988  0.5668430408403128
  0.5673938468887111  0.8764620811584996  0.7003910136378645
  0.3106076586894280  0.0310227383029858  0.1241117945345881
  0.6866190688524115  0.9579784289561892  0.3441242107900370
  0.6879126434744540  0.7797517623764740  0.1246221563148237
  0.0577098466460268  0.3733494951885216  0.2996820597234340
  0.6888344919257382  0.4713773978695759  0.8754916667816565
  0.4330559260290837  0.4514416306156239  0.2111139843715802
  0.8107055071652043  0.3749327332802249  0.4329532529625995
  0.5633869886835842  0.7082296634640498  0.6114992638459782
  0.5629496979811316  0.5412761173602846  0.6557641287148802
  0.8145284457872191  0.8638166686888559  0.1660323054954019
  0.5609782458339422  0.5371344881623659  0.2554974799239016
  0.6865048181660762  0.4580734284960688  0.3440912726888234
  0.1882708691249352  0.6126580667594198  0.1661797179965569
  0.1917032334701781  0.7992574936703002  0.7887326228121522
  0.4424431352449271  0.1265747956002584  0.7004431869185718
  0.9328232180280688  0.6233373299464301  0.2997068300313679
  0.3153655501625989  0.2199189100193064  0.8757146108963118
  0.3141018553678850  0.8748206397020575  0.5668046175030972
  0.8152704378674505  0.2199541057179256  0.8757065993830371
  0.8129177913070784  0.5416469771075629  0.6557599132186007
  0.5600428224141610  0.5295321011932809  0.1244321537947451
  0.5668458021654168  0.0495608917284424  0.7889631994645848
  0.1865602042223990  0.2869709543102320  0.2554642126564829
  0.8109534387202749  0.8755418035379861  0.4330183017123502
  0.5671359892001192  0.3764040580688970  0.7004854865876864
  0.0611386425825255  0.0292255653448676  0.1244457508910674
  0.3130378598856531  0.5412731983803809  0.6557804359988302
  0.5617198201828681  0.2080992314223910  0.3441340636428587
  0.1883634072922052  0.9578154607463385  0.6113776447963678
  0.3075754548298821  0.3736786908122648  0.2996314653449955
  0.4380197929791044  0.7916359370281632  0.6557919112429798
  0.1917029813066276  0.2983949117021005  0.7888663006876915
  0.0638707897289408  0.3634751180845669  0.1660507322404623
  0.6920997563973376  0.6267336151021197  0.7003744110927856
  0.3116776551409706  0.5416460168143202  0.3883844851157945
  0.0654219813709739  0.7199267918663573  0.8758707498415584
  0.9363454895903046  0.6367866092264781  0.8342702588024790
  0.3173766970960005  0.5497089033469411  0.7889668897599638
  0.3072051570960523  0.2001900734759039  0.2110985073228415
  0.0640904567721109  0.7096830864918807  0.4778253091465862
  0.5574428190484080  0.2008600439987391  0.2111186015878235
  0.3138023590857145  0.2134335551418019  0.7444508948436452
  0.0671988334657550  0.3769262278500289  0.7003857675701363
  0.1862686969341188  0.6368315018756396  0.8340664630436370
  0.0668125500539962  0.0493349844630867  0.7889336906118162
  0.4390823893320861  0.1247375283024028  0.5667866696185867
  0.9381847626708486  0.2918202731511533  0.6556967900846289
  0.8074569972087158  0.2013285723077651  0.2111316529356915
  0.9326107946888621  0.9515711781501326  0.2113151646713706
  0.9392627119233470  0.6247952122400761  0.5668090523316309
  0.8109266804684671  0.3866622873538013  0.8342089246884875
  0.1920985565992807  0.6267747776629830  0.7004022369002341
  0.8111570540035684  0.8866108390050355  0.8342847671825876
  0.6881077554129162  0.2914097168839718  0.6557916128906578
  0.3135401067298331  0.2080810330482858  0.6114997323477196
  0.4382207851552368  0.4625809012185456  0.7444239723567957
  0.4366342815836020  0.7916483741081559  0.3884545010889995
  0.6877204215688510  0.9627045158418088  0.7445235594234342
  0.8072995595353148  0.7010514384241674  0.2111560983875000
  0.8129993830095313  0.7083117396493217  0.6115024902450749
  0.4371385583614169  0.7792256410219400  0.1242834781763200
  0.3130758906340830  0.7130542619655086  0.7444161566362130
  0.3172116424314561  0.0495801223368953  0.7889724002421041
  0.8115517833554924  0.5415816799346256  0.3884221818814905
  0.6863471933664440  0.2906723001727241  0.5220839567319807
  0.6919174278901861  0.7993846874941707  0.7889059897546319
  0.1866878968872907  0.7876305735772741  0.2555190437895745
  0.6890162426386054  0.1135350845755769  0.1661672863881318
  0.6887902578421456  0.9593096695372810  0.4778494744083385
  0.9368816011807277  0.9581292742333770  0.3441510239691394
  0.8106419309938778  0.0403468089521870  0.5220588869822715
  0.6853489522254209  0.6248975620565004  0.4330199880343061
  0.4367744800776908  0.4584867877881825  0.3441645052450319
  0.8132044969749642  0.2135568503417633  0.7445158158289534
  0.4390415436325719  0.9715142234873654  0.8754935135933193
  0.5642194494246381  0.8746214701558550  0.5667835621075645
  0.8104382442591995  0.0298405010400372  0.1245561587132599
  0.4324360593968400  0.6234444422133211  0.2996907407321010
  0.8151399132816620  0.7204573068968748  0.8758458436853181
  0.6882014474843243  0.4578532987694798  0.6114436135919410
  0.5609719534098153  0.3869778496347865  0.8341063441402770
  0.8073981070507961  0.3731176232060510  0.2997014446722943
  0.1867499459532135  0.2915877238962415  0.3883529950112137
  0.8165136403576193  0.5495081954278919  0.7890551965238657
  0.1865570209107448  0.7906718107736742  0.5221738990173903
  0.3077445322623913  0.8734259632899799  0.2996098525459365
  0.1824345917070529  0.9517942682485161  0.2112791619792020
  0.1887006087969161  0.4629061447564162  0.7444639075262688
  0.4357860725369681  0.2905559934659515  0.5220628198016519
  0.0620801265738743  0.7084697392027081  0.3442411824629226
  0.1882668779596977  0.7913646160311070  0.6557355354706890
  0.4417501633241220  0.7994833850774582  0.7888089034618977
  0.6854668987155373  0.1248537683592396  0.4330592934444303
  0.9362217241706536  0.7911464502795478  0.5220874568054579
  0.6888966185299941  0.6132642598523022  0.1661184182060303
  0.8118732599586345  0.7083315767092645  0.3442300553367398
  0.9382711016901324  0.4626919518488664  0.7444635202924105
  0.1869926927788041  0.4584060721766350  0.3441107462946519
  0.5671939245664860  0.5493340551892304  0.7889733742132315
  0.5652958426486763  0.3638871528338814  0.1657832069105485
  0.5614812968119742  0.7084792952364771  0.3443048634167658
  0.5579530830492476  0.3732415941457737  0.2996178012496278
  0.1888931560765010  0.4713577653598726  0.8755916770651008
  0.1885517919784973  0.1127194899273681  0.1661693330710465
  0.4416654033794069  0.2989251892345728  0.7888546991912699
  0.6859804643910217  0.7870588077930417  0.2554976412412854
  0.9367973028650304  0.1366770369677721  0.8341297249395739
  0.4386914774327041  0.9590037984601524  0.4778107744767985
  0.5653847716255476  0.7201831390021528  0.8757204147806157
  0.1888087584129848  0.4590582811016983  0.4777927828731163
  0.9362395120990789  0.2795981659482712  0.1246214879390153
  0.3115195893247901  0.0419108800618682  0.3884030690106883
  0.0630580434328776  0.0412512264027894  0.6557581323562947
  0.5608939315226501  0.3749416188274062  0.4330014636522129
  0.6877701447780236  0.4624516478404709  0.7445066438764977
  0.5635791785674645  0.2135422758136833  0.7444327452653149
  0.9425270170646880  0.1269902323765849  0.7003805215214428
  0.5629915953730062  0.0411873090528815  0.6557803380704624
  0.5611482160026171  0.5406931690330815  0.5220339866990527
  0.1826216666730011  0.1233587117913226  0.2996132639360853
  0.4384742352231184  0.1123011701971006  0.1660548016673976
  0.6823113844679839  0.6233810327560035  0.2996971289378086
  0.9324895500749744  0.1229411801889838  0.2996743304266742
  0.8140169469838442  0.3747859531064579  0.5668540060233462
  0.0578237791913726  0.8732681139918126  0.2996773927262684
  0.1889294257355294  0.6247863264035012  0.5669121630963404
  0.9410524558721608  0.7991056035875882  0.7889071961187191
  0.3114270846304760  0.3867792028565419  0.8342117264723979
  0.9391698855604095  0.4715699336365985  0.8755790930658972
  0.4366278108253954  0.6369742700238290  0.8341695767860157
  0.0618616864693064  0.2085757657005056  0.3441947061345126
  0.1888057302710896  0.9711069882335063  0.8754998284959982
  0.9363958021220051  0.7797641555500966  0.1245965691342699
  0.6864232104079873  0.7918255520505842  0.3884386355911699
  0.9378951801492525  0.7914271503560825  0.6557787016345064
  0.9386740337830053  0.1137144864480880  0.1662224964088646
  0.4378364718046494  0.2913549934108035  0.6558307608870415
  0.0582041876427732  0.2009993964396786  0.2111466261433813
  0.6827204785001845  0.9512826670951946  0.2113314212263349
  0.1825795913642556  0.6233985262950845  0.2997354781661721
  0.8169957085347394  0.8765109953926912  0.7003612129683301
  0.9423857306897058  0.6267866289142451  0.7004361719750085
  0.1922921444128850  0.1267515178793254  0.7004033103920124
  0.9388144532784336  0.4585811299258084  0.4778562307810679
  0.8132896166120981  0.2080610665970504  0.6114372609992998
  0.1863109759921844  0.6252032176257337  0.4329783970343175
  0.4326497614931220  0.1233579812272042  0.2996816663067117
  0.6823095399923659  0.1229891483623556  0.2996222591114366
  0.5612776947165257  0.5415649066665296  0.3884576334435688
  0.8118017137519852  0.2081195045760728  0.3443406647793346
  0.4391748382920612  0.4715062300069905  0.8754536491680693
  0.5611280208036581  0.8866719707818120  0.8342534782280483
  0.3139771561848491  0.2091910576443045  0.4777912836561216
  0.1887367517060767  0.9591162788693991  0.4778446249077753
  0.0609727132180403  0.8869311940295703  0.8342321589025653
  0.9357867591906642  0.1253047254619139  0.4330350951150833
  0.9389184480242904  0.9590805452220319  0.4777862965856038
  0.0634627611786541  0.7078734864738248  0.6114211035010784
  0.5609616815186994  0.0408744198116122  0.5221068110033908
  0.6918993788045560  0.2988043134723391  0.7887661849300970
  0.8145288008397739  0.3637204276639405  0.1660714532770640
  0.4358201162344620  0.1248542398823140  0.4330274050165903
  0.0637609215636069  0.2088201442688822  0.4778407335897941
  0.3131937747058328  0.0413538620437084  0.6557997248620971
  0.4360035562458283  0.7910173170555821  0.5220793918139707
  0.1866905203682936  0.1367941605929814  0.8341260959125174
  0.1861003317514662  0.2788703176494915  0.1244453840365630
  0.9367072581739891  0.4583363608924907  0.3441526137380577
  0.5654547143516029  0.8638841767110236  0.1659012822541724
  0.3075941650169796  0.7001573719146936  0.2111289007932835
  0.9380872500153696  0.6133409164655789  0.1662348768438429
  0.1883219586145032  0.4579082481063129  0.6114442873029593
  0.0673500649179763  0.8767509330743348  0.7002774895992386
  0.0630496707757099  0.5414389087714976  0.6558628523996091
  0.3106748866310380  0.5308285294303250  0.1240795906998095
  0.9364246079867388  0.7918567521622308  0.3883915815687804
  0.9415827916197708  0.2987810258664509  0.7888289476110355
  0.1879388994849071  0.2915232410917750  0.6558295639130184
  0.9383518284016003  0.9579218080624713  0.6114767772526501
  0.8134915673895385  0.7130148857498282  0.7445433722708928
  0.6862240584761576  0.2871993688713794  0.2554540401926810
  0.0640504141307555  0.7130573814308246  0.7444391833534698
  0.6826203986344570  0.4510969484755590  0.2113254283374505
  0.8136302435593071  0.2087362286668179  0.4777768609158093
  0.5640187608981984  0.7091166468389652  0.4779303044422869
  0.0636081746517473  0.8637157918988161  0.1660508664534415
  0.9361682400564042  0.2904084557512489  0.5221675931237665
  0.6877888395415142  0.7913986116719466  0.6557293136954676
  0.0609378286227659  0.8752780191026514  0.4329352600196004
  0.0654901545389051  0.2194314560872587  0.8758090300363781
  0.8130054924892264  0.0412857987463856  0.6557668161050522
  0.5602564278073886  0.0295725569805585  0.1244108630262660
  0.3110662268474059  0.3746407464746840  0.4329376844500991
  0.3140217671803359  0.3748656344916227  0.5667386428506339
  0.3135864504835850  0.7091128388315926  0.4778845338911524
  0.0613398700088071  0.0406110490537975  0.5220036009573461
  0.3171140914178126  0.8765964687104204  0.7003970580261514
  0.0615689035315366  0.5370697496000499  0.2554901462931317
  0.6866226699430178  0.1372808845921661  0.8341088418514514
  0.8113667516900932  0.0368459385569269  0.2555477232935903
  0.1863930743207359  0.1251325982497571  0.4330725594716331
  0.6921347604672553  0.1266077087168128  0.7003375663856770
  0.1867263296884146  0.2907594329176083  0.5220586709575680
  0.4364266491159540  0.7873464944462706  0.2555333956073889
  0.4385352911405666  0.6124419859387422  0.1660682997705268
  0.0632540352240069  0.2078178643289755  0.6114747518374328
  0.1861347906172044  0.7914880120947123  0.3883551667702285
  0.3114530695600644  0.5404855911709070  0.5220574989346912
  0.8170778929938631  0.3764974142865447  0.7003746590447816
  0.6863832611358566  0.2920656818623902  0.3884811345905926
  0.1891320032105143  0.1246926240906463  0.5667783688981094
  0.6889150218873441  0.9717170524949408  0.8755085500411143
  0.6891302300404841  0.1248906782497611  0.5668208436610765
  0.4368678077454310  0.9585368816300214  0.3441494199293458
  0.1884706032590351  0.9628485574927771  0.7445194984446198
  0.9364524657228185  0.7873389568831324  0.2555242513777111
  0.5610939553680743  0.8754448853626897  0.4330212594506238
  0.3107020631851778  0.8753216901522558  0.4330733238720852
  0.8106359535850115  0.5405710702275481  0.5221187689098029
  0.9327429253310086  0.4512117070494520  0.2114282399932567
  0.3115423504700238  0.5367552305548843  0.2555953612471059
  0.5612944039431885  0.0418732458253145  0.3884295009728745
  0.9383975420283175  0.4579190290706227  0.6114640510553331
  0.0613729064228717  0.0419195610612479  0.3884524792812933
  0.0613916014832037  0.5417667874472532  0.3884413491521547
  0.4363734585227195  0.2918011563658140  0.3884176518042910
  0.6888940609744190  0.4588496097522258  0.4778307957327477
  0.0642601386715030  0.3748329767213101  0.5668657197300249
  0.5576189733959477  0.7008832923488862  0.2111657809616677
  0.9364625236110637  0.2869643563715960  0.2555275943369336
  0.8165173851500066  0.0494250641770292  0.7889108374092202
  0.1868851037499235  0.9584162551975284  0.3441987423645947
  0.5576131847764049  0.8732705734222066  0.2996495715572897
  0.0613236318600183  0.3750245263751809  0.4329630746907587
  0.3117183855479930  0.7080017549341888  0.3441462419654656
  0.3117681535669572  0.2081234283421610  0.3442099405081921
  0.9390864900184214  0.1247603905436585  0.5667970004153801
  0.4383498839513515  0.9582493096606363  0.6114920637019015
  0.5608623212202649  0.0371871064806853  0.2555421841342078
  0.1860901516448937  0.7788948150065915  0.1244013146825561
  0.0617074390078440  0.0371856675807502  0.2555196294207183
  0.6891377425891896  0.6248555707368429  0.5668881350140197
  0.0609031409386950  0.5293763041784312  0.1244714037518947
  0.3116372943411910  0.0410782126703177  0.5220743853893570
  0.6875110065595819  0.2798730124537274  0.1246618405069554
  0.8139992817489780  0.7091042011275721  0.4778376549472519
  0.4367028150124928  0.1367151530622932  0.8339898879261121
  0.3175000932588480  0.3762682597596901  0.7004013949276801
  0.6868903230588302  0.6370817124496776  0.8341114169756593
  0.5632688611679423  0.7127218347326898  0.7445295662921777
  0.9361764802080906  0.2919851957438712  0.3884461838284481
  0.9392459114428597  0.9713231534795027  0.8755018682051066
  0.5636478638306965  0.2081345405321470  0.6114618410166657
  0.8138751460827617  0.8747205042233198  0.5668454799193040
  0.8074315783630400  0.8732318355337106  0.2996423454254147
  0.3112162828034380  0.0367443189732129  0.2556053090344959
  0.4369690198783112  0.2797179897488994  0.1242862235162970
  0.3132823964128180  0.7081020758483467  0.6114715631901063
  0.4356772500391656  0.6250520186990722  0.4330211478583879
  0.9359260820973855  0.6251195811945721  0.4330544147024547
  0.3151028194466889  0.8633005655727749  0.1656046808784370
  0.0670940991238797  0.5493050840689891  0.7887936579962946
  0.0609066599166722  0.5406635783211757  0.5221324875100246
  0.3148807823058418  0.3633866910690594  0.1655961788763133
  0.9377504717312920  0.9631316925317533  0.7446374304939294
  0.8118167421397701  0.5367669781717443  0.2553602392589098
 
  0.00000000E+00  0.00000000E+00  0.00000000E+00
  0.00000000E+00  0.00000000E+00  0.00000000E+00
  0.00000000E+00  0.00000000E+00  0.00000000E+00
  0.00000000E+00  0.00000000E+00  0.00000000E+00
  0.00000000E+00  0.00000000E+00  0.00000000E+00
  0.00000000E+00  0.00000000E+00  0.00000000E+00
  0.00000000E+00  0.00000000E+00  0.00000000E+00
  0.00000000E+00  0.00000000E+00  0.00000000E+00
  0.00000000E+00  0.00000000E+00  0.00000000E+00
  0.00000000E+00  0.00000000E+00  0.00000000E+00
  0.00000000E+00  0.00000000E+00  0.00000000E+00
  0.00000000E+00  0.00000000E+00  0.00000000E+00
  0.00000000E+00  0.00000000E+00  0.00000000E+00
  0.00000000E+00  0.00000000E+00  0.00000000E+00
  0.00000000E+00  0.00000000E+00  0.00000000E+00
  0.00000000E+00  0.00000000E+00  0.00000000E+00
  0.00000000E+00  0.00000000E+00  0.00000000E+00
  0.00000000E+00  0.00000000E+00  0.00000000E+00
  0.00000000E+00  0.00000000E+00  0.00000000E+00
  0.00000000E+00  0.00000000E+00  0.00000000E+00
  0.00000000E+00  0.00000000E+00  0.00000000E+00
  0.00000000E+00  0.00000000E+00  0.00000000E+00
  0.00000000E+00  0.00000000E+00  0.00000000E+00
  0.00000000E+00  0.00000000E+00  0.00000000E+00
  0.00000000E+00  0.00000000E+00  0.00000000E+00
  0.00000000E+00  0.00000000E+00  0.00000000E+00
  0.00000000E+00  0.00000000E+00  0.00000000E+00
  0.00000000E+00  0.00000000E+00  0.00000000E+00
  0.00000000E+00  0.00000000E+00  0.00000000E+00
  0.00000000E+00  0.00000000E+00  0.00000000E+00
  0.00000000E+00  0.00000000E+00  0.00000000E+00
  0.00000000E+00  0.00000000E+00  0.00000000E+00
  0.00000000E+00  0.00000000E+00  0.00000000E+00
  0.00000000E+00  0.00000000E+00  0.00000000E+00
  0.00000000E+00  0.00000000E+00  0.00000000E+00
  0.00000000E+00  0.00000000E+00  0.00000000E+00
  0.00000000E+00  0.00000000E+00  0.00000000E+00
  0.00000000E+00  0.00000000E+00  0.00000000E+00
  0.00000000E+00  0.00000000E+00  0.00000000E+00
  0.00000000E+00  0.00000000E+00  0.00000000E+00
  0.00000000E+00  0.00000000E+00  0.00000000E+00
  0.00000000E+00  0.00000000E+00  0.00000000E+00
  0.00000000E+00  0.00000000E+00  0.00000000E+00
  0.00000000E+00  0.00000000E+00  0.00000000E+00
  0.00000000E+00  0.00000000E+00  0.00000000E+00
  0.00000000E+00  0.00000000E+00  0.00000000E+00
  0.00000000E+00  0.00000000E+00  0.00000000E+00
  0.00000000E+00  0.00000000E+00  0.00000000E+00
  0.00000000E+00  0.00000000E+00  0.00000000E+00
  0.00000000E+00  0.00000000E+00  0.00000000E+00
  0.00000000E+00  0.00000000E+00  0.00000000E+00
  0.00000000E+00  0.00000000E+00  0.00000000E+00
  0.00000000E+00  0.00000000E+00  0.00000000E+00
  0.00000000E+00  0.00000000E+00  0.00000000E+00
  0.00000000E+00  0.00000000E+00  0.00000000E+00
  0.00000000E+00  0.00000000E+00  0.00000000E+00
  0.00000000E+00  0.00000000E+00  0.00000000E+00
  0.00000000E+00  0.00000000E+00  0.00000000E+00
  0.00000000E+00  0.00000000E+00  0.00000000E+00
  0.00000000E+00  0.00000000E+00  0.00000000E+00
  0.00000000E+00  0.00000000E+00  0.00000000E+00
  0.00000000E+00  0.00000000E+00  0.00000000E+00
  0.00000000E+00  0.00000000E+00  0.00000000E+00
  0.00000000E+00  0.00000000E+00  0.00000000E+00
  0.00000000E+00  0.00000000E+00  0.00000000E+00
  0.00000000E+00  0.00000000E+00  0.00000000E+00
  0.00000000E+00  0.00000000E+00  0.00000000E+00
  0.00000000E+00  0.00000000E+00  0.00000000E+00
  0.00000000E+00  0.00000000E+00  0.00000000E+00
  0.00000000E+00  0.00000000E+00  0.00000000E+00
  0.00000000E+00  0.00000000E+00  0.00000000E+00
  0.00000000E+00  0.00000000E+00  0.00000000E+00
  0.00000000E+00  0.00000000E+00  0.00000000E+00
  0.00000000E+00  0.00000000E+00  0.00000000E+00
  0.00000000E+00  0.00000000E+00  0.00000000E+00
  0.00000000E+00  0.00000000E+00  0.00000000E+00
  0.00000000E+00  0.00000000E+00  0.00000000E+00
  0.00000000E+00  0.00000000E+00  0.00000000E+00
  0.00000000E+00  0.00000000E+00  0.00000000E+00
  0.00000000E+00  0.00000000E+00  0.00000000E+00
  0.00000000E+00  0.00000000E+00  0.00000000E+00
  0.00000000E+00  0.00000000E+00  0.00000000E+00
  0.00000000E+00  0.00000000E+00  0.00000000E+00
  0.00000000E+00  0.00000000E+00  0.00000000E+00
  0.00000000E+00  0.00000000E+00  0.00000000E+00
  0.00000000E+00  0.00000000E+00  0.00000000E+00
  0.00000000E+00  0.00000000E+00  0.00000000E+00
  0.00000000E+00  0.00000000E+00  0.00000000E+00
  0.00000000E+00  0.00000000E+00  0.00000000E+00
  0.00000000E+00  0.00000000E+00  0.00000000E+00
  0.00000000E+00  0.00000000E+00  0.00000000E+00
  0.00000000E+00  0.00000000E+00  0.00000000E+00
  0.00000000E+00  0.00000000E+00  0.00000000E+00
  0.00000000E+00  0.00000000E+00  0.00000000E+00
  0.00000000E+00  0.00000000E+00  0.00000000E+00
  0.00000000E+00  0.00000000E+00  0.00000000E+00
  0.00000000E+00  0.00000000E+00  0.00000000E+00
  0.00000000E+00  0.00000000E+00  0.00000000E+00
  0.00000000E+00  0.00000000E+00  0.00000000E+00
  0.00000000E+00  0.00000000E+00  0.00000000E+00
  0.00000000E+00  0.00000000E+00  0.00000000E+00
  0.00000000E+00  0.00000000E+00  0.00000000E+00
  0.00000000E+00  0.00000000E+00  0.00000000E+00
  0.00000000E+00  0.00000000E+00  0.00000000E+00
  0.00000000E+00  0.00000000E+00  0.00000000E+00
  0.00000000E+00  0.00000000E+00  0.00000000E+00
  0.00000000E+00  0.00000000E+00  0.00000000E+00
  0.00000000E+00  0.00000000E+00  0.00000000E+00
  0.00000000E+00  0.00000000E+00  0.00000000E+00
  0.00000000E+00  0.00000000E+00  0.00000000E+00
  0.00000000E+00  0.00000000E+00  0.00000000E+00
  0.00000000E+00  0.00000000E+00  0.00000000E+00
  0.00000000E+00  0.00000000E+00  0.00000000E+00
  0.00000000E+00  0.00000000E+00  0.00000000E+00
  0.00000000E+00  0.00000000E+00  0.00000000E+00
  0.00000000E+00  0.00000000E+00  0.00000000E+00
  0.00000000E+00  0.00000000E+00  0.00000000E+00
  0.00000000E+00  0.00000000E+00  0.00000000E+00
  0.00000000E+00  0.00000000E+00  0.00000000E+00
  0.00000000E+00  0.00000000E+00  0.00000000E+00
  0.00000000E+00  0.00000000E+00  0.00000000E+00
  0.00000000E+00  0.00000000E+00  0.00000000E+00
  0.00000000E+00  0.00000000E+00  0.00000000E+00
  0.00000000E+00  0.00000000E+00  0.00000000E+00
  0.00000000E+00  0.00000000E+00  0.00000000E+00
  0.00000000E+00  0.00000000E+00  0.00000000E+00
  0.00000000E+00  0.00000000E+00  0.00000000E+00
  0.00000000E+00  0.00000000E+00  0.00000000E+00
  0.00000000E+00  0.00000000E+00  0.00000000E+00
  0.00000000E+00  0.00000000E+00  0.00000000E+00
  0.00000000E+00  0.00000000E+00  0.00000000E+00
  0.00000000E+00  0.00000000E+00  0.00000000E+00
  0.00000000E+00  0.00000000E+00  0.00000000E+00
  0.00000000E+00  0.00000000E+00  0.00000000E+00
  0.00000000E+00  0.00000000E+00  0.00000000E+00
  0.00000000E+00  0.00000000E+00  0.00000000E+00
  0.00000000E+00  0.00000000E+00  0.00000000E+00
  0.00000000E+00  0.00000000E+00  0.00000000E+00
  0.00000000E+00  0.00000000E+00  0.00000000E+00
  0.00000000E+00  0.00000000E+00  0.00000000E+00
  0.00000000E+00  0.00000000E+00  0.00000000E+00
  0.00000000E+00  0.00000000E+00  0.00000000E+00
  0.00000000E+00  0.00000000E+00  0.00000000E+00
  0.00000000E+00  0.00000000E+00  0.00000000E+00
  0.00000000E+00  0.00000000E+00  0.00000000E+00
  0.00000000E+00  0.00000000E+00  0.00000000E+00
  0.00000000E+00  0.00000000E+00  0.00000000E+00
  0.00000000E+00  0.00000000E+00  0.00000000E+00
  0.00000000E+00  0.00000000E+00  0.00000000E+00
  0.00000000E+00  0.00000000E+00  0.00000000E+00
  0.00000000E+00  0.00000000E+00  0.00000000E+00
  0.00000000E+00  0.00000000E+00  0.00000000E+00
  0.00000000E+00  0.00000000E+00  0.00000000E+00
  0.00000000E+00  0.00000000E+00  0.00000000E+00
  0.00000000E+00  0.00000000E+00  0.00000000E+00
  0.00000000E+00  0.00000000E+00  0.00000000E+00
  0.00000000E+00  0.00000000E+00  0.00000000E+00
  0.00000000E+00  0.00000000E+00  0.00000000E+00
  0.00000000E+00  0.00000000E+00  0.00000000E+00
  0.00000000E+00  0.00000000E+00  0.00000000E+00
  0.00000000E+00  0.00000000E+00  0.00000000E+00
  0.00000000E+00  0.00000000E+00  0.00000000E+00
  0.00000000E+00  0.00000000E+00  0.00000000E+00
  0.00000000E+00  0.00000000E+00  0.00000000E+00
  0.00000000E+00  0.00000000E+00  0.00000000E+00
  0.00000000E+00  0.00000000E+00  0.00000000E+00
  0.00000000E+00  0.00000000E+00  0.00000000E+00
  0.00000000E+00  0.00000000E+00  0.00000000E+00
  0.00000000E+00  0.00000000E+00  0.00000000E+00
  0.00000000E+00  0.00000000E+00  0.00000000E+00
  0.00000000E+00  0.00000000E+00  0.00000000E+00
  0.00000000E+00  0.00000000E+00  0.00000000E+00
  0.00000000E+00  0.00000000E+00  0.00000000E+00
  0.00000000E+00  0.00000000E+00  0.00000000E+00
  0.00000000E+00  0.00000000E+00  0.00000000E+00
  0.00000000E+00  0.00000000E+00  0.00000000E+00
  0.00000000E+00  0.00000000E+00  0.00000000E+00
  0.00000000E+00  0.00000000E+00  0.00000000E+00
  0.00000000E+00  0.00000000E+00  0.00000000E+00
  0.00000000E+00  0.00000000E+00  0.00000000E+00
  0.00000000E+00  0.00000000E+00  0.00000000E+00
  0.00000000E+00  0.00000000E+00  0.00000000E+00
  0.00000000E+00  0.00000000E+00  0.00000000E+00
  0.00000000E+00  0.00000000E+00  0.00000000E+00
  0.00000000E+00  0.00000000E+00  0.00000000E+00
  0.00000000E+00  0.00000000E+00  0.00000000E+00
  0.00000000E+00  0.00000000E+00  0.00000000E+00
  0.00000000E+00  0.00000000E+00  0.00000000E+00
  0.00000000E+00  0.00000000E+00  0.00000000E+00
  0.00000000E+00  0.00000000E+00  0.00000000E+00
  0.00000000E+00  0.00000000E+00  0.00000000E+00
  0.00000000E+00  0.00000000E+00  0.00000000E+00
  0.00000000E+00  0.00000000E+00  0.00000000E+00
  0.00000000E+00  0.00000000E+00  0.00000000E+00
  0.00000000E+00  0.00000000E+00  0.00000000E+00
  0.00000000E+00  0.00000000E+00  0.00000000E+00
  0.00000000E+00  0.00000000E+00  0.00000000E+00
  0.00000000E+00  0.00000000E+00  0.00000000E+00
  0.00000000E+00  0.00000000E+00  0.00000000E+00
  0.00000000E+00  0.00000000E+00  0.00000000E+00
  0.00000000E+00  0.00000000E+00  0.00000000E+00
  0.00000000E+00  0.00000000E+00  0.00000000E+00
  0.00000000E+00  0.00000000E+00  0.00000000E+00
  0.00000000E+00  0.00000000E+00  0.00000000E+00
  0.00000000E+00  0.00000000E+00  0.00000000E+00
  0.00000000E+00  0.00000000E+00  0.00000000E+00
  0.00000000E+00  0.00000000E+00  0.00000000E+00
  0.00000000E+00  0.00000000E+00  0.00000000E+00
  0.00000000E+00  0.00000000E+00  0.00000000E+00
  0.00000000E+00  0.00000000E+00  0.00000000E+00
  0.00000000E+00  0.00000000E+00  0.00000000E+00
  0.00000000E+00  0.00000000E+00  0.00000000E+00
  0.00000000E+00  0.00000000E+00  0.00000000E+00
  0.00000000E+00  0.00000000E+00  0.00000000E+00
  0.00000000E+00  0.00000000E+00  0.00000000E+00
  0.00000000E+00  0.00000000E+00  0.00000000E+00
  0.00000000E+00  0.00000000E+00  0.00000000E+00
  0.00000000E+00  0.00000000E+00  0.00000000E+00
  0.00000000E+00  0.00000000E+00  0.00000000E+00
  0.00000000E+00  0.00000000E+00  0.00000000E+00
  0.00000000E+00  0.00000000E+00  0.00000000E+00
  0.00000000E+00  0.00000000E+00  0.00000000E+00
  0.00000000E+00  0.00000000E+00  0.00000000E+00
  0.00000000E+00  0.00000000E+00  0.00000000E+00
  0.00000000E+00  0.00000000E+00  0.00000000E+00
  0.00000000E+00  0.00000000E+00  0.00000000E+00
  0.00000000E+00  0.00000000E+00  0.00000000E+00
  0.00000000E+00  0.00000000E+00  0.00000000E+00
  0.00000000E+00  0.00000000E+00  0.00000000E+00
  0.00000000E+00  0.00000000E+00  0.00000000E+00
  0.00000000E+00  0.00000000E+00  0.00000000E+00
  0.00000000E+00  0.00000000E+00  0.00000000E+00
  0.00000000E+00  0.00000000E+00  0.00000000E+00
  0.00000000E+00  0.00000000E+00  0.00000000E+00
  0.00000000E+00  0.00000000E+00  0.00000000E+00
  0.00000000E+00  0.00000000E+00  0.00000000E+00
  0.00000000E+00  0.00000000E+00  0.00000000E+00
  0.00000000E+00  0.00000000E+00  0.00000000E+00
  0.00000000E+00  0.00000000E+00  0.00000000E+00
  0.00000000E+00  0.00000000E+00  0.00000000E+00
  0.00000000E+00  0.00000000E+00  0.00000000E+00
  0.00000000E+00  0.00000000E+00  0.00000000E+00
  0.00000000E+00  0.00000000E+00  0.00000000E+00
  0.00000000E+00  0.00000000E+00  0.00000000E+00
  0.00000000E+00  0.00000000E+00  0.00000000E+00
  0.00000000E+00  0.00000000E+00  0.00000000E+00
  0.00000000E+00  0.00000000E+00  0.00000000E+00