CuInSe2gb                               
   1.00000000000000     
     9.7266780392896699    0.0000000000000000    0.0000000000000000
     0.0000000000000000    8.4235502764570693    0.0000000000000000
     0.0000000000000000    0.0000000000000000   45.0000000000000000
   Fe   Mn
   281     7
Direct
  0.0537085450774075  0.7010430435487260  0.2112832487308629
  0.3181918786437284  0.7237496183953015  0.8762720400082910
  0.6885223845611519  0.9590452357449877  0.6114874982646993
  0.4384479674263534  0.4584427939101366  0.6115639530616469
  0.4406206961565857  0.2872984203182853  0.2551051359525887
  0.0585676998264944  0.3886139460780541  0.8335614983017836
  0.3086037978199280  0.8876796010492419  0.8335285722212417
  0.4469484634291701  0.6261747187956856  0.7004380447294976
  0.0598807728255300  0.2126747148203659  0.7449346974857731
  0.1786184637558875  0.4510580079168028  0.2113697811728132
  0.5676826873383988  0.2106727584783994  0.4774554661915719
  0.0666077326648483  0.8750875344792400  0.5668312503426083
  0.5681455595103619  0.2238537474392251  0.8761200745218056
  0.8090441723467487  0.5280362494540477  0.1239294236777185
  0.4288701554147409  0.9513615883093950  0.2113878418116922
  0.5664341522875701  0.3751571831684352  0.5668554418057307
  0.8110427026845738  0.0415323747154994  0.3883286850313398
  0.6823210170203053  0.7893512993253599  0.5224810556777281
  0.4428080480148734  0.4608145875647939  0.4774858824266291
  0.4342236078762057  0.9625064697783310  0.7448479121861180
  0.4419464601610156  0.6250337339338098  0.5667573428686493
  0.5715079936600963  0.8764055082912027  0.7006106011070216
  0.3091933354399691  0.0257900601240004  0.1239896884023141
  0.6900136106150930  0.9590877898773714  0.3440492460456058
  0.6876431145662919  0.7821837779858950  0.1242534114997593
  0.0526272707808061  0.3738015529104184  0.2995572484158817
  0.6898212373376812  0.4680145908791603  0.8761146935798207
  0.4289160104870645  0.4509910622281442  0.2114712944894621
  0.8087546079289152  0.3751852583329549  0.4330269124261058
  0.5633543787419644  0.7085005591808589  0.6115653995306375
  0.5598503399701598  0.5407190455625768  0.6559641924269572
  0.8177224697055897  0.8618466096947793  0.1666658158467709
  0.5657949051867012  0.5373932317453779  0.2551811548955772
  0.6897188427573685  0.4588246709275306  0.3440071476984554
  0.1919005649203997  0.6115886131025413  0.1664096564020086
  0.1945345709829553  0.7995086014665403  0.7888538613941769
  0.4472294445460361  0.1259041790902133  0.7004424914602512
  0.9278529958739353  0.6236634129313288  0.2996107062705911
  0.3173222216399038  0.2235320530017757  0.8761218253498572
  0.3166137907535743  0.8748328394222756  0.5668569403393807
  0.8174681767231230  0.2240606058205920  0.8761940581139981
  0.8096172310448883  0.5407438926414601  0.6558853391570966
  0.5592226134146340  0.5269982526768048  0.1238793315344637
  0.5693648951563517  0.0498514011758313  0.7889544007060179
  0.1907943706156795  0.2873267242735912  0.2552422171187792
  0.8086534859735743  0.8747475343913772  0.4330240272308542
  0.5722326834390538  0.3763789676313939  0.7003968219206316
  0.0573145968015924  0.0267668387719356  0.1241126839314747
  0.3097010027183660  0.5406231262250479  0.6559980677019633
  0.5648314613963997  0.2088727444483696  0.3440089089410571
  0.1883690503853389  0.9587853295428850  0.6115554086843993
  0.3029776322783034  0.3738873998886058  0.2995849240721409
  0.4345433133028895  0.7902658453901109  0.6559183068411738
  0.1948595582006422  0.2991786986607226  0.7888391179024316
  0.0676166750839227  0.3631442228929971  0.1666458805632536
  0.6969282633788560  0.6262132892247042  0.7004208179450382
  0.3111793642992893  0.5412695503321081  0.3884449409814136
  0.0675221027309473  0.7233222008919661  0.8762056416291669
  0.9337538802610915  0.6376492223957516  0.8339129750703458
  0.3196068041293444  0.5498063837379327  0.7889330903718846
  0.3045990417305401  0.2004485225660993  0.2111927391569006
  0.0680409351032227  0.7108198222646067  0.4774111120917391
  0.5541539595953625  0.2007679892621920  0.2111111343570826
  0.3096174158584881  0.2123690111190248  0.7449143448372406
  0.0718762269239593  0.3763878560146177  0.7005444853689904
  0.1832743471133017  0.6376626035049916  0.8335715125094066
  0.0694932294768397  0.0495944268607049  0.7890313059222978
  0.4416283408906914  0.1249874729101246  0.5669054668271173
  0.9348677455611393  0.2906946156797616  0.6559035189182799
  0.8041733225385067  0.2011307156753964  0.2112173313863456
  0.9290215752925108  0.9515064596522931  0.2112969544064993
  0.9415529748328816  0.6250215551177757  0.5668830736156105
  0.8083856626198587  0.3876336304736596  0.8335617330641943
  0.1970727099620475  0.6259898228475939  0.7003135609184452
  0.8085491495040407  0.8877385637898436  0.8335574373988823
  0.6849620528229117  0.2905949224004781  0.6560629109442450
  0.3131055831847408  0.2083374901114282  0.6115089326527965
  0.4345800261403311  0.4628541570933825  0.7449059355161787
  0.4359881194689017  0.7912003560938103  0.3883620315336648
  0.6845649718697620  0.9626114334840424  0.7448492832417676
  0.8036128921759825  0.7009315966450511  0.2112985975232171
  0.8133782002690693  0.7084319064176798  0.6116284735090245
  0.4372067322043051  0.7839999227748013  0.1240122581943709
  0.3097789775656137  0.7120121150483093  0.7448111084132508
  0.3199318309002953  0.0494464287478403  0.7888889490739320
  0.8111877392008251  0.5419403814259247  0.3882975371083292
  0.6825917336400753  0.2882804342675392  0.5222765335739290
  0.6949365867917984  0.7992623514381196  0.7889027627702618
  0.1904077640963681  0.7878219890597791  0.2552250285900026
  0.6916645449588930  0.1124066859185347  0.1666913791105771
  0.6926372430628407  0.9606314332799513  0.4773958136930022
  0.9402005040426031  0.9591827928375302  0.3440790703523344
  0.8072389404950073  0.0392402252072343  0.5225132174427491
  0.6837290718487643  0.6249281814208372  0.4330234906548815
  0.4398661495571789  0.4587104844198815  0.3439993490432815
  0.8106313116239363  0.2115104601885875  0.7446115224244443
  0.4395847205708225  0.9679024611272626  0.8761021494676198
  0.5666613110282341  0.8748767477154616  0.5668035206387867
  0.8091243904096570  0.0280458310696955  0.1239401556740345
  0.4280583487206630  0.6235463753043670  0.2994019797969716
  0.8170497984940212  0.7238466506853419  0.8763270607423739
  0.6883693061961396  0.4584750547250976  0.6115392387820926
  0.5586650750713438  0.3875490470027976  0.8334922385528525
  0.8030621834258869  0.3734189616843812  0.2995076312404802
  0.1861532176184639  0.2912924286638606  0.3883704225554133
  0.8198529580626549  0.5496681095385956  0.7889324461522843
  0.1821629109755064  0.7890676733857377  0.5225223529390115
  0.3029521588513209  0.8738523309967035  0.2995731786152342
  0.1783778901116330  0.9511603215200209  0.2112989949140316
  0.1843476329066195  0.4626356508911011  0.7449308606651626
  0.4327611475877495  0.2884470676985118  0.5222021307112513
  0.0649628421698882  0.7087110691653100  0.3439223813344967
  0.1847880278410892  0.7905464927581189  0.6558636183102238
  0.4445435331835719  0.7992552429366592  0.7888478433336352
  0.6836272993736625  0.1250889926631664  0.4329122633661531
  0.9326591598638238  0.7885715886955462  0.5222870846850040
  0.6917710292500563  0.6126393767005509  0.1667079386076758
  0.8146756456996036  0.7086059030949893  0.3439388820897367
  0.9342756324756892  0.4627075884002799  0.7449177616972581
  0.1899792130926702  0.4589309945547105  0.3440488884831751
  0.5699497929528878  0.5496256383586664  0.7890623052326378
  0.5665293453104259  0.3624804055983719  0.1664408619496729
  0.5647358485508016  0.7088981657068638  0.3439448717100003
  0.5528383202479004  0.3737465057826367  0.2995853096138065
  0.1895044355611335  0.4678873949885466  0.8760795182702558
  0.1917076209906624  0.1113836189007397  0.1664034441073270
  0.4446720676283568  0.2990288586684487  0.7888331437657672
  0.6908867512135948  0.7874604756919176  0.2554271074177513
  0.9336209669847808  0.1377701850306435  0.8335405734190979
  0.4427401732215884  0.9605743716627683  0.4774230647382676
  0.5675915544947867  0.7247373559840691  0.8762336705377358
  0.1926232598493091  0.4606648097162657  0.4773037266565656
  0.9344567653452371  0.2819819278435964  0.1241630565221166
  0.3111288393991780  0.0411211922449147  0.3884244231429543
  0.0599107272817974  0.0407383939386425  0.6559192034572623
  0.5587304068656835  0.3746709127382277  0.4330519992354979
  0.6839339455777491  0.4627793987644338  0.7449654250209277
  0.5600278379515498  0.2125702306089031  0.7448802935741209
  0.9470870486094635  0.1262557745375004  0.7003756437207742
  0.5596934235619591  0.0406813930963108  0.6559065160837330
  0.5566686228319456  0.5391742637187122  0.5224674142877986
  0.1779373244953507  0.1235811327109319  0.2995882922338399
  0.4416450658677200  0.1105103139972023  0.1664204110054194
  0.6776828402072621  0.6235991304479711  0.2996156004833161
  0.9278952870862810  0.1233959658272754  0.2996633023229466
  0.8166134603079598  0.3751466703590979  0.5668818051942124
  0.0528312430541482  0.8738900323270949  0.2995539856705130
  0.1917500726775468  0.6248749703542765  0.5668686409677071
  0.9446006462810160  0.7996865608988211  0.7888424471218691
  0.3083995898040822  0.3875030178777641  0.8335389211124344
  0.9397581122790051  0.4684990222939623  0.8761113845623248
  0.4337315895789794  0.6378627355751398  0.8335287086940203
  0.0646631578194107  0.2087418881237912  0.3438138089303704
  0.1896919965514384  0.9679112661262429  0.8761189889253211
  0.9348459000453079  0.7818098020685638  0.1241930052210536
  0.6863364163677428  0.7913703065929023  0.3884083595461905
  0.9349345265145341  0.7907475816667493  0.6559517290378444
  0.9412333931363883  0.1121654788882885  0.1665070098219155
  0.4351781855257199  0.2909273185503119  0.6560824371597633
  0.0542154025348902  0.2011040454207862  0.2112571010569121
  0.6788289647926048  0.9512953998002747  0.2112924135262570
  0.1782552325739924  0.6238875866192820  0.2994279727907711
  0.8221822999447840  0.8763839656896818  0.7004115340306450
  0.9468710269060310  0.6263657282852236  0.7005103012349839
  0.1970538732489163  0.1263158348169531  0.7003717836629217
  0.9428327430606486  0.4607697749940363  0.4772423720121133
  0.8133805303922906  0.2084472137318216  0.6115238453600792
  0.1835452998714609  0.6248463608553154  0.4330960185119450
  0.4280048188402475  0.1236097119232045  0.2994583240139629
  0.6780236387757945  0.1236062895193974  0.2995310071794405
  0.5614048762772469  0.5414827176940548  0.3884478080463105
  0.8145762273238769  0.2085244686567274  0.3439670822622363
  0.4396366328688953  0.4677697380412125  0.8759965593131934
  0.5585106464069312  0.8875183286517161  0.8334648805374375
  0.3175667120979644  0.2105556793248479  0.4772862974866674
  0.1928848093513003  0.9607548938989081  0.4774699250384866
  0.0585684587306060  0.8875848842108844  0.8334809049986386
  0.9336284490298699  0.1248570605863460  0.4328554680890891
  0.9426329814685137  0.9605349328308257  0.4772545175649088
  0.0633300521152347  0.7083499359224608  0.6115952661112847
  0.5575458492995015  0.0388009868503306  0.5222808586850437
  0.6951025920966388  0.2991803126925479  0.7888067127115309
  0.8175041647875618  0.3618195797286041  0.1667184634214187
  0.4335866111588718  0.1249384882614374  0.4329555441112157
  0.0678433072275516  0.2106770789866532  0.4774478092914745
  0.3099058038372011  0.0408453891165714  0.6559484256392607
  0.4323793309196778  0.7892237264054022  0.5225066296210666
  0.1835506228471868  0.1379260791137784  0.8336185356789763
  0.1853008574798930  0.2830759890042351  0.1243164525310236
  0.9400777616349352  0.4593677889839498  0.3440715137610798
  0.5669305369043226  0.8627489184754068  0.1664604276293815
  0.3035638767996969  0.7006999181334028  0.2112660391991906
  0.9413036524974168  0.6122986808813915  0.1665633121843078
  0.1886165013739763  0.4587671200504029  0.6115550564574206
  0.0722449600072042  0.8763638185956846  0.7003595821452223
  0.0597363152484210  0.5406947365161375  0.6558888427237226
  0.3080416436470317  0.5258128874777995  0.1239542930027355
  0.9360585607001749  0.7911517266182717  0.3884303687590756
  0.9447771822494295  0.2987047117848572  0.7887662127936689
  0.1848159704162350  0.2906710360878109  0.6559721109164726
  0.9381745565362472  0.9581874880594475  0.6116054807268150
  0.8100133542809606  0.7120759612133978  0.7448472489842745
  0.6909038159742203  0.2876787249108401  0.2553067584335600
  0.0591272690342707  0.7123899851660913  0.7449734372445410
  0.6789233572781064  0.4513844814151650  0.2112071775174658
  0.8178508564798140  0.2107377536779002  0.4774703411904636
  0.5674855759640921  0.7104991515194856  0.4773195226544856
  0.0678479616776330  0.8633026838954918  0.1666438674725947
  0.9326004664998196  0.2889951411715823  0.5224929341020996
  0.6844967103154351  0.7904473760688234  0.6558912339200268
  0.0584431068273298  0.8749923658697200  0.4329052182407394
  0.0681427167204759  0.2231836425779195  0.8761767071645798
  0.8097326827283907  0.0406249614133742  0.6559248417040906
  0.5595905604424183  0.0268675417874597  0.1239208948963417
  0.3088660093309655  0.3748333957701309  0.4328789474289051
  0.3163394245322718  0.3750485613287298  0.5668901754726831
  0.3175826095216168  0.7103012237778077  0.4772897833924113
  0.0572210958056418  0.0391478985940078  0.5225308675239511
  0.3219981607958573  0.8764082754628619  0.7005336814306001
  0.0656578145957858  0.5375187887886065  0.2552235083300902
  0.6834297770651556  0.1376421213937611  0.8335110874150671
  0.8149096827125641  0.0373778506458477  0.2552403173177061
  0.1837494000301294  0.1248863259199245  0.4330024555864686
  0.6973183728707761  0.1259730861776457  0.7004690047315899
  0.1820232813843367  0.2895378958524907  0.5224290592913167
  0.4406601787053643  0.7877809877111949  0.2552833334084083
  0.4414721985413460  0.6104039347359297  0.1664122359341890
  0.0636130031177256  0.2083259363345641  0.6115496141237968
  0.1862244185162939  0.7912837420899850  0.3883041429174801
  0.3073280079387218  0.5390082343144644  0.5224505773023856
  0.8218875191174552  0.3765713757410081  0.7002572222112041
  0.6863869618309382  0.2913056400365065  0.3884111714429966
  0.1917184002158307  0.1250416775828562  0.5668438349130414
  0.6897576201233275  0.9683944683194980  0.8760884731851687
  0.6915135263245396  0.1250276898095942  0.5669344109363462
  0.4399074833596036  0.9588839666908511  0.3440137645348931
  0.1839640761709452  0.9626474947570403  0.7447562536582581
  0.9406552373731001  0.7876266562601349  0.2552177515113249
  0.5586240557161533  0.8753051452373314  0.4330488306980614
  0.3086321259136169  0.8751273051159668  0.4330491944078376
  0.8074665824286535  0.5392698031392194  0.5224849043080946
  0.9290437453098229  0.4514735149995851  0.2113179547740321
  0.3153150676270569  0.5378421864065804  0.2551279490625024
  0.5614183114996117  0.0413576643697522  0.3883938129766236
  0.9384585165003261  0.4586015809383591  0.6115777792981276
  0.0613182995699282  0.0412668487213893  0.3884398099492712
  0.0613805951686716  0.5411330381793192  0.3884157797768388
  0.4364925908928777  0.2912780111900036  0.3884175591711060
  0.6927827126039315  0.4607248442890785  0.4774463517997540
  0.0664912100332332  0.3751757647572643  0.5668416186099294
  0.5535811732589981  0.7004108462409985  0.2111345460813759
  0.9408368684065400  0.2874246431794980  0.2554192146155475
  0.8192591413084498  0.0496186182927432  0.7890736093781837
  0.1897452216421385  0.9588622979173748  0.3439300614785646
  0.5528539420141219  0.8737220019719195  0.2995905441228355
  0.0585155726144556  0.3749718313798290  0.4330154927841535
  0.3150681401221926  0.7089908509059092  0.3439998893861887
  0.3146536891288167  0.2088683750092863  0.3439173144705255
  0.9415525403570365  0.1250579047416459  0.5668682771184077
  0.4383258096786797  0.9585151994878329  0.6115597419287995
  0.5651218329991442  0.0373867868901808  0.2550913146970546
  0.1861239243042787  0.7829101617386650  0.1242521795434259
  0.0657334519885826  0.0373760413323862  0.2552058244630466
  0.6914547560747372  0.6247672316160157  0.5668465736312822
  0.0568290171605657  0.5262131261081920  0.1241350342116676
  0.3072719177367865  0.0387691223101220  0.5222945570470261
  0.6875500445123699  0.2821325635466553  0.1242014018771620
  0.8176270339370648  0.7107506528995787  0.4773541337826053
  0.4334678223636297  0.1377274836338560  0.8335182196598614
  0.3222622875634566  0.3763043177723166  0.7003885477718079
  0.6836202007236031  0.6377645578967376  0.8335178706633287
  0.5598609594789076  0.7120831339890236  0.7448605125305905
  0.9368247089544851  0.2915764670989655  0.3884197780506480
  0.9396498604344540  0.9683382168874093  0.8761316976508804
  0.5629708687817812  0.2080636454059539  0.6113525524959628
  0.8167949115814261  0.8751212794415965  0.5668886811704335
  0.8031648580272099  0.8734442268039803  0.2994599780573338
  0.3152250610162190  0.0377133472250684  0.2551279203492262
  0.4368979802050310  0.2836295735456892  0.1240595495224443
  0.3137164007301629  0.7086697906478430  0.6115946353595321
  0.4335667170680553  0.6251148746819369  0.4330025614982064
  0.9329135645408345  0.6249846530925420  0.4331363966627204
  0.3183569915715969  0.8627097210753573  0.1657591824593549
  0.0707504600363172  0.5493883614788276  0.7888021244208332
  0.0559863640588613  0.5393239148864526  0.5223183135478981
  0.3186844632635578  0.3632496482415380  0.1658052936809754
  0.9335508068750736  0.9621854985800357  0.7446742413239584
  0.8159643537262504  0.5374107923629509  0.2554893508854303
 
  0.00000000E+00  0.00000000E+00  0.00000000E+00
  0.00000000E+00  0.00000000E+00  0.00000000E+00
  0.00000000E+00  0.00000000E+00  0.00000000E+00
  0.00000000E+00  0.00000000E+00  0.00000000E+00
  0.00000000E+00  0.00000000E+00  0.00000000E+00
  0.00000000E+00  0.00000000E+00  0.00000000E+00
  0.00000000E+00  0.00000000E+00  0.00000000E+00
  0.00000000E+00  0.00000000E+00  0.00000000E+00
  0.00000000E+00  0.00000000E+00  0.00000000E+00
  0.00000000E+00  0.00000000E+00  0.00000000E+00
  0.00000000E+00  0.00000000E+00  0.00000000E+00
  0.00000000E+00  0.00000000E+00  0.00000000E+00
  0.00000000E+00  0.00000000E+00  0.00000000E+00
  0.00000000E+00  0.00000000E+00  0.00000000E+00
  0.00000000E+00  0.00000000E+00  0.00000000E+00
  0.00000000E+00  0.00000000E+00  0.00000000E+00
  0.00000000E+00  0.00000000E+00  0.00000000E+00
  0.00000000E+00  0.00000000E+00  0.00000000E+00
  0.00000000E+00  0.00000000E+00  0.00000000E+00
  0.00000000E+00  0.00000000E+00  0.00000000E+00
  0.00000000E+00  0.00000000E+00  0.00000000E+00
  0.00000000E+00  0.00000000E+00  0.00000000E+00
  0.00000000E+00  0.00000000E+00  0.00000000E+00
  0.00000000E+00  0.00000000E+00  0.00000000E+00
  0.00000000E+00  0.00000000E+00  0.00000000E+00
  0.00000000E+00  0.00000000E+00  0.00000000E+00
  0.00000000E+00  0.00000000E+00  0.00000000E+00
  0.00000000E+00  0.00000000E+00  0.00000000E+00
  0.00000000E+00  0.00000000E+00  0.00000000E+00
  0.00000000E+00  0.00000000E+00  0.00000000E+00
  0.00000000E+00  0.00000000E+00  0.00000000E+00
  0.00000000E+00  0.00000000E+00  0.00000000E+00
  0.00000000E+00  0.00000000E+00  0.00000000E+00
  0.00000000E+00  0.00000000E+00  0.00000000E+00
  0.00000000E+00  0.00000000E+00  0.00000000E+00
  0.00000000E+00  0.00000000E+00  0.00000000E+00
  0.00000000E+00  0.00000000E+00  0.00000000E+00
  0.00000000E+00  0.00000000E+00  0.00000000E+00
  0.00000000E+00  0.00000000E+00  0.00000000E+00
  0.00000000E+00  0.00000000E+00  0.00000000E+00
  0.00000000E+00  0.00000000E+00  0.00000000E+00
  0.00000000E+00  0.00000000E+00  0.00000000E+00
  0.00000000E+00  0.00000000E+00  0.00000000E+00
  0.00000000E+00  0.00000000E+00  0.00000000E+00
  0.00000000E+00  0.00000000E+00  0.00000000E+00
  0.00000000E+00  0.00000000E+00  0.00000000E+00
  0.00000000E+00  0.00000000E+00  0.00000000E+00
  0.00000000E+00  0.00000000E+00  0.00000000E+00
  0.00000000E+00  0.00000000E+00  0.00000000E+00
  0.00000000E+00  0.00000000E+00  0.00000000E+00
  0.00000000E+00  0.00000000E+00  0.00000000E+00
  0.00000000E+00  0.00000000E+00  0.00000000E+00
  0.00000000E+00  0.00000000E+00  0.00000000E+00
  0.00000000E+00  0.00000000E+00  0.00000000E+00
  0.00000000E+00  0.00000000E+00  0.00000000E+00
  0.00000000E+00  0.00000000E+00  0.00000000E+00
  0.00000000E+00  0.00000000E+00  0.00000000E+00
  0.00000000E+00  0.00000000E+00  0.00000000E+00
  0.00000000E+00  0.00000000E+00  0.00000000E+00
  0.00000000E+00  0.00000000E+00  0.00000000E+00
  0.00000000E+00  0.00000000E+00  0.00000000E+00
  0.00000000E+00  0.00000000E+00  0.00000000E+00
  0.00000000E+00  0.00000000E+00  0.00000000E+00
  0.00000000E+00  0.00000000E+00  0.00000000E+00
  0.00000000E+00  0.00000000E+00  0.00000000E+00
  0.00000000E+00  0.00000000E+00  0.00000000E+00
  0.00000000E+00  0.00000000E+00  0.00000000E+00
  0.00000000E+00  0.00000000E+00  0.00000000E+00
  0.00000000E+00  0.00000000E+00  0.00000000E+00
  0.00000000E+00  0.00000000E+00  0.00000000E+00
  0.00000000E+00  0.00000000E+00  0.00000000E+00
  0.00000000E+00  0.00000000E+00  0.00000000E+00
  0.00000000E+00  0.00000000E+00  0.00000000E+00
  0.00000000E+00  0.00000000E+00  0.00000000E+00
  0.00000000E+00  0.00000000E+00  0.00000000E+00
  0.00000000E+00  0.00000000E+00  0.00000000E+00
  0.00000000E+00  0.00000000E+00  0.00000000E+00
  0.00000000E+00  0.00000000E+00  0.00000000E+00
  0.00000000E+00  0.00000000E+00  0.00000000E+00
  0.00000000E+00  0.00000000E+00  0.00000000E+00
  0.00000000E+00  0.00000000E+00  0.00000000E+00
  0.00000000E+00  0.00000000E+00  0.00000000E+00
  0.00000000E+00  0.00000000E+00  0.00000000E+00
  0.00000000E+00  0.00000000E+00  0.00000000E+00
  0.00000000E+00  0.00000000E+00  0.00000000E+00
  0.00000000E+00  0.00000000E+00  0.00000000E+00
  0.00000000E+00  0.00000000E+00  0.00000000E+00
  0.00000000E+00  0.00000000E+00  0.00000000E+00
  0.00000000E+00  0.00000000E+00  0.00000000E+00
  0.00000000E+00  0.00000000E+00  0.00000000E+00
  0.00000000E+00  0.00000000E+00  0.00000000E+00
  0.00000000E+00  0.00000000E+00  0.00000000E+00
  0.00000000E+00  0.00000000E+00  0.00000000E+00
  0.00000000E+00  0.00000000E+00  0.00000000E+00
  0.00000000E+00  0.00000000E+00  0.00000000E+00
  0.00000000E+00  0.00000000E+00  0.00000000E+00
  0.00000000E+00  0.00000000E+00  0.00000000E+00
  0.00000000E+00  0.00000000E+00  0.00000000E+00
  0.00000000E+00  0.00000000E+00  0.00000000E+00
  0.00000000E+00  0.00000000E+00  0.00000000E+00
  0.00000000E+00  0.00000000E+00  0.00000000E+00
  0.00000000E+00  0.00000000E+00  0.00000000E+00
  0.00000000E+00  0.00000000E+00  0.00000000E+00
  0.00000000E+00  0.00000000E+00  0.00000000E+00
  0.00000000E+00  0.00000000E+00  0.00000000E+00
  0.00000000E+00  0.00000000E+00  0.00000000E+00
  0.00000000E+00  0.00000000E+00  0.00000000E+00
  0.00000000E+00  0.00000000E+00  0.00000000E+00
  0.00000000E+00  0.00000000E+00  0.00000000E+00
  0.00000000E+00  0.00000000E+00  0.00000000E+00
  0.00000000E+00  0.00000000E+00  0.00000000E+00
  0.00000000E+00  0.00000000E+00  0.00000000E+00
  0.00000000E+00  0.00000000E+00  0.00000000E+00
  0.00000000E+00  0.00000000E+00  0.00000000E+00
  0.00000000E+00  0.00000000E+00  0.00000000E+00
  0.00000000E+00  0.00000000E+00  0.00000000E+00
  0.00000000E+00  0.00000000E+00  0.00000000E+00
  0.00000000E+00  0.00000000E+00  0.00000000E+00
  0.00000000E+00  0.00000000E+00  0.00000000E+00
  0.00000000E+00  0.00000000E+00  0.00000000E+00
  0.00000000E+00  0.00000000E+00  0.00000000E+00
  0.00000000E+00  0.00000000E+00  0.00000000E+00
  0.00000000E+00  0.00000000E+00  0.00000000E+00
  0.00000000E+00  0.00000000E+00  0.00000000E+00
  0.00000000E+00  0.00000000E+00  0.00000000E+00
  0.00000000E+00  0.00000000E+00  0.00000000E+00
  0.00000000E+00  0.00000000E+00  0.00000000E+00
  0.00000000E+00  0.00000000E+00  0.00000000E+00
  0.00000000E+00  0.00000000E+00  0.00000000E+00
  0.00000000E+00  0.00000000E+00  0.00000000E+00
  0.00000000E+00  0.00000000E+00  0.00000000E+00
  0.00000000E+00  0.00000000E+00  0.00000000E+00
  0.00000000E+00  0.00000000E+00  0.00000000E+00
  0.00000000E+00  0.00000000E+00  0.00000000E+00
  0.00000000E+00  0.00000000E+00  0.00000000E+00
  0.00000000E+00  0.00000000E+00  0.00000000E+00
  0.00000000E+00  0.00000000E+00  0.00000000E+00
  0.00000000E+00  0.00000000E+00  0.00000000E+00
  0.00000000E+00  0.00000000E+00  0.00000000E+00
  0.00000000E+00  0.00000000E+00  0.00000000E+00
  0.00000000E+00  0.00000000E+00  0.00000000E+00
  0.00000000E+00  0.00000000E+00  0.00000000E+00
  0.00000000E+00  0.00000000E+00  0.00000000E+00
  0.00000000E+00  0.00000000E+00  0.00000000E+00
  0.00000000E+00  0.00000000E+00  0.00000000E+00
  0.00000000E+00  0.00000000E+00  0.00000000E+00
  0.00000000E+00  0.00000000E+00  0.00000000E+00
  0.00000000E+00  0.00000000E+00  0.00000000E+00
  0.00000000E+00  0.00000000E+00  0.00000000E+00
  0.00000000E+00  0.00000000E+00  0.00000000E+00
  0.00000000E+00  0.00000000E+00  0.00000000E+00
  0.00000000E+00  0.00000000E+00  0.00000000E+00
  0.00000000E+00  0.00000000E+00  0.00000000E+00
  0.00000000E+00  0.00000000E+00  0.00000000E+00
  0.00000000E+00  0.00000000E+00  0.00000000E+00
  0.00000000E+00  0.00000000E+00  0.00000000E+00
  0.00000000E+00  0.00000000E+00  0.00000000E+00
  0.00000000E+00  0.00000000E+00  0.00000000E+00
  0.00000000E+00  0.00000000E+00  0.00000000E+00
  0.00000000E+00  0.00000000E+00  0.00000000E+00
  0.00000000E+00  0.00000000E+00  0.00000000E+00
  0.00000000E+00  0.00000000E+00  0.00000000E+00
  0.00000000E+00  0.00000000E+00  0.00000000E+00
  0.00000000E+00  0.00000000E+00  0.00000000E+00
  0.00000000E+00  0.00000000E+00  0.00000000E+00
  0.00000000E+00  0.00000000E+00  0.00000000E+00
  0.00000000E+00  0.00000000E+00  0.00000000E+00
  0.00000000E+00  0.00000000E+00  0.00000000E+00
  0.00000000E+00  0.00000000E+00  0.00000000E+00
  0.00000000E+00  0.00000000E+00  0.00000000E+00
  0.00000000E+00  0.00000000E+00  0.00000000E+00
  0.00000000E+00  0.00000000E+00  0.00000000E+00
  0.00000000E+00  0.00000000E+00  0.00000000E+00
  0.00000000E+00  0.00000000E+00  0.00000000E+00
  0.00000000E+00  0.00000000E+00  0.00000000E+00
  0.00000000E+00  0.00000000E+00  0.00000000E+00
  0.00000000E+00  0.00000000E+00  0.00000000E+00
  0.00000000E+00  0.00000000E+00  0.00000000E+00
  0.00000000E+00  0.00000000E+00  0.00000000E+00
  0.00000000E+00  0.00000000E+00  0.00000000E+00
  0.00000000E+00  0.00000000E+00  0.00000000E+00
  0.00000000E+00  0.00000000E+00  0.00000000E+00
  0.00000000E+00  0.00000000E+00  0.00000000E+00
  0.00000000E+00  0.00000000E+00  0.00000000E+00
  0.00000000E+00  0.00000000E+00  0.00000000E+00
  0.00000000E+00  0.00000000E+00  0.00000000E+00
  0.00000000E+00  0.00000000E+00  0.00000000E+00
  0.00000000E+00  0.00000000E+00  0.00000000E+00
  0.00000000E+00  0.00000000E+00  0.00000000E+00
  0.00000000E+00  0.00000000E+00  0.00000000E+00
  0.00000000E+00  0.00000000E+00  0.00000000E+00
  0.00000000E+00  0.00000000E+00  0.00000000E+00
  0.00000000E+00  0.00000000E+00  0.00000000E+00
  0.00000000E+00  0.00000000E+00  0.00000000E+00
  0.00000000E+00  0.00000000E+00  0.00000000E+00
  0.00000000E+00  0.00000000E+00  0.00000000E+00
  0.00000000E+00  0.00000000E+00  0.00000000E+00
  0.00000000E+00  0.00000000E+00  0.00000000E+00
  0.00000000E+00  0.00000000E+00  0.00000000E+00
  0.00000000E+00  0.00000000E+00  0.00000000E+00
  0.00000000E+00  0.00000000E+00  0.00000000E+00
  0.00000000E+00  0.00000000E+00  0.00000000E+00
  0.00000000E+00  0.00000000E+00  0.00000000E+00
  0.00000000E+00  0.00000000E+00  0.00000000E+00
  0.00000000E+00  0.00000000E+00  0.00000000E+00
  0.00000000E+00  0.00000000E+00  0.00000000E+00
  0.00000000E+00  0.00000000E+00  0.00000000E+00
  0.00000000E+00  0.00000000E+00  0.00000000E+00
  0.00000000E+00  0.00000000E+00  0.00000000E+00
  0.00000000E+00  0.00000000E+00  0.00000000E+00
  0.00000000E+00  0.00000000E+00  0.00000000E+00
  0.00000000E+00  0.00000000E+00  0.00000000E+00
  0.00000000E+00  0.00000000E+00  0.00000000E+00
  0.00000000E+00  0.00000000E+00  0.00000000E+00
  0.00000000E+00  0.00000000E+00  0.00000000E+00
  0.00000000E+00  0.00000000E+00  0.00000000E+00
  0.00000000E+00  0.00000000E+00  0.00000000E+00
  0.00000000E+00  0.00000000E+00  0.00000000E+00
  0.00000000E+00  0.00000000E+00  0.00000000E+00
  0.00000000E+00  0.00000000E+00  0.00000000E+00
  0.00000000E+00  0.00000000E+00  0.00000000E+00
  0.00000000E+00  0.00000000E+00  0.00000000E+00
  0.00000000E+00  0.00000000E+00  0.00000000E+00
  0.00000000E+00  0.00000000E+00  0.00000000E+00
  0.00000000E+00  0.00000000E+00  0.00000000E+00
  0.00000000E+00  0.00000000E+00  0.00000000E+00
  0.00000000E+00  0.00000000E+00  0.00000000E+00
  0.00000000E+00  0.00000000E+00  0.00000000E+00
  0.00000000E+00  0.00000000E+00  0.00000000E+00
  0.00000000E+00  0.00000000E+00  0.00000000E+00
  0.00000000E+00  0.00000000E+00  0.00000000E+00
  0.00000000E+00  0.00000000E+00  0.00000000E+00
  0.00000000E+00  0.00000000E+00  0.00000000E+00
  0.00000000E+00  0.00000000E+00  0.00000000E+00
  0.00000000E+00  0.00000000E+00  0.00000000E+00
  0.00000000E+00  0.00000000E+00  0.00000000E+00
  0.00000000E+00  0.00000000E+00  0.00000000E+00
  0.00000000E+00  0.00000000E+00  0.00000000E+00
  0.00000000E+00  0.00000000E+00  0.00000000E+00
  0.00000000E+00  0.00000000E+00  0.00000000E+00
  0.00000000E+00  0.00000000E+00  0.00000000E+00
  0.00000000E+00  0.00000000E+00  0.00000000E+00
  0.00000000E+00  0.00000000E+00  0.00000000E+00
  0.00000000E+00  0.00000000E+00  0.00000000E+00
  0.00000000E+00  0.00000000E+00  0.00000000E+00
  0.00000000E+00  0.00000000E+00  0.00000000E+00
  0.00000000E+00  0.00000000E+00  0.00000000E+00