CuInSe2gb                               
   1.00000000000000     
     9.7266780392896699    0.0000000000000000    0.0000000000000000
     0.0000000000000000    8.4235502764570693    0.0000000000000000
     0.0000000000000000    0.0000000000000000   45.0000000000000000
   Fe   Mn
   281     7
Direct
  0.0573546217624780  0.7013667922964733  0.2114556950676711
  0.3159412064556850  0.7197621181312920  0.8756629522578051
  0.6881547677627707  0.9577560584312611  0.6113135398996831
  0.4382162387552861  0.4578553656487830  0.6113768222403643
  0.4358410923816695  0.2872606966942156  0.2556897015865605
  0.0613092809730792  0.3863522217388056  0.8340120139564032
  0.3118483489831987  0.8865258663467458  0.8341270982880044
  0.4416198401829273  0.6266963726189304  0.7001631123205934
  0.0648006398497326  0.2128542074131214  0.7443479062889340
  0.1823805585118033  0.4515734473387642  0.2113538538855603
  0.5636473480556246  0.2089322127662416  0.4778537592232946
  0.0639995425585204  0.8744193538227839  0.5666799134199741
  0.5654543553455502  0.2193112217088319  0.8755238458588646
  0.8107991311190619  0.5289560076192471  0.1246423166510796
  0.4323212987387819  0.9518908482240959  0.2114480436456675
  0.5640425395120108  0.3741211687128381  0.5666862353783597
  0.8118485317327070  0.0423706376461486  0.3885449653757888
  0.6863861019098245  0.7907297173843872  0.5220933208844161
  0.4387577957230665  0.4587355851971744  0.4778451550340536
  0.4388584329153662  0.9624457564913234  0.7445082274617423
  0.4385908252430802  0.6242941624847719  0.5666995836240404
  0.0609031107067808  0.5291218463367424  0.1247368493639416
  0.3112498899442706  0.0290572143402187  0.1248347441566549
  0.6868322127193350  0.9588284519705182  0.3444405402879304
  0.6845650243451330  0.7810012971705695  0.1239550441084955
  0.0580174045958612  0.3735075212595750  0.2997539335555707
  0.6890004399795450  0.4714412438353641  0.8753456048371668
  0.4323335533064516  0.4515477015718553  0.2113093316524698
  0.8113205527334454  0.3751677115819895  0.4331189891084539
  0.5629467206791532  0.7078661532109076  0.6114154207002502
  0.5630822497771337  0.5417411062877727  0.6554909799367551
  0.9362898459885752  0.1252361345953915  0.4331337232610148
  0.5607243231510326  0.5376277440680490  0.2556270627232238
  0.6866147119009924  0.4586040424764070  0.3442109878369089
  0.1881764236017246  0.6127392455391648  0.1661540160809712
  0.1922962890663009  0.7988756318037581  0.7885366450375423
  0.4417031758926186  0.1265397502956790  0.7002009164882427
  0.9330094005807659  0.6236628968079192  0.2998192034472554
  0.3151058816271579  0.2193690651145938  0.8755971824661368
  0.3137217796596433  0.8745403519070956  0.5666425164404565
  0.8153368062302077  0.2193897322221434  0.8755859669401904
  0.8130536856341469  0.5415128525338767  0.6555526598802938
  0.5605359835352964  0.5287886421170047  0.1247804244849247
  0.5672352546914657  0.0491348223759953  0.7888475659189361
  0.1857151400239920  0.2874673740150481  0.2557218513162718
  0.8112207364105446  0.8755097198927212  0.4331000659963337
  0.5670128053110536  0.3769329834848692  0.7002369907070179
  0.0604940140587386  0.0292008183335095  0.1247012883741010
  0.3131843039174271  0.5414055669032033  0.6555149540980524
  0.5618342675858706  0.2084523429752574  0.3443947000731100
  0.1881527355401875  0.9578365707391854  0.6114304911727262
  0.3078216746361284  0.3736698756336832  0.2998463055398660
  0.4379709983294679  0.7913222800613370  0.6555003335039594
  0.1920790731276451  0.2985028511063020  0.7887088399115115
  0.0636494996582776  0.3637058341746829  0.1662706179609680
  0.6920410981745283  0.6263120328320610  0.7002017742759421
  0.3118452235368269  0.5420322297045271  0.3885421407480240
  0.0652571789803694  0.7193083837908814  0.8756873880491474
  0.9368786495548470  0.6366139342133025  0.8341298988123750
  0.3178909162108270  0.5492334757245905  0.7887819738738950
  0.3075119275909373  0.2012666370626549  0.2114594040060906
  0.0637314470840574  0.7087770005575265  0.4779047381791335
  0.5574893942893901  0.2010843787277234  0.2114393150864397
  0.3140226245533966  0.2134487263668648  0.7443084342043422
  0.0668944701795642  0.3766228918512113  0.7002645343772373
  0.1866883624180185  0.6367972745633226  0.8339017525582550
  0.0671617944825790  0.0488642301185381  0.7887817184427097
  0.4388906986138331  0.1244001506160690  0.5666463634571280
  0.9381624321940771  0.2916921420616508  0.6554967054264599
  0.8073557439812826  0.2011420926377990  0.2113498071919722
  0.9322791098557583  0.9516376545194242  0.2112425530011894
  0.9389496636109133  0.6246890089794909  0.5667020043430556
  0.8114356116890528  0.3864583845306441  0.8341327063310419
  0.1920277234207298  0.6264388289077610  0.7002167235288925
  0.8112359553739606  0.8863431627870806  0.8341088470144652
  0.6884065848944830  0.2918568330758722  0.6555641871834837
  0.3132418357814097  0.2077699575264600  0.6114165315797829
  0.4388336041236521  0.4624197968482961  0.7442899400579157
  0.4368656343651397  0.7920859142568545  0.3885848484648101
  0.6892613194398988  0.9623211809915571  0.7445175369435906
  0.8072175029030099  0.7007606964642719  0.2114572332544943
  0.8133580499437691  0.7076968431011762  0.6112301523720036
  0.4346904498904916  0.7806522668353688  0.1243504743529763
  0.3137459518668908  0.7125647768669414  0.7442671522344066
  0.3180153857826968  0.0492267427258961  0.7889282910867178
  0.8121033275840002  0.5422513764704702  0.3885802596185975
  0.6866882214119213  0.2905416833906615  0.5220456530744868
  0.6923653299699267  0.7990761797444434  0.7887116133403957
  0.1857093813641863  0.7870888009812692  0.2556694591270134
  0.6880796417445545  0.1128100725141128  0.1663001842882769
  0.6883891458431758  0.9589676058907234  0.4778919892489533
  0.9367666769190105  0.9590629070075435  0.3443198017000308
  0.8113713004056297  0.0402904441754424  0.5220344047251169
  0.6858533979636412  0.6251935601606833  0.4331296665840413
  0.4368476048798109  0.4589071941042210  0.3443526896071641
  0.8150969868944737  0.2131327548204476  0.7443894984771913
  0.4390483111369923  0.9715299919689218  0.8754309236431117
  0.5639762671222396  0.8744334839347981  0.5666177981316592
  0.8107960342524083  0.0293344489954686  0.1243669118195604
  0.4330824185928885  0.6235425496752464  0.2997919971873808
  0.8150206579819141  0.7195516836189294  0.8757247091923108
  0.6881961002182941  0.4578845580925930  0.6113809420813163
  0.5613474205903897  0.3868850899739281  0.8340061253261655
  0.8078003212989833  0.3737686220737208  0.2997755553945691
  0.1869781124449181  0.2920811141732608  0.3885266946917870
  0.8166453234570459  0.5491649812120816  0.7889841846437960
  0.1867641487021774  0.7906116363392279  0.5221592048096375
  0.3079399730772794  0.8736203426450114  0.2998253288969622
  0.1822255835387064  0.9514216961633328  0.2113211196557093
  0.1897024796798684  0.4628321604658412  0.7443584670049184
  0.4364497248804771  0.2904786099737159  0.5220289362534624
  0.0618051882484127  0.7084484067961703  0.3443049448301895
  0.1882494039639146  0.7909588252006901  0.6554461590617708
  0.4423864734228291  0.7991519793162942  0.7886403971496924
  0.6856745196511178  0.1252381092396102  0.4331655299603751
  0.9366554172729995  0.7902374634306005  0.5220744735682620
  0.6882098297534538  0.6135437537673538  0.1662257187106169
  0.8119146941185927  0.7084640183151365  0.3443236052025205
  0.9396312590824458  0.4628095799120552  0.7442693157321124
  0.1869212161564079  0.4586253399211496  0.3443338257339788
  0.5677675644099169  0.5484566592153434  0.7888569621982153
  0.5620278506028188  0.3633503144206083  0.1662251937016641
  0.5618592385781339  0.7085227057641030  0.3444000748149145
  0.5579451289518458  0.3737651014506930  0.2998070613079183
  0.1888448672035177  0.4711627998010577  0.8754501178573001
  0.1882143864370033  0.1150608534164399  0.1662144456081125
  0.4423613264406290  0.2984728859510724  0.7885522020634739
  0.6857873850716913  0.7873806395412261  0.2557113379803938
  0.9370948440639644  0.1362810483066173  0.8338478409915081
  0.4385732142614194  0.9587737501427692  0.4778723941378413
  0.5653949409297866  0.7199639883805686  0.8756202976678695
  0.1883208058065115  0.4589569572056268  0.4778594298564912
  0.9348422921892219  0.2807998183511501  0.1246112623830715
  0.3118462639118794  0.0422522482084831  0.3885652663950703
  0.0630885196796087  0.0411911028786919  0.6556140878726735
  0.5612681206994928  0.3747736334360367  0.4331075826279475
  0.6887271518275488  0.4621730183647949  0.7443207640143574
  0.3118883662810489  0.3636366054030292  0.1662996740092553
  0.9424016729371016  0.1269238988738803  0.7002300477940298
  0.5633522732485179  0.0414958995481494  0.6554558568047005
  0.5615399657366396  0.5406895529825533  0.5219906914468523
  0.1830213676201466  0.1235064525042618  0.2997450479459565
  0.4379961847117551  0.1136626521278045  0.1663224361189198
  0.6831440703817543  0.6234062827446464  0.2997918261412871
  0.9330430385793568  0.1232155656630345  0.2997139172143250
  0.8138615404097678  0.3743262359022017  0.5666893486768914
  0.0579435835142151  0.8735130341918845  0.2997698614908039
  0.1889533015223603  0.6244631311330553  0.5667656007235314
  0.9414565066875968  0.7988955223411883  0.7888116096226949
  0.3115818158430149  0.3867612038467265  0.8341188693611935
  0.9390968177785414  0.4714879807617578  0.8754155880768089
  0.4367369081473653  0.6367618442633457  0.8340052672909295
  0.0619378316214485  0.2088622496792345  0.3444134302484783
  0.1887444174370081  0.9713190571838120  0.8754430306078317
  0.9347665225779960  0.7812016327003464  0.1242126911952088
  0.6869614532568715  0.7920693136970737  0.3885498632805235
  0.9382809727866874  0.7910440991550680  0.6555101527104061
  0.9383924519356053  0.1140188444032569  0.1661430866364931
  0.4383059875977857  0.2918272096342241  0.6555564195721238
  0.0575728174514214  0.2013703111906838  0.2113610248606965
  0.6825850989277122  0.9519606485092954  0.2113160905930259
  0.1829955209564076  0.6237865706584538  0.2997777471290959
  0.8174794551886760  0.8765859971101650  0.7001594389748836
  0.9422358401420741  0.6261134250807081  0.7002588317842721
  0.1920126382713812  0.1268986545817506  0.7002124675639214
  0.9387592104221107  0.4588291242126739  0.4778925788309030
  0.8130130960522216  0.2075584576432581  0.6113575504003749
  0.1865596865650316  0.6252662737733903  0.4331140073467735
  0.4329829470522862  0.1235269387304444  0.2997751529012965
  0.6829899772545253  0.1232998591035025  0.2997374982197593
  0.5617595432721950  0.5419688896529806  0.3885391622214594
  0.8117452513473045  0.2087664111852303  0.3444145547732803
  0.4390976008642334  0.4714314389899099  0.8752730581402450
  0.5614664248985264  0.8863957031267351  0.8341560780559100
  0.3136673725389306  0.2089240443782996  0.4778837082387568
  0.1885376337863899  0.9587588429937433  0.4778786553097301
  0.0615316807684492  0.8862909314048819  0.8340890918130184
  0.0616009434684756  0.5404413792392377  0.5220334510725030
  0.9386679489131103  0.9585940295090797  0.4778228013842788
  0.0631385200882352  0.7077447958902691  0.6113540219507794
  0.5614916573907694  0.0406537663013393  0.5220417737226902
  0.6923192745409029  0.2982810800500102  0.7887433054663924
  0.8134871535182006  0.3631820333725386  0.1661868027986841
  0.4362069455296613  0.1251031387452504  0.4331397257393818
  0.0636758038821046  0.2085829669198017  0.4778594674041120
  0.3131375934456317  0.0410852232867023  0.6554789615068923
  0.4365372202298931  0.7905201923252906  0.5220080728673866
  0.1873829326351645  0.1367330926050838  0.8339428125702002
  0.1851362260715635  0.2801512386821866  0.1245794098287564
  0.9368429016255407  0.4589344879052734  0.3443092606409674
  0.3132400906255259  0.8639871710083906  0.1663094480849893
  0.3076242025604939  0.7015568615196006  0.2114555445965367
  0.9376434667579110  0.6124940563349663  0.1662009266309635
  0.1880499087913729  0.4575001418121980  0.6114123667831842
  0.0674379875851692  0.8766838059136729  0.7001113428827379
  0.0631240154775282  0.5414018538762746  0.6556523780030031
  0.3107958456626187  0.5287233225306092  0.1247977811848156
  0.9369456455566408  0.7922062109582162  0.3885599272991946
  0.9419441420218505  0.2983408432904284  0.7887292307134453
  0.1878707745740754  0.2914448790541479  0.6555857329407689
  0.9378973007946203  0.9575408903457344  0.6114604047170965
  0.8146310687292015  0.7131665470943387  0.7444639953179124
  0.6859125246696576  0.2870213663425271  0.2556525886142420
  0.0651612453448200  0.7128252782008246  0.7442554056233697
  0.6825686265218712  0.4515730089226406  0.2111922333065435
  0.8134296785614379  0.2085944050037805  0.4778745457149701
  0.5636177826329677  0.7089169426859875  0.4778998567974876
  0.0623462577423835  0.8639908190092771  0.1662296131388385
  0.9365724642752019  0.2901755599328628  0.5221492922401034
  0.6876261962955403  0.7914648548800796  0.6555819313122494
  0.0613482849985827  0.8750266441535995  0.4331039642090906
  0.0655012181020481  0.2189858451572535  0.8757334388691705
  0.8133831405674142  0.0411748138986380  0.6554069701444739
  0.5610460245593151  0.0289350111111259  0.1244493365176114
  0.3111980409431656  0.3747908523218577  0.4331175107123824
  0.3138465470852252  0.3745274798878277  0.5666345532003485
  0.3136114569324825  0.7089035652283256  0.4778554070273974
  0.0615889918899758  0.0403171933004293  0.5220153211509266
  0.3165123627066739  0.8761267487962070  0.7001372609465971
  0.0607455976657510  0.5375213514744532  0.2556239519128160
  0.6869458020230073  0.1370203858115295  0.8339760584788739
  0.8104051855354112  0.0375482950492944  0.2557334793674827
  0.1867824886317238  0.1251237472388403  0.4331271972853770
  0.6922414552030297  0.1266518026763536  0.7000656104349117
  0.1864956641874670  0.2905890754647409  0.5220753999708702
  0.4358097941201609  0.7871342115177441  0.2557318310268131
  0.8106554986624063  0.5376310190040526  0.2555941532562864
  0.0630205360158313  0.2077306568616710  0.6113678325382952
  0.1867702821104875  0.7920846273663008  0.3886079179313293
  0.3115149004976471  0.5404623517605505  0.5220669147424623
  0.8172257964033394  0.3771740277965116  0.7002663599863665
  0.6867329258802302  0.2921661112691241  0.3885538644213712
  0.1888939230607139  0.1243999103624668  0.5666708203667722
  0.6888187655223831  0.9716222044818110  0.8754216971619552
  0.6888185507257519  0.1245534866338868  0.5666673443485248
  0.4369108808393078  0.9588343595199136  0.3444246943289984
  0.1889205153177549  0.9620885840604008  0.7444104356130194
  0.9355886292353637  0.7872759647449902  0.2556808306664818
  0.5612576213856613  0.8755829333178867  0.4331593578184297
  0.3111788493996598  0.8754795758051124  0.4331279438831747
  0.8116501313968453  0.5403970838924202  0.5220692271436467
  0.9325844169552832  0.4516081063216247  0.2112467423834281
  0.3111360754689696  0.5373658779419309  0.2556302621826261
  0.5616854374427315  0.0422216600923140  0.3885084724269299
  0.9381287240902852  0.4573904076811952  0.6114278026896613
  0.0619241694650460  0.0423515621790390  0.3885779566622534
  0.0619003917946626  0.5420561647097818  0.3885603341294783
  0.4369352360511981  0.2920539027343975  0.3885399942017763
  0.6886638195484397  0.4588380764466948  0.4779082673340103
  0.0639878021756729  0.3744130603792861  0.5666957037752440
  0.5579381107689599  0.7009871542915038  0.2114371012322013
  0.9358648391700024  0.2873906522218254  0.2556832043992290
  0.8168549703133213  0.0492757994336012  0.7888143462336994
  0.1868159706656922  0.9587652515167026  0.3443643111016599
  0.5579849987197634  0.8736097094681479  0.2997910957540050
  0.0615025260601423  0.3751849589438213  0.4330790058278761
  0.3119512777976949  0.7085119204668121  0.3443520014992865
  0.3117983722387785  0.2085601653837106  0.3444039449388517
  0.9388810996985540  0.1246212525362854  0.5666486937204407
  0.4382482313776009  0.9578506882465189  0.6113712036673837
  0.5607916054582415  0.0377805584183789  0.2557510753696751
  0.1852331869556663  0.7810898366025216  0.1247010369628642
  0.0606299305480153  0.0377702372439482  0.2556658139559809
  0.6888630517520582  0.6244981387536804  0.5667116887092285
  0.4388060311809323  0.6131305997599665  0.1661298048692783
  0.3116910881647991  0.0404985376883404  0.5220626490997208
  0.6849969459147822  0.2811770180695766  0.1246054491607470
  0.8136423511501661  0.7088117171451151  0.4778997410812328
  0.4373340281687320  0.1364168189063109  0.8338994571074290
  0.3168826760884482  0.3764200406005945  0.7002026240648033
  0.6874148746288145  0.6367248575145499  0.8339098596001965
  0.5640510841210491  0.7124540515227276  0.7444334434450297
  0.9369318194599420  0.2922628422561201  0.3885674388297118
  0.9393279813253950  0.9713217313672728  0.8754171255085432
  0.5631430568626257  0.2077087960210559  0.6112876118590402
  0.8137286835934548  0.8744753851339406  0.5667482263792145
  0.8080543831122240  0.8736717303339239  0.2997530633172449
  0.3110911103552217  0.0377741485824563  0.2557354675910615
  0.4350179797569935  0.2806124661774247  0.1246364081114225
  0.3130410983958638  0.7077488394347505  0.6113183831854415
  0.4359254811584392  0.6252400772786095  0.4331196752874729
  0.9361857029218461  0.6251100017111000  0.4331532345017323
  0.5625655517678874  0.8637903089678014  0.1659335262673932
  0.0678187362715422  0.5488267493787758  0.7886118882689084
  0.8146954498401876  0.8637918463316481  0.1658389197328334
  0.5638211869706989  0.2128639827279535  0.7444225368261619
  0.9386808165367604  0.9627825263895565  0.7445433039533155
  0.5675599763439413  0.8766034561012086  0.7002036402431759
 
  0.00000000E+00  0.00000000E+00  0.00000000E+00
  0.00000000E+00  0.00000000E+00  0.00000000E+00
  0.00000000E+00  0.00000000E+00  0.00000000E+00
  0.00000000E+00  0.00000000E+00  0.00000000E+00
  0.00000000E+00  0.00000000E+00  0.00000000E+00
  0.00000000E+00  0.00000000E+00  0.00000000E+00
  0.00000000E+00  0.00000000E+00  0.00000000E+00
  0.00000000E+00  0.00000000E+00  0.00000000E+00
  0.00000000E+00  0.00000000E+00  0.00000000E+00
  0.00000000E+00  0.00000000E+00  0.00000000E+00
  0.00000000E+00  0.00000000E+00  0.00000000E+00
  0.00000000E+00  0.00000000E+00  0.00000000E+00
  0.00000000E+00  0.00000000E+00  0.00000000E+00
  0.00000000E+00  0.00000000E+00  0.00000000E+00
  0.00000000E+00  0.00000000E+00  0.00000000E+00
  0.00000000E+00  0.00000000E+00  0.00000000E+00
  0.00000000E+00  0.00000000E+00  0.00000000E+00
  0.00000000E+00  0.00000000E+00  0.00000000E+00
  0.00000000E+00  0.00000000E+00  0.00000000E+00
  0.00000000E+00  0.00000000E+00  0.00000000E+00
  0.00000000E+00  0.00000000E+00  0.00000000E+00
  0.00000000E+00  0.00000000E+00  0.00000000E+00
  0.00000000E+00  0.00000000E+00  0.00000000E+00
  0.00000000E+00  0.00000000E+00  0.00000000E+00
  0.00000000E+00  0.00000000E+00  0.00000000E+00
  0.00000000E+00  0.00000000E+00  0.00000000E+00
  0.00000000E+00  0.00000000E+00  0.00000000E+00
  0.00000000E+00  0.00000000E+00  0.00000000E+00
  0.00000000E+00  0.00000000E+00  0.00000000E+00
  0.00000000E+00  0.00000000E+00  0.00000000E+00
  0.00000000E+00  0.00000000E+00  0.00000000E+00
  0.00000000E+00  0.00000000E+00  0.00000000E+00
  0.00000000E+00  0.00000000E+00  0.00000000E+00
  0.00000000E+00  0.00000000E+00  0.00000000E+00
  0.00000000E+00  0.00000000E+00  0.00000000E+00
  0.00000000E+00  0.00000000E+00  0.00000000E+00
  0.00000000E+00  0.00000000E+00  0.00000000E+00
  0.00000000E+00  0.00000000E+00  0.00000000E+00
  0.00000000E+00  0.00000000E+00  0.00000000E+00
  0.00000000E+00  0.00000000E+00  0.00000000E+00
  0.00000000E+00  0.00000000E+00  0.00000000E+00
  0.00000000E+00  0.00000000E+00  0.00000000E+00
  0.00000000E+00  0.00000000E+00  0.00000000E+00
  0.00000000E+00  0.00000000E+00  0.00000000E+00
  0.00000000E+00  0.00000000E+00  0.00000000E+00
  0.00000000E+00  0.00000000E+00  0.00000000E+00
  0.00000000E+00  0.00000000E+00  0.00000000E+00
  0.00000000E+00  0.00000000E+00  0.00000000E+00
  0.00000000E+00  0.00000000E+00  0.00000000E+00
  0.00000000E+00  0.00000000E+00  0.00000000E+00
  0.00000000E+00  0.00000000E+00  0.00000000E+00
  0.00000000E+00  0.00000000E+00  0.00000000E+00
  0.00000000E+00  0.00000000E+00  0.00000000E+00
  0.00000000E+00  0.00000000E+00  0.00000000E+00
  0.00000000E+00  0.00000000E+00  0.00000000E+00
  0.00000000E+00  0.00000000E+00  0.00000000E+00
  0.00000000E+00  0.00000000E+00  0.00000000E+00
  0.00000000E+00  0.00000000E+00  0.00000000E+00
  0.00000000E+00  0.00000000E+00  0.00000000E+00
  0.00000000E+00  0.00000000E+00  0.00000000E+00
  0.00000000E+00  0.00000000E+00  0.00000000E+00
  0.00000000E+00  0.00000000E+00  0.00000000E+00
  0.00000000E+00  0.00000000E+00  0.00000000E+00
  0.00000000E+00  0.00000000E+00  0.00000000E+00
  0.00000000E+00  0.00000000E+00  0.00000000E+00
  0.00000000E+00  0.00000000E+00  0.00000000E+00
  0.00000000E+00  0.00000000E+00  0.00000000E+00
  0.00000000E+00  0.00000000E+00  0.00000000E+00
  0.00000000E+00  0.00000000E+00  0.00000000E+00
  0.00000000E+00  0.00000000E+00  0.00000000E+00
  0.00000000E+00  0.00000000E+00  0.00000000E+00
  0.00000000E+00  0.00000000E+00  0.00000000E+00
  0.00000000E+00  0.00000000E+00  0.00000000E+00
  0.00000000E+00  0.00000000E+00  0.00000000E+00
  0.00000000E+00  0.00000000E+00  0.00000000E+00
  0.00000000E+00  0.00000000E+00  0.00000000E+00
  0.00000000E+00  0.00000000E+00  0.00000000E+00
  0.00000000E+00  0.00000000E+00  0.00000000E+00
  0.00000000E+00  0.00000000E+00  0.00000000E+00
  0.00000000E+00  0.00000000E+00  0.00000000E+00
  0.00000000E+00  0.00000000E+00  0.00000000E+00
  0.00000000E+00  0.00000000E+00  0.00000000E+00
  0.00000000E+00  0.00000000E+00  0.00000000E+00
  0.00000000E+00  0.00000000E+00  0.00000000E+00
  0.00000000E+00  0.00000000E+00  0.00000000E+00
  0.00000000E+00  0.00000000E+00  0.00000000E+00
  0.00000000E+00  0.00000000E+00  0.00000000E+00
  0.00000000E+00  0.00000000E+00  0.00000000E+00
  0.00000000E+00  0.00000000E+00  0.00000000E+00
  0.00000000E+00  0.00000000E+00  0.00000000E+00
  0.00000000E+00  0.00000000E+00  0.00000000E+00
  0.00000000E+00  0.00000000E+00  0.00000000E+00
  0.00000000E+00  0.00000000E+00  0.00000000E+00
  0.00000000E+00  0.00000000E+00  0.00000000E+00
  0.00000000E+00  0.00000000E+00  0.00000000E+00
  0.00000000E+00  0.00000000E+00  0.00000000E+00
  0.00000000E+00  0.00000000E+00  0.00000000E+00
  0.00000000E+00  0.00000000E+00  0.00000000E+00
  0.00000000E+00  0.00000000E+00  0.00000000E+00
  0.00000000E+00  0.00000000E+00  0.00000000E+00
  0.00000000E+00  0.00000000E+00  0.00000000E+00
  0.00000000E+00  0.00000000E+00  0.00000000E+00
  0.00000000E+00  0.00000000E+00  0.00000000E+00
  0.00000000E+00  0.00000000E+00  0.00000000E+00
  0.00000000E+00  0.00000000E+00  0.00000000E+00
  0.00000000E+00  0.00000000E+00  0.00000000E+00
  0.00000000E+00  0.00000000E+00  0.00000000E+00
  0.00000000E+00  0.00000000E+00  0.00000000E+00
  0.00000000E+00  0.00000000E+00  0.00000000E+00
  0.00000000E+00  0.00000000E+00  0.00000000E+00
  0.00000000E+00  0.00000000E+00  0.00000000E+00
  0.00000000E+00  0.00000000E+00  0.00000000E+00
  0.00000000E+00  0.00000000E+00  0.00000000E+00
  0.00000000E+00  0.00000000E+00  0.00000000E+00
  0.00000000E+00  0.00000000E+00  0.00000000E+00
  0.00000000E+00  0.00000000E+00  0.00000000E+00
  0.00000000E+00  0.00000000E+00  0.00000000E+00
  0.00000000E+00  0.00000000E+00  0.00000000E+00
  0.00000000E+00  0.00000000E+00  0.00000000E+00
  0.00000000E+00  0.00000000E+00  0.00000000E+00
  0.00000000E+00  0.00000000E+00  0.00000000E+00
  0.00000000E+00  0.00000000E+00  0.00000000E+00
  0.00000000E+00  0.00000000E+00  0.00000000E+00
  0.00000000E+00  0.00000000E+00  0.00000000E+00
  0.00000000E+00  0.00000000E+00  0.00000000E+00
  0.00000000E+00  0.00000000E+00  0.00000000E+00
  0.00000000E+00  0.00000000E+00  0.00000000E+00
  0.00000000E+00  0.00000000E+00  0.00000000E+00
  0.00000000E+00  0.00000000E+00  0.00000000E+00
  0.00000000E+00  0.00000000E+00  0.00000000E+00
  0.00000000E+00  0.00000000E+00  0.00000000E+00
  0.00000000E+00  0.00000000E+00  0.00000000E+00
  0.00000000E+00  0.00000000E+00  0.00000000E+00
  0.00000000E+00  0.00000000E+00  0.00000000E+00
  0.00000000E+00  0.00000000E+00  0.00000000E+00
  0.00000000E+00  0.00000000E+00  0.00000000E+00
  0.00000000E+00  0.00000000E+00  0.00000000E+00
  0.00000000E+00  0.00000000E+00  0.00000000E+00
  0.00000000E+00  0.00000000E+00  0.00000000E+00
  0.00000000E+00  0.00000000E+00  0.00000000E+00
  0.00000000E+00  0.00000000E+00  0.00000000E+00
  0.00000000E+00  0.00000000E+00  0.00000000E+00
  0.00000000E+00  0.00000000E+00  0.00000000E+00
  0.00000000E+00  0.00000000E+00  0.00000000E+00
  0.00000000E+00  0.00000000E+00  0.00000000E+00
  0.00000000E+00  0.00000000E+00  0.00000000E+00
  0.00000000E+00  0.00000000E+00  0.00000000E+00
  0.00000000E+00  0.00000000E+00  0.00000000E+00
  0.00000000E+00  0.00000000E+00  0.00000000E+00
  0.00000000E+00  0.00000000E+00  0.00000000E+00
  0.00000000E+00  0.00000000E+00  0.00000000E+00
  0.00000000E+00  0.00000000E+00  0.00000000E+00
  0.00000000E+00  0.00000000E+00  0.00000000E+00
  0.00000000E+00  0.00000000E+00  0.00000000E+00
  0.00000000E+00  0.00000000E+00  0.00000000E+00
  0.00000000E+00  0.00000000E+00  0.00000000E+00
  0.00000000E+00  0.00000000E+00  0.00000000E+00
  0.00000000E+00  0.00000000E+00  0.00000000E+00
  0.00000000E+00  0.00000000E+00  0.00000000E+00
  0.00000000E+00  0.00000000E+00  0.00000000E+00
  0.00000000E+00  0.00000000E+00  0.00000000E+00
  0.00000000E+00  0.00000000E+00  0.00000000E+00
  0.00000000E+00  0.00000000E+00  0.00000000E+00
  0.00000000E+00  0.00000000E+00  0.00000000E+00
  0.00000000E+00  0.00000000E+00  0.00000000E+00
  0.00000000E+00  0.00000000E+00  0.00000000E+00
  0.00000000E+00  0.00000000E+00  0.00000000E+00
  0.00000000E+00  0.00000000E+00  0.00000000E+00
  0.00000000E+00  0.00000000E+00  0.00000000E+00
  0.00000000E+00  0.00000000E+00  0.00000000E+00
  0.00000000E+00  0.00000000E+00  0.00000000E+00
  0.00000000E+00  0.00000000E+00  0.00000000E+00
  0.00000000E+00  0.00000000E+00  0.00000000E+00
  0.00000000E+00  0.00000000E+00  0.00000000E+00
  0.00000000E+00  0.00000000E+00  0.00000000E+00
  0.00000000E+00  0.00000000E+00  0.00000000E+00
  0.00000000E+00  0.00000000E+00  0.00000000E+00
  0.00000000E+00  0.00000000E+00  0.00000000E+00
  0.00000000E+00  0.00000000E+00  0.00000000E+00
  0.00000000E+00  0.00000000E+00  0.00000000E+00
  0.00000000E+00  0.00000000E+00  0.00000000E+00
  0.00000000E+00  0.00000000E+00  0.00000000E+00
  0.00000000E+00  0.00000000E+00  0.00000000E+00
  0.00000000E+00  0.00000000E+00  0.00000000E+00
  0.00000000E+00  0.00000000E+00  0.00000000E+00
  0.00000000E+00  0.00000000E+00  0.00000000E+00
  0.00000000E+00  0.00000000E+00  0.00000000E+00
  0.00000000E+00  0.00000000E+00  0.00000000E+00
  0.00000000E+00  0.00000000E+00  0.00000000E+00
  0.00000000E+00  0.00000000E+00  0.00000000E+00
  0.00000000E+00  0.00000000E+00  0.00000000E+00
  0.00000000E+00  0.00000000E+00  0.00000000E+00
  0.00000000E+00  0.00000000E+00  0.00000000E+00
  0.00000000E+00  0.00000000E+00  0.00000000E+00
  0.00000000E+00  0.00000000E+00  0.00000000E+00
  0.00000000E+00  0.00000000E+00  0.00000000E+00
  0.00000000E+00  0.00000000E+00  0.00000000E+00
  0.00000000E+00  0.00000000E+00  0.00000000E+00
  0.00000000E+00  0.00000000E+00  0.00000000E+00
  0.00000000E+00  0.00000000E+00  0.00000000E+00
  0.00000000E+00  0.00000000E+00  0.00000000E+00
  0.00000000E+00  0.00000000E+00  0.00000000E+00
  0.00000000E+00  0.00000000E+00  0.00000000E+00
  0.00000000E+00  0.00000000E+00  0.00000000E+00
  0.00000000E+00  0.00000000E+00  0.00000000E+00
  0.00000000E+00  0.00000000E+00  0.00000000E+00
  0.00000000E+00  0.00000000E+00  0.00000000E+00
  0.00000000E+00  0.00000000E+00  0.00000000E+00
  0.00000000E+00  0.00000000E+00  0.00000000E+00
  0.00000000E+00  0.00000000E+00  0.00000000E+00
  0.00000000E+00  0.00000000E+00  0.00000000E+00
  0.00000000E+00  0.00000000E+00  0.00000000E+00
  0.00000000E+00  0.00000000E+00  0.00000000E+00
  0.00000000E+00  0.00000000E+00  0.00000000E+00
  0.00000000E+00  0.00000000E+00  0.00000000E+00
  0.00000000E+00  0.00000000E+00  0.00000000E+00
  0.00000000E+00  0.00000000E+00  0.00000000E+00
  0.00000000E+00  0.00000000E+00  0.00000000E+00
  0.00000000E+00  0.00000000E+00  0.00000000E+00
  0.00000000E+00  0.00000000E+00  0.00000000E+00
  0.00000000E+00  0.00000000E+00  0.00000000E+00
  0.00000000E+00  0.00000000E+00  0.00000000E+00
  0.00000000E+00  0.00000000E+00  0.00000000E+00
  0.00000000E+00  0.00000000E+00  0.00000000E+00
  0.00000000E+00  0.00000000E+00  0.00000000E+00
  0.00000000E+00  0.00000000E+00  0.00000000E+00
  0.00000000E+00  0.00000000E+00  0.00000000E+00
  0.00000000E+00  0.00000000E+00  0.00000000E+00
  0.00000000E+00  0.00000000E+00  0.00000000E+00
  0.00000000E+00  0.00000000E+00  0.00000000E+00
  0.00000000E+00  0.00000000E+00  0.00000000E+00
  0.00000000E+00  0.00000000E+00  0.00000000E+00
  0.00000000E+00  0.00000000E+00  0.00000000E+00
  0.00000000E+00  0.00000000E+00  0.00000000E+00
  0.00000000E+00  0.00000000E+00  0.00000000E+00
  0.00000000E+00  0.00000000E+00  0.00000000E+00
  0.00000000E+00  0.00000000E+00  0.00000000E+00
  0.00000000E+00  0.00000000E+00  0.00000000E+00
  0.00000000E+00  0.00000000E+00  0.00000000E+00
  0.00000000E+00  0.00000000E+00  0.00000000E+00
  0.00000000E+00  0.00000000E+00  0.00000000E+00
  0.00000000E+00  0.00000000E+00  0.00000000E+00
  0.00000000E+00  0.00000000E+00  0.00000000E+00
  0.00000000E+00  0.00000000E+00  0.00000000E+00
  0.00000000E+00  0.00000000E+00  0.00000000E+00
  0.00000000E+00  0.00000000E+00  0.00000000E+00
  0.00000000E+00  0.00000000E+00  0.00000000E+00