CuInSe2gb                               
   1.00000000000000     
     9.7266780392896699    0.0000000000000000    0.0000000000000000
     0.0000000000000000    8.4235502764570693    0.0000000000000000
     0.0000000000000000    0.0000000000000000   45.0000000000000000
   Fe   Mn
   281     7
Direct
  0.0533864117255858  0.7019036903573360  0.2114395889291543
  0.3182436959446654  0.7237070973757830  0.8761687808332135
  0.6876576149938848  0.9579556586515467  0.6112820066840009
  0.4377639164370609  0.4579460072370848  0.6112709689621874
  0.4400813745841398  0.2880954598325312  0.2554673813074071
  0.0586116969636201  0.3879269254798564  0.8334852524510348
  0.3085879479442284  0.8875389523578257  0.8335214488837611
  0.4472684834219651  0.6261623907959296  0.7001153923789307
  0.0603784887129916  0.2122865186692482  0.7448202160388314
  0.1785309181953829  0.4510910139786045  0.2113402823102984
  0.5678816110546814  0.2106853022579134  0.4774864683884051
  0.0667473327298252  0.8749927037041978  0.5667578138531865
  0.5678974947119645  0.2238216877052680  0.8760822030403584
  0.8106167355262545  0.5318690905762177  0.1242558618821026
  0.4281768336122372  0.9512752588548400  0.2114625100243829
  0.5666419340696097  0.3750160799510143  0.5668712777148275
  0.8122287873836588  0.0418939853445800  0.3886044478978334
  0.6821469537195525  0.7882744421960454  0.5223368846202681
  0.4427590034057923  0.4608141118689489  0.4774716518820911
  0.4349212630829036  0.9619869007691453  0.7445580302750798
  0.4420575697989038  0.6248520932984966  0.5667248481636223
  0.0607752687510778  0.5309684459130758  0.1242587799967778
  0.3101515505804779  0.0318311955947297  0.1242813012273275
  0.6902870939422101  0.9592842162911321  0.3441878109747109
  0.6821061711148948  0.7778082364447455  0.1240454336703897
  0.0526946004761760  0.3739019438496979  0.2997550291524398
  0.6894719422633658  0.4674417594239305  0.8758938585098397
  0.4285559673342081  0.4510462491632047  0.2113244282839717
  0.8084571540888259  0.3751338217028101  0.4331189274659566
  0.5627593465679244  0.7081526005668314  0.6114073558068972
  0.5598376837941677  0.5414932158232879  0.6556972440352623
  0.9334345736878742  0.1250143799805618  0.4331050884073602
  0.5656974860173841  0.5376451668030170  0.2554581079422032
  0.6902418197326340  0.4593192606837521  0.3441669355750585
  0.1914503194925538  0.6120135746341440  0.1667398833923265
  0.1957197919438444  0.7988892721972396  0.7887384035375918
  0.4472316124448952  0.1260910178558437  0.7001401733009328
  0.9278216150198684  0.6236639692781504  0.2996587239707130
  0.3180483702060741  0.2236341036129903  0.8760677660885801
  0.3169220880408267  0.8744567907417017  0.5667842577942959
  0.8174929950873462  0.2233024318524366  0.8761126278716759
  0.8096630371627113  0.5410577960077401  0.6557090426122890
  0.5589378183677631  0.5314475258053132  0.1242224070505019
  0.5704238280927993  0.0494847706072110  0.7887019396317360
  0.1899111518743521  0.2882415614394367  0.2554705876313978
  0.8085405254195548  0.8750244411147879  0.4331042682748369
  0.5721756816371039  0.3761975745141722  0.7002195619343362
  0.0606473000770377  0.0315760361026591  0.1241478099233057
  0.3096570407307908  0.5408333661545373  0.6557964326013502
  0.5653727512815961  0.2094645976970991  0.3441485761709916
  0.1877054493462957  0.9581987541783547  0.6113258584107132
  0.3027003363933681  0.3739365282187151  0.2997478005625148
  0.4343898140924298  0.7910435041830391  0.6556983279095526
  0.1961106246360022  0.2982654191724881  0.7886155961948772
  0.0662956552417618  0.3623655419743422  0.1665370715696715
  0.6967225367887865  0.6264559061929184  0.7003955478092012
  0.3122378739185159  0.5418082216404929  0.3885808898035732
  0.0678706435798543  0.7231139547387442  0.8761211609663929
  0.9336224223559045  0.6374505530540118  0.8336452290627381
  0.3203753844987812  0.5493951094289540  0.7888204780705915
  0.3033947411262445  0.2018775534310345  0.2114375085330101
  0.0680251923625224  0.7107068513796745  0.4774581616500040
  0.5535356981114312  0.2014693610492853  0.2114488620401809
  0.3109982751800884  0.2115705484808835  0.7446393639705723
  0.0721228684934090  0.3762871972303706  0.7003272413199156
  0.1832967551126134  0.6375578480988519  0.8335018072408792
  0.0712028459162925  0.0488424318044113  0.7888106944396452
  0.4417327270125764  0.1249190997407024  0.5668443163472724
  0.9346537051657415  0.2910182577479873  0.6557416365541350
  0.8036783421296552  0.2015055396467084  0.2113708235444034
  0.9289230035997554  0.9510802550989925  0.2113357684464565
  0.9415815740183234  0.6250127429846248  0.5668697028461025
  0.8084461191906696  0.3878203860597325  0.8335041339776489
  0.1970897881939842  0.6258294969788196  0.7000326646336490
  0.8085496432525283  0.8877473094610731  0.8335257814950935
  0.6848004427580341  0.2907597545054718  0.6558137532322379
  0.3126109464607080  0.2079422416157844  0.6112849707331941
  0.4357333695606238  0.4623898671081075  0.7444976124541453
  0.4370653235533757  0.7918220456861585  0.3885152201231146
  0.6849596710477732  0.9627014557081105  0.7445804243781555
  0.8033418764609175  0.7018314325921422  0.2114534473010139
  0.8129241352371874  0.7079042945100502  0.6113289021743089
  0.4321168332772279  0.7782167018391654  0.1242061969304366
  0.3106312013819109  0.7114881832866751  0.7445668607697061
  0.3207701606623663  0.0494544832144530  0.7887828574259049
  0.8119421095920967  0.5417280658725118  0.3884298982112105
  0.6824113118212379  0.2882164664139563  0.5223341881045733
  0.6956322307326247  0.7989788171302316  0.7887514802127281
  0.1899645382878682  0.7881750809467655  0.2554694911980934
  0.6911582076998299  0.1116020633836504  0.1665553913662382
  0.6928225868177698  0.9606998034978320  0.4774499499419652
  0.9403729884299894  0.9594819877954275  0.3441380941691327
  0.8073287107149767  0.0382098911864436  0.5223989945830465
  0.6835092719879924  0.6249665810192314  0.4330871991669888
  0.4402649839566056  0.4592016329648176  0.3441864225883253
  0.8107372438008685  0.2121432040528892  0.7444799795538544
  0.4396643691544940  0.9677505437685239  0.8760461955466788
  0.5669031146029169  0.8748782595502785  0.5667111152261461
  0.8110089164737120  0.0315040740235529  0.1242954174689299
  0.4277867961336385  0.6238852977497646  0.2997134089563303
  0.8172460469327130  0.7233665987954376  0.8761178124575287
  0.6876692745718384  0.4581692081167071  0.6112459007311114
  0.5585899364466514  0.3877670092174703  0.8331916539729630
  0.8028301226546414  0.3737036599773373  0.2996768554610736
  0.1871305843834650  0.2918376973038179  0.3885267066197352
  0.8210825945847735  0.5489617901756176  0.7888342835407588
  0.1824397574024813  0.7883092335918694  0.5224580704514485
  0.3026877544631144  0.8739043223968314  0.2997493259351549
  0.1787359610998100  0.9513007468536679  0.2112820339576259
  0.1855287402534753  0.4622121468738266  0.7446108991683495
  0.4324203018768231  0.2882013401962253  0.5223361613906696
  0.0653731143143593  0.7095068881350389  0.3441459838134801
  0.1847464779462083  0.7905650953100540  0.6557808384513772
  0.4454977404768742  0.7989544575867524  0.7887554555080127
  0.6834094803286750  0.1249863822301501  0.4330687557541695
  0.9325074654501287  0.7882427245844791  0.5223562345678993
  0.6916200590128807  0.6126147366897301  0.1664952762295600
  0.8154471616691175  0.7095347912248707  0.3441253977155111
  0.9345807390258508  0.4625557362795212  0.7449553829890840
  0.1904077389363798  0.4594037120326839  0.3441551614472352
  0.5703150590990703  0.5493580417206616  0.7888752472843291
  0.5661591140712589  0.3621991257343818  0.1666391965035413
  0.5654027850661600  0.7095514610961509  0.3441299154952638
  0.5527392108192054  0.3740005912602498  0.2997376786126560
  0.1894609912247542  0.4674351761382237  0.8758979888828412
  0.1914398880402909  0.1124664947630022  0.1668659097880501
  0.4449950201376154  0.2987407492567640  0.7887694766988427
  0.6899936376648899  0.7883138342836109  0.2554633485630922
  0.9336439272360800  0.1375860703441647  0.8335125768267138
  0.4427932883100668  0.9607638293591705  0.4774578683342097
  0.5676354494702186  0.7241437940122368  0.8760797752919324
  0.1927455785038707  0.4607834246022583  0.4774678775473124
  0.9350027284715294  0.2793175577252943  0.1240880197322396
  0.3120993777334710  0.0418102944516629  0.3885490889597087
  0.0596318099463330  0.0405023188992165  0.6558866616442746
  0.5585137268791551  0.3749310840428053  0.4330880357266078
  0.6844689478397218  0.4624373704740873  0.7449566520018545
  0.3162473165661513  0.3625942418123589  0.1667486563050823
  0.9467259965400022  0.1267308980886258  0.7003494329829990
  0.5597425647082597  0.0408996670423800  0.6557588724280170
  0.5573403988998017  0.5382606755812425  0.5223907686342615
  0.1777838287076326  0.1237451487154923  0.2996908373304117
  0.4414657937606208  0.1122343474028693  0.1668364984980423
  0.6777406121076693  0.6238699147047053  0.2997167600857744
  0.9277361706314881  0.1239342911571511  0.2998304570072072
  0.8166932666044008  0.3750284519083523  0.5668310978654300
  0.0527684256638467  0.8739028732228464  0.2997994262282636
  0.1916682229183888  0.6248708347765660  0.5668686318907112
  0.9458838627634393  0.7991465892085865  0.7887347901109785
  0.3083647343533424  0.3875333598369650  0.8334927381320222
  0.9393813649040481  0.4677132140774509  0.8759067568956809
  0.4337354563794723  0.6379754919742514  0.8334907348900435
  0.0652534292152887  0.2093523962451826  0.3441013233931259
  0.1894367047008511  0.9673699961598304  0.8760180734334324
  0.9323267235384254  0.7788571874131752  0.1240202668409188
  0.6871254469313022  0.7918066417826922  0.3885529625079369
  0.9346867056977489  0.7907966044196318  0.6558134667250843
  0.9412953666043482  0.1115397655152961  0.1666659394916098
  0.4348042960991702  0.2906808186336225  0.6558719807991249
  0.0534847467502123  0.2017684831209709  0.2114327653883089
  0.6782823478036426  0.9513488393256654  0.2115617708278654
  0.1778264416203589  0.6236837465598803  0.2996551741805274
  0.8220975705597686  0.8760402891426849  0.7001840635255314
  0.9465959208095541  0.6262550967031740  0.7004206492391912
  0.1970575291589570  0.1260242705872635  0.7002265944521335
  0.9429274342793472  0.4606569910482848  0.4774373336650257
  0.8127414404645755  0.2080398382895435  0.6113481598001022
  0.1833790686924155  0.6249970383122802  0.4331128661094337
  0.4277069299317859  0.1239594235313145  0.2997370035814582
  0.6779269443693444  0.1241776380167065  0.2998042464716527
  0.5621311845090224  0.5417931056782137  0.3885722384549227
  0.8152431954380226  0.2094009830549950  0.3440984099198062
  0.4395555560691647  0.4676327935668912  0.8758556108933266
  0.5585484032822482  0.8874562828323140  0.8335111800475640
  0.3179037103954869  0.2105906667652446  0.4774692384313051
  0.1930224945669450  0.9607506704286319  0.4774884710362690
  0.0586084205090853  0.8878096576840464  0.8334329521443906
  0.0573496155351320  0.5383119741058826  0.5223292623349005
  0.9428428414873219  0.9606134051828821  0.4774016836689687
  0.0627350979287662  0.7077375171406085  0.6113319887853000
  0.5573532457855013  0.0382779058916275  0.5223359306520445
  0.6963062194679759  0.2986635756074445  0.7887182795111131
  0.8163757904645984  0.3621158009908195  0.1665066916070493
  0.4334080870891313  0.1249844076353684  0.4330946850873819
  0.0678917966167937  0.2106662404193618  0.4774561808020703
  0.3097458878352559  0.0406717933331529  0.6557401546669007
  0.4323317744291287  0.7882330624980960  0.5223561012996142
  0.1836673249632255  0.1376659345395479  0.8335554201020979
  0.1822171692096850  0.2777227668892477  0.1240539939695774
  0.9403358007331193  0.4593320007232378  0.3441927475116499
  0.3164746419419400  0.8624767520640966  0.1667251634632285
  0.3034499832977988  0.7018338778262950  0.2114515938722708
  0.9413098716709675  0.6123317203626614  0.1666232291204324
  0.1877174827114547  0.4581382564626120  0.6113484345474057
  0.0723671468145161  0.8761533205897305  0.7001282236634850
  0.0598346076767686  0.5405844217554958  0.6557880815288685
  0.3089157094731971  0.5304058958908223  0.1242406170158062
  0.9369248320917390  0.7916948174442121  0.3885273857309257
  0.9463021220931436  0.2980598600767434  0.7885600646782428
  0.1846288434616762  0.2906764138126423  0.6558146555335854
  0.9377271402274967  0.9581401723151757  0.6113653515902164
  0.8113273014202270  0.7112849768720592  0.7446251469410653
  0.6899759874119255  0.2882071704228452  0.2554684215124985
  0.0599220851702252  0.7120679900115132  0.7448857906835938
  0.6785357363133913  0.4508403727826448  0.2113100433517947
  0.8180577065881451  0.2107296507816795  0.4774931171533247
  0.5677470443676442  0.7105584585347111  0.4774435593893865
  0.0662795584386309  0.8625481142556901  0.1666573420772426
  0.9323779199327928  0.2882086325796976  0.5223768069626870
  0.6846315646572455  0.7907021587118224  0.6557649304139934
  0.0583488441107990  0.8747946523254122  0.4331209952821127
  0.0679246307804672  0.2228416093416780  0.8761096668945310
  0.8098088111304468  0.0406049073396817  0.6557732572899143
  0.5600402561190111  0.0319766985190385  0.1243740998816691
  0.3084489769388483  0.3748870828825712  0.4330664407374307
  0.3165973481769849  0.3748714874811108  0.5668237721474634
  0.3179210446145048  0.7106502563294126  0.4774015320341888
  0.0574001245973751  0.0382313786442152  0.5223649854120116
  0.3221845598213686  0.8764013475548632  0.7003834880742364
  0.0655017210540256  0.5379785738464599  0.2554148672352822
  0.6833812755339520  0.1376374830785034  0.8335123238789899
  0.8157167138893986  0.0376333989127270  0.2552878546017433
  0.1835464187758652  0.1250100592266226  0.4331003908165025
  0.6975233088082142  0.1265359501200443  0.7002650913765703
  0.1823901737611516  0.2882984418342158  0.5223586276452293
  0.4402059627422500  0.7881629158594419  0.2554581902763014
  0.8155910544956239  0.5378127553314977  0.2554136707998649
  0.0626769933602862  0.2080273774095183  0.6113141202943059
  0.1868498052686103  0.7915388352618490  0.3884552583071136
  0.3074171622507305  0.5382430049465541  0.5223520335783087
  0.8220413956398641  0.3762195069799911  0.7001017054560620
  0.6870796318672964  0.2918455438943334  0.3885198786867043
  0.1916531070886806  0.1249749260038493  0.5668630772694633
  0.6897759437614400  0.9682995823348243  0.8760335149554921
  0.6917507233839544  0.1248515009110801  0.5667714474379127
  0.4402891063067040  0.9593110572580777  0.3441831331927676
  0.1852739964943164  0.9620776741281736  0.7443657823867119
  0.9399565172794814  0.7882739003031779  0.2554419230313988
  0.5585207576667124  0.8750404380975384  0.4330798796709144
  0.3084200264448200  0.8750327656812902  0.4330943453527430
  0.8073248348194361  0.5383027695648380  0.5223889881046598
  0.9286084964485002  0.4509962595065166  0.2113320886244043
  0.3151050520582094  0.5380284021249278  0.2554452687007966
  0.5622359799725121  0.0418868830183966  0.3886137731586773
  0.9376885271545954  0.4580673778305390  0.6114104928255825
  0.0620939067774597  0.0418352025185040  0.3885477448480644
  0.0620546168230055  0.5417459614774176  0.3884878379524194
  0.4370234238384989  0.2918031395087871  0.3885470212168367
  0.6929699996647789  0.4606682596212099  0.4774555253130065
  0.0666986285475650  0.3746903695346679  0.5668319069764335
  0.5536592946704432  0.7016799896773321  0.2114909288815613
  0.9398955855363568  0.2881953080060092  0.2554604060325901
  0.8204338055588891  0.0491716005206934  0.7888712087668472
  0.1902490299999724  0.9593320171196803  0.3441606569050072
  0.5527424945767017  0.8738558719441470  0.2998616242647753
  0.0583661814568993  0.3749823735267236  0.4330848169846108
  0.3153427658197268  0.7095239101578220  0.3441596715648722
  0.3154638415061831  0.2095921766504738  0.3441217838097174
  0.9417231484156461  0.1249404309118709  0.5667692724713344
  0.4377134160634297  0.9581097379151179  0.6113248165357849
  0.5653212813458236  0.0375256649246871  0.2554538840578212
  0.1830116991865590  0.7792932853296419  0.1242974639409629
  0.0654564803646225  0.0376965746959565  0.2554431757963042
  0.6919156176757142  0.6248434522487699  0.5667478874643067
  0.4417054847177255  0.6124905246130230  0.1667919681692370
  0.3071434592840713  0.0382504793215117  0.5223309239744218
  0.6826315646071565  0.2794466173205585  0.1242262269628851
  0.8178498756503937  0.7107467418448989  0.4774424974296191
  0.4336549601985915  0.1378317672966298  0.8334949541426709
  0.3223159844777116  0.3762936485506976  0.7001308515138183
  0.6836657013985223  0.6378770468867810  0.8334990722952860
  0.5607151004152984  0.7120256367410220  0.7445011898634016
  0.9372228459884784  0.2919112643606245  0.3885916152499428
  0.9393845418225302  0.9676359216488124  0.8759636769948219
  0.5625929212345717  0.2083596821309388  0.6111994886910010
  0.8170635903683880  0.8749477934203455  0.5667152336804526
  0.8026668194425336  0.8740592671542994  0.2998239200613370
  0.3153621290907193  0.0377256652427475  0.2554650943990366
  0.4308304008063137  0.2781554241669157  0.1241852238840610
  0.3126059716055080  0.7080597148093180  0.6113659318365242
  0.4333805796027162  0.6249687913198928  0.4330972045594833
  0.9327474154592754  0.6251205507543159  0.4332475692609503
  0.5658447325468883  0.8617364432918290  0.1658174599751730
  0.0717234032840127  0.5490893887288292  0.7886619948106848
  0.8173527641159292  0.8619963567143014  0.1658108133973441
  0.5605063001603107  0.2113702343384895  0.7444271622213702
  0.9346392173226398  0.9617609863372444  0.7444016766007232
  0.5729581652253243  0.8772984897438083  0.7004508843230572
 
  0.00000000E+00  0.00000000E+00  0.00000000E+00
  0.00000000E+00  0.00000000E+00  0.00000000E+00
  0.00000000E+00  0.00000000E+00  0.00000000E+00
  0.00000000E+00  0.00000000E+00  0.00000000E+00
  0.00000000E+00  0.00000000E+00  0.00000000E+00
  0.00000000E+00  0.00000000E+00  0.00000000E+00
  0.00000000E+00  0.00000000E+00  0.00000000E+00
  0.00000000E+00  0.00000000E+00  0.00000000E+00
  0.00000000E+00  0.00000000E+00  0.00000000E+00
  0.00000000E+00  0.00000000E+00  0.00000000E+00
  0.00000000E+00  0.00000000E+00  0.00000000E+00
  0.00000000E+00  0.00000000E+00  0.00000000E+00
  0.00000000E+00  0.00000000E+00  0.00000000E+00
  0.00000000E+00  0.00000000E+00  0.00000000E+00
  0.00000000E+00  0.00000000E+00  0.00000000E+00
  0.00000000E+00  0.00000000E+00  0.00000000E+00
  0.00000000E+00  0.00000000E+00  0.00000000E+00
  0.00000000E+00  0.00000000E+00  0.00000000E+00
  0.00000000E+00  0.00000000E+00  0.00000000E+00
  0.00000000E+00  0.00000000E+00  0.00000000E+00
  0.00000000E+00  0.00000000E+00  0.00000000E+00
  0.00000000E+00  0.00000000E+00  0.00000000E+00
  0.00000000E+00  0.00000000E+00  0.00000000E+00
  0.00000000E+00  0.00000000E+00  0.00000000E+00
  0.00000000E+00  0.00000000E+00  0.00000000E+00
  0.00000000E+00  0.00000000E+00  0.00000000E+00
  0.00000000E+00  0.00000000E+00  0.00000000E+00
  0.00000000E+00  0.00000000E+00  0.00000000E+00
  0.00000000E+00  0.00000000E+00  0.00000000E+00
  0.00000000E+00  0.00000000E+00  0.00000000E+00
  0.00000000E+00  0.00000000E+00  0.00000000E+00
  0.00000000E+00  0.00000000E+00  0.00000000E+00
  0.00000000E+00  0.00000000E+00  0.00000000E+00
  0.00000000E+00  0.00000000E+00  0.00000000E+00
  0.00000000E+00  0.00000000E+00  0.00000000E+00
  0.00000000E+00  0.00000000E+00  0.00000000E+00
  0.00000000E+00  0.00000000E+00  0.00000000E+00
  0.00000000E+00  0.00000000E+00  0.00000000E+00
  0.00000000E+00  0.00000000E+00  0.00000000E+00
  0.00000000E+00  0.00000000E+00  0.00000000E+00
  0.00000000E+00  0.00000000E+00  0.00000000E+00
  0.00000000E+00  0.00000000E+00  0.00000000E+00
  0.00000000E+00  0.00000000E+00  0.00000000E+00
  0.00000000E+00  0.00000000E+00  0.00000000E+00
  0.00000000E+00  0.00000000E+00  0.00000000E+00
  0.00000000E+00  0.00000000E+00  0.00000000E+00
  0.00000000E+00  0.00000000E+00  0.00000000E+00
  0.00000000E+00  0.00000000E+00  0.00000000E+00
  0.00000000E+00  0.00000000E+00  0.00000000E+00
  0.00000000E+00  0.00000000E+00  0.00000000E+00
  0.00000000E+00  0.00000000E+00  0.00000000E+00
  0.00000000E+00  0.00000000E+00  0.00000000E+00
  0.00000000E+00  0.00000000E+00  0.00000000E+00
  0.00000000E+00  0.00000000E+00  0.00000000E+00
  0.00000000E+00  0.00000000E+00  0.00000000E+00
  0.00000000E+00  0.00000000E+00  0.00000000E+00
  0.00000000E+00  0.00000000E+00  0.00000000E+00
  0.00000000E+00  0.00000000E+00  0.00000000E+00
  0.00000000E+00  0.00000000E+00  0.00000000E+00
  0.00000000E+00  0.00000000E+00  0.00000000E+00
  0.00000000E+00  0.00000000E+00  0.00000000E+00
  0.00000000E+00  0.00000000E+00  0.00000000E+00
  0.00000000E+00  0.00000000E+00  0.00000000E+00
  0.00000000E+00  0.00000000E+00  0.00000000E+00
  0.00000000E+00  0.00000000E+00  0.00000000E+00
  0.00000000E+00  0.00000000E+00  0.00000000E+00
  0.00000000E+00  0.00000000E+00  0.00000000E+00
  0.00000000E+00  0.00000000E+00  0.00000000E+00
  0.00000000E+00  0.00000000E+00  0.00000000E+00
  0.00000000E+00  0.00000000E+00  0.00000000E+00
  0.00000000E+00  0.00000000E+00  0.00000000E+00
  0.00000000E+00  0.00000000E+00  0.00000000E+00
  0.00000000E+00  0.00000000E+00  0.00000000E+00
  0.00000000E+00  0.00000000E+00  0.00000000E+00
  0.00000000E+00  0.00000000E+00  0.00000000E+00
  0.00000000E+00  0.00000000E+00  0.00000000E+00
  0.00000000E+00  0.00000000E+00  0.00000000E+00
  0.00000000E+00  0.00000000E+00  0.00000000E+00
  0.00000000E+00  0.00000000E+00  0.00000000E+00
  0.00000000E+00  0.00000000E+00  0.00000000E+00
  0.00000000E+00  0.00000000E+00  0.00000000E+00
  0.00000000E+00  0.00000000E+00  0.00000000E+00
  0.00000000E+00  0.00000000E+00  0.00000000E+00
  0.00000000E+00  0.00000000E+00  0.00000000E+00
  0.00000000E+00  0.00000000E+00  0.00000000E+00
  0.00000000E+00  0.00000000E+00  0.00000000E+00
  0.00000000E+00  0.00000000E+00  0.00000000E+00
  0.00000000E+00  0.00000000E+00  0.00000000E+00
  0.00000000E+00  0.00000000E+00  0.00000000E+00
  0.00000000E+00  0.00000000E+00  0.00000000E+00
  0.00000000E+00  0.00000000E+00  0.00000000E+00
  0.00000000E+00  0.00000000E+00  0.00000000E+00
  0.00000000E+00  0.00000000E+00  0.00000000E+00
  0.00000000E+00  0.00000000E+00  0.00000000E+00
  0.00000000E+00  0.00000000E+00  0.00000000E+00
  0.00000000E+00  0.00000000E+00  0.00000000E+00
  0.00000000E+00  0.00000000E+00  0.00000000E+00
  0.00000000E+00  0.00000000E+00  0.00000000E+00
  0.00000000E+00  0.00000000E+00  0.00000000E+00
  0.00000000E+00  0.00000000E+00  0.00000000E+00
  0.00000000E+00  0.00000000E+00  0.00000000E+00
  0.00000000E+00  0.00000000E+00  0.00000000E+00
  0.00000000E+00  0.00000000E+00  0.00000000E+00
  0.00000000E+00  0.00000000E+00  0.00000000E+00
  0.00000000E+00  0.00000000E+00  0.00000000E+00
  0.00000000E+00  0.00000000E+00  0.00000000E+00
  0.00000000E+00  0.00000000E+00  0.00000000E+00
  0.00000000E+00  0.00000000E+00  0.00000000E+00
  0.00000000E+00  0.00000000E+00  0.00000000E+00
  0.00000000E+00  0.00000000E+00  0.00000000E+00
  0.00000000E+00  0.00000000E+00  0.00000000E+00
  0.00000000E+00  0.00000000E+00  0.00000000E+00
  0.00000000E+00  0.00000000E+00  0.00000000E+00
  0.00000000E+00  0.00000000E+00  0.00000000E+00
  0.00000000E+00  0.00000000E+00  0.00000000E+00
  0.00000000E+00  0.00000000E+00  0.00000000E+00
  0.00000000E+00  0.00000000E+00  0.00000000E+00
  0.00000000E+00  0.00000000E+00  0.00000000E+00
  0.00000000E+00  0.00000000E+00  0.00000000E+00
  0.00000000E+00  0.00000000E+00  0.00000000E+00
  0.00000000E+00  0.00000000E+00  0.00000000E+00
  0.00000000E+00  0.00000000E+00  0.00000000E+00
  0.00000000E+00  0.00000000E+00  0.00000000E+00
  0.00000000E+00  0.00000000E+00  0.00000000E+00
  0.00000000E+00  0.00000000E+00  0.00000000E+00
  0.00000000E+00  0.00000000E+00  0.00000000E+00
  0.00000000E+00  0.00000000E+00  0.00000000E+00
  0.00000000E+00  0.00000000E+00  0.00000000E+00
  0.00000000E+00  0.00000000E+00  0.00000000E+00
  0.00000000E+00  0.00000000E+00  0.00000000E+00
  0.00000000E+00  0.00000000E+00  0.00000000E+00
  0.00000000E+00  0.00000000E+00  0.00000000E+00
  0.00000000E+00  0.00000000E+00  0.00000000E+00
  0.00000000E+00  0.00000000E+00  0.00000000E+00
  0.00000000E+00  0.00000000E+00  0.00000000E+00
  0.00000000E+00  0.00000000E+00  0.00000000E+00
  0.00000000E+00  0.00000000E+00  0.00000000E+00
  0.00000000E+00  0.00000000E+00  0.00000000E+00
  0.00000000E+00  0.00000000E+00  0.00000000E+00
  0.00000000E+00  0.00000000E+00  0.00000000E+00
  0.00000000E+00  0.00000000E+00  0.00000000E+00
  0.00000000E+00  0.00000000E+00  0.00000000E+00
  0.00000000E+00  0.00000000E+00  0.00000000E+00
  0.00000000E+00  0.00000000E+00  0.00000000E+00
  0.00000000E+00  0.00000000E+00  0.00000000E+00
  0.00000000E+00  0.00000000E+00  0.00000000E+00
  0.00000000E+00  0.00000000E+00  0.00000000E+00
  0.00000000E+00  0.00000000E+00  0.00000000E+00
  0.00000000E+00  0.00000000E+00  0.00000000E+00
  0.00000000E+00  0.00000000E+00  0.00000000E+00
  0.00000000E+00  0.00000000E+00  0.00000000E+00
  0.00000000E+00  0.00000000E+00  0.00000000E+00
  0.00000000E+00  0.00000000E+00  0.00000000E+00
  0.00000000E+00  0.00000000E+00  0.00000000E+00
  0.00000000E+00  0.00000000E+00  0.00000000E+00
  0.00000000E+00  0.00000000E+00  0.00000000E+00
  0.00000000E+00  0.00000000E+00  0.00000000E+00
  0.00000000E+00  0.00000000E+00  0.00000000E+00
  0.00000000E+00  0.00000000E+00  0.00000000E+00
  0.00000000E+00  0.00000000E+00  0.00000000E+00
  0.00000000E+00  0.00000000E+00  0.00000000E+00
  0.00000000E+00  0.00000000E+00  0.00000000E+00
  0.00000000E+00  0.00000000E+00  0.00000000E+00
  0.00000000E+00  0.00000000E+00  0.00000000E+00
  0.00000000E+00  0.00000000E+00  0.00000000E+00
  0.00000000E+00  0.00000000E+00  0.00000000E+00
  0.00000000E+00  0.00000000E+00  0.00000000E+00
  0.00000000E+00  0.00000000E+00  0.00000000E+00
  0.00000000E+00  0.00000000E+00  0.00000000E+00
  0.00000000E+00  0.00000000E+00  0.00000000E+00
  0.00000000E+00  0.00000000E+00  0.00000000E+00
  0.00000000E+00  0.00000000E+00  0.00000000E+00
  0.00000000E+00  0.00000000E+00  0.00000000E+00
  0.00000000E+00  0.00000000E+00  0.00000000E+00
  0.00000000E+00  0.00000000E+00  0.00000000E+00
  0.00000000E+00  0.00000000E+00  0.00000000E+00
  0.00000000E+00  0.00000000E+00  0.00000000E+00
  0.00000000E+00  0.00000000E+00  0.00000000E+00
  0.00000000E+00  0.00000000E+00  0.00000000E+00
  0.00000000E+00  0.00000000E+00  0.00000000E+00
  0.00000000E+00  0.00000000E+00  0.00000000E+00
  0.00000000E+00  0.00000000E+00  0.00000000E+00
  0.00000000E+00  0.00000000E+00  0.00000000E+00
  0.00000000E+00  0.00000000E+00  0.00000000E+00
  0.00000000E+00  0.00000000E+00  0.00000000E+00
  0.00000000E+00  0.00000000E+00  0.00000000E+00
  0.00000000E+00  0.00000000E+00  0.00000000E+00
  0.00000000E+00  0.00000000E+00  0.00000000E+00
  0.00000000E+00  0.00000000E+00  0.00000000E+00
  0.00000000E+00  0.00000000E+00  0.00000000E+00
  0.00000000E+00  0.00000000E+00  0.00000000E+00
  0.00000000E+00  0.00000000E+00  0.00000000E+00
  0.00000000E+00  0.00000000E+00  0.00000000E+00
  0.00000000E+00  0.00000000E+00  0.00000000E+00
  0.00000000E+00  0.00000000E+00  0.00000000E+00
  0.00000000E+00  0.00000000E+00  0.00000000E+00
  0.00000000E+00  0.00000000E+00  0.00000000E+00
  0.00000000E+00  0.00000000E+00  0.00000000E+00
  0.00000000E+00  0.00000000E+00  0.00000000E+00
  0.00000000E+00  0.00000000E+00  0.00000000E+00
  0.00000000E+00  0.00000000E+00  0.00000000E+00
  0.00000000E+00  0.00000000E+00  0.00000000E+00
  0.00000000E+00  0.00000000E+00  0.00000000E+00
  0.00000000E+00  0.00000000E+00  0.00000000E+00
  0.00000000E+00  0.00000000E+00  0.00000000E+00
  0.00000000E+00  0.00000000E+00  0.00000000E+00
  0.00000000E+00  0.00000000E+00  0.00000000E+00
  0.00000000E+00  0.00000000E+00  0.00000000E+00
  0.00000000E+00  0.00000000E+00  0.00000000E+00
  0.00000000E+00  0.00000000E+00  0.00000000E+00
  0.00000000E+00  0.00000000E+00  0.00000000E+00
  0.00000000E+00  0.00000000E+00  0.00000000E+00
  0.00000000E+00  0.00000000E+00  0.00000000E+00
  0.00000000E+00  0.00000000E+00  0.00000000E+00
  0.00000000E+00  0.00000000E+00  0.00000000E+00
  0.00000000E+00  0.00000000E+00  0.00000000E+00
  0.00000000E+00  0.00000000E+00  0.00000000E+00
  0.00000000E+00  0.00000000E+00  0.00000000E+00
  0.00000000E+00  0.00000000E+00  0.00000000E+00
  0.00000000E+00  0.00000000E+00  0.00000000E+00
  0.00000000E+00  0.00000000E+00  0.00000000E+00
  0.00000000E+00  0.00000000E+00  0.00000000E+00
  0.00000000E+00  0.00000000E+00  0.00000000E+00
  0.00000000E+00  0.00000000E+00  0.00000000E+00
  0.00000000E+00  0.00000000E+00  0.00000000E+00
  0.00000000E+00  0.00000000E+00  0.00000000E+00
  0.00000000E+00  0.00000000E+00  0.00000000E+00
  0.00000000E+00  0.00000000E+00  0.00000000E+00
  0.00000000E+00  0.00000000E+00  0.00000000E+00
  0.00000000E+00  0.00000000E+00  0.00000000E+00
  0.00000000E+00  0.00000000E+00  0.00000000E+00
  0.00000000E+00  0.00000000E+00  0.00000000E+00
  0.00000000E+00  0.00000000E+00  0.00000000E+00
  0.00000000E+00  0.00000000E+00  0.00000000E+00
  0.00000000E+00  0.00000000E+00  0.00000000E+00
  0.00000000E+00  0.00000000E+00  0.00000000E+00
  0.00000000E+00  0.00000000E+00  0.00000000E+00
  0.00000000E+00  0.00000000E+00  0.00000000E+00
  0.00000000E+00  0.00000000E+00  0.00000000E+00
  0.00000000E+00  0.00000000E+00  0.00000000E+00
  0.00000000E+00  0.00000000E+00  0.00000000E+00
  0.00000000E+00  0.00000000E+00  0.00000000E+00
  0.00000000E+00  0.00000000E+00  0.00000000E+00
  0.00000000E+00  0.00000000E+00  0.00000000E+00
  0.00000000E+00  0.00000000E+00  0.00000000E+00
  0.00000000E+00  0.00000000E+00  0.00000000E+00
  0.00000000E+00  0.00000000E+00  0.00000000E+00