CuInSe2gb                               
   1.00000000000000     
     9.7266780392896699    0.0000000000000000    0.0000000000000000
     0.0000000000000000    8.4235502764570693    0.0000000000000000
     0.0000000000000000    0.0000000000000000   45.0000000000000000
   Fe   Mn
   281     7
Direct
  0.0571693808615423  0.7014304113241989  0.2114630743210985
  0.3163772090040708  0.7198772943291042  0.8756878231457967
  0.6883970109833288  0.9575604707678109  0.6113353800530457
  0.4381917393030667  0.4576496870182142  0.6113793937931156
  0.4362154874812791  0.2871086882166022  0.2557371986313942
  0.0611339531414574  0.3865282550622134  0.8342465964649911
  0.3115775016752482  0.8861535822774683  0.8341188714294754
  0.4422866501053012  0.6265556474756108  0.7001764315638347
  0.0640410988428712  0.2129612355892507  0.7444250141663113
  0.1821778695533229  0.4513981267616328  0.2112800270143295
  0.5639495713981029  0.2088899413058063  0.4778200054891747
  0.0641018430927760  0.8743934217688651  0.5666279590050881
  0.5656014646727855  0.2192222861005071  0.8756846900984510
  0.8102342300010886  0.5295514770386419  0.1247501972600792
  0.4322297250165960  0.9512783368050475  0.2112838841665587
  0.5642962907461855  0.3744365100151035  0.5666169540351803
  0.8119670236306368  0.0421072078145675  0.3885582669520425
  0.6863182836992479  0.7904537560140902  0.5220879721021635
  0.4388939420908936  0.4589081302511865  0.4778149072758265
  0.4387007687392672  0.9623724629325980  0.7444177067579724
  0.4388651986060929  0.6246993665499018  0.5666896087818440
  0.0603363388724074  0.5295576641511439  0.1247439986218977
  0.3103321694711381  0.0295592109666303  0.1247609790313999
  0.6870961372010860  0.9587516173690067  0.3444036059697243
  0.6837579051268499  0.7808380625447842  0.1245352745578915
  0.0576968127684654  0.3734794199051427  0.2997672619161604
  0.6888778631933905  0.4713088505738965  0.8754271621303873
  0.4321773613010392  0.4512299955304199  0.2112927015875374
  0.8110846391563137  0.3752304680522573  0.4331181367193682
  0.5631764974700734  0.7077478119011170  0.6113358719735720
  0.5632925740810072  0.5414335730866573  0.6555081508236090
  0.9360714903553172  0.1251239911899167  0.4331338225034647
  0.5613330725022369  0.5377071375979469  0.2556783189068546
  0.6870951111661844  0.4587404147078716  0.3443919971646254
  0.1882412559054557  0.6137867334062641  0.1661129127961000
  0.1931026887159988  0.7986848634923087  0.7885067952871488
  0.4425907653762629  0.1259101433926089  0.7001091327000558
  0.9328074590027352  0.6235672320297068  0.2997617433949435
  0.3151401078300229  0.2198983467280767  0.8757628104580470
  0.3139974923292971  0.8744262605196617  0.5666179467916193
  0.8162402388348631  0.2197618814945256  0.8756876602705508
  0.8130547373859572  0.5417483533509505  0.6555284955342617
  0.5603625196149499  0.5295699293167130  0.1247296580666505
  0.5626950454675499  0.8635972758911410  0.1662586892795041
  0.1861334878281325  0.2871247112509350  0.2557464262521189
  0.8110942816381959  0.8751783246005972  0.4331344795436238
  0.5669537091028509  0.3767106927566820  0.7002100834981223
  0.0603217079942603  0.0295501161098177  0.1247437417911461
  0.3131067339393662  0.5411981790499515  0.6555227050526229
  0.5621337136182126  0.2087421441625871  0.3443615125457394
  0.1884428153196102  0.9573473790898323  0.6113707009382809
  0.3076022718736102  0.3734393253507493  0.2997814572730301
  0.4378206552112560  0.7912594405754514  0.6554223306094289
  0.6889943505489237  0.4624554028379316  0.7445256471385531
  0.0626989706251349  0.3636091383742570  0.1662728809749355
  0.6923704917400083  0.6262125355671234  0.7002195130377300
  0.3119603875613077  0.5420898905380424  0.3885794862805283
  0.0656317730070354  0.7191831868663404  0.8756848499792972
  0.9364359989760023  0.6368376793573393  0.8340081975577048
  0.3179537539239836  0.5493780947981218  0.7887232329772407
  0.3072186505190884  0.2014753538022128  0.2114654334569947
  0.0639611359522275  0.7088883003837819  0.4778247137021104
  0.5572196071576726  0.2013938914790607  0.2114746703398783
  0.3143184276167512  0.2123370739369332  0.7442791543355789
  0.0677419950442967  0.3765000807509725  0.7001805272684171
  0.1865085455964021  0.6366884457962581  0.8338096237345857
  0.0670619445907355  0.0482270908902293  0.7888563541089491
  0.4390613785336779  0.1244631439323427  0.5666512847458748
  0.9380768531102104  0.2914829426509991  0.6555688608620642
  0.8071687572611160  0.2014659331429044  0.2114693042045827
  0.9321702036325801  0.9512191439110844  0.2112886568406015
  0.9391734660422641  0.6246119539054069  0.5666874598173862
  0.8117232463913953  0.3869879953854877  0.8341435200987393
  0.1924015955954640  0.6265989096181872  0.7001450598114516
  0.8111105514377308  0.8864687950180933  0.8341450533518625
  0.6881564904213054  0.2918291357779504  0.6554901777889376
  0.3127757363380274  0.2077779489907496  0.6113690194938515
  0.4386074391904040  0.4627316827646675  0.7443329633308480
  0.4368977297624447  0.7920486641212824  0.3885583557573384
  0.6898242598322305  0.9625627329408571  0.7444485483926921
  0.8072377475508293  0.7014792604350696  0.2114596643711152
  0.8138050296738226  0.7077063976056622  0.6112076638474782
  0.4337297231483840  0.7808821491195705  0.1245449238850266
  0.3136520990765638  0.7126632328087330  0.7443368890791037
  0.3171863857345038  0.0487838092818161  0.7889013271505123
  0.8119156812290531  0.5421497900840020  0.3885655116552936
  0.6863768381256888  0.2903833977146567  0.5220365685171152
  0.6925191385323840  0.7981902769875810  0.7886203138596730
  0.1861665152990415  0.7870770643595363  0.2557239018670336
  0.6883025707221343  0.1138117113335363  0.1661067833734239
  0.6889116251119314  0.9589501246417808  0.4778251591573796
  0.9370426580699334  0.9587857818543092  0.3443794538221764
  0.8114065337781630  0.0400094563134173  0.5219448420163758
  0.6861142146410490  0.6251527732654694  0.4331469414065299
  0.4370905591689714  0.4587776240485593  0.3443924015688284
  0.8143510251555479  0.2124398282766700  0.7444266278984686
  0.4393230265245434  0.9713779081059257  0.8754545443098734
  0.5643259777400189  0.8746755052012578  0.5666417905613672
  0.8102427510380894  0.0295508990134786  0.1247408302617864
  0.4328633874912967  0.6236372445147276  0.2997714544881282
  0.8149584692339322  0.7197718559767081  0.8757364133994784
  0.6884830422789596  0.4578174495639908  0.6113543282501380
  0.5609857842675244  0.3870871809581592  0.8340111353658866
  0.8076788051994159  0.3735630174376466  0.2997845778687199
  0.1870357923441706  0.2921575000206252  0.3886009434328044
  0.8173264687294526  0.5492254292207982  0.7889325111079654
  0.1863096396911331  0.7903070075309685  0.5220634249828336
  0.3076584575052504  0.8735683039628501  0.2997878142495508
  0.1821353552908783  0.9512935000612879  0.2113010253048624
  0.1887932999613392  0.4631457296505381  0.7444923975486186
  0.4363207732183088  0.2902971640041075  0.5220238135311422
  0.0621151511734813  0.7086595593085234  0.3443501322744253
  0.1880975379601158  0.7911302432522677  0.6555427135241476
  0.4424528269541534  0.7985066627073516  0.7886519574183819
  0.6860630742472057  0.1251450227957624  0.4331300209952726
  0.9364261999266491  0.7902190518059828  0.5220919251326138
  0.6883369314733391  0.6138724104197300  0.1660987128912983
  0.8120719881399295  0.7086635190678452  0.3443604663852421
  0.9392672326644844  0.4626057546666879  0.7444621970884302
  0.1871000195523579  0.4587688057552220  0.3443768861570401
  0.5675793439536242  0.5488683985103164  0.7889162832312115
  0.5626931926610144  0.3635487621782076  0.1662636412868182
  0.5621550631912172  0.7086662150368451  0.3443618877384402
  0.5577160111348631  0.3734593102320817  0.2997785328958970
  0.1887163180425865  0.4712379982167831  0.8754703363186289
  0.1883033150537625  0.1138177744849644  0.1661053734640560
  0.4427278707477668  0.2990340722404534  0.7885315551568092
  0.6860618386921220  0.7871238077965782  0.2557492667058481
  0.9369316782569650  0.1366217152684837  0.8339088187841994
  0.4388450720963849  0.9589007761459398  0.4778297274152651
  0.5656755049707114  0.7194501716489501  0.8756447431260235
  0.1888526705790997  0.4590335933510157  0.4778575582303252
  0.9337468503178430  0.2808845320359366  0.1245167600114889
  0.3119510013517671  0.0421994211532659  0.3885851463648063
  0.0632903714724460  0.0413097682675702  0.6555067358728616
  0.5610224580404016  0.3751880729923651  0.4331169210464215
  0.9359977756541310  0.6252669131328081  0.4331267021969809
  0.3126895033235478  0.3635478707035653  0.1662698058364640
  0.9427059894248488  0.1261592088145326  0.7002320860561517
  0.5630872196866877  0.0411278822218124  0.6555820092068588
  0.5613578921387263  0.5407951006447749  0.5219651362408444
  0.1828563860241972  0.1236248016088319  0.2997574075884852
  0.4383192294208482  0.1137706821607528  0.1661117441934738
  0.6828500273548700  0.6235705688225475  0.2997431297971223
  0.9328713460110181  0.1236128997047186  0.2997811296098308
  0.8138731963938083  0.3744494012928664  0.5667019386356585
  0.0576954239724472  0.8734850716159677  0.2997794807739828
  0.1890939865640212  0.6245939590729721  0.5667004139351560
  0.9418227535181520  0.7980661072545293  0.7886936713590433
  0.3104624681921910  0.3866658349085083  0.8341396635662172
  0.9388768081868201  0.4712930555781311  0.8755092141104718
  0.4366375414778622  0.6367483110249091  0.8340283790781530
  0.0621695314796821  0.2086689801023136  0.3443465435248648
  0.1886079974144583  0.9707980768397162  0.8754152956331468
  0.9337191048893640  0.7809271940374298  0.1245322853416382
  0.6869645160400198  0.7920998220324675  0.3885650548749288
  0.9378916771423141  0.7913232160290981  0.6555417879868654
  0.9383646603069030  0.1138023949841883  0.1661302865045009
  0.4378309764121863  0.2916118200522324  0.6555398619911660
  0.0571926329776925  0.2014580606116775  0.2114564172883071
  0.6821660960239526  0.9513444995343944  0.2112979497766808
  0.1827446290953968  0.6235211406158921  0.2997459183117842
  0.8179501831852436  0.8762165930571114  0.7001811848185908
  0.9429556071156791  0.6263382596719639  0.7001818160040781
  0.1927160608252102  0.1261416599440235  0.7000954738583129
  0.9389389522743760  0.4589567679391367  0.4778674918961934
  0.8135060385452824  0.2078271762458951  0.6113159220142023
  0.1860805898582222  0.6252424428665444  0.4331250282756065
  0.4328010882391667  0.1235524811393464  0.2997483606016556
  0.6827103249385315  0.1234784732562719  0.2997318533587933
  0.5618586906952324  0.5420933492925788  0.3885690953209913
  0.8121496520894861  0.2086091661541387  0.3443466868055505
  0.4398619204277439  0.4718006608441249  0.8753176761884216
  0.5610761909464971  0.8863752654814508  0.8341207371545383
  0.3138614773669541  0.2089469763393781  0.4778214245656505
  0.1889264992106764  0.9590972292672599  0.4778790125017511
  0.0611769672742018  0.8865546525364003  0.8340517160148320
  0.0612554341016738  0.5403340591793975  0.5220435287424241
  0.9389068301142220  0.9589908043613687  0.4778602447123299
  0.0630870356284908  0.7076423035227395  0.6113553703209975
  0.5613094706983177  0.0403624449594237  0.5220536613085095
  0.6933538575557726  0.2985038424895910  0.7886051334780543
  0.8127074643668060  0.3635507887330416  0.1662786129023354
  0.4360695443188481  0.1252250975989683  0.4331117430757492
  0.0639478638589910  0.2089899798633298  0.4778265228314904
  0.3133322280111875  0.0412018457604643  0.6554251855332267
  0.4362053213036092  0.7905585951218943  0.5220763906005068
  0.1868802284602125  0.1370166288570662  0.8338311653515220
  0.1838401294940404  0.2808304776259446  0.1245278952196762
  0.9371628202726177  0.4587563480536251  0.3443763979335753
  0.3127329026740315  0.8636019754449885  0.1662616371081392
  0.3071383727168994  0.7014423321001432  0.2114768121169852
  0.9383739583359656  0.6138118606589997  0.1661265840027658
  0.1882128513703860  0.4578918926168253  0.6113768466154963
  0.0678035757009253  0.8771165407048767  0.7002884020898332
  0.0631500745202199  0.5412749538940426  0.6555679703707115
  0.3103128974207889  0.5295363008541698  0.1247595362710480
  0.9369820539659084  0.7921896734553889  0.3885669953385233
  0.9418083393513593  0.2991930155499580  0.7887040677708020
  0.1879070486776286  0.2912993213006057  0.6555673336318113
  0.9383414616050713  0.9575019231460877  0.6114034400126550
  0.8149216277251661  0.7126440405988728  0.7443744746451695
  0.6860697436379490  0.2870888233494446  0.2557293891710779
  0.0644023272803755  0.7130483976097994  0.7443159961141019
  0.6821403894855337  0.4513019485756550  0.2113030277782713
  0.8138564990297655  0.2089148084059013  0.4778172836291795
  0.5639248348590260  0.7087480322540866  0.4778415135168647
  0.0626789221674693  0.8636612175661433  0.1662620593000149
  0.9363517743781360  0.2904260816897237  0.5220552894736322
  0.6878609862770408  0.7919072120407862  0.6556360021544138
  0.0610322506684749  0.8751059856251096  0.4330954887851386
  0.0659394317590696  0.2193050738958143  0.8758077784797098
  0.8130550447384791  0.0413018808289180  0.6554372388829701
  0.5603256828450989  0.0295633111258160  0.1247550190946349
  0.3110878178016421  0.3751832829524906  0.4331068677050678
  0.3142394789038050  0.3745615808243560  0.5666452672450721
  0.3138248271992943  0.7089223794361615  0.4777898591211157
  0.0612984696074637  0.0403838100560818  0.5220698974409395
  0.3168435321026495  0.8767062727188192  0.7000977760672370
  0.0612632137115499  0.5377503771207138  0.2556811432818873
  0.6866690138885558  0.1366729302909737  0.8338811994148861
  0.8112915472778732  0.0377594591398520  0.2556490481889976
  0.1860668089652600  0.1251032540524954  0.4331300188926936
  0.6920008459719920  0.1265910310977710  0.7001261181612489
  0.1863473879991877  0.2902627274092492  0.5220834176811603
  0.4361985023273880  0.7871690888063085  0.2557363317637280
  0.8113251001012136  0.5377820621036917  0.2556704100888196
  0.0633180121957362  0.2076105484248751  0.6112310951271420
  0.1869812754454274  0.7921615010889947  0.3885916763957528
  0.3113415779018598  0.5402977063428831  0.5220850374265655
  0.8127180748875567  0.8635687379172028  0.1662632866619969
  0.6868980151470708  0.2921363626111044  0.3885867517775357
  0.1889856809515929  0.1243376241914124  0.5667245972384953
  0.6886397167620354  0.9712705828285105  0.8754032984796184
  0.6890766383993799  0.1243965453332137  0.5666174776424852
  0.4371558616000069  0.9587108222066314  0.3443847077029042
  0.1889316115171306  0.9621311327204483  0.7442629403532338
  0.9361541385484641  0.7871164112575124  0.2557126578720995
  0.5610582463816545  0.8752107201537462  0.4331266459141991
  0.3111172429108106  0.8751448302707155  0.4331340341828602
  0.8112545572929275  0.5403351285214716  0.5220828589370663
  0.9322260342734164  0.4513207092033990  0.2112871389088530
  0.3112283389854917  0.5377512271677412  0.2556631643925767
  0.5619201247022416  0.0421373560095510  0.3885850759250590
  0.9381624269152337  0.4580568483990708  0.6113568054751765
  0.0618869115655333  0.0421028934618533  0.3885820919092441
  0.0619173919254397  0.5420715886783301  0.3885673496932062
  0.4369113260861178  0.2921482132661508  0.3885669593191610
  0.6888319147835607  0.4590200297581971  0.4778180400660670
  0.0641165066773475  0.3744094028551749  0.5666688411777920
  0.5572148713363351  0.7014345175623431  0.2114617310869588
  0.9361884989333299  0.2871770785596919  0.2557335565482478
  0.8178813496888047  0.0488526645308176  0.7888773643612239
  0.1871324436497323  0.9587528487793122  0.3443717060046881
  0.5576748022494555  0.8734879397706566  0.2997747523249147
  0.0611362340928913  0.3751738416920672  0.4331175785677142
  0.3122217440782074  0.7086488307468171  0.3443573532909343
  0.3121241515822892  0.2086990392178630  0.3443644913281985
  0.9392199441284587  0.1243034880930583  0.5666553842429772
  0.4378411782604967  0.9573432022766968  0.6113006882028482
  0.5613665782577009  0.0377391217365603  0.2556822462035346
  0.1838267114597502  0.7808711086206627  0.1245364763891781
  0.0612798654984046  0.0376941053949116  0.2556646332657257
  0.6891314809363103  0.6245926771628405  0.5666223805276479
  0.4382341283075573  0.6138573349354401  0.1661237278845407
  0.3112894672144498  0.0400817869923299  0.5219993836196067
  0.6837751483105237  0.2807964432801351  0.1245380224172632
  0.8139170476519985  0.7088726969641057  0.4778346827569248
  0.4370899675641016  0.1367036762631926  0.8340007951729321
  0.3173119686661869  0.3769004249173601  0.7002220857730195
  0.6871082799304558  0.6367634657413733  0.8339377746284786
  0.5640318892837467  0.7125822905335268  0.7444708703919954
  0.9370147010867049  0.2921426877534449  0.3885769773447887
  0.9390858292229807  0.9713063774061248  0.8753320632300368
  0.9391145327487790  0.9619218893868188  0.7443465995824669
  0.8141727066650604  0.8744707936831241  0.5666528717506484
  0.8076281516254695  0.8734694596784441  0.2997788572146468
  0.3113062856654086  0.0377807741814739  0.2556952439928329
  0.4336981279593702  0.2807894180536516  0.1245479981840223
  0.3126937891207453  0.7074297994141836  0.6112919121113755
  0.4360175284539943  0.6251621058095419  0.4331356229308625
  0.1931584712943199  0.2979882933516945  0.7884700171787354
  0.5677627958436661  0.0483132710931485  0.7886501957259524
  0.0673604323015532  0.5496294636694207  0.7886785413441765
  0.8179430511031797  0.3763949435682851  0.7002125526926373
  0.5642615084912009  0.2125729711617926  0.7442466421836255
  0.5631204276624259  0.2080100977413901  0.6111941921308282
  0.5680063055715012  0.8767092589472991  0.7002279550777647
 
  0.00000000E+00  0.00000000E+00  0.00000000E+00
  0.00000000E+00  0.00000000E+00  0.00000000E+00
  0.00000000E+00  0.00000000E+00  0.00000000E+00
  0.00000000E+00  0.00000000E+00  0.00000000E+00
  0.00000000E+00  0.00000000E+00  0.00000000E+00
  0.00000000E+00  0.00000000E+00  0.00000000E+00
  0.00000000E+00  0.00000000E+00  0.00000000E+00
  0.00000000E+00  0.00000000E+00  0.00000000E+00
  0.00000000E+00  0.00000000E+00  0.00000000E+00
  0.00000000E+00  0.00000000E+00  0.00000000E+00
  0.00000000E+00  0.00000000E+00  0.00000000E+00
  0.00000000E+00  0.00000000E+00  0.00000000E+00
  0.00000000E+00  0.00000000E+00  0.00000000E+00
  0.00000000E+00  0.00000000E+00  0.00000000E+00
  0.00000000E+00  0.00000000E+00  0.00000000E+00
  0.00000000E+00  0.00000000E+00  0.00000000E+00
  0.00000000E+00  0.00000000E+00  0.00000000E+00
  0.00000000E+00  0.00000000E+00  0.00000000E+00
  0.00000000E+00  0.00000000E+00  0.00000000E+00
  0.00000000E+00  0.00000000E+00  0.00000000E+00
  0.00000000E+00  0.00000000E+00  0.00000000E+00
  0.00000000E+00  0.00000000E+00  0.00000000E+00
  0.00000000E+00  0.00000000E+00  0.00000000E+00
  0.00000000E+00  0.00000000E+00  0.00000000E+00
  0.00000000E+00  0.00000000E+00  0.00000000E+00
  0.00000000E+00  0.00000000E+00  0.00000000E+00
  0.00000000E+00  0.00000000E+00  0.00000000E+00
  0.00000000E+00  0.00000000E+00  0.00000000E+00
  0.00000000E+00  0.00000000E+00  0.00000000E+00
  0.00000000E+00  0.00000000E+00  0.00000000E+00
  0.00000000E+00  0.00000000E+00  0.00000000E+00
  0.00000000E+00  0.00000000E+00  0.00000000E+00
  0.00000000E+00  0.00000000E+00  0.00000000E+00
  0.00000000E+00  0.00000000E+00  0.00000000E+00
  0.00000000E+00  0.00000000E+00  0.00000000E+00
  0.00000000E+00  0.00000000E+00  0.00000000E+00
  0.00000000E+00  0.00000000E+00  0.00000000E+00
  0.00000000E+00  0.00000000E+00  0.00000000E+00
  0.00000000E+00  0.00000000E+00  0.00000000E+00
  0.00000000E+00  0.00000000E+00  0.00000000E+00
  0.00000000E+00  0.00000000E+00  0.00000000E+00
  0.00000000E+00  0.00000000E+00  0.00000000E+00
  0.00000000E+00  0.00000000E+00  0.00000000E+00
  0.00000000E+00  0.00000000E+00  0.00000000E+00
  0.00000000E+00  0.00000000E+00  0.00000000E+00
  0.00000000E+00  0.00000000E+00  0.00000000E+00
  0.00000000E+00  0.00000000E+00  0.00000000E+00
  0.00000000E+00  0.00000000E+00  0.00000000E+00
  0.00000000E+00  0.00000000E+00  0.00000000E+00
  0.00000000E+00  0.00000000E+00  0.00000000E+00
  0.00000000E+00  0.00000000E+00  0.00000000E+00
  0.00000000E+00  0.00000000E+00  0.00000000E+00
  0.00000000E+00  0.00000000E+00  0.00000000E+00
  0.00000000E+00  0.00000000E+00  0.00000000E+00
  0.00000000E+00  0.00000000E+00  0.00000000E+00
  0.00000000E+00  0.00000000E+00  0.00000000E+00
  0.00000000E+00  0.00000000E+00  0.00000000E+00
  0.00000000E+00  0.00000000E+00  0.00000000E+00
  0.00000000E+00  0.00000000E+00  0.00000000E+00
  0.00000000E+00  0.00000000E+00  0.00000000E+00
  0.00000000E+00  0.00000000E+00  0.00000000E+00
  0.00000000E+00  0.00000000E+00  0.00000000E+00
  0.00000000E+00  0.00000000E+00  0.00000000E+00
  0.00000000E+00  0.00000000E+00  0.00000000E+00
  0.00000000E+00  0.00000000E+00  0.00000000E+00
  0.00000000E+00  0.00000000E+00  0.00000000E+00
  0.00000000E+00  0.00000000E+00  0.00000000E+00
  0.00000000E+00  0.00000000E+00  0.00000000E+00
  0.00000000E+00  0.00000000E+00  0.00000000E+00
  0.00000000E+00  0.00000000E+00  0.00000000E+00
  0.00000000E+00  0.00000000E+00  0.00000000E+00
  0.00000000E+00  0.00000000E+00  0.00000000E+00
  0.00000000E+00  0.00000000E+00  0.00000000E+00
  0.00000000E+00  0.00000000E+00  0.00000000E+00
  0.00000000E+00  0.00000000E+00  0.00000000E+00
  0.00000000E+00  0.00000000E+00  0.00000000E+00
  0.00000000E+00  0.00000000E+00  0.00000000E+00
  0.00000000E+00  0.00000000E+00  0.00000000E+00
  0.00000000E+00  0.00000000E+00  0.00000000E+00
  0.00000000E+00  0.00000000E+00  0.00000000E+00
  0.00000000E+00  0.00000000E+00  0.00000000E+00
  0.00000000E+00  0.00000000E+00  0.00000000E+00
  0.00000000E+00  0.00000000E+00  0.00000000E+00
  0.00000000E+00  0.00000000E+00  0.00000000E+00
  0.00000000E+00  0.00000000E+00  0.00000000E+00
  0.00000000E+00  0.00000000E+00  0.00000000E+00
  0.00000000E+00  0.00000000E+00  0.00000000E+00
  0.00000000E+00  0.00000000E+00  0.00000000E+00
  0.00000000E+00  0.00000000E+00  0.00000000E+00
  0.00000000E+00  0.00000000E+00  0.00000000E+00
  0.00000000E+00  0.00000000E+00  0.00000000E+00
  0.00000000E+00  0.00000000E+00  0.00000000E+00
  0.00000000E+00  0.00000000E+00  0.00000000E+00
  0.00000000E+00  0.00000000E+00  0.00000000E+00
  0.00000000E+00  0.00000000E+00  0.00000000E+00
  0.00000000E+00  0.00000000E+00  0.00000000E+00
  0.00000000E+00  0.00000000E+00  0.00000000E+00
  0.00000000E+00  0.00000000E+00  0.00000000E+00
  0.00000000E+00  0.00000000E+00  0.00000000E+00
  0.00000000E+00  0.00000000E+00  0.00000000E+00
  0.00000000E+00  0.00000000E+00  0.00000000E+00
  0.00000000E+00  0.00000000E+00  0.00000000E+00
  0.00000000E+00  0.00000000E+00  0.00000000E+00
  0.00000000E+00  0.00000000E+00  0.00000000E+00
  0.00000000E+00  0.00000000E+00  0.00000000E+00
  0.00000000E+00  0.00000000E+00  0.00000000E+00
  0.00000000E+00  0.00000000E+00  0.00000000E+00
  0.00000000E+00  0.00000000E+00  0.00000000E+00
  0.00000000E+00  0.00000000E+00  0.00000000E+00
  0.00000000E+00  0.00000000E+00  0.00000000E+00
  0.00000000E+00  0.00000000E+00  0.00000000E+00
  0.00000000E+00  0.00000000E+00  0.00000000E+00
  0.00000000E+00  0.00000000E+00  0.00000000E+00
  0.00000000E+00  0.00000000E+00  0.00000000E+00
  0.00000000E+00  0.00000000E+00  0.00000000E+00
  0.00000000E+00  0.00000000E+00  0.00000000E+00
  0.00000000E+00  0.00000000E+00  0.00000000E+00
  0.00000000E+00  0.00000000E+00  0.00000000E+00
  0.00000000E+00  0.00000000E+00  0.00000000E+00
  0.00000000E+00  0.00000000E+00  0.00000000E+00
  0.00000000E+00  0.00000000E+00  0.00000000E+00
  0.00000000E+00  0.00000000E+00  0.00000000E+00
  0.00000000E+00  0.00000000E+00  0.00000000E+00
  0.00000000E+00  0.00000000E+00  0.00000000E+00
  0.00000000E+00  0.00000000E+00  0.00000000E+00
  0.00000000E+00  0.00000000E+00  0.00000000E+00
  0.00000000E+00  0.00000000E+00  0.00000000E+00
  0.00000000E+00  0.00000000E+00  0.00000000E+00
  0.00000000E+00  0.00000000E+00  0.00000000E+00
  0.00000000E+00  0.00000000E+00  0.00000000E+00
  0.00000000E+00  0.00000000E+00  0.00000000E+00
  0.00000000E+00  0.00000000E+00  0.00000000E+00
  0.00000000E+00  0.00000000E+00  0.00000000E+00
  0.00000000E+00  0.00000000E+00  0.00000000E+00
  0.00000000E+00  0.00000000E+00  0.00000000E+00
  0.00000000E+00  0.00000000E+00  0.00000000E+00
  0.00000000E+00  0.00000000E+00  0.00000000E+00
  0.00000000E+00  0.00000000E+00  0.00000000E+00
  0.00000000E+00  0.00000000E+00  0.00000000E+00
  0.00000000E+00  0.00000000E+00  0.00000000E+00
  0.00000000E+00  0.00000000E+00  0.00000000E+00
  0.00000000E+00  0.00000000E+00  0.00000000E+00
  0.00000000E+00  0.00000000E+00  0.00000000E+00
  0.00000000E+00  0.00000000E+00  0.00000000E+00
  0.00000000E+00  0.00000000E+00  0.00000000E+00
  0.00000000E+00  0.00000000E+00  0.00000000E+00
  0.00000000E+00  0.00000000E+00  0.00000000E+00
  0.00000000E+00  0.00000000E+00  0.00000000E+00
  0.00000000E+00  0.00000000E+00  0.00000000E+00
  0.00000000E+00  0.00000000E+00  0.00000000E+00
  0.00000000E+00  0.00000000E+00  0.00000000E+00
  0.00000000E+00  0.00000000E+00  0.00000000E+00
  0.00000000E+00  0.00000000E+00  0.00000000E+00
  0.00000000E+00  0.00000000E+00  0.00000000E+00
  0.00000000E+00  0.00000000E+00  0.00000000E+00
  0.00000000E+00  0.00000000E+00  0.00000000E+00
  0.00000000E+00  0.00000000E+00  0.00000000E+00
  0.00000000E+00  0.00000000E+00  0.00000000E+00
  0.00000000E+00  0.00000000E+00  0.00000000E+00
  0.00000000E+00  0.00000000E+00  0.00000000E+00
  0.00000000E+00  0.00000000E+00  0.00000000E+00
  0.00000000E+00  0.00000000E+00  0.00000000E+00
  0.00000000E+00  0.00000000E+00  0.00000000E+00
  0.00000000E+00  0.00000000E+00  0.00000000E+00
  0.00000000E+00  0.00000000E+00  0.00000000E+00
  0.00000000E+00  0.00000000E+00  0.00000000E+00
  0.00000000E+00  0.00000000E+00  0.00000000E+00
  0.00000000E+00  0.00000000E+00  0.00000000E+00
  0.00000000E+00  0.00000000E+00  0.00000000E+00
  0.00000000E+00  0.00000000E+00  0.00000000E+00
  0.00000000E+00  0.00000000E+00  0.00000000E+00
  0.00000000E+00  0.00000000E+00  0.00000000E+00
  0.00000000E+00  0.00000000E+00  0.00000000E+00
  0.00000000E+00  0.00000000E+00  0.00000000E+00
  0.00000000E+00  0.00000000E+00  0.00000000E+00
  0.00000000E+00  0.00000000E+00  0.00000000E+00
  0.00000000E+00  0.00000000E+00  0.00000000E+00
  0.00000000E+00  0.00000000E+00  0.00000000E+00
  0.00000000E+00  0.00000000E+00  0.00000000E+00
  0.00000000E+00  0.00000000E+00  0.00000000E+00
  0.00000000E+00  0.00000000E+00  0.00000000E+00
  0.00000000E+00  0.00000000E+00  0.00000000E+00
  0.00000000E+00  0.00000000E+00  0.00000000E+00
  0.00000000E+00  0.00000000E+00  0.00000000E+00
  0.00000000E+00  0.00000000E+00  0.00000000E+00
  0.00000000E+00  0.00000000E+00  0.00000000E+00
  0.00000000E+00  0.00000000E+00  0.00000000E+00
  0.00000000E+00  0.00000000E+00  0.00000000E+00
  0.00000000E+00  0.00000000E+00  0.00000000E+00
  0.00000000E+00  0.00000000E+00  0.00000000E+00
  0.00000000E+00  0.00000000E+00  0.00000000E+00
  0.00000000E+00  0.00000000E+00  0.00000000E+00
  0.00000000E+00  0.00000000E+00  0.00000000E+00
  0.00000000E+00  0.00000000E+00  0.00000000E+00
  0.00000000E+00  0.00000000E+00  0.00000000E+00
  0.00000000E+00  0.00000000E+00  0.00000000E+00
  0.00000000E+00  0.00000000E+00  0.00000000E+00
  0.00000000E+00  0.00000000E+00  0.00000000E+00
  0.00000000E+00  0.00000000E+00  0.00000000E+00
  0.00000000E+00  0.00000000E+00  0.00000000E+00
  0.00000000E+00  0.00000000E+00  0.00000000E+00
  0.00000000E+00  0.00000000E+00  0.00000000E+00
  0.00000000E+00  0.00000000E+00  0.00000000E+00
  0.00000000E+00  0.00000000E+00  0.00000000E+00
  0.00000000E+00  0.00000000E+00  0.00000000E+00
  0.00000000E+00  0.00000000E+00  0.00000000E+00
  0.00000000E+00  0.00000000E+00  0.00000000E+00
  0.00000000E+00  0.00000000E+00  0.00000000E+00
  0.00000000E+00  0.00000000E+00  0.00000000E+00
  0.00000000E+00  0.00000000E+00  0.00000000E+00
  0.00000000E+00  0.00000000E+00  0.00000000E+00
  0.00000000E+00  0.00000000E+00  0.00000000E+00
  0.00000000E+00  0.00000000E+00  0.00000000E+00
  0.00000000E+00  0.00000000E+00  0.00000000E+00
  0.00000000E+00  0.00000000E+00  0.00000000E+00
  0.00000000E+00  0.00000000E+00  0.00000000E+00
  0.00000000E+00  0.00000000E+00  0.00000000E+00
  0.00000000E+00  0.00000000E+00  0.00000000E+00
  0.00000000E+00  0.00000000E+00  0.00000000E+00
  0.00000000E+00  0.00000000E+00  0.00000000E+00
  0.00000000E+00  0.00000000E+00  0.00000000E+00
  0.00000000E+00  0.00000000E+00  0.00000000E+00
  0.00000000E+00  0.00000000E+00  0.00000000E+00
  0.00000000E+00  0.00000000E+00  0.00000000E+00
  0.00000000E+00  0.00000000E+00  0.00000000E+00
  0.00000000E+00  0.00000000E+00  0.00000000E+00
  0.00000000E+00  0.00000000E+00  0.00000000E+00
  0.00000000E+00  0.00000000E+00  0.00000000E+00
  0.00000000E+00  0.00000000E+00  0.00000000E+00
  0.00000000E+00  0.00000000E+00  0.00000000E+00
  0.00000000E+00  0.00000000E+00  0.00000000E+00
  0.00000000E+00  0.00000000E+00  0.00000000E+00
  0.00000000E+00  0.00000000E+00  0.00000000E+00
  0.00000000E+00  0.00000000E+00  0.00000000E+00
  0.00000000E+00  0.00000000E+00  0.00000000E+00
  0.00000000E+00  0.00000000E+00  0.00000000E+00
  0.00000000E+00  0.00000000E+00  0.00000000E+00
  0.00000000E+00  0.00000000E+00  0.00000000E+00
  0.00000000E+00  0.00000000E+00  0.00000000E+00
  0.00000000E+00  0.00000000E+00  0.00000000E+00
  0.00000000E+00  0.00000000E+00  0.00000000E+00
  0.00000000E+00  0.00000000E+00  0.00000000E+00
  0.00000000E+00  0.00000000E+00  0.00000000E+00
  0.00000000E+00  0.00000000E+00  0.00000000E+00
  0.00000000E+00  0.00000000E+00  0.00000000E+00
  0.00000000E+00  0.00000000E+00  0.00000000E+00
  0.00000000E+00  0.00000000E+00  0.00000000E+00