CuInSe2gb                               
   1.00000000000000     
     9.7266780392896699    0.0000000000000000    0.0000000000000000
     0.0000000000000000    8.4235502764570693    0.0000000000000000
     0.0000000000000000    0.0000000000000000   45.0000000000000000
   Fe   Mn
   281     7
Direct
  0.0534198833786735  0.7019051299680520  0.2114267586605082
  0.3177070292616267  0.7245762584622435  0.8763002574389972
  0.6875257456897315  0.9580682273616120  0.6111893953150755
  0.4380505337256628  0.4576234134893734  0.6112397397729855
  0.4399411446048290  0.2881559993013342  0.2554562656595382
  0.0585112901664702  0.3878336993764874  0.8335228411582642
  0.3082946167320799  0.8874834128444951  0.8335103627410146
  0.4471127058715957  0.6267804221965004  0.7001710195255086
  0.0606661026984380  0.2117827412397127  0.7448297162948191
  0.1785480497185066  0.4509728767531646  0.2113156688365773
  0.5678536861033507  0.2107052642228980  0.4774494590973699
  0.0668713869336333  0.8748096729707004  0.5667517878735181
  0.5679175366196849  0.2242281097350667  0.8760358461366042
  0.8096988619746472  0.5332149962188911  0.1242556872255735
  0.4285979770437631  0.9510268587623125  0.2113180212501388
  0.5668544206156256  0.3746575543562768  0.5668242944539130
  0.8122010979608998  0.0418422215236572  0.3885783385435375
  0.6825561757843214  0.7884020560233935  0.5221993149907161
  0.4427882161544018  0.4606263061082506  0.4774530518296148
  0.4348261529144145  0.9618174551605765  0.7445730535210767
  0.4420213935858581  0.6249834879596056  0.5667232529403801
  0.0595462758150010  0.5332292401283140  0.1242647406851674
  0.3095804775094215  0.0332381800843009  0.1242691432651838
  0.6903964743917050  0.9593457339241011  0.3441735942211775
  0.6812549273551176  0.7774404685891529  0.1240623701304275
  0.0528690378863583  0.3738908786331178  0.2998182204012355
  0.6893155516142097  0.4672417146250026  0.8759268553293462
  0.4286272694136465  0.4510297317747760  0.2113058362142157
  0.8084109228962258  0.3749595151556097  0.4331163394646120
  0.5628221780437583  0.7080388806210727  0.6113724150821400
  0.5600125190810479  0.5412325675027768  0.6556857644187953
  0.9334796791831081  0.1250260450220552  0.4331076270600756
  0.5658536432788769  0.5375143594739392  0.2554490891139443
  0.6903184230892011  0.4593949919886779  0.3441791453063206
  0.1914462436287216  0.6124280134642742  0.1668188375300457
  0.1951424576940604  0.7983411097511511  0.7886892352435658
  0.4478836025310722  0.1255620820277617  0.7000946021119264
  0.9278292629389284  0.6238109748794030  0.2997241227578925
  0.3181320985480756  0.2242405432072314  0.8760879550271538
  0.3167363271003655  0.8746331589110773  0.5667949792047292
  0.8181916028401082  0.2238423010263446  0.8761736137292520
  0.8101831905603583  0.5407528832569878  0.6558325866956889
  0.5594601892178171  0.5332479217894462  0.1242767813832542
  0.5662569712451422  0.8624954812045593  0.1666277033599215
  0.1899775301307462  0.2881557968847862  0.2554489741573909
  0.8084214766865102  0.8749382315275059  0.4331157069078419
  0.5720424085470257  0.3761571491720810  0.7000998462718072
  0.0596846372097910  0.0332737591396649  0.1242578556468367
  0.3097263015333335  0.5407657310304872  0.6557726290496784
  0.5653619839863978  0.2093469900069654  0.3441878852961248
  0.1877045099517896  0.9581178923334460  0.6113544966658842
  0.3028772000484251  0.3739188076725004  0.2997840448562419
  0.4346022921777967  0.7907453085048957  0.6557058341740759
  0.6846597664040757  0.4619744509153150  0.7446569978488241
  0.0662259871125258  0.3625037584504781  0.1666251307823063
  0.6974623397553873  0.6262548798207608  0.7004321733341641
  0.3122000281866604  0.5418557521046546  0.3885714695036168
  0.0681737164052868  0.7243492412118485  0.8761240790587391
  0.9333406045205306  0.6375154093444094  0.8335564961036325
  0.3200842056214903  0.5497626656182020  0.7887285031528825
  0.3033725544397838  0.2018305033510158  0.2114324095778882
  0.0678233637747110  0.7106884131033903  0.4774599366450868
  0.5534257124926598  0.2018484363521343  0.2114242752164559
  0.3110098605221845  0.2119037961281055  0.7445101497027865
  0.0721906152707375  0.3758059924018112  0.7004500677454177
  0.1834879651558075  0.6375368406678116  0.8333942637028339
  0.0714933183649536  0.0490049614869417  0.7887414906444998
  0.4416915669683313  0.1250981477382175  0.5668056275423972
  0.9348986817890614  0.2912380867140387  0.6557097677579993
  0.8034212558979213  0.2018304668252465  0.2114304711921744
  0.9286063433912353  0.9510941563660784  0.2112898878569988
  0.9416484545902960  0.6250901427450716  0.5668924813963592
  0.8085856028080409  0.3879589480433807  0.8334879410966927
  0.1972758183796181  0.6263215446075938  0.7000683902173378
  0.8085257520207524  0.8881901047465744  0.8334691628337075
  0.6847527036659867  0.2906583128680483  0.6557848607521186
  0.3127767134094027  0.2080547730486460  0.6112891572501054
  0.4356931638712052  0.4621436908891284  0.7444004109781911
  0.4372763263559404  0.7919038466280064  0.3886178729039262
  0.6853197444046663  0.9619942383903600  0.7445084521302766
  0.8033140018253464  0.7017982443667559  0.2114239546532640
  0.8128768621697103  0.7080008728503470  0.6112175310923638
  0.4311781401536907  0.7773778977041356  0.1240791200034231
  0.3108176580394735  0.7123525196564001  0.7444766797508077
  0.3211684971425075  0.0492315679214649  0.7886820083272293
  0.8121687552427802  0.5417995009427837  0.3885767267253983
  0.6824128541235385  0.2882129657024265  0.5223176740074592
  0.6950032378183514  0.7984524597287713  0.7887662337159613
  0.1899115730337242  0.7882127814168874  0.2554683533484671
  0.6913568470195629  0.1123838488924424  0.1668062842050013
  0.6929037946759663  0.9606217125341648  0.4774849374477059
  0.9403845286947958  0.9593172985814923  0.3441732402536412
  0.8076207449146721  0.0383596754075620  0.5222669506035059
  0.6834954419500008  0.6250369573074305  0.4330844735346322
  0.4403455340134816  0.4593873281997483  0.3441828021940611
  0.8108084137431625  0.2117546624024701  0.7446507838632282
  0.4393023466985017  0.9670943277928004  0.8759550012559356
  0.5665907585608759  0.8749295387057282  0.5668644402970404
  0.8097117625220693  0.0333365934768424  0.1242671044653735
  0.4277855207129526  0.6237889825733944  0.2997147058936128
  0.8176997157112441  0.7236162823456398  0.8761348448591009
  0.6874894550084659  0.4581075586257225  0.6111800013258161
  0.5584762048077676  0.3876999423073840  0.8331612672627912
  0.8028296762069371  0.3737549479528207  0.2997729058012160
  0.1869768892767492  0.2917491998568335  0.3884954699008393
  0.8210659229222641  0.5490820419033772  0.7887934937829186
  0.1824886553251160  0.7884287000903869  0.5223221323778240
  0.3028449932554981  0.8738216290660147  0.2997776135781468
  0.1787140386890747  0.9510587322301528  0.2112950673891467
  0.1859005113349756  0.4614193519538820  0.7446245970404677
  0.4323487401984979  0.2881823275389283  0.5223245074322984
  0.0653603565525258  0.7094030907843563  0.3441711982088623
  0.1848142825295149  0.7906183557261749  0.6558793559316489
  0.4461890676146127  0.7984447922559771  0.7887106042941586
  0.6834645115595918  0.1251063085722388  0.4331023418058405
  0.9324272465400241  0.7882495987232881  0.5223436560558163
  0.6913418682794522  0.6123729711671912  0.1667968708817648
  0.8154389920237544  0.7093150649859611  0.3441724482849503
  0.9350222030214953  0.4618565517471209  0.7445661926682674
  0.1903404724101112  0.4592547628574905  0.3441968032352353
  0.5697346393223072  0.5491378732790537  0.7889272078752855
  0.5662700051459527  0.3624860983370860  0.1666528594472075
  0.5652863423995178  0.7093918511399863  0.3441767006500346
  0.5528390497655901  0.3738433192923047  0.2997873821483888
  0.1898522990289936  0.4671984234637002  0.8759268732452429
  0.1913617456407412  0.1123569223878022  0.1668132136192497
  0.4448228634419653  0.2987475168684681  0.7887902975782937
  0.6900135161361002  0.7881414905330258  0.2554454397841759
  0.9337088645265179  0.1378036134349314  0.8335216879031092
  0.4429240062139322  0.9608025180086432  0.4774596420000888
  0.5674881710201579  0.7237460281989649  0.8761194910321669
  0.1928476758137866  0.4607449745230804  0.4774515422485819
  0.9311487214220242  0.2775026449115811  0.1240795296972381
  0.3121376675062467  0.0417437035903520  0.3885407784235946
  0.0598244421966828  0.0405991021569035  0.6558293240644879
  0.5584406760240561  0.3749877274506417  0.4331260913273123
  0.9335458128735836  0.6249486489790523  0.4330796757849126
  0.3162526073463590  0.3625102961829288  0.1666307584975737
  0.9466352512329577  0.1264482453316978  0.7001076786509244
  0.5599982351732450  0.0414424462869075  0.6556815356106137
  0.5573188763369497  0.5382923246842275  0.5223218087895160
  0.1778679904979193  0.1237839968852677  0.2997349582773108
  0.4413604220284331  0.1124220247906349  0.1668135234157067
  0.6778243272755070  0.6238048473373879  0.2997706581754682
  0.9278594659870447  0.1237496551842374  0.2996931935047111
  0.8167897223538810  0.3745700115887420  0.5667921587713376
  0.0527777264935434  0.8738396467522966  0.2997735461917068
  0.1917329691590516  0.6251849266173082  0.5667862075000877
  0.9454691038001531  0.7980225709318773  0.7887825972832490
  0.3081620077365549  0.3873177210181679  0.8335156612070165
  0.9390175024817378  0.4671822512632480  0.8759447301202979
  0.4337919178331730  0.6376410996217313  0.8334349536377815
  0.0652950221243047  0.2093857000003763  0.3441864130264518
  0.1893403287558584  0.9660512447229372  0.8760555218691179
  0.9312068662568957  0.7773463055801334  0.1240668942761886
  0.6871217723840451  0.7918685687671491  0.3885460446708665
  0.9347580275636987  0.7907393681485531  0.6558404532542624
  0.9412992701425248  0.1123350953091255  0.1667737952267889
  0.4347879058863959  0.2908431462250149  0.6559203188235410
  0.0534247739787558  0.2017671849556294  0.2114287841698888
  0.6786397522100361  0.9509963659976524  0.2113056602649317
  0.1779962566773375  0.6239336721588211  0.2997694334337882
  0.8223596209446304  0.8759906135535180  0.7001447259157426
  0.9468429359790383  0.6260015599429050  0.7001969913614324
  0.1971082952599237  0.1263191549370139  0.7002193050288846
  0.9428204599299079  0.4607301323067363  0.4774486315987282
  0.8127144026491804  0.2079655523195924  0.6113614793138971
  0.1834403335705630  0.6249727602313186  0.4331047435963324
  0.4279347008125121  0.1238760730055651  0.2997959760397484
  0.6780025240939255  0.1239129102604914  0.2997869408201021
  0.5622175472722970  0.5418427568179870  0.3885746090402168
  0.8153437140534840  0.2094162634966975  0.3441812562882843
  0.4397610424967124  0.4672398789250813  0.8759673566034709
  0.5584871705437707  0.8883940824687795  0.8333826280496054
  0.3179259432072884  0.2106894728266510  0.4774549223074134
  0.1929311905306219  0.9606880079804146  0.4774636299912433
  0.0587069356804265  0.8876487621051131  0.8333784689873168
  0.0574216596535693  0.5382076094429883  0.5223432942913815
  0.9428322767999741  0.9608030513603049  0.4774683719602606
  0.0628728082050730  0.7078192153758821  0.6112260532913729
  0.5574865134630252  0.0382757223353670  0.5223488824644741
  0.6963586337658509  0.2984311702206326  0.7887515482867166
  0.8162448300123715  0.3625129927729195  0.1666307265004020
  0.4334487592674556  0.1250399580031999  0.4331079122885554
  0.0679023620753566  0.2107368499535818  0.4774623180560468
  0.3098565242963010  0.0408708630506630  0.6557241935211923
  0.4324702394007855  0.7882535819031047  0.5222031536675023
  0.1837223814832331  0.1380477725444368  0.8334465157974119
  0.1811626347166734  0.2775297583454772  0.1240898871632961
  0.9402813340907243  0.4593169515310854  0.3441813266684226
  0.3162624736446715  0.8624583210708882  0.1666583437993623
  0.3033813373810968  0.7018069552620975  0.2114227208797899
  0.9413027682659437  0.6123378980090983  0.1667839518449515
  0.1878532276398610  0.4584774060645934  0.6112676316437893
  0.0723301410908319  0.8762081701314155  0.6999568637215127
  0.0598123949238216  0.5406305083222879  0.6558051638637379
  0.3095589676940966  0.5332250481460903  0.1242677174249981
  0.9371405353290009  0.7917708093563388  0.3885543294461768
  0.9460901641622527  0.2983346074561656  0.7886211640183848
  0.1848038826102480  0.2909728680690795  0.6557367651850937
  0.9378897677705262  0.9580372504966641  0.6112254534761876
  0.8114047408806536  0.7112788817756690  0.7445935173298688
  0.6900168461842648  0.2881809994680795  0.2554652631107101
  0.0610163468226241  0.7114684772623574  0.7448236220481773
  0.6786635063440700  0.4510388682909394  0.2113028141766877
  0.8179509277184541  0.2106460337877816  0.4774562308263626
  0.5678916204875691  0.7106040174894912  0.4775172751866217
  0.0662573736067025  0.8624677734627882  0.1666237780936488
  0.9324360036700727  0.2884799421911255  0.5223204750112722
  0.6846542008051112  0.7907781520505727  0.6557880225468975
  0.0584139208466711  0.8750208155082401  0.4331046705365705
  0.0681974431259492  0.2240324531432013  0.8761173631702384
  0.8101970252065219  0.0413134409175782  0.6559459165264644
  0.5595979952782294  0.0331903672668528  0.1242694058392179
  0.3084267660038121  0.3749893347453759  0.4331251419293934
  0.3168615358046147  0.3747453135231650  0.5667790972375318
  0.3178668834823478  0.7106407555211294  0.4774580726010015
  0.0573067138452376  0.0382015444136555  0.5223436521782409
  0.3223013907053068  0.8760110192876848  0.7000937091356623
  0.0659283186313636  0.5375576860035889  0.2554392574498633
  0.6832330582218086  0.1372257350669144  0.8334283449682963
  0.8158192620322159  0.0375181224426782  0.2554573257640945
  0.1834486156820019  0.1250731372677248  0.4331089811667162
  0.6982813132141393  0.1265050311484896  0.7001051122089703
  0.1824284260372933  0.2882756096000242  0.5223117652962539
  0.4399342559691981  0.7881492891355526  0.2554546172890996
  0.8158846203650097  0.5374744117549688  0.2554333906414679
  0.0627612409832066  0.2080462868230276  0.6112214738068191
  0.1870625155751359  0.7917844088953084  0.3885151027541583
  0.3074750516075039  0.5383351421212810  0.5223691925905382
  0.8162573532642189  0.8624872622213955  0.1666352074994271
  0.6872035320554726  0.2918196498713441  0.3885623754731059
  0.1915726204169938  0.1250758270845100  0.5668961510870096
  0.6894386580173705  0.9679788926279299  0.8760909278694098
  0.6920318703620694  0.1251307883797801  0.5666990533329173
  0.4403057455125257  0.9593665703416419  0.3441928624830222
  0.1850082462791737  0.9624790986476250  0.7446781770094922
  0.9399553074081801  0.7882054061681509  0.2554601111075859
  0.5584484495741228  0.8750244211635463  0.4330695351053619
  0.3084090360427816  0.8749904124977820  0.4331123523741521
  0.8073621551318154  0.5381974879802054  0.5223288541359358
  0.9286098004850312  0.4510015699881291  0.2113097209850260
  0.3159302695552687  0.5374436041962971  0.2554252076992816
  0.5621542850084386  0.0417653736812293  0.3885493719535366
  0.9376037632345288  0.4581895122195477  0.6113573967110055
  0.0621630013633034  0.0417983425967169  0.3885692016553070
  0.0621399299844842  0.5418577308303003  0.3885567735092173
  0.4371846457940258  0.2918379071564245  0.3885778307722025
  0.6930317829076517  0.4607058220697263  0.4774657155524359
  0.0669193416701934  0.3746646948761423  0.5667644033397718
  0.5534090196269438  0.7018178125414438  0.2114281021027817
  0.9399882129877651  0.2882008508376618  0.2554525573374997
  0.8204861441408894  0.0492738543119187  0.7889397310488465
  0.1903225251497883  0.9593789474642579  0.3441920283679857
  0.5528063748484684  0.8737864105714571  0.2997869026105262
  0.0583866871435646  0.3749555132659400  0.4331193513312947
  0.3152819416171775  0.7093551296263013  0.3441815919922804
  0.3154052024492270  0.2093937875910191  0.3441827834125576
  0.9416701342217478  0.1249835774584635  0.5668628434739290
  0.4383133370965192  0.9580548695963114  0.6112675917622022
  0.5658248776859894  0.0374755025165110  0.2554516164250803
  0.1811814388904447  0.7774156239684943  0.1240765216835969
  0.0659085243142172  0.0375672107930409  0.2554537883048672
  0.6916032149640644  0.6249741918000281  0.5668216414269222
  0.4414846179672407  0.6122943129357981  0.1668024410478544
  0.3071894570404455  0.0382600024547491  0.5222820010303247
  0.6811367140369854  0.2774790005298407  0.1240828343204685
  0.8179198738320732  0.7106836162711371  0.4774563154500791
  0.4337851653869121  0.1375604966353688  0.8335672559154146
  0.3220055051810853  0.3757084057916914  0.7001241565853628
  0.6837092854413513  0.6373325754433320  0.8335469251192266
  0.5610637725694387  0.7130486357524815  0.7445650876991862
  0.9371004705645730  0.2918145490792562  0.3885383008704876
  0.9391077420959842  0.9668692457945134  0.8759479080329338
  0.9350771875997059  0.9617007846374390  0.7445353591091377
  0.8168520551195660  0.8745079365110734  0.5668139020640012
  0.8028258180733047  0.8738489745375231  0.2997861959883663
  0.3159068005757782  0.0375556844929912  0.2554422690076391
  0.4312093267533615  0.2774296082828528  0.1240739452854070
  0.3124396792439740  0.7078906667793959  0.6113798554372126
  0.4333661693712958  0.6249990792816600  0.4330918847734309
  0.1971247703779702  0.2969394257609638  0.7884934145675457
  0.5711160392863962  0.0495569786086621  0.7887030678976313
  0.0710490487058346  0.5501590557515239  0.7888182362562437
  0.8226374047307086  0.3767075518158401  0.7001504442765928
  0.5609481227108156  0.2119729487405825  0.7445625602516001
  0.5625558543942817  0.2069221612376686  0.6112421113014900
  0.5723708200633001  0.8763849874969576  0.7005064069635251
 
  0.00000000E+00  0.00000000E+00  0.00000000E+00
  0.00000000E+00  0.00000000E+00  0.00000000E+00
  0.00000000E+00  0.00000000E+00  0.00000000E+00
  0.00000000E+00  0.00000000E+00  0.00000000E+00
  0.00000000E+00  0.00000000E+00  0.00000000E+00
  0.00000000E+00  0.00000000E+00  0.00000000E+00
  0.00000000E+00  0.00000000E+00  0.00000000E+00
  0.00000000E+00  0.00000000E+00  0.00000000E+00
  0.00000000E+00  0.00000000E+00  0.00000000E+00
  0.00000000E+00  0.00000000E+00  0.00000000E+00
  0.00000000E+00  0.00000000E+00  0.00000000E+00
  0.00000000E+00  0.00000000E+00  0.00000000E+00
  0.00000000E+00  0.00000000E+00  0.00000000E+00
  0.00000000E+00  0.00000000E+00  0.00000000E+00
  0.00000000E+00  0.00000000E+00  0.00000000E+00
  0.00000000E+00  0.00000000E+00  0.00000000E+00
  0.00000000E+00  0.00000000E+00  0.00000000E+00
  0.00000000E+00  0.00000000E+00  0.00000000E+00
  0.00000000E+00  0.00000000E+00  0.00000000E+00
  0.00000000E+00  0.00000000E+00  0.00000000E+00
  0.00000000E+00  0.00000000E+00  0.00000000E+00
  0.00000000E+00  0.00000000E+00  0.00000000E+00
  0.00000000E+00  0.00000000E+00  0.00000000E+00
  0.00000000E+00  0.00000000E+00  0.00000000E+00
  0.00000000E+00  0.00000000E+00  0.00000000E+00
  0.00000000E+00  0.00000000E+00  0.00000000E+00
  0.00000000E+00  0.00000000E+00  0.00000000E+00
  0.00000000E+00  0.00000000E+00  0.00000000E+00
  0.00000000E+00  0.00000000E+00  0.00000000E+00
  0.00000000E+00  0.00000000E+00  0.00000000E+00
  0.00000000E+00  0.00000000E+00  0.00000000E+00
  0.00000000E+00  0.00000000E+00  0.00000000E+00
  0.00000000E+00  0.00000000E+00  0.00000000E+00
  0.00000000E+00  0.00000000E+00  0.00000000E+00
  0.00000000E+00  0.00000000E+00  0.00000000E+00
  0.00000000E+00  0.00000000E+00  0.00000000E+00
  0.00000000E+00  0.00000000E+00  0.00000000E+00
  0.00000000E+00  0.00000000E+00  0.00000000E+00
  0.00000000E+00  0.00000000E+00  0.00000000E+00
  0.00000000E+00  0.00000000E+00  0.00000000E+00
  0.00000000E+00  0.00000000E+00  0.00000000E+00
  0.00000000E+00  0.00000000E+00  0.00000000E+00
  0.00000000E+00  0.00000000E+00  0.00000000E+00
  0.00000000E+00  0.00000000E+00  0.00000000E+00
  0.00000000E+00  0.00000000E+00  0.00000000E+00
  0.00000000E+00  0.00000000E+00  0.00000000E+00
  0.00000000E+00  0.00000000E+00  0.00000000E+00
  0.00000000E+00  0.00000000E+00  0.00000000E+00
  0.00000000E+00  0.00000000E+00  0.00000000E+00
  0.00000000E+00  0.00000000E+00  0.00000000E+00
  0.00000000E+00  0.00000000E+00  0.00000000E+00
  0.00000000E+00  0.00000000E+00  0.00000000E+00
  0.00000000E+00  0.00000000E+00  0.00000000E+00
  0.00000000E+00  0.00000000E+00  0.00000000E+00
  0.00000000E+00  0.00000000E+00  0.00000000E+00
  0.00000000E+00  0.00000000E+00  0.00000000E+00
  0.00000000E+00  0.00000000E+00  0.00000000E+00
  0.00000000E+00  0.00000000E+00  0.00000000E+00
  0.00000000E+00  0.00000000E+00  0.00000000E+00
  0.00000000E+00  0.00000000E+00  0.00000000E+00
  0.00000000E+00  0.00000000E+00  0.00000000E+00
  0.00000000E+00  0.00000000E+00  0.00000000E+00
  0.00000000E+00  0.00000000E+00  0.00000000E+00
  0.00000000E+00  0.00000000E+00  0.00000000E+00
  0.00000000E+00  0.00000000E+00  0.00000000E+00
  0.00000000E+00  0.00000000E+00  0.00000000E+00
  0.00000000E+00  0.00000000E+00  0.00000000E+00
  0.00000000E+00  0.00000000E+00  0.00000000E+00
  0.00000000E+00  0.00000000E+00  0.00000000E+00
  0.00000000E+00  0.00000000E+00  0.00000000E+00
  0.00000000E+00  0.00000000E+00  0.00000000E+00
  0.00000000E+00  0.00000000E+00  0.00000000E+00
  0.00000000E+00  0.00000000E+00  0.00000000E+00
  0.00000000E+00  0.00000000E+00  0.00000000E+00
  0.00000000E+00  0.00000000E+00  0.00000000E+00
  0.00000000E+00  0.00000000E+00  0.00000000E+00
  0.00000000E+00  0.00000000E+00  0.00000000E+00
  0.00000000E+00  0.00000000E+00  0.00000000E+00
  0.00000000E+00  0.00000000E+00  0.00000000E+00
  0.00000000E+00  0.00000000E+00  0.00000000E+00
  0.00000000E+00  0.00000000E+00  0.00000000E+00
  0.00000000E+00  0.00000000E+00  0.00000000E+00
  0.00000000E+00  0.00000000E+00  0.00000000E+00
  0.00000000E+00  0.00000000E+00  0.00000000E+00
  0.00000000E+00  0.00000000E+00  0.00000000E+00
  0.00000000E+00  0.00000000E+00  0.00000000E+00
  0.00000000E+00  0.00000000E+00  0.00000000E+00
  0.00000000E+00  0.00000000E+00  0.00000000E+00
  0.00000000E+00  0.00000000E+00  0.00000000E+00
  0.00000000E+00  0.00000000E+00  0.00000000E+00
  0.00000000E+00  0.00000000E+00  0.00000000E+00
  0.00000000E+00  0.00000000E+00  0.00000000E+00
  0.00000000E+00  0.00000000E+00  0.00000000E+00
  0.00000000E+00  0.00000000E+00  0.00000000E+00
  0.00000000E+00  0.00000000E+00  0.00000000E+00
  0.00000000E+00  0.00000000E+00  0.00000000E+00
  0.00000000E+00  0.00000000E+00  0.00000000E+00
  0.00000000E+00  0.00000000E+00  0.00000000E+00
  0.00000000E+00  0.00000000E+00  0.00000000E+00
  0.00000000E+00  0.00000000E+00  0.00000000E+00
  0.00000000E+00  0.00000000E+00  0.00000000E+00
  0.00000000E+00  0.00000000E+00  0.00000000E+00
  0.00000000E+00  0.00000000E+00  0.00000000E+00
  0.00000000E+00  0.00000000E+00  0.00000000E+00
  0.00000000E+00  0.00000000E+00  0.00000000E+00
  0.00000000E+00  0.00000000E+00  0.00000000E+00
  0.00000000E+00  0.00000000E+00  0.00000000E+00
  0.00000000E+00  0.00000000E+00  0.00000000E+00
  0.00000000E+00  0.00000000E+00  0.00000000E+00
  0.00000000E+00  0.00000000E+00  0.00000000E+00
  0.00000000E+00  0.00000000E+00  0.00000000E+00
  0.00000000E+00  0.00000000E+00  0.00000000E+00
  0.00000000E+00  0.00000000E+00  0.00000000E+00
  0.00000000E+00  0.00000000E+00  0.00000000E+00
  0.00000000E+00  0.00000000E+00  0.00000000E+00
  0.00000000E+00  0.00000000E+00  0.00000000E+00
  0.00000000E+00  0.00000000E+00  0.00000000E+00
  0.00000000E+00  0.00000000E+00  0.00000000E+00
  0.00000000E+00  0.00000000E+00  0.00000000E+00
  0.00000000E+00  0.00000000E+00  0.00000000E+00
  0.00000000E+00  0.00000000E+00  0.00000000E+00
  0.00000000E+00  0.00000000E+00  0.00000000E+00
  0.00000000E+00  0.00000000E+00  0.00000000E+00
  0.00000000E+00  0.00000000E+00  0.00000000E+00
  0.00000000E+00  0.00000000E+00  0.00000000E+00
  0.00000000E+00  0.00000000E+00  0.00000000E+00
  0.00000000E+00  0.00000000E+00  0.00000000E+00
  0.00000000E+00  0.00000000E+00  0.00000000E+00
  0.00000000E+00  0.00000000E+00  0.00000000E+00
  0.00000000E+00  0.00000000E+00  0.00000000E+00
  0.00000000E+00  0.00000000E+00  0.00000000E+00
  0.00000000E+00  0.00000000E+00  0.00000000E+00
  0.00000000E+00  0.00000000E+00  0.00000000E+00
  0.00000000E+00  0.00000000E+00  0.00000000E+00
  0.00000000E+00  0.00000000E+00  0.00000000E+00
  0.00000000E+00  0.00000000E+00  0.00000000E+00
  0.00000000E+00  0.00000000E+00  0.00000000E+00
  0.00000000E+00  0.00000000E+00  0.00000000E+00
  0.00000000E+00  0.00000000E+00  0.00000000E+00
  0.00000000E+00  0.00000000E+00  0.00000000E+00
  0.00000000E+00  0.00000000E+00  0.00000000E+00
  0.00000000E+00  0.00000000E+00  0.00000000E+00
  0.00000000E+00  0.00000000E+00  0.00000000E+00
  0.00000000E+00  0.00000000E+00  0.00000000E+00
  0.00000000E+00  0.00000000E+00  0.00000000E+00
  0.00000000E+00  0.00000000E+00  0.00000000E+00
  0.00000000E+00  0.00000000E+00  0.00000000E+00
  0.00000000E+00  0.00000000E+00  0.00000000E+00
  0.00000000E+00  0.00000000E+00  0.00000000E+00
  0.00000000E+00  0.00000000E+00  0.00000000E+00
  0.00000000E+00  0.00000000E+00  0.00000000E+00
  0.00000000E+00  0.00000000E+00  0.00000000E+00
  0.00000000E+00  0.00000000E+00  0.00000000E+00
  0.00000000E+00  0.00000000E+00  0.00000000E+00
  0.00000000E+00  0.00000000E+00  0.00000000E+00
  0.00000000E+00  0.00000000E+00  0.00000000E+00
  0.00000000E+00  0.00000000E+00  0.00000000E+00
  0.00000000E+00  0.00000000E+00  0.00000000E+00
  0.00000000E+00  0.00000000E+00  0.00000000E+00
  0.00000000E+00  0.00000000E+00  0.00000000E+00
  0.00000000E+00  0.00000000E+00  0.00000000E+00
  0.00000000E+00  0.00000000E+00  0.00000000E+00
  0.00000000E+00  0.00000000E+00  0.00000000E+00
  0.00000000E+00  0.00000000E+00  0.00000000E+00
  0.00000000E+00  0.00000000E+00  0.00000000E+00
  0.00000000E+00  0.00000000E+00  0.00000000E+00
  0.00000000E+00  0.00000000E+00  0.00000000E+00
  0.00000000E+00  0.00000000E+00  0.00000000E+00
  0.00000000E+00  0.00000000E+00  0.00000000E+00
  0.00000000E+00  0.00000000E+00  0.00000000E+00
  0.00000000E+00  0.00000000E+00  0.00000000E+00
  0.00000000E+00  0.00000000E+00  0.00000000E+00
  0.00000000E+00  0.00000000E+00  0.00000000E+00
  0.00000000E+00  0.00000000E+00  0.00000000E+00
  0.00000000E+00  0.00000000E+00  0.00000000E+00
  0.00000000E+00  0.00000000E+00  0.00000000E+00
  0.00000000E+00  0.00000000E+00  0.00000000E+00
  0.00000000E+00  0.00000000E+00  0.00000000E+00
  0.00000000E+00  0.00000000E+00  0.00000000E+00
  0.00000000E+00  0.00000000E+00  0.00000000E+00
  0.00000000E+00  0.00000000E+00  0.00000000E+00
  0.00000000E+00  0.00000000E+00  0.00000000E+00
  0.00000000E+00  0.00000000E+00  0.00000000E+00
  0.00000000E+00  0.00000000E+00  0.00000000E+00
  0.00000000E+00  0.00000000E+00  0.00000000E+00
  0.00000000E+00  0.00000000E+00  0.00000000E+00
  0.00000000E+00  0.00000000E+00  0.00000000E+00
  0.00000000E+00  0.00000000E+00  0.00000000E+00
  0.00000000E+00  0.00000000E+00  0.00000000E+00
  0.00000000E+00  0.00000000E+00  0.00000000E+00
  0.00000000E+00  0.00000000E+00  0.00000000E+00
  0.00000000E+00  0.00000000E+00  0.00000000E+00
  0.00000000E+00  0.00000000E+00  0.00000000E+00
  0.00000000E+00  0.00000000E+00  0.00000000E+00
  0.00000000E+00  0.00000000E+00  0.00000000E+00
  0.00000000E+00  0.00000000E+00  0.00000000E+00
  0.00000000E+00  0.00000000E+00  0.00000000E+00
  0.00000000E+00  0.00000000E+00  0.00000000E+00
  0.00000000E+00  0.00000000E+00  0.00000000E+00
  0.00000000E+00  0.00000000E+00  0.00000000E+00
  0.00000000E+00  0.00000000E+00  0.00000000E+00
  0.00000000E+00  0.00000000E+00  0.00000000E+00
  0.00000000E+00  0.00000000E+00  0.00000000E+00
  0.00000000E+00  0.00000000E+00  0.00000000E+00
  0.00000000E+00  0.00000000E+00  0.00000000E+00
  0.00000000E+00  0.00000000E+00  0.00000000E+00
  0.00000000E+00  0.00000000E+00  0.00000000E+00
  0.00000000E+00  0.00000000E+00  0.00000000E+00
  0.00000000E+00  0.00000000E+00  0.00000000E+00
  0.00000000E+00  0.00000000E+00  0.00000000E+00
  0.00000000E+00  0.00000000E+00  0.00000000E+00
  0.00000000E+00  0.00000000E+00  0.00000000E+00
  0.00000000E+00  0.00000000E+00  0.00000000E+00
  0.00000000E+00  0.00000000E+00  0.00000000E+00
  0.00000000E+00  0.00000000E+00  0.00000000E+00
  0.00000000E+00  0.00000000E+00  0.00000000E+00
  0.00000000E+00  0.00000000E+00  0.00000000E+00
  0.00000000E+00  0.00000000E+00  0.00000000E+00
  0.00000000E+00  0.00000000E+00  0.00000000E+00
  0.00000000E+00  0.00000000E+00  0.00000000E+00
  0.00000000E+00  0.00000000E+00  0.00000000E+00
  0.00000000E+00  0.00000000E+00  0.00000000E+00
  0.00000000E+00  0.00000000E+00  0.00000000E+00
  0.00000000E+00  0.00000000E+00  0.00000000E+00
  0.00000000E+00  0.00000000E+00  0.00000000E+00
  0.00000000E+00  0.00000000E+00  0.00000000E+00
  0.00000000E+00  0.00000000E+00  0.00000000E+00
  0.00000000E+00  0.00000000E+00  0.00000000E+00
  0.00000000E+00  0.00000000E+00  0.00000000E+00
  0.00000000E+00  0.00000000E+00  0.00000000E+00
  0.00000000E+00  0.00000000E+00  0.00000000E+00
  0.00000000E+00  0.00000000E+00  0.00000000E+00
  0.00000000E+00  0.00000000E+00  0.00000000E+00
  0.00000000E+00  0.00000000E+00  0.00000000E+00
  0.00000000E+00  0.00000000E+00  0.00000000E+00
  0.00000000E+00  0.00000000E+00  0.00000000E+00
  0.00000000E+00  0.00000000E+00  0.00000000E+00
  0.00000000E+00  0.00000000E+00  0.00000000E+00
  0.00000000E+00  0.00000000E+00  0.00000000E+00
  0.00000000E+00  0.00000000E+00  0.00000000E+00
  0.00000000E+00  0.00000000E+00  0.00000000E+00
  0.00000000E+00  0.00000000E+00  0.00000000E+00
  0.00000000E+00  0.00000000E+00  0.00000000E+00
  0.00000000E+00  0.00000000E+00  0.00000000E+00
  0.00000000E+00  0.00000000E+00  0.00000000E+00
  0.00000000E+00  0.00000000E+00  0.00000000E+00
  0.00000000E+00  0.00000000E+00  0.00000000E+00