CuInSe2gb                               
   1.00000000000000     
     9.7266780392896699    0.0000000000000000    0.0000000000000000
     0.0000000000000000    8.4235502764570693    0.0000000000000000
     0.0000000000000000    0.0000000000000000   45.0000000000000000
   Fe   Mn
   281     7
Direct
  0.0578695603704384  0.7008390210880260  0.2110482130466775
  0.3160393300118532  0.7205746629554035  0.8757396973394532
  0.6883820275115553  0.9580786526613455  0.6114348982795326
  0.4382588013254259  0.4580618517297621  0.6114936162084633
  0.4366532795043159  0.2866977213194405  0.2555221276146898
  0.0608767957234647  0.3868021600666441  0.8341532262997088
  0.3111767643209603  0.8869176517353722  0.8342543748698436
  0.4423090338404030  0.6263806724121982  0.7003948634708760
  0.0636958936065601  0.2132905443454496  0.7444992628926165
  0.1825467237918264  0.4512250984004048  0.2111932114163656
  0.5639131016241344  0.2090657889174189  0.4779247245593132
  0.0641701865847515  0.8749257762099802  0.5668753825951011
  0.5657433646262335  0.2199233091822343  0.8756896888101243
  0.8101946043650031  0.5302516593128682  0.1244913362500495
  0.4332068793109761  0.9514767436476687  0.2111246406467851
  0.5643067590352001  0.3746865427214435  0.5667876049648531
  0.8117302028228800  0.0418192115014016  0.3884084609327354
  0.6859913705381707  0.7904825776100916  0.5220687871102502
  0.4388179285373878  0.4590275742184394  0.4778743342022506
  0.4379699264989549  0.9628589447769750  0.7445211782593489
  0.4391788882800273  0.6246305331356676  0.5668388384978386
  0.5674861288876127  0.8764640214402390  0.7003407815938631
  0.3106585067076554  0.0306142678909641  0.1241285468805734
  0.6866022862318368  0.9579508618461763  0.3440219448483088
  0.6876073234939259  0.7797209588816009  0.1246253556960722
  0.0577811734875421  0.3735497496933078  0.2996673719593795
  0.6889899313121370  0.4713933426049233  0.8754832063771709
  0.4331449068214724  0.4513931678719048  0.2110695826741514
  0.8114056118383669  0.3755762942541840  0.4330143812206372
  0.5633344215334188  0.7079300023162400  0.6115210459633518
  0.5629558944834210  0.5413737799106085  0.6558012948770640
  0.8147027283448528  0.8635471201146755  0.1659882713042464
  0.5610023420321997  0.5372564735025497  0.2555134075982939
  0.6869253919077625  0.4583011830490736  0.3441749457674233
  0.1884991619802273  0.6125082405477422  0.1661814122763612
  0.1918131724901823  0.7993738253449151  0.7887413200749666
  0.4425042906008771  0.1265719244878069  0.7004072836205548
  0.9329240898345554  0.6232872977179327  0.2997398387501753
  0.3153226840270684  0.2201456028066311  0.8756957549891723
  0.3140105956944486  0.8746971102836857  0.5668522937527367
  0.8153732780484253  0.2200935538752762  0.8757001364807154
  0.8128635295423176  0.5417808665052241  0.6557902944494396
  0.5601366411609422  0.5294691427932474  0.1244282801282831
  0.5667828871820587  0.0495144153973838  0.7889434218248398
  0.1867602662394154  0.2869072288323119  0.2554819478573170
  0.8112127921753084  0.8748255345370992  0.4330946011362860
  0.5672235823344699  0.3766466397430982  0.7004561823560022
  0.0611023311997988  0.0290114644889369  0.1244545194534134
  0.3129377894543318  0.5412648842192557  0.6557948034701303
  0.5617595742957122  0.2082937688107641  0.3441256261163234
  0.1882817664246910  0.9579453883520910  0.6114501230111838
  0.3075613678056907  0.3735874211483275  0.2995283473989235
  0.4379027446557423  0.7916146109611417  0.6558124861333835
  0.1918131123293384  0.2984002565387258  0.7888587280827000
  0.0639617761583525  0.3634444766036423  0.1659872387325219
  0.6922134725831869  0.6266112049211926  0.7003617033156975
  0.3117296427285903  0.5417642210527946  0.3884529433345942
  0.0654639868184330  0.7200106305595138  0.8758513331862203
  0.9362763210315210  0.6368844306779925  0.8342708288386752
  0.3173399076770897  0.5497692115679302  0.7889492259467235
  0.3074371058567005  0.2002531988376532  0.2110724008909607
  0.0637717646003869  0.7089252671191879  0.4778617925167168
  0.5572785615455251  0.2008334755412390  0.2111076715892745
  0.3136551589705193  0.2133677569458972  0.7444262799600755
  0.0673653768116451  0.3769185237656213  0.7003683518802983
  0.1860795622016127  0.6369140293983645  0.8340772234140816
  0.0668804494080541  0.0492731688362912  0.7889271625514857
  0.4392321335180632  0.1247451738292090  0.5668820313983951
  0.9380836525555375  0.2918461857903177  0.6557038547428510
  0.8074414224024389  0.2012295368885419  0.2110741502592853
  0.9325006398925182  0.9516337249426066  0.2112826801009150
  0.9389305513553950  0.6248369505678354  0.5667810593371837
  0.8109262914051194  0.3868038833633896  0.8341977043355551
  0.1922528882387940  0.6266056944267235  0.7003459392139453
  0.8111255410520913  0.8865630884528003  0.8342482426242006
  0.6880294035070965  0.2915116366299791  0.6557942102535189
  0.3134027585811025  0.2081872916998378  0.6115232692203740
  0.4382456934179839  0.4628307779943514  0.7443992053857970
  0.4368294149144349  0.7917176088091339  0.3884498934166964
  0.6876870778914467  0.9626251242779859  0.7445230428026277
  0.8072900851098199  0.7008110677340913  0.2111189422450609
  0.8132682839904477  0.7078698079190785  0.6114168921432193
  0.4370814093724301  0.7795521593690675  0.1242285778588282
  0.3130857736551206  0.7129561896968161  0.7444313865355390
  0.3172091730258536  0.0495330315546364  0.7889812080970909
  0.8111979950017120  0.5418751711196235  0.3885209826242031
  0.6861148355818392  0.2909427415816028  0.5221688860902894
  0.6920187846940595  0.7994023654182985  0.7888766044629616
  0.1867722397352490  0.7878533768090002  0.2555633435710938
  0.6890489741641838  0.1135463180416403  0.1661523935181811
  0.6889770554238221  0.9588532970477066  0.4778926850598521
  0.9370614002834604  0.9577395474035379  0.3441588959787415
  0.8109612823563227  0.0406490755711037  0.5221202293894973
  0.6857814970748131  0.6250617062555182  0.4330463746608432
  0.4369400239551000  0.4584733049375666  0.3441002463952299
  0.8132127627246282  0.2135374952257373  0.7444976412677156
  0.4390251540969166  0.9714623713713403  0.8755087998832372
  0.5641887208268446  0.8746410180338848  0.5667896451808875
  0.8104801636503257  0.0299440629783568  0.1245023287026219
  0.4324154470897495  0.6231989134967387  0.2996489057589927
  0.8151457820887298  0.7204253560506930  0.8758271815572934
  0.6881973456551583  0.4578984649685154  0.6114092809285869
  0.5610246698839266  0.3869304080744219  0.8340795420406444
  0.8075218521645494  0.3729715995189286  0.2996761719195271
  0.1863594062538833  0.2916764656146168  0.3884481069986441
  0.8165895539680301  0.5495787879695698  0.7890536775684438
  0.1859337781428092  0.7906468669391860  0.5220995498653371
  0.3074738908496487  0.8735111886452630  0.2996259152853494
  0.1824523482710477  0.9517024250769738  0.2112579257086711
  0.1886600085213742  0.4630068034554393  0.7444361286788079
  0.4358946671058611  0.2905995909672915  0.5221031857066277
  0.0623931656869826  0.7086120946989004  0.3442574476301479
  0.1880094901823958  0.7912257801483163  0.6557093279055574
  0.4417535219802365  0.7997246844705126  0.7887856023622480
  0.6854669168650073  0.1246777277199542  0.4329950548927940
  0.9361357117615279  0.7904310298901871  0.5221773384598927
  0.6888781939378239  0.6131567701454196  0.1660915019647709
  0.8118655240186141  0.7084756820709585  0.3442804757667553
  0.9382080124330366  0.4629304554226771  0.7444582030077114
  0.1868173762659749  0.4584369432151434  0.3441713113626259
  0.5673031898571548  0.5493457793987278  0.7889683175463014
  0.5654317442080545  0.3639138896728198  0.1657399064315571
  0.5615683096587037  0.7086108137293803  0.3442173401036215
  0.5576680831675463  0.3732695736900992  0.2995551065852295
  0.1888277014020100  0.4712880364554210  0.8755823643936028
  0.1887652751970177  0.1126438087763386  0.1661051597654817
  0.4417919126807157  0.2988863086594942  0.7888239660810779
  0.6860204129549192  0.7870348408333525  0.2554879658245904
  0.9367564113075183  0.1367792571198765  0.8341085005814217
  0.4388774400279259  0.9589199754019592  0.4778404542407806
  0.5654352164900972  0.7203302462476604  0.8757286685065391
  0.1889135563740092  0.4592315612216563  0.4779169765581852
  0.9362928642212017  0.2795280531510149  0.1246157039170072
  0.3115029303129700  0.0417126934458813  0.3884708977947186
  0.0628571620840075  0.0410094240853188  0.6557727905892334
  0.9357431868137537  0.6254253210583137  0.4330749782137162
  0.6875719292236202  0.4626302927629963  0.7444883174721051
  0.5634516560486857  0.2135513480628910  0.7444571444912889
  0.9425618085234396  0.1269865284906596  0.7003781833212683
  0.5629768454833515  0.0412495700876386  0.6558077975609654
  0.5610252679977084  0.5409441614771270  0.5221536845379733
  0.1825883644259781  0.1234749121189333  0.2996277607087565
  0.4384685705236351  0.1122894799196794  0.1659835070147172
  0.6821285385905728  0.6233639789961433  0.2996694468367909
  0.9321832632751907  0.1230687888975169  0.2996882516764934
  0.8142066123637410  0.3745613565077131  0.5668668487873378
  0.0577580230951726  0.8732871439141059  0.2996814010174362
  0.1892118634881405  0.6247304834201137  0.5668588520554274
  0.9410668106862009  0.7991334093326254  0.7889174623861923
  0.3113759498406397  0.3868910067000275  0.8341789611543323
  0.9392572293865774  0.4714387149750784  0.8755498860088529
  0.4365628638811342  0.6371119398540618  0.8341253506937427
  0.0619651070022638  0.2086637883214902  0.3441612605815314
  0.1889198231061869  0.9710714901244113  0.8754840625158757
  0.9364333598129909  0.7794596917911490  0.1246287250105050
  0.6863245162146769  0.7919241641761351  0.3884630143493012
  0.9379905522196792  0.7914181866852761  0.6558023121574212
  0.9386318278995194  0.1136232568986965  0.1661536692704450
  0.4377036558803165  0.2914945672406370  0.6558340089557306
  0.0583424783132052  0.2009781520963643  0.2111242086683590
  0.6828662626419544  0.9514062394797178  0.2112706322117194
  0.1823429387777553  0.6233685793354510  0.2997122957637525
  0.8171532345477094  0.8765827461524295  0.7003341291777190
  0.9424913601393220  0.6267423049733422  0.7004092988953573
  0.1923153187048214  0.1269827117925955  0.7004080720077328
  0.9390229081826915  0.4590033284642206  0.4778156866872038
  0.8133205846587188  0.2080227536768215  0.6114467686115383
  0.1862739601805923  0.6254105000980010  0.4330841736177810
  0.4327147115988225  0.1235209469031710  0.2996093397025389
  0.6823441774931599  0.1230740515356480  0.2996139518246536
  0.5612669284810359  0.5419392350468175  0.3884544037730702
  0.8120188553344424  0.2080222770346949  0.3442491375440889
  0.4391380377253669  0.4715131636467643  0.8754678393914176
  0.5610314861050035  0.8867475542674654  0.8342209236081600
  0.3140540916688664  0.2090548175348925  0.4778883163212083
  0.1885647124570872  0.9590953197939652  0.4778094338505110
  0.0610418239900965  0.8867374698249416  0.8341994729750797
  0.0610437711871564  0.5402089575106744  0.5220516829902255
  0.9390166943068701  0.9589310381319551  0.4778889096755516
  0.0633380073917076  0.7080243963123728  0.6114329654754700
  0.5611010287870429  0.0403895326887161  0.5221459092304693
  0.6919309587866447  0.2987329175551141  0.7887655292117899
  0.8143391615553566  0.3634873330444479  0.1660001774767040
  0.4357046960298238  0.1249881687194864  0.4330390856766813
  0.0640093550884814  0.2090601207089745  0.4779008841539504
  0.3130665541647747  0.0413486582172710  0.6557828870402892
  0.4359714010269414  0.7902377348328760  0.5220897743092029
  0.1866373167245001  0.1367441862530724  0.8341076324805273
  0.1859323826094188  0.2789571079124229  0.1244336103765186
  0.9368849659164478  0.4583860408732017  0.3441642185812528
  0.5656142809420664  0.8639751543350966  0.1657919755476415
  0.3076426623959517  0.7001327572651783  0.2110894554202561
  0.9381163068544018  0.6133514046113852  0.1661869675811390
  0.1882801877684659  0.4581115621754064  0.6114353390186030
  0.0672431825331604  0.8767884788394258  0.7002244568584174
  0.0629144064243758  0.5415149681746482  0.6558727145292594
  0.3104799496184149  0.5307007405079074  0.1240663472269284
  0.9363029488734989  0.7917739935435371  0.3885078338249767
  0.9415258014042359  0.2987580535601717  0.7888260027907165
  0.1879718742269495  0.2916405622572315  0.6558169445346049
  0.9385980966110238  0.9581887514251967  0.6114850350099873
  0.8134918938530451  0.7130424819940377  0.7445650010030915
  0.6864036474495870  0.2871272579031730  0.2554166253066007
  0.0638149029570533  0.7130850759590732  0.7444387652451783
  0.6827351120149585  0.4512886712351414  0.2111991502858372
  0.8136992814378886  0.2090036252789844  0.4778149199432115
  0.5640419308573783  0.7089109290633774  0.4778202241023874
  0.0635126501638803  0.8637831259715718  0.1659951436733529
  0.9361162930195172  0.2910435225061229  0.5221570223734480
  0.6877288893997805  0.7913748666559755  0.6558034179131275
  0.0610861909874711  0.8749037208703661  0.4330004140323219
  0.0656371124236628  0.2195743734392056  0.8757714229096584
  0.8130701705267727  0.0411605061252725  0.6557691825339075
  0.5602653710198003  0.0293174314507123  0.1243816878525237
  0.3103825049458462  0.3751673845505338  0.4330513501679931
  0.3139062226797865  0.3747960733323276  0.5668254890061650
  0.3137598627095065  0.7092884762634100  0.4778769680181931
  0.0611865325953006  0.0407900632804858  0.5220947125510311
  0.3172149370158777  0.8766901368683282  0.7003712106520790
  0.0618844136382408  0.5370469250354257  0.2555908245272041
  0.6864947786455292  0.1372224919790772  0.8340898027431388
  0.8113673852795936  0.0369098525725221  0.2555459199824511
  0.1863476467905576  0.1247103521085032  0.4330193031271357
  0.6923281152311882  0.1265977634296735  0.7003432555883072
  0.1861734603435203  0.2907897329812636  0.5222156479763198
  0.4365793905193934  0.7874722473342590  0.2555366966515825
  0.4386177516063357  0.6122648780746245  0.1660464422803825
  0.0631200277058994  0.2081154922517028  0.6114169647379630
  0.1865198948474780  0.7914866390289557  0.3883843069993868
  0.3110564620298525  0.5409840935320555  0.5221644589331288
  0.8171450290098308  0.3767418103479966  0.7003157629409917
  0.6865987803055199  0.2918629394620865  0.3884804119706233
  0.1890966125433622  0.1245877356249876  0.5668142776795758
  0.6889123492907981  0.9716050951227742  0.8755237028100626
  0.6890345150422258  0.1249676372853973  0.5668744490597700
  0.4369183994004350  0.9587446503252506  0.3441728453366390
  0.1883703649930934  0.9629821423880893  0.7445154677145671
  0.9365671266451104  0.7873797514415027  0.2555315173039526
  0.5609805361660581  0.8749315200985773  0.4329778655089607
  0.3104013373597566  0.8748388550286278  0.4330588802613998
  0.8111429483455219  0.5404949583559280  0.5222021194827002
  0.9325163900369053  0.4515119911783157  0.2113540924945259
  0.3115200699699420  0.5368007368836217  0.2556163117273834
  0.5613071706170151  0.0416840344322587  0.3885211333021468
  0.9384432257661320  0.4578821033411220  0.6114645297392990
  0.0616919553864535  0.0416110229033646  0.3884822007949187
  0.0615089219490190  0.5419107246060828  0.3885201807666085
  0.4366576472785472  0.2917072121608449  0.3884263700624458
  0.6887384016257295  0.4591591498283392  0.4779279633800078
  0.0640619635631726  0.3746089333756663  0.5668799774960291
  0.5576130195616353  0.7006516739368651  0.2111103499305409
  0.9363868948646163  0.2868557630863803  0.2555461094231279
  0.8165359143248625  0.0493582001089880  0.7889201341794378
  0.1870273198988942  0.9581243735334358  0.3441380440512220
  0.5577684581340372  0.8733609621323021  0.2996550106219351
  0.0606980360842926  0.3748801969479669  0.4330368538928978
  0.3118591358944959  0.7079189185565069  0.3441711793941026
  0.3116564846093939  0.2081851909381702  0.3440548012405100
  0.9389976563921003  0.1248397454857118  0.5668023393170357
  0.4380575491163367  0.9580650970636375  0.6114641794016631
  0.5604952928094903  0.0370964088366051  0.2555208663419560
  0.1862312807489716  0.7789876595751607  0.1243670031489834
  0.0621299720514902  0.0369892434939296  0.2555386220556388
  0.6889787701768589  0.6247196902764122  0.5669056087470111
  0.0608423551631686  0.5292009874233474  0.1244385798399062
  0.3109181011894321  0.0412137515617194  0.5221057495735190
  0.6874946034164590  0.2797659549232347  0.1246500099640218
  0.8137387577252029  0.7088688810389834  0.4778689407544119
  0.4365921661825821  0.1367680380756116  0.8339683753270239
  0.3175312076299791  0.3764643828982585  0.7003545814741309
  0.6869271664626188  0.6370423013275111  0.8340990641467392
  0.5632729942188789  0.7126788650530134  0.7444951064265151
  0.9362556166084025  0.2918218120242294  0.3884514668161759
  0.9392882813551454  0.9712869447172536  0.8755243105691666
  0.5635871212263647  0.2083213445641775  0.6114703567607037
  0.8141327282916452  0.8749693761169250  0.5668705104640289
  0.8074272285235188  0.8734138031163792  0.2996286591565672
  0.3113160873095026  0.0368472363395937  0.2556006837915488
  0.4369688661326906  0.2797253238469085  0.1242453912036886
  0.3130565920069834  0.7078920015519324  0.6114297421716941
  0.4355158120154402  0.6254636975197371  0.4330234151559732
  0.5606797321773159  0.3753109988164705  0.4331372620034540
  0.3150745800461244  0.8633629180272031  0.1655548685673591
  0.0671239793764446  0.5492921248994025  0.7888081573311293
  0.9355906653089705  0.1247017151736304  0.4330883142396766
  0.3150448412997082  0.3632633909052991  0.1655881649460358
  0.9375557470632411  0.9629864977775326  0.7446310383836392
  0.8119161488967562  0.5367791994025373  0.2553629842127965
 
  0.00000000E+00  0.00000000E+00  0.00000000E+00
  0.00000000E+00  0.00000000E+00  0.00000000E+00
  0.00000000E+00  0.00000000E+00  0.00000000E+00
  0.00000000E+00  0.00000000E+00  0.00000000E+00
  0.00000000E+00  0.00000000E+00  0.00000000E+00
  0.00000000E+00  0.00000000E+00  0.00000000E+00
  0.00000000E+00  0.00000000E+00  0.00000000E+00
  0.00000000E+00  0.00000000E+00  0.00000000E+00
  0.00000000E+00  0.00000000E+00  0.00000000E+00
  0.00000000E+00  0.00000000E+00  0.00000000E+00
  0.00000000E+00  0.00000000E+00  0.00000000E+00
  0.00000000E+00  0.00000000E+00  0.00000000E+00
  0.00000000E+00  0.00000000E+00  0.00000000E+00
  0.00000000E+00  0.00000000E+00  0.00000000E+00
  0.00000000E+00  0.00000000E+00  0.00000000E+00
  0.00000000E+00  0.00000000E+00  0.00000000E+00
  0.00000000E+00  0.00000000E+00  0.00000000E+00
  0.00000000E+00  0.00000000E+00  0.00000000E+00
  0.00000000E+00  0.00000000E+00  0.00000000E+00
  0.00000000E+00  0.00000000E+00  0.00000000E+00
  0.00000000E+00  0.00000000E+00  0.00000000E+00
  0.00000000E+00  0.00000000E+00  0.00000000E+00
  0.00000000E+00  0.00000000E+00  0.00000000E+00
  0.00000000E+00  0.00000000E+00  0.00000000E+00
  0.00000000E+00  0.00000000E+00  0.00000000E+00
  0.00000000E+00  0.00000000E+00  0.00000000E+00
  0.00000000E+00  0.00000000E+00  0.00000000E+00
  0.00000000E+00  0.00000000E+00  0.00000000E+00
  0.00000000E+00  0.00000000E+00  0.00000000E+00
  0.00000000E+00  0.00000000E+00  0.00000000E+00
  0.00000000E+00  0.00000000E+00  0.00000000E+00
  0.00000000E+00  0.00000000E+00  0.00000000E+00
  0.00000000E+00  0.00000000E+00  0.00000000E+00
  0.00000000E+00  0.00000000E+00  0.00000000E+00
  0.00000000E+00  0.00000000E+00  0.00000000E+00
  0.00000000E+00  0.00000000E+00  0.00000000E+00
  0.00000000E+00  0.00000000E+00  0.00000000E+00
  0.00000000E+00  0.00000000E+00  0.00000000E+00
  0.00000000E+00  0.00000000E+00  0.00000000E+00
  0.00000000E+00  0.00000000E+00  0.00000000E+00
  0.00000000E+00  0.00000000E+00  0.00000000E+00
  0.00000000E+00  0.00000000E+00  0.00000000E+00
  0.00000000E+00  0.00000000E+00  0.00000000E+00
  0.00000000E+00  0.00000000E+00  0.00000000E+00
  0.00000000E+00  0.00000000E+00  0.00000000E+00
  0.00000000E+00  0.00000000E+00  0.00000000E+00
  0.00000000E+00  0.00000000E+00  0.00000000E+00
  0.00000000E+00  0.00000000E+00  0.00000000E+00
  0.00000000E+00  0.00000000E+00  0.00000000E+00
  0.00000000E+00  0.00000000E+00  0.00000000E+00
  0.00000000E+00  0.00000000E+00  0.00000000E+00
  0.00000000E+00  0.00000000E+00  0.00000000E+00
  0.00000000E+00  0.00000000E+00  0.00000000E+00
  0.00000000E+00  0.00000000E+00  0.00000000E+00
  0.00000000E+00  0.00000000E+00  0.00000000E+00
  0.00000000E+00  0.00000000E+00  0.00000000E+00
  0.00000000E+00  0.00000000E+00  0.00000000E+00
  0.00000000E+00  0.00000000E+00  0.00000000E+00
  0.00000000E+00  0.00000000E+00  0.00000000E+00
  0.00000000E+00  0.00000000E+00  0.00000000E+00
  0.00000000E+00  0.00000000E+00  0.00000000E+00
  0.00000000E+00  0.00000000E+00  0.00000000E+00
  0.00000000E+00  0.00000000E+00  0.00000000E+00
  0.00000000E+00  0.00000000E+00  0.00000000E+00
  0.00000000E+00  0.00000000E+00  0.00000000E+00
  0.00000000E+00  0.00000000E+00  0.00000000E+00
  0.00000000E+00  0.00000000E+00  0.00000000E+00
  0.00000000E+00  0.00000000E+00  0.00000000E+00
  0.00000000E+00  0.00000000E+00  0.00000000E+00
  0.00000000E+00  0.00000000E+00  0.00000000E+00
  0.00000000E+00  0.00000000E+00  0.00000000E+00
  0.00000000E+00  0.00000000E+00  0.00000000E+00
  0.00000000E+00  0.00000000E+00  0.00000000E+00
  0.00000000E+00  0.00000000E+00  0.00000000E+00
  0.00000000E+00  0.00000000E+00  0.00000000E+00
  0.00000000E+00  0.00000000E+00  0.00000000E+00
  0.00000000E+00  0.00000000E+00  0.00000000E+00
  0.00000000E+00  0.00000000E+00  0.00000000E+00
  0.00000000E+00  0.00000000E+00  0.00000000E+00
  0.00000000E+00  0.00000000E+00  0.00000000E+00
  0.00000000E+00  0.00000000E+00  0.00000000E+00
  0.00000000E+00  0.00000000E+00  0.00000000E+00
  0.00000000E+00  0.00000000E+00  0.00000000E+00
  0.00000000E+00  0.00000000E+00  0.00000000E+00
  0.00000000E+00  0.00000000E+00  0.00000000E+00
  0.00000000E+00  0.00000000E+00  0.00000000E+00
  0.00000000E+00  0.00000000E+00  0.00000000E+00
  0.00000000E+00  0.00000000E+00  0.00000000E+00
  0.00000000E+00  0.00000000E+00  0.00000000E+00
  0.00000000E+00  0.00000000E+00  0.00000000E+00
  0.00000000E+00  0.00000000E+00  0.00000000E+00
  0.00000000E+00  0.00000000E+00  0.00000000E+00
  0.00000000E+00  0.00000000E+00  0.00000000E+00
  0.00000000E+00  0.00000000E+00  0.00000000E+00
  0.00000000E+00  0.00000000E+00  0.00000000E+00
  0.00000000E+00  0.00000000E+00  0.00000000E+00
  0.00000000E+00  0.00000000E+00  0.00000000E+00
  0.00000000E+00  0.00000000E+00  0.00000000E+00
  0.00000000E+00  0.00000000E+00  0.00000000E+00
  0.00000000E+00  0.00000000E+00  0.00000000E+00
  0.00000000E+00  0.00000000E+00  0.00000000E+00
  0.00000000E+00  0.00000000E+00  0.00000000E+00
  0.00000000E+00  0.00000000E+00  0.00000000E+00
  0.00000000E+00  0.00000000E+00  0.00000000E+00
  0.00000000E+00  0.00000000E+00  0.00000000E+00
  0.00000000E+00  0.00000000E+00  0.00000000E+00
  0.00000000E+00  0.00000000E+00  0.00000000E+00
  0.00000000E+00  0.00000000E+00  0.00000000E+00
  0.00000000E+00  0.00000000E+00  0.00000000E+00
  0.00000000E+00  0.00000000E+00  0.00000000E+00
  0.00000000E+00  0.00000000E+00  0.00000000E+00
  0.00000000E+00  0.00000000E+00  0.00000000E+00
  0.00000000E+00  0.00000000E+00  0.00000000E+00
  0.00000000E+00  0.00000000E+00  0.00000000E+00
  0.00000000E+00  0.00000000E+00  0.00000000E+00
  0.00000000E+00  0.00000000E+00  0.00000000E+00
  0.00000000E+00  0.00000000E+00  0.00000000E+00
  0.00000000E+00  0.00000000E+00  0.00000000E+00
  0.00000000E+00  0.00000000E+00  0.00000000E+00
  0.00000000E+00  0.00000000E+00  0.00000000E+00
  0.00000000E+00  0.00000000E+00  0.00000000E+00
  0.00000000E+00  0.00000000E+00  0.00000000E+00
  0.00000000E+00  0.00000000E+00  0.00000000E+00
  0.00000000E+00  0.00000000E+00  0.00000000E+00
  0.00000000E+00  0.00000000E+00  0.00000000E+00
  0.00000000E+00  0.00000000E+00  0.00000000E+00
  0.00000000E+00  0.00000000E+00  0.00000000E+00
  0.00000000E+00  0.00000000E+00  0.00000000E+00
  0.00000000E+00  0.00000000E+00  0.00000000E+00
  0.00000000E+00  0.00000000E+00  0.00000000E+00
  0.00000000E+00  0.00000000E+00  0.00000000E+00
  0.00000000E+00  0.00000000E+00  0.00000000E+00
  0.00000000E+00  0.00000000E+00  0.00000000E+00
  0.00000000E+00  0.00000000E+00  0.00000000E+00
  0.00000000E+00  0.00000000E+00  0.00000000E+00
  0.00000000E+00  0.00000000E+00  0.00000000E+00
  0.00000000E+00  0.00000000E+00  0.00000000E+00
  0.00000000E+00  0.00000000E+00  0.00000000E+00
  0.00000000E+00  0.00000000E+00  0.00000000E+00
  0.00000000E+00  0.00000000E+00  0.00000000E+00
  0.00000000E+00  0.00000000E+00  0.00000000E+00
  0.00000000E+00  0.00000000E+00  0.00000000E+00
  0.00000000E+00  0.00000000E+00  0.00000000E+00
  0.00000000E+00  0.00000000E+00  0.00000000E+00
  0.00000000E+00  0.00000000E+00  0.00000000E+00
  0.00000000E+00  0.00000000E+00  0.00000000E+00
  0.00000000E+00  0.00000000E+00  0.00000000E+00
  0.00000000E+00  0.00000000E+00  0.00000000E+00
  0.00000000E+00  0.00000000E+00  0.00000000E+00
  0.00000000E+00  0.00000000E+00  0.00000000E+00
  0.00000000E+00  0.00000000E+00  0.00000000E+00
  0.00000000E+00  0.00000000E+00  0.00000000E+00
  0.00000000E+00  0.00000000E+00  0.00000000E+00
  0.00000000E+00  0.00000000E+00  0.00000000E+00
  0.00000000E+00  0.00000000E+00  0.00000000E+00
  0.00000000E+00  0.00000000E+00  0.00000000E+00
  0.00000000E+00  0.00000000E+00  0.00000000E+00
  0.00000000E+00  0.00000000E+00  0.00000000E+00
  0.00000000E+00  0.00000000E+00  0.00000000E+00
  0.00000000E+00  0.00000000E+00  0.00000000E+00
  0.00000000E+00  0.00000000E+00  0.00000000E+00
  0.00000000E+00  0.00000000E+00  0.00000000E+00
  0.00000000E+00  0.00000000E+00  0.00000000E+00
  0.00000000E+00  0.00000000E+00  0.00000000E+00
  0.00000000E+00  0.00000000E+00  0.00000000E+00
  0.00000000E+00  0.00000000E+00  0.00000000E+00
  0.00000000E+00  0.00000000E+00  0.00000000E+00
  0.00000000E+00  0.00000000E+00  0.00000000E+00
  0.00000000E+00  0.00000000E+00  0.00000000E+00
  0.00000000E+00  0.00000000E+00  0.00000000E+00
  0.00000000E+00  0.00000000E+00  0.00000000E+00
  0.00000000E+00  0.00000000E+00  0.00000000E+00
  0.00000000E+00  0.00000000E+00  0.00000000E+00
  0.00000000E+00  0.00000000E+00  0.00000000E+00
  0.00000000E+00  0.00000000E+00  0.00000000E+00
  0.00000000E+00  0.00000000E+00  0.00000000E+00
  0.00000000E+00  0.00000000E+00  0.00000000E+00
  0.00000000E+00  0.00000000E+00  0.00000000E+00
  0.00000000E+00  0.00000000E+00  0.00000000E+00
  0.00000000E+00  0.00000000E+00  0.00000000E+00
  0.00000000E+00  0.00000000E+00  0.00000000E+00
  0.00000000E+00  0.00000000E+00  0.00000000E+00
  0.00000000E+00  0.00000000E+00  0.00000000E+00
  0.00000000E+00  0.00000000E+00  0.00000000E+00
  0.00000000E+00  0.00000000E+00  0.00000000E+00
  0.00000000E+00  0.00000000E+00  0.00000000E+00
  0.00000000E+00  0.00000000E+00  0.00000000E+00
  0.00000000E+00  0.00000000E+00  0.00000000E+00
  0.00000000E+00  0.00000000E+00  0.00000000E+00
  0.00000000E+00  0.00000000E+00  0.00000000E+00
  0.00000000E+00  0.00000000E+00  0.00000000E+00
  0.00000000E+00  0.00000000E+00  0.00000000E+00
  0.00000000E+00  0.00000000E+00  0.00000000E+00
  0.00000000E+00  0.00000000E+00  0.00000000E+00
  0.00000000E+00  0.00000000E+00  0.00000000E+00
  0.00000000E+00  0.00000000E+00  0.00000000E+00
  0.00000000E+00  0.00000000E+00  0.00000000E+00
  0.00000000E+00  0.00000000E+00  0.00000000E+00
  0.00000000E+00  0.00000000E+00  0.00000000E+00
  0.00000000E+00  0.00000000E+00  0.00000000E+00
  0.00000000E+00  0.00000000E+00  0.00000000E+00
  0.00000000E+00  0.00000000E+00  0.00000000E+00
  0.00000000E+00  0.00000000E+00  0.00000000E+00
  0.00000000E+00  0.00000000E+00  0.00000000E+00
  0.00000000E+00  0.00000000E+00  0.00000000E+00
  0.00000000E+00  0.00000000E+00  0.00000000E+00
  0.00000000E+00  0.00000000E+00  0.00000000E+00
  0.00000000E+00  0.00000000E+00  0.00000000E+00
  0.00000000E+00  0.00000000E+00  0.00000000E+00
  0.00000000E+00  0.00000000E+00  0.00000000E+00
  0.00000000E+00  0.00000000E+00  0.00000000E+00
  0.00000000E+00  0.00000000E+00  0.00000000E+00
  0.00000000E+00  0.00000000E+00  0.00000000E+00
  0.00000000E+00  0.00000000E+00  0.00000000E+00
  0.00000000E+00  0.00000000E+00  0.00000000E+00
  0.00000000E+00  0.00000000E+00  0.00000000E+00
  0.00000000E+00  0.00000000E+00  0.00000000E+00
  0.00000000E+00  0.00000000E+00  0.00000000E+00
  0.00000000E+00  0.00000000E+00  0.00000000E+00
  0.00000000E+00  0.00000000E+00  0.00000000E+00
  0.00000000E+00  0.00000000E+00  0.00000000E+00
  0.00000000E+00  0.00000000E+00  0.00000000E+00
  0.00000000E+00  0.00000000E+00  0.00000000E+00
  0.00000000E+00  0.00000000E+00  0.00000000E+00
  0.00000000E+00  0.00000000E+00  0.00000000E+00
  0.00000000E+00  0.00000000E+00  0.00000000E+00
  0.00000000E+00  0.00000000E+00  0.00000000E+00
  0.00000000E+00  0.00000000E+00  0.00000000E+00
  0.00000000E+00  0.00000000E+00  0.00000000E+00
  0.00000000E+00  0.00000000E+00  0.00000000E+00
  0.00000000E+00  0.00000000E+00  0.00000000E+00
  0.00000000E+00  0.00000000E+00  0.00000000E+00
  0.00000000E+00  0.00000000E+00  0.00000000E+00
  0.00000000E+00  0.00000000E+00  0.00000000E+00
  0.00000000E+00  0.00000000E+00  0.00000000E+00
  0.00000000E+00  0.00000000E+00  0.00000000E+00
  0.00000000E+00  0.00000000E+00  0.00000000E+00
  0.00000000E+00  0.00000000E+00  0.00000000E+00
  0.00000000E+00  0.00000000E+00  0.00000000E+00
  0.00000000E+00  0.00000000E+00  0.00000000E+00
  0.00000000E+00  0.00000000E+00  0.00000000E+00
  0.00000000E+00  0.00000000E+00  0.00000000E+00
  0.00000000E+00  0.00000000E+00  0.00000000E+00
  0.00000000E+00  0.00000000E+00  0.00000000E+00
  0.00000000E+00  0.00000000E+00  0.00000000E+00
  0.00000000E+00  0.00000000E+00  0.00000000E+00
  0.00000000E+00  0.00000000E+00  0.00000000E+00