CuInSe2gb                               
   1.00000000000000     
     9.7266780392896699    0.0000000000000000    0.0000000000000000
     0.0000000000000000    8.4235502764570693    0.0000000000000000
     0.0000000000000000    0.0000000000000000   45.0000000000000000
   Fe   Mn
   281     7
Direct
  0.0539833217171995  0.7011584431506801  0.2112747093300515
  0.3181728848063621  0.7238330640901878  0.8762755842563531
  0.6881469360182386  0.9587325513539181  0.6115437280041111
  0.4384852120511722  0.4584073888012864  0.6115973181596852
  0.4407268896340035  0.2875035243865225  0.2550479889673623
  0.0586242644446044  0.3883793493343866  0.8335449957606716
  0.3086124671687633  0.8876535864494589  0.8335162861213681
  0.4470158370791794  0.6264639988203494  0.7004067557555052
  0.0598373572234555  0.2127068801139780  0.7449141497910391
  0.1787440826933587  0.4511124564702301  0.2113562770932054
  0.5677797249121077  0.2106310857050714  0.4773400116369942
  0.0666719563723816  0.8749265643489273  0.5668977243938810
  0.5681938281424737  0.2239227635334959  0.8761484772449661
  0.8087634166547450  0.5278499044619036  0.1238438526437401
  0.4289682421527787  0.9511897346203634  0.2113777986141935
  0.5665792980969031  0.3749970989405098  0.5668162543589200
  0.8112269110780237  0.0417676002288588  0.3883092540782079
  0.6823770109065066  0.7890260260226841  0.5224936526513608
  0.4426253739426423  0.4607873968442622  0.4774919112111401
  0.4338099489045512  0.9626672746523468  0.7447352126134356
  0.4416919780630267  0.6250921946647668  0.5668891067246223
  0.5715149396365221  0.8763634961430196  0.7005577952960494
  0.3091566352978242  0.0260207930794694  0.1239192313952790
  0.6901596007405990  0.9589893154301353  0.3439707530731066
  0.6881011791014624  0.7820646409521151  0.1241621050640872
  0.0527170695080879  0.3737856777384098  0.2995512685675970
  0.6897421352672524  0.4679458295859638  0.8760931491110936
  0.4288712990143996  0.4511021873425683  0.2114272181420883
  0.8085916437361454  0.3750462211054014  0.4331034143183711
  0.5633899852501624  0.7084658862411781  0.6115589363972384
  0.5596793254244938  0.5407344316793921  0.6558806330033397
  0.8176409443606748  0.8619462215416754  0.1666594932318852
  0.5655225257968350  0.5375814481285451  0.2550139549507404
  0.6898640530623698  0.4587903247088587  0.3440010003898046
  0.1918271153467389  0.6117080997204517  0.1663905030414468
  0.1944885003879730  0.7995712039655795  0.7888529567592441
  0.4471852705710971  0.1260331296394054  0.7004193066545518
  0.9277997437590151  0.6236166940160940  0.2996625695375965
  0.3175211052352501  0.2236314083251326  0.8761201061916815
  0.3165962689258121  0.8750011881252060  0.5669113339114968
  0.8174031677043291  0.2238415983021758  0.8761811707123689
  0.8096656549170971  0.5407172469775950  0.6558139743564684
  0.5590629176199234  0.5270045330087152  0.1238354181860026
  0.5692066142209177  0.0498145094230187  0.7889587031082610
  0.1905232414559273  0.2871438442591020  0.2551585284160728
  0.8086618842745135  0.8753192421029363  0.4330611188104145
  0.5723245054012663  0.3763181890837842  0.7003950262172659
  0.0572668287971585  0.0265915864976944  0.1240465518500556
  0.3097440182183649  0.5407022236645436  0.6559288922294430
  0.5651454680139826  0.2091468176772613  0.3440159737431340
  0.1882385020845279  0.9585033376563327  0.6114858338473571
  0.3028976032948140  0.3739456602683925  0.2995320354478377
  0.4346685754888865  0.7905253193983870  0.6559589612762062
  0.1947727261927948  0.2991777327243328  0.7887998368709926
  0.0674644785580243  0.3631167656061682  0.1666346101470123
  0.6969994459939731  0.6262613046895039  0.7004297426463628
  0.3114054358171953  0.5411134888059117  0.3884158627966097
  0.0674770488462622  0.7234246726167680  0.8762035290388186
  0.9337584622643506  0.6374543620418970  0.8339043120755433
  0.3196103421522893  0.5497205487580438  0.7889094528706949
  0.3046327820486082  0.2004118641861437  0.2111800272414172
  0.0679014659640832  0.7105370776677116  0.4775020663658157
  0.5545004817592531  0.2007454629400427  0.2110373783223488
  0.3097246769884935  0.2126208288559190  0.7449235461313178
  0.0719597184991616  0.3764192622545335  0.7004908875711620
  0.1833878880612643  0.6376920324795512  0.8335753208820599
  0.0693864099471121  0.0495285850314784  0.7889978025880861
  0.4412053615837707  0.1249941733374038  0.5668838296742392
  0.9347952446729059  0.2906943625145510  0.6558641028365692
  0.8044140451403059  0.2013457606835319  0.2111785693056513
  0.9293484598071932  0.9511970833270833  0.2113022297307611
  0.9418015127722232  0.6249872877281467  0.5667387764462113
  0.8082209020307314  0.3875873109444229  0.8335239220296921
  0.1970670324005847  0.6262290546186137  0.7003403930258574
  0.8085715234793731  0.8875854556074131  0.8335376274347426
  0.6848266601710358  0.2906323301347300  0.6560595753245362
  0.3132186169383694  0.2083352708254140  0.6114644633565126
  0.4345866761676733  0.4627222990033993  0.7448990950363793
  0.4361439102589807  0.7912385633896253  0.3884041834713798
  0.6843698108115466  0.9627956776616899  0.7448271102527491
  0.8039562010853326  0.7010504271268500  0.2112656267601445
  0.8132442108177462  0.7088379700240364  0.6115525890984566
  0.4370793853011014  0.7835330671337937  0.1239766479089438
  0.3098715437949661  0.7122193021856490  0.7447981525530758
  0.3200540643073610  0.0495409302665266  0.7888518073219785
  0.8115610676833149  0.5415113958881845  0.3883991366703077
  0.6817802189336162  0.2890777767088255  0.5224935456295136
  0.6947788721264444  0.7992977448963053  0.7888891104945772
  0.1903419067980858  0.7877115618846073  0.2551978684695038
  0.6916600355067523  0.1122501470451379  0.1666061498060189
  0.6927735564868238  0.9606019475146282  0.4774357352092114
  0.9401278864749586  0.9594387190035536  0.3441469429809651
  0.8071862710397534  0.0392734727594408  0.5225405913635155
  0.6825997219736196  0.6240220614565394  0.4330507944937705
  0.4400997321958069  0.4584810422636840  0.3440069852705456
  0.8105079477246938  0.2115700275403108  0.7446048871326204
  0.4396931763421489  0.9682803812378091  0.8761068732742744
  0.5664786975945547  0.8751220011500825  0.5668564593554989
  0.8093825069174800  0.0277590743369298  0.1239396713654997
  0.4280606957468705  0.6239267906748390  0.2993814218173783
  0.8170859837896065  0.7237697843450591  0.8763195382599294
  0.6883651796193635  0.4584830250274315  0.6115701704389100
  0.5585668602256635  0.3877026197013207  0.8334953608033605
  0.8027778314719191  0.3736060933727921  0.2994418358414174
  0.1860431133632126  0.2909779252915790  0.3883872949214082
  0.8197350660702375  0.5494073472684762  0.7889439125455134
  0.1823438423240848  0.7893182459116777  0.5225208700220350
  0.3028862275607944  0.8739391303627894  0.2996362751468157
  0.1785491734226914  0.9512229435666429  0.2112822194722025
  0.1843749463656529  0.4626480804143833  0.7449101831543190
  0.4322839537540792  0.2893945984191142  0.5225402190350149
  0.0651552160326464  0.7087054919591443  0.3439893695400796
  0.1848418619345243  0.7905445210514807  0.6558648543137522
  0.4446606988363009  0.7991050057941929  0.7888431944533979
  0.6835028720266848  0.1248685790700265  0.4330807324763040
  0.9318709662236414  0.7888091246067014  0.5224842045040217
  0.6919424535756606  0.6125658397931476  0.1666001506250921
  0.8145221299436671  0.7087646653074269  0.3438731568985777
  0.9344836910176173  0.4625722274530389  0.7449731643391163
  0.1901540516132934  0.4591438987957435  0.3440075082312366
  0.5697611279762207  0.5496484133865845  0.7890463495708966
  0.5664046513783206  0.3623546018860524  0.1664401450800651
  0.5650717154703073  0.7089738626241555  0.3439983939748341
  0.5531607761815603  0.3737823067554539  0.2995209407214886
  0.1898017241745507  0.4680568003086947  0.8760708477712777
  0.1916227688581363  0.1113850668420373  0.1664046519121912
  0.4446590404710964  0.2990456617329837  0.7887920697859313
  0.6910736727621232  0.7874819259120095  0.2553672429810677
  0.9335915953541136  0.1377352667031638  0.8335150948197251
  0.4427930545768236  0.9607071553685294  0.4774894609073180
  0.5675078570986133  0.7246437548766390  0.8762379926996874
  0.1926803883649160  0.4604144654762458  0.4774511093137879
  0.9343522116817548  0.2817290723788421  0.1241168287975640
  0.3114723249979859  0.0413862915126272  0.3884110171732383
  0.0600879807468785  0.0406898018140276  0.6560148983165116
  0.9333597725165798  0.6251524201040183  0.4330829334167632
  0.6841563189754178  0.4627527980580499  0.7449659782967201
  0.5600853611096358  0.2125820511563793  0.7448118275891643
  0.9471323696828822  0.1262275193875597  0.7003803598714151
  0.5597122542412191  0.0407293470007340  0.6558676101817454
  0.5572592637204224  0.5388200457622119  0.5223606935645391
  0.1777214918905074  0.1238262709151402  0.2996010067006841
  0.4418425756516635  0.1104898136166756  0.1663699426603700
  0.6778270900850648  0.6236394669061981  0.2996030955315376
  0.9278814089627162  0.1236050378798172  0.2996444902429702
  0.8167153202552639  0.3750322668949840  0.5669218498015443
  0.0527453494264922  0.8738690507144523  0.2995762775375320
  0.1916602150627831  0.6249235744944162  0.5668054705576271
  0.9447465928883332  0.7995146334490043  0.7888425827461374
  0.3082392885517127  0.3875596319294212  0.8335000500152357
  0.9398563461862067  0.4683648109075700  0.8761116064317597
  0.4335948813025495  0.6379635281291981  0.8335053216901520
  0.0645188873281596  0.2085957396265607  0.3439009736591050
  0.1896514540895153  0.9681603516242024  0.8761328002633505
  0.9346974204070492  0.7818348021869670  0.1240900645291524
  0.6864062426061968  0.7914738121358416  0.3883835529207119
  0.9347428937590827  0.7906421218997558  0.6558885804480298
  0.9414514496367129  0.1119369491204495  0.1664824762416911
  0.4351161551304081  0.2908860723416262  0.6560777322458163
  0.0542924709438869  0.2010114126992076  0.2112656441486340
  0.6788511557121473  0.9511990037334338  0.2112899679414456
  0.1785058139981596  0.6238592897123598  0.2994225932965928
  0.8220487786176922  0.8762494203191911  0.7004565545175067
  0.9468191776589550  0.6266122814390909  0.7005205412495606
  0.1970950886729599  0.1262046165601237  0.7003279534802487
  0.9426760581321768  0.4602989696221548  0.4772882154427344
  0.8132848161306476  0.2085466695566301  0.6115489226506321
  0.1835752558229574  0.6249626473223580  0.4331088127293751
  0.4276662162240218  0.1237118162073367  0.2994920383096495
  0.6778801156551575  0.1235430754855425  0.2994056752870149
  0.5614825253068531  0.5411978425693786  0.3884146014259826
  0.8150386338974180  0.2083735700962545  0.3440279091737600
  0.4398268251420264  0.4680060414050793  0.8759541829736884
  0.5585720021944766  0.8876986730667198  0.8335089950292633
  0.3178561501699824  0.2108718264166196  0.4773879531244142
  0.1927127965019703  0.9606864365138003  0.4774761734044569
  0.0585415331383629  0.8878888699752912  0.8335025657579131
  0.0571625356786834  0.5392151519245222  0.5225471153853073
  0.9427624399186167  0.9605099767977887  0.4773214875929220
  0.0632847396099688  0.7086236506223695  0.6116028689669063
  0.5569511196528363  0.0389521388831013  0.5225390079247062
  0.6950027906562626  0.2989899745236167  0.7887721949073463
  0.8176988845066927  0.3618877878925397  0.1667051986470285
  0.4334944231614476  0.1250162616993590  0.4331118132742350
  0.0680193996383288  0.2107185917243950  0.4774597519257320
  0.3098021073861773  0.0408328590280940  0.6559577021565213
  0.4321790394175988  0.7893865557154012  0.5225241758120824
  0.1837903270713154  0.1379874190977212  0.8335646174862501
  0.1857141627491728  0.2828886053663706  0.1242399963487300
  0.9401776866054929  0.4594594325983683  0.3440201822159621
  0.5666185596466015  0.8625457586349783  0.1664559152984589
  0.3037448878373263  0.7009211680959033  0.2112977601474408
  0.9411756295271229  0.6120780913397079  0.1665635301888967
  0.1882458314104249  0.4585850830565045  0.6115313977173626
  0.0723040800930760  0.8765190813449408  0.7003513564299493
  0.0598245068441982  0.5407571050697528  0.6558796827335778
  0.3081783215510654  0.5261665604952293  0.1239438686603046
  0.9366519772449313  0.7913900920314817  0.3884528578505821
  0.9450161977718095  0.2987092055311260  0.7887835630690251
  0.1846530934369675  0.2905644093913111  0.6559233570791460
  0.9379489295030236  0.9582728513951184  0.6114808270217277
  0.8100351553807243  0.7120406187172869  0.7448281268815929
  0.6906706414322819  0.2877964705623234  0.2552356984761169
  0.0593814010082992  0.7124039112532091  0.7449778092626773
  0.6790815748713821  0.4512950440383124  0.2112510621879032
  0.8175424615519573  0.2108626260511919  0.4773820481537473
  0.5676518465807059  0.7106286160074540  0.4774375149890352
  0.0677464331865553  0.8632425401965795  0.1666760986502108
  0.9322449351847703  0.2883066204374747  0.5222883788153453
  0.6845384623256422  0.7905543314463667  0.6558733463995308
  0.0583948428190278  0.8749857869254307  0.4330454453476850
  0.0681043314403375  0.2229867034831698  0.8761625048971138
  0.8096455318203233  0.0406964386260934  0.6559255300683519
  0.5594210170987260  0.0270794510757912  0.1238207311870016
  0.3086805887311110  0.3752440045302050  0.4330570773024929
  0.3168539336639179  0.3748079537250705  0.5668633862571658
  0.3174483547350148  0.7103531586234759  0.4773885874080668
  0.0568335672099328  0.0389930261819897  0.5223782532021110
  0.3220130189366061  0.8762804326389082  0.7005277623342321
  0.0651495426563352  0.5374480058095382  0.2550886220520532
  0.6834796584622280  0.1378440222577449  0.8335125994960476
  0.8149742126848699  0.0375364539698489  0.2551956367441733
  0.1834634524963912  0.1247658000120565  0.4331053129402291
  0.6973138690775180  0.1262797416349571  0.7004092745591487
  0.1822018474909365  0.2892998868270881  0.5225363843973282
  0.4406373044807417  0.7876440588086836  0.2552170252731280
  0.4414866922412135  0.6105032357756196  0.1663962332848964
  0.0635456770236960  0.2085674346994690  0.6115237189483392
  0.1864875595390528  0.7914221308685258  0.3883614687883782
  0.3067694744634235  0.5390042602611852  0.5224952350174396
  0.8220788508584522  0.3764704858621076  0.7003316876476163
  0.6864127551558238  0.2909975345333419  0.3884167794915438
  0.1915928867322741  0.1250425731976749  0.5669368106277187
  0.6899000163078058  0.9684359977528578  0.8760697152141508
  0.6917400980611123  0.1248302758263535  0.5669253393432478
  0.4400036433595549  0.9589074606102065  0.3439351476468975
  0.1838958849256103  0.9625830547666807  0.7447524733009512
  0.9407602860587713  0.7875542248072721  0.2552236859819742
  0.5585235855734206  0.8747405077899236  0.4330966663812478
  0.3084751740297144  0.8749284029131131  0.4330238785723011
  0.8072325065003680  0.5390371367859239  0.5225914696598116
  0.9293242220839040  0.4510816549374172  0.2112966600079687
  0.3154472912362785  0.5377904002414338  0.2550786536704631
  0.5617047379429115  0.0417008016012492  0.3884267289359272
  0.9382179383075272  0.4583928859611195  0.6115868748108226
  0.0615492685893554  0.0413171574991192  0.3883665063201701
  0.0612582680067686  0.5412847729905965  0.3884110480591201
  0.4360524575205511  0.2912738132105182  0.3883053051562271
  0.6928979957077966  0.4606781341374527  0.4774480527211165
  0.0667143235396580  0.3750761109321019  0.5669129232554428
  0.5539597101274696  0.7010976428995802  0.2110998057147593
  0.9410214321786428  0.2873668445779582  0.2554102019751225
  0.8191416389188714  0.0496222729836383  0.7890458538675639
  0.1902043252065232  0.9590413641523311  0.3440523389202493
  0.5526058213181206  0.8736596843497358  0.2996976318223316
  0.0585932198333688  0.3749495738511497  0.4330313510436242
  0.3150543649881334  0.7090110626119470  0.3439937587027449
  0.3147673661589231  0.2086137804215848  0.3438849891230137
  0.9416015627159067  0.1249535237257503  0.5668970633827375
  0.4385919017163673  0.9587090666457880  0.6115592453601458
  0.5654974831782134  0.0375113370743558  0.2550862726725139
  0.1859726327588939  0.7826327549641366  0.1242709445994126
  0.0652742449586831  0.0373881013548271  0.2551108404178067
  0.6916976161280877  0.6250046268446844  0.5668752072131816
  0.0569655007802940  0.5260152064276725  0.1241388106120194
  0.3072907699426586  0.0381889803235021  0.5223239173082755
  0.6874704268490159  0.2819267027211300  0.1241401596255031
  0.8178723858286565  0.7107045454632007  0.4775371936483851
  0.4335633409638697  0.1378449553324659  0.8335241666191268
  0.3223363005283028  0.3763167640658733  0.7004200630419598
  0.6834289390388849  0.6380013792975316  0.8334923849095094
  0.5599343855145273  0.7121754342821768  0.7448699014227677
  0.9365321013072280  0.2911839737931688  0.3885264815916534
  0.9395794526688180  0.9683673152656922  0.8761035331806228
  0.5628474599949946  0.2081295573373063  0.6113709758547818
  0.8166128646368288  0.8750240390920750  0.5668744067653277
  0.8032697333173129  0.8730859274303715  0.2994110345333589
  0.3152177701880880  0.0376399379561725  0.2551824784951665
  0.4368947044809625  0.2835773553794516  0.1240420758933644
  0.3137255870247013  0.7086729213798627  0.6115802035314430
  0.4336473997396155  0.6248596513359871  0.4330325590598779
  0.5582128936681767  0.3754962999513742  0.4331930578913071
  0.3183579566389107  0.8626823583600584  0.1657301696586317
  0.0707089835090989  0.5496603011794845  0.7887408563544639
  0.9330509738839323  0.1241123707412767  0.4331314822937701
  0.3182225203877291  0.3630313601266703  0.1657461768967359
  0.9332896678671276  0.9624141871542296  0.7447006442759451
  0.8159664022364913  0.5374330487381314  0.2555181997216581
 
  0.00000000E+00  0.00000000E+00  0.00000000E+00
  0.00000000E+00  0.00000000E+00  0.00000000E+00
  0.00000000E+00  0.00000000E+00  0.00000000E+00
  0.00000000E+00  0.00000000E+00  0.00000000E+00
  0.00000000E+00  0.00000000E+00  0.00000000E+00
  0.00000000E+00  0.00000000E+00  0.00000000E+00
  0.00000000E+00  0.00000000E+00  0.00000000E+00
  0.00000000E+00  0.00000000E+00  0.00000000E+00
  0.00000000E+00  0.00000000E+00  0.00000000E+00
  0.00000000E+00  0.00000000E+00  0.00000000E+00
  0.00000000E+00  0.00000000E+00  0.00000000E+00
  0.00000000E+00  0.00000000E+00  0.00000000E+00
  0.00000000E+00  0.00000000E+00  0.00000000E+00
  0.00000000E+00  0.00000000E+00  0.00000000E+00
  0.00000000E+00  0.00000000E+00  0.00000000E+00
  0.00000000E+00  0.00000000E+00  0.00000000E+00
  0.00000000E+00  0.00000000E+00  0.00000000E+00
  0.00000000E+00  0.00000000E+00  0.00000000E+00
  0.00000000E+00  0.00000000E+00  0.00000000E+00
  0.00000000E+00  0.00000000E+00  0.00000000E+00
  0.00000000E+00  0.00000000E+00  0.00000000E+00
  0.00000000E+00  0.00000000E+00  0.00000000E+00
  0.00000000E+00  0.00000000E+00  0.00000000E+00
  0.00000000E+00  0.00000000E+00  0.00000000E+00
  0.00000000E+00  0.00000000E+00  0.00000000E+00
  0.00000000E+00  0.00000000E+00  0.00000000E+00
  0.00000000E+00  0.00000000E+00  0.00000000E+00
  0.00000000E+00  0.00000000E+00  0.00000000E+00
  0.00000000E+00  0.00000000E+00  0.00000000E+00
  0.00000000E+00  0.00000000E+00  0.00000000E+00
  0.00000000E+00  0.00000000E+00  0.00000000E+00
  0.00000000E+00  0.00000000E+00  0.00000000E+00
  0.00000000E+00  0.00000000E+00  0.00000000E+00
  0.00000000E+00  0.00000000E+00  0.00000000E+00
  0.00000000E+00  0.00000000E+00  0.00000000E+00
  0.00000000E+00  0.00000000E+00  0.00000000E+00
  0.00000000E+00  0.00000000E+00  0.00000000E+00
  0.00000000E+00  0.00000000E+00  0.00000000E+00
  0.00000000E+00  0.00000000E+00  0.00000000E+00
  0.00000000E+00  0.00000000E+00  0.00000000E+00
  0.00000000E+00  0.00000000E+00  0.00000000E+00
  0.00000000E+00  0.00000000E+00  0.00000000E+00
  0.00000000E+00  0.00000000E+00  0.00000000E+00
  0.00000000E+00  0.00000000E+00  0.00000000E+00
  0.00000000E+00  0.00000000E+00  0.00000000E+00
  0.00000000E+00  0.00000000E+00  0.00000000E+00
  0.00000000E+00  0.00000000E+00  0.00000000E+00
  0.00000000E+00  0.00000000E+00  0.00000000E+00
  0.00000000E+00  0.00000000E+00  0.00000000E+00
  0.00000000E+00  0.00000000E+00  0.00000000E+00
  0.00000000E+00  0.00000000E+00  0.00000000E+00
  0.00000000E+00  0.00000000E+00  0.00000000E+00
  0.00000000E+00  0.00000000E+00  0.00000000E+00
  0.00000000E+00  0.00000000E+00  0.00000000E+00
  0.00000000E+00  0.00000000E+00  0.00000000E+00
  0.00000000E+00  0.00000000E+00  0.00000000E+00
  0.00000000E+00  0.00000000E+00  0.00000000E+00
  0.00000000E+00  0.00000000E+00  0.00000000E+00
  0.00000000E+00  0.00000000E+00  0.00000000E+00
  0.00000000E+00  0.00000000E+00  0.00000000E+00
  0.00000000E+00  0.00000000E+00  0.00000000E+00
  0.00000000E+00  0.00000000E+00  0.00000000E+00
  0.00000000E+00  0.00000000E+00  0.00000000E+00
  0.00000000E+00  0.00000000E+00  0.00000000E+00
  0.00000000E+00  0.00000000E+00  0.00000000E+00
  0.00000000E+00  0.00000000E+00  0.00000000E+00
  0.00000000E+00  0.00000000E+00  0.00000000E+00
  0.00000000E+00  0.00000000E+00  0.00000000E+00
  0.00000000E+00  0.00000000E+00  0.00000000E+00
  0.00000000E+00  0.00000000E+00  0.00000000E+00
  0.00000000E+00  0.00000000E+00  0.00000000E+00
  0.00000000E+00  0.00000000E+00  0.00000000E+00
  0.00000000E+00  0.00000000E+00  0.00000000E+00
  0.00000000E+00  0.00000000E+00  0.00000000E+00
  0.00000000E+00  0.00000000E+00  0.00000000E+00
  0.00000000E+00  0.00000000E+00  0.00000000E+00
  0.00000000E+00  0.00000000E+00  0.00000000E+00
  0.00000000E+00  0.00000000E+00  0.00000000E+00
  0.00000000E+00  0.00000000E+00  0.00000000E+00
  0.00000000E+00  0.00000000E+00  0.00000000E+00
  0.00000000E+00  0.00000000E+00  0.00000000E+00
  0.00000000E+00  0.00000000E+00  0.00000000E+00
  0.00000000E+00  0.00000000E+00  0.00000000E+00
  0.00000000E+00  0.00000000E+00  0.00000000E+00
  0.00000000E+00  0.00000000E+00  0.00000000E+00
  0.00000000E+00  0.00000000E+00  0.00000000E+00
  0.00000000E+00  0.00000000E+00  0.00000000E+00
  0.00000000E+00  0.00000000E+00  0.00000000E+00
  0.00000000E+00  0.00000000E+00  0.00000000E+00
  0.00000000E+00  0.00000000E+00  0.00000000E+00
  0.00000000E+00  0.00000000E+00  0.00000000E+00
  0.00000000E+00  0.00000000E+00  0.00000000E+00
  0.00000000E+00  0.00000000E+00  0.00000000E+00
  0.00000000E+00  0.00000000E+00  0.00000000E+00
  0.00000000E+00  0.00000000E+00  0.00000000E+00
  0.00000000E+00  0.00000000E+00  0.00000000E+00
  0.00000000E+00  0.00000000E+00  0.00000000E+00
  0.00000000E+00  0.00000000E+00  0.00000000E+00
  0.00000000E+00  0.00000000E+00  0.00000000E+00
  0.00000000E+00  0.00000000E+00  0.00000000E+00
  0.00000000E+00  0.00000000E+00  0.00000000E+00
  0.00000000E+00  0.00000000E+00  0.00000000E+00
  0.00000000E+00  0.00000000E+00  0.00000000E+00
  0.00000000E+00  0.00000000E+00  0.00000000E+00
  0.00000000E+00  0.00000000E+00  0.00000000E+00
  0.00000000E+00  0.00000000E+00  0.00000000E+00
  0.00000000E+00  0.00000000E+00  0.00000000E+00
  0.00000000E+00  0.00000000E+00  0.00000000E+00
  0.00000000E+00  0.00000000E+00  0.00000000E+00
  0.00000000E+00  0.00000000E+00  0.00000000E+00
  0.00000000E+00  0.00000000E+00  0.00000000E+00
  0.00000000E+00  0.00000000E+00  0.00000000E+00
  0.00000000E+00  0.00000000E+00  0.00000000E+00
  0.00000000E+00  0.00000000E+00  0.00000000E+00
  0.00000000E+00  0.00000000E+00  0.00000000E+00
  0.00000000E+00  0.00000000E+00  0.00000000E+00
  0.00000000E+00  0.00000000E+00  0.00000000E+00
  0.00000000E+00  0.00000000E+00  0.00000000E+00
  0.00000000E+00  0.00000000E+00  0.00000000E+00
  0.00000000E+00  0.00000000E+00  0.00000000E+00
  0.00000000E+00  0.00000000E+00  0.00000000E+00
  0.00000000E+00  0.00000000E+00  0.00000000E+00
  0.00000000E+00  0.00000000E+00  0.00000000E+00
  0.00000000E+00  0.00000000E+00  0.00000000E+00
  0.00000000E+00  0.00000000E+00  0.00000000E+00
  0.00000000E+00  0.00000000E+00  0.00000000E+00
  0.00000000E+00  0.00000000E+00  0.00000000E+00
  0.00000000E+00  0.00000000E+00  0.00000000E+00
  0.00000000E+00  0.00000000E+00  0.00000000E+00
  0.00000000E+00  0.00000000E+00  0.00000000E+00
  0.00000000E+00  0.00000000E+00  0.00000000E+00
  0.00000000E+00  0.00000000E+00  0.00000000E+00
  0.00000000E+00  0.00000000E+00  0.00000000E+00
  0.00000000E+00  0.00000000E+00  0.00000000E+00
  0.00000000E+00  0.00000000E+00  0.00000000E+00
  0.00000000E+00  0.00000000E+00  0.00000000E+00
  0.00000000E+00  0.00000000E+00  0.00000000E+00
  0.00000000E+00  0.00000000E+00  0.00000000E+00
  0.00000000E+00  0.00000000E+00  0.00000000E+00
  0.00000000E+00  0.00000000E+00  0.00000000E+00
  0.00000000E+00  0.00000000E+00  0.00000000E+00
  0.00000000E+00  0.00000000E+00  0.00000000E+00
  0.00000000E+00  0.00000000E+00  0.00000000E+00
  0.00000000E+00  0.00000000E+00  0.00000000E+00
  0.00000000E+00  0.00000000E+00  0.00000000E+00
  0.00000000E+00  0.00000000E+00  0.00000000E+00
  0.00000000E+00  0.00000000E+00  0.00000000E+00
  0.00000000E+00  0.00000000E+00  0.00000000E+00
  0.00000000E+00  0.00000000E+00  0.00000000E+00
  0.00000000E+00  0.00000000E+00  0.00000000E+00
  0.00000000E+00  0.00000000E+00  0.00000000E+00
  0.00000000E+00  0.00000000E+00  0.00000000E+00
  0.00000000E+00  0.00000000E+00  0.00000000E+00
  0.00000000E+00  0.00000000E+00  0.00000000E+00
  0.00000000E+00  0.00000000E+00  0.00000000E+00
  0.00000000E+00  0.00000000E+00  0.00000000E+00
  0.00000000E+00  0.00000000E+00  0.00000000E+00
  0.00000000E+00  0.00000000E+00  0.00000000E+00
  0.00000000E+00  0.00000000E+00  0.00000000E+00
  0.00000000E+00  0.00000000E+00  0.00000000E+00
  0.00000000E+00  0.00000000E+00  0.00000000E+00
  0.00000000E+00  0.00000000E+00  0.00000000E+00
  0.00000000E+00  0.00000000E+00  0.00000000E+00
  0.00000000E+00  0.00000000E+00  0.00000000E+00
  0.00000000E+00  0.00000000E+00  0.00000000E+00
  0.00000000E+00  0.00000000E+00  0.00000000E+00
  0.00000000E+00  0.00000000E+00  0.00000000E+00
  0.00000000E+00  0.00000000E+00  0.00000000E+00
  0.00000000E+00  0.00000000E+00  0.00000000E+00
  0.00000000E+00  0.00000000E+00  0.00000000E+00
  0.00000000E+00  0.00000000E+00  0.00000000E+00
  0.00000000E+00  0.00000000E+00  0.00000000E+00
  0.00000000E+00  0.00000000E+00  0.00000000E+00
  0.00000000E+00  0.00000000E+00  0.00000000E+00
  0.00000000E+00  0.00000000E+00  0.00000000E+00
  0.00000000E+00  0.00000000E+00  0.00000000E+00
  0.00000000E+00  0.00000000E+00  0.00000000E+00
  0.00000000E+00  0.00000000E+00  0.00000000E+00
  0.00000000E+00  0.00000000E+00  0.00000000E+00
  0.00000000E+00  0.00000000E+00  0.00000000E+00
  0.00000000E+00  0.00000000E+00  0.00000000E+00
  0.00000000E+00  0.00000000E+00  0.00000000E+00
  0.00000000E+00  0.00000000E+00  0.00000000E+00
  0.00000000E+00  0.00000000E+00  0.00000000E+00
  0.00000000E+00  0.00000000E+00  0.00000000E+00
  0.00000000E+00  0.00000000E+00  0.00000000E+00
  0.00000000E+00  0.00000000E+00  0.00000000E+00
  0.00000000E+00  0.00000000E+00  0.00000000E+00
  0.00000000E+00  0.00000000E+00  0.00000000E+00
  0.00000000E+00  0.00000000E+00  0.00000000E+00
  0.00000000E+00  0.00000000E+00  0.00000000E+00
  0.00000000E+00  0.00000000E+00  0.00000000E+00
  0.00000000E+00  0.00000000E+00  0.00000000E+00
  0.00000000E+00  0.00000000E+00  0.00000000E+00
  0.00000000E+00  0.00000000E+00  0.00000000E+00
  0.00000000E+00  0.00000000E+00  0.00000000E+00
  0.00000000E+00  0.00000000E+00  0.00000000E+00
  0.00000000E+00  0.00000000E+00  0.00000000E+00
  0.00000000E+00  0.00000000E+00  0.00000000E+00
  0.00000000E+00  0.00000000E+00  0.00000000E+00
  0.00000000E+00  0.00000000E+00  0.00000000E+00
  0.00000000E+00  0.00000000E+00  0.00000000E+00
  0.00000000E+00  0.00000000E+00  0.00000000E+00
  0.00000000E+00  0.00000000E+00  0.00000000E+00
  0.00000000E+00  0.00000000E+00  0.00000000E+00
  0.00000000E+00  0.00000000E+00  0.00000000E+00
  0.00000000E+00  0.00000000E+00  0.00000000E+00
  0.00000000E+00  0.00000000E+00  0.00000000E+00
  0.00000000E+00  0.00000000E+00  0.00000000E+00
  0.00000000E+00  0.00000000E+00  0.00000000E+00
  0.00000000E+00  0.00000000E+00  0.00000000E+00
  0.00000000E+00  0.00000000E+00  0.00000000E+00
  0.00000000E+00  0.00000000E+00  0.00000000E+00
  0.00000000E+00  0.00000000E+00  0.00000000E+00
  0.00000000E+00  0.00000000E+00  0.00000000E+00
  0.00000000E+00  0.00000000E+00  0.00000000E+00
  0.00000000E+00  0.00000000E+00  0.00000000E+00
  0.00000000E+00  0.00000000E+00  0.00000000E+00
  0.00000000E+00  0.00000000E+00  0.00000000E+00
  0.00000000E+00  0.00000000E+00  0.00000000E+00
  0.00000000E+00  0.00000000E+00  0.00000000E+00
  0.00000000E+00  0.00000000E+00  0.00000000E+00
  0.00000000E+00  0.00000000E+00  0.00000000E+00
  0.00000000E+00  0.00000000E+00  0.00000000E+00
  0.00000000E+00  0.00000000E+00  0.00000000E+00
  0.00000000E+00  0.00000000E+00  0.00000000E+00
  0.00000000E+00  0.00000000E+00  0.00000000E+00
  0.00000000E+00  0.00000000E+00  0.00000000E+00
  0.00000000E+00  0.00000000E+00  0.00000000E+00
  0.00000000E+00  0.00000000E+00  0.00000000E+00
  0.00000000E+00  0.00000000E+00  0.00000000E+00
  0.00000000E+00  0.00000000E+00  0.00000000E+00
  0.00000000E+00  0.00000000E+00  0.00000000E+00
  0.00000000E+00  0.00000000E+00  0.00000000E+00
  0.00000000E+00  0.00000000E+00  0.00000000E+00
  0.00000000E+00  0.00000000E+00  0.00000000E+00
  0.00000000E+00  0.00000000E+00  0.00000000E+00
  0.00000000E+00  0.00000000E+00  0.00000000E+00
  0.00000000E+00  0.00000000E+00  0.00000000E+00
  0.00000000E+00  0.00000000E+00  0.00000000E+00
  0.00000000E+00  0.00000000E+00  0.00000000E+00
  0.00000000E+00  0.00000000E+00  0.00000000E+00
  0.00000000E+00  0.00000000E+00  0.00000000E+00
  0.00000000E+00  0.00000000E+00  0.00000000E+00
  0.00000000E+00  0.00000000E+00  0.00000000E+00
  0.00000000E+00  0.00000000E+00  0.00000000E+00
  0.00000000E+00  0.00000000E+00  0.00000000E+00