FeMn_288_15                             
    1.000000000000000     
     9.7266779999999997    0.0000000000000000    0.0000000000000000
     0.0000000000000000    8.4235500000000005    0.0000000000000000
     0.0000000000000000    0.0000000000000000   45.0000000000000000
   Fe   Mn
   273    15
Direct
  0.9379129487852751  0.9505222493427082  0.2138604360446232
  0.1874935407574955  0.2843121818001877  0.2579128623468991
  0.3123656149094814  0.5334181540663993  0.1267738823770234
  0.0625182440769903  0.7065555928436125  0.5650825190908920
  0.4377843365481540  0.7874129603679445  0.3903284801320372
  0.9379277178888059  0.7932703943906725  0.7421904155388440
  0.8122577792253569  0.2029559566740379  0.3464701479749068
  0.6876215861606537  0.1210077795343651  0.4348739668544785
  0.5625303519588704  0.3726473284632199  0.5212987542232294
  0.9376489872289085  0.1273864125479718  0.7861781173119100
  0.6875919424511598  0.9551889622730408  0.4786115014248749
  0.6875969812382319  0.4594226460013971  0.6980219756388251
  0.6877502242665272  0.9527028117318357  0.3463919475188572
  0.8125559585827539  0.5410884571146465  0.6097383816077928
  0.4373278456109684  0.2832658793259080  0.1268261467332784
  0.6873098151319452  0.6209326619664651  0.4349369472425364
  0.5625216118583756  0.0331195712536494  0.1268490412840033
  0.5624689616734284  0.8673052266054008  0.1689629011381026
  0.1870912660942038  0.1280748361988035  0.7861655828640501
  0.3121864817119238  0.5367389653478845  0.3902800917093062
  0.8124960405831435  0.3775162817294439  0.7862585798070878
  0.1874842016331658  0.7846737914867628  0.2577891269287184
  0.5615684727620962  0.2108536087050447  0.8312006851208118
  0.3123949761823822  0.3755413629133415  0.6536734860099153
  0.1874486385043185  0.9503407609482425  0.2137914032711132
  0.1876435517650454  0.6161469772083779  0.1690587717618706
  0.1876066725804314  0.1185905444844990  0.3020181842460266
  0.4374735182372494  0.6249435350506424  0.6535670810175485
  0.1877196597784359  0.7942335880336644  0.8732935640843957
  0.8121900628979605  0.8754128532011617  0.6536361989999857
  0.0619721774624741  0.7117822850568597  0.8309169532437888
  0.9376493774119103  0.2874335508556765  0.3903160716634594
  0.0625248049833305  0.5325421159710497  0.1268973163322023
  0.3128944964341495  0.2065271414755583  0.5650815913424214
  0.4374897909445392  0.4569503225802397  0.5651479208583816
  0.6873986796169143  0.7916540559540316  0.6097370445946800
  0.6873631142685456  0.4606546483526403  0.8310246511194982
  0.9375285955054435  0.4552297997728990  0.4786384017493434
  0.5624711774975831  0.3754771480045991  0.6535259669736858
  0.8125105987876942  0.5448759556724743  0.8732494673459494
  0.6876168359346042  0.6274365217174613  0.7862028278924305
  0.6872559474090217  0.2937435601253930  0.7421662848861950
  0.6877107869550441  0.1228493450503734  0.5212554503331037
  0.0625882775069351  0.5341505551869501  0.2578500705342000
  0.3127541810944124  0.8748705629402587  0.6535681178151022
  0.6872538952022739  0.1183900916954199  0.3019809419039652
  0.5626003112161719  0.5438380175740548  0.7421309119056659
  0.0625610563006070  0.0343578876987870  0.2579250965664223
  0.5624144214164255  0.5445766387035992  0.8732868781144015
  0.5623311611879539  0.8707826637197382  0.4349697418039204
  0.9374402663886939  0.4570691506901247  0.5649625706220359
  0.9375582856930257  0.6275691102463611  0.7861981630575019
  0.1874599033949389  0.2869083245123164  0.3903018491394868
  0.1881487233198813  0.7835484531093743  0.1268939793109046
  0.4374330659276829  0.1251759054587409  0.6535897198918795
  0.1874432754097711  0.4501409613924762  0.2138116153046292
  0.8124042596436272  0.7092160849389085  0.6980016538853702
  0.6875243586937151  0.2842651403690165  0.2578263044618261
  0.8123329059812913  0.3684569375136849  0.3019448856828964
  0.5623865896932478  0.7053971906104817  0.4787788421704350
  0.8121792893851889  0.8723956161071066  0.5212481015429412
  0.9376737745019134  0.4501907601972659  0.2137412334449875
  0.5626736533518347  0.8682704666329778  0.3019070666734908
  0.5625531023644070  0.3710024048689579  0.4349036179057509
  0.3122823420169711  0.2095688476520496  0.6980327811606114
  0.0623516924333687  0.8770459551484582  0.7861617267618628
  0.6878660531465296  0.1271224806282157  0.7861840480947947
  0.0627551823778136  0.0367080726032630  0.3902581627292524
  0.6871920845243760  0.9507045995591318  0.2138163496622296
  0.4373929675648578  0.6163214003912039  0.1689845882123363
  0.4374576960974315  0.7842828668759635  0.2578516778221430
  0.0625432458264939  0.7090453622651224  0.6979460511026755
  0.5622890521969297  0.2021211323628233  0.3464409780788207
  0.1876447639952964  0.1251568816073277  0.6536135528479160
  0.1876065931901953  0.4593402832258306  0.6980291986693210
  0.8126121977222914  0.8771111465244913  0.7862367446917621
  0.9372187463450078  0.7836464292684511  0.1267220345733285
  0.3128158758463957  0.0409249270249874  0.6097551475649015
  0.9372028289710743  0.6212152609837532  0.4348667086683595
  0.1875532884620248  0.2913504988853320  0.6097752964569989
  0.6880431599853361  0.6166166857022241  0.1690307179156163
  0.9375673153878817  0.7867166354799974  0.3902112608831781
  0.6876181516786882  0.4570318658778340  0.5651141337290033
  0.1874523012915844  0.4617398826320879  0.8309780028206499
  0.9371144201928016  0.4611331798898575  0.8310057997021632
  0.5624685554331509  0.0437889232379973  0.7420798231741808
  0.1879129814486133  0.6250106114740165  0.6536135474047113
  0.9375840428323224  0.7945614462790168  0.8731379949623308
  0.8122545547884038  0.7107020583069148  0.8309608882352449
  0.4372910877519526  0.6186575263744823  0.3020415070135635
  0.3122204403467501  0.5344033746378575  0.2579050094640845
  0.1877677727442587  0.2936970279078644  0.7421444367279796
  0.5627914995243041  0.7031259643106934  0.3464930386471570
  0.6878185419220414  0.2871134014635542  0.3902687463708341
  0.4373978148249216  0.4551831301868002  0.4786587145296522
  0.5624519697423574  0.2003995504130249  0.2138314612913433
  0.9373812034660954  0.7845371401752329  0.2579323659739216
  0.8128060996776402  0.8685498753925514  0.3018829625730686
  0.5625786441025852  0.2068380027231338  0.5651058048999185
  0.0625550627194987  0.5430792409895389  0.7421349313357022
  0.9377357975121888  0.1157180605580322  0.1690462632649729
  0.8126374601397222  0.7052505509335388  0.4786537343388484
  0.1862218575244429  0.2946744372172387  0.8732097091405915
  0.0627865388480843  0.3750884508317753  0.6536205626732008
  0.8125932988932202  0.3752606625110231  0.6536697688490554
  0.5621319485371433  0.3665535433622609  0.1690150559318980
  0.8125518360464143  0.3710763381618059  0.4349103112315604
  0.0625163249953456  0.8669631579479512  0.1690462133115063
  0.8126711942716058  0.2093757891936713  0.6980877515731175
  0.1876149970698452  0.4553928825823010  0.4786035545619757
  0.3124598235973378  0.0331357198540288  0.1268568633656859
  0.3125306772136976  0.5408256785512816  0.6097613009119587
  0.5627113890684565  0.3772710271231038  0.7861447258420851
  0.6878163962836571  0.9610988117724748  0.8309560259443118
  0.1881439313506113  0.9566378745571013  0.5650338938713146
  0.4372921717779126  0.2864190688241156  0.3901912663736738
  0.9373406621469922  0.9553289117301192  0.4786130896277880
  0.1870705083152005  0.6276890702511064  0.7861882673238588
  0.3126128022698857  0.7003569704529803  0.2137524025538491
  0.1876912957206629  0.1168298790300981  0.1690436320085757
  0.4372446231892370  0.1228838818504077  0.5212792038389092
  0.4375891055510961  0.2847675210511865  0.2577999286492116
  0.4377166356473596  0.9595307763054106  0.6979528882986186
  0.8119683476405851  0.0444804485997992  0.8731612093963323
  0.6874333720089031  0.4550002616381804  0.4786935212457857
  0.0625185710371039  0.0330881636994683  0.1268639636282904
  0.3124105059876198  0.7068987794782337  0.5651192589096465
  0.8122503309213611  0.3724925299576172  0.5213031815120318
  0.3123907647133131  0.3708485941583113  0.4348758682643555
  0.4382081814527796  0.2947448041828235  0.8732019696803215
  0.3126956373981921  0.3686968678441911  0.3019581105027535
  0.8126117307650088  0.0411538672348452  0.6097281999488040
  0.8126562550841120  0.2001654749325433  0.2137083559272123
  0.4371474881176140  0.7932360692916463  0.8732186494139329
  0.6876626738253081  0.4528600265906558  0.3463693945229122
  0.6875270301622228  0.4504354813847870  0.2137871269222861
  0.1869578137499990  0.9525801929390300  0.3463808814619403
  0.8128733974267395  0.0338501708595100  0.2579400868067311
  0.9373847125329074  0.2837092302557386  0.2578084220431116
  0.9375599082327362  0.2955195309288855  0.8732529412692294
  0.4373094905883324  0.2935532611235523  0.7421574147939615
  0.3118580773620386  0.2105398727206349  0.8312116178520809
  0.0625452123318516  0.2086948459598670  0.6980746039212743
  0.9377268750557149  0.7912921306709997  0.6096801280229436
  0.0625059468760631  0.2001154694324210  0.2137611754525158
  0.4372390123204073  0.1170569036421934  0.1690735581495947
  0.0619829291576134  0.0447802049513616  0.8733008924671043
  0.5624438911714567  0.0341919029155685  0.2578500976455515
  0.9371970217679834  0.9609441630076134  0.8310347056411884
  0.6876483977616735  0.2907484405953137  0.6097647558904058
  0.8125760260341328  0.0328643537251003  0.1267189306619988
  0.1872484339935068  0.9589883321302886  0.6979300261539942
  0.0623179037083030  0.7022559656081381  0.3463998032609655
  0.0628098817911676  0.5369192917736526  0.3903179679139797
  0.5626604047301577  0.7004226570260129  0.2137539463442380
  0.8125927101774686  0.7072251080904802  0.5651160839898309
  0.9378218138531089  0.2837133119261877  0.1269478884318334
  0.9372457785005130  0.9528283107064572  0.3464028865162430
  0.0634044619128928  0.2111399668430110  0.8311458891045205
  0.0625349576552806  0.8684644532412231  0.3019934751583694
  0.0626704685620875  0.3682741740156060  0.3018910417790986
  0.8127530664438504  0.7028589874424561  0.3464724640329293
  0.5628162673787878  0.8770044001560935  0.7861958089616921
  0.1872610970687326  0.1211155856400480  0.4349194121892930
  0.6871613935642834  0.6252912714254387  0.6535537869305822
  0.6874700248926542  0.1160781453570012  0.1689853855937740
  0.8126637976964473  0.3660889435305063  0.1689831091445459
  0.8130154724466974  0.0371000716794288  0.3902804649326309
  0.4367937878328777  0.9615427038841000  0.8312646131417496
  0.3129135883086057  0.8724768000150146  0.5212716213709987
  0.3124089789434194  0.8684666934189695  0.3019725841901706
  0.3126848805762787  0.7123391508412634  0.8311394073375441
  0.5624377462613623  0.3686667238338077  0.3018459550568246
  0.5624695675317535  0.5325982940781512  0.1269105542330720
  0.5626631371688366  0.7108116587538053  0.8309319280674746
  0.9373646588941507  0.1230451031105893  0.5213253837790535
  0.3126815973823201  0.7095850016826777  0.6980056497179418
  0.1877393165771638  0.9554601968518242  0.4786197793049413
  0.5625034605135019  0.2052463148348919  0.4786316375243735
  0.9370651084269080  0.2914173045139796  0.6097431832954008
  0.8126544253608443  0.0434002968732697  0.7422138014394402
  0.0625718749126912  0.8746941875345835  0.6536052404371295
  0.0623413632649650  0.2030307550510743  0.3464158983171546
  0.9378100283713610  0.6183356810450623  0.3019953096741915
  0.1879522631504014  0.6225436148794956  0.5213024200195839
  0.9377891453795495  0.2932971996417527  0.7421576066265833
  0.9376285883912077  0.4591592479947040  0.6979830745481180
  0.4377961822337278  0.4618603710223033  0.8310050690228227
  0.4372306593197080  0.6227088084924929  0.5213437654185661
  0.3128736532800356  0.2027130722003259  0.3464427579662891
  0.4377106229405427  0.4527799392948472  0.3463953968957246
  0.4374301618269918  0.4503786920633925  0.2138452545857476
  0.6877206280158937  0.2954128297388232  0.8732704667906741
  0.3124188914464609  0.0438397370270589  0.7421670827191436
  0.4376676517408213  0.1182915556992564  0.3019369273888909
  0.6877038837376800  0.9565208780364149  0.5649172816694888
  0.3119509381911951  0.7027479070360463  0.3464843198978911
  0.6877423626111848  0.6225609435198024  0.5213642806078149
  0.8126471112289380  0.5335992629674414  0.1268444162010446
  0.6871777175120225  0.7871612257055491  0.3902875449053643
  0.6879928678219062  0.7837170134135041  0.1267013365624379
  0.4375623509314436  0.9505578382523158  0.2137782155206051
  0.0629786804819806  0.3665300477436356  0.1690265861897748
  0.0624863348896804  0.0408578357927956  0.6096880371887995
  0.3124769948585146  0.5435298120755314  0.7421577821742820
  0.3123625134220145  0.3665133512901754  0.1690244303923597
  0.4377575617981649  0.6277259047183202  0.7861360293540067
  0.9375122312896523  0.1187135214810303  0.3020106691776231
  0.8123857240662191  0.6999242344584602  0.2138680443617002
  0.8124409605536341  0.5434982368255769  0.7420604799300882
  0.4372326769585763  0.7937403955161622  0.7420741799194265
  0.5624558974991718  0.2095952038317280  0.6980163644927559
  0.6876708448646108  0.7839805962482430  0.2578316401034108
  0.0624686664438953  0.8710013601327599  0.4351539496959009
  0.4366984160042912  0.7835687927689021  0.1268623265714485
  0.1873276062360336  0.6185356014655581  0.3019881894134098
  0.0619654706478789  0.5445328171014123  0.8731943973263581
  0.3122463057721371  0.0366998424043907  0.3902671125370825
  0.5624261466256246  0.8727132883540697  0.5213036165611502
  0.4372403999884514  0.1210638196762018  0.4349179280592091
  0.0624830424113878  0.2051030895152176  0.4787336320725346
  0.5625248674362523  0.5412407721314084  0.6097136843725721
  0.3127922540490343  0.8774093197472953  0.7861483444458185
  0.8123637783221993  0.2051747615970201  0.4786911452319267
  0.1875760023729277  0.4566563526371810  0.5650103413816312
  0.9374574369669235  0.1213036022456852  0.4347936374588138
  0.3123664411667992  0.3780368750667522  0.7861172071870509
  0.0625758172857171  0.7046549992353368  0.4787280185554609
  0.3128673189130877  0.8708000569812879  0.4347995888822881
  0.6877184564241610  0.6185577737954405  0.3020072247636063
  0.8123026527721673  0.8708354596788469  0.4347657137859057
  0.0624621891075230  0.0438140048460676  0.7420752891418441
  0.5634855109966124  0.0450634422513636  0.8732034208110773
  0.4377367796409511  0.6208781219819210  0.4350272443755552
  0.9375519289526522  0.6248900492213793  0.6536042470270140
  0.5624366876435691  0.7092672634064341  0.6980481252999576
  0.4374619143643013  0.2909034910652724  0.6097388220789006
  0.8127074539212092  0.5340176994309649  0.2578985506561216
  0.0623431871115290  0.3712324056000136  0.4349426107852274
  0.0624518337374034  0.3727645688060551  0.5213039575460976
  0.3126293212103927  0.2052587324768275  0.4786761281732088
  0.5624491860149280  0.5369367387979942  0.3902807646747012
  0.9370168293436358  0.9567546512447807  0.5651059766623032
  0.6878170987588527  0.9592935806869716  0.6979269418841695
  0.5625268677681112  0.7068276882256077  0.5650995476463796
  0.1877209481782353  0.2833454516673194  0.1268649046022934
  0.9371481890739168  0.4525859317571818  0.3463074292037399
  0.9372121275469515  0.9589295862913454  0.6980081011860818
  0.4373774819535705  0.7916038485105844  0.6097051378234865
  0.3123691799213787  0.2001161188381599  0.2136493561956273
  0.3127617651803525  0.3726201773650972  0.5213112451035763
  0.6871515983118672  0.2835563803813751  0.1269163426542702
  0.9370273472044024  0.6164697232526699  0.1690304959558352
  0.4372776079426199  0.4595953478530497  0.6978717925619141
  0.8124116387145002  0.2113791824962401  0.8310113880333742
  0.3128897953758655  0.5442896615131214  0.8731535322679370
  0.5625570642128288  0.8749460790179145  0.6535491100366235
  0.1876181906048060  0.7867241747238770  0.3901681747334197
  0.6874820353304403  0.7943959655021384  0.8731064702611270
  0.1873681641394905  0.7908279067457137  0.6096904007672317
  0.9370316010866248  0.6225128170392399  0.5213339138520785
  0.6872169461270816  0.1256476938607674  0.6535482701286235
  0.4373313951224927  0.9552926287223740  0.4786541254819101
  0.0624082407092987  0.7003524662403017  0.2138051097549747
  0.8119876940776906  0.2065993569142967  0.5650572427080066
  0.4372736764757071  0.9565081136570114  0.5649940000276542
  0.3123974745247119  0.7053420820572822  0.4786762576775974
  0.1875254437063304  0.7937465255403608  0.7420598158245723
  0.3122242433767575  0.0343608085796014  0.2578990171892296
  0.3125448898059193  0.8663863625161244  0.1690453519832831
  0.1876719811841512  0.6210782757650489  0.4347992708554258
  0.1876375717882870  0.1230487911887339  0.5213374573598648
  0.0625099017498612  0.3780189065031399  0.7862899571934567
  0.5625444306281779  0.0373848324125839  0.3902794512559881
  0.1881161988358805  0.9619286420478819  0.8315848764520087
  0.8126214428512089  0.8665256222959932  0.1684195621301194
  0.1873073352485423  0.4525082804761887  0.3464501801540251
  0.0624631564765116  0.5405095019287904  0.6098313682951102
  0.5622888553446771  0.0408819190623986  0.6097894681522605
  0.3123739185088102  0.0441206577043853  0.8732538907380745
  0.0625382133213637  0.8729145872086171  0.5212259925107724
  0.8127055196993438  0.5371694763942203  0.3901984036219148
  0.5624992962352781  0.5342473666476129  0.2578796873137186
  0.6875826017224522  0.7934690134650834  0.7421332349568459
  0.4370960517060685  0.1271939698356999  0.7860485649232622
  0.0625542940659357  0.2069543008704270  0.5651281991563760
  0.4373492146835114  0.9523324729863963  0.3463204827052273
  0.9376146136893884  0.1253703675025921  0.6535247126199176
 
  0.00000000E+00  0.00000000E+00  0.00000000E+00
  0.00000000E+00  0.00000000E+00  0.00000000E+00
  0.00000000E+00  0.00000000E+00  0.00000000E+00
  0.00000000E+00  0.00000000E+00  0.00000000E+00
  0.00000000E+00  0.00000000E+00  0.00000000E+00
  0.00000000E+00  0.00000000E+00  0.00000000E+00
  0.00000000E+00  0.00000000E+00  0.00000000E+00
  0.00000000E+00  0.00000000E+00  0.00000000E+00
  0.00000000E+00  0.00000000E+00  0.00000000E+00
  0.00000000E+00  0.00000000E+00  0.00000000E+00
  0.00000000E+00  0.00000000E+00  0.00000000E+00
  0.00000000E+00  0.00000000E+00  0.00000000E+00
  0.00000000E+00  0.00000000E+00  0.00000000E+00
  0.00000000E+00  0.00000000E+00  0.00000000E+00
  0.00000000E+00  0.00000000E+00  0.00000000E+00
  0.00000000E+00  0.00000000E+00  0.00000000E+00
  0.00000000E+00  0.00000000E+00  0.00000000E+00
  0.00000000E+00  0.00000000E+00  0.00000000E+00
  0.00000000E+00  0.00000000E+00  0.00000000E+00
  0.00000000E+00  0.00000000E+00  0.00000000E+00
  0.00000000E+00  0.00000000E+00  0.00000000E+00
  0.00000000E+00  0.00000000E+00  0.00000000E+00
  0.00000000E+00  0.00000000E+00  0.00000000E+00
  0.00000000E+00  0.00000000E+00  0.00000000E+00
  0.00000000E+00  0.00000000E+00  0.00000000E+00
  0.00000000E+00  0.00000000E+00  0.00000000E+00
  0.00000000E+00  0.00000000E+00  0.00000000E+00
  0.00000000E+00  0.00000000E+00  0.00000000E+00
  0.00000000E+00  0.00000000E+00  0.00000000E+00
  0.00000000E+00  0.00000000E+00  0.00000000E+00
  0.00000000E+00  0.00000000E+00  0.00000000E+00
  0.00000000E+00  0.00000000E+00  0.00000000E+00
  0.00000000E+00  0.00000000E+00  0.00000000E+00
  0.00000000E+00  0.00000000E+00  0.00000000E+00
  0.00000000E+00  0.00000000E+00  0.00000000E+00
  0.00000000E+00  0.00000000E+00  0.00000000E+00
  0.00000000E+00  0.00000000E+00  0.00000000E+00
  0.00000000E+00  0.00000000E+00  0.00000000E+00
  0.00000000E+00  0.00000000E+00  0.00000000E+00
  0.00000000E+00  0.00000000E+00  0.00000000E+00
  0.00000000E+00  0.00000000E+00  0.00000000E+00
  0.00000000E+00  0.00000000E+00  0.00000000E+00
  0.00000000E+00  0.00000000E+00  0.00000000E+00
  0.00000000E+00  0.00000000E+00  0.00000000E+00
  0.00000000E+00  0.00000000E+00  0.00000000E+00
  0.00000000E+00  0.00000000E+00  0.00000000E+00
  0.00000000E+00  0.00000000E+00  0.00000000E+00
  0.00000000E+00  0.00000000E+00  0.00000000E+00
  0.00000000E+00  0.00000000E+00  0.00000000E+00
  0.00000000E+00  0.00000000E+00  0.00000000E+00
  0.00000000E+00  0.00000000E+00  0.00000000E+00
  0.00000000E+00  0.00000000E+00  0.00000000E+00
  0.00000000E+00  0.00000000E+00  0.00000000E+00
  0.00000000E+00  0.00000000E+00  0.00000000E+00
  0.00000000E+00  0.00000000E+00  0.00000000E+00
  0.00000000E+00  0.00000000E+00  0.00000000E+00
  0.00000000E+00  0.00000000E+00  0.00000000E+00
  0.00000000E+00  0.00000000E+00  0.00000000E+00
  0.00000000E+00  0.00000000E+00  0.00000000E+00
  0.00000000E+00  0.00000000E+00  0.00000000E+00
  0.00000000E+00  0.00000000E+00  0.00000000E+00
  0.00000000E+00  0.00000000E+00  0.00000000E+00
  0.00000000E+00  0.00000000E+00  0.00000000E+00
  0.00000000E+00  0.00000000E+00  0.00000000E+00
  0.00000000E+00  0.00000000E+00  0.00000000E+00
  0.00000000E+00  0.00000000E+00  0.00000000E+00
  0.00000000E+00  0.00000000E+00  0.00000000E+00
  0.00000000E+00  0.00000000E+00  0.00000000E+00
  0.00000000E+00  0.00000000E+00  0.00000000E+00
  0.00000000E+00  0.00000000E+00  0.00000000E+00
  0.00000000E+00  0.00000000E+00  0.00000000E+00
  0.00000000E+00  0.00000000E+00  0.00000000E+00
  0.00000000E+00  0.00000000E+00  0.00000000E+00
  0.00000000E+00  0.00000000E+00  0.00000000E+00
  0.00000000E+00  0.00000000E+00  0.00000000E+00
  0.00000000E+00  0.00000000E+00  0.00000000E+00
  0.00000000E+00  0.00000000E+00  0.00000000E+00
  0.00000000E+00  0.00000000E+00  0.00000000E+00
  0.00000000E+00  0.00000000E+00  0.00000000E+00
  0.00000000E+00  0.00000000E+00  0.00000000E+00
  0.00000000E+00  0.00000000E+00  0.00000000E+00
  0.00000000E+00  0.00000000E+00  0.00000000E+00
  0.00000000E+00  0.00000000E+00  0.00000000E+00
  0.00000000E+00  0.00000000E+00  0.00000000E+00
  0.00000000E+00  0.00000000E+00  0.00000000E+00
  0.00000000E+00  0.00000000E+00  0.00000000E+00
  0.00000000E+00  0.00000000E+00  0.00000000E+00
  0.00000000E+00  0.00000000E+00  0.00000000E+00
  0.00000000E+00  0.00000000E+00  0.00000000E+00
  0.00000000E+00  0.00000000E+00  0.00000000E+00
  0.00000000E+00  0.00000000E+00  0.00000000E+00
  0.00000000E+00  0.00000000E+00  0.00000000E+00
  0.00000000E+00  0.00000000E+00  0.00000000E+00
  0.00000000E+00  0.00000000E+00  0.00000000E+00
  0.00000000E+00  0.00000000E+00  0.00000000E+00
  0.00000000E+00  0.00000000E+00  0.00000000E+00
  0.00000000E+00  0.00000000E+00  0.00000000E+00
  0.00000000E+00  0.00000000E+00  0.00000000E+00
  0.00000000E+00  0.00000000E+00  0.00000000E+00
  0.00000000E+00  0.00000000E+00  0.00000000E+00
  0.00000000E+00  0.00000000E+00  0.00000000E+00
  0.00000000E+00  0.00000000E+00  0.00000000E+00
  0.00000000E+00  0.00000000E+00  0.00000000E+00
  0.00000000E+00  0.00000000E+00  0.00000000E+00
  0.00000000E+00  0.00000000E+00  0.00000000E+00
  0.00000000E+00  0.00000000E+00  0.00000000E+00
  0.00000000E+00  0.00000000E+00  0.00000000E+00
  0.00000000E+00  0.00000000E+00  0.00000000E+00
  0.00000000E+00  0.00000000E+00  0.00000000E+00
  0.00000000E+00  0.00000000E+00  0.00000000E+00
  0.00000000E+00  0.00000000E+00  0.00000000E+00
  0.00000000E+00  0.00000000E+00  0.00000000E+00
  0.00000000E+00  0.00000000E+00  0.00000000E+00
  0.00000000E+00  0.00000000E+00  0.00000000E+00
  0.00000000E+00  0.00000000E+00  0.00000000E+00
  0.00000000E+00  0.00000000E+00  0.00000000E+00
  0.00000000E+00  0.00000000E+00  0.00000000E+00
  0.00000000E+00  0.00000000E+00  0.00000000E+00
  0.00000000E+00  0.00000000E+00  0.00000000E+00
  0.00000000E+00  0.00000000E+00  0.00000000E+00
  0.00000000E+00  0.00000000E+00  0.00000000E+00
  0.00000000E+00  0.00000000E+00  0.00000000E+00
  0.00000000E+00  0.00000000E+00  0.00000000E+00
  0.00000000E+00  0.00000000E+00  0.00000000E+00
  0.00000000E+00  0.00000000E+00  0.00000000E+00
  0.00000000E+00  0.00000000E+00  0.00000000E+00
  0.00000000E+00  0.00000000E+00  0.00000000E+00
  0.00000000E+00  0.00000000E+00  0.00000000E+00
  0.00000000E+00  0.00000000E+00  0.00000000E+00
  0.00000000E+00  0.00000000E+00  0.00000000E+00
  0.00000000E+00  0.00000000E+00  0.00000000E+00
  0.00000000E+00  0.00000000E+00  0.00000000E+00
  0.00000000E+00  0.00000000E+00  0.00000000E+00
  0.00000000E+00  0.00000000E+00  0.00000000E+00
  0.00000000E+00  0.00000000E+00  0.00000000E+00
  0.00000000E+00  0.00000000E+00  0.00000000E+00
  0.00000000E+00  0.00000000E+00  0.00000000E+00
  0.00000000E+00  0.00000000E+00  0.00000000E+00
  0.00000000E+00  0.00000000E+00  0.00000000E+00
  0.00000000E+00  0.00000000E+00  0.00000000E+00
  0.00000000E+00  0.00000000E+00  0.00000000E+00
  0.00000000E+00  0.00000000E+00  0.00000000E+00
  0.00000000E+00  0.00000000E+00  0.00000000E+00
  0.00000000E+00  0.00000000E+00  0.00000000E+00
  0.00000000E+00  0.00000000E+00  0.00000000E+00
  0.00000000E+00  0.00000000E+00  0.00000000E+00
  0.00000000E+00  0.00000000E+00  0.00000000E+00
  0.00000000E+00  0.00000000E+00  0.00000000E+00
  0.00000000E+00  0.00000000E+00  0.00000000E+00
  0.00000000E+00  0.00000000E+00  0.00000000E+00
  0.00000000E+00  0.00000000E+00  0.00000000E+00
  0.00000000E+00  0.00000000E+00  0.00000000E+00
  0.00000000E+00  0.00000000E+00  0.00000000E+00
  0.00000000E+00  0.00000000E+00  0.00000000E+00
  0.00000000E+00  0.00000000E+00  0.00000000E+00
  0.00000000E+00  0.00000000E+00  0.00000000E+00
  0.00000000E+00  0.00000000E+00  0.00000000E+00
  0.00000000E+00  0.00000000E+00  0.00000000E+00
  0.00000000E+00  0.00000000E+00  0.00000000E+00
  0.00000000E+00  0.00000000E+00  0.00000000E+00
  0.00000000E+00  0.00000000E+00  0.00000000E+00
  0.00000000E+00  0.00000000E+00  0.00000000E+00
  0.00000000E+00  0.00000000E+00  0.00000000E+00
  0.00000000E+00  0.00000000E+00  0.00000000E+00
  0.00000000E+00  0.00000000E+00  0.00000000E+00
  0.00000000E+00  0.00000000E+00  0.00000000E+00
  0.00000000E+00  0.00000000E+00  0.00000000E+00
  0.00000000E+00  0.00000000E+00  0.00000000E+00
  0.00000000E+00  0.00000000E+00  0.00000000E+00
  0.00000000E+00  0.00000000E+00  0.00000000E+00
  0.00000000E+00  0.00000000E+00  0.00000000E+00
  0.00000000E+00  0.00000000E+00  0.00000000E+00
  0.00000000E+00  0.00000000E+00  0.00000000E+00
  0.00000000E+00  0.00000000E+00  0.00000000E+00
  0.00000000E+00  0.00000000E+00  0.00000000E+00
  0.00000000E+00  0.00000000E+00  0.00000000E+00
  0.00000000E+00  0.00000000E+00  0.00000000E+00
  0.00000000E+00  0.00000000E+00  0.00000000E+00
  0.00000000E+00  0.00000000E+00  0.00000000E+00
  0.00000000E+00  0.00000000E+00  0.00000000E+00
  0.00000000E+00  0.00000000E+00  0.00000000E+00
  0.00000000E+00  0.00000000E+00  0.00000000E+00
  0.00000000E+00  0.00000000E+00  0.00000000E+00
  0.00000000E+00  0.00000000E+00  0.00000000E+00
  0.00000000E+00  0.00000000E+00  0.00000000E+00
  0.00000000E+00  0.00000000E+00  0.00000000E+00
  0.00000000E+00  0.00000000E+00  0.00000000E+00
  0.00000000E+00  0.00000000E+00  0.00000000E+00
  0.00000000E+00  0.00000000E+00  0.00000000E+00
  0.00000000E+00  0.00000000E+00  0.00000000E+00
  0.00000000E+00  0.00000000E+00  0.00000000E+00
  0.00000000E+00  0.00000000E+00  0.00000000E+00
  0.00000000E+00  0.00000000E+00  0.00000000E+00
  0.00000000E+00  0.00000000E+00  0.00000000E+00
  0.00000000E+00  0.00000000E+00  0.00000000E+00
  0.00000000E+00  0.00000000E+00  0.00000000E+00
  0.00000000E+00  0.00000000E+00  0.00000000E+00
  0.00000000E+00  0.00000000E+00  0.00000000E+00
  0.00000000E+00  0.00000000E+00  0.00000000E+00
  0.00000000E+00  0.00000000E+00  0.00000000E+00
  0.00000000E+00  0.00000000E+00  0.00000000E+00
  0.00000000E+00  0.00000000E+00  0.00000000E+00
  0.00000000E+00  0.00000000E+00  0.00000000E+00
  0.00000000E+00  0.00000000E+00  0.00000000E+00
  0.00000000E+00  0.00000000E+00  0.00000000E+00
  0.00000000E+00  0.00000000E+00  0.00000000E+00
  0.00000000E+00  0.00000000E+00  0.00000000E+00
  0.00000000E+00  0.00000000E+00  0.00000000E+00
  0.00000000E+00  0.00000000E+00  0.00000000E+00
  0.00000000E+00  0.00000000E+00  0.00000000E+00
  0.00000000E+00  0.00000000E+00  0.00000000E+00
  0.00000000E+00  0.00000000E+00  0.00000000E+00
  0.00000000E+00  0.00000000E+00  0.00000000E+00
  0.00000000E+00  0.00000000E+00  0.00000000E+00
  0.00000000E+00  0.00000000E+00  0.00000000E+00
  0.00000000E+00  0.00000000E+00  0.00000000E+00
  0.00000000E+00  0.00000000E+00  0.00000000E+00
  0.00000000E+00  0.00000000E+00  0.00000000E+00
  0.00000000E+00  0.00000000E+00  0.00000000E+00
  0.00000000E+00  0.00000000E+00  0.00000000E+00
  0.00000000E+00  0.00000000E+00  0.00000000E+00
  0.00000000E+00  0.00000000E+00  0.00000000E+00
  0.00000000E+00  0.00000000E+00  0.00000000E+00
  0.00000000E+00  0.00000000E+00  0.00000000E+00
  0.00000000E+00  0.00000000E+00  0.00000000E+00
  0.00000000E+00  0.00000000E+00  0.00000000E+00
  0.00000000E+00  0.00000000E+00  0.00000000E+00
  0.00000000E+00  0.00000000E+00  0.00000000E+00
  0.00000000E+00  0.00000000E+00  0.00000000E+00
  0.00000000E+00  0.00000000E+00  0.00000000E+00
  0.00000000E+00  0.00000000E+00  0.00000000E+00
  0.00000000E+00  0.00000000E+00  0.00000000E+00
  0.00000000E+00  0.00000000E+00  0.00000000E+00
  0.00000000E+00  0.00000000E+00  0.00000000E+00
  0.00000000E+00  0.00000000E+00  0.00000000E+00
  0.00000000E+00  0.00000000E+00  0.00000000E+00
  0.00000000E+00  0.00000000E+00  0.00000000E+00
  0.00000000E+00  0.00000000E+00  0.00000000E+00
  0.00000000E+00  0.00000000E+00  0.00000000E+00
  0.00000000E+00  0.00000000E+00  0.00000000E+00
  0.00000000E+00  0.00000000E+00  0.00000000E+00
  0.00000000E+00  0.00000000E+00  0.00000000E+00
  0.00000000E+00  0.00000000E+00  0.00000000E+00
  0.00000000E+00  0.00000000E+00  0.00000000E+00
  0.00000000E+00  0.00000000E+00  0.00000000E+00
  0.00000000E+00  0.00000000E+00  0.00000000E+00
  0.00000000E+00  0.00000000E+00  0.00000000E+00