FeMn_288_15                             
    1.000000000000000     
     9.7266779999999997    0.0000000000000000    0.0000000000000000
     0.0000000000000000    8.4235500000000005    0.0000000000000000
     0.0000000000000000    0.0000000000000000   45.0000000000000000
   Fe   Mn
   273    15
Direct
  0.9377511051115071  0.9503978936208659  0.2139787867773781
  0.1875682136486221  0.2839890680036307  0.2579333652542832
  0.3125656148740987  0.5323459873542628  0.1269513214091170
  0.0625387687351695  0.7063731943554276  0.5650386639351345
  0.4377402834486964  0.7872885251586306  0.3903854354200567
  0.9377338322323704  0.7935728758933179  0.7421609323247372
  0.8122437877804038  0.2027252138649252  0.3465326079130062
  0.6876355666484464  0.1214423268251749  0.4349495985652281
  0.5625344575453212  0.3727046171938405  0.5213150320450096
  0.9376198035951675  0.1274968027449666  0.7861062673889987
  0.6876441219347557  0.9554259429546261  0.4786267832939142
  0.6875403580306471  0.4596203885496101  0.6979701577563677
  0.6875884126862837  0.9523135862369770  0.3464476165628014
  0.8128829618494713  0.5407481503104379  0.6096837872565891
  0.4373975249986221  0.2825820345288878  0.1269707863324976
  0.6872395369745119  0.6212466056775808  0.4350207673188011
  0.5626233506514842  0.0321353373402525  0.1270153958697279
  0.5626536557259909  0.8666706442153203  0.1689188560096241
  0.1872845055049952  0.1282037173845569  0.7861142235642842
  0.3122367538122001  0.5366826645989896  0.3903857460030247
  0.8123246261303464  0.3775803325968227  0.7862123225032661
  0.1873703201166212  0.7843976306570135  0.2578184632345796
  0.5615256791159365  0.2115849345137579  0.8312721311035803
  0.3124910549412420  0.3755405385192951  0.6536282295952798
  0.1873843798642076  0.9501256971369294  0.2138851623724138
  0.1876201501528240  0.6156197607448575  0.1690226145960839
  0.1874992050543368  0.1182316485862632  0.3020452283484653
  0.4374766945361833  0.6250069763888325  0.6534776739635143
  0.1874084449470286  0.7951150216703707  0.8731035391613757
  0.8122068843784784  0.8752520977413165  0.6535767448070342
  0.0620280230428578  0.7123859021961183  0.8308970611772308
  0.9375278898240503  0.2871767488883257  0.3903746988986923
  0.0626298526524888  0.5318096515081269  0.1270326688383756
  0.3128572488778075  0.2064453847772323  0.5650138670794687
  0.4374737668049173  0.4566219063557665  0.5650920462342716
  0.6874381597638576  0.7911415903274673  0.6096566292461654
  0.6874431790112631  0.4610483486781022  0.8310487077553752
  0.9374486694841593  0.4554597488283840  0.4786358453558989
  0.5625460963552118  0.3753730971779337  0.6534688500434397
  0.8123808498549019  0.5456117235429211  0.8730871079568675
  0.6876356644849561  0.6274908196249210  0.7861055622024260
  0.6872713876138080  0.2938979947880497  0.7421634960060549
  0.6875996333014281  0.1226020440307215  0.5212883736236574
  0.0625134458113067  0.5339323484568294  0.2578659840544334
  0.3126887920274687  0.8749714208773324  0.6535166275650752
  0.6872576126183204  0.1181023500272499  0.3020287906803769
  0.5624366358583730  0.5440186224416025  0.7420961526342906
  0.0625575520845069  0.0340359304759409  0.2579462233821440
  0.5625326710859754  0.5451385272301555  0.8731127883399589
  0.5623334711149972  0.8714360313956125  0.4350128148292729
  0.9374317627821632  0.4568734913200730  0.5649153843533203
  0.9374571128850965  0.6278005122908771  0.7861124901086329
  0.1874788146732551  0.2869738460309245  0.3903481965015082
  0.1881132296314668  0.7828795950237376  0.1270686214255924
  0.4375352166584028  0.1251651469293101  0.6535381323440049
  0.1875381500091951  0.4500526188489837  0.2139088329505145
  0.8123923420884772  0.7095833173585427  0.6979347498578790
  0.6874669031656957  0.2838595801441545  0.2578999623903049
  0.8123485890037301  0.3683697883597021  0.3019882868279302
  0.5624981673835434  0.7054197458199927  0.4787681838911574
  0.8123332979669448  0.8723222073487353  0.5212592621942106
  0.9375487970959742  0.4501075504538945  0.2138231263775716
  0.5626176130597199  0.8680521921513723  0.3019495026326060
  0.5625762872589418  0.3715723058261102  0.4349564755094850
  0.3122548439163935  0.2097369958511383  0.6979795774629679
  0.0622693074507045  0.8774019574894754  0.7860116654569963
  0.6875921860081252  0.1272869417801873  0.7860947611514673
  0.0628226573173050  0.0367238603190291  0.3903316414692667
  0.6871259280204293  0.9506469833764376  0.2139376455797736
  0.4375697978090758  0.6157934995473416  0.1689682521497781
  0.4374340788409704  0.7840595198864698  0.2578902612362496
  0.0624435061121476  0.7093856984601838  0.6979435397540353
  0.5623147527489871  0.2019995306328663  0.3464995843128800
  0.1873458842936817  0.1252477427437989  0.6535469886428146
  0.1875412168035554  0.4596221419069153  0.6980153629453164
  0.8126503900478310  0.8775774301934162  0.7861474057808184
  0.9372107872432779  0.7827819533488807  0.1268565859532278
  0.3129339927611628  0.0407834109388228  0.6096912113925197
  0.9371504190855338  0.6216687639213579  0.4349173400370472
  0.1874949354151751  0.2908418877890946  0.6097312982887657
  0.6878393053332262  0.6160513388943429  0.1690286580959668
  0.9374948783636099  0.7867375374958159  0.3902514361161797
  0.6876788799129010  0.4568299603071731  0.5650367643632404
  0.1875633836029309  0.4621893058006812  0.8309928511983071
  0.9370093823608705  0.4615731872461467  0.8310197486557085
  0.5624276776138872  0.0443189274723322  0.7420248970476635
  0.1878728733443147  0.6250363333068825  0.6536214364621709
  0.9377247157785216  0.7951671384093908  0.8729547265185486
  0.8122263483824677  0.7114055243630922  0.8309470964464735
  0.4373614938592370  0.6183074774375621  0.3020839145967152
  0.3123467368378660  0.5341242841233979  0.2579037498392544
  0.1877743612251595  0.2937265747924203  0.7421344952489568
  0.5626638319509895  0.7026991485334136  0.3465621534651209
  0.6876907976942205  0.2869091966177724  0.3903315165317570
  0.4375585944505763  0.4554668455925470  0.4786564770924170
  0.5625520670222950  0.2003170615767409  0.2139096478891861
  0.9373866089276194  0.7841372739140879  0.2579629598711774
  0.8127620852885031  0.8682214081419602  0.3019291487549519
  0.5625352942970581  0.2066585233421193  0.5650344105013120
  0.0625601919177316  0.5434794622597525  0.7421055357429479
  0.9375663570440168  0.1152006254922875  0.1690373065047688
  0.8126185417895587  0.7055052334031743  0.4786594787341928
  0.1860856123925947  0.2956671622489060  0.8730458193934333
  0.0627404930735832  0.3753062339604570  0.6535781893776822
  0.8125317600320991  0.3754288493691912  0.6536104782021229
  0.5622374224808337  0.3662180000434857  0.1690184224382112
  0.8125825730242112  0.3716445367138445  0.4350002546572046
  0.0623132729406365  0.8663311215857770  0.1690090317949387
  0.8127502463173732  0.2096966368464666  0.6980681561348255
  0.1876429354064025  0.4555284958815100  0.4785967683360333
  0.3126062504816320  0.0324720478401295  0.1270074006979353
  0.3122552045106751  0.5405844389468639  0.6096987593918606
  0.5628770769080017  0.3774393602275992  0.7860913266488944
  0.6877260984044412  0.9615906944088672  0.8309955653702286
  0.1880876199454888  0.9563427762774634  0.5649708041427762
  0.4373576953642830  0.2864880694803674  0.3902460797270879
  0.9373462174095490  0.9554670396467542  0.4786477994251354
  0.1871157049415334  0.6278443240882657  0.7860769976516276
  0.3127105316369407  0.7001955369194858  0.2138565239675741
  0.1876586019537862  0.1162035933875250  0.1690584333155363
  0.4374669325129459  0.1227114516424579  0.5212925350893938
  0.4377310458508410  0.2842749273724121  0.2578184803992942
  0.4376702928304155  0.9598357641518940  0.6979214035729889
  0.8120087199102657  0.0449250773879186  0.8730510290385965
  0.6874108968956062  0.4553521332866480  0.4786946604716578
  0.0624382879719129  0.0321956935969133  0.1270153108214229
  0.3124824181990257  0.7068209016519729  0.5650555682641456
  0.8123492055504347  0.3725368886381691  0.5213072904599186
  0.3123951154730402  0.3713923473492186  0.4349812064502688
  0.4384714585902753  0.2956861164443279  0.8731312936030213
  0.3126532897169275  0.3684944884324814  0.3019881596032987
  0.8124915709742910  0.0408958176917169  0.6096402576907184
  0.8126360111200259  0.2001018166642747  0.2138259569920540
  0.4376571784741713  0.7939303436464940  0.8730200363736796
  0.6875714388659659  0.4525971562836764  0.3464179659631155
  0.6875790268961507  0.4503176683302740  0.2138489047072782
  0.1872475253124230  0.9524191046475827  0.3464726412285617
  0.8127439560217491  0.0336201394554668  0.2579602354480851
  0.9372394212087207  0.2835844347349297  0.2578424917929318
  0.9374612778909533  0.2963856864578732  0.8731364079398247
  0.4372060472765377  0.2935342356212072  0.7421468123906559
  0.3122425533442678  0.2112677011800849  0.8312845277411308
  0.0624969748465546  0.2092082448517630  0.6980549401215866
  0.9376720943438340  0.7910516498401615  0.6095855915454000
  0.0624420983313071  0.1999561992534668  0.2138468235227733
  0.4373813281145521  0.1164478125489905  0.1690947297394625
  0.0617580799858853  0.0455351541474737  0.8731497159580023
  0.5624547933331344  0.0337149083809098  0.2578973968836437
  0.9373370852657077  0.9615464821609829  0.8310721222951268
  0.6877023849128284  0.2905212154089404  0.6096566758601615
  0.8124600776066420  0.0318146976990554  0.1268452209677985
  0.1872903643382411  0.9594239979595014  0.6978612555111319
  0.0624050253986729  0.7022239886363617  0.3464507652176450
  0.0627251349999243  0.5370262524734445  0.3903872508863291
  0.5626311937370549  0.7003618446532620  0.2138293621646450
  0.8125047367588857  0.7070936932386984  0.5650306675319031
  0.9377112006321623  0.2829496556337832  0.1271009070005573
  0.9371774296649198  0.9526327474623514  0.3464686184288507
  0.0631653257598840  0.2117722604157424  0.8311569167954781
  0.0624871143136891  0.8683595304469994  0.3020589275353181
  0.0627026056975252  0.3679759608932524  0.3019156640101641
  0.8127226845647083  0.7024540719552328  0.3465162781844096
  0.5628321561143175  0.8773275138892539  0.7860919573201033
  0.1873665965451126  0.1214451343005443  0.4349621750670062
  0.6871887738198174  0.6252726866049196  0.6534788783716267
  0.6874827619482495  0.1155395537003350  0.1689727729305805
  0.8126032539148761  0.3657278713677008  0.1689698047238611
  0.8128577767315388  0.0371331936587565  0.3903040962695440
  0.4367350744883429  0.9622446936797859  0.8312782988769983
  0.3126894403417190  0.8723616320452636  0.5212828111707616
  0.3124248905298519  0.8682327674714343  0.3020031581555306
  0.3127025815347125  0.7128790913906830  0.8311292373700395
  0.5623540923134159  0.3684901246275094  0.3018830144475756
  0.5624620584679449  0.5317478255285013  0.1270096716911003
  0.5626940203080952  0.7114245134014420  0.8308827587148079
  0.9374914835330284  0.1227775411698758  0.5213211168683990
  0.3127722075944851  0.7098787621701850  0.6979847836691305
  0.1876871662052871  0.9555484854499741  0.4786255964235208
  0.5625345677714154  0.2054569237170982  0.4786304148142172
  0.9370888091580465  0.2908397253396739  0.6097373081684752
  0.8125973617716103  0.0440328324191641  0.7421666984006334
  0.0626312994446971  0.8747890031492492  0.6535735353165522
  0.0624787750789915  0.2027243098813676  0.3464864622232353
  0.9375512514788310  0.6180173591062585  0.3020281668180132
  0.1878763880519379  0.6225020243266159  0.5212993820129468
  0.9377935627757685  0.2935575377971216  0.7421332066231978
  0.9375556219946529  0.4595035528560392  0.6979597093496588
  0.4378226146367317  0.4621843267071437  0.8310372550165382
  0.4374379604216333  0.6224464758412401  0.5213325838849505
  0.3128832926093009  0.2025415576566760  0.3465123781520720
  0.4375637605975393  0.4524597326589657  0.3464835329065480
  0.4373333913572741  0.4502560653615711  0.2139108036060184
  0.6876979158066207  0.2962577419271327  0.8731601650798638
  0.3124821711847137  0.0441002967025181  0.7421388469481844
  0.4376609314932120  0.1179845597002967  0.3019846553473453
  0.6875773821390239  0.9564254886085409  0.5648403604872123
  0.3120489775351867  0.7025543693535137  0.3465598766140864
  0.6876449004728403  0.6224259066752020  0.5213376129604996
  0.8125612632517648  0.5325787981572245  0.1269999708944815
  0.6872399611193710  0.7868699289499862  0.3903530862629945
  0.6879566313508590  0.7827315036393196  0.1268304012498923
  0.4377196289244895  0.9504231203310282  0.2138517057215916
  0.0628648687170110  0.3661501889656580  0.1690130976600527
  0.0623446717167917  0.0405310143376809  0.6096207790134802
  0.3124621665088759  0.5437905486757481  0.7421255998939207
  0.3123685528169247  0.3660773303553540  0.1689777718495727
  0.4377400692299492  0.6278793709072714  0.7860584320808317
  0.9375323376404191  0.1185025703555743  0.3020552323818091
  0.8122684774404684  0.6998200451827606  0.2139464153588695
  0.8125173385857984  0.5437892063183877  0.7420656788772252
  0.4373122186655496  0.7939306041939044  0.7420492599863059
  0.5625106701306735  0.2098600757081516  0.6979469171880602
  0.6877725604481162  0.7838396871918965  0.2578304783748600
  0.0624289813038924  0.8714934025933617  0.4352128032775036
  0.4368459714522434  0.7828364602178526  0.1270392547718633
  0.1874018697077245  0.6181306466146880  0.3020093519755739
  0.0619577744359232  0.5451535561668144  0.8730066913950617
  0.3124507479583977  0.0369391205780662  0.3903542735083474
  0.5625558001708481  0.8727692883450107  0.5213142286425428
  0.4371937631486803  0.1213880881971325  0.4349950087466986
  0.0624714467947621  0.2053155056575922  0.4787164730903707
  0.5625151396983454  0.5409750623573231  0.6096163899632377
  0.3127381545982313  0.8777168010426705  0.7860488012850063
  0.8124814073559555  0.2054251697312313  0.4786944629439245
  0.1875364962065177  0.4566117237891403  0.5649327656300889
  0.9373784208756718  0.1215538152791912  0.4348261559427641
  0.3123069305233794  0.3783132644446131  0.7860256553904627
  0.0625518022025408  0.7051263940503480  0.4787553024372324
  0.3128310311819505  0.8713026386980501  0.4348375501038148
  0.6876845916190706  0.6182326139325339  0.3020429161119594
  0.8123625783473886  0.8714463652015897  0.4348085888362215
  0.0624515542575584  0.0441233410255593  0.7420936579277867
  0.5635491877603348  0.0456190607642354  0.8730717253749991
  0.4378087770795241  0.6211963623661941  0.4350811673197536
  0.9375963841513960  0.6250459644089763  0.6535738330455986
  0.5624048711894957  0.7095774207884460  0.6980062643217775
  0.4373563168755908  0.2907215921824121  0.6096173304834765
  0.8125865829333473  0.5337804649908439  0.2579253878745565
  0.0624251713090034  0.3717783265726856  0.4349723280855928
  0.0624635239016413  0.3726199938771462  0.5213323769798699
  0.3125665927415034  0.2055763331835893  0.4786642070682873
  0.5625135888362027  0.5369698157046044  0.3903199195480903
  0.9370385442637325  0.9564871473203028  0.5650242525707270
  0.6878053370623313  0.9596453115615520  0.6978596960659446
  0.5625746442215436  0.7068281203847790  0.5650444340399513
  0.1878596354009807  0.2827482262189801  0.1270127306317951
  0.9373472311174088  0.4522737634061080  0.3463824111605241
  0.9372504312001119  0.9593916988317316  0.6979617941731615
  0.4374472806418841  0.7912694410331380  0.6096133826679346
  0.3124425150560781  0.2001363445258666  0.2137282087759904
  0.3127287604698035  0.3725826756856095  0.5212995201821368
  0.6871543499536451  0.2828797701218767  0.1270596945245956
  0.9371433158936148  0.6159414511349078  0.1689839011274088
  0.4373608438200663  0.4598412632880669  0.6978401152693796
  0.8124804031931332  0.2117597765269251  0.8310838255471881
  0.3128234194086692  0.5451944406241912  0.8729981533165653
  0.5626559653320530  0.8751409542843606  0.6534794775803749
  0.1876328911872304  0.7867163744925070  0.3902103650322289
  0.6873979157349165  0.7949648301101577  0.8729646930236359
  0.1873672601202724  0.7908006247934010  0.6096172022336463
  0.9370711045991154  0.6224705935313559  0.5213415389507706
  0.6874065959628126  0.1255318993546221  0.6534929346311054
  0.4373250818218081  0.9555863333260199  0.4786350078661736
  0.0624833939882900  0.7003608753223891  0.2138565226381077
  0.8122456455963031  0.2065272089713734  0.5650143328153077
  0.4372632225917644  0.9564901019383294  0.5649272015727018
  0.3123441647237025  0.7055145357219483  0.4786637392044916
  0.1874955663278773  0.7939487700298880  0.7420379354656182
  0.3122793330413479  0.0341301517326262  0.2578802902309793
  0.3126533807248277  0.8658988537445739  0.1690047313679023
  0.1876513029022208  0.6213831316432523  0.4348356305890826
  0.1874545202571306  0.1229131122014646  0.5213332499642868
  0.0627246791696568  0.3783425936170940  0.7862420500698930
  0.5624563291422837  0.0371951297079513  0.3903436940347143
  0.1880038554505339  0.9623811846036138  0.8315943304612172
  0.8124356917066314  0.8660122693152760  0.1683845077116592
  0.1873012485757213  0.4524092383902016  0.3464868621737369
  0.0623751386940079  0.5403765890655059  0.6097707164922065
  0.5623057883970136  0.0407956618523300  0.6097472268582124
  0.3126659567619864  0.0450666194583575  0.8730698359143590
  0.0624437543349371  0.8728297496755958  0.5212597999801664
  0.8127647927076359  0.5369443127568143  0.3902874210953914
  0.5624926335083620  0.5339832244490521  0.2578153169194164
  0.6874371289495858  0.7935707049898109  0.7421786389745537
  0.4370131413059259  0.1272003216033957  0.7859203954992582
  0.0625294311493951  0.2067453585868114  0.5651270958268030
  0.4373120553616655  0.9522683431484857  0.3463199142497950
  0.9377144208846502  0.1252069784310796  0.6535343427207541
 
  0.00000000E+00  0.00000000E+00  0.00000000E+00
  0.00000000E+00  0.00000000E+00  0.00000000E+00
  0.00000000E+00  0.00000000E+00  0.00000000E+00
  0.00000000E+00  0.00000000E+00  0.00000000E+00
  0.00000000E+00  0.00000000E+00  0.00000000E+00
  0.00000000E+00  0.00000000E+00  0.00000000E+00
  0.00000000E+00  0.00000000E+00  0.00000000E+00
  0.00000000E+00  0.00000000E+00  0.00000000E+00
  0.00000000E+00  0.00000000E+00  0.00000000E+00
  0.00000000E+00  0.00000000E+00  0.00000000E+00
  0.00000000E+00  0.00000000E+00  0.00000000E+00
  0.00000000E+00  0.00000000E+00  0.00000000E+00
  0.00000000E+00  0.00000000E+00  0.00000000E+00
  0.00000000E+00  0.00000000E+00  0.00000000E+00
  0.00000000E+00  0.00000000E+00  0.00000000E+00
  0.00000000E+00  0.00000000E+00  0.00000000E+00
  0.00000000E+00  0.00000000E+00  0.00000000E+00
  0.00000000E+00  0.00000000E+00  0.00000000E+00
  0.00000000E+00  0.00000000E+00  0.00000000E+00
  0.00000000E+00  0.00000000E+00  0.00000000E+00
  0.00000000E+00  0.00000000E+00  0.00000000E+00
  0.00000000E+00  0.00000000E+00  0.00000000E+00
  0.00000000E+00  0.00000000E+00  0.00000000E+00
  0.00000000E+00  0.00000000E+00  0.00000000E+00
  0.00000000E+00  0.00000000E+00  0.00000000E+00
  0.00000000E+00  0.00000000E+00  0.00000000E+00
  0.00000000E+00  0.00000000E+00  0.00000000E+00
  0.00000000E+00  0.00000000E+00  0.00000000E+00
  0.00000000E+00  0.00000000E+00  0.00000000E+00
  0.00000000E+00  0.00000000E+00  0.00000000E+00
  0.00000000E+00  0.00000000E+00  0.00000000E+00
  0.00000000E+00  0.00000000E+00  0.00000000E+00
  0.00000000E+00  0.00000000E+00  0.00000000E+00
  0.00000000E+00  0.00000000E+00  0.00000000E+00
  0.00000000E+00  0.00000000E+00  0.00000000E+00
  0.00000000E+00  0.00000000E+00  0.00000000E+00
  0.00000000E+00  0.00000000E+00  0.00000000E+00
  0.00000000E+00  0.00000000E+00  0.00000000E+00
  0.00000000E+00  0.00000000E+00  0.00000000E+00
  0.00000000E+00  0.00000000E+00  0.00000000E+00
  0.00000000E+00  0.00000000E+00  0.00000000E+00
  0.00000000E+00  0.00000000E+00  0.00000000E+00
  0.00000000E+00  0.00000000E+00  0.00000000E+00
  0.00000000E+00  0.00000000E+00  0.00000000E+00
  0.00000000E+00  0.00000000E+00  0.00000000E+00
  0.00000000E+00  0.00000000E+00  0.00000000E+00
  0.00000000E+00  0.00000000E+00  0.00000000E+00
  0.00000000E+00  0.00000000E+00  0.00000000E+00
  0.00000000E+00  0.00000000E+00  0.00000000E+00
  0.00000000E+00  0.00000000E+00  0.00000000E+00
  0.00000000E+00  0.00000000E+00  0.00000000E+00
  0.00000000E+00  0.00000000E+00  0.00000000E+00
  0.00000000E+00  0.00000000E+00  0.00000000E+00
  0.00000000E+00  0.00000000E+00  0.00000000E+00
  0.00000000E+00  0.00000000E+00  0.00000000E+00
  0.00000000E+00  0.00000000E+00  0.00000000E+00
  0.00000000E+00  0.00000000E+00  0.00000000E+00
  0.00000000E+00  0.00000000E+00  0.00000000E+00
  0.00000000E+00  0.00000000E+00  0.00000000E+00
  0.00000000E+00  0.00000000E+00  0.00000000E+00
  0.00000000E+00  0.00000000E+00  0.00000000E+00
  0.00000000E+00  0.00000000E+00  0.00000000E+00
  0.00000000E+00  0.00000000E+00  0.00000000E+00
  0.00000000E+00  0.00000000E+00  0.00000000E+00
  0.00000000E+00  0.00000000E+00  0.00000000E+00
  0.00000000E+00  0.00000000E+00  0.00000000E+00
  0.00000000E+00  0.00000000E+00  0.00000000E+00
  0.00000000E+00  0.00000000E+00  0.00000000E+00
  0.00000000E+00  0.00000000E+00  0.00000000E+00
  0.00000000E+00  0.00000000E+00  0.00000000E+00
  0.00000000E+00  0.00000000E+00  0.00000000E+00
  0.00000000E+00  0.00000000E+00  0.00000000E+00
  0.00000000E+00  0.00000000E+00  0.00000000E+00
  0.00000000E+00  0.00000000E+00  0.00000000E+00
  0.00000000E+00  0.00000000E+00  0.00000000E+00
  0.00000000E+00  0.00000000E+00  0.00000000E+00
  0.00000000E+00  0.00000000E+00  0.00000000E+00
  0.00000000E+00  0.00000000E+00  0.00000000E+00
  0.00000000E+00  0.00000000E+00  0.00000000E+00
  0.00000000E+00  0.00000000E+00  0.00000000E+00
  0.00000000E+00  0.00000000E+00  0.00000000E+00
  0.00000000E+00  0.00000000E+00  0.00000000E+00
  0.00000000E+00  0.00000000E+00  0.00000000E+00
  0.00000000E+00  0.00000000E+00  0.00000000E+00
  0.00000000E+00  0.00000000E+00  0.00000000E+00
  0.00000000E+00  0.00000000E+00  0.00000000E+00
  0.00000000E+00  0.00000000E+00  0.00000000E+00
  0.00000000E+00  0.00000000E+00  0.00000000E+00
  0.00000000E+00  0.00000000E+00  0.00000000E+00
  0.00000000E+00  0.00000000E+00  0.00000000E+00
  0.00000000E+00  0.00000000E+00  0.00000000E+00
  0.00000000E+00  0.00000000E+00  0.00000000E+00
  0.00000000E+00  0.00000000E+00  0.00000000E+00
  0.00000000E+00  0.00000000E+00  0.00000000E+00
  0.00000000E+00  0.00000000E+00  0.00000000E+00
  0.00000000E+00  0.00000000E+00  0.00000000E+00
  0.00000000E+00  0.00000000E+00  0.00000000E+00
  0.00000000E+00  0.00000000E+00  0.00000000E+00
  0.00000000E+00  0.00000000E+00  0.00000000E+00
  0.00000000E+00  0.00000000E+00  0.00000000E+00
  0.00000000E+00  0.00000000E+00  0.00000000E+00
  0.00000000E+00  0.00000000E+00  0.00000000E+00
  0.00000000E+00  0.00000000E+00  0.00000000E+00
  0.00000000E+00  0.00000000E+00  0.00000000E+00
  0.00000000E+00  0.00000000E+00  0.00000000E+00
  0.00000000E+00  0.00000000E+00  0.00000000E+00
  0.00000000E+00  0.00000000E+00  0.00000000E+00
  0.00000000E+00  0.00000000E+00  0.00000000E+00
  0.00000000E+00  0.00000000E+00  0.00000000E+00
  0.00000000E+00  0.00000000E+00  0.00000000E+00
  0.00000000E+00  0.00000000E+00  0.00000000E+00
  0.00000000E+00  0.00000000E+00  0.00000000E+00
  0.00000000E+00  0.00000000E+00  0.00000000E+00
  0.00000000E+00  0.00000000E+00  0.00000000E+00
  0.00000000E+00  0.00000000E+00  0.00000000E+00
  0.00000000E+00  0.00000000E+00  0.00000000E+00
  0.00000000E+00  0.00000000E+00  0.00000000E+00
  0.00000000E+00  0.00000000E+00  0.00000000E+00
  0.00000000E+00  0.00000000E+00  0.00000000E+00
  0.00000000E+00  0.00000000E+00  0.00000000E+00
  0.00000000E+00  0.00000000E+00  0.00000000E+00
  0.00000000E+00  0.00000000E+00  0.00000000E+00
  0.00000000E+00  0.00000000E+00  0.00000000E+00
  0.00000000E+00  0.00000000E+00  0.00000000E+00
  0.00000000E+00  0.00000000E+00  0.00000000E+00
  0.00000000E+00  0.00000000E+00  0.00000000E+00
  0.00000000E+00  0.00000000E+00  0.00000000E+00
  0.00000000E+00  0.00000000E+00  0.00000000E+00
  0.00000000E+00  0.00000000E+00  0.00000000E+00
  0.00000000E+00  0.00000000E+00  0.00000000E+00
  0.00000000E+00  0.00000000E+00  0.00000000E+00
  0.00000000E+00  0.00000000E+00  0.00000000E+00
  0.00000000E+00  0.00000000E+00  0.00000000E+00
  0.00000000E+00  0.00000000E+00  0.00000000E+00
  0.00000000E+00  0.00000000E+00  0.00000000E+00
  0.00000000E+00  0.00000000E+00  0.00000000E+00
  0.00000000E+00  0.00000000E+00  0.00000000E+00
  0.00000000E+00  0.00000000E+00  0.00000000E+00
  0.00000000E+00  0.00000000E+00  0.00000000E+00
  0.00000000E+00  0.00000000E+00  0.00000000E+00
  0.00000000E+00  0.00000000E+00  0.00000000E+00
  0.00000000E+00  0.00000000E+00  0.00000000E+00
  0.00000000E+00  0.00000000E+00  0.00000000E+00
  0.00000000E+00  0.00000000E+00  0.00000000E+00
  0.00000000E+00  0.00000000E+00  0.00000000E+00
  0.00000000E+00  0.00000000E+00  0.00000000E+00
  0.00000000E+00  0.00000000E+00  0.00000000E+00
  0.00000000E+00  0.00000000E+00  0.00000000E+00
  0.00000000E+00  0.00000000E+00  0.00000000E+00
  0.00000000E+00  0.00000000E+00  0.00000000E+00
  0.00000000E+00  0.00000000E+00  0.00000000E+00
  0.00000000E+00  0.00000000E+00  0.00000000E+00
  0.00000000E+00  0.00000000E+00  0.00000000E+00
  0.00000000E+00  0.00000000E+00  0.00000000E+00
  0.00000000E+00  0.00000000E+00  0.00000000E+00
  0.00000000E+00  0.00000000E+00  0.00000000E+00
  0.00000000E+00  0.00000000E+00  0.00000000E+00
  0.00000000E+00  0.00000000E+00  0.00000000E+00
  0.00000000E+00  0.00000000E+00  0.00000000E+00
  0.00000000E+00  0.00000000E+00  0.00000000E+00
  0.00000000E+00  0.00000000E+00  0.00000000E+00
  0.00000000E+00  0.00000000E+00  0.00000000E+00
  0.00000000E+00  0.00000000E+00  0.00000000E+00
  0.00000000E+00  0.00000000E+00  0.00000000E+00
  0.00000000E+00  0.00000000E+00  0.00000000E+00
  0.00000000E+00  0.00000000E+00  0.00000000E+00
  0.00000000E+00  0.00000000E+00  0.00000000E+00
  0.00000000E+00  0.00000000E+00  0.00000000E+00
  0.00000000E+00  0.00000000E+00  0.00000000E+00
  0.00000000E+00  0.00000000E+00  0.00000000E+00
  0.00000000E+00  0.00000000E+00  0.00000000E+00
  0.00000000E+00  0.00000000E+00  0.00000000E+00
  0.00000000E+00  0.00000000E+00  0.00000000E+00
  0.00000000E+00  0.00000000E+00  0.00000000E+00
  0.00000000E+00  0.00000000E+00  0.00000000E+00
  0.00000000E+00  0.00000000E+00  0.00000000E+00
  0.00000000E+00  0.00000000E+00  0.00000000E+00
  0.00000000E+00  0.00000000E+00  0.00000000E+00
  0.00000000E+00  0.00000000E+00  0.00000000E+00
  0.00000000E+00  0.00000000E+00  0.00000000E+00
  0.00000000E+00  0.00000000E+00  0.00000000E+00
  0.00000000E+00  0.00000000E+00  0.00000000E+00
  0.00000000E+00  0.00000000E+00  0.00000000E+00
  0.00000000E+00  0.00000000E+00  0.00000000E+00
  0.00000000E+00  0.00000000E+00  0.00000000E+00
  0.00000000E+00  0.00000000E+00  0.00000000E+00
  0.00000000E+00  0.00000000E+00  0.00000000E+00
  0.00000000E+00  0.00000000E+00  0.00000000E+00
  0.00000000E+00  0.00000000E+00  0.00000000E+00
  0.00000000E+00  0.00000000E+00  0.00000000E+00
  0.00000000E+00  0.00000000E+00  0.00000000E+00
  0.00000000E+00  0.00000000E+00  0.00000000E+00
  0.00000000E+00  0.00000000E+00  0.00000000E+00
  0.00000000E+00  0.00000000E+00  0.00000000E+00
  0.00000000E+00  0.00000000E+00  0.00000000E+00
  0.00000000E+00  0.00000000E+00  0.00000000E+00
  0.00000000E+00  0.00000000E+00  0.00000000E+00
  0.00000000E+00  0.00000000E+00  0.00000000E+00
  0.00000000E+00  0.00000000E+00  0.00000000E+00
  0.00000000E+00  0.00000000E+00  0.00000000E+00
  0.00000000E+00  0.00000000E+00  0.00000000E+00
  0.00000000E+00  0.00000000E+00  0.00000000E+00
  0.00000000E+00  0.00000000E+00  0.00000000E+00
  0.00000000E+00  0.00000000E+00  0.00000000E+00
  0.00000000E+00  0.00000000E+00  0.00000000E+00
  0.00000000E+00  0.00000000E+00  0.00000000E+00
  0.00000000E+00  0.00000000E+00  0.00000000E+00
  0.00000000E+00  0.00000000E+00  0.00000000E+00
  0.00000000E+00  0.00000000E+00  0.00000000E+00
  0.00000000E+00  0.00000000E+00  0.00000000E+00
  0.00000000E+00  0.00000000E+00  0.00000000E+00
  0.00000000E+00  0.00000000E+00  0.00000000E+00
  0.00000000E+00  0.00000000E+00  0.00000000E+00
  0.00000000E+00  0.00000000E+00  0.00000000E+00
  0.00000000E+00  0.00000000E+00  0.00000000E+00
  0.00000000E+00  0.00000000E+00  0.00000000E+00
  0.00000000E+00  0.00000000E+00  0.00000000E+00
  0.00000000E+00  0.00000000E+00  0.00000000E+00
  0.00000000E+00  0.00000000E+00  0.00000000E+00
  0.00000000E+00  0.00000000E+00  0.00000000E+00
  0.00000000E+00  0.00000000E+00  0.00000000E+00
  0.00000000E+00  0.00000000E+00  0.00000000E+00
  0.00000000E+00  0.00000000E+00  0.00000000E+00
  0.00000000E+00  0.00000000E+00  0.00000000E+00
  0.00000000E+00  0.00000000E+00  0.00000000E+00
  0.00000000E+00  0.00000000E+00  0.00000000E+00
  0.00000000E+00  0.00000000E+00  0.00000000E+00
  0.00000000E+00  0.00000000E+00  0.00000000E+00
  0.00000000E+00  0.00000000E+00  0.00000000E+00
  0.00000000E+00  0.00000000E+00  0.00000000E+00
  0.00000000E+00  0.00000000E+00  0.00000000E+00
  0.00000000E+00  0.00000000E+00  0.00000000E+00
  0.00000000E+00  0.00000000E+00  0.00000000E+00
  0.00000000E+00  0.00000000E+00  0.00000000E+00
  0.00000000E+00  0.00000000E+00  0.00000000E+00
  0.00000000E+00  0.00000000E+00  0.00000000E+00
  0.00000000E+00  0.00000000E+00  0.00000000E+00
  0.00000000E+00  0.00000000E+00  0.00000000E+00
  0.00000000E+00  0.00000000E+00  0.00000000E+00
  0.00000000E+00  0.00000000E+00  0.00000000E+00
  0.00000000E+00  0.00000000E+00  0.00000000E+00
  0.00000000E+00  0.00000000E+00  0.00000000E+00
  0.00000000E+00  0.00000000E+00  0.00000000E+00
  0.00000000E+00  0.00000000E+00  0.00000000E+00
  0.00000000E+00  0.00000000E+00  0.00000000E+00
  0.00000000E+00  0.00000000E+00  0.00000000E+00
  0.00000000E+00  0.00000000E+00  0.00000000E+00