FeMn_288_15                             
    1.000000000000000     
     9.7266779999999997    0.0000000000000000    0.0000000000000000
     0.0000000000000000    8.4235500000000005    0.0000000000000000
     0.0000000000000000    0.0000000000000000   45.0000000000000000
   Fe   Mn
   273    15
Direct
  0.8125925936644395  0.7038218052024020  0.8325569943154133
  0.4373441633226319  0.1210656550877627  0.7875065842854840
  0.6875442891684512  0.7899247698493240  0.1254339050450896
  0.8124845824384923  0.8724397076227465  0.5212334447469583
  0.4373752221621182  0.9564246301873359  0.2126821126918872
  0.3129556858665842  0.2066005575337305  0.2127418848482838
  0.0623791592818101  0.0396726839433041  0.3895334209893193
  0.5622466798846049  0.7051360338884338  0.3455301654624551
  0.8127852816579384  0.0383068243049032  0.8746951267845937
  0.9372726885003495  0.2898274083174070  0.3894649285601254
  0.1870940328192555  0.1226797629514045  0.4342956915532878
  0.1876455813035750  0.7882647599872703  0.6103652156242924
  0.5630148799538671  0.7047261658660430  0.8325494444575117
  0.4372802874800190  0.2892628818395451  0.1258030772417174
  0.3125218572572890  0.8724065662087070  0.4342922290623699
  0.1878735469634283  0.6216482128959631  0.6543285200530160
  0.9372420103557622  0.4559000004954253  0.5654848564244422
  0.0633028030928968  0.5397089944762614  0.1257736829470030
  0.1876520511394008  0.1220794055961408  0.5214413271974674
  0.3123101390428752  0.5384846947372370  0.6105001205067854
  0.5625304450798958  0.2051443973695755  0.5655241661895513
  0.9372723837711729  0.1227946312917567  0.4342823343267525
  0.6862923281459967  0.7878261900894978  0.8746847914602307
  0.4376226835879715  0.9542311730127560  0.8324361879222950
  0.4376016604822078  0.4558914884874384  0.5654993296169580
  0.9374896879407963  0.6227446959182119  0.4341596155757367
  0.1875552639149685  0.4558076190801996  0.5655105967196065
  0.9373392598425897  0.2873340272543100  0.8746016848725138
  0.8125335195571677  0.0375610731634962  0.7432637582187458
  0.9373635756182142  0.4566807902598171  0.3454841210936690
  0.0623584293647024  0.5379573654579891  0.6103003837952695
  0.9380490169828242  0.7897784995753722  0.3895292911382974
  0.1873154943262809  0.2892801425526408  0.3894307004152355
  0.8119257854636794  0.5404662959183496  0.1255341996515406
  0.4375354866300505  0.1229534036467806  0.4343262894097413
  0.0624291489397217  0.8720507063555872  0.6543370880413277
  0.9376873282035119  0.2898796706939376  0.2568742498796726
  0.3121841403604933  0.3711917020018423  0.7875358889740927
  0.1875434863985959  0.2894353861942011  0.1256885483363047
  0.3122556944412948  0.2062520167479965  0.3455616175592550
  0.1875649348871543  0.6228378123417433  0.1678804642277933
  0.9374890042348937  0.6210931803786406  0.7874775402466250
  0.1871093713522537  0.4563066689933755  0.3454285310853952
  0.9381851071918774  0.1231368124579988  0.3010968886345193
  0.1876085651890723  0.4544260162385458  0.8323087819293894
  0.0626253292602940  0.8725434121862281  0.4343019655907753
  0.0626248072051527  0.7048076060245867  0.6989567611039581
  0.0626220375385732  0.8732666371419019  0.1679548421906795
  0.0623844728384593  0.0384851663890124  0.6103776808899407
  0.9378392432171588  0.6230055377559239  0.3009754982719388
  0.6874978465106881  0.1225319088577868  0.3010597604318453
  0.0627989347748406  0.2042881118367174  0.8323410610163374
  0.6873156555403802  0.6212940895985419  0.6543003413350853
  0.4374707154726266  0.6229071372718794  0.5214046927821605
  0.3123801035877617  0.3722442230244620  0.4340595778556538
  0.8127769778280221  0.0404278494979581  0.1257337545086474
  0.4379043173486962  0.7898239202370225  0.2567833967453518
  0.9377587286543035  0.2890471504143821  0.1258149934739229
  0.0624613409008827  0.2065930022384948  0.2127608715331626
  0.1874842781882201  0.1212876474848624  0.7875476402991576
  0.8126538302335857  0.2049360212324898  0.8325447261695610
  0.8123980364202983  0.8726432967567687  0.3010052108443040
  0.9375168353995426  0.6225371679791217  0.5214382069551058
  0.6875501333842718  0.2896260524275471  0.3896113753475429
  0.8124865657947589  0.3715374615909930  0.6545125881468293
  0.5624145057302017  0.2067413430697684  0.2126838550853475
  0.1875358237416251  0.6226597614301116  0.5213844091723391
  0.3120100863271533  0.0381489943535368  0.8746701437945243
  0.8122470098976533  0.8717003346599065  0.6544093308785237
  0.4374400414572025  0.4562199155209437  0.3454519983334520
  0.6876075905234880  0.1231940570676824  0.4342477155110890
  0.5622798896326308  0.2047437116039144  0.8322453769076866
  0.1875629562449427  0.2905113263719692  0.2568482883765300
  0.4372298885005210  0.1221153713524559  0.5213964643756542
  0.9380198914228030  0.1230329501562910  0.1679187873099539
  0.6874877065508695  0.1212413043470183  0.7874558238188798
  0.5625753406679812  0.0396540712366771  0.3895631452244633
  0.5622154621117209  0.5392606128656005  0.3894143528613279
  0.9372635251527975  0.7880895067775898  0.6103088031733997
  0.3125865902948109  0.7052541329503192  0.5654338135569742
  0.8126403282494999  0.0384165154985175  0.6102666218324608
  0.4376411425922028  0.6212198062633002  0.6543594673813712
  0.0625879872816002  0.3726905559027531  0.1679864350222752
  0.3122291870058038  0.7046179663777844  0.8324300194294167
  0.9375332259268363  0.2889581317555943  0.6104160342246696
  0.4371676229835268  0.4559993182604123  0.4783779038027307
  0.4374435925218324  0.4566003261448513  0.2126538970528818
  0.6875603174717186  0.4559240456107784  0.5655699378380885
  0.3124968536719955  0.0383396020047825  0.7432399653929949
  0.0626329489508313  0.0381672838877290  0.8747584671231667
  0.1876491337555353  0.4565172814827261  0.2127274432718713
  0.9387077137139886  0.7877105754548498  0.8746271647705768
  0.3125971525075875  0.3711875077321394  0.6545425834565032
  0.8124953558467369  0.2064748268365111  0.2126840667778951
  0.4373635818635916  0.6238780211043633  0.1678178697950440
  0.0624553582843264  0.2049031991840516  0.5655473705531302
  0.9375505845712031  0.9549173361221658  0.8323959310938257
  0.4373254278294127  0.2900625568354879  0.2568013161888273
  0.3123943670395056  0.0384939002843459  0.6103182169568360
  0.9373405050715321  0.4558697345534179  0.4784021730139930
  0.3124063990972804  0.3731710303823699  0.3010302255667340
  0.1876955230264264  0.1234945379407891  0.3010230472853863
  0.0625700920421729  0.0378690310392973  0.7432143062196326
  0.8126043693963044  0.7055853839303089  0.4783265709574762
  0.0624474695838771  0.7051462990695189  0.5654870597822098
  0.8126876274335020  0.3726244845236206  0.3010411353507131
  0.8124762504143312  0.3729716746187898  0.4340865926886190
  0.6874223585871290  0.6228870394979248  0.4341481642639296
  0.5624908552487599  0.7057808686131671  0.4783463437952469
  0.8124344005972246  0.8726288819630005  0.1677723783008371
  0.0620821613399064  0.7044695373694378  0.8324528477877704
  0.5621402642368043  0.8728753260450057  0.4343135934578246
  0.1874367065049533  0.6234969728005576  0.3010218839195060
  0.4377690905572776  0.7880989062753049  0.8747398384810328
  0.3122912915852722  0.5389493021741368  0.3894281932850397
  0.1875993275155498  0.9546901759459698  0.8325011864111630
  0.1875047268698410  0.1216249824916541  0.6544695996604017
  0.1875921188204374  0.7879737672195776  0.7431097991096551
  0.1874607234285876  0.9545211977035108  0.6989726272334930
  0.5622622943681278  0.2065859780732580  0.3454747128888593
  0.9372286171683067  0.2878566329006793  0.7431255988794748
  0.5626280094568969  0.8715783909272522  0.6544154816146135
  0.5624665858009436  0.7052990340982683  0.5655312748891871
  0.0629457023150440  0.3706453431792083  0.7874666365445308
  0.6873551991671423  0.4547187848624382  0.6989363778614940
  0.6879002724357778  0.1223994564717614  0.5214196162172204
  0.9371450134778856  0.6217863405815324  0.6544582871819028
  0.3123121213629802  0.8712251934347851  0.7875636828059034
  0.3122364890965155  0.0401184455515747  0.1257227920520779
  0.8126404546914563  0.7058667955370242  0.3454500405050071
  0.9376358972667442  0.9553240807905741  0.5653884256052234
  0.0632405023717343  0.5383722124028781  0.8746174597758275
  0.3122608665075213  0.0399157401095470  0.2568389478234144
  0.9371017442988918  0.1224291853677923  0.5214247886895887
  0.9378734660573410  0.9562726385822959  0.2127084366563174
  0.6877203618776699  0.9549716519259345  0.6989866233689359
  0.3124574962530391  0.5378846197602977  0.7431608123771991
  0.5632335032476586  0.5400782621400517  0.1255591225724752
  0.1875490631620078  0.6207350002246577  0.7874669684500458
  0.5626812497093213  0.0376510446904936  0.8746844740306784
  0.5624871939502614  0.2049588911041729  0.6989506454668001
  0.1875454090765568  0.7894721539638615  0.3894891420827503
  0.6875665566881434  0.2871509074634239  0.8745939189310440
  0.6873493154829383  0.9549289866100195  0.8325188127508996
  0.6876392458708608  0.1213910363711122  0.6544510142355725
  0.4368757618248466  0.1230029583783531  0.3010758072039519
  0.1878802236524943  0.2880424113317045  0.7431371258833265
  0.9371552213530269  0.4550295605494928  0.8325215987940227
  0.4370820082846953  0.1232126473857918  0.1678667812568665
  0.4370449600707232  0.7893990346808096  0.1256448534621948
  0.6874947315700534  0.9561633234817342  0.4783168569874041
  0.8125244790630776  0.2058209234470462  0.4783471033081187
  0.0626456270571049  0.0399816428197999  0.2568502991980322
  0.3123625751041679  0.2058822638496251  0.4784901973105984
  0.5625173283599114  0.0380002150016313  0.7433346694471543
  0.8126446904443223  0.7049772108858361  0.6987750725381378
  0.5620681289313737  0.7070803265200771  0.2127914073622135
  0.5623882636804077  0.8724187029089057  0.3010039538011401
  0.3125408491887688  0.3728006917248515  0.1679641329991473
  0.0628849219827879  0.0398951054001637  0.1257420852776251
  0.3124653753830972  0.2046992671970861  0.6989967786335345
  0.5625879396808914  0.5382794461405584  0.7430826995387583
  0.6874960585506409  0.4563233444138378  0.4784304351688049
  0.1872765305582672  0.9551818110549645  0.5653935138549913
  0.6871989742587079  0.9556602256522493  0.3454077176538242
  0.1872693105527704  0.7878616874240366  0.8747138226573695
  0.0622488365079032  0.8732912936583764  0.3009363992483856
  0.4374932692761707  0.1213216665696912  0.6544794783702887
  0.0625166583407838  0.7057879315003800  0.4783535185132332
  0.4375762874900407  0.7886610282254123  0.6103490910514136
  0.5623439749668830  0.8721629156892083  0.5212724591662145
  0.8125507100666740  0.5398250166080045  0.3895511962491214
  0.1876295333142500  0.1231211620497189  0.1680108571185222
  0.6872253780096139  0.7895374915804644  0.3894806225897460
  0.5623996480754635  0.7045038836156747  0.6990416604488785
  0.3118147487297592  0.5397420851375332  0.1257655962557278
  0.3129052130646856  0.8716191822716370  0.6544499502649067
  0.4374712017780327  0.9546442254182343  0.6989944752861618
  0.5625578844960869  0.3710437365428582  0.6545792463855075
  0.5621842946407816  0.3726175290237334  0.4346002513854784
  0.0625054336954605  0.5394207923286047  0.3894249092518667
  0.5630524347483866  0.3735987734052429  0.1677999791284134
  0.6871120325823088  0.7879764234943786  0.7431589282625621
  0.9371375601953079  0.7892246219785035  0.2567636552261218
  0.6877110744083060  0.6215130421453960  0.7874610616855617
  0.4368926049412922  0.7893060561527706  0.3895641699583566
  0.9376808516760411  0.4563114947525966  0.2125928696669416
  0.5626441201664352  0.5380958309953805  0.6103479081666540
  0.9374884698373125  0.9550420249586782  0.6989167060766029
  0.4378565596921746  0.9553900031028896  0.5653585983788429
  0.6875053457370023  0.2894158597405297  0.2568487678545589
  0.8129652020174011  0.8720821013851614  0.7873902547167714
  0.8125772332962709  0.5381589655922130  0.7432006060872121
  0.4374474487581418  0.6210100242025014  0.7874384109268853
  0.6876551292449334  0.2908101233478304  0.1256632137738199
  0.8124936580899453  0.7053529972156962  0.5654123455518965
  0.5623417352467169  0.3725949362830964  0.3009534683164094
  0.4378355559596740  0.2875890749138804  0.8745597706721905
  0.1875481770811762  0.4546558095838123  0.6989499794153762
  0.1877699683280200  0.7894717389002471  0.1257100262623246
  0.0626487442846204  0.3724628708315224  0.4345695525350440
  0.0624867414439204  0.2054877058950387  0.4783912067200073
  0.9378142858643287  0.9560893977488982  0.3454638093622349
  0.0623813350729993  0.2068191307851814  0.3454367068168883
  0.3125006785727645  0.8722760541670603  0.5213211201238124
  0.5621780936232444  0.0404044547958739  0.1257219105753734
  0.5617326429167566  0.5379740225867492  0.8746145448743522
  0.6871402771823113  0.9555290213000581  0.5653390558798810
  0.1873870661943580  0.9556132526280303  0.4784061656817169
  0.3124642274864812  0.7065946787261134  0.3454680568881373
  0.8126369212305753  0.2052240462178458  0.6990188767781099
  0.6873884857739723  0.2880060219027002  0.7432103723574657
  0.0624018390398209  0.3732847687275933  0.3009807707305971
  0.6875251272975582  0.4562724148984540  0.2127241826529748
  0.4374285699232162  0.9559076517109409  0.4783028065986618
  0.4374648021683648  0.4545378932885099  0.6989197223763625
  0.6872140796155568  0.2886373817216729  0.6103513833919727
  0.9375127113600704  0.9559583208251063  0.4783150593745986
  0.4374823131871644  0.6219981602384758  0.4342378263937340
  0.4378000546434592  0.2885856845261531  0.6103515567442425
  0.0624655028649991  0.3718790101445618  0.6545869619702954
  0.3121232546086722  0.5399577239484878  0.2568178889004427
  0.5621672008106721  0.3709515477871916  0.7874125980938737
  0.5626053964133524  0.5397169918694772  0.2568124765625982
  0.8130459109562542  0.7065718575574894  0.2127792257943075
  0.8126519963711856  0.5386383047940373  0.6104325653268405
  0.4371530673395528  0.4543668566750076  0.8323353636622788
  0.0625435312091734  0.5383734057396382  0.7430530817541730
  0.3122634809077650  0.7057832912341706  0.4783183140819555
  0.4374081131729005  0.2893994079815976  0.3894492534339158
  0.6880956292851340  0.4552875737181972  0.8324648649035093
  0.8127425625495941  0.2070886523583157  0.3455477535913138
  0.6875239324505962  0.7885190664868307  0.6103006395431859
  0.9375289550682826  0.6234254778146358  0.1677988690145276
  0.8128823511897865  0.3712963179683109  0.7874839962057891
  0.9378360994592901  0.4549955865967538  0.6989998004396769
  0.5625052891145625  0.8729153314751826  0.1677289259500267
  0.8128941075901289  0.5395851489510016  0.2567864349569680
  0.3123702929557270  0.3721319849448051  0.5214288049162307
  0.1875355204917009  0.7896628874017382  0.2568013490439436
  0.0625920875321780  0.8712824771475515  0.7874705892231664
  0.3124681788001628  0.5374205304588591  0.8746452724079504
  0.0625034598971555  0.7059727821317975  0.3454352517095235
  0.0624320887937102  0.2049268714109921  0.6990185165725937
  0.6877503408533513  0.7893153558168992  0.2566914941145529
  0.4375451492696376  0.2881327329234354  0.7432522278989698
  0.6874426754622119  0.1224367436262263  0.1678722370150650
  0.8126977778148581  0.0395877361617164  0.2568465238296629
  0.9378013923829052  0.1212359159963966  0.7874457948371937
  0.0625940738339427  0.7061351744932596  0.2126721040517998
  0.1872930836512819  0.2875004383206486  0.8746170365004472
  0.5623433247781354  0.2057334982919758  0.4783112540766136
  0.1874149782763035  0.6219642150814572  0.4342326436774528
  0.8118540667070736  0.3730251877300430  0.1679118861835240
  0.3121716783149205  0.0391925350855344  0.3895480333818033
  0.9376788424056981  0.7895192347076969  0.1256696639871029
  0.1875931423809573  0.9563995523676679  0.2126612652583191
  0.4375884688250782  0.7880404074601615  0.7431640232140928
  0.6873254964663862  0.6228617168863588  0.5214345001010171
  0.1873240846647831  0.2889097390412894  0.6103308451047600
  0.8125673758124032  0.3722490848542987  0.5214571453059446
  0.0625772832588105  0.5397766196487001  0.2568506924448884
  0.8124944324600599  0.0396380104161511  0.3895198693385681
  0.3123173288920684  0.2045139186572955  0.8324474876397955
  0.6876709736588538  0.4562963418763776  0.3453950559183313
  0.3121909776886819  0.8732066978943929  0.1678501172683026
  0.4373623397126433  0.6231445840935154  0.3010299540299191
  0.9373590653462658  0.1220774929523857  0.6543666107423858
  0.3123208848750342  0.7044695568590227  0.6987860418119002
  0.3127884762940530  0.8736462583361979  0.3010123838142647
  0.0626447882949051  0.8720623106317563  0.5213058585373670
  0.3126850006536480  0.7062677877466641  0.2126294981981463
  0.1878026460404742  0.4557135670641189  0.4783633469548975
  0.6876694618044198  0.6219828571623550  0.3009972381939098
  0.5623920438212234  0.8716802648856733  0.7872252170184553
  0.0623921493690440  0.3719551526415836  0.5214061809631517
  0.5625150395064170  0.3725858839770061  0.5213618255523409
  0.5625761104488495  0.0388017633753673  0.6103275898614319
  0.8125911109541671  0.8727938261251746  0.4343616561361544
  0.4382554057547670  0.9561085266703042  0.3455826332342488
  0.6875788812403943  0.6230824401050201  0.1672191968387747
  0.6878057228713746  0.9563882136609758  0.2126799254858117
  0.1864410590230644  0.9564554858407335  0.3455527796352674
  0.5623604955618452  0.0397910924705902  0.2568479149144300
  0.8126432863253039  0.5377042567930046  0.8744226512833242
  0.8122689709523471  0.2057539382136546  0.5655602324206742
  0.9379009002144071  0.7879732184343297  0.7431612200162268
  0.3127624021466349  0.2056592236758583  0.5656049054608758
 
  0.00000000E+00  0.00000000E+00  0.00000000E+00
  0.00000000E+00  0.00000000E+00  0.00000000E+00
  0.00000000E+00  0.00000000E+00  0.00000000E+00
  0.00000000E+00  0.00000000E+00  0.00000000E+00
  0.00000000E+00  0.00000000E+00  0.00000000E+00
  0.00000000E+00  0.00000000E+00  0.00000000E+00
  0.00000000E+00  0.00000000E+00  0.00000000E+00
  0.00000000E+00  0.00000000E+00  0.00000000E+00
  0.00000000E+00  0.00000000E+00  0.00000000E+00
  0.00000000E+00  0.00000000E+00  0.00000000E+00
  0.00000000E+00  0.00000000E+00  0.00000000E+00
  0.00000000E+00  0.00000000E+00  0.00000000E+00
  0.00000000E+00  0.00000000E+00  0.00000000E+00
  0.00000000E+00  0.00000000E+00  0.00000000E+00
  0.00000000E+00  0.00000000E+00  0.00000000E+00
  0.00000000E+00  0.00000000E+00  0.00000000E+00
  0.00000000E+00  0.00000000E+00  0.00000000E+00
  0.00000000E+00  0.00000000E+00  0.00000000E+00
  0.00000000E+00  0.00000000E+00  0.00000000E+00
  0.00000000E+00  0.00000000E+00  0.00000000E+00
  0.00000000E+00  0.00000000E+00  0.00000000E+00
  0.00000000E+00  0.00000000E+00  0.00000000E+00
  0.00000000E+00  0.00000000E+00  0.00000000E+00
  0.00000000E+00  0.00000000E+00  0.00000000E+00
  0.00000000E+00  0.00000000E+00  0.00000000E+00
  0.00000000E+00  0.00000000E+00  0.00000000E+00
  0.00000000E+00  0.00000000E+00  0.00000000E+00
  0.00000000E+00  0.00000000E+00  0.00000000E+00
  0.00000000E+00  0.00000000E+00  0.00000000E+00
  0.00000000E+00  0.00000000E+00  0.00000000E+00
  0.00000000E+00  0.00000000E+00  0.00000000E+00
  0.00000000E+00  0.00000000E+00  0.00000000E+00
  0.00000000E+00  0.00000000E+00  0.00000000E+00
  0.00000000E+00  0.00000000E+00  0.00000000E+00
  0.00000000E+00  0.00000000E+00  0.00000000E+00
  0.00000000E+00  0.00000000E+00  0.00000000E+00
  0.00000000E+00  0.00000000E+00  0.00000000E+00
  0.00000000E+00  0.00000000E+00  0.00000000E+00
  0.00000000E+00  0.00000000E+00  0.00000000E+00
  0.00000000E+00  0.00000000E+00  0.00000000E+00
  0.00000000E+00  0.00000000E+00  0.00000000E+00
  0.00000000E+00  0.00000000E+00  0.00000000E+00
  0.00000000E+00  0.00000000E+00  0.00000000E+00
  0.00000000E+00  0.00000000E+00  0.00000000E+00
  0.00000000E+00  0.00000000E+00  0.00000000E+00
  0.00000000E+00  0.00000000E+00  0.00000000E+00
  0.00000000E+00  0.00000000E+00  0.00000000E+00
  0.00000000E+00  0.00000000E+00  0.00000000E+00
  0.00000000E+00  0.00000000E+00  0.00000000E+00
  0.00000000E+00  0.00000000E+00  0.00000000E+00
  0.00000000E+00  0.00000000E+00  0.00000000E+00
  0.00000000E+00  0.00000000E+00  0.00000000E+00
  0.00000000E+00  0.00000000E+00  0.00000000E+00
  0.00000000E+00  0.00000000E+00  0.00000000E+00
  0.00000000E+00  0.00000000E+00  0.00000000E+00
  0.00000000E+00  0.00000000E+00  0.00000000E+00
  0.00000000E+00  0.00000000E+00  0.00000000E+00
  0.00000000E+00  0.00000000E+00  0.00000000E+00
  0.00000000E+00  0.00000000E+00  0.00000000E+00
  0.00000000E+00  0.00000000E+00  0.00000000E+00
  0.00000000E+00  0.00000000E+00  0.00000000E+00
  0.00000000E+00  0.00000000E+00  0.00000000E+00
  0.00000000E+00  0.00000000E+00  0.00000000E+00
  0.00000000E+00  0.00000000E+00  0.00000000E+00
  0.00000000E+00  0.00000000E+00  0.00000000E+00
  0.00000000E+00  0.00000000E+00  0.00000000E+00
  0.00000000E+00  0.00000000E+00  0.00000000E+00
  0.00000000E+00  0.00000000E+00  0.00000000E+00
  0.00000000E+00  0.00000000E+00  0.00000000E+00
  0.00000000E+00  0.00000000E+00  0.00000000E+00
  0.00000000E+00  0.00000000E+00  0.00000000E+00
  0.00000000E+00  0.00000000E+00  0.00000000E+00
  0.00000000E+00  0.00000000E+00  0.00000000E+00
  0.00000000E+00  0.00000000E+00  0.00000000E+00
  0.00000000E+00  0.00000000E+00  0.00000000E+00
  0.00000000E+00  0.00000000E+00  0.00000000E+00
  0.00000000E+00  0.00000000E+00  0.00000000E+00
  0.00000000E+00  0.00000000E+00  0.00000000E+00
  0.00000000E+00  0.00000000E+00  0.00000000E+00
  0.00000000E+00  0.00000000E+00  0.00000000E+00
  0.00000000E+00  0.00000000E+00  0.00000000E+00
  0.00000000E+00  0.00000000E+00  0.00000000E+00
  0.00000000E+00  0.00000000E+00  0.00000000E+00
  0.00000000E+00  0.00000000E+00  0.00000000E+00
  0.00000000E+00  0.00000000E+00  0.00000000E+00
  0.00000000E+00  0.00000000E+00  0.00000000E+00
  0.00000000E+00  0.00000000E+00  0.00000000E+00
  0.00000000E+00  0.00000000E+00  0.00000000E+00
  0.00000000E+00  0.00000000E+00  0.00000000E+00
  0.00000000E+00  0.00000000E+00  0.00000000E+00
  0.00000000E+00  0.00000000E+00  0.00000000E+00
  0.00000000E+00  0.00000000E+00  0.00000000E+00
  0.00000000E+00  0.00000000E+00  0.00000000E+00
  0.00000000E+00  0.00000000E+00  0.00000000E+00
  0.00000000E+00  0.00000000E+00  0.00000000E+00
  0.00000000E+00  0.00000000E+00  0.00000000E+00
  0.00000000E+00  0.00000000E+00  0.00000000E+00
  0.00000000E+00  0.00000000E+00  0.00000000E+00
  0.00000000E+00  0.00000000E+00  0.00000000E+00
  0.00000000E+00  0.00000000E+00  0.00000000E+00
  0.00000000E+00  0.00000000E+00  0.00000000E+00
  0.00000000E+00  0.00000000E+00  0.00000000E+00
  0.00000000E+00  0.00000000E+00  0.00000000E+00
  0.00000000E+00  0.00000000E+00  0.00000000E+00
  0.00000000E+00  0.00000000E+00  0.00000000E+00
  0.00000000E+00  0.00000000E+00  0.00000000E+00
  0.00000000E+00  0.00000000E+00  0.00000000E+00
  0.00000000E+00  0.00000000E+00  0.00000000E+00
  0.00000000E+00  0.00000000E+00  0.00000000E+00
  0.00000000E+00  0.00000000E+00  0.00000000E+00
  0.00000000E+00  0.00000000E+00  0.00000000E+00
  0.00000000E+00  0.00000000E+00  0.00000000E+00
  0.00000000E+00  0.00000000E+00  0.00000000E+00
  0.00000000E+00  0.00000000E+00  0.00000000E+00
  0.00000000E+00  0.00000000E+00  0.00000000E+00
  0.00000000E+00  0.00000000E+00  0.00000000E+00
  0.00000000E+00  0.00000000E+00  0.00000000E+00
  0.00000000E+00  0.00000000E+00  0.00000000E+00
  0.00000000E+00  0.00000000E+00  0.00000000E+00
  0.00000000E+00  0.00000000E+00  0.00000000E+00
  0.00000000E+00  0.00000000E+00  0.00000000E+00
  0.00000000E+00  0.00000000E+00  0.00000000E+00
  0.00000000E+00  0.00000000E+00  0.00000000E+00
  0.00000000E+00  0.00000000E+00  0.00000000E+00
  0.00000000E+00  0.00000000E+00  0.00000000E+00
  0.00000000E+00  0.00000000E+00  0.00000000E+00
  0.00000000E+00  0.00000000E+00  0.00000000E+00
  0.00000000E+00  0.00000000E+00  0.00000000E+00
  0.00000000E+00  0.00000000E+00  0.00000000E+00
  0.00000000E+00  0.00000000E+00  0.00000000E+00
  0.00000000E+00  0.00000000E+00  0.00000000E+00
  0.00000000E+00  0.00000000E+00  0.00000000E+00
  0.00000000E+00  0.00000000E+00  0.00000000E+00
  0.00000000E+00  0.00000000E+00  0.00000000E+00
  0.00000000E+00  0.00000000E+00  0.00000000E+00
  0.00000000E+00  0.00000000E+00  0.00000000E+00
  0.00000000E+00  0.00000000E+00  0.00000000E+00
  0.00000000E+00  0.00000000E+00  0.00000000E+00
  0.00000000E+00  0.00000000E+00  0.00000000E+00
  0.00000000E+00  0.00000000E+00  0.00000000E+00
  0.00000000E+00  0.00000000E+00  0.00000000E+00
  0.00000000E+00  0.00000000E+00  0.00000000E+00
  0.00000000E+00  0.00000000E+00  0.00000000E+00
  0.00000000E+00  0.00000000E+00  0.00000000E+00
  0.00000000E+00  0.00000000E+00  0.00000000E+00
  0.00000000E+00  0.00000000E+00  0.00000000E+00
  0.00000000E+00  0.00000000E+00  0.00000000E+00
  0.00000000E+00  0.00000000E+00  0.00000000E+00
  0.00000000E+00  0.00000000E+00  0.00000000E+00
  0.00000000E+00  0.00000000E+00  0.00000000E+00
  0.00000000E+00  0.00000000E+00  0.00000000E+00
  0.00000000E+00  0.00000000E+00  0.00000000E+00
  0.00000000E+00  0.00000000E+00  0.00000000E+00
  0.00000000E+00  0.00000000E+00  0.00000000E+00
  0.00000000E+00  0.00000000E+00  0.00000000E+00
  0.00000000E+00  0.00000000E+00  0.00000000E+00
  0.00000000E+00  0.00000000E+00  0.00000000E+00
  0.00000000E+00  0.00000000E+00  0.00000000E+00
  0.00000000E+00  0.00000000E+00  0.00000000E+00
  0.00000000E+00  0.00000000E+00  0.00000000E+00
  0.00000000E+00  0.00000000E+00  0.00000000E+00
  0.00000000E+00  0.00000000E+00  0.00000000E+00
  0.00000000E+00  0.00000000E+00  0.00000000E+00
  0.00000000E+00  0.00000000E+00  0.00000000E+00
  0.00000000E+00  0.00000000E+00  0.00000000E+00
  0.00000000E+00  0.00000000E+00  0.00000000E+00
  0.00000000E+00  0.00000000E+00  0.00000000E+00
  0.00000000E+00  0.00000000E+00  0.00000000E+00
  0.00000000E+00  0.00000000E+00  0.00000000E+00
  0.00000000E+00  0.00000000E+00  0.00000000E+00
  0.00000000E+00  0.00000000E+00  0.00000000E+00
  0.00000000E+00  0.00000000E+00  0.00000000E+00
  0.00000000E+00  0.00000000E+00  0.00000000E+00
  0.00000000E+00  0.00000000E+00  0.00000000E+00
  0.00000000E+00  0.00000000E+00  0.00000000E+00
  0.00000000E+00  0.00000000E+00  0.00000000E+00
  0.00000000E+00  0.00000000E+00  0.00000000E+00
  0.00000000E+00  0.00000000E+00  0.00000000E+00
  0.00000000E+00  0.00000000E+00  0.00000000E+00
  0.00000000E+00  0.00000000E+00  0.00000000E+00
  0.00000000E+00  0.00000000E+00  0.00000000E+00
  0.00000000E+00  0.00000000E+00  0.00000000E+00
  0.00000000E+00  0.00000000E+00  0.00000000E+00
  0.00000000E+00  0.00000000E+00  0.00000000E+00
  0.00000000E+00  0.00000000E+00  0.00000000E+00
  0.00000000E+00  0.00000000E+00  0.00000000E+00
  0.00000000E+00  0.00000000E+00  0.00000000E+00
  0.00000000E+00  0.00000000E+00  0.00000000E+00
  0.00000000E+00  0.00000000E+00  0.00000000E+00
  0.00000000E+00  0.00000000E+00  0.00000000E+00
  0.00000000E+00  0.00000000E+00  0.00000000E+00
  0.00000000E+00  0.00000000E+00  0.00000000E+00
  0.00000000E+00  0.00000000E+00  0.00000000E+00
  0.00000000E+00  0.00000000E+00  0.00000000E+00
  0.00000000E+00  0.00000000E+00  0.00000000E+00
  0.00000000E+00  0.00000000E+00  0.00000000E+00
  0.00000000E+00  0.00000000E+00  0.00000000E+00
  0.00000000E+00  0.00000000E+00  0.00000000E+00
  0.00000000E+00  0.00000000E+00  0.00000000E+00
  0.00000000E+00  0.00000000E+00  0.00000000E+00
  0.00000000E+00  0.00000000E+00  0.00000000E+00
  0.00000000E+00  0.00000000E+00  0.00000000E+00
  0.00000000E+00  0.00000000E+00  0.00000000E+00
  0.00000000E+00  0.00000000E+00  0.00000000E+00
  0.00000000E+00  0.00000000E+00  0.00000000E+00
  0.00000000E+00  0.00000000E+00  0.00000000E+00
  0.00000000E+00  0.00000000E+00  0.00000000E+00
  0.00000000E+00  0.00000000E+00  0.00000000E+00
  0.00000000E+00  0.00000000E+00  0.00000000E+00
  0.00000000E+00  0.00000000E+00  0.00000000E+00
  0.00000000E+00  0.00000000E+00  0.00000000E+00
  0.00000000E+00  0.00000000E+00  0.00000000E+00
  0.00000000E+00  0.00000000E+00  0.00000000E+00
  0.00000000E+00  0.00000000E+00  0.00000000E+00
  0.00000000E+00  0.00000000E+00  0.00000000E+00
  0.00000000E+00  0.00000000E+00  0.00000000E+00
  0.00000000E+00  0.00000000E+00  0.00000000E+00
  0.00000000E+00  0.00000000E+00  0.00000000E+00
  0.00000000E+00  0.00000000E+00  0.00000000E+00
  0.00000000E+00  0.00000000E+00  0.00000000E+00
  0.00000000E+00  0.00000000E+00  0.00000000E+00
  0.00000000E+00  0.00000000E+00  0.00000000E+00
  0.00000000E+00  0.00000000E+00  0.00000000E+00
  0.00000000E+00  0.00000000E+00  0.00000000E+00
  0.00000000E+00  0.00000000E+00  0.00000000E+00
  0.00000000E+00  0.00000000E+00  0.00000000E+00
  0.00000000E+00  0.00000000E+00  0.00000000E+00
  0.00000000E+00  0.00000000E+00  0.00000000E+00
  0.00000000E+00  0.00000000E+00  0.00000000E+00
  0.00000000E+00  0.00000000E+00  0.00000000E+00
  0.00000000E+00  0.00000000E+00  0.00000000E+00
  0.00000000E+00  0.00000000E+00  0.00000000E+00
  0.00000000E+00  0.00000000E+00  0.00000000E+00
  0.00000000E+00  0.00000000E+00  0.00000000E+00
  0.00000000E+00  0.00000000E+00  0.00000000E+00
  0.00000000E+00  0.00000000E+00  0.00000000E+00
  0.00000000E+00  0.00000000E+00  0.00000000E+00
  0.00000000E+00  0.00000000E+00  0.00000000E+00
  0.00000000E+00  0.00000000E+00  0.00000000E+00
  0.00000000E+00  0.00000000E+00  0.00000000E+00
  0.00000000E+00  0.00000000E+00  0.00000000E+00
  0.00000000E+00  0.00000000E+00  0.00000000E+00
  0.00000000E+00  0.00000000E+00  0.00000000E+00
  0.00000000E+00  0.00000000E+00  0.00000000E+00
  0.00000000E+00  0.00000000E+00  0.00000000E+00
  0.00000000E+00  0.00000000E+00  0.00000000E+00
  0.00000000E+00  0.00000000E+00  0.00000000E+00