FeMn_288_15                             
    1.000000000000000     
     9.7266779999999997    0.0000000000000000    0.0000000000000000
     0.0000000000000000    8.4235500000000005    0.0000000000000000
     0.0000000000000000    0.0000000000000000   45.0000000000000000
   Fe   Mn
   273    15
Direct
  0.8131652473952921  0.7068003389130870  0.8305635504561949
  0.4358376983205931  0.1243240778571393  0.7867347935964643
  0.6896829482552868  0.7876197156546714  0.1285298160504920
  0.8090497217755893  0.8728193570573780  0.5219718197543104
  0.4415269247377709  0.9549549722146065  0.2113926653075822
  0.3188511895826819  0.2010218442853172  0.2118268161511057
  0.0709363627644744  0.0412293776723514  0.3892504244680136
  0.5555371334157885  0.7059341259453138  0.3435913285575529
  0.8108539935103140  0.0398108565781090  0.8729693970094169
  0.9460944898013622  0.2926692076475590  0.3897825300249978
  0.1874019081482622  0.1339158441646301  0.4323922793972793
  0.1874808891650511  0.7883621518085688  0.6071816659731851
  0.5618241186774410  0.7050058637224399  0.8315555157113425
  0.4395300184996948  0.2857180196356372  0.1270850210060050
  0.3077759805982364  0.8767075364093023  0.4311375044681796
  0.1889632142818504  0.6225128844869932  0.6573633241965635
  0.9350990884594443  0.4561322661359150  0.5654845070097388
  0.0551534377966736  0.5384937020214396  0.1274801644358953
  0.1881029892494788  0.1332836150708418  0.5216344194205975
  0.3171472916453112  0.5321724328307917  0.6072354884937829
  0.5632955148629455  0.2078221049017500  0.5661939740691423
  0.9397704811804291  0.1255245115841952  0.4339790599100867
  0.6839603592020320  0.7906047399817542  0.8737859845084535
  0.4377548081838396  0.9538581965382776  0.8309290468295952
  0.4401074918535943  0.4576827095888261  0.5660858467964008
  0.9387064781771273  0.6187759813196088  0.4319577213967014
  0.1893034959166883  0.4541120474425998  0.5659475097601826
  0.9380741055432131  0.2864545618695051  0.8734122222313049
  0.8144962707221056  0.0396025049339611  0.7451665045339202
  0.9450998665772176  0.4577457402575377  0.3449293335380003
  0.0604208476993237  0.5310365706720690  0.6070960627666045
  0.9469200803965049  0.7835960561071859  0.3893588181282536
  0.1876278583220688  0.2924757173953390  0.3895425745458180
  0.8128314060468027  0.5411642365195409  0.1278789072223268
  0.4330548013889303  0.1323108303947379  0.4337881795294250
  0.0588417275085607  0.8758904456951064  0.6565534617605828
  0.9373303677436730  0.2868248335066578  0.2569648916271446
  0.3094322387907024  0.3743951943719266  0.7864411675463558
  0.1860095057550828  0.2880210566575171  0.1272241446814459
  0.3063471456921372  0.2022713319967734  0.3459480297776227
  0.1858423280897403  0.6266773683627026  0.1697371061334319
  0.9408332348170595  0.6164598000525205  0.7859688336097505
  0.1838444908370596  0.4605432252001537  0.3462160793987442
  0.9389567920134057  0.1184294710061330  0.2998473645265418
  0.1870343678822296  0.4556317764277498  0.8301127977375830
  0.0581171296111741  0.8752600571113408  0.4315237036032566
  0.0629280292832392  0.7054915531951965  0.7055852423051100
  0.0589600682316844  0.8737015631214536  0.1696523628078191
  0.0613977392442741  0.0437102377585604  0.6087095127035901
  0.9427856729562419  0.6248497760896032  0.3001874280597883
  0.6854977846503917  0.1222537317899391  0.2980222960937379
  0.0618236579794961  0.2052011967382755  0.8303151762742942
  0.6826410423252355  0.6272642629527688  0.6544227690496689
  0.4425732823026580  0.6175139999868027  0.5227543829724731
  0.3096821618659765  0.3710678097258708  0.4329562362322986
  0.8124852761781416  0.0368110884052877  0.1279573338347296
  0.4365103114167150  0.7937383580421821  0.2567295888203088
  0.9354803684074945  0.2909900661803496  0.1272952627821539
  0.0626633106446982  0.2005153172873208  0.2112082242552311
  0.1838088122628490  0.1250412791435635  0.7866085170666821
  0.8143762670332058  0.2059456509871260  0.8308138697591205
  0.8145511060159838  0.8768982894584779  0.2986627355012579
  0.9321776013083998  0.6111661145882349  0.5232110177224490
  0.6893934898990547  0.2890516177168026  0.3904219563231649
  0.8109199410857499  0.3637506470485578  0.6550207633293954
  0.5657045329916288  0.2054270074088528  0.2114928562402821
  0.1874674977143425  0.6121615611025679  0.5235020829869736
  0.3135193486128660  0.0377826756890916  0.8728179317977685
  0.8067404734313560  0.8799213507512018  0.6553100734339492
  0.4293173692413071  0.4603483900847086  0.3449932385001667
  0.6903433288879347  0.1235621946057003  0.4348180047746670
  0.5628197763875544  0.2049281911860130  0.8312066104362773
  0.1918348349678565  0.2870567758292883  0.2566625324457634
  0.4377589925828405  0.1263614899627312  0.5217209577236454
  0.9322578118954216  0.1204872238565361  0.1686993176516449
  0.6908074875697754  0.1262273846384305  0.7868353837571478
  0.5564555125130485  0.0454093298781603  0.3901636960476743
  0.5585437616080464  0.5351611064562076  0.3895385542959145
  0.9334266175439606  0.7854552676722334  0.6077950397933445
  0.3169157022318063  0.6982682849080617  0.5659758845373206
  0.8087685322032070  0.0420652034226566  0.6091145328779261
  0.4432688277065496  0.6277719969830576  0.6554653071439731
  0.0580031109085782  0.3760107517654698  0.1682860298528704
  0.3109186670149079  0.7027112051185060  0.8307973960838049
  0.9378631334417927  0.2900730963478949  0.6082425725337088
  0.4393486137538078  0.4523348535389440  0.4778758882043020
  0.4438363127342998  0.4572866408690767  0.2113707618026150
  0.6861443942103581  0.4572180299880983  0.5660074241659335
  0.3112342035637625  0.0364980977013089  0.7445212197344370
  0.0625473815162472  0.0395288550776270  0.8730376340636836
  0.1913589051859927  0.4594063441386744  0.2115705356101957
  0.9375102186847210  0.7889157129627800  0.8730670965832996
  0.3155463458663567  0.3609437238191758  0.6554241626065150
  0.8036305231385851  0.2029490154045668  0.2106119259487164
  0.4412951406241773  0.6273687952489617  0.1700676039260199
  0.0614645747309746  0.2100942760605999  0.5652868077018278
  0.9400470676830487  0.9559719233806691  0.8304756683219936
  0.4389022484925514  0.2855185332466578  0.2563160044667157
  0.3160203165917242  0.0450205573856882  0.6095253459809352
  0.9353674650393365  0.4490633702733752  0.4782691197400110
  0.3131365353072690  0.3719316783560971  0.2995132081854948
  0.1888577347204748  0.1147968105015185  0.3003312793885959
  0.0624611922204167  0.0380065580793416  0.7449338885833598
  0.8087935347209420  0.7061551197221551  0.4774404226073162
  0.0596163765234492  0.6995720555692403  0.5665725521813335
  0.8127787257439083  0.3729387231831784  0.3003493587183253
  0.8169508321634028  0.3696473557525853  0.4340071636355024
  0.6902894689149001  0.6178960650167026  0.4344964409952486
  0.5647062003188503  0.7007204037813755  0.4786548950175120
  0.8101030855588478  0.8712422188521197  0.1692468305490181
  0.0642200807081766  0.7036997597230440  0.8305794167059860
  0.5653040768322077  0.8739236455934234  0.4340097571103604
  0.1885153847918546  0.6295501407277390  0.3007458245929605
  0.4399631191463644  0.7859421842530336  0.8737753987580134
  0.3034168947212947  0.5380376921178732  0.3890317946665935
  0.1853322309983191  0.9550098212391133  0.8304632847425044
  0.1901010002977708  0.1241862170131695  0.6557117749761961
  0.1867805836552910  0.7876725237478355  0.7459650143114428
  0.1862888123625499  0.9572735406968461  0.7042648287785207
  0.5573630474174593  0.2066870167389316  0.3440825138839631
  0.9397596823193289  0.2908456872154008  0.7454066176651668
  0.5632568139457724  0.8788720782879272  0.6555374143941420
  0.5646586733808177  0.6992389285013041  0.5655478740599431
  0.0616511393597332  0.3721817940827000  0.7860981087541390
  0.6872999428518687  0.4562255897076314  0.7032727979097407
  0.6884950049751336  0.1244915351434847  0.5215090283936664
  0.9356073683665806  0.6229290949763396  0.6550115708732517
  0.3096324400869295  0.8686551685298501  0.7860257404234318
  0.3136256271908004  0.0406032230573247  0.1272451174239960
  0.8195174917087078  0.7015452989568263  0.3443365872442349
  0.9316944347588114  0.9567256299653446  0.5667798592820892
  0.0658591008124663  0.5368802101160391  0.8734197989365612
  0.3140235830344773  0.0371694448416507  0.2565530932750879
  0.9360080730725588  0.1315284455837324  0.5212540783917147
  0.9307701569019322  0.9520389218610330  0.2109456048315976
  0.6858775231952092  0.9537038709719344  0.7008977642631963
  0.3096873300357987  0.5386140242038803  0.7468412678649829
  0.5679588917125096  0.5407553577182379  0.1279025503974315
  0.1848745412224174  0.6184764301773649  0.7859616433905474
  0.5626496352215409  0.0371294401882830  0.8737524095373083
  0.5612858499676354  0.2024974591838020  0.7004971985035184
  0.1853409610381646  0.7868990365598848  0.3872505796796500
  0.6856043829539950  0.2849260386513688  0.8740189689794405
  0.6871555725744726  0.9538870189992131  0.8313052451888238
  0.6831115585395724  0.1164726915331811  0.6544314860650242
  0.4372111505562189  0.1184640934930141  0.2988209211524224
  0.1851400833930726  0.2875446635484806  0.7454159318762381
  0.9406010619374261  0.4518993123562425  0.8299823574332460
  0.4412982668527249  0.1208400807104070  0.1693032175964537
  0.4434012187803028  0.7949637170603551  0.1281488126288659
  0.6891521053059171  0.9596613064088416  0.4778953769434832
  0.8114350780579349  0.2053483269394486  0.4779814872966157
  0.0643080828942591  0.0331834937595142  0.2565810530547549
  0.3154824229124024  0.2095867341151635  0.4768656368302302
  0.5622401708204464  0.0365912930547110  0.7452786951527932
  0.8138870304628693  0.7059022687043225  0.7037035213560201
  0.5677624112184986  0.7075631191030045  0.2108527474060329
  0.5583392252879321  0.8782242609133630  0.2988546040966624
  0.3156688353136362  0.3743461974860878  0.1694549673882119
  0.0601655615961573  0.0413687760659017  0.1273897490446289
  0.3091923684625561  0.2059496305740131  0.7036052310738058
  0.5631312290802006  0.5384548478216017  0.7452105699573246
  0.6859958654092534  0.4528688596917395  0.4785145248116021
  0.1890496271891497  0.9589441661270779  0.5665761390026177
  0.6850905033910991  0.9572159831114643  0.3436271888477571
  0.1875041350377080  0.7852191330650654  0.8731280791440592
  0.0666100084726375  0.8720376289288416  0.3001048470334462
  0.4423588282410815  0.1180728020525888  0.6551426338509596
  0.0595765289109750  0.7017003096351185  0.4759679382459476
  0.4425461563432598  0.7863694906553366  0.6086723231192486
  0.5637465979434766  0.8685074969698708  0.5222226203250612
  0.8215834757285245  0.5322345232345977  0.3897212666241975
  0.1869475516897600  0.1180197588772783  0.1689727646500855
  0.6898676708730495  0.7896828323115282  0.3898500561128226
  0.5597327266462030  0.7039411619574324  0.7040178000247094
  0.3120284071637099  0.5384681788394882  0.1271189307695171
  0.3191497955618391  0.8790476969105601  0.6562787224542357
  0.4376186968506376  0.9563954943795007  0.7011482002636887
  0.5607881486126051  0.3643206125221750  0.6541996128723099
  0.5586014432174886  0.3714672611926196  0.4347135226912610
  0.0664112730415079  0.5376837522872161  0.3886495225953188
  0.5661396730251396  0.3746604228552844  0.1697610602060941
  0.6869916693819172  0.7845187712996864  0.7450036307559964
  0.9371488060491899  0.7929048685948979  0.2561369239059951
  0.6892294398729985  0.6167409531225115  0.7860105751862950
  0.4258038332027151  0.7898298011616982  0.3882857937800560
  0.9304994713154446  0.4618276479335727  0.2107226754740105
  0.5625544970945919  0.5363754285065989  0.6074036027992099
  0.9403002849745307  0.9554713939380030  0.7038748538724563
  0.4422744796850800  0.9581716965071670  0.5661078856499842
  0.6836827778232174  0.2865050947151492  0.2552111956364801
  0.8150156098929913  0.8701605460137810  0.7861160569072968
  0.8149942719346647  0.5365052085556407  0.7453611384294321
  0.4347972154149390  0.6178767192507957  0.7860583534822757
  0.6871919981406008  0.2917859956722975  0.1277311187683327
  0.8091222277444216  0.7013851532590188  0.5662151632348724
  0.5623910318361638  0.3693654825645911  0.2989492945872469
  0.4395266889632992  0.2900348132076467  0.8735560880002945
  0.1868772842134355  0.4513345838808765  0.7049725829175350
  0.1854858835977840  0.7922385578413034  0.1278716215276795
  0.0655387916184975  0.3718780912758252  0.4322361961911149
  0.0609317118581834  0.2090150207004267  0.4777994425773837
  0.9495844258877899  0.9540796880238939  0.3441867209714146
  0.0671099732819033  0.2079678422448083  0.3460637339896924
  0.3186789829062844  0.8721953683122361  0.5225384876095599
  0.5639871535399755  0.0375919021582969  0.1277359135997157
  0.5609247278502486  0.5379027845441335  0.8737609936344537
  0.6872270294359099  0.9572842314524975  0.5663821022503128
  0.1881850102554653  0.9697632298280684  0.4770401185090689
  0.3044021296825005  0.7079080765884087  0.3443149472181073
  0.8156573292761357  0.2019616151480115  0.7022617032701473
  0.6897554028166341  0.2918627007443053  0.7454370668349531
  0.0624417956607860  0.3746841851772050  0.3009565717892640
  0.6860879472184945  0.4597950212283594  0.2105719611080748
  0.4428590166254106  0.9655732889988461  0.4783089694993527
  0.4337546441853551  0.4563027858930768  0.7041456396291915
  0.6859115836970054  0.2881034909829517  0.6082727720312842
  0.9285124646362657  0.9659502435099492  0.4771080476223862
  0.4342970547522303  0.6128621009191809  0.4335381503215803
  0.4394270565879513  0.2881715300369875  0.6083197438757010
  0.0617853037631323  0.3622619519242906  0.6554474091549403
  0.3119852451869198  0.5412223089036361  0.2562962417782424
  0.5628159066179892  0.3725359989276709  0.7862842730928263
  0.5611459429895592  0.5397897791946642  0.2562618107590639
  0.8069196387278894  0.7102995537815253  0.2107396757784033
  0.8104048439865869  0.5379716513087273  0.6075621812716140
  0.4358303448110251  0.4542049098487994  0.8306521945815203
  0.0620047974834837  0.5364469438147631  0.7462194193204188
  0.3180642829572563  0.6984813457910627  0.4776624323043043
  0.4267458579903899  0.2880571632748294  0.3903960632006701
  0.6866766062659255  0.4513706715286733  0.8304320289134193
  0.8183436818791578  0.2119436860913995  0.3448710815878046
  0.6862328214103000  0.7867842285355270  0.6083865688299587
  0.9317971680438957  0.6266223989082377  0.1688380703442073
  0.8165829917260603  0.3702288899486083  0.7866347885797337
  0.9413747539376405  0.4531151263251531  0.7042621672694938
  0.5664854920651800  0.8700237210218569  0.1691352231418269
  0.8112568825903202  0.5444128209036314  0.2555474016151117
  0.3120550543763561  0.3727140614545195  0.5216388768805393
  0.1882170697738708  0.7920047558914565  0.2570525549935062
  0.0635209507220059  0.8692209444887622  0.7860704886431900
  0.3132497015846598  0.5390971937904397  0.8734162915669410
  0.0701943795409656  0.7044639454350379  0.3451186790541811
  0.0654084205494310  0.2041425155094753  0.7038958355304161
  0.6874192696829041  0.7945245425217494  0.2553685728666615
  0.4359895746502165  0.2895995010524447  0.7447665694120937
  0.6893950434483178  0.1188414518184967  0.1694979249289350
  0.8105623927175428  0.0376818544366062  0.2560189917871570
  0.9396337147415921  0.1270990144086930  0.7865245007673605
  0.0599109741728741  0.7118782104279122  0.2113120210451220
  0.1867756898468311  0.2899149834601943  0.8733523963089966
  0.5623759696290623  0.2069369968160097  0.4775781637000904
  0.1849731481659989  0.6127669038744300  0.4311269280465707
  0.8102422240445906  0.3760982070189370  0.1688746580264407
  0.3053839276311708  0.0439555060374201  0.3885935196809444
  0.9336889355177239  0.7884656234090390  0.1280310504929824
  0.1904333049315082  0.9537752179285836  0.2113795278437582
  0.4378515166108937  0.7879515496423889  0.7454495032110878
  0.6863638916150567  0.6166942467760151  0.5226010428376443
  0.1880371311723675  0.2902079954718220  0.6087396794630467
  0.8143511774698459  0.3720116148761103  0.5217145341205647
  0.0648023997302452  0.5454930096261568  0.2568969042797251
  0.8176878666098093  0.0433379874362296  0.3907883087110718
  0.3108766648216549  0.2069487430284717  0.8304295531811461
  0.6912238385110193  0.4559601330693207  0.3444937934989880
  0.3150352011022959  0.8716454838093114  0.1697699304417076
  0.4324247604427415  0.6298501474437053  0.3000413097944563
  0.9342626264704665  0.1205619021921068  0.6557547817604557
  0.3131242727823400  0.7055617963437427  0.7048569831272937
  0.3110037338092280  0.8729411110593474  0.3002933356409108
  0.0585850197421080  0.8746617521893847  0.5226800888789723
  0.3172702807200918  0.7094432937928676  0.2113107520688945
  0.1894719158546004  0.4461087490911196  0.4774388023277293
  0.6853709619761137  0.6269862432565569  0.2990243157867892
  0.5613375824949667  0.8684495877329861  0.7859789775494808
  0.0609548978605957  0.3687574037851064  0.5217956726669853
  0.5619294491033670  0.3778755949216642  0.5211195328923016
  0.5642431555091362  0.0431790910284219  0.6101307383923837
  0.8166919273621974  0.8729038757347635  0.4339089210256643
  0.4241789056718502  0.9541585640125102  0.3429260327447229
  0.6920443840504571  0.6267340707735510  0.1696667689951587
  0.6870889429579921  0.9518751031015608  0.2105148947886223
  0.1896334290351468  0.9487442154638065  0.3449603048896971
  0.5611889977768409  0.0410713682167323  0.2562420491727962
  0.8107910004076886  0.5362634333386985  0.8719703312580723
  0.8095634952151830  0.2076192826017859  0.5658601974933736
  0.9401787149459512  0.7846137369693007  0.7455981552947156
  0.3155619392073830  0.2121477452227055  0.5663734597855257
 
  0.00000000E+00  0.00000000E+00  0.00000000E+00
  0.00000000E+00  0.00000000E+00  0.00000000E+00
  0.00000000E+00  0.00000000E+00  0.00000000E+00
  0.00000000E+00  0.00000000E+00  0.00000000E+00
  0.00000000E+00  0.00000000E+00  0.00000000E+00
  0.00000000E+00  0.00000000E+00  0.00000000E+00
  0.00000000E+00  0.00000000E+00  0.00000000E+00
  0.00000000E+00  0.00000000E+00  0.00000000E+00
  0.00000000E+00  0.00000000E+00  0.00000000E+00
  0.00000000E+00  0.00000000E+00  0.00000000E+00
  0.00000000E+00  0.00000000E+00  0.00000000E+00
  0.00000000E+00  0.00000000E+00  0.00000000E+00
  0.00000000E+00  0.00000000E+00  0.00000000E+00
  0.00000000E+00  0.00000000E+00  0.00000000E+00
  0.00000000E+00  0.00000000E+00  0.00000000E+00
  0.00000000E+00  0.00000000E+00  0.00000000E+00
  0.00000000E+00  0.00000000E+00  0.00000000E+00
  0.00000000E+00  0.00000000E+00  0.00000000E+00
  0.00000000E+00  0.00000000E+00  0.00000000E+00
  0.00000000E+00  0.00000000E+00  0.00000000E+00
  0.00000000E+00  0.00000000E+00  0.00000000E+00
  0.00000000E+00  0.00000000E+00  0.00000000E+00
  0.00000000E+00  0.00000000E+00  0.00000000E+00
  0.00000000E+00  0.00000000E+00  0.00000000E+00
  0.00000000E+00  0.00000000E+00  0.00000000E+00
  0.00000000E+00  0.00000000E+00  0.00000000E+00
  0.00000000E+00  0.00000000E+00  0.00000000E+00
  0.00000000E+00  0.00000000E+00  0.00000000E+00
  0.00000000E+00  0.00000000E+00  0.00000000E+00
  0.00000000E+00  0.00000000E+00  0.00000000E+00
  0.00000000E+00  0.00000000E+00  0.00000000E+00
  0.00000000E+00  0.00000000E+00  0.00000000E+00
  0.00000000E+00  0.00000000E+00  0.00000000E+00
  0.00000000E+00  0.00000000E+00  0.00000000E+00
  0.00000000E+00  0.00000000E+00  0.00000000E+00
  0.00000000E+00  0.00000000E+00  0.00000000E+00
  0.00000000E+00  0.00000000E+00  0.00000000E+00
  0.00000000E+00  0.00000000E+00  0.00000000E+00
  0.00000000E+00  0.00000000E+00  0.00000000E+00
  0.00000000E+00  0.00000000E+00  0.00000000E+00
  0.00000000E+00  0.00000000E+00  0.00000000E+00
  0.00000000E+00  0.00000000E+00  0.00000000E+00
  0.00000000E+00  0.00000000E+00  0.00000000E+00
  0.00000000E+00  0.00000000E+00  0.00000000E+00
  0.00000000E+00  0.00000000E+00  0.00000000E+00
  0.00000000E+00  0.00000000E+00  0.00000000E+00
  0.00000000E+00  0.00000000E+00  0.00000000E+00
  0.00000000E+00  0.00000000E+00  0.00000000E+00
  0.00000000E+00  0.00000000E+00  0.00000000E+00
  0.00000000E+00  0.00000000E+00  0.00000000E+00
  0.00000000E+00  0.00000000E+00  0.00000000E+00
  0.00000000E+00  0.00000000E+00  0.00000000E+00
  0.00000000E+00  0.00000000E+00  0.00000000E+00
  0.00000000E+00  0.00000000E+00  0.00000000E+00
  0.00000000E+00  0.00000000E+00  0.00000000E+00
  0.00000000E+00  0.00000000E+00  0.00000000E+00
  0.00000000E+00  0.00000000E+00  0.00000000E+00
  0.00000000E+00  0.00000000E+00  0.00000000E+00
  0.00000000E+00  0.00000000E+00  0.00000000E+00
  0.00000000E+00  0.00000000E+00  0.00000000E+00
  0.00000000E+00  0.00000000E+00  0.00000000E+00
  0.00000000E+00  0.00000000E+00  0.00000000E+00
  0.00000000E+00  0.00000000E+00  0.00000000E+00
  0.00000000E+00  0.00000000E+00  0.00000000E+00
  0.00000000E+00  0.00000000E+00  0.00000000E+00
  0.00000000E+00  0.00000000E+00  0.00000000E+00
  0.00000000E+00  0.00000000E+00  0.00000000E+00
  0.00000000E+00  0.00000000E+00  0.00000000E+00
  0.00000000E+00  0.00000000E+00  0.00000000E+00
  0.00000000E+00  0.00000000E+00  0.00000000E+00
  0.00000000E+00  0.00000000E+00  0.00000000E+00
  0.00000000E+00  0.00000000E+00  0.00000000E+00
  0.00000000E+00  0.00000000E+00  0.00000000E+00
  0.00000000E+00  0.00000000E+00  0.00000000E+00
  0.00000000E+00  0.00000000E+00  0.00000000E+00
  0.00000000E+00  0.00000000E+00  0.00000000E+00
  0.00000000E+00  0.00000000E+00  0.00000000E+00
  0.00000000E+00  0.00000000E+00  0.00000000E+00
  0.00000000E+00  0.00000000E+00  0.00000000E+00
  0.00000000E+00  0.00000000E+00  0.00000000E+00
  0.00000000E+00  0.00000000E+00  0.00000000E+00
  0.00000000E+00  0.00000000E+00  0.00000000E+00
  0.00000000E+00  0.00000000E+00  0.00000000E+00
  0.00000000E+00  0.00000000E+00  0.00000000E+00
  0.00000000E+00  0.00000000E+00  0.00000000E+00
  0.00000000E+00  0.00000000E+00  0.00000000E+00
  0.00000000E+00  0.00000000E+00  0.00000000E+00
  0.00000000E+00  0.00000000E+00  0.00000000E+00
  0.00000000E+00  0.00000000E+00  0.00000000E+00
  0.00000000E+00  0.00000000E+00  0.00000000E+00
  0.00000000E+00  0.00000000E+00  0.00000000E+00
  0.00000000E+00  0.00000000E+00  0.00000000E+00
  0.00000000E+00  0.00000000E+00  0.00000000E+00
  0.00000000E+00  0.00000000E+00  0.00000000E+00
  0.00000000E+00  0.00000000E+00  0.00000000E+00
  0.00000000E+00  0.00000000E+00  0.00000000E+00
  0.00000000E+00  0.00000000E+00  0.00000000E+00
  0.00000000E+00  0.00000000E+00  0.00000000E+00
  0.00000000E+00  0.00000000E+00  0.00000000E+00
  0.00000000E+00  0.00000000E+00  0.00000000E+00
  0.00000000E+00  0.00000000E+00  0.00000000E+00
  0.00000000E+00  0.00000000E+00  0.00000000E+00
  0.00000000E+00  0.00000000E+00  0.00000000E+00
  0.00000000E+00  0.00000000E+00  0.00000000E+00
  0.00000000E+00  0.00000000E+00  0.00000000E+00
  0.00000000E+00  0.00000000E+00  0.00000000E+00
  0.00000000E+00  0.00000000E+00  0.00000000E+00
  0.00000000E+00  0.00000000E+00  0.00000000E+00
  0.00000000E+00  0.00000000E+00  0.00000000E+00
  0.00000000E+00  0.00000000E+00  0.00000000E+00
  0.00000000E+00  0.00000000E+00  0.00000000E+00
  0.00000000E+00  0.00000000E+00  0.00000000E+00
  0.00000000E+00  0.00000000E+00  0.00000000E+00
  0.00000000E+00  0.00000000E+00  0.00000000E+00
  0.00000000E+00  0.00000000E+00  0.00000000E+00
  0.00000000E+00  0.00000000E+00  0.00000000E+00
  0.00000000E+00  0.00000000E+00  0.00000000E+00
  0.00000000E+00  0.00000000E+00  0.00000000E+00
  0.00000000E+00  0.00000000E+00  0.00000000E+00
  0.00000000E+00  0.00000000E+00  0.00000000E+00
  0.00000000E+00  0.00000000E+00  0.00000000E+00
  0.00000000E+00  0.00000000E+00  0.00000000E+00
  0.00000000E+00  0.00000000E+00  0.00000000E+00
  0.00000000E+00  0.00000000E+00  0.00000000E+00
  0.00000000E+00  0.00000000E+00  0.00000000E+00
  0.00000000E+00  0.00000000E+00  0.00000000E+00
  0.00000000E+00  0.00000000E+00  0.00000000E+00
  0.00000000E+00  0.00000000E+00  0.00000000E+00
  0.00000000E+00  0.00000000E+00  0.00000000E+00
  0.00000000E+00  0.00000000E+00  0.00000000E+00
  0.00000000E+00  0.00000000E+00  0.00000000E+00
  0.00000000E+00  0.00000000E+00  0.00000000E+00
  0.00000000E+00  0.00000000E+00  0.00000000E+00
  0.00000000E+00  0.00000000E+00  0.00000000E+00
  0.00000000E+00  0.00000000E+00  0.00000000E+00
  0.00000000E+00  0.00000000E+00  0.00000000E+00
  0.00000000E+00  0.00000000E+00  0.00000000E+00
  0.00000000E+00  0.00000000E+00  0.00000000E+00
  0.00000000E+00  0.00000000E+00  0.00000000E+00
  0.00000000E+00  0.00000000E+00  0.00000000E+00
  0.00000000E+00  0.00000000E+00  0.00000000E+00
  0.00000000E+00  0.00000000E+00  0.00000000E+00
  0.00000000E+00  0.00000000E+00  0.00000000E+00
  0.00000000E+00  0.00000000E+00  0.00000000E+00
  0.00000000E+00  0.00000000E+00  0.00000000E+00
  0.00000000E+00  0.00000000E+00  0.00000000E+00
  0.00000000E+00  0.00000000E+00  0.00000000E+00
  0.00000000E+00  0.00000000E+00  0.00000000E+00
  0.00000000E+00  0.00000000E+00  0.00000000E+00
  0.00000000E+00  0.00000000E+00  0.00000000E+00
  0.00000000E+00  0.00000000E+00  0.00000000E+00
  0.00000000E+00  0.00000000E+00  0.00000000E+00
  0.00000000E+00  0.00000000E+00  0.00000000E+00
  0.00000000E+00  0.00000000E+00  0.00000000E+00
  0.00000000E+00  0.00000000E+00  0.00000000E+00
  0.00000000E+00  0.00000000E+00  0.00000000E+00
  0.00000000E+00  0.00000000E+00  0.00000000E+00
  0.00000000E+00  0.00000000E+00  0.00000000E+00
  0.00000000E+00  0.00000000E+00  0.00000000E+00
  0.00000000E+00  0.00000000E+00  0.00000000E+00
  0.00000000E+00  0.00000000E+00  0.00000000E+00
  0.00000000E+00  0.00000000E+00  0.00000000E+00
  0.00000000E+00  0.00000000E+00  0.00000000E+00
  0.00000000E+00  0.00000000E+00  0.00000000E+00
  0.00000000E+00  0.00000000E+00  0.00000000E+00
  0.00000000E+00  0.00000000E+00  0.00000000E+00
  0.00000000E+00  0.00000000E+00  0.00000000E+00
  0.00000000E+00  0.00000000E+00  0.00000000E+00
  0.00000000E+00  0.00000000E+00  0.00000000E+00
  0.00000000E+00  0.00000000E+00  0.00000000E+00
  0.00000000E+00  0.00000000E+00  0.00000000E+00
  0.00000000E+00  0.00000000E+00  0.00000000E+00
  0.00000000E+00  0.00000000E+00  0.00000000E+00
  0.00000000E+00  0.00000000E+00  0.00000000E+00
  0.00000000E+00  0.00000000E+00  0.00000000E+00
  0.00000000E+00  0.00000000E+00  0.00000000E+00
  0.00000000E+00  0.00000000E+00  0.00000000E+00
  0.00000000E+00  0.00000000E+00  0.00000000E+00
  0.00000000E+00  0.00000000E+00  0.00000000E+00
  0.00000000E+00  0.00000000E+00  0.00000000E+00
  0.00000000E+00  0.00000000E+00  0.00000000E+00
  0.00000000E+00  0.00000000E+00  0.00000000E+00
  0.00000000E+00  0.00000000E+00  0.00000000E+00
  0.00000000E+00  0.00000000E+00  0.00000000E+00
  0.00000000E+00  0.00000000E+00  0.00000000E+00
  0.00000000E+00  0.00000000E+00  0.00000000E+00
  0.00000000E+00  0.00000000E+00  0.00000000E+00
  0.00000000E+00  0.00000000E+00  0.00000000E+00
  0.00000000E+00  0.00000000E+00  0.00000000E+00
  0.00000000E+00  0.00000000E+00  0.00000000E+00
  0.00000000E+00  0.00000000E+00  0.00000000E+00
  0.00000000E+00  0.00000000E+00  0.00000000E+00
  0.00000000E+00  0.00000000E+00  0.00000000E+00
  0.00000000E+00  0.00000000E+00  0.00000000E+00
  0.00000000E+00  0.00000000E+00  0.00000000E+00
  0.00000000E+00  0.00000000E+00  0.00000000E+00
  0.00000000E+00  0.00000000E+00  0.00000000E+00
  0.00000000E+00  0.00000000E+00  0.00000000E+00
  0.00000000E+00  0.00000000E+00  0.00000000E+00
  0.00000000E+00  0.00000000E+00  0.00000000E+00
  0.00000000E+00  0.00000000E+00  0.00000000E+00
  0.00000000E+00  0.00000000E+00  0.00000000E+00
  0.00000000E+00  0.00000000E+00  0.00000000E+00
  0.00000000E+00  0.00000000E+00  0.00000000E+00
  0.00000000E+00  0.00000000E+00  0.00000000E+00
  0.00000000E+00  0.00000000E+00  0.00000000E+00
  0.00000000E+00  0.00000000E+00  0.00000000E+00
  0.00000000E+00  0.00000000E+00  0.00000000E+00
  0.00000000E+00  0.00000000E+00  0.00000000E+00
  0.00000000E+00  0.00000000E+00  0.00000000E+00
  0.00000000E+00  0.00000000E+00  0.00000000E+00
  0.00000000E+00  0.00000000E+00  0.00000000E+00
  0.00000000E+00  0.00000000E+00  0.00000000E+00
  0.00000000E+00  0.00000000E+00  0.00000000E+00
  0.00000000E+00  0.00000000E+00  0.00000000E+00
  0.00000000E+00  0.00000000E+00  0.00000000E+00
  0.00000000E+00  0.00000000E+00  0.00000000E+00
  0.00000000E+00  0.00000000E+00  0.00000000E+00
  0.00000000E+00  0.00000000E+00  0.00000000E+00
  0.00000000E+00  0.00000000E+00  0.00000000E+00
  0.00000000E+00  0.00000000E+00  0.00000000E+00
  0.00000000E+00  0.00000000E+00  0.00000000E+00
  0.00000000E+00  0.00000000E+00  0.00000000E+00
  0.00000000E+00  0.00000000E+00  0.00000000E+00
  0.00000000E+00  0.00000000E+00  0.00000000E+00
  0.00000000E+00  0.00000000E+00  0.00000000E+00
  0.00000000E+00  0.00000000E+00  0.00000000E+00
  0.00000000E+00  0.00000000E+00  0.00000000E+00
  0.00000000E+00  0.00000000E+00  0.00000000E+00
  0.00000000E+00  0.00000000E+00  0.00000000E+00
  0.00000000E+00  0.00000000E+00  0.00000000E+00
  0.00000000E+00  0.00000000E+00  0.00000000E+00
  0.00000000E+00  0.00000000E+00  0.00000000E+00
  0.00000000E+00  0.00000000E+00  0.00000000E+00
  0.00000000E+00  0.00000000E+00  0.00000000E+00
  0.00000000E+00  0.00000000E+00  0.00000000E+00
  0.00000000E+00  0.00000000E+00  0.00000000E+00
  0.00000000E+00  0.00000000E+00  0.00000000E+00
  0.00000000E+00  0.00000000E+00  0.00000000E+00
  0.00000000E+00  0.00000000E+00  0.00000000E+00
  0.00000000E+00  0.00000000E+00  0.00000000E+00
  0.00000000E+00  0.00000000E+00  0.00000000E+00
  0.00000000E+00  0.00000000E+00  0.00000000E+00
  0.00000000E+00  0.00000000E+00  0.00000000E+00
  0.00000000E+00  0.00000000E+00  0.00000000E+00
  0.00000000E+00  0.00000000E+00  0.00000000E+00
  0.00000000E+00  0.00000000E+00  0.00000000E+00