CuInSe2gb                               
   1.00000000000000     
     9.7266780392896699    0.0000000000000000    0.0000000000000000
     0.0000000000000000    8.4235502764570693    0.0000000000000000
     0.0000000000000000    0.0000000000000000   45.0000000000000000
   Fe   Mn
   281     7
Direct
  0.0611799653569919  0.0305472397243709  0.1244016329819025
  0.0633077403377996  0.8719643006794564  0.5212574303437517
  0.1949753686538638  0.1236159062717632  0.7884759634878183
  0.4335154266686594  0.2876621862049832  0.3890683981902262
  0.3084601535363142  0.7126998744242522  0.8331569831160508
  0.8085532250081177  0.2129684542896768  0.8334623304984431
  0.1835474409201679  0.7876381401712091  0.3890665788073638
  0.5633067768952348  0.2076663880509758  0.5653559827936182
  0.0602376170646301  0.0414289837736742  0.7440939131814954
  0.8134367358347601  0.8723581992864021  0.5213784855028059
  0.1851655153766682  0.2909945571956037  0.7440785095870620
  0.9413716999463506  0.4525246240353121  0.3449466487079013
  0.9335554678482605  0.2874578556222525  0.3890776188189747
  0.4384734671553389  0.6223643127631390  0.5213395867086335
  0.1880284829197202  0.7915576161402312  0.6107703697001516
  0.5586908066176604  0.0376758095298685  0.3890604551932786
  0.9333036397190256  0.9636841131408366  0.8333199699467214
  0.3139766985851374  0.5424075220124137  0.8756132918288578
  0.6853112269993339  0.2914710604735538  0.7441679726659444
  0.1925170977706023  0.6119451367826788  0.1667565489712163
  0.8128043983848272  0.2059192545716138  0.4786185864341875
  0.8126300761093018  0.5417262078193261  0.6109397658693951
  0.3130097082947869  0.8704021464714604  0.4344772337012003
  0.8155326543514536  0.0353915156748218  0.2560011035944942
  0.6913203684144376  0.9521486658591571  0.3449240316790629
  0.9419251663055458  0.1119008814864658  0.1669356366560305
  0.9385044501816695  0.1219906844869026  0.5213190739383425
  0.5654116158405165  0.5354812132026274  0.2560185465736027
  0.6902638896206497  0.7936736804952048  0.8757085229371169
  0.5679737899660384  0.3635106533196926  0.1669348553071085
  0.4359721958731425  0.7917468692787731  0.7442383808066432
  0.8137527592473398  0.7078778231510059  0.5654102782523228
  0.5693139583116956  0.8739498094970976  0.7883565801157398
  0.6885569840525162  0.1220896805152290  0.5213524838967791
  0.1907254801033226  0.2860641325474105  0.2560682938446279
  0.9334926863160554  0.4628760895628458  0.8331426383241143
  0.0648576728724693  0.2082058619714591  0.6996913424602959
  0.4399043365460771  0.9580905769912236  0.6996860500587232
  0.3085634437915177  0.2128788615732556  0.8331590382916596
  0.4338328466189292  0.6256642864850258  0.6549589746833044
  0.3131879785480434  0.5413629673768903  0.6107175412177505
  0.9388593171936795  0.4575542603005133  0.5654385594849055
  0.6856302898820457  0.7915014005946461  0.7442047436107990
  0.3088264054024126  0.8756312530502968  0.6549139318647170
  0.6838932802946186  0.7875017448535748  0.3890128047161970
  0.9354410868384800  0.7915162337572382  0.7442838540791847
  0.0662098005165720  0.2020700987834392  0.3449124057940642
  0.4398953186282503  0.7867668714011876  0.1244923360846289
  0.4446318276267458  0.1238647637122741  0.7884491920332645
  0.0558491701439152  0.2036135143826811  0.2118684762716114
  0.0680551442406715  0.3635402827457983  0.1669329379859695
  0.9410464855721224  0.7861797270416132  0.2558778220904959
  0.5649072409603912  0.2082953596473340  0.6996789799332560
  0.6899552068957054  0.9582288095190072  0.6996723464456949
  0.6837160681958407  0.2873784655659629  0.3890133246861027
  0.4387966250169832  0.9577830804138855  0.5654706177033633
  0.8199944735693486  0.3753145865655558  0.7882547178821036
  0.6903345565713012  0.2855401758662652  0.2560303116478104
  0.1888289718146803  0.4576681424947083  0.5654336229140825
  0.0679660645371321  0.8635066009410370  0.1667516403077027
  0.1882365437491642  0.2914511990452636  0.6108371519035704
  0.5662519597425776  0.7023286080806541  0.3449790988469353
  0.3148852788293864  0.2082183636843511  0.6996863006626868
  0.5639144202924231  0.5422598354567604  0.8756466573999958
  0.0636194097464476  0.7071246136508783  0.5655324132006310
  0.6951361237814305  0.6238025525668344  0.7883039512267275
  0.3088381940617964  0.5375591211119843  0.3890775919822442
  0.1884406163597315  0.6221845247022657  0.5213815338530530
  0.5624852554149391  0.8710529368625405  0.4344616809397985
  0.4385231795945969  0.4579109465535359  0.5653887788166809
  0.4353342276668061  0.2913079542243324  0.7441253499073192
  0.8042468982467627  0.8727744263176209  0.3003434899543719
  0.8160922110477767  0.7023380943238205  0.3451294651529875
  0.4334410253172776  0.4627776040186879  0.8331452911023741
  0.6877458439806308  0.9558690884096581  0.4786036658201884
  0.6901945153430515  0.4582228805382372  0.6996820719254230
  0.5634723118679071  0.8723400063850554  0.5213222044947563
  0.5588938793852881  0.3757196382453601  0.6549092982695321
  0.8087317249478212  0.8754107373799357  0.6549043518203090
  0.8128453774245079  0.3707432219648789  0.4344191476872657
  0.8153070172687911  0.5354015792624304  0.2561158233870579
  0.6835101342401750  0.4633183140878085  0.8332322118890210
  0.1893114794590604  0.7866611180235231  0.1245074269280153
  0.0643919956456086  0.0427895414708401  0.8755042276612804
  0.3087741543859360  0.3752083943317160  0.6549352098743239
  0.3163166893130194  0.2018359494149202  0.3448654819419555
  0.8107123205415729  0.5414740255384882  0.7441849146469902
  0.6837550244171676  0.9637986614721051  0.8333239150634485
  0.5587427171661085  0.8753122636993539  0.6549148401227048
  0.3138583307728751  0.7074939135250585  0.5655435573786383
  0.3124574239505997  0.5306599894485986  0.1244346550144133
  0.6815455925669250  0.9528053733855499  0.2117632692380348
  0.3138538008682665  0.2077256844235498  0.5654726877351469
  0.3104384280321686  0.5414032263084018  0.7441225590055897
  0.6887817408110469  0.9576594031662792  0.5654212534806146
  0.4377347299749337  0.7918423872595458  0.6107824257989797
  0.6926047045860407  0.6133138088578390  0.1669706139844958
  0.3039321488807409  0.8722835764065767  0.3002685880773205
  0.3127123397746820  0.7056055494176711  0.4786472062180618
  0.9381776578917236  0.2915974169710435  0.6107211665457366
  0.4295065448016305  0.6230282963729786  0.3002636859293980
  0.8183826203491683  0.8637250577356198  0.1669419374459113
  0.5563870997076222  0.2029181355213450  0.2116480951909570
  0.9426261729523074  0.6135455518926360  0.1670518346124377
  0.9383306532237105  0.7928314502012558  0.8755660739709438
  0.5701704940199301  0.3741859087857810  0.7884589450191356
  0.0634806700581760  0.3722324183015687  0.5213202268695061
  0.5635802139463979  0.3720270400505264  0.5212523348626803
  0.6787161304158180  0.1221652525517589  0.3003341321749987
  0.4333260693484658  0.9626683523357795  0.8331589029927564
  0.1895962168412254  0.2868163579671158  0.1245732830098202
  0.8196723988042853  0.8742865662408489  0.7883406542020133
  0.3130951959104241  0.3706313282113964  0.4344293824460535
  0.9376629090292151  0.7918331275778483  0.6108592452865144
  0.4379777233826198  0.2915052960123865  0.6107674264703624
  0.1915895636840703  0.4522069307741965  0.3450503673331680
  0.4386935800224140  0.2862303473405959  0.1244214817530790
  0.6905598179515594  0.7854077360074039  0.2559809884308767
  0.1899014587767421  0.9580121724214946  0.6996854641361956
  0.1898581532926147  0.2951243763469630  0.8758499998416620
  0.1837121580615845  0.1251352179035602  0.6549244828735656
  0.9335418976155345  0.1253548797076066  0.6548860921287681
  0.3063998164035421  0.2028624574903842  0.2116877888730609
  0.0586594029351993  0.0374710304032713  0.3890900784101831
  0.1932820854090303  0.1135914422489976  0.1667747422459309
  0.0627221945961546  0.5417514875326390  0.6108402791264346
  0.9406805046132852  0.2853157447897302  0.2560090935609682
  0.5631923041896475  0.5413802144574945  0.6107301646783975
  0.9388321757631427  0.9577065861436395  0.5654236422799428
  0.6795368855591341  0.6224988346510865  0.3001042639177846
  0.9375192471791738  0.6203220929791103  0.4344508846373259
  0.9452872919493098  0.6237247891159584  0.7882913935101088
  0.5648723843611376  0.7082031484960072  0.6996981953458272
  0.0586865479766840  0.7131745359386428  0.8330652157176707
  0.9288745981032257  0.1224986201989308  0.3003494865997968
  0.9401488209493986  0.4581149470890271  0.6996461141452448
  0.4406805974736089  0.7858071670422097  0.2560714765262519
  0.3197212840774367  0.3735441192341399  0.7885481988831690
  0.4317359426911891  0.4530857407604386  0.2119005827594450
  0.1885262300234759  0.1222538012832903  0.5212873594057411
  0.8148922668793454  0.7079270024581220  0.6996301578059158
  0.0632017801515700  0.0413750958560306  0.6107289399845141
  0.5588019171591881  0.2128709843488189  0.8333092484897157
  0.3135528500343632  0.8720140060397745  0.5212636401981032
  0.6903026093687448  0.2863156427671033  0.1246415953761104
  0.1813913853165633  0.9528105479295961  0.2116515215393063
  0.6885075744139845  0.2914737732329936  0.6106642651710387
  0.3127992051995698  0.0416528351576632  0.6108631639808665
  0.9445489127077702  0.1238868315096320  0.7884567889968366
  0.4391719890182497  0.7939493606444186  0.8756352876208531
  0.8104244982054667  0.0412276450902259  0.7441467084343782
  0.4381631977989274  0.1220777450583971  0.5213755073000104
  0.1839350390653750  0.6256963080823312  0.6549738705054934
  0.3149807499734752  0.7081165114302741  0.6996061802312883
  0.9383949197141696  0.2863620762355050  0.1245247709138034
  0.4377872212506017  0.4560241597357728  0.4786393612328929
  0.0630606331983743  0.7054342053892662  0.4785988219655828
  0.9380666591185914  0.1204096400144944  0.4344322262885374
  0.4287838764455915  0.1219649931134095  0.3003481107863045
  0.1880639363106020  0.1203456371956972  0.4344480159746116
  0.5636382566205078  0.0427212795604274  0.8756106389531827
  0.1887137889421686  0.9575432780599856  0.5653730208606610
  0.6886530538522412  0.7853317230726711  0.1243679346220861
  0.5629845816181902  0.5309968679913480  0.1242967978557480
  0.3085635303521090  0.0374085410266814  0.3890646207324805
  0.6927653926755104  0.1132428482104383  0.1669356071463595
  0.8057716321640905  0.2036066781322505  0.2118294064436260
  0.0656974135181039  0.5356558066608487  0.2560699024038811
  0.5628941515795887  0.7059632728225610  0.4786166707804777
  0.0637797019190234  0.2077086168836134  0.5654674085111511
  0.5542410417440958  0.3730001204439540  0.3003521978424239
  0.4413398187575611  0.9523835520770435  0.3449250385560937
  0.1837033829735902  0.9626290677601479  0.8331437659124780
  0.4421436824832106  0.6120758784905722  0.1667908612615046
  0.9318820336885389  0.4535521198289292  0.2117256496010690
  0.0616907642893787  0.5307374334707549  0.1244214892348234
  0.8134751425646976  0.3719710927343001  0.5213114088233920
  0.9293843332212832  0.6227776465226850  0.3002943808492368
  0.3157298982663265  0.0359674036162384  0.2559180643513922
  0.6877820376111691  0.7918824003049978  0.6108658486047662
  0.1835353972842954  0.4628450860380640  0.8331424083815211
  0.4416706189294028  0.1127281908526078  0.1668790474540857
  0.3134155420014912  0.3721398857444258  0.5213531175020969
  0.4450798057508322  0.6237066747701935  0.7884333612977077
  0.0664303221228216  0.0363249339776078  0.2557899868744057
  0.5633086917726695  0.7080176057124207  0.5653353176731144
  0.9358701577887250  0.2913015419367688  0.7442004007521598
  0.6948988859116322  0.1236806630376481  0.7884805117072637
  0.1806653575289490  0.4533230798173894  0.2119017996474150
  0.9334173246400316  0.7877813274124175  0.3890626407833748
  0.6888063175297980  0.2939153794332431  0.8757334692113420
  0.3178063910803675  0.8630466224160391  0.1669503065152759
  0.4399280108424800  0.4580057209738342  0.6996144064998574
  0.9415108828582538  0.9522839711773683  0.3449806600387906
  0.6884997636673091  0.6223660916078810  0.5213728919911622
  0.0589159296173258  0.8755051318808816  0.6549340197025659
  0.0707511226454986  0.8736588425609463  0.7882356175181641
  0.0588560911023137  0.3756991953116633  0.6549197576587261
  0.6878861637363364  0.4557775660869881  0.4786834642027901
  0.1904878221135117  0.7859755115019963  0.2560504333074394
  0.4377150829346616  0.1203496705391251  0.4344401003762393
  0.8120505504315261  0.0308660681141418  0.1243991676181660
  0.9384278096015475  0.6219686024710943  0.5213260933377282
  0.0624575413278264  0.8704869461256063  0.4344878029333613
  0.8128887685203762  0.5307302216070114  0.1242839702197004
  0.4413779344457600  0.4519772465609649  0.3449667119371898
  0.8164795476915307  0.2019176749098038  0.3449726609442580
  0.3162497538845643  0.7016893413894708  0.3449413046367230
  0.6842100138236838  0.1261035917116642  0.6549960230868812
  0.5536857137615171  0.8722010059447531  0.3003216913992826
  0.0608645667781343  0.5415514168122484  0.7441784849347347
  0.9380885590483944  0.7855636359464854  0.1244020946638427
  0.8068076329363467  0.7026217083428851  0.2115439467499150
  0.0542597460450538  0.8725384634766564  0.3001366119529800
  0.1794767734885658  0.1230391400164791  0.3004040987697471
  0.0664964334069174  0.7018627062827931  0.3449526019594862
  0.8129719841393948  0.0417059368320857  0.6108248336203096
  0.0630490131054453  0.3704148135410196  0.4344225249469691
  0.5665080056200955  0.2019309831200055  0.3449630948937256
  0.8035999208228674  0.3728990095002816  0.3002919485578873
  0.4378598608873953  0.9559352790270971  0.4786274205985454
  0.5585601236182328  0.5375976620849576  0.3890968335945356
  0.0627245416732837  0.2057466131872384  0.4786460420953469
  0.3197555630746064  0.8738323811843447  0.7884779864696247
  0.9399139224459504  0.9582548738934793  0.6996701776506454
  0.0539079865872817  0.3722405377130382  0.3003928086553531
  0.6838430024880894  0.6251822601975966  0.6549285511128197
  0.6887280517872759  0.4578413526519647  0.5654590619461601
  0.4314605621390668  0.9528855526505818  0.2117159536270518
  0.3128701597932287  0.2059258693386543  0.4786373430173587
  0.4337222706259637  0.1253087783292141  0.6549260467529636
  0.6879406831164001  0.6203367951441120  0.4344313829091867
  0.8150313569878461  0.2081303896761305  0.6996177518476585
  0.8127989557502052  0.7058295624515685  0.4786861654264796
  0.8130803591710245  0.8707798407601819  0.4344161610020879
  0.9377635545893654  0.9558283941007208  0.4786318417670389
  0.5626974234239034  0.2058032837119626  0.4785786483516246
  0.1881281422398131  0.6203662842444244  0.4344287463790522
  0.3106283120655904  0.0417485989802116  0.7441259956650419
  0.9336957569758393  0.6251019500826539  0.6549302303232709
  0.5583707581021301  0.7131647490033982  0.8331009069381603
  0.3039392490418592  0.3728912536943990  0.3003619724784891
  0.5568959514254819  0.7024553132864598  0.2115232702348646
  0.1877946019778437  0.4558443313886987  0.4786189806562692
  0.3141077459609209  0.0421900962242697  0.8757320696942387
  0.1902245143015117  0.4581038517353371  0.6995960634391646
  0.8140784783755156  0.5422168883892896  0.8756541521848975
  0.1835671334086683  0.2880030888198509  0.3890482168868724
  0.4380443298871325  0.6204638278592125  0.4344400210788843
  0.0563625785443055  0.7028896307900899  0.2116334895692257
  0.5623540702159986  0.0307173590110410  0.1244901956364234
  0.8183883773480296  0.3630617988299793  0.1671294122016442
  0.8084718945271835  0.7137655853290061  0.8333802803377283
  0.0697207232080070  0.3741115492650001  0.7884357628100942
  0.4395705203036983  0.2951648756116357  0.8758846478650367
  0.3117836287638619  0.0310616513302275  0.1243773511267230
  0.6875505949475332  0.1201709797872194  0.4344967142555211
  0.1916271698999309  0.9521831032511368  0.3451014957758498
  0.0583798833259535  0.2125906522899713  0.8331772752726725
  0.5628886735900411  0.0418242064808125  0.6107567340041934
  0.6813492468303587  0.4529645296373007  0.2116611461962585
  0.1854734568074296  0.7916055162641584  0.7441803886154490
  0.1792973943526467  0.6230930607493786  0.3003018342197563
  0.4338619570928845  0.7874896553253361  0.3889439883184564
  0.4406234678952013  0.2857388371029531  0.2559921631766557
  0.0647057348973762  0.5420445361982617  0.8756312976307637
  0.5602432433454188  0.0415245394694918  0.7440871418983197
  0.1891888780099160  0.7938647869749554  0.8756465579964871
  0.9375691855378574  0.4559118013205355  0.4786557701048563
  0.8086969097203625  0.5374932650100630  0.3890878504198940
  0.8137496259063934  0.2077231955623975  0.5654332362905007
  0.1948603124526567  0.6238895849242989  0.7884399317308532
  0.0586500930595900  0.5374127555627474  0.3890842379695581
  0.0649126926078178  0.7081069348732986  0.6996965003434389
  0.3155732075446797  0.5352932716385215  0.2559995307449578
  0.3067533009407340  0.7023571538076129  0.2114889704609638
  0.5682230776966990  0.8630442442812798  0.1669193217808114
  0.5604119071414967  0.5416357064436418  0.7441948121494781
  0.6913661118783828  0.4521710630599040  0.3449223812077000
  0.9407474063445357  0.2940619151855605  0.8756996231364417
  0.5656505172561792  0.0360142253440139  0.2559001088930944
  0.8083649583222164  0.0375666773138693  0.3889145495408650
  0.3194337026616100  0.3631813932397436  0.1663257815357496
  0.8145105727620895  0.0424788763920460  0.8753125067244680
  0.5628416190736755  0.3710027173896710  0.4344693979801899
  0.9309590296108758  0.9534731432927143  0.2120640962847589
  0.8085596785815071  0.3752951590786581  0.6547995836396091
  0.1878586035006766  0.9561099636590292  0.4786090651957792
 
  0.00000000E+00  0.00000000E+00  0.00000000E+00
  0.00000000E+00  0.00000000E+00  0.00000000E+00
  0.00000000E+00  0.00000000E+00  0.00000000E+00
  0.00000000E+00  0.00000000E+00  0.00000000E+00
  0.00000000E+00  0.00000000E+00  0.00000000E+00
  0.00000000E+00  0.00000000E+00  0.00000000E+00
  0.00000000E+00  0.00000000E+00  0.00000000E+00
  0.00000000E+00  0.00000000E+00  0.00000000E+00
  0.00000000E+00  0.00000000E+00  0.00000000E+00
  0.00000000E+00  0.00000000E+00  0.00000000E+00
  0.00000000E+00  0.00000000E+00  0.00000000E+00
  0.00000000E+00  0.00000000E+00  0.00000000E+00
  0.00000000E+00  0.00000000E+00  0.00000000E+00
  0.00000000E+00  0.00000000E+00  0.00000000E+00
  0.00000000E+00  0.00000000E+00  0.00000000E+00
  0.00000000E+00  0.00000000E+00  0.00000000E+00
  0.00000000E+00  0.00000000E+00  0.00000000E+00
  0.00000000E+00  0.00000000E+00  0.00000000E+00
  0.00000000E+00  0.00000000E+00  0.00000000E+00
  0.00000000E+00  0.00000000E+00  0.00000000E+00
  0.00000000E+00  0.00000000E+00  0.00000000E+00
  0.00000000E+00  0.00000000E+00  0.00000000E+00
  0.00000000E+00  0.00000000E+00  0.00000000E+00
  0.00000000E+00  0.00000000E+00  0.00000000E+00
  0.00000000E+00  0.00000000E+00  0.00000000E+00
  0.00000000E+00  0.00000000E+00  0.00000000E+00
  0.00000000E+00  0.00000000E+00  0.00000000E+00
  0.00000000E+00  0.00000000E+00  0.00000000E+00
  0.00000000E+00  0.00000000E+00  0.00000000E+00
  0.00000000E+00  0.00000000E+00  0.00000000E+00
  0.00000000E+00  0.00000000E+00  0.00000000E+00
  0.00000000E+00  0.00000000E+00  0.00000000E+00
  0.00000000E+00  0.00000000E+00  0.00000000E+00
  0.00000000E+00  0.00000000E+00  0.00000000E+00
  0.00000000E+00  0.00000000E+00  0.00000000E+00
  0.00000000E+00  0.00000000E+00  0.00000000E+00
  0.00000000E+00  0.00000000E+00  0.00000000E+00
  0.00000000E+00  0.00000000E+00  0.00000000E+00
  0.00000000E+00  0.00000000E+00  0.00000000E+00
  0.00000000E+00  0.00000000E+00  0.00000000E+00
  0.00000000E+00  0.00000000E+00  0.00000000E+00
  0.00000000E+00  0.00000000E+00  0.00000000E+00
  0.00000000E+00  0.00000000E+00  0.00000000E+00
  0.00000000E+00  0.00000000E+00  0.00000000E+00
  0.00000000E+00  0.00000000E+00  0.00000000E+00
  0.00000000E+00  0.00000000E+00  0.00000000E+00
  0.00000000E+00  0.00000000E+00  0.00000000E+00
  0.00000000E+00  0.00000000E+00  0.00000000E+00
  0.00000000E+00  0.00000000E+00  0.00000000E+00
  0.00000000E+00  0.00000000E+00  0.00000000E+00
  0.00000000E+00  0.00000000E+00  0.00000000E+00
  0.00000000E+00  0.00000000E+00  0.00000000E+00
  0.00000000E+00  0.00000000E+00  0.00000000E+00
  0.00000000E+00  0.00000000E+00  0.00000000E+00
  0.00000000E+00  0.00000000E+00  0.00000000E+00
  0.00000000E+00  0.00000000E+00  0.00000000E+00
  0.00000000E+00  0.00000000E+00  0.00000000E+00
  0.00000000E+00  0.00000000E+00  0.00000000E+00
  0.00000000E+00  0.00000000E+00  0.00000000E+00
  0.00000000E+00  0.00000000E+00  0.00000000E+00
  0.00000000E+00  0.00000000E+00  0.00000000E+00
  0.00000000E+00  0.00000000E+00  0.00000000E+00
  0.00000000E+00  0.00000000E+00  0.00000000E+00
  0.00000000E+00  0.00000000E+00  0.00000000E+00
  0.00000000E+00  0.00000000E+00  0.00000000E+00
  0.00000000E+00  0.00000000E+00  0.00000000E+00
  0.00000000E+00  0.00000000E+00  0.00000000E+00
  0.00000000E+00  0.00000000E+00  0.00000000E+00
  0.00000000E+00  0.00000000E+00  0.00000000E+00
  0.00000000E+00  0.00000000E+00  0.00000000E+00
  0.00000000E+00  0.00000000E+00  0.00000000E+00
  0.00000000E+00  0.00000000E+00  0.00000000E+00
  0.00000000E+00  0.00000000E+00  0.00000000E+00
  0.00000000E+00  0.00000000E+00  0.00000000E+00
  0.00000000E+00  0.00000000E+00  0.00000000E+00
  0.00000000E+00  0.00000000E+00  0.00000000E+00
  0.00000000E+00  0.00000000E+00  0.00000000E+00
  0.00000000E+00  0.00000000E+00  0.00000000E+00
  0.00000000E+00  0.00000000E+00  0.00000000E+00
  0.00000000E+00  0.00000000E+00  0.00000000E+00
  0.00000000E+00  0.00000000E+00  0.00000000E+00
  0.00000000E+00  0.00000000E+00  0.00000000E+00
  0.00000000E+00  0.00000000E+00  0.00000000E+00
  0.00000000E+00  0.00000000E+00  0.00000000E+00
  0.00000000E+00  0.00000000E+00  0.00000000E+00
  0.00000000E+00  0.00000000E+00  0.00000000E+00
  0.00000000E+00  0.00000000E+00  0.00000000E+00
  0.00000000E+00  0.00000000E+00  0.00000000E+00
  0.00000000E+00  0.00000000E+00  0.00000000E+00
  0.00000000E+00  0.00000000E+00  0.00000000E+00
  0.00000000E+00  0.00000000E+00  0.00000000E+00
  0.00000000E+00  0.00000000E+00  0.00000000E+00
  0.00000000E+00  0.00000000E+00  0.00000000E+00
  0.00000000E+00  0.00000000E+00  0.00000000E+00
  0.00000000E+00  0.00000000E+00  0.00000000E+00
  0.00000000E+00  0.00000000E+00  0.00000000E+00
  0.00000000E+00  0.00000000E+00  0.00000000E+00
  0.00000000E+00  0.00000000E+00  0.00000000E+00
  0.00000000E+00  0.00000000E+00  0.00000000E+00
  0.00000000E+00  0.00000000E+00  0.00000000E+00
  0.00000000E+00  0.00000000E+00  0.00000000E+00
  0.00000000E+00  0.00000000E+00  0.00000000E+00
  0.00000000E+00  0.00000000E+00  0.00000000E+00
  0.00000000E+00  0.00000000E+00  0.00000000E+00
  0.00000000E+00  0.00000000E+00  0.00000000E+00
  0.00000000E+00  0.00000000E+00  0.00000000E+00
  0.00000000E+00  0.00000000E+00  0.00000000E+00
  0.00000000E+00  0.00000000E+00  0.00000000E+00
  0.00000000E+00  0.00000000E+00  0.00000000E+00
  0.00000000E+00  0.00000000E+00  0.00000000E+00
  0.00000000E+00  0.00000000E+00  0.00000000E+00
  0.00000000E+00  0.00000000E+00  0.00000000E+00
  0.00000000E+00  0.00000000E+00  0.00000000E+00
  0.00000000E+00  0.00000000E+00  0.00000000E+00
  0.00000000E+00  0.00000000E+00  0.00000000E+00
  0.00000000E+00  0.00000000E+00  0.00000000E+00
  0.00000000E+00  0.00000000E+00  0.00000000E+00
  0.00000000E+00  0.00000000E+00  0.00000000E+00
  0.00000000E+00  0.00000000E+00  0.00000000E+00
  0.00000000E+00  0.00000000E+00  0.00000000E+00
  0.00000000E+00  0.00000000E+00  0.00000000E+00
  0.00000000E+00  0.00000000E+00  0.00000000E+00
  0.00000000E+00  0.00000000E+00  0.00000000E+00
  0.00000000E+00  0.00000000E+00  0.00000000E+00
  0.00000000E+00  0.00000000E+00  0.00000000E+00
  0.00000000E+00  0.00000000E+00  0.00000000E+00
  0.00000000E+00  0.00000000E+00  0.00000000E+00
  0.00000000E+00  0.00000000E+00  0.00000000E+00
  0.00000000E+00  0.00000000E+00  0.00000000E+00
  0.00000000E+00  0.00000000E+00  0.00000000E+00
  0.00000000E+00  0.00000000E+00  0.00000000E+00
  0.00000000E+00  0.00000000E+00  0.00000000E+00
  0.00000000E+00  0.00000000E+00  0.00000000E+00
  0.00000000E+00  0.00000000E+00  0.00000000E+00
  0.00000000E+00  0.00000000E+00  0.00000000E+00
  0.00000000E+00  0.00000000E+00  0.00000000E+00
  0.00000000E+00  0.00000000E+00  0.00000000E+00
  0.00000000E+00  0.00000000E+00  0.00000000E+00
  0.00000000E+00  0.00000000E+00  0.00000000E+00
  0.00000000E+00  0.00000000E+00  0.00000000E+00
  0.00000000E+00  0.00000000E+00  0.00000000E+00
  0.00000000E+00  0.00000000E+00  0.00000000E+00
  0.00000000E+00  0.00000000E+00  0.00000000E+00
  0.00000000E+00  0.00000000E+00  0.00000000E+00
  0.00000000E+00  0.00000000E+00  0.00000000E+00
  0.00000000E+00  0.00000000E+00  0.00000000E+00
  0.00000000E+00  0.00000000E+00  0.00000000E+00
  0.00000000E+00  0.00000000E+00  0.00000000E+00
  0.00000000E+00  0.00000000E+00  0.00000000E+00
  0.00000000E+00  0.00000000E+00  0.00000000E+00
  0.00000000E+00  0.00000000E+00  0.00000000E+00
  0.00000000E+00  0.00000000E+00  0.00000000E+00
  0.00000000E+00  0.00000000E+00  0.00000000E+00
  0.00000000E+00  0.00000000E+00  0.00000000E+00
  0.00000000E+00  0.00000000E+00  0.00000000E+00
  0.00000000E+00  0.00000000E+00  0.00000000E+00
  0.00000000E+00  0.00000000E+00  0.00000000E+00
  0.00000000E+00  0.00000000E+00  0.00000000E+00
  0.00000000E+00  0.00000000E+00  0.00000000E+00
  0.00000000E+00  0.00000000E+00  0.00000000E+00
  0.00000000E+00  0.00000000E+00  0.00000000E+00
  0.00000000E+00  0.00000000E+00  0.00000000E+00
  0.00000000E+00  0.00000000E+00  0.00000000E+00
  0.00000000E+00  0.00000000E+00  0.00000000E+00
  0.00000000E+00  0.00000000E+00  0.00000000E+00
  0.00000000E+00  0.00000000E+00  0.00000000E+00
  0.00000000E+00  0.00000000E+00  0.00000000E+00
  0.00000000E+00  0.00000000E+00  0.00000000E+00
  0.00000000E+00  0.00000000E+00  0.00000000E+00
  0.00000000E+00  0.00000000E+00  0.00000000E+00
  0.00000000E+00  0.00000000E+00  0.00000000E+00
  0.00000000E+00  0.00000000E+00  0.00000000E+00
  0.00000000E+00  0.00000000E+00  0.00000000E+00
  0.00000000E+00  0.00000000E+00  0.00000000E+00
  0.00000000E+00  0.00000000E+00  0.00000000E+00
  0.00000000E+00  0.00000000E+00  0.00000000E+00
  0.00000000E+00  0.00000000E+00  0.00000000E+00
  0.00000000E+00  0.00000000E+00  0.00000000E+00
  0.00000000E+00  0.00000000E+00  0.00000000E+00
  0.00000000E+00  0.00000000E+00  0.00000000E+00
  0.00000000E+00  0.00000000E+00  0.00000000E+00
  0.00000000E+00  0.00000000E+00  0.00000000E+00
  0.00000000E+00  0.00000000E+00  0.00000000E+00
  0.00000000E+00  0.00000000E+00  0.00000000E+00
  0.00000000E+00  0.00000000E+00  0.00000000E+00
  0.00000000E+00  0.00000000E+00  0.00000000E+00
  0.00000000E+00  0.00000000E+00  0.00000000E+00
  0.00000000E+00  0.00000000E+00  0.00000000E+00
  0.00000000E+00  0.00000000E+00  0.00000000E+00
  0.00000000E+00  0.00000000E+00  0.00000000E+00
  0.00000000E+00  0.00000000E+00  0.00000000E+00
  0.00000000E+00  0.00000000E+00  0.00000000E+00
  0.00000000E+00  0.00000000E+00  0.00000000E+00
  0.00000000E+00  0.00000000E+00  0.00000000E+00
  0.00000000E+00  0.00000000E+00  0.00000000E+00
  0.00000000E+00  0.00000000E+00  0.00000000E+00
  0.00000000E+00  0.00000000E+00  0.00000000E+00
  0.00000000E+00  0.00000000E+00  0.00000000E+00
  0.00000000E+00  0.00000000E+00  0.00000000E+00
  0.00000000E+00  0.00000000E+00  0.00000000E+00
  0.00000000E+00  0.00000000E+00  0.00000000E+00
  0.00000000E+00  0.00000000E+00  0.00000000E+00
  0.00000000E+00  0.00000000E+00  0.00000000E+00
  0.00000000E+00  0.00000000E+00  0.00000000E+00
  0.00000000E+00  0.00000000E+00  0.00000000E+00
  0.00000000E+00  0.00000000E+00  0.00000000E+00
  0.00000000E+00  0.00000000E+00  0.00000000E+00
  0.00000000E+00  0.00000000E+00  0.00000000E+00
  0.00000000E+00  0.00000000E+00  0.00000000E+00
  0.00000000E+00  0.00000000E+00  0.00000000E+00
  0.00000000E+00  0.00000000E+00  0.00000000E+00
  0.00000000E+00  0.00000000E+00  0.00000000E+00
  0.00000000E+00  0.00000000E+00  0.00000000E+00
  0.00000000E+00  0.00000000E+00  0.00000000E+00
  0.00000000E+00  0.00000000E+00  0.00000000E+00
  0.00000000E+00  0.00000000E+00  0.00000000E+00
  0.00000000E+00  0.00000000E+00  0.00000000E+00
  0.00000000E+00  0.00000000E+00  0.00000000E+00
  0.00000000E+00  0.00000000E+00  0.00000000E+00
  0.00000000E+00  0.00000000E+00  0.00000000E+00
  0.00000000E+00  0.00000000E+00  0.00000000E+00
  0.00000000E+00  0.00000000E+00  0.00000000E+00
  0.00000000E+00  0.00000000E+00  0.00000000E+00
  0.00000000E+00  0.00000000E+00  0.00000000E+00
  0.00000000E+00  0.00000000E+00  0.00000000E+00
  0.00000000E+00  0.00000000E+00  0.00000000E+00
  0.00000000E+00  0.00000000E+00  0.00000000E+00
  0.00000000E+00  0.00000000E+00  0.00000000E+00
  0.00000000E+00  0.00000000E+00  0.00000000E+00
  0.00000000E+00  0.00000000E+00  0.00000000E+00
  0.00000000E+00  0.00000000E+00  0.00000000E+00
  0.00000000E+00  0.00000000E+00  0.00000000E+00
  0.00000000E+00  0.00000000E+00  0.00000000E+00
  0.00000000E+00  0.00000000E+00  0.00000000E+00
  0.00000000E+00  0.00000000E+00  0.00000000E+00
  0.00000000E+00  0.00000000E+00  0.00000000E+00
  0.00000000E+00  0.00000000E+00  0.00000000E+00
  0.00000000E+00  0.00000000E+00  0.00000000E+00
  0.00000000E+00  0.00000000E+00  0.00000000E+00
  0.00000000E+00  0.00000000E+00  0.00000000E+00
  0.00000000E+00  0.00000000E+00  0.00000000E+00
  0.00000000E+00  0.00000000E+00  0.00000000E+00
  0.00000000E+00  0.00000000E+00  0.00000000E+00
  0.00000000E+00  0.00000000E+00  0.00000000E+00
  0.00000000E+00  0.00000000E+00  0.00000000E+00
  0.00000000E+00  0.00000000E+00  0.00000000E+00
  0.00000000E+00  0.00000000E+00  0.00000000E+00