CuInSe2gb                               
   1.00000000000000     
     9.7266780392896699    0.0000000000000000    0.0000000000000000
     0.0000000000000000    8.4235502764570693    0.0000000000000000
     0.0000000000000000    0.0000000000000000   45.0000000000000000
   Fe   Mn
   281     7
Direct
  0.0580184931562337  0.7010497581232061  0.2110633176283916
  0.3161305738801070  0.7205547358095925  0.8757703021647358
  0.6883946773953692  0.9582615510943877  0.6114664684059254
  0.4381790837904882  0.4579618459679826  0.6114201445320859
  0.4366252814788794  0.2867925818418484  0.2555156737099483
  0.0608739212705687  0.3867823917865376  0.8341787019951860
  0.3113400827708042  0.8866912188695295  0.8342141341656489
  0.4421728615507095  0.6267868863169019  0.7003958767528962
  0.0634708882468012  0.2129046935379694  0.7445454383723126
  0.1824430151038324  0.4512665912863130  0.2112066946291881
  0.5639394766698028  0.2089236346563714  0.4778018391061720
  0.0641971053820026  0.8746317884741354  0.5668211437826479
  0.5657330917247263  0.2198976480866980  0.8757102005133608
  0.8101958972244221  0.5302987400296445  0.1244936714896384
  0.4331581815697350  0.9513635732700728  0.2111055991460027
  0.5642313947290900  0.3747551118791617  0.5667432948442154
  0.8117720517925233  0.0419640550619060  0.3885041533965438
  0.6861509947131291  0.7907600485757429  0.5221535097678385
  0.4389823738191835  0.4591082757686630  0.4778404380044405
  0.4378645731531031  0.9628994415662718  0.7445088901066403
  0.4389120842056603  0.6246340792442573  0.5668492518915393
  0.5667980813854214  0.8764794938709249  0.7003252113801772
  0.3106832132630469  0.0308748082867831  0.1241303951791810
  0.6869098061675031  0.9579840075964002  0.3441241684140887
  0.6877380400521860  0.7795871835555538  0.1246563090930613
  0.0577292518089703  0.3734315379453553  0.2996721690339768
  0.6889425890036371  0.4714231986561190  0.8754908830195349
  0.4331947139848861  0.4514508527999848  0.2110984282563953
  0.8110977964113431  0.3750889171205864  0.4330566531266769
  0.5630866585459536  0.7079678889331568  0.6115318160841721
  0.5630577173524123  0.5412963056894010  0.6557889555287797
  0.8145156245297571  0.8635807385574880  0.1659547442729355
  0.5608098238987431  0.5371429518736556  0.2555083301627448
  0.6868147303707587  0.4581847155652387  0.3440882714272354
  0.1884172452472251  0.6127438491609016  0.1661682086499581
  0.1917918778516289  0.7992645346251526  0.7887541720802831
  0.4425315265179591  0.1262346874059680  0.7003762858520770
  0.9328728677528036  0.6233680400858707  0.2997324120602627
  0.3152644912090333  0.2200757456589157  0.8757264058535703
  0.3137951918791524  0.8747201088221690  0.5667906878709845
  0.8153332575748553  0.2200489428837284  0.8757223143381568
  0.8127937037797759  0.5417809711231921  0.6556965393142603
  0.5602120045840941  0.5295442715808159  0.1244276830778398
  0.5668205636773297  0.0494148498237734  0.7889290224442976
  0.1866466540216841  0.2869771460111908  0.2554901873514563
  0.8107963242699529  0.8753986598685858  0.4330154774046063
  0.5665879199348881  0.3764575615276770  0.7004457607906894
  0.0612616052929245  0.0292188208750656  0.1244306105072519
  0.3127878758985588  0.5411544758202356  0.6558394361997357
  0.5618148328240435  0.2080707475544451  0.3441496711188445
  0.1882298302093422  0.9578585400109079  0.6113973873517627
  0.3076051430073336  0.3737799410150169  0.2995786166616935
  0.4378707526427721  0.7916936365814455  0.6557829649936460
  0.1916339219746994  0.2985455210170415  0.7888467044261162
  0.0639282522694008  0.3634615741068263  0.1659872831382689
  0.6913435256270528  0.6268052286210607  0.7003619522546204
  0.3116364555823854  0.5417043519585033  0.3885060353967468
  0.0654189182269532  0.7198910114565624  0.8758799102602765
  0.9362375330884899  0.6366961580385898  0.8343151090497928
  0.3172606882751057  0.5497554308096332  0.7889402892377676
  0.3074527234634041  0.2002510179483167  0.2110577885145856
  0.0640049924270039  0.7091303189064172  0.4779192459012858
  0.5572892439569668  0.2009076039403057  0.2110787089580352
  0.3135233504579479  0.2134365369356851  0.7443927682690025
  0.0675371600898616  0.3768188678539939  0.7003181269328475
  0.1861319960073074  0.6367416634318112  0.8339744840859191
  0.0667259823142661  0.0493133887488856  0.7889595209993512
  0.4391870583481739  0.1247123999640480  0.5668283614366569
  0.9380299612478260  0.2915923511795369  0.6557254932779163
  0.8074996250254504  0.2013426634290657  0.2111035841484618
  0.9325989480531772  0.9516578829540788  0.2112799886934659
  0.9391263831190035  0.6248794507587466  0.5667723296358341
  0.8110379595970943  0.3867017069494286  0.8342392557662140
  0.1920814848444968  0.6268597256298014  0.7003554135561770
  0.8110588777252458  0.8865856478657409  0.8342686765032363
  0.6879448605142466  0.2910275486952640  0.6557093096611328
  0.3134053385551348  0.2080829326965702  0.6115329297835795
  0.4380898493940931  0.4625747344413895  0.7444358814199246
  0.4365469399097998  0.7916223948262950  0.3884724929212929
  0.6876476810436501  0.9625917986330284  0.7445072584928870
  0.8074334720875536  0.7008161578012319  0.2111516825436024
  0.8131269551139759  0.7082428023039178  0.6113465811943181
  0.4371445494438060  0.7794386496252190  0.1242587587630397
  0.3132201225755921  0.7129601804985339  0.7444358602453811
  0.3171204478135271  0.0496558395573620  0.7889759627352213
  0.8116877466852018  0.5417676304219029  0.3884864045094116
  0.6862224311210702  0.2911840632864419  0.5221096090375119
  0.6919317096130321  0.7992013378010673  0.7888459051197149
  0.1868006975958081  0.7876884307757075  0.2555293488699807
  0.6888758366321369  0.1135884573323314  0.1661547658799101
  0.6887237715546860  0.9590719975540934  0.4778466388094499
  0.9370982496735129  0.9582154271467836  0.3441459945301666
  0.8110928075091609  0.0403972659492869  0.5220754280195546
  0.6854548756331810  0.6249932631610382  0.4330335803595408
  0.4368777150405709  0.4586119867948368  0.3441443615688789
  0.8130237094959533  0.2132709812892925  0.7445633817263753
  0.4390717322157937  0.9715284517793281  0.8755101428545730
  0.5640691493804456  0.8745371440902052  0.5667331222908729
  0.8104495311947825  0.0298838881278872  0.1245132380771302
  0.4324447314466857  0.6233154882484750  0.2996730790612854
  0.8151881333830411  0.7204314623661389  0.8758890721887796
  0.6882457695591822  0.4580409941320449  0.6114022604683417
  0.5610914704602006  0.3869702861918172  0.8341018119497409
  0.8076094412478338  0.3732274234068458  0.2997075025973143
  0.1866741231503554  0.2917829754531939  0.3884578612142970
  0.8164142432794560  0.5496771296958884  0.7891364703873986
  0.1862480529282305  0.7907315723374719  0.5222237228907943
  0.3077901321782672  0.8734693993433965  0.2995956793879858
  0.1827061989602498  0.9515964734212574  0.2112353256295312
  0.1886215740720426  0.4630900430336941  0.7445003756909292
  0.4359737305596859  0.2909212823402053  0.5221111021330801
  0.0621133423201236  0.7083891120733863  0.3442431157184932
  0.1880214930369759  0.7912330323145255  0.6557006745636236
  0.4416945998433372  0.7996459894711222  0.7887905180982231
  0.6853899414907031  0.1249406780098172  0.4330584880299040
  0.9362892546381478  0.7906992883131352  0.5221628259841748
  0.6888407570657665  0.6132440279348303  0.1660902619840730
  0.8121029350330556  0.7082807623144834  0.3442440982092019
  0.9384152621546326  0.4626778719658581  0.7444923986485154
  0.1869727043010382  0.4585369995375906  0.3441429571436238
  0.5672006601064394  0.5496020095687830  0.7890319248834742
  0.5653465052297070  0.3639281344828812  0.1657464123629802
  0.5616333811828130  0.7085076959444375  0.3442947080158918
  0.5579455148650575  0.3733767478869161  0.2995699711473193
  0.1888452601507438  0.4714648867772639  0.8755601034319885
  0.1889009425699141  0.1128291502988106  0.1660963977680256
  0.4415286121970688  0.2988874064922128  0.7887978320903594
  0.6860682599582233  0.7871625044290652  0.2554836456082758
  0.9368564817188494  0.1368259901493258  0.8341728419489105
  0.4386955316698403  0.9589747589577388  0.4778235196655619
  0.5654104465718698  0.7202062697688267  0.8757158884802371
  0.1887756702283409  0.4591880927702921  0.4778603037051362
  0.9362763796466060  0.2795653028128908  0.1246307992404691
  0.3115170967955341  0.0417662953959138  0.3884959248054230
  0.0629062377057785  0.0411196046127010  0.6557304628658750
  0.5609819978072655  0.3748808998393291  0.4330200407231116
  0.6875196785088380  0.4624930477153321  0.7445580758163202
  0.5636509868346087  0.2133342949276502  0.7443834022555235
  0.9424302596183366  0.1266884670712425  0.7003574682248966
  0.5629863423373165  0.0412600811283515  0.6557561247572157
  0.5612566556293791  0.5406146121722248  0.5220549357797437
  0.1826075994243966  0.1233611572488660  0.2995929351796852
  0.4383952513576101  0.1122796264447078  0.1659907896559967
  0.6823071223387511  0.6235154053954575  0.2996951679310318
  0.9326040571595453  0.1228721350679702  0.2996847929111787
  0.8140910933356933  0.3747940486417508  0.5668582590135691
  0.0578337316062101  0.8732663986649059  0.2996872664296745
  0.1891296723154945  0.6248206105740801  0.5669034395950839
  0.9412074438529943  0.7988323883207632  0.7889763144776889
  0.3112847355258773  0.3866814685729767  0.8341716323451982
  0.9392033434323751  0.4715442292634350  0.8755764121610136
  0.4366800602415895  0.6371965325716603  0.8341091838269843
  0.0618176686568158  0.2085936170187412  0.3442250883858230
  0.1888705474972567  0.9712348368798768  0.8755300907054532
  0.9364019138788264  0.7795885055261023  0.1246132015429892
  0.6866220795764577  0.7918057430927204  0.3885139195794852
  0.9379732241620239  0.7917306418249555  0.6557544004462097
  0.9386424055472902  0.1138081799623894  0.1661760028747576
  0.4375210259221149  0.2913709500533427  0.6558081841629336
  0.0584678347552764  0.2011438072481636  0.2111171579850892
  0.6828906355524573  0.9513352830766320  0.2112621129559007
  0.1825450165105497  0.6235046257278650  0.2997079163157038
  0.8167441783480520  0.8764784239969362  0.7003410585680122
  0.9424130458579786  0.6270194625944617  0.7003532002195477
  0.1920243621860859  0.1267173019556383  0.7003628497655255
  0.9389745017434372  0.4589678582217512  0.4778872861053371
  0.8131109767618394  0.2079778025485923  0.6114235940724764
  0.1864061768435428  0.6250689526048927  0.4330369250083463
  0.4327388145897425  0.1233346105011492  0.2996677870083669
  0.6823672328852098  0.1230733236896214  0.2996516511288436
  0.5614665757062861  0.5417155466986092  0.3885240518796905
  0.8121129131670380  0.2082484046187004  0.3443401416011058
  0.4391071306495199  0.4717234405065253  0.8755018959840919
  0.5610908176155901  0.8867076501072217  0.8342165069964171
  0.3138379988023665  0.2090539207521834  0.4778359177953852
  0.1887283864263715  0.9589782971954836  0.4778529941283935
  0.0610948842007745  0.8868661689165180  0.8341930951455274
  0.0612751056609928  0.5407138278888725  0.5221175831509010
  0.9390057726610784  0.9588072396960061  0.4778364820919795
  0.0632808733708022  0.7078243061821201  0.6114385697811731
  0.5610449518840983  0.0409979529489356  0.5221081837573888
  0.6918452570094247  0.2988632193946915  0.7887988391373935
  0.8143812807878785  0.3636290501712573  0.1660206611589272
  0.4357644329170953  0.1249777275233527  0.4330260568745742
  0.0639179629681998  0.2086509766493683  0.4778682542529178
  0.3130635328835029  0.0414265727012884  0.6557755501980919
  0.4360343595389203  0.7904467601881624  0.5220857374759209
  0.1867290335789291  0.1368169773717745  0.8340875061200740
  0.1860344709582807  0.2789813701516118  0.1244449037432483
  0.9368033465003266  0.4583759993210642  0.3441733451472042
  0.5655560787746974  0.8639508248215136  0.1658000213839278
  0.3075842919610027  0.7003183815351677  0.2111045364751395
  0.9381159467664614  0.6133505066176811  0.1661843887475648
  0.1881763107880458  0.4577402493310021  0.6114632037293424
  0.0675755788542012  0.8768405603386346  0.7002754958598194
  0.0630694237534700  0.5413166868423970  0.6558376560953009
  0.3106477751654069  0.5307764294818960  0.1240479661991414
  0.9364015811650311  0.7918593125841831  0.3884787600101844
  0.9415603674745605  0.2986405798698515  0.7888757413197524
  0.1877229427285467  0.2913329216711918  0.6557784840614468
  0.9385084993663243  0.9582349665914673  0.6114934979207396
  0.8131253380943612  0.7129107696714084  0.7445871470658112
  0.6862047131143130  0.2872436371955826  0.2554311427930941
  0.0641707228749751  0.7131029021549750  0.7444857100177996
  0.6828423432294264  0.4512433187013564  0.2112608289043551
  0.8138803636415560  0.2088262824066525  0.4778440831172052
  0.5639141715537823  0.7091146135643950  0.4778716292844641
  0.0636139112905747  0.8636643241757375  0.1660017233252601
  0.9362176636944937  0.2905746370780501  0.5221672572147388
  0.6876761486706370  0.7915664846726611  0.6557920797913462
  0.0607612103555055  0.8750030743012334  0.4330033354041637
  0.0655996898035217  0.2195623146054403  0.8758094803807127
  0.8128025292929391  0.0414930470516882  0.6557369694381332
  0.5603152843124445  0.0295119224722138  0.1243938795769257
  0.3108320315687367  0.3747701943237893  0.4330268035644920
  0.3142384746823282  0.3748802663358904  0.5667706853714152
  0.3139864620079852  0.7091805284405178  0.4778677783448063
  0.0613540192290937  0.0404098817674968  0.5220424410568189
  0.3170404761158370  0.8764905651855666  0.7003591559405303
  0.0618891674139266  0.5370848789260770  0.2555514598183858
  0.6864932474984473  0.1372209897802630  0.8341509334823617
  0.8113245065262578  0.0368357062167965  0.2555656965861107
  0.1862934893611441  0.1250164907915443  0.4330560279861828
  0.6916803347218800  0.1266079854230366  0.7002985465268438
  0.1863014776186187  0.2906254145246770  0.5221088831169023
  0.4364853506334760  0.7874737613458723  0.2555426322401002
  0.4386459726191029  0.6124625657819602  0.1660306512930941
  0.0634690269445349  0.2078041100832418  0.6112839336630653
  0.1863664184224202  0.7915250623548287  0.3884282052864190
  0.3112053040704206  0.5406805352234892  0.5221024034324698
  0.9359869317675892  0.1251247524988250  0.4330142548581849
  0.6864888305083960  0.2918819687096399  0.3884867808903296
  0.1890465174148940  0.1247800423763772  0.5668523922947953
  0.6890255082244945  0.9716683997559988  0.8755269026768251
  0.6890589547250616  0.1247515979744757  0.5667878228931275
  0.4368826118264204  0.9585356489685949  0.3441458597238219
  0.1883346192162530  0.9629367221857326  0.7445030176760662
  0.9365573789813683  0.7872845710371342  0.2555307596101740
  0.5611151642095199  0.8755037885610882  0.4330251824586400
  0.3108948336087078  0.8753052859561368  0.4330947323251894
  0.8110963318412071  0.5404731841302659  0.5221265474474270
  0.9326461310765726  0.4514609940482722  0.2113733365872769
  0.3115433458509572  0.5368083360185713  0.2556256777357223
  0.5614374311078248  0.0417665296515089  0.3885097126412685
  0.9382924909089464  0.4577657411437029  0.6114508978243987
  0.0615148437885288  0.0419434420542726  0.3885291247937873
  0.0615015068833919  0.5417291953794597  0.3884876742182618
  0.4365890867832435  0.2916862978029082  0.3884443174901849
  0.6888902442348297  0.4592315815083951  0.4778939577440441
  0.0640380289237880  0.3747838364853760  0.5668424672658762
  0.5576067812422624  0.7007145648705382  0.2111691145778086
  0.9364360312763027  0.2869655980601321  0.2555575981063030
  0.8165270824262791  0.0491455596738559  0.7889678386131305
  0.1869320631079574  0.9584865778887223  0.3442032232664726
  0.5577021352898354  0.8733506688011060  0.2996063335639366
  0.0610459797004934  0.3750019949009499  0.4330043137617752
  0.3118586436407603  0.7080859137845797  0.3441896520014969
  0.3119528427935262  0.2080523743944387  0.3441486816016225
  0.9389162638779321  0.1249736942383196  0.5668005808905635
  0.4378740130115594  0.9578577819737365  0.6114718550831655
  0.5604548157273451  0.0370783999085041  0.2555540192896434
  0.1862042090479065  0.7789571003380578  0.1243488915452436
  0.0621562695033970  0.0373345685762431  0.2555867914993785
  0.6889596509318141  0.6245504476424456  0.5668327793186236
  0.0608973543194146  0.5292254246588938  0.1244306324366495
  0.3111785786253449  0.0410351494077369  0.5221060062296270
  0.6875188750869381  0.2798216803132446  0.1246566177883722
  0.8136268403696523  0.7092428756997574  0.4778571347285553
  0.4367503612777723  0.1366110888141788  0.8339142408736652
  0.3173545357178851  0.3763795593025912  0.7003122762508717
  0.6869463072217386  0.6370957316922901  0.8341279113327269
  0.5633391962075980  0.7127138335498715  0.7445244911495210
  0.9363887507100970  0.2918722222282218  0.3885109894339522
  0.9392221123337468  0.9713143352722343  0.8755475251515331
  0.5632302935490463  0.2077622648263039  0.6114017625738747
  0.8142511943453035  0.8746191259307364  0.5668414542249361
  0.8074871377117545  0.8732447069883966  0.2996495268572550
  0.3112654303769383  0.0368585427242334  0.2555774594441408
  0.4369788811877127  0.2796777756366310  0.1242485038653167
  0.3132150358946438  0.7081864580169226  0.6114414794885413
  0.4355359299724487  0.6250736561490023  0.4330191216000382
  0.9357621588687939  0.6249411160128591  0.4330995164559288
  0.3151254294687377  0.8634548089038044  0.1655305292846268
  0.0671818526685492  0.5494349430891197  0.7888355837524667
  0.8176445041263538  0.3764260237741905  0.7003116106488365
  0.3149727737471991  0.3633036551824549  0.1655911973913436
  0.9376079250263981  0.9630912302115311  0.7446597175284014
  0.8118236498763906  0.5367804154674630  0.2553564879115964
 
  0.00000000E+00  0.00000000E+00  0.00000000E+00
  0.00000000E+00  0.00000000E+00  0.00000000E+00
  0.00000000E+00  0.00000000E+00  0.00000000E+00
  0.00000000E+00  0.00000000E+00  0.00000000E+00
  0.00000000E+00  0.00000000E+00  0.00000000E+00
  0.00000000E+00  0.00000000E+00  0.00000000E+00
  0.00000000E+00  0.00000000E+00  0.00000000E+00
  0.00000000E+00  0.00000000E+00  0.00000000E+00
  0.00000000E+00  0.00000000E+00  0.00000000E+00
  0.00000000E+00  0.00000000E+00  0.00000000E+00
  0.00000000E+00  0.00000000E+00  0.00000000E+00
  0.00000000E+00  0.00000000E+00  0.00000000E+00
  0.00000000E+00  0.00000000E+00  0.00000000E+00
  0.00000000E+00  0.00000000E+00  0.00000000E+00
  0.00000000E+00  0.00000000E+00  0.00000000E+00
  0.00000000E+00  0.00000000E+00  0.00000000E+00
  0.00000000E+00  0.00000000E+00  0.00000000E+00
  0.00000000E+00  0.00000000E+00  0.00000000E+00
  0.00000000E+00  0.00000000E+00  0.00000000E+00
  0.00000000E+00  0.00000000E+00  0.00000000E+00
  0.00000000E+00  0.00000000E+00  0.00000000E+00
  0.00000000E+00  0.00000000E+00  0.00000000E+00
  0.00000000E+00  0.00000000E+00  0.00000000E+00
  0.00000000E+00  0.00000000E+00  0.00000000E+00
  0.00000000E+00  0.00000000E+00  0.00000000E+00
  0.00000000E+00  0.00000000E+00  0.00000000E+00
  0.00000000E+00  0.00000000E+00  0.00000000E+00
  0.00000000E+00  0.00000000E+00  0.00000000E+00
  0.00000000E+00  0.00000000E+00  0.00000000E+00
  0.00000000E+00  0.00000000E+00  0.00000000E+00
  0.00000000E+00  0.00000000E+00  0.00000000E+00
  0.00000000E+00  0.00000000E+00  0.00000000E+00
  0.00000000E+00  0.00000000E+00  0.00000000E+00
  0.00000000E+00  0.00000000E+00  0.00000000E+00
  0.00000000E+00  0.00000000E+00  0.00000000E+00
  0.00000000E+00  0.00000000E+00  0.00000000E+00
  0.00000000E+00  0.00000000E+00  0.00000000E+00
  0.00000000E+00  0.00000000E+00  0.00000000E+00
  0.00000000E+00  0.00000000E+00  0.00000000E+00
  0.00000000E+00  0.00000000E+00  0.00000000E+00
  0.00000000E+00  0.00000000E+00  0.00000000E+00
  0.00000000E+00  0.00000000E+00  0.00000000E+00
  0.00000000E+00  0.00000000E+00  0.00000000E+00
  0.00000000E+00  0.00000000E+00  0.00000000E+00
  0.00000000E+00  0.00000000E+00  0.00000000E+00
  0.00000000E+00  0.00000000E+00  0.00000000E+00
  0.00000000E+00  0.00000000E+00  0.00000000E+00
  0.00000000E+00  0.00000000E+00  0.00000000E+00
  0.00000000E+00  0.00000000E+00  0.00000000E+00
  0.00000000E+00  0.00000000E+00  0.00000000E+00
  0.00000000E+00  0.00000000E+00  0.00000000E+00
  0.00000000E+00  0.00000000E+00  0.00000000E+00
  0.00000000E+00  0.00000000E+00  0.00000000E+00
  0.00000000E+00  0.00000000E+00  0.00000000E+00
  0.00000000E+00  0.00000000E+00  0.00000000E+00
  0.00000000E+00  0.00000000E+00  0.00000000E+00
  0.00000000E+00  0.00000000E+00  0.00000000E+00
  0.00000000E+00  0.00000000E+00  0.00000000E+00
  0.00000000E+00  0.00000000E+00  0.00000000E+00
  0.00000000E+00  0.00000000E+00  0.00000000E+00
  0.00000000E+00  0.00000000E+00  0.00000000E+00
  0.00000000E+00  0.00000000E+00  0.00000000E+00
  0.00000000E+00  0.00000000E+00  0.00000000E+00
  0.00000000E+00  0.00000000E+00  0.00000000E+00
  0.00000000E+00  0.00000000E+00  0.00000000E+00
  0.00000000E+00  0.00000000E+00  0.00000000E+00
  0.00000000E+00  0.00000000E+00  0.00000000E+00
  0.00000000E+00  0.00000000E+00  0.00000000E+00
  0.00000000E+00  0.00000000E+00  0.00000000E+00
  0.00000000E+00  0.00000000E+00  0.00000000E+00
  0.00000000E+00  0.00000000E+00  0.00000000E+00
  0.00000000E+00  0.00000000E+00  0.00000000E+00
  0.00000000E+00  0.00000000E+00  0.00000000E+00
  0.00000000E+00  0.00000000E+00  0.00000000E+00
  0.00000000E+00  0.00000000E+00  0.00000000E+00
  0.00000000E+00  0.00000000E+00  0.00000000E+00
  0.00000000E+00  0.00000000E+00  0.00000000E+00
  0.00000000E+00  0.00000000E+00  0.00000000E+00
  0.00000000E+00  0.00000000E+00  0.00000000E+00
  0.00000000E+00  0.00000000E+00  0.00000000E+00
  0.00000000E+00  0.00000000E+00  0.00000000E+00
  0.00000000E+00  0.00000000E+00  0.00000000E+00
  0.00000000E+00  0.00000000E+00  0.00000000E+00
  0.00000000E+00  0.00000000E+00  0.00000000E+00
  0.00000000E+00  0.00000000E+00  0.00000000E+00
  0.00000000E+00  0.00000000E+00  0.00000000E+00
  0.00000000E+00  0.00000000E+00  0.00000000E+00
  0.00000000E+00  0.00000000E+00  0.00000000E+00
  0.00000000E+00  0.00000000E+00  0.00000000E+00
  0.00000000E+00  0.00000000E+00  0.00000000E+00
  0.00000000E+00  0.00000000E+00  0.00000000E+00
  0.00000000E+00  0.00000000E+00  0.00000000E+00
  0.00000000E+00  0.00000000E+00  0.00000000E+00
  0.00000000E+00  0.00000000E+00  0.00000000E+00
  0.00000000E+00  0.00000000E+00  0.00000000E+00
  0.00000000E+00  0.00000000E+00  0.00000000E+00
  0.00000000E+00  0.00000000E+00  0.00000000E+00
  0.00000000E+00  0.00000000E+00  0.00000000E+00
  0.00000000E+00  0.00000000E+00  0.00000000E+00
  0.00000000E+00  0.00000000E+00  0.00000000E+00
  0.00000000E+00  0.00000000E+00  0.00000000E+00
  0.00000000E+00  0.00000000E+00  0.00000000E+00
  0.00000000E+00  0.00000000E+00  0.00000000E+00
  0.00000000E+00  0.00000000E+00  0.00000000E+00
  0.00000000E+00  0.00000000E+00  0.00000000E+00
  0.00000000E+00  0.00000000E+00  0.00000000E+00
  0.00000000E+00  0.00000000E+00  0.00000000E+00
  0.00000000E+00  0.00000000E+00  0.00000000E+00
  0.00000000E+00  0.00000000E+00  0.00000000E+00
  0.00000000E+00  0.00000000E+00  0.00000000E+00
  0.00000000E+00  0.00000000E+00  0.00000000E+00
  0.00000000E+00  0.00000000E+00  0.00000000E+00
  0.00000000E+00  0.00000000E+00  0.00000000E+00
  0.00000000E+00  0.00000000E+00  0.00000000E+00
  0.00000000E+00  0.00000000E+00  0.00000000E+00
  0.00000000E+00  0.00000000E+00  0.00000000E+00
  0.00000000E+00  0.00000000E+00  0.00000000E+00
  0.00000000E+00  0.00000000E+00  0.00000000E+00
  0.00000000E+00  0.00000000E+00  0.00000000E+00
  0.00000000E+00  0.00000000E+00  0.00000000E+00
  0.00000000E+00  0.00000000E+00  0.00000000E+00
  0.00000000E+00  0.00000000E+00  0.00000000E+00
  0.00000000E+00  0.00000000E+00  0.00000000E+00
  0.00000000E+00  0.00000000E+00  0.00000000E+00
  0.00000000E+00  0.00000000E+00  0.00000000E+00
  0.00000000E+00  0.00000000E+00  0.00000000E+00
  0.00000000E+00  0.00000000E+00  0.00000000E+00
  0.00000000E+00  0.00000000E+00  0.00000000E+00
  0.00000000E+00  0.00000000E+00  0.00000000E+00
  0.00000000E+00  0.00000000E+00  0.00000000E+00
  0.00000000E+00  0.00000000E+00  0.00000000E+00
  0.00000000E+00  0.00000000E+00  0.00000000E+00
  0.00000000E+00  0.00000000E+00  0.00000000E+00
  0.00000000E+00  0.00000000E+00  0.00000000E+00
  0.00000000E+00  0.00000000E+00  0.00000000E+00
  0.00000000E+00  0.00000000E+00  0.00000000E+00
  0.00000000E+00  0.00000000E+00  0.00000000E+00
  0.00000000E+00  0.00000000E+00  0.00000000E+00
  0.00000000E+00  0.00000000E+00  0.00000000E+00
  0.00000000E+00  0.00000000E+00  0.00000000E+00
  0.00000000E+00  0.00000000E+00  0.00000000E+00
  0.00000000E+00  0.00000000E+00  0.00000000E+00
  0.00000000E+00  0.00000000E+00  0.00000000E+00
  0.00000000E+00  0.00000000E+00  0.00000000E+00
  0.00000000E+00  0.00000000E+00  0.00000000E+00
  0.00000000E+00  0.00000000E+00  0.00000000E+00
  0.00000000E+00  0.00000000E+00  0.00000000E+00
  0.00000000E+00  0.00000000E+00  0.00000000E+00
  0.00000000E+00  0.00000000E+00  0.00000000E+00
  0.00000000E+00  0.00000000E+00  0.00000000E+00
  0.00000000E+00  0.00000000E+00  0.00000000E+00
  0.00000000E+00  0.00000000E+00  0.00000000E+00
  0.00000000E+00  0.00000000E+00  0.00000000E+00
  0.00000000E+00  0.00000000E+00  0.00000000E+00
  0.00000000E+00  0.00000000E+00  0.00000000E+00
  0.00000000E+00  0.00000000E+00  0.00000000E+00
  0.00000000E+00  0.00000000E+00  0.00000000E+00
  0.00000000E+00  0.00000000E+00  0.00000000E+00
  0.00000000E+00  0.00000000E+00  0.00000000E+00
  0.00000000E+00  0.00000000E+00  0.00000000E+00
  0.00000000E+00  0.00000000E+00  0.00000000E+00
  0.00000000E+00  0.00000000E+00  0.00000000E+00
  0.00000000E+00  0.00000000E+00  0.00000000E+00
  0.00000000E+00  0.00000000E+00  0.00000000E+00
  0.00000000E+00  0.00000000E+00  0.00000000E+00
  0.00000000E+00  0.00000000E+00  0.00000000E+00
  0.00000000E+00  0.00000000E+00  0.00000000E+00
  0.00000000E+00  0.00000000E+00  0.00000000E+00
  0.00000000E+00  0.00000000E+00  0.00000000E+00
  0.00000000E+00  0.00000000E+00  0.00000000E+00
  0.00000000E+00  0.00000000E+00  0.00000000E+00
  0.00000000E+00  0.00000000E+00  0.00000000E+00
  0.00000000E+00  0.00000000E+00  0.00000000E+00
  0.00000000E+00  0.00000000E+00  0.00000000E+00
  0.00000000E+00  0.00000000E+00  0.00000000E+00
  0.00000000E+00  0.00000000E+00  0.00000000E+00
  0.00000000E+00  0.00000000E+00  0.00000000E+00
  0.00000000E+00  0.00000000E+00  0.00000000E+00
  0.00000000E+00  0.00000000E+00  0.00000000E+00
  0.00000000E+00  0.00000000E+00  0.00000000E+00
  0.00000000E+00  0.00000000E+00  0.00000000E+00
  0.00000000E+00  0.00000000E+00  0.00000000E+00
  0.00000000E+00  0.00000000E+00  0.00000000E+00
  0.00000000E+00  0.00000000E+00  0.00000000E+00
  0.00000000E+00  0.00000000E+00  0.00000000E+00
  0.00000000E+00  0.00000000E+00  0.00000000E+00
  0.00000000E+00  0.00000000E+00  0.00000000E+00
  0.00000000E+00  0.00000000E+00  0.00000000E+00
  0.00000000E+00  0.00000000E+00  0.00000000E+00
  0.00000000E+00  0.00000000E+00  0.00000000E+00
  0.00000000E+00  0.00000000E+00  0.00000000E+00
  0.00000000E+00  0.00000000E+00  0.00000000E+00
  0.00000000E+00  0.00000000E+00  0.00000000E+00
  0.00000000E+00  0.00000000E+00  0.00000000E+00
  0.00000000E+00  0.00000000E+00  0.00000000E+00
  0.00000000E+00  0.00000000E+00  0.00000000E+00
  0.00000000E+00  0.00000000E+00  0.00000000E+00
  0.00000000E+00  0.00000000E+00  0.00000000E+00
  0.00000000E+00  0.00000000E+00  0.00000000E+00
  0.00000000E+00  0.00000000E+00  0.00000000E+00
  0.00000000E+00  0.00000000E+00  0.00000000E+00
  0.00000000E+00  0.00000000E+00  0.00000000E+00
  0.00000000E+00  0.00000000E+00  0.00000000E+00
  0.00000000E+00  0.00000000E+00  0.00000000E+00
  0.00000000E+00  0.00000000E+00  0.00000000E+00
  0.00000000E+00  0.00000000E+00  0.00000000E+00
  0.00000000E+00  0.00000000E+00  0.00000000E+00
  0.00000000E+00  0.00000000E+00  0.00000000E+00
  0.00000000E+00  0.00000000E+00  0.00000000E+00
  0.00000000E+00  0.00000000E+00  0.00000000E+00
  0.00000000E+00  0.00000000E+00  0.00000000E+00
  0.00000000E+00  0.00000000E+00  0.00000000E+00
  0.00000000E+00  0.00000000E+00  0.00000000E+00
  0.00000000E+00  0.00000000E+00  0.00000000E+00
  0.00000000E+00  0.00000000E+00  0.00000000E+00
  0.00000000E+00  0.00000000E+00  0.00000000E+00
  0.00000000E+00  0.00000000E+00  0.00000000E+00
  0.00000000E+00  0.00000000E+00  0.00000000E+00
  0.00000000E+00  0.00000000E+00  0.00000000E+00
  0.00000000E+00  0.00000000E+00  0.00000000E+00
  0.00000000E+00  0.00000000E+00  0.00000000E+00
  0.00000000E+00  0.00000000E+00  0.00000000E+00
  0.00000000E+00  0.00000000E+00  0.00000000E+00
  0.00000000E+00  0.00000000E+00  0.00000000E+00
  0.00000000E+00  0.00000000E+00  0.00000000E+00
  0.00000000E+00  0.00000000E+00  0.00000000E+00
  0.00000000E+00  0.00000000E+00  0.00000000E+00
  0.00000000E+00  0.00000000E+00  0.00000000E+00
  0.00000000E+00  0.00000000E+00  0.00000000E+00
  0.00000000E+00  0.00000000E+00  0.00000000E+00
  0.00000000E+00  0.00000000E+00  0.00000000E+00
  0.00000000E+00  0.00000000E+00  0.00000000E+00
  0.00000000E+00  0.00000000E+00  0.00000000E+00
  0.00000000E+00  0.00000000E+00  0.00000000E+00
  0.00000000E+00  0.00000000E+00  0.00000000E+00
  0.00000000E+00  0.00000000E+00  0.00000000E+00
  0.00000000E+00  0.00000000E+00  0.00000000E+00
  0.00000000E+00  0.00000000E+00  0.00000000E+00
  0.00000000E+00  0.00000000E+00  0.00000000E+00
  0.00000000E+00  0.00000000E+00  0.00000000E+00
  0.00000000E+00  0.00000000E+00  0.00000000E+00
  0.00000000E+00  0.00000000E+00  0.00000000E+00
  0.00000000E+00  0.00000000E+00  0.00000000E+00
  0.00000000E+00  0.00000000E+00  0.00000000E+00
  0.00000000E+00  0.00000000E+00  0.00000000E+00
  0.00000000E+00  0.00000000E+00  0.00000000E+00
  0.00000000E+00  0.00000000E+00  0.00000000E+00