CuInSe2gb                               
   1.00000000000000     
     9.7266780392896699    0.0000000000000000    0.0000000000000000
     0.0000000000000000    8.4235502764570693    0.0000000000000000
     0.0000000000000000    0.0000000000000000   45.0000000000000000
   Fe   Mn
   281     7
Direct
  0.0540387778870276  0.7010890797144382  0.2112611256289618
  0.3181369911166593  0.7241659673422647  0.8762791075676871
  0.6880167761441635  0.9584141107550254  0.6113408989903221
  0.4384204199078713  0.4585690871910492  0.6115646966437749
  0.4406088986414836  0.2873990449158767  0.2550668704172454
  0.0585958944119700  0.3882209940498332  0.8335991047289643
  0.3085171388611124  0.8875706331543911  0.8335650391068025
  0.4468559489126538  0.6264477408477721  0.7004143315961777
  0.0597380091626485  0.2126061095933773  0.7449202146791095
  0.1788799836255622  0.4513497930594822  0.2113293433986540
  0.5678776659201881  0.2108139411595650  0.4774776920648177
  0.0666269207308629  0.8751492782010237  0.5669160535122871
  0.5681171202134396  0.2239633584135166  0.8761340004071989
  0.8091242303383939  0.5279426386259002  0.1239088767763893
  0.4290681969610162  0.9513067630172813  0.2113659793999640
  0.5664732714745068  0.3749790184959825  0.5668434792684696
  0.8112722176314134  0.0416987931928744  0.3883180844129636
  0.6818175666587883  0.7890215463913253  0.5223782227552706
  0.4427474953234320  0.4607571511217279  0.4774700074618546
  0.4338698609007704  0.9625620307544301  0.7447359168449491
  0.4417692218911777  0.6251607487392177  0.5668375508532123
  0.5713389321985204  0.8764395350876647  0.7005569740797248
  0.3092280550716947  0.0258900798173271  0.1238781444332175
  0.6900783012944841  0.9590482804946376  0.3440736320032166
  0.6879438671196524  0.7820072589057672  0.1241763891029485
  0.0526628509999324  0.3739236774503162  0.2995580036827980
  0.6897132229544911  0.4680132208658352  0.8761200914519767
  0.4289409905248578  0.4511969566865570  0.2114057709525051
  0.8084058150682332  0.3751006848103367  0.4330792836146619
  0.5635988147352805  0.7087065097174476  0.6115459663091561
  0.5600312238520574  0.5405117881019507  0.6559134379834205
  0.8177584226294442  0.8619639785381678  0.1667051108706985
  0.5657005048389419  0.5374775098422571  0.2551631648258006
  0.6898250116530348  0.4588569639724763  0.3440034067212008
  0.1917350122685500  0.6116463873949073  0.1663748600860105
  0.1944124184251644  0.7996760521415736  0.7888616282133164
  0.4466920545418524  0.1258616477712743  0.7003428129535607
  0.9279210575493664  0.6236456319147011  0.2995888758962356
  0.3176458199634852  0.2238224765630856  0.8761064964617497
  0.3167761222066095  0.8747650607383622  0.5668493773474159
  0.8173796445800575  0.2238082296561801  0.8762271315517527
  0.8096457229561776  0.5406796547741742  0.6558811690915427
  0.5589267789983939  0.5269132788059573  0.1238317237815135
  0.5692296298630092  0.0497234912350194  0.7890152886649575
  0.1906487360407880  0.2873981687251977  0.2551699689985980
  0.8084939817481888  0.8748405144871727  0.4330788121887877
  0.5721729753567091  0.3762686404547110  0.7004077502549267
  0.0572424290977684  0.0268537178997269  0.1240534291668325
  0.3097254880768313  0.5406626983881281  0.6558853816580559
  0.5652793911330048  0.2089577665242510  0.3440267553886781
  0.1880119421781185  0.9584866822177803  0.6114937697081790
  0.3028560695909967  0.3739975589312403  0.2996097212378974
  0.4347354640387442  0.7905055624209915  0.6559978813795621
  0.1949292767607027  0.2991961222230756  0.7888346006868641
  0.0674962098559590  0.3631558951686265  0.1666464411454204
  0.6973041255649569  0.6256755887334120  0.7004641557024061
  0.3115751085985590  0.5411381986643000  0.3884430949682749
  0.0676224860808099  0.7234486616001159  0.8761808125931846
  0.9337146377299672  0.6376619874360497  0.8340155500837626
  0.3199763356282025  0.5494865108763368  0.7889123811038696
  0.3045183904801811  0.2005453408764165  0.2111881059523216
  0.0680395645621637  0.7106930306448782  0.4774835581174251
  0.5544310432482039  0.2008371861041625  0.2110891642040072
  0.3095754952403625  0.2124684821522274  0.7448972850814209
  0.0714393628021672  0.3763756069026599  0.7005925201633229
  0.1833213167722542  0.6374582104338004  0.8335087622553187
  0.0693032352846443  0.0494054985886432  0.7890254486483558
  0.4415573126806742  0.1250408223837448  0.5669110410243892
  0.9346068016219097  0.2907971309698022  0.6558691696043919
  0.8042643441785212  0.2012963633712869  0.2111878621551989
  0.9292607516257773  0.9512807220559204  0.2112886386099304
  0.9415594835978967  0.6250485812634491  0.5668938405037132
  0.8082928582765357  0.3878174820266245  0.8335342667054537
  0.1966462370019392  0.6265468302523903  0.7003542092431854
  0.8086791171032894  0.8877707247607128  0.8335436851601200
  0.6846841977738244  0.2907101574602936  0.6559532730520998
  0.3129544502364749  0.2081810242410102  0.6114043352467892
  0.4347189451237528  0.4628987562311703  0.7446970640417767
  0.4363561544744465  0.7911658187026795  0.3884247706694043
  0.6846835231991981  0.9624999975244753  0.7447908572094526
  0.8038841364556033  0.7010474330596653  0.2112342653438558
  0.8131999213595139  0.7087436247733288  0.6115322668431696
  0.4372707435685894  0.7837796645951328  0.1239510371251108
  0.3098198386531387  0.7122117111922219  0.7448294327980566
  0.3200836101106426  0.0494113043250647  0.7888128555320820
  0.8113804739707364  0.5414128351253150  0.3883320133697131
  0.6825104446649466  0.2883819448729683  0.5222925694281847
  0.6948213508299615  0.7993181225604861  0.7889211916011135
  0.1904095311392781  0.7877399133385842  0.2551993594005206
  0.6918406082598996  0.1124531248465111  0.1666256511942136
  0.6927381432815988  0.9608233007926738  0.4774748238999924
  0.9402531411654832  0.9592078580656415  0.3441029740736342
  0.8072921387284216  0.0392807587087157  0.5224797288667539
  0.6834614853068072  0.6248987867312711  0.4330931215710020
  0.4401376586741827  0.4586332210423346  0.3440141920531257
  0.8101939148122720  0.2118326235280411  0.7446173206329618
  0.4397607114256668  0.9682252005222282  0.8761053253249531
  0.5666234067715843  0.8748696372089676  0.5668247647382230
  0.8093801182640190  0.0278607158597208  0.1239663144586998
  0.4280206616764352  0.6240020350237059  0.2994214618568933
  0.8168764024998387  0.7237946523421481  0.8763864972503903
  0.6878730532010455  0.4580686743685485  0.6114438399263494
  0.5584531180932378  0.3874319055019904  0.8334880509655783
  0.8027873270756167  0.3733969800413857  0.2994708291530087
  0.1864453117934972  0.2910958193941752  0.3883805913483341
  0.8199182308272468  0.5493076443018204  0.7889354427780777
  0.1824500710885532  0.7892628550351477  0.5225247420710490
  0.3029224528238766  0.8741014806739704  0.2995888267031383
  0.1782885077938552  0.9513551549536737  0.2112927145854571
  0.1846149323758810  0.4624134698517652  0.7448684097763106
  0.4325534748708997  0.2884889040948760  0.5223171537274907
  0.0652698482962120  0.7089882172660256  0.3439813185075617
  0.1849285786421565  0.7904881280875793  0.6558579819915153
  0.4447910991038800  0.7992669687572889  0.7888421642980875
  0.6834445762117118  0.1250650485215287  0.4329895021243022
  0.9322975751100074  0.7886409781070706  0.5223164137417411
  0.6918858797056869  0.6125082164661466  0.1666312554452313
  0.8147861350170301  0.7087015926976616  0.3439689494183128
  0.9343952332459725  0.4624645988361029  0.7449394416578099
  0.1903416042164128  0.4589332275082434  0.3440934398100867
  0.5696959294183180  0.5497940078080407  0.7891351233982953
  0.5664135842423813  0.3625088855977038  0.1664517415902937
  0.5648970647780143  0.7089864909385648  0.3439545837456425
  0.5528059319320177  0.3737932596484544  0.2996091889007751
  0.1897242683925994  0.4679758833800506  0.8760711040802891
  0.1915913890429099  0.1112928230267219  0.1663943004531894
  0.4446726896894667  0.2990080355337200  0.7887948392189338
  0.6909787466925279  0.7873364982945883  0.2553918860982068
  0.9335754310955863  0.1377712460775140  0.8335731650751897
  0.4428576835861848  0.9606873620810372  0.4774520352758425
  0.5675183160412218  0.7248284919696929  0.8762400489163490
  0.1926825415348248  0.4606302342039962  0.4774397845296289
  0.9343526666096348  0.2816572693459459  0.1241093220222575
  0.3114453900350269  0.0413638849652792  0.3883972119893704
  0.0600129253489686  0.0404738101880345  0.6559768014790645
  0.5584575676991241  0.3747540876517466  0.4330792934715140
  0.6837840918609712  0.4627418904293448  0.7450518970233436
  0.5602056565165608  0.2125878016612629  0.7448541323785295
  0.9465664894591317  0.1260773787566219  0.7004284681170924
  0.5596536835893218  0.0407358769728051  0.6558241545703350
  0.5570904745730983  0.5392188869722019  0.5225351167832798
  0.1780149378717190  0.1238698012869628  0.2995821520330290
  0.4418987832564316  0.1104382473446205  0.1663497464984821
  0.6777276180899180  0.6235585484426910  0.2995879399766206
  0.9278999335599920  0.1235845669919446  0.2996551164714810
  0.8164705796287970  0.3750749080235481  0.5669055612457636
  0.0530039422971738  0.8740335302391070  0.2995373330764074
  0.1915849037792467  0.6249043136853165  0.5669016224614074
  0.9445580476028579  0.7998850998951630  0.7889023812901478
  0.3083867099504428  0.3874659916877900  0.8335105085122376
  0.9395765177252773  0.4683690315908318  0.8761427161779664
  0.4335419672478808  0.6377167283358720  0.8335201336296293
  0.0651604293027004  0.2087815693762001  0.3439001972468551
  0.1898551588752133  0.9682576800665318  0.8760858695129181
  0.9348239954798940  0.7819720460607614  0.1241139890845546
  0.6863539197539706  0.7912459597962304  0.3883795981028943
  0.9347911366775528  0.7905883752151167  0.6558542678779696
  0.9413755710684831  0.1118913396663505  0.1665161337258830
  0.4350638003171320  0.2907267150516656  0.6560738625773386
  0.0542654886461364  0.2010695235802788  0.2112631622811114
  0.6788958843350590  0.9512686421721174  0.2112819390439922
  0.1783069269625222  0.6237867465917936  0.2994414883576438
  0.8218329751628849  0.8763072016107094  0.7004311534811003
  0.9464483052167273  0.6266554218245077  0.7005153010277431
  0.1962575164500549  0.1258350971180641  0.7003592164387331
  0.9429097371798194  0.4606608942125002  0.4774101383735077
  0.8130921757402242  0.2084477344427851  0.6115238796776380
  0.1833236230409681  0.6249635254514684  0.4331141200986720
  0.4280066961334247  0.1237077484444435  0.2994077111930418
  0.6781719351441102  0.1234057675082874  0.2994257809958473
  0.5615144539463860  0.5413032741423951  0.3884120047636439
  0.8146305733414163  0.2085582175093969  0.3439609681503715
  0.4397650370323374  0.4679167591064525  0.8759295678600205
  0.5586274686851913  0.8875694552051392  0.8334897837556967
  0.3179466076852864  0.2105606451981119  0.4774387214584851
  0.1929607817298533  0.9606979141886915  0.4774843347916907
  0.0585454821890208  0.8876276963989400  0.8335373509872088
  0.0571533173754973  0.5392512256920979  0.5224804627976989
  0.9426358532063547  0.9605886225239830  0.4773523637649432
  0.0631580158198620  0.7083853080528205  0.6115936990792208
  0.5574123152106502  0.0386480614287300  0.5223658890158936
  0.6949674932586418  0.2991537206559882  0.7888462128962760
  0.8177739202078913  0.3618347556933377  0.1666984484121180
  0.4335301092306355  0.1249070110365775  0.4330481480396382
  0.0678346739169926  0.2107985294774418  0.4774609125483428
  0.3097834895265575  0.0407027109130335  0.6558762421288779
  0.4322551050826033  0.7892503080591641  0.5224546526481805
  0.1836856127442420  0.1379090965352763  0.8335645033493915
  0.1855863400313802  0.2829825924555494  0.1242571393627506
  0.9403843946082824  0.4592714571122116  0.3441007955304974
  0.5666915585083518  0.8625779966603156  0.1664656776537963
  0.3040364853651644  0.7007898961062667  0.2112530878585644
  0.9412936334516115  0.6122631898440871  0.1665181269842581
  0.1881768532743801  0.4586172927110601  0.6114983688782722
  0.0720615078523214  0.8766284807502495  0.7002826856896892
  0.0597720120573848  0.5406491087345467  0.6558709946423634
  0.3082066613121510  0.5262174855056869  0.1239678960582289
  0.9363343026397944  0.7911017625111756  0.3884449051729850
  0.9445761660550228  0.2989602013715014  0.7887964083904465
  0.1848338465882414  0.2907668848132379  0.6559637336185169
  0.9378208083681540  0.9580310832236929  0.6113423783085242
  0.8107155991246132  0.7112768880339499  0.7446466509859907
  0.6908650800530474  0.2876627142093124  0.2552896816645001
  0.0592854067604484  0.7122388632646101  0.7449808931892833
  0.6789116492896422  0.4513134040270658  0.2112434508944953
  0.8179594546390674  0.2107508438427551  0.4775241012757978
  0.5676823927125046  0.7106150811883630  0.4774141252120832
  0.0677522461663941  0.8634783535983243  0.1666040727844651
  0.9323182948675849  0.2888521968240945  0.5224863248614338
  0.6845259096643820  0.7906030835185208  0.6559080574180794
  0.0583617088483972  0.8746724158342216  0.4331139528940363
  0.0682310384623713  0.2232343180047439  0.8761552654454039
  0.8098833204550629  0.0406317374844972  0.6559920750413953
  0.5596068663305611  0.0269168428532978  0.1238470818887638
  0.3085529717566566  0.3748389176295329  0.4330351082809164
  0.3165807678548056  0.3749206896994825  0.5668852677415868
  0.3176915985244916  0.7105169699359972  0.4773598110770176
  0.0570171737250713  0.0390428652774519  0.5225538301300496
  0.3215516273686976  0.8764851605738474  0.7005750501827694
  0.0650770255458260  0.5375631023584487  0.2551135059108033
  0.6836105012255258  0.1377549998549669  0.8335244060741309
  0.8150853939194355  0.0375288690469887  0.2551895776854348
  0.1836280934719795  0.1249577789971778  0.4331035294168126
  0.6972719237001251  0.1263638676487093  0.7003990216277862
  0.1824157127771261  0.2891969260363135  0.5224934966004378
  0.4406225392177708  0.7877156412361002  0.2552573771502256
  0.4415221124011538  0.6106084533428711  0.1664138465083496
  0.0632513333801574  0.2084013671589009  0.6114842847744415
  0.1860696144158691  0.7912272191984500  0.3883717279774859
  0.3074048647936868  0.5389104596239389  0.5224985966123438
  0.9333956505060774  0.1248988063358471  0.4330925062945025
  0.6864005304020417  0.2912775802515836  0.3883860572782843
  0.1915727847691530  0.1252095562382440  0.5668989326297429
  0.6896261403634762  0.9684641971207320  0.8761169006600166
  0.6916075687452102  0.1250499946879810  0.5668814334903245
  0.4401602362310791  0.9589276716741290  0.3440601870597925
  0.1837672305991986  0.9625569403506895  0.7448267827395737
  0.9405808401350122  0.7876197751022898  0.2552162455259878
  0.5583784333673470  0.8750159194775271  0.4330867546747935
  0.3082811890168884  0.8752107161809063  0.4330936374423898
  0.8073806190795242  0.5393739449710671  0.5225228124838579
  0.9292324998516271  0.4512676053357452  0.2112841825302471
  0.3153255254029672  0.5377943769612403  0.2550951498267688
  0.5615231316828408  0.0413137700301517  0.3883858439684120
  0.9379051406809510  0.4582377163813097  0.6115302831654530
  0.0613369795138382  0.0413391617957116  0.3884289294482565
  0.0615846318870392  0.5412590782750091  0.3884278071111313
  0.4365759364779613  0.2912045403051902  0.3883751002304316
  0.6929808388900561  0.4604826678712208  0.4774703471115140
  0.0667770179532534  0.3751328802646836  0.5668910979748480
  0.5541735496510373  0.7008954189076255  0.2111021638395015
  0.9409336739690780  0.2874338029796001  0.2553806762354750
  0.8190278709700173  0.0496111233527989  0.7891801454933005
  0.1899823501686681  0.9589689852198026  0.3440001576015551
  0.5528996612352991  0.8738605363700208  0.2996357885070539
  0.0585634342223744  0.3749307983089575  0.4331286690254365
  0.3151036691162136  0.7090720728850282  0.3439977381829732
  0.3148978176133820  0.2090508040765945  0.3439504148959158
  0.9418225955136155  0.1249884658593729  0.5667494347807239
  0.4384576897149699  0.9587511764038896  0.6115774396935169
  0.5654933512292180  0.0374904965279526  0.2550283869300252
  0.1859465082980390  0.7828029296488149  0.1242259522144677
  0.0652743698498811  0.0371919861986510  0.2551298214803977
  0.6916993188630883  0.6250355595078142  0.5668773344415130
  0.0569655925932511  0.5259825371046841  0.1241190307715152
  0.3070703476667805  0.0385800677398946  0.5222336019657216
  0.6874886260233225  0.2819863585763491  0.1241719247545899
  0.8179625383976458  0.7106839453449324  0.4774352353527226
  0.4334570174501824  0.1378422234137036  0.8335501203426801
  0.3222824633949945  0.3762974555790281  0.7003702973665454
  0.6836792275448430  0.6379141797478830  0.8335060196580045
  0.5596810267612784  0.7122383888099402  0.7448846288969475
  0.9368242340244174  0.2915748019864108  0.3884789114862868
  0.9398242063225987  0.9684269518917071  0.8761264030938606
  0.5628027187637974  0.2082441374196763  0.6112482359249836
  0.8165343214627881  0.8749566174412460  0.5668811332989023
  0.8033375148575010  0.8734186490711958  0.2994455848483836
  0.3152046316677883  0.0376772723941458  0.2551283190824760
  0.4367948641072122  0.2836291373710183  0.1240313362321985
  0.3132678255147874  0.7084078064862628  0.6115891955625132
  0.4335055584073588  0.6250424570282860  0.4331107413532097
  0.9327798331273461  0.6250340729388580  0.4332512870260042
  0.3182154939985539  0.8628000707111080  0.1657008613357788
  0.0708597633940121  0.5494466627098575  0.7887475794864234
  0.8221500812875494  0.3767384637691212  0.7002536422204003
  0.3185141529725002  0.3632600847390641  0.1657560610879108
  0.9328962281578779  0.9618153739352050  0.7447772507531366
  0.8159985308582265  0.5374610340956986  0.2554976917395070
 
  0.00000000E+00  0.00000000E+00  0.00000000E+00
  0.00000000E+00  0.00000000E+00  0.00000000E+00
  0.00000000E+00  0.00000000E+00  0.00000000E+00
  0.00000000E+00  0.00000000E+00  0.00000000E+00
  0.00000000E+00  0.00000000E+00  0.00000000E+00
  0.00000000E+00  0.00000000E+00  0.00000000E+00
  0.00000000E+00  0.00000000E+00  0.00000000E+00
  0.00000000E+00  0.00000000E+00  0.00000000E+00
  0.00000000E+00  0.00000000E+00  0.00000000E+00
  0.00000000E+00  0.00000000E+00  0.00000000E+00
  0.00000000E+00  0.00000000E+00  0.00000000E+00
  0.00000000E+00  0.00000000E+00  0.00000000E+00
  0.00000000E+00  0.00000000E+00  0.00000000E+00
  0.00000000E+00  0.00000000E+00  0.00000000E+00
  0.00000000E+00  0.00000000E+00  0.00000000E+00
  0.00000000E+00  0.00000000E+00  0.00000000E+00
  0.00000000E+00  0.00000000E+00  0.00000000E+00
  0.00000000E+00  0.00000000E+00  0.00000000E+00
  0.00000000E+00  0.00000000E+00  0.00000000E+00
  0.00000000E+00  0.00000000E+00  0.00000000E+00
  0.00000000E+00  0.00000000E+00  0.00000000E+00
  0.00000000E+00  0.00000000E+00  0.00000000E+00
  0.00000000E+00  0.00000000E+00  0.00000000E+00
  0.00000000E+00  0.00000000E+00  0.00000000E+00
  0.00000000E+00  0.00000000E+00  0.00000000E+00
  0.00000000E+00  0.00000000E+00  0.00000000E+00
  0.00000000E+00  0.00000000E+00  0.00000000E+00
  0.00000000E+00  0.00000000E+00  0.00000000E+00
  0.00000000E+00  0.00000000E+00  0.00000000E+00
  0.00000000E+00  0.00000000E+00  0.00000000E+00
  0.00000000E+00  0.00000000E+00  0.00000000E+00
  0.00000000E+00  0.00000000E+00  0.00000000E+00
  0.00000000E+00  0.00000000E+00  0.00000000E+00
  0.00000000E+00  0.00000000E+00  0.00000000E+00
  0.00000000E+00  0.00000000E+00  0.00000000E+00
  0.00000000E+00  0.00000000E+00  0.00000000E+00
  0.00000000E+00  0.00000000E+00  0.00000000E+00
  0.00000000E+00  0.00000000E+00  0.00000000E+00
  0.00000000E+00  0.00000000E+00  0.00000000E+00
  0.00000000E+00  0.00000000E+00  0.00000000E+00
  0.00000000E+00  0.00000000E+00  0.00000000E+00
  0.00000000E+00  0.00000000E+00  0.00000000E+00
  0.00000000E+00  0.00000000E+00  0.00000000E+00
  0.00000000E+00  0.00000000E+00  0.00000000E+00
  0.00000000E+00  0.00000000E+00  0.00000000E+00
  0.00000000E+00  0.00000000E+00  0.00000000E+00
  0.00000000E+00  0.00000000E+00  0.00000000E+00
  0.00000000E+00  0.00000000E+00  0.00000000E+00
  0.00000000E+00  0.00000000E+00  0.00000000E+00
  0.00000000E+00  0.00000000E+00  0.00000000E+00
  0.00000000E+00  0.00000000E+00  0.00000000E+00
  0.00000000E+00  0.00000000E+00  0.00000000E+00
  0.00000000E+00  0.00000000E+00  0.00000000E+00
  0.00000000E+00  0.00000000E+00  0.00000000E+00
  0.00000000E+00  0.00000000E+00  0.00000000E+00
  0.00000000E+00  0.00000000E+00  0.00000000E+00
  0.00000000E+00  0.00000000E+00  0.00000000E+00
  0.00000000E+00  0.00000000E+00  0.00000000E+00
  0.00000000E+00  0.00000000E+00  0.00000000E+00
  0.00000000E+00  0.00000000E+00  0.00000000E+00
  0.00000000E+00  0.00000000E+00  0.00000000E+00
  0.00000000E+00  0.00000000E+00  0.00000000E+00
  0.00000000E+00  0.00000000E+00  0.00000000E+00
  0.00000000E+00  0.00000000E+00  0.00000000E+00
  0.00000000E+00  0.00000000E+00  0.00000000E+00
  0.00000000E+00  0.00000000E+00  0.00000000E+00
  0.00000000E+00  0.00000000E+00  0.00000000E+00
  0.00000000E+00  0.00000000E+00  0.00000000E+00
  0.00000000E+00  0.00000000E+00  0.00000000E+00
  0.00000000E+00  0.00000000E+00  0.00000000E+00
  0.00000000E+00  0.00000000E+00  0.00000000E+00
  0.00000000E+00  0.00000000E+00  0.00000000E+00
  0.00000000E+00  0.00000000E+00  0.00000000E+00
  0.00000000E+00  0.00000000E+00  0.00000000E+00
  0.00000000E+00  0.00000000E+00  0.00000000E+00
  0.00000000E+00  0.00000000E+00  0.00000000E+00
  0.00000000E+00  0.00000000E+00  0.00000000E+00
  0.00000000E+00  0.00000000E+00  0.00000000E+00
  0.00000000E+00  0.00000000E+00  0.00000000E+00
  0.00000000E+00  0.00000000E+00  0.00000000E+00
  0.00000000E+00  0.00000000E+00  0.00000000E+00
  0.00000000E+00  0.00000000E+00  0.00000000E+00
  0.00000000E+00  0.00000000E+00  0.00000000E+00
  0.00000000E+00  0.00000000E+00  0.00000000E+00
  0.00000000E+00  0.00000000E+00  0.00000000E+00
  0.00000000E+00  0.00000000E+00  0.00000000E+00
  0.00000000E+00  0.00000000E+00  0.00000000E+00
  0.00000000E+00  0.00000000E+00  0.00000000E+00
  0.00000000E+00  0.00000000E+00  0.00000000E+00
  0.00000000E+00  0.00000000E+00  0.00000000E+00
  0.00000000E+00  0.00000000E+00  0.00000000E+00
  0.00000000E+00  0.00000000E+00  0.00000000E+00
  0.00000000E+00  0.00000000E+00  0.00000000E+00
  0.00000000E+00  0.00000000E+00  0.00000000E+00
  0.00000000E+00  0.00000000E+00  0.00000000E+00
  0.00000000E+00  0.00000000E+00  0.00000000E+00
  0.00000000E+00  0.00000000E+00  0.00000000E+00
  0.00000000E+00  0.00000000E+00  0.00000000E+00
  0.00000000E+00  0.00000000E+00  0.00000000E+00
  0.00000000E+00  0.00000000E+00  0.00000000E+00
  0.00000000E+00  0.00000000E+00  0.00000000E+00
  0.00000000E+00  0.00000000E+00  0.00000000E+00
  0.00000000E+00  0.00000000E+00  0.00000000E+00
  0.00000000E+00  0.00000000E+00  0.00000000E+00
  0.00000000E+00  0.00000000E+00  0.00000000E+00
  0.00000000E+00  0.00000000E+00  0.00000000E+00
  0.00000000E+00  0.00000000E+00  0.00000000E+00
  0.00000000E+00  0.00000000E+00  0.00000000E+00
  0.00000000E+00  0.00000000E+00  0.00000000E+00
  0.00000000E+00  0.00000000E+00  0.00000000E+00
  0.00000000E+00  0.00000000E+00  0.00000000E+00
  0.00000000E+00  0.00000000E+00  0.00000000E+00
  0.00000000E+00  0.00000000E+00  0.00000000E+00
  0.00000000E+00  0.00000000E+00  0.00000000E+00
  0.00000000E+00  0.00000000E+00  0.00000000E+00
  0.00000000E+00  0.00000000E+00  0.00000000E+00
  0.00000000E+00  0.00000000E+00  0.00000000E+00
  0.00000000E+00  0.00000000E+00  0.00000000E+00
  0.00000000E+00  0.00000000E+00  0.00000000E+00
  0.00000000E+00  0.00000000E+00  0.00000000E+00
  0.00000000E+00  0.00000000E+00  0.00000000E+00
  0.00000000E+00  0.00000000E+00  0.00000000E+00
  0.00000000E+00  0.00000000E+00  0.00000000E+00
  0.00000000E+00  0.00000000E+00  0.00000000E+00
  0.00000000E+00  0.00000000E+00  0.00000000E+00
  0.00000000E+00  0.00000000E+00  0.00000000E+00
  0.00000000E+00  0.00000000E+00  0.00000000E+00
  0.00000000E+00  0.00000000E+00  0.00000000E+00
  0.00000000E+00  0.00000000E+00  0.00000000E+00
  0.00000000E+00  0.00000000E+00  0.00000000E+00
  0.00000000E+00  0.00000000E+00  0.00000000E+00
  0.00000000E+00  0.00000000E+00  0.00000000E+00
  0.00000000E+00  0.00000000E+00  0.00000000E+00
  0.00000000E+00  0.00000000E+00  0.00000000E+00
  0.00000000E+00  0.00000000E+00  0.00000000E+00
  0.00000000E+00  0.00000000E+00  0.00000000E+00
  0.00000000E+00  0.00000000E+00  0.00000000E+00
  0.00000000E+00  0.00000000E+00  0.00000000E+00
  0.00000000E+00  0.00000000E+00  0.00000000E+00
  0.00000000E+00  0.00000000E+00  0.00000000E+00
  0.00000000E+00  0.00000000E+00  0.00000000E+00
  0.00000000E+00  0.00000000E+00  0.00000000E+00
  0.00000000E+00  0.00000000E+00  0.00000000E+00
  0.00000000E+00  0.00000000E+00  0.00000000E+00
  0.00000000E+00  0.00000000E+00  0.00000000E+00
  0.00000000E+00  0.00000000E+00  0.00000000E+00
  0.00000000E+00  0.00000000E+00  0.00000000E+00
  0.00000000E+00  0.00000000E+00  0.00000000E+00
  0.00000000E+00  0.00000000E+00  0.00000000E+00
  0.00000000E+00  0.00000000E+00  0.00000000E+00
  0.00000000E+00  0.00000000E+00  0.00000000E+00
  0.00000000E+00  0.00000000E+00  0.00000000E+00
  0.00000000E+00  0.00000000E+00  0.00000000E+00
  0.00000000E+00  0.00000000E+00  0.00000000E+00
  0.00000000E+00  0.00000000E+00  0.00000000E+00
  0.00000000E+00  0.00000000E+00  0.00000000E+00
  0.00000000E+00  0.00000000E+00  0.00000000E+00
  0.00000000E+00  0.00000000E+00  0.00000000E+00
  0.00000000E+00  0.00000000E+00  0.00000000E+00
  0.00000000E+00  0.00000000E+00  0.00000000E+00
  0.00000000E+00  0.00000000E+00  0.00000000E+00
  0.00000000E+00  0.00000000E+00  0.00000000E+00
  0.00000000E+00  0.00000000E+00  0.00000000E+00
  0.00000000E+00  0.00000000E+00  0.00000000E+00
  0.00000000E+00  0.00000000E+00  0.00000000E+00
  0.00000000E+00  0.00000000E+00  0.00000000E+00
  0.00000000E+00  0.00000000E+00  0.00000000E+00
  0.00000000E+00  0.00000000E+00  0.00000000E+00
  0.00000000E+00  0.00000000E+00  0.00000000E+00
  0.00000000E+00  0.00000000E+00  0.00000000E+00
  0.00000000E+00  0.00000000E+00  0.00000000E+00
  0.00000000E+00  0.00000000E+00  0.00000000E+00
  0.00000000E+00  0.00000000E+00  0.00000000E+00
  0.00000000E+00  0.00000000E+00  0.00000000E+00
  0.00000000E+00  0.00000000E+00  0.00000000E+00
  0.00000000E+00  0.00000000E+00  0.00000000E+00
  0.00000000E+00  0.00000000E+00  0.00000000E+00
  0.00000000E+00  0.00000000E+00  0.00000000E+00
  0.00000000E+00  0.00000000E+00  0.00000000E+00
  0.00000000E+00  0.00000000E+00  0.00000000E+00
  0.00000000E+00  0.00000000E+00  0.00000000E+00
  0.00000000E+00  0.00000000E+00  0.00000000E+00
  0.00000000E+00  0.00000000E+00  0.00000000E+00
  0.00000000E+00  0.00000000E+00  0.00000000E+00
  0.00000000E+00  0.00000000E+00  0.00000000E+00
  0.00000000E+00  0.00000000E+00  0.00000000E+00
  0.00000000E+00  0.00000000E+00  0.00000000E+00
  0.00000000E+00  0.00000000E+00  0.00000000E+00
  0.00000000E+00  0.00000000E+00  0.00000000E+00
  0.00000000E+00  0.00000000E+00  0.00000000E+00
  0.00000000E+00  0.00000000E+00  0.00000000E+00
  0.00000000E+00  0.00000000E+00  0.00000000E+00
  0.00000000E+00  0.00000000E+00  0.00000000E+00
  0.00000000E+00  0.00000000E+00  0.00000000E+00
  0.00000000E+00  0.00000000E+00  0.00000000E+00
  0.00000000E+00  0.00000000E+00  0.00000000E+00
  0.00000000E+00  0.00000000E+00  0.00000000E+00
  0.00000000E+00  0.00000000E+00  0.00000000E+00
  0.00000000E+00  0.00000000E+00  0.00000000E+00
  0.00000000E+00  0.00000000E+00  0.00000000E+00
  0.00000000E+00  0.00000000E+00  0.00000000E+00
  0.00000000E+00  0.00000000E+00  0.00000000E+00
  0.00000000E+00  0.00000000E+00  0.00000000E+00
  0.00000000E+00  0.00000000E+00  0.00000000E+00
  0.00000000E+00  0.00000000E+00  0.00000000E+00
  0.00000000E+00  0.00000000E+00  0.00000000E+00
  0.00000000E+00  0.00000000E+00  0.00000000E+00
  0.00000000E+00  0.00000000E+00  0.00000000E+00
  0.00000000E+00  0.00000000E+00  0.00000000E+00
  0.00000000E+00  0.00000000E+00  0.00000000E+00
  0.00000000E+00  0.00000000E+00  0.00000000E+00
  0.00000000E+00  0.00000000E+00  0.00000000E+00
  0.00000000E+00  0.00000000E+00  0.00000000E+00
  0.00000000E+00  0.00000000E+00  0.00000000E+00
  0.00000000E+00  0.00000000E+00  0.00000000E+00
  0.00000000E+00  0.00000000E+00  0.00000000E+00
  0.00000000E+00  0.00000000E+00  0.00000000E+00
  0.00000000E+00  0.00000000E+00  0.00000000E+00
  0.00000000E+00  0.00000000E+00  0.00000000E+00
  0.00000000E+00  0.00000000E+00  0.00000000E+00
  0.00000000E+00  0.00000000E+00  0.00000000E+00
  0.00000000E+00  0.00000000E+00  0.00000000E+00
  0.00000000E+00  0.00000000E+00  0.00000000E+00
  0.00000000E+00  0.00000000E+00  0.00000000E+00
  0.00000000E+00  0.00000000E+00  0.00000000E+00
  0.00000000E+00  0.00000000E+00  0.00000000E+00
  0.00000000E+00  0.00000000E+00  0.00000000E+00
  0.00000000E+00  0.00000000E+00  0.00000000E+00
  0.00000000E+00  0.00000000E+00  0.00000000E+00
  0.00000000E+00  0.00000000E+00  0.00000000E+00
  0.00000000E+00  0.00000000E+00  0.00000000E+00
  0.00000000E+00  0.00000000E+00  0.00000000E+00
  0.00000000E+00  0.00000000E+00  0.00000000E+00
  0.00000000E+00  0.00000000E+00  0.00000000E+00
  0.00000000E+00  0.00000000E+00  0.00000000E+00
  0.00000000E+00  0.00000000E+00  0.00000000E+00
  0.00000000E+00  0.00000000E+00  0.00000000E+00
  0.00000000E+00  0.00000000E+00  0.00000000E+00
  0.00000000E+00  0.00000000E+00  0.00000000E+00
  0.00000000E+00  0.00000000E+00  0.00000000E+00
  0.00000000E+00  0.00000000E+00  0.00000000E+00
  0.00000000E+00  0.00000000E+00  0.00000000E+00
  0.00000000E+00  0.00000000E+00  0.00000000E+00
  0.00000000E+00  0.00000000E+00  0.00000000E+00
  0.00000000E+00  0.00000000E+00  0.00000000E+00
  0.00000000E+00  0.00000000E+00  0.00000000E+00
  0.00000000E+00  0.00000000E+00  0.00000000E+00