FeMn_288_15                             
    1.000000000000000     
     9.7266779999999997    0.0000000000000000    0.0000000000000000
     0.0000000000000000    8.4235500000000005    0.0000000000000000
     0.0000000000000000    0.0000000000000000   45.0000000000000000
   Fe   Mn
   273    15
Direct
  0.1876188128697564  0.9600145717115545  0.6986938113402630
  0.3122876011418836  0.5365047272961402  0.3897278695293898
  0.0625807846085365  0.3665923823976919  0.1675474448172987
  0.5626766450941245  0.8754972521230113  0.6541936042012673
  0.3128269850372652  0.2100003912736058  0.6987947832898155
  0.1874415356345050  0.2912761466430950  0.6101231402591357
  0.8131732502709502  0.2056993317244743  0.4785814255184880
  0.9377597295328717  0.2914269240114813  0.6101444331070133
  0.8124891706947747  0.8773105390587373  0.7873725193037912
  0.8124405534315359  0.0341165118535994  0.2568811627654926
  0.0627323196406840  0.0448144489719618  0.8745113205579873
  0.9371206164097062  0.6181769308061720  0.3013019025705439
  0.6863271275130316  0.6163522125740067  0.1676470433243243
  0.9372846719967475  0.1154439990401113  0.1678710786063810
  0.1873925556631010  0.9508775585846199  0.2128194750303034
  0.1879698664523518  0.9618342588292347  0.8322503962830344
  0.0626981978789220  0.5365708030134955  0.3898382472291259
  0.0626881656284356  0.0415714576634644  0.6101199161445794
  0.5619531057512221  0.8651846980114078  0.1676881198239395
  0.1882530774487443  0.2830607048993063  0.1253394348234604
  0.4377050134028256  0.6168732056450869  0.1675106285468287
  0.1874909040781695  0.7864474441252243  0.3898367207232202
  0.0623973716715676  0.8677825069173848  0.3012749416725116
  0.8122178603525581  0.0326258435136102  0.1255920480665331
  0.5635116256796950  0.5327883168310719  0.1253970469762009
  0.9377565745895023  0.7838529873645841  0.1255511399901554
  0.9376666165253212  0.4522569991773939  0.3458260873407780
  0.6874853684937242  0.9565156102290699  0.5650653463142422
  0.6875948832467064  0.7911342279083853  0.6102641609350353
  0.0623080196234007  0.2017852058822273  0.3457283367171478
  0.6875122385857718  0.2911121563367722  0.6101317646757767
  0.3130431303679960  0.8652633450333159  0.1677488138411003
  0.0621862790383096  0.7056307038695370  0.4785409408269386
  0.1873214879769281  0.2935686327835892  0.7431134600120451
  0.4377458088952844  0.2864133223798163  0.3898883819961492
  0.5624544851791010  0.0414009385104312  0.6101134249199083
  0.4374668434127544  0.2913834575553375  0.6102500795192181
  0.3126627502467164  0.7121809075585365  0.8323255263395138
  0.1877512521866272  0.9549802117849039  0.4785266249580776
  0.6875291600392057  0.7956640109161510  0.8743286020724361
  0.1874971837370863  0.9521786396571698  0.3456603441516937
  0.1875147828387090  0.2841102941149422  0.2568537387346004
  0.0622253136660469  0.8652835649112968  0.1677684578858595
  0.8123894323059926  0.8757607417498751  0.6541757702127469
  0.6875197028792801  0.6214933261621167  0.4347110622574217
  0.6868135627440632  0.9622269933785775  0.8322033066858379
  0.3125625804689295  0.3713299929165468  0.4346936596174307
  0.3125352298613372  0.3776588400514453  0.7874539275857325
  0.8124755086502898  0.7099232331407093  0.6987742999879070
  0.6875730045988664  0.7865867809080237  0.3899072167034204
  0.9378708729473501  0.4555220304302020  0.4785491936268689
  0.3125777080873774  0.7054477777068544  0.4785211263798187
  0.5626204935581927  0.8775088594469441  0.7873109057011894
  0.4374051968362233  0.1155400415202139  0.1676507945735687
  0.9374970189649962  0.1210121401936883  0.4345355358736812
  0.8126062002229647  0.2022389851910837  0.3457667429009159
  0.1874832779586847  0.6225792735000728  0.5214231349488615
  0.1872107253188958  0.4554341426754085  0.4785028133327769
  0.8125003982007875  0.7016449673319076  0.3457511579146256
  0.3126285676309890  0.8771798030248683  0.7873362732934900
  0.8124452309328156  0.7051837466587820  0.4785662960976482
  0.5624932084780644  0.2071261830008355  0.5655236000098396
  0.8129581886446832  0.8707034547549204  0.4345399564001183
  0.5624329454854217  0.2119593281124634  0.8322115969214992
  0.9376336623379508  0.1180782830451357  0.3012473697796039
  0.0620225209219735  0.5446554348600444  0.8746845710922939
  0.8123925896682825  0.3756976571676392  0.6541876628400864
  0.1877870996062541  0.6267875539384403  0.7873388612586645
  0.5627144794244723  0.0362096191425625  0.3897872215333089
  0.8121728741483970  0.2096935199337903  0.6987563907671838
  0.1863449496286985  0.7838476573517005  0.1255286323640591
  0.6873992087076276  0.4554294622418417  0.4786025840810397
  0.6873504785242960  0.4566420231736828  0.5653414136571780
  0.0630893996734781  0.3770257673241368  0.7873268606042740
  0.0621757901671355  0.0438445548112362  0.7430826912453766
  0.1877035427651116  0.7957503718945451  0.8744021595608623
  0.1877104174546771  0.1273129348561259  0.7873817273879716
  0.8122023670047226  0.0413190334869156  0.6100682304831389
  0.8125061054045922  0.7007568285021112  0.2128619455330035
  0.0626923265903598  0.3679030931201629  0.3011998059667001
  0.3125761527164048  0.7068346901216801  0.5652683126347769
  0.4371646699059967  0.9553624738400419  0.4785137636000513
  0.4377804001576983  0.2822744561302296  0.1253408467168470
  0.4374295892972673  0.7940666684386812  0.7430590711027706
  0.4373537226032309  0.6224532947279658  0.5214539133641765
  0.1877967801321705  0.2955522160994420  0.8745627055100667
  0.5617954485861827  0.5450643954731919  0.8744322873504203
  0.5623539660355008  0.2062077080725831  0.4785346329200759
  0.8122201772533846  0.0446611704728671  0.8744994942469380
  0.8128802041147866  0.2070017117638182  0.5654360743317057
  0.3128168649621624  0.7099923472751178  0.6988151482322791
  0.4376122083903144  0.7911208308978313  0.6100926644553292
  0.4373419767059897  0.1256524658574957  0.6541932531491190
  0.9378046162291037  0.7865001436906346  0.3897967628985936
  0.4376224080163901  0.4569102934855069  0.5654424875754229
  0.3124191798396076  0.5410856039097313  0.6101388954670850
  0.8128109312730080  0.3661524922234963  0.1676806009194254
  0.5625139587986048  0.3758185755416080  0.6543314439364852
  0.6875070391694024  0.4617852375247541  0.8321884615257529
  0.1876342779914817  0.2864038684183823  0.3899082187737647
  0.9375365669612968  0.9566765364248716  0.5654317006761478
  0.5625339461481800  0.0336960078088617  0.1255457776755063
  0.8123976186045059  0.5440292836594216  0.7431137750862715
  0.6873690937450699  0.9593911427537121  0.6987185771860865
  0.5626112476947603  0.7097287277552704  0.6987718878458488
  0.0625697577739914  0.7005180823751049  0.2127081758284898
  0.1871670620071960  0.1210418861175925  0.4346669930921059
  0.3126369130998061  0.8709818646439291  0.4347771093907185
  0.3125049405298999  0.7022277234190747  0.3459019566496795
  0.6874554516708083  0.2839318079275910  0.2568957280140792
  0.1875462866010155  0.1259194213014465  0.6541845822311382
  0.8122756307747746  0.0363181900680868  0.3897793958585695
  0.4380135761890595  0.6183112563604437  0.3013323732779943
  0.9374348733250393  0.7937776415314270  0.7430764585173150
  0.4373662126488622  0.7951245010438582  0.8744075831615263
  0.4374216758859656  0.6256885508021245  0.6542158722455197
  0.0623004937083354  0.8760407791526527  0.6540840776675708
  0.6875967579573681  0.6225245475533512  0.5214118033355711
  0.4370811009268068  0.4521069495694669  0.3457985426108268
  0.5623747210403990  0.3675735100969598  0.3012543637962117
  0.5626220932376008  0.5365809704918068  0.3898547488974252
  0.6874949928333205  0.4597631392646409  0.6988143018676850
  0.9373186105109329  0.4501255237560677  0.2125515565740143
  0.0624545529538149  0.5339847510408534  0.2569226304082088
  0.4374228064429614  0.2936090802793990  0.7430074857888969
  0.8132553991801209  0.8721912516415827  0.5214173231509701
  0.5626362764520580  0.2021100559983749  0.3456991056519589
  0.3133310699286708  0.5451790080859727  0.8744046975772324
  0.8125683108631975  0.3714970659742841  0.4346302192440582
  0.6875888988340327  0.1277650309555000  0.7873433671134062
  0.0621343801348083  0.7022851724195502  0.3458490003293067
  0.6868917053988213  0.2954522976752135  0.8744577305306193
  0.9377499172471206  0.4569729226116984  0.5653089395502474
  0.4371978637598649  0.2838636148516032  0.2567805218629329
  0.6873483888594973  0.9518557153991080  0.3458045440906846
  0.9373433151153399  0.7916837779861713  0.6101334647377122
  0.8122094893734589  0.3775528086873233  0.7873693995320448
  0.5625770861817573  0.8681962609984798  0.3012650576804552
  0.4378961909544494  0.9504053991015179  0.2126188909022320
  0.4374674045140388  0.7838262440650996  0.2568711979376119
  0.9370768415398415  0.2865412660430343  0.3898075736051382
  0.8125193187705457  0.2124031834451855  0.8323799521591537
  0.9373318154514487  0.9626589383273083  0.8322345230453422
  0.9374483632656377  0.7837324801074017  0.2569395153132649
  0.3127277490090736  0.7008281507723285  0.2128316744873892
  0.0623836535449324  0.8724853411924786  0.5214009909616312
  0.3119869743340726  0.5314683804710857  0.1254176601151789
  0.1875300612721396  0.6179774840056905  0.3011907096026200
  0.4378097573272463  0.4494819278520384  0.2128019577707551
  0.4373176641605400  0.6213642039375071  0.4347673249428937
  0.5625635009875595  0.5411510817649388  0.6101925962115479
  0.9371281782321991  0.9504004353410482  0.2127494400254494
  0.9378088722265250  0.1222344777299211  0.5214065118395826
  0.1870824563016690  0.4614254262629683  0.8322965789315613
  0.0624255379976547  0.7100155005910886  0.6987354784366095
  0.3124745485482702  0.0339410446737560  0.2569282443181289
  0.0627889206266071  0.8767070667433317  0.7874307849617768
  0.5625037486612635  0.5341031911799715  0.2568632659733511
  0.4373023267770966  0.7864138361005149  0.3897904898355158
  0.4379080671356834  0.1217582836271805  0.5213751762959742
  0.9377877760108270  0.9557919534568753  0.4785386677588940
  0.5621255369838225  0.8707816786468348  0.4345428617721503
  0.6875409015043854  0.1256045908697462  0.6541798175137037
  0.9377362750791843  0.9518747671661638  0.3457247768090004
  0.8131096985901926  0.5448154814857009  0.8746239602177436
  0.5625707059032210  0.2096321792844597  0.6988447657182607
  0.3125704555648129  0.3677223274076482  0.3012201450168557
  0.8123731034163727  0.8658192451024368  0.1679495562588438
  0.4376972770648758  0.4554903747816666  0.4784999406401310
  0.6876235688810596  0.1181503603092913  0.3012092006579014
  0.4376627200587159  0.2955765483143715  0.8744670293734980
  0.6874972641696788  0.2939140842911416  0.7430515554536125
  0.4373158476169807  0.9620824119119538  0.8320609547669694
  0.3123747700496867  0.2117379052429725  0.8322145542363554
  0.0623914142044348  0.0337447579816231  0.2568080972284041
  0.3128024420468071  0.0412312600436380  0.6101033858731577
  0.9373916143663377  0.6274303297144543  0.7873324595574692
  0.0627646374058394  0.0328109327380880  0.1255952678894823
  0.1869798671867641  0.1222933142073410  0.5213454438969740
  0.9374629545226183  0.6257367367776391  0.6542453523942003
  0.8126063609625422  0.3679386771725621  0.3011819700356247
  0.8125855104647181  0.5414356801864352  0.6101264207769816
  0.0627412884599683  0.3722492219555655  0.5214456063671584
  0.5622400736395905  0.0450350621391862  0.8744417403075556
  0.8125868228809314  0.7064102981591076  0.5653499031437517
  0.8128139549132370  0.8683522331285501  0.3012122679101662
  0.5627240105972081  0.7017695640970044  0.3456995332868911
  0.3126904618694938  0.5437548874955311  0.7431070939611393
  0.8124463328003468  0.3728302187680073  0.5214323497830435
  0.6874268894810103  0.1209600536066485  0.4350069342214258
  0.4380469722540111  0.1209224955650223  0.4345582953113037
  0.3122685897142417  0.2004976251146441  0.2127513545978237
  0.5624568019247694  0.0439690620287634  0.7430434448114502
  0.1874991622590290  0.7938214013840973  0.7430555521695444
  0.0621151962415789  0.2069482906393863  0.5653251469344999
  0.6873836227719874  0.7939271951257471  0.7430414092184365
  0.5626913023695088  0.7064995787414162  0.5654404966918125
  0.6879543175907901  0.9507927332045883  0.2128206832127205
  0.0625286661823588  0.3712324322461004  0.4347013997658618
  0.0625140921713094  0.0365751411632683  0.3898326833356269
  0.8122087537413439  0.0440950709384434  0.7430861817276365
  0.5622177307326359  0.7122951126822099  0.8321636891328567
  0.0618668336567158  0.7118516116817883  0.8322162227085339
  0.9374291418422592  0.7942348860463345  0.8744849367216944
  0.1872194952612596  0.7836243129889547  0.2569065326617588
  0.5624463407911900  0.3714646356744055  0.4346427629950008
  0.6875134503577988  0.6182172208434346  0.3011921230214418
  0.0619254933025983  0.2058765767012018  0.4785078865766064
  0.0622361688848281  0.7067617137496190  0.5653742299154527
  0.6874580391510765  0.6258289385807138  0.6541443450496864
  0.6874836008539398  0.7837832316738217  0.2568570859537284
  0.5618933633024714  0.8723064525767654  0.5213691447603266
  0.3125320751188923  0.0334018255136418  0.1255284940197343
  0.4376013945455565  0.9569232737538467  0.5655847015199625
  0.9374081040328678  0.4601215592860426  0.6986241141483271
  0.5621908575964827  0.3653918625724329  0.1678221597978841
  0.3127149441780431  0.8726675863788874  0.5214660923969430
  0.3122854006556103  0.8757146858962348  0.6542676874993709
  0.1876968597781605  0.4602083641744988  0.6988323298791757
  0.9362421853231206  0.2823747605936381  0.1254397032153693
  0.3125483083445720  0.3757272612693668  0.6540674759725624
  0.0623142287490028  0.3759290893746803  0.6541933066178095
  0.0624757998760132  0.2000583977920069  0.2127913229303474
  0.9371895076336744  0.1258948278443626  0.6541463067163235
  0.6877023063750196  0.2826888864833944  0.1253430747386344
  0.1874597608543029  0.9566460973138967  0.5653850961616652
  0.6876850595274134  0.2868281371961921  0.3897122052571616
  0.4373296176335179  0.4621766661065337  0.8321458111577633
  0.0624377731288856  0.8712720340776621  0.4346811689708294
  0.3125574269954760  0.0367323049950725  0.3898864115398442
  0.5624596458589588  0.3726194442410515  0.5214639390884278
  0.3124003432715090  0.5341370015024759  0.2568884384037233
  0.4377237767464316  0.1273906575387475  0.7873906853622717
  0.9376139200925260  0.2837558056490608  0.2568969806910595
  0.4375510893568134  0.9595828950400536  0.6987488243900928
  0.9379423629905442  0.6152619509593923  0.1676329560734496
  0.3128472388435516  0.0449159057549840  0.8744814369873682
  0.4374183345760072  0.1177681942072369  0.3012130551240287
  0.6875407869788263  0.4501761292586104  0.2126647198696368
  0.1874392767743649  0.6212977091905849  0.4347031998427069
  0.3123267875979623  0.8682490573376185  0.3012984754463933
  0.5624735001301685  0.0337619620655909  0.2568868694380403
  0.1871011908686085  0.1152925446515597  0.1678832987046884
  0.1875201183249461  0.4520999802551270  0.3457590236264752
  0.3115632860222743  0.3659250437845941  0.1675596106605683
  0.6874334395963134  0.6274889563050895  0.7873191764702713
  0.8120123252199050  0.5313234116779778  0.1254313487883475
  0.1875653764076532  0.1177168050993533  0.3012418872528581
  0.1873469162385909  0.6258873521762482  0.6541895953615923
  0.5628943340053001  0.3777853842100159  0.7873928346951571
  0.9378029767101224  0.6213344066952767  0.4347225618613441
  0.5629794582902659  0.7051882473572979  0.4785694952971962
  0.5626127857886465  0.5441197887040911  0.7430908633085054
  0.9376578429332321  0.2953785251100418  0.8746758127737894
  0.3125515438395139  0.3732722322137026  0.5213755827904710
  0.8127452129353728  0.7119991391620005  0.8322951667317084
  0.4372223792759764  0.9522746940944223  0.3457362863912579
  0.6881284907430786  0.7824253926524012  0.1255421457889146
  0.1873282641998497  0.4569915287634276  0.5654273286029017
  0.9375335117355790  0.9599320642204160  0.6988168216727713
  0.4377168096573413  0.6272970094078608  0.7873555943297628
  0.9372568557748149  0.2943061373767702  0.7431012198011487
  0.8122895444710394  0.5337492900530587  0.2569501478084617
  0.4375408422826267  0.4601824577516871  0.6988429075796839
  0.0621450875064451  0.2123728298834962  0.8325363303874197
  0.8125647284833835  0.5365514894323727  0.3898907276807776
  0.8129574734421392  0.2004521178802145  0.2126738808951168
  0.6876485186507090  0.1161192393142631  0.1678608788532676
  0.1872498250813694  0.6152199757076277  0.1674317179576880
  0.5627296482548316  0.2004112945605190  0.2126293682176683
  0.9377479919377504  0.6224738280922487  0.5214695944954104
  0.1876070941360458  0.7914254729365012  0.6100877687636400
  0.0625508893267631  0.5415485253087445  0.6100962007869577
  0.6874625769171492  0.4520475776149364  0.3459553804246345
  0.0629357928656236  0.2100621398017488  0.6989147669224385
  0.6873951383351534  0.1227787646066948  0.5213729700865692
  0.0627495576295713  0.5320044744010245  0.1255654749021513
  0.0620981136233755  0.5435066255364394  0.7430490916743921
  0.6874479970429239  0.9552103241160989  0.4785961938998840
  0.5624168981771799  0.7009173022863424  0.2128953394327433
  0.3126089449069878  0.2067611004710183  0.5649761251285053
  0.9374391774680570  0.4621274238317699  0.8329290086436912
  0.3124629604569180  0.0438726047281003  0.7430703813544355
  0.1877796079850841  0.4500452268535982  0.2128709839357401
  0.4378958087479074  0.7834488839236515  0.1257795500058994
  0.3127725052322221  0.2055601233813217  0.4787004119257390
  0.3123997029666737  0.2018220715614138  0.3458675640577096
  0.9375069081319609  0.1275013369044032  0.7871836658708913
 
  0.00000000E+00  0.00000000E+00  0.00000000E+00
  0.00000000E+00  0.00000000E+00  0.00000000E+00
  0.00000000E+00  0.00000000E+00  0.00000000E+00
  0.00000000E+00  0.00000000E+00  0.00000000E+00
  0.00000000E+00  0.00000000E+00  0.00000000E+00
  0.00000000E+00  0.00000000E+00  0.00000000E+00
  0.00000000E+00  0.00000000E+00  0.00000000E+00
  0.00000000E+00  0.00000000E+00  0.00000000E+00
  0.00000000E+00  0.00000000E+00  0.00000000E+00
  0.00000000E+00  0.00000000E+00  0.00000000E+00
  0.00000000E+00  0.00000000E+00  0.00000000E+00
  0.00000000E+00  0.00000000E+00  0.00000000E+00
  0.00000000E+00  0.00000000E+00  0.00000000E+00
  0.00000000E+00  0.00000000E+00  0.00000000E+00
  0.00000000E+00  0.00000000E+00  0.00000000E+00
  0.00000000E+00  0.00000000E+00  0.00000000E+00
  0.00000000E+00  0.00000000E+00  0.00000000E+00
  0.00000000E+00  0.00000000E+00  0.00000000E+00
  0.00000000E+00  0.00000000E+00  0.00000000E+00
  0.00000000E+00  0.00000000E+00  0.00000000E+00
  0.00000000E+00  0.00000000E+00  0.00000000E+00
  0.00000000E+00  0.00000000E+00  0.00000000E+00
  0.00000000E+00  0.00000000E+00  0.00000000E+00
  0.00000000E+00  0.00000000E+00  0.00000000E+00
  0.00000000E+00  0.00000000E+00  0.00000000E+00
  0.00000000E+00  0.00000000E+00  0.00000000E+00
  0.00000000E+00  0.00000000E+00  0.00000000E+00
  0.00000000E+00  0.00000000E+00  0.00000000E+00
  0.00000000E+00  0.00000000E+00  0.00000000E+00
  0.00000000E+00  0.00000000E+00  0.00000000E+00
  0.00000000E+00  0.00000000E+00  0.00000000E+00
  0.00000000E+00  0.00000000E+00  0.00000000E+00
  0.00000000E+00  0.00000000E+00  0.00000000E+00
  0.00000000E+00  0.00000000E+00  0.00000000E+00
  0.00000000E+00  0.00000000E+00  0.00000000E+00
  0.00000000E+00  0.00000000E+00  0.00000000E+00
  0.00000000E+00  0.00000000E+00  0.00000000E+00
  0.00000000E+00  0.00000000E+00  0.00000000E+00
  0.00000000E+00  0.00000000E+00  0.00000000E+00
  0.00000000E+00  0.00000000E+00  0.00000000E+00
  0.00000000E+00  0.00000000E+00  0.00000000E+00
  0.00000000E+00  0.00000000E+00  0.00000000E+00
  0.00000000E+00  0.00000000E+00  0.00000000E+00
  0.00000000E+00  0.00000000E+00  0.00000000E+00
  0.00000000E+00  0.00000000E+00  0.00000000E+00
  0.00000000E+00  0.00000000E+00  0.00000000E+00
  0.00000000E+00  0.00000000E+00  0.00000000E+00
  0.00000000E+00  0.00000000E+00  0.00000000E+00
  0.00000000E+00  0.00000000E+00  0.00000000E+00
  0.00000000E+00  0.00000000E+00  0.00000000E+00
  0.00000000E+00  0.00000000E+00  0.00000000E+00
  0.00000000E+00  0.00000000E+00  0.00000000E+00
  0.00000000E+00  0.00000000E+00  0.00000000E+00
  0.00000000E+00  0.00000000E+00  0.00000000E+00
  0.00000000E+00  0.00000000E+00  0.00000000E+00
  0.00000000E+00  0.00000000E+00  0.00000000E+00
  0.00000000E+00  0.00000000E+00  0.00000000E+00
  0.00000000E+00  0.00000000E+00  0.00000000E+00
  0.00000000E+00  0.00000000E+00  0.00000000E+00
  0.00000000E+00  0.00000000E+00  0.00000000E+00
  0.00000000E+00  0.00000000E+00  0.00000000E+00
  0.00000000E+00  0.00000000E+00  0.00000000E+00
  0.00000000E+00  0.00000000E+00  0.00000000E+00
  0.00000000E+00  0.00000000E+00  0.00000000E+00
  0.00000000E+00  0.00000000E+00  0.00000000E+00
  0.00000000E+00  0.00000000E+00  0.00000000E+00
  0.00000000E+00  0.00000000E+00  0.00000000E+00
  0.00000000E+00  0.00000000E+00  0.00000000E+00
  0.00000000E+00  0.00000000E+00  0.00000000E+00
  0.00000000E+00  0.00000000E+00  0.00000000E+00
  0.00000000E+00  0.00000000E+00  0.00000000E+00
  0.00000000E+00  0.00000000E+00  0.00000000E+00
  0.00000000E+00  0.00000000E+00  0.00000000E+00
  0.00000000E+00  0.00000000E+00  0.00000000E+00
  0.00000000E+00  0.00000000E+00  0.00000000E+00
  0.00000000E+00  0.00000000E+00  0.00000000E+00
  0.00000000E+00  0.00000000E+00  0.00000000E+00
  0.00000000E+00  0.00000000E+00  0.00000000E+00
  0.00000000E+00  0.00000000E+00  0.00000000E+00
  0.00000000E+00  0.00000000E+00  0.00000000E+00
  0.00000000E+00  0.00000000E+00  0.00000000E+00
  0.00000000E+00  0.00000000E+00  0.00000000E+00
  0.00000000E+00  0.00000000E+00  0.00000000E+00
  0.00000000E+00  0.00000000E+00  0.00000000E+00
  0.00000000E+00  0.00000000E+00  0.00000000E+00
  0.00000000E+00  0.00000000E+00  0.00000000E+00
  0.00000000E+00  0.00000000E+00  0.00000000E+00
  0.00000000E+00  0.00000000E+00  0.00000000E+00
  0.00000000E+00  0.00000000E+00  0.00000000E+00
  0.00000000E+00  0.00000000E+00  0.00000000E+00
  0.00000000E+00  0.00000000E+00  0.00000000E+00
  0.00000000E+00  0.00000000E+00  0.00000000E+00
  0.00000000E+00  0.00000000E+00  0.00000000E+00
  0.00000000E+00  0.00000000E+00  0.00000000E+00
  0.00000000E+00  0.00000000E+00  0.00000000E+00
  0.00000000E+00  0.00000000E+00  0.00000000E+00
  0.00000000E+00  0.00000000E+00  0.00000000E+00
  0.00000000E+00  0.00000000E+00  0.00000000E+00
  0.00000000E+00  0.00000000E+00  0.00000000E+00
  0.00000000E+00  0.00000000E+00  0.00000000E+00
  0.00000000E+00  0.00000000E+00  0.00000000E+00
  0.00000000E+00  0.00000000E+00  0.00000000E+00
  0.00000000E+00  0.00000000E+00  0.00000000E+00
  0.00000000E+00  0.00000000E+00  0.00000000E+00
  0.00000000E+00  0.00000000E+00  0.00000000E+00
  0.00000000E+00  0.00000000E+00  0.00000000E+00
  0.00000000E+00  0.00000000E+00  0.00000000E+00
  0.00000000E+00  0.00000000E+00  0.00000000E+00
  0.00000000E+00  0.00000000E+00  0.00000000E+00
  0.00000000E+00  0.00000000E+00  0.00000000E+00
  0.00000000E+00  0.00000000E+00  0.00000000E+00
  0.00000000E+00  0.00000000E+00  0.00000000E+00
  0.00000000E+00  0.00000000E+00  0.00000000E+00
  0.00000000E+00  0.00000000E+00  0.00000000E+00
  0.00000000E+00  0.00000000E+00  0.00000000E+00
  0.00000000E+00  0.00000000E+00  0.00000000E+00
  0.00000000E+00  0.00000000E+00  0.00000000E+00
  0.00000000E+00  0.00000000E+00  0.00000000E+00
  0.00000000E+00  0.00000000E+00  0.00000000E+00
  0.00000000E+00  0.00000000E+00  0.00000000E+00
  0.00000000E+00  0.00000000E+00  0.00000000E+00
  0.00000000E+00  0.00000000E+00  0.00000000E+00
  0.00000000E+00  0.00000000E+00  0.00000000E+00
  0.00000000E+00  0.00000000E+00  0.00000000E+00
  0.00000000E+00  0.00000000E+00  0.00000000E+00
  0.00000000E+00  0.00000000E+00  0.00000000E+00
  0.00000000E+00  0.00000000E+00  0.00000000E+00
  0.00000000E+00  0.00000000E+00  0.00000000E+00
  0.00000000E+00  0.00000000E+00  0.00000000E+00
  0.00000000E+00  0.00000000E+00  0.00000000E+00
  0.00000000E+00  0.00000000E+00  0.00000000E+00
  0.00000000E+00  0.00000000E+00  0.00000000E+00
  0.00000000E+00  0.00000000E+00  0.00000000E+00
  0.00000000E+00  0.00000000E+00  0.00000000E+00
  0.00000000E+00  0.00000000E+00  0.00000000E+00
  0.00000000E+00  0.00000000E+00  0.00000000E+00
  0.00000000E+00  0.00000000E+00  0.00000000E+00
  0.00000000E+00  0.00000000E+00  0.00000000E+00
  0.00000000E+00  0.00000000E+00  0.00000000E+00
  0.00000000E+00  0.00000000E+00  0.00000000E+00
  0.00000000E+00  0.00000000E+00  0.00000000E+00
  0.00000000E+00  0.00000000E+00  0.00000000E+00
  0.00000000E+00  0.00000000E+00  0.00000000E+00
  0.00000000E+00  0.00000000E+00  0.00000000E+00
  0.00000000E+00  0.00000000E+00  0.00000000E+00
  0.00000000E+00  0.00000000E+00  0.00000000E+00
  0.00000000E+00  0.00000000E+00  0.00000000E+00
  0.00000000E+00  0.00000000E+00  0.00000000E+00
  0.00000000E+00  0.00000000E+00  0.00000000E+00
  0.00000000E+00  0.00000000E+00  0.00000000E+00
  0.00000000E+00  0.00000000E+00  0.00000000E+00
  0.00000000E+00  0.00000000E+00  0.00000000E+00
  0.00000000E+00  0.00000000E+00  0.00000000E+00
  0.00000000E+00  0.00000000E+00  0.00000000E+00
  0.00000000E+00  0.00000000E+00  0.00000000E+00
  0.00000000E+00  0.00000000E+00  0.00000000E+00
  0.00000000E+00  0.00000000E+00  0.00000000E+00
  0.00000000E+00  0.00000000E+00  0.00000000E+00
  0.00000000E+00  0.00000000E+00  0.00000000E+00
  0.00000000E+00  0.00000000E+00  0.00000000E+00
  0.00000000E+00  0.00000000E+00  0.00000000E+00
  0.00000000E+00  0.00000000E+00  0.00000000E+00
  0.00000000E+00  0.00000000E+00  0.00000000E+00
  0.00000000E+00  0.00000000E+00  0.00000000E+00
  0.00000000E+00  0.00000000E+00  0.00000000E+00
  0.00000000E+00  0.00000000E+00  0.00000000E+00
  0.00000000E+00  0.00000000E+00  0.00000000E+00
  0.00000000E+00  0.00000000E+00  0.00000000E+00
  0.00000000E+00  0.00000000E+00  0.00000000E+00
  0.00000000E+00  0.00000000E+00  0.00000000E+00
  0.00000000E+00  0.00000000E+00  0.00000000E+00
  0.00000000E+00  0.00000000E+00  0.00000000E+00
  0.00000000E+00  0.00000000E+00  0.00000000E+00
  0.00000000E+00  0.00000000E+00  0.00000000E+00
  0.00000000E+00  0.00000000E+00  0.00000000E+00
  0.00000000E+00  0.00000000E+00  0.00000000E+00
  0.00000000E+00  0.00000000E+00  0.00000000E+00
  0.00000000E+00  0.00000000E+00  0.00000000E+00
  0.00000000E+00  0.00000000E+00  0.00000000E+00
  0.00000000E+00  0.00000000E+00  0.00000000E+00
  0.00000000E+00  0.00000000E+00  0.00000000E+00
  0.00000000E+00  0.00000000E+00  0.00000000E+00
  0.00000000E+00  0.00000000E+00  0.00000000E+00
  0.00000000E+00  0.00000000E+00  0.00000000E+00
  0.00000000E+00  0.00000000E+00  0.00000000E+00
  0.00000000E+00  0.00000000E+00  0.00000000E+00
  0.00000000E+00  0.00000000E+00  0.00000000E+00
  0.00000000E+00  0.00000000E+00  0.00000000E+00
  0.00000000E+00  0.00000000E+00  0.00000000E+00
  0.00000000E+00  0.00000000E+00  0.00000000E+00
  0.00000000E+00  0.00000000E+00  0.00000000E+00
  0.00000000E+00  0.00000000E+00  0.00000000E+00
  0.00000000E+00  0.00000000E+00  0.00000000E+00
  0.00000000E+00  0.00000000E+00  0.00000000E+00
  0.00000000E+00  0.00000000E+00  0.00000000E+00
  0.00000000E+00  0.00000000E+00  0.00000000E+00
  0.00000000E+00  0.00000000E+00  0.00000000E+00
  0.00000000E+00  0.00000000E+00  0.00000000E+00
  0.00000000E+00  0.00000000E+00  0.00000000E+00
  0.00000000E+00  0.00000000E+00  0.00000000E+00
  0.00000000E+00  0.00000000E+00  0.00000000E+00
  0.00000000E+00  0.00000000E+00  0.00000000E+00
  0.00000000E+00  0.00000000E+00  0.00000000E+00
  0.00000000E+00  0.00000000E+00  0.00000000E+00
  0.00000000E+00  0.00000000E+00  0.00000000E+00
  0.00000000E+00  0.00000000E+00  0.00000000E+00
  0.00000000E+00  0.00000000E+00  0.00000000E+00
  0.00000000E+00  0.00000000E+00  0.00000000E+00
  0.00000000E+00  0.00000000E+00  0.00000000E+00
  0.00000000E+00  0.00000000E+00  0.00000000E+00
  0.00000000E+00  0.00000000E+00  0.00000000E+00
  0.00000000E+00  0.00000000E+00  0.00000000E+00
  0.00000000E+00  0.00000000E+00  0.00000000E+00
  0.00000000E+00  0.00000000E+00  0.00000000E+00
  0.00000000E+00  0.00000000E+00  0.00000000E+00
  0.00000000E+00  0.00000000E+00  0.00000000E+00
  0.00000000E+00  0.00000000E+00  0.00000000E+00
  0.00000000E+00  0.00000000E+00  0.00000000E+00
  0.00000000E+00  0.00000000E+00  0.00000000E+00
  0.00000000E+00  0.00000000E+00  0.00000000E+00
  0.00000000E+00  0.00000000E+00  0.00000000E+00
  0.00000000E+00  0.00000000E+00  0.00000000E+00
  0.00000000E+00  0.00000000E+00  0.00000000E+00
  0.00000000E+00  0.00000000E+00  0.00000000E+00
  0.00000000E+00  0.00000000E+00  0.00000000E+00
  0.00000000E+00  0.00000000E+00  0.00000000E+00
  0.00000000E+00  0.00000000E+00  0.00000000E+00
  0.00000000E+00  0.00000000E+00  0.00000000E+00
  0.00000000E+00  0.00000000E+00  0.00000000E+00
  0.00000000E+00  0.00000000E+00  0.00000000E+00
  0.00000000E+00  0.00000000E+00  0.00000000E+00
  0.00000000E+00  0.00000000E+00  0.00000000E+00
  0.00000000E+00  0.00000000E+00  0.00000000E+00
  0.00000000E+00  0.00000000E+00  0.00000000E+00
  0.00000000E+00  0.00000000E+00  0.00000000E+00
  0.00000000E+00  0.00000000E+00  0.00000000E+00
  0.00000000E+00  0.00000000E+00  0.00000000E+00
  0.00000000E+00  0.00000000E+00  0.00000000E+00
  0.00000000E+00  0.00000000E+00  0.00000000E+00
  0.00000000E+00  0.00000000E+00  0.00000000E+00
  0.00000000E+00  0.00000000E+00  0.00000000E+00
  0.00000000E+00  0.00000000E+00  0.00000000E+00
  0.00000000E+00  0.00000000E+00  0.00000000E+00
  0.00000000E+00  0.00000000E+00  0.00000000E+00
  0.00000000E+00  0.00000000E+00  0.00000000E+00
  0.00000000E+00  0.00000000E+00  0.00000000E+00
  0.00000000E+00  0.00000000E+00  0.00000000E+00