FeMn_288_15                             
    1.000000000000000     
     9.7266779999999997    0.0000000000000000    0.0000000000000000
     0.0000000000000000    8.4235500000000005    0.0000000000000000
     0.0000000000000000    0.0000000000000000   45.0000000000000000
   Fe   Mn
   273    15
Direct
  0.1871980758158903  0.9601146436497604  0.6991882615617133
  0.3121600089607377  0.5368823574692941  0.3892734855293604
  0.0630309660812640  0.3673530029350898  0.1672203921170755
  0.5631260078310916  0.8741959284684918  0.6547109732124793
  0.3123141810396549  0.2097274668157913  0.6993802941199807
  0.1872168931291712  0.2913488103953564  0.6106047036744138
  0.8136842195866919  0.2052046263497218  0.4785785140139495
  0.9376301207842784  0.2913885828593608  0.6106029495769729
  0.8119894330443641  0.8801690051655832  0.7877351888086114
  0.8127515632369504  0.0333338557979595  0.2564250447982855
  0.0626358120432353  0.0455919909410098  0.8747090178261512
  0.9367650504719954  0.6179318003778297  0.3006601127864986
  0.6869009132333130  0.6172344075101144  0.1672401847390782
  0.9376551881579187  0.1165816711024850  0.1674141036401028
  0.1868306447684090  0.9483746016997868  0.2124545743967417
  0.1882955231939794  0.9608899055065552  0.8326362858545088
  0.0626736229730367  0.5370402847986790  0.3893810626577294
  0.0625343604469404  0.0415739286020797  0.6105794055636061
  0.5629114057371725  0.8660744390670667  0.1672710703194312
  0.1879534712287035  0.2820645822622967  0.1251647148468462
  0.4384290138762491  0.6175095793508135  0.1672215277632136
  0.1873812173769484  0.7867452247291755  0.3893662598675252
  0.0620878987777174  0.8674743470171623  0.3007613768743052
  0.8118168294500823  0.0313562674307401  0.1253568096033105
  0.5633327995893412  0.5312235027807859  0.1253036529882359
  0.9377243895913271  0.7824927554879781  0.1252831170638746
  0.9380135496577634  0.4534221785100915  0.3453475794013122
  0.6876260075997113  0.9571873649487999  0.5653800612065117
  0.6875262753047406  0.7908835334941389  0.6107053169378085
  0.0625919019876528  0.2028876426572372  0.3451844497438991
  0.6874813978352246  0.2910714751678359  0.6105625600672958
  0.3131567899650083  0.8663798672019556  0.1673891165551371
  0.0624211459193990  0.7057991210432135  0.4785629066956656
  0.1875147923802062  0.2942957992314056  0.7436085854480872
  0.4376717476358041  0.2867639721716327  0.3894103882288442
  0.5622158376728730  0.0412230836210538  0.6105716639167994
  0.4373862435562024  0.2913682404193916  0.6107115668671497
  0.3130950882790901  0.7113149839732825  0.8327327832966922
  0.1878780681050399  0.9547680392472021  0.4785101727824390
  0.6874535330582164  0.7967972731430562  0.8745165418876808
  0.1878711641735428  0.9532817788168817  0.3451178010918881
  0.1879314457197633  0.2833364210290882  0.2564241471598431
  0.0627470531095655  0.8658081970507326  0.1673397739193962
  0.8127659239338364  0.8746650561358292  0.6547123761860518
  0.6875840328814484  0.6209495790014751  0.4344669254622229
  0.6872485784059039  0.9614428125887106  0.8326095516821764
  0.3127052399167423  0.3705497426250164  0.4344163929127219
  0.3120674021329021  0.3803203100591560  0.7878951456839692
  0.8121998596057259  0.7100620388523476  0.6993285201046239
  0.6874234501943850  0.7869447619457359  0.3894515197453628
  0.9377518334144382  0.4556948963333871  0.4785749249558084
  0.3126361996236399  0.7056899531986002  0.4785395682059961
  0.5620828337446500  0.8802715155302921  0.7877254084905413
  0.4379850333041452  0.1168697593366288  0.1671883302034710
  0.9375497556784548  0.1203301646684834  0.4342561913626616
  0.8129851035897201  0.2033117134701857  0.3452228895917577
  0.1872391890182633  0.6229381566024520  0.5214393881946016
  0.1870987837955941  0.4551457442238125  0.4784718058489251
  0.8126850057306330  0.7028845353013181  0.3452446900440990
  0.3121427418633183  0.8798356447233614  0.7877169686776063
  0.8119595880794078  0.7051309291109883  0.4785515552322606
  0.5624659098376827  0.2078123715633824  0.5658065096281872
  0.8130606681630785  0.8700523779780035  0.4342224108078283
  0.5626087804295326  0.2111844829951630  0.8327019404434414
  0.9372258457563027  0.1177349499436505  0.3006863029609183
  0.0618950495271338  0.5456765521330346  0.8749327913451278
  0.8128181528865754  0.3746633220380523  0.6547512650091747
  0.1874078037731732  0.6293672647030097  0.7876425351507831
  0.5625993404054979  0.0365885610509870  0.3893432201490968
  0.8117805438426530  0.2095908297617313  0.6993206707055925
  0.1862143137317467  0.7832415707577792  0.1251587123711293
  0.6878047397410197  0.4559315086114685  0.4786603049932599
  0.6874302481535948  0.4572597577377443  0.5655982226146786
  0.0625809250517105  0.3798405197352679  0.7876830886908675
  0.0627141845336398  0.0448462980293883  0.7435080724346741
  0.1873070929487104  0.7968136932945323  0.8745762592968189
  0.1871613883609496  0.1296826430867198  0.7877676241848554
  0.8121225541886964  0.0413542285982653  0.6105356136874849
  0.8121514650637126  0.6986914039547022  0.2125468249472897
  0.0624312372105987  0.3674197879747735  0.3006339054391249
  0.3127119373922699  0.7074020409985651  0.5655411757014985
  0.4372640364441303  0.9552090634026930  0.4784752563583604
  0.4373804135184787  0.2811426110987740  0.1250587596363266
  0.4375727108389219  0.7944789994840206  0.7435131093874690
  0.4373140753071652  0.6222438728296462  0.5214704368305839
  0.1875331921503500  0.2965847038698728  0.8747563141663297
  0.5615662958586146  0.5463257382743876  0.8747498469996476
  0.5615525137568487  0.2058872229538583  0.4785850476377881
  0.8120348512706693  0.0456811883893084  0.8747134444851745
  0.8130432616947674  0.2076239834046711  0.5657381454541013
  0.3124711683010586  0.7100607382760256  0.6993644995763265
  0.4373683816589573  0.7908958195865929  0.6105163851945096
  0.4376772482356357  0.1244178965078201  0.6547512351783915
  0.9376892136233134  0.7868381127722813  0.3893589766244260
  0.4377419499504634  0.4575837673121457  0.5657483088073448
  0.3122234460841156  0.5410618789057807  0.6106127409610331
  0.8132754035534832  0.3666527697011626  0.1672604937662342
  0.5629305130281100  0.3746138760674924  0.6548697558811135
  0.6878445298600134  0.4610958236495064  0.8325284455533462
  0.1875513419287465  0.2867116543108903  0.3894671841923953
  0.9374951902427658  0.9573238332694772  0.5657140169412567
  0.5619623189351621  0.0317792472880582  0.1253411119191732
  0.8128536874043473  0.5451363588338066  0.7435802385915158
  0.6870997394420810  0.9593933782854577  0.6992385793159214
  0.5622480546342038  0.7095970711303238  0.6993381713293558
  0.0622362518240420  0.6982642839012138  0.2124209260095472
  0.1872795125969707  0.1205124883410377  0.4344302130385265
  0.3127214565080795  0.8704994789699737  0.4345161099543857
  0.3127133138505897  0.7032495488516181  0.3453626162225507
  0.6878186036696924  0.2832073672253725  0.2564671412977798
  0.1879653502849992  0.1247983904287773  0.6547105097817710
  0.8122001155845562  0.0367557680418151  0.3893127893942972
  0.4376482681223863  0.6181009347309075  0.3006991081734754
  0.9377257755056534  0.7946132997745199  0.7435019618288854
  0.4370792671106230  0.7965477107849270  0.8746674427670317
  0.4377306398687953  0.6244244665421145  0.6547309364707711
  0.0627243062862009  0.8749892242683930  0.6546215438938220
  0.6877923304810054  0.6217332212396649  0.5214083582755860
  0.4372757712080617  0.4535139536331473  0.3452814046168273
  0.5620813593177008  0.3670762164353712  0.3006773015408544
  0.5625107029034377  0.5369710462863188  0.3894147617553650
  0.6871425755948937  0.4598073798767592  0.6994239904412456
  0.9365480112716531  0.4476512531231800  0.2121825531552524
  0.0625683600062687  0.5332747538582434  0.2565235586627385
  0.4377551568272685  0.2942092165171496  0.7434346374866175
  0.8136776088897714  0.8723375553888387  0.5214127643140629
  0.5630033020115381  0.2031480257545003  0.3451526341613875
  0.3129882028514849  0.5462166047518967  0.8747346407182690
  0.8126562737995539  0.3709243060853454  0.4343497606388549
  0.6870312007421071  0.1302113278541405  0.7876987526352515
  0.0625952435259601  0.7034232277260800  0.3453148852063874
  0.6867124321848875  0.2966478269344146  0.8746577752198617
  0.9378840165583417  0.4576179979909388  0.5656144835671325
  0.4376052602120133  0.2829712669433664  0.2563458106360586
  0.6877112116565276  0.9528960401041929  0.3452297194496785
  0.9372297654380193  0.7915910509651186  0.6105546634142052
  0.8116347422312659  0.3805288038669944  0.7877198348856499
  0.5623188837803956  0.8679435435058331  0.3007075598622928
  0.4373167494928099  0.9479395516857035  0.2121784236222105
  0.4378498234965612  0.7829733979665714  0.2563943591376360
  0.9369405235416363  0.2869204658759034  0.3893285943689688
  0.8127453830003362  0.2110136053633891  0.8326802661682267
  0.9378410541908184  0.9617172544520787  0.8325104028502021
  0.9380145136317275  0.7826976605257516  0.2565006000805448
  0.3122354940567153  0.6988564000854439  0.2125533739251451
  0.0626474294936291  0.8723443335141865  0.5214016931666978
  0.3118140860713330  0.5295584827315231  0.1253453982925155
  0.1872371436273972  0.6175824437738036  0.3006205795033639
  0.4373131950901643  0.4467065053792364  0.2124987440844809
  0.4375686497005151  0.6207609862528061  0.4344976770903692
  0.5624449541869551  0.5411134218911494  0.6106405579746897
  0.9367236932412412  0.9478199202771409  0.2122794501293974
  0.9375102873612898  0.1223607466069694  0.5213904443345638
  0.1876634228637293  0.4606193995085019  0.8326348862032578
  0.0620449148097030  0.7099467773609101  0.6993055219684333
  0.3128123608615657  0.0330658963798769  0.2564791202424380
  0.0622401073069805  0.8795211092882103  0.7877752212928775
  0.5628766442676369  0.5333721848465439  0.2564557571086125
  0.4371715056461676  0.7867326437003251  0.3893601021999288
  0.4385547391164117  0.1223654667489836  0.5213752065484939
  0.9373960623782854  0.9559953867960522  0.4785256870704711
  0.5621146461601241  0.8701258829568250  0.4342549218657976
  0.6879070929852070  0.1243571512530051  0.6547339393842969
  0.9379258671914328  0.9529938448545129  0.3451907027151315
  0.8127636523498348  0.5460367116051686  0.8748660886473290
  0.5621766429310747  0.2095176168816618  0.6994159071786057
  0.3121639677148424  0.3674060172481550  0.3006530710545586
  0.8128075664528818  0.8667976127545407  0.1675255526936264
  0.4374288308297928  0.4554582500402639  0.4784970911376015
  0.6873572122995270  0.1178851607114469  0.3005926358183316
  0.4373122645994086  0.2966224317213354  0.8747726457107736
  0.6876875503304328  0.2947365540697421  0.7434969563065954
  0.4377696367678132  0.9617472188152423  0.8325179258544833
  0.3129388725784052  0.2108827414010785  0.8326897353697731
  0.0628699664821668  0.0330486393030931  0.2563528403217004
  0.3126144267458369  0.0411387427152059  0.6105602596953126
  0.9367673315335695  0.6301679181197181  0.7876225709609622
  0.0625091317935295  0.0312568219855344  0.1254090071267542
  0.1864803347614485  0.1228590060775047  0.5213323234774947
  0.9378468533306722  0.6246772489390368  0.6547742085492272
  0.8123443359864967  0.3675058243971693  0.3005702323652010
  0.8125022770621908  0.5414406410002971  0.6105735080507453
  0.0627593378983246  0.3722201013252913  0.5214570449509385
  0.5620312975846449  0.0462765101198365  0.8747677065783678
  0.8127463821328278  0.7069679140839118  0.5656341122614340
  0.8125471073662992  0.8679645742564136  0.3006856425603658
  0.5629572535910757  0.7029814786632533  0.3451848824061579
  0.3130209061316379  0.5447560703049698  0.7435915724830067
  0.8119456384701224  0.3729918716278087  0.5214522790187592
  0.6875285365532990  0.1202787123432184  0.4346827218168571
  0.4382600351485719  0.1203408938728676  0.4342758115071739
  0.3117507038284814  0.1979926804989492  0.2124524802989082
  0.5627081030807981  0.0447706230122206  0.7434971990839370
  0.1879642515367405  0.7944779304779350  0.7434552433210574
  0.0623012611716334  0.2076488350664384  0.5656070158109751
  0.6875826829513475  0.7945914159567324  0.7434662048876388
  0.5626931601690470  0.7071368104623135  0.5657575187001176
  0.6872475179699437  0.9481712078814996  0.2123736518629999
  0.0627754185580520  0.3705880062193946  0.4344204759291468
  0.0625179541946347  0.0370357153330642  0.3894170389790481
  0.8125650094673520  0.0449450417060508  0.7435110896482929
  0.5626249019597070  0.7114750068635821  0.8326244262393000
  0.0623512831056197  0.7111176221180668  0.8325268966555268
  0.9373593635336133  0.7955515903333066  0.8746128049701641
  0.1876012783069059  0.7826150124654019  0.2564678387600071
  0.5624038363306403  0.3708111307366782  0.4343293918319325
  0.6871063929922226  0.6180127852424617  0.3006375681260050
  0.0622361589886044  0.2055247459584474  0.4785199097478566
  0.0623557135617441  0.7073880534522526  0.5656474518028898
  0.6878766916760068  0.6246976544654594  0.6546838728618950
  0.6879735235178346  0.7830103075246325  0.2564455783423650
  0.5613691444554849  0.8722305628985370  0.5213534733920377
  0.3121042609362471  0.0323733444147623  0.1253376021532373
  0.4376441883780333  0.9576244871969742  0.5659160783722642
  0.9371310502456827  0.4604468580522619  0.6991493722958715
  0.5629188458031666  0.3659146956172421  0.1674791332859822
  0.3122962046409620  0.8723759368256383  0.5214637132818335
  0.3126342600554938  0.8745798235170100  0.6547553443583444
  0.1873674501761161  0.4604682005369042  0.6994060976379844
  0.9360394381824594  0.2815536432543371  0.1252032201056907
  0.3128810725777466  0.3746217492795730  0.6546243595605452
  0.0627423663515783  0.3749410899541816  0.6547683060405211
  0.0619115799907847  0.1979772665687993  0.2124265108330913
  0.9374910277638602  0.1247960164843395  0.6546871726270502
  0.6876512760521337  0.2809616867415881  0.1250428851150770
  0.1875880765858086  0.9571895129752910  0.5656402312915400
  0.6876853987597265  0.2871828672175896  0.3892392451016918
  0.4376659012428920  0.4614226217957337  0.8326533834946906
  0.0625270232212100  0.8706901902923283  0.4343995818978302
  0.3124686105446515  0.0371890099909396  0.3894676427314986
  0.5626450832890020  0.3721088004569124  0.5215119696266645
  0.3127555622221944  0.5335146608024197  0.2564727484672106
  0.4372064070699571  0.1299258383122818  0.7877918649736267
  0.9378561627960358  0.2830617438236325  0.2564552819696486
  0.4372553381055040  0.9595667234036895  0.6992561052233741
  0.9382764090658341  0.6160591787165399  0.1672237018992848
  0.3125091980334066  0.0459099799783334  0.8747913802433290
  0.4371852443902766  0.1172489961600684  0.3006083033547665
  0.6868948193246147  0.4473993183052793  0.2121662876790842
  0.1874904504505964  0.6207527893098729  0.4344100360698765
  0.3121553459959528  0.8678908634342524  0.3007610965573148
  0.5627537080063164  0.0329874308183876  0.2564245980588132
  0.1874676714076918  0.1163137400299298  0.1674282658016282
  0.1879825449347315  0.4532348206688214  0.3452686305296229
  0.3120268227071861  0.3664550036814578  0.1673194482119582
  0.6869560072594693  0.6302042019879179  0.7876181749651096
  0.8116577999367826  0.5296126953241598  0.1253138736964331
  0.1871855632126631  0.1173779572559510  0.3006209867789317
  0.1876895246022352  0.6248261950524144  0.6547156794334960
  0.5622027157543880  0.3805494021738687  0.7878493152463458
  0.9378841644274082  0.6206728325849481  0.4344472741988517
  0.5630633090916889  0.7057381259441337  0.4785585484853221
  0.5629609113450782  0.5449788941123028  0.7435498083258055
  0.9374613860576941  0.2964271883664922  0.8748524462256198
  0.3127166914273661  0.3731658720336267  0.5214142898134182
  0.8131840511225922  0.7112754715910047  0.8326085657755207
  0.4376479157098377  0.9533138941738144  0.3452007063817537
  0.6878856685810536  0.7815461893612262  0.1252331387466778
  0.1873635673406616  0.4576906432417086  0.5657687804738052
  0.9373182480601371  0.9600704262158901  0.6993534966637536
  0.4371896402811213  0.6297081478998221  0.7877694928578088
  0.9375606416954749  0.2951635436476304  0.7435322199604208
  0.8127271123505562  0.5330718873371780  0.2565538376777338
  0.4373643868336814  0.4601464220492726  0.6993972054499014
  0.0627892982382785  0.2109825386743242  0.8328097887221824
  0.8124732218991386  0.5368922846282871  0.3894786566675763
  0.8123459662322933  0.1979990064006326  0.2123020471147089
  0.6879251792844808  0.1170005303249411  0.1672812851068200
  0.1879666092750475  0.6165383630303001  0.1670645343053747
  0.5622053182500759  0.1981047394808729  0.2122642006877865
  0.9377327531900547  0.6219536010079205  0.5214745470536980
  0.1874681255654735  0.7912601282588788  0.6105089760817206
  0.0623988803765064  0.5415991950529455  0.6105571880474298
  0.6878542876207490  0.4534063372942526  0.3454281409182294
  0.0625732523520109  0.2103267579387094  0.6995039206190394
  0.6873430185445604  0.1234918435852948  0.5214732146597720
  0.0622898696627883  0.5312072241767053  0.1253321077823932
  0.0625528054016516  0.5444138259039286  0.7435039607646713
  0.6873887784933684  0.9546940143438626  0.4784837759373315
  0.5620660769611435  0.6983506726999417  0.2126545328035081
  0.3127143894667396  0.2074446205697127  0.5652791905974879
  0.9378426809913568  0.4611412345238208  0.8331417104950138
  0.3130018865275239  0.0443927406657512  0.7434987374899716
  0.1872484394580017  0.4472958847898988  0.2124393427754302
  0.4374263319058740  0.7810691279992482  0.1255209838016823
  0.3126104992035422  0.2054272514706882  0.4786580091345836
  0.3127807620696831  0.2031714164468096  0.3453041848793683
  0.9368832213534676  0.1301476293707931  0.7874036702418052
 
  0.00000000E+00  0.00000000E+00  0.00000000E+00
  0.00000000E+00  0.00000000E+00  0.00000000E+00
  0.00000000E+00  0.00000000E+00  0.00000000E+00
  0.00000000E+00  0.00000000E+00  0.00000000E+00
  0.00000000E+00  0.00000000E+00  0.00000000E+00
  0.00000000E+00  0.00000000E+00  0.00000000E+00
  0.00000000E+00  0.00000000E+00  0.00000000E+00
  0.00000000E+00  0.00000000E+00  0.00000000E+00
  0.00000000E+00  0.00000000E+00  0.00000000E+00
  0.00000000E+00  0.00000000E+00  0.00000000E+00
  0.00000000E+00  0.00000000E+00  0.00000000E+00
  0.00000000E+00  0.00000000E+00  0.00000000E+00
  0.00000000E+00  0.00000000E+00  0.00000000E+00
  0.00000000E+00  0.00000000E+00  0.00000000E+00
  0.00000000E+00  0.00000000E+00  0.00000000E+00
  0.00000000E+00  0.00000000E+00  0.00000000E+00
  0.00000000E+00  0.00000000E+00  0.00000000E+00
  0.00000000E+00  0.00000000E+00  0.00000000E+00
  0.00000000E+00  0.00000000E+00  0.00000000E+00
  0.00000000E+00  0.00000000E+00  0.00000000E+00
  0.00000000E+00  0.00000000E+00  0.00000000E+00
  0.00000000E+00  0.00000000E+00  0.00000000E+00
  0.00000000E+00  0.00000000E+00  0.00000000E+00
  0.00000000E+00  0.00000000E+00  0.00000000E+00
  0.00000000E+00  0.00000000E+00  0.00000000E+00
  0.00000000E+00  0.00000000E+00  0.00000000E+00
  0.00000000E+00  0.00000000E+00  0.00000000E+00
  0.00000000E+00  0.00000000E+00  0.00000000E+00
  0.00000000E+00  0.00000000E+00  0.00000000E+00
  0.00000000E+00  0.00000000E+00  0.00000000E+00
  0.00000000E+00  0.00000000E+00  0.00000000E+00
  0.00000000E+00  0.00000000E+00  0.00000000E+00
  0.00000000E+00  0.00000000E+00  0.00000000E+00
  0.00000000E+00  0.00000000E+00  0.00000000E+00
  0.00000000E+00  0.00000000E+00  0.00000000E+00
  0.00000000E+00  0.00000000E+00  0.00000000E+00
  0.00000000E+00  0.00000000E+00  0.00000000E+00
  0.00000000E+00  0.00000000E+00  0.00000000E+00
  0.00000000E+00  0.00000000E+00  0.00000000E+00
  0.00000000E+00  0.00000000E+00  0.00000000E+00
  0.00000000E+00  0.00000000E+00  0.00000000E+00
  0.00000000E+00  0.00000000E+00  0.00000000E+00
  0.00000000E+00  0.00000000E+00  0.00000000E+00
  0.00000000E+00  0.00000000E+00  0.00000000E+00
  0.00000000E+00  0.00000000E+00  0.00000000E+00
  0.00000000E+00  0.00000000E+00  0.00000000E+00
  0.00000000E+00  0.00000000E+00  0.00000000E+00
  0.00000000E+00  0.00000000E+00  0.00000000E+00
  0.00000000E+00  0.00000000E+00  0.00000000E+00
  0.00000000E+00  0.00000000E+00  0.00000000E+00
  0.00000000E+00  0.00000000E+00  0.00000000E+00
  0.00000000E+00  0.00000000E+00  0.00000000E+00
  0.00000000E+00  0.00000000E+00  0.00000000E+00
  0.00000000E+00  0.00000000E+00  0.00000000E+00
  0.00000000E+00  0.00000000E+00  0.00000000E+00
  0.00000000E+00  0.00000000E+00  0.00000000E+00
  0.00000000E+00  0.00000000E+00  0.00000000E+00
  0.00000000E+00  0.00000000E+00  0.00000000E+00
  0.00000000E+00  0.00000000E+00  0.00000000E+00
  0.00000000E+00  0.00000000E+00  0.00000000E+00
  0.00000000E+00  0.00000000E+00  0.00000000E+00
  0.00000000E+00  0.00000000E+00  0.00000000E+00
  0.00000000E+00  0.00000000E+00  0.00000000E+00
  0.00000000E+00  0.00000000E+00  0.00000000E+00
  0.00000000E+00  0.00000000E+00  0.00000000E+00
  0.00000000E+00  0.00000000E+00  0.00000000E+00
  0.00000000E+00  0.00000000E+00  0.00000000E+00
  0.00000000E+00  0.00000000E+00  0.00000000E+00
  0.00000000E+00  0.00000000E+00  0.00000000E+00
  0.00000000E+00  0.00000000E+00  0.00000000E+00
  0.00000000E+00  0.00000000E+00  0.00000000E+00
  0.00000000E+00  0.00000000E+00  0.00000000E+00
  0.00000000E+00  0.00000000E+00  0.00000000E+00
  0.00000000E+00  0.00000000E+00  0.00000000E+00
  0.00000000E+00  0.00000000E+00  0.00000000E+00
  0.00000000E+00  0.00000000E+00  0.00000000E+00
  0.00000000E+00  0.00000000E+00  0.00000000E+00
  0.00000000E+00  0.00000000E+00  0.00000000E+00
  0.00000000E+00  0.00000000E+00  0.00000000E+00
  0.00000000E+00  0.00000000E+00  0.00000000E+00
  0.00000000E+00  0.00000000E+00  0.00000000E+00
  0.00000000E+00  0.00000000E+00  0.00000000E+00
  0.00000000E+00  0.00000000E+00  0.00000000E+00
  0.00000000E+00  0.00000000E+00  0.00000000E+00
  0.00000000E+00  0.00000000E+00  0.00000000E+00
  0.00000000E+00  0.00000000E+00  0.00000000E+00
  0.00000000E+00  0.00000000E+00  0.00000000E+00
  0.00000000E+00  0.00000000E+00  0.00000000E+00
  0.00000000E+00  0.00000000E+00  0.00000000E+00
  0.00000000E+00  0.00000000E+00  0.00000000E+00
  0.00000000E+00  0.00000000E+00  0.00000000E+00
  0.00000000E+00  0.00000000E+00  0.00000000E+00
  0.00000000E+00  0.00000000E+00  0.00000000E+00
  0.00000000E+00  0.00000000E+00  0.00000000E+00
  0.00000000E+00  0.00000000E+00  0.00000000E+00
  0.00000000E+00  0.00000000E+00  0.00000000E+00
  0.00000000E+00  0.00000000E+00  0.00000000E+00
  0.00000000E+00  0.00000000E+00  0.00000000E+00
  0.00000000E+00  0.00000000E+00  0.00000000E+00
  0.00000000E+00  0.00000000E+00  0.00000000E+00
  0.00000000E+00  0.00000000E+00  0.00000000E+00
  0.00000000E+00  0.00000000E+00  0.00000000E+00
  0.00000000E+00  0.00000000E+00  0.00000000E+00
  0.00000000E+00  0.00000000E+00  0.00000000E+00
  0.00000000E+00  0.00000000E+00  0.00000000E+00
  0.00000000E+00  0.00000000E+00  0.00000000E+00
  0.00000000E+00  0.00000000E+00  0.00000000E+00
  0.00000000E+00  0.00000000E+00  0.00000000E+00
  0.00000000E+00  0.00000000E+00  0.00000000E+00
  0.00000000E+00  0.00000000E+00  0.00000000E+00
  0.00000000E+00  0.00000000E+00  0.00000000E+00
  0.00000000E+00  0.00000000E+00  0.00000000E+00
  0.00000000E+00  0.00000000E+00  0.00000000E+00
  0.00000000E+00  0.00000000E+00  0.00000000E+00
  0.00000000E+00  0.00000000E+00  0.00000000E+00
  0.00000000E+00  0.00000000E+00  0.00000000E+00
  0.00000000E+00  0.00000000E+00  0.00000000E+00
  0.00000000E+00  0.00000000E+00  0.00000000E+00
  0.00000000E+00  0.00000000E+00  0.00000000E+00
  0.00000000E+00  0.00000000E+00  0.00000000E+00
  0.00000000E+00  0.00000000E+00  0.00000000E+00
  0.00000000E+00  0.00000000E+00  0.00000000E+00
  0.00000000E+00  0.00000000E+00  0.00000000E+00
  0.00000000E+00  0.00000000E+00  0.00000000E+00
  0.00000000E+00  0.00000000E+00  0.00000000E+00
  0.00000000E+00  0.00000000E+00  0.00000000E+00
  0.00000000E+00  0.00000000E+00  0.00000000E+00
  0.00000000E+00  0.00000000E+00  0.00000000E+00
  0.00000000E+00  0.00000000E+00  0.00000000E+00
  0.00000000E+00  0.00000000E+00  0.00000000E+00
  0.00000000E+00  0.00000000E+00  0.00000000E+00
  0.00000000E+00  0.00000000E+00  0.00000000E+00
  0.00000000E+00  0.00000000E+00  0.00000000E+00
  0.00000000E+00  0.00000000E+00  0.00000000E+00
  0.00000000E+00  0.00000000E+00  0.00000000E+00
  0.00000000E+00  0.00000000E+00  0.00000000E+00
  0.00000000E+00  0.00000000E+00  0.00000000E+00
  0.00000000E+00  0.00000000E+00  0.00000000E+00
  0.00000000E+00  0.00000000E+00  0.00000000E+00
  0.00000000E+00  0.00000000E+00  0.00000000E+00
  0.00000000E+00  0.00000000E+00  0.00000000E+00
  0.00000000E+00  0.00000000E+00  0.00000000E+00
  0.00000000E+00  0.00000000E+00  0.00000000E+00
  0.00000000E+00  0.00000000E+00  0.00000000E+00
  0.00000000E+00  0.00000000E+00  0.00000000E+00
  0.00000000E+00  0.00000000E+00  0.00000000E+00
  0.00000000E+00  0.00000000E+00  0.00000000E+00
  0.00000000E+00  0.00000000E+00  0.00000000E+00
  0.00000000E+00  0.00000000E+00  0.00000000E+00
  0.00000000E+00  0.00000000E+00  0.00000000E+00
  0.00000000E+00  0.00000000E+00  0.00000000E+00
  0.00000000E+00  0.00000000E+00  0.00000000E+00
  0.00000000E+00  0.00000000E+00  0.00000000E+00
  0.00000000E+00  0.00000000E+00  0.00000000E+00
  0.00000000E+00  0.00000000E+00  0.00000000E+00
  0.00000000E+00  0.00000000E+00  0.00000000E+00
  0.00000000E+00  0.00000000E+00  0.00000000E+00
  0.00000000E+00  0.00000000E+00  0.00000000E+00
  0.00000000E+00  0.00000000E+00  0.00000000E+00
  0.00000000E+00  0.00000000E+00  0.00000000E+00
  0.00000000E+00  0.00000000E+00  0.00000000E+00
  0.00000000E+00  0.00000000E+00  0.00000000E+00
  0.00000000E+00  0.00000000E+00  0.00000000E+00
  0.00000000E+00  0.00000000E+00  0.00000000E+00
  0.00000000E+00  0.00000000E+00  0.00000000E+00
  0.00000000E+00  0.00000000E+00  0.00000000E+00
  0.00000000E+00  0.00000000E+00  0.00000000E+00
  0.00000000E+00  0.00000000E+00  0.00000000E+00
  0.00000000E+00  0.00000000E+00  0.00000000E+00
  0.00000000E+00  0.00000000E+00  0.00000000E+00
  0.00000000E+00  0.00000000E+00  0.00000000E+00
  0.00000000E+00  0.00000000E+00  0.00000000E+00
  0.00000000E+00  0.00000000E+00  0.00000000E+00
  0.00000000E+00  0.00000000E+00  0.00000000E+00
  0.00000000E+00  0.00000000E+00  0.00000000E+00
  0.00000000E+00  0.00000000E+00  0.00000000E+00
  0.00000000E+00  0.00000000E+00  0.00000000E+00
  0.00000000E+00  0.00000000E+00  0.00000000E+00
  0.00000000E+00  0.00000000E+00  0.00000000E+00
  0.00000000E+00  0.00000000E+00  0.00000000E+00
  0.00000000E+00  0.00000000E+00  0.00000000E+00
  0.00000000E+00  0.00000000E+00  0.00000000E+00
  0.00000000E+00  0.00000000E+00  0.00000000E+00
  0.00000000E+00  0.00000000E+00  0.00000000E+00
  0.00000000E+00  0.00000000E+00  0.00000000E+00
  0.00000000E+00  0.00000000E+00  0.00000000E+00
  0.00000000E+00  0.00000000E+00  0.00000000E+00
  0.00000000E+00  0.00000000E+00  0.00000000E+00
  0.00000000E+00  0.00000000E+00  0.00000000E+00
  0.00000000E+00  0.00000000E+00  0.00000000E+00
  0.00000000E+00  0.00000000E+00  0.00000000E+00
  0.00000000E+00  0.00000000E+00  0.00000000E+00
  0.00000000E+00  0.00000000E+00  0.00000000E+00
  0.00000000E+00  0.00000000E+00  0.00000000E+00
  0.00000000E+00  0.00000000E+00  0.00000000E+00
  0.00000000E+00  0.00000000E+00  0.00000000E+00
  0.00000000E+00  0.00000000E+00  0.00000000E+00
  0.00000000E+00  0.00000000E+00  0.00000000E+00
  0.00000000E+00  0.00000000E+00  0.00000000E+00
  0.00000000E+00  0.00000000E+00  0.00000000E+00
  0.00000000E+00  0.00000000E+00  0.00000000E+00
  0.00000000E+00  0.00000000E+00  0.00000000E+00
  0.00000000E+00  0.00000000E+00  0.00000000E+00
  0.00000000E+00  0.00000000E+00  0.00000000E+00
  0.00000000E+00  0.00000000E+00  0.00000000E+00
  0.00000000E+00  0.00000000E+00  0.00000000E+00
  0.00000000E+00  0.00000000E+00  0.00000000E+00
  0.00000000E+00  0.00000000E+00  0.00000000E+00
  0.00000000E+00  0.00000000E+00  0.00000000E+00
  0.00000000E+00  0.00000000E+00  0.00000000E+00
  0.00000000E+00  0.00000000E+00  0.00000000E+00
  0.00000000E+00  0.00000000E+00  0.00000000E+00
  0.00000000E+00  0.00000000E+00  0.00000000E+00
  0.00000000E+00  0.00000000E+00  0.00000000E+00
  0.00000000E+00  0.00000000E+00  0.00000000E+00
  0.00000000E+00  0.00000000E+00  0.00000000E+00
  0.00000000E+00  0.00000000E+00  0.00000000E+00
  0.00000000E+00  0.00000000E+00  0.00000000E+00
  0.00000000E+00  0.00000000E+00  0.00000000E+00
  0.00000000E+00  0.00000000E+00  0.00000000E+00
  0.00000000E+00  0.00000000E+00  0.00000000E+00
  0.00000000E+00  0.00000000E+00  0.00000000E+00
  0.00000000E+00  0.00000000E+00  0.00000000E+00
  0.00000000E+00  0.00000000E+00  0.00000000E+00
  0.00000000E+00  0.00000000E+00  0.00000000E+00
  0.00000000E+00  0.00000000E+00  0.00000000E+00
  0.00000000E+00  0.00000000E+00  0.00000000E+00
  0.00000000E+00  0.00000000E+00  0.00000000E+00
  0.00000000E+00  0.00000000E+00  0.00000000E+00
  0.00000000E+00  0.00000000E+00  0.00000000E+00
  0.00000000E+00  0.00000000E+00  0.00000000E+00
  0.00000000E+00  0.00000000E+00  0.00000000E+00
  0.00000000E+00  0.00000000E+00  0.00000000E+00
  0.00000000E+00  0.00000000E+00  0.00000000E+00
  0.00000000E+00  0.00000000E+00  0.00000000E+00
  0.00000000E+00  0.00000000E+00  0.00000000E+00
  0.00000000E+00  0.00000000E+00  0.00000000E+00
  0.00000000E+00  0.00000000E+00  0.00000000E+00
  0.00000000E+00  0.00000000E+00  0.00000000E+00
  0.00000000E+00  0.00000000E+00  0.00000000E+00
  0.00000000E+00  0.00000000E+00  0.00000000E+00
  0.00000000E+00  0.00000000E+00  0.00000000E+00
  0.00000000E+00  0.00000000E+00  0.00000000E+00
  0.00000000E+00  0.00000000E+00  0.00000000E+00
  0.00000000E+00  0.00000000E+00  0.00000000E+00
  0.00000000E+00  0.00000000E+00  0.00000000E+00
  0.00000000E+00  0.00000000E+00  0.00000000E+00