CuInSe2gb                               
   1.00000000000000     
     9.7266780392896699    0.0000000000000000    0.0000000000000000
     0.0000000000000000    8.4235502764570693    0.0000000000000000
     0.0000000000000000    0.0000000000000000   45.0000000000000000
   Fe   Mn
   274    14
Direct
  0.0607520308764614  0.0330971289603781  0.1247297294214434
  0.3141357070850382  0.8743588749141392  0.6548161604960040
  0.1864188755997939  0.1234033931516121  0.7881986094608067
  0.4402382642613804  0.2878705026254070  0.3895179190359866
  0.3149660558456904  0.7108117895111998  0.8332005828172770
  0.8162010806987611  0.2118329641241887  0.8333857164046290
  0.1893538754954088  0.9611022978318935  0.8334999995914945
  0.5619616097307911  0.2060656201688825  0.5656066112989384
  0.0635752556915754  0.0404617179774572  0.7439532537517808
  0.8111040496047498  0.8721914879201618  0.5218094369822690
  0.1887771949745755  0.2907850467345348  0.7440120965634984
  0.9365740139772279  0.4539156634837833  0.3450724172988404
  0.9395718857072419  0.2877095694666152  0.3894213772954846
  0.8124671871896969  0.0437033240681154  0.8752110585848443
  0.1853014363368659  0.7891931129626730  0.6103805668518859
  0.5645914249701822  0.0378206377210826  0.3894375382803466
  0.9417278096406668  0.9618432764197813  0.8334787369786003
  0.3135526349291402  0.5432838489638232  0.8752805152567152
  0.6893428840269683  0.2903957663704215  0.7440079470738645
  0.1841646492145903  0.6164168800179893  0.1666252250319056
  0.8119752026124543  0.2053495100854772  0.4783301478829899
  0.8103909371175475  0.5387521973889866  0.6104474739049845
  0.3127587935662677  0.8709152452896302  0.4343578459157676
  0.8112504912001988  0.0377137803813747  0.2560778633779226
  0.6862923153470578  0.9536414406691659  0.3450065756506107
  0.9330542906224034  0.1160597821792511  0.1667899040957421
  0.0623858467117749  0.8724759754878769  0.5217065923446966
  0.5614108625627683  0.5384058426129021  0.2561518005634785
  0.6867539570256250  0.7931643584207945  0.8753313523542767
  0.5584911234756481  0.3669264417803209  0.1664955355877615
  0.4392431978984613  0.7911112293257123  0.7440347717472819
  0.8118758058302357  0.7063652417537247  0.5657328593447128
  0.5617124661397516  0.8731020373084351  0.7881155937710208
  0.6863068811036235  0.1220962107986512  0.5217344112675063
  0.8144898452260927  0.3740840299548566  0.6548512399404967
  0.9410580670561663  0.4618968150973715  0.8334203794886168
  0.0616711284126612  0.2075090457991733  0.6995444788453806
  0.4367357023363566  0.9573708560208503  0.6995488882203075
  0.3149357541671136  0.2102675582156699  0.8336125804853912
  0.4391105922628017  0.6242527707571059  0.6548171931956758
  0.3103776744751543  0.5391419210474367  0.6104135252245010
  0.9368366511566637  0.4559583887394552  0.5657719149947990
  0.6892642853657014  0.7913985738736019  0.7440028462935617
  0.9339026484103754  0.7844242720170080  0.1250011391542913
  0.6902273012919987  0.7876167719929383  0.3894179191870536
  0.9390247320029854  0.7909405722664921  0.7440410451305784
  0.0617680476210050  0.2037990319445772  0.3450412243960005
  0.6865408526833263  0.4537170462518809  0.3450265468724860
  0.4362869982617504  0.1232074165911906  0.7883567317164456
  0.0629753105866887  0.2037485071112629  0.2117655721962239
  0.0572760578932317  0.3665193249030416  0.1665988123534138
  0.9359742593160185  0.7886017153740160  0.2559196443436124
  0.5614661287215413  0.2072942674440449  0.6996069054198872
  0.6868027093681388  0.9573207697924064  0.6996649515832913
  0.8112892721939747  0.8736323243128117  0.7880690636702725
  0.4369442542665778  0.9563951795745085  0.5657543432148213
  0.8117879541130629  0.3734584197705508  0.7880306947273534
  0.6861832671999097  0.2880809941584755  0.2561386141840636
  0.1867570929330994  0.4562936064377612  0.5657097456937430
  0.0582730930427521  0.8665854923045808  0.1665522681326488
  0.1854863849508947  0.2889210852919541  0.6104745855863126
  0.0616952707773373  0.2061801025945055  0.5656343417800843
  0.3116706695870189  0.2076345406958091  0.6995767774827402
  0.5642957712702675  0.5438723573993397  0.8752179606564133
  0.0617547651689249  0.7060715837074073  0.5657169398407406
  0.6861497906596919  0.6235202027954138  0.7880360864459431
  0.3148680900197324  0.5377559490091881  0.3894999131886142
  0.1871372854697974  0.6227373780851726  0.5217285306250974
  0.5622677491142873  0.8710987959915741  0.4342693722731658
  0.4367487430710959  0.4563661617189487  0.5657107063892731
  0.4391318184899853  0.2910810247603058  0.7439859104380284
  0.8161654092882062  0.8733936884531250  0.3002038986351647
  0.8113740067373720  0.7034738798056963  0.3451308777439731
  0.4404483465473538  0.4606531246067591  0.8335235952657267
  0.6876278900494243  0.9548481377489192  0.4783040356789903
  0.6865076900295329  0.4573604305056022  0.6996447057288511
  0.5619481440097909  0.8720559156574408  0.5217045989261703
  0.5646246191609936  0.3738681488033123  0.6547784559801038
  0.8143243851288477  0.8744209159240393  0.6548840967704274
  0.8120683769239306  0.3711487590196065  0.4341855878449393
  0.8112263496340962  0.5379488543737628  0.2561559314179562
  0.6910737202709409  0.4609242740682155  0.8334288578537600
  0.1854896599979145  0.7843031417581862  0.1245086206607199
  0.6896551046333353  0.2875137757899277  0.3894446820127926
  0.5617814409662891  0.5330646763197264  0.1247478137878392
  0.3116361110237474  0.2034103188045805  0.3450909348519378
  0.8142443360739881  0.5405774200970627  0.7439099443143026
  0.6907275432570554  0.9609836328377951  0.8335264313103491
  0.5646587216440317  0.8742207113080731  0.6548742404165264
  0.3117940668066708  0.7066814788334654  0.5656399107489939
  0.3114088840239454  0.5348490940145794  0.1245708183581841
  0.6883373371016124  0.9541069859537292  0.2119839151107313
  0.3117532739035627  0.2065157369512894  0.5656849653579422
  0.1871702184779604  0.9553584130536732  0.4783124909955214
  0.6871785371021066  0.9561660739927414  0.5657758041767369
  0.4354128405956924  0.7890817932694084  0.6103663656918371
  0.6830187855357894  0.6152541329849571  0.1667905852185289
  0.3160424841228880  0.8727684803297980  0.3004027245252010
  0.3121206888691163  0.7048106604366957  0.4782053010587215
  0.9352652297992355  0.2885142988723725  0.6104149495768271
  0.4414837818249640  0.6229033532384541  0.3004908524506860
  0.8073806506494806  0.8657623852262512  0.1667077709607869
  0.5644668171803348  0.2041146599285730  0.2118633643270326
  0.9336512672660827  0.6149227597568967  0.1668282290222198
  0.4371999372986663  0.9549614123788580  0.4783021296859808
  0.5615751758629886  0.3729695539098234  0.7882135988099165
  0.0616781113205382  0.3728210315652617  0.5216930042841140
  0.3075386088384557  0.3650364782399343  0.1666838581318806
  0.6912204356808599  0.1231275133830642  0.3003739614772634
  0.4408958541332478  0.9604579657875417  0.8335189882835566
  0.1855169375407536  0.2847133362546329  0.1249339710856551
  0.1859605823539243  0.2875002508949603  0.2561209925580570
  0.3127686314464004  0.3712556606248023  0.4342989399315239
  0.5616404471188883  0.0334261140718292  0.1248037254495785
  0.4353055305874828  0.2888857579150915  0.6103916239161938
  0.1866809198669918  0.4541256419194848  0.3452155490227387
  0.4344142251593864  0.2848003825294282  0.1249447949451175
  0.6864321029682013  0.7885556883801984  0.2561146507950982
  0.4368125629368758  0.1228302352972913  0.5216687417536607
  0.1891789217004111  0.2924177789064905  0.8755925144693725
  0.1891373878571758  0.1243750307347174  0.6549032531559874
  0.9392788156415518  0.1236568819012665  0.6548351461978658
  0.8149919153890051  0.5377002028218320  0.3894784903087338
  0.0649574592439508  0.0379467832416757  0.3894424417962375
  0.1829813180998236  0.1153021911169091  0.1665875498417377
  0.0606914492339131  0.5387802079577056  0.6104130371731487
  0.9359075048315808  0.2880185943296865  0.2560312780833776
  0.5603124974420525  0.5391554910241861  0.6103545680709263
  0.9368712580768792  0.9556842193678888  0.5657724426323054
  0.6912608727870543  0.6235849516594456  0.3004126349596528
  0.9376532769614754  0.6212192803645928  0.4342524018293278
  0.9361914453475224  0.6245655834460511  0.7880882027520308
  0.5613885347519888  0.7072313159252664  0.6995999679550368
  0.0648644949035851  0.7126433919484184  0.8334734757389053
  0.9410491422567394  0.1231017066587016  0.3003106519443459
  0.9354237099501380  0.7887352084132568  0.6104875326939855
  0.4363195198580602  0.7884538050527087  0.2561883689795191
  0.3112732305109817  0.3725090600462252  0.7881643220642740
  0.4393945392401584  0.4546503641923194  0.2118525937513223
  0.1868651044907931  0.1222862840297379  0.5216793584616526
  0.8115285257849131  0.7078395739135527  0.6996545560684132
  0.0601425067490248  0.0388960532812907  0.6103666681018911
  0.5649161280036408  0.2107737305199490  0.8332817118731467
  0.3116880160384097  0.8718702978154428  0.5217713679814044
  0.6849907229752046  0.2847257460829233  0.1247478699727857
  0.1878121039467991  0.9550802428654346  0.2119530132017253
  0.6854950938175900  0.2889234567339954  0.6104898535781604
  0.3102548617273028  0.0390136382219932  0.6104836822770295
  0.9364221477824293  0.1245052442212696  0.7881604704096031
  0.4375079367260954  0.7925972353517734  0.8753624232691036
  0.8141499245514393  0.0407846113170617  0.7439007046317631
  0.9365144357364272  0.4573534310323098  0.6995898544748983
  0.1889981821334268  0.6241713513189979  0.6548489728431859
  0.3116738100546372  0.7071536442430844  0.6995405759602297
  0.9343141923140529  0.2840904372599891  0.1248133509602024
  0.4372105596950056  0.4546899484843717  0.4781599591211744
  0.0622516171779592  0.7042501345191149  0.4782639462339549
  0.9374004007360702  0.1210567591596912  0.4345605346679624
  0.4414952393637138  0.1225853388588992  0.3004365794356270
  0.1875652283101918  0.1206574224122693  0.4341511004900631
  0.5643024682203335  0.0430541640789260  0.8753810829553551
  0.1864133367936777  0.9563958370489977  0.5657745956844928
  0.6849837923505080  0.7848363943740533  0.1250858252376709
  0.5614701128321121  0.7036869666579666  0.3451607873140948
  0.3149413869542800  0.0375807940109947  0.3894362092181521
  0.6841267490583087  0.1163195727834534  0.1669377597228711
  0.8140890721587373  0.2038322351156550  0.2118937075829416
  0.0609133145399191  0.5386228222166063  0.2559731696244258
  0.5623541790279905  0.7048227790048530  0.4782080191758754
  0.4344931505743930  0.7841360484949464  0.1245795752761450
  0.5663115740036136  0.3731186460059270  0.3003827868432468
  0.4364529655510562  0.9533644565074538  0.3450980890773313
  0.1864469294935389  0.9576404219982407  0.6996145541323111
  0.4330953956271442  0.6166742345482511  0.1667676486407696
  0.9389392762441419  0.4549924569856446  0.2120601556871164
  0.0605979892539527  0.5329069663635895  0.1246816747141349
  0.8118600473931649  0.3727722399937582  0.5217006243552034
  0.9411094095010013  0.6239301790151343  0.3002069526620930
  0.3112200784663517  0.0376553962120734  0.2561124587923284
  0.6855827914210668  0.7889496551284624  0.6104223423744410
  0.1901181818100258  0.4614907470719242  0.8335508771722513
  0.4337264994616529  0.1154154765431273  0.1667955261219133
  0.3115859285502053  0.3725161674981374  0.5217610080608417
  0.4364116722571730  0.6234235225021006  0.7882909485882934
  0.0608368326730718  0.0378638716162102  0.2560065141891146
  0.5615702110679665  0.7062012488930731  0.5657207376665608
  0.9389347106346800  0.2900230596286507  0.7440042942394335
  0.6862034463946708  0.1236087948693805  0.7880440903199333
  0.1875371354701602  0.4548190447148868  0.2118000946126422
  0.9394668290240963  0.7872985931442591  0.3894350081481767
  0.6871651019992439  0.2930733155150176  0.8754389851840015
  0.5574818017807862  0.8665106539047245  0.1667175472690827
  0.4366040685240747  0.4572599534947576  0.6995515315595542
  0.9369982605365103  0.9534286207688051  0.3451068618876912
  0.6864040612792973  0.6226993177636078  0.5216891996697752
  0.0638365584068354  0.8742729039158775  0.6548469978587317
  0.0616417300580057  0.8735247014941314  0.7882356878324053
  0.0640929192189591  0.3740635471935218  0.6548295401771378
  0.6872488562516788  0.4545251819124125  0.4781440485132167
  0.1857715911581865  0.7886275206195351  0.2561794128189351
  0.4374233236924864  0.1210699444682982  0.4343062100465215
  0.8111891716380930  0.0340851857302878  0.1248826988458346
  0.9366014357279860  0.6225164825868751  0.5217145227756771
  0.4392506093267722  0.1239206237367752  0.6548600501968561
  0.8111173372457450  0.5339605452902210  0.1245068800379096
  0.4366898686958911  0.4539177709163820  0.3451313676885472
  0.8115288455918352  0.2032701728878760  0.3450994146546192
  0.3119231540693123  0.7040025358296840  0.3450629870824197
  0.6892848531396776  0.1236074227256844  0.6548829445725156
  0.5662329856220450  0.8733538986064796  0.3003311513079779
  0.0634415747472281  0.5402391593472351  0.7439677546423339
  0.9388908437238036  0.9543532439270873  0.2118942091045955
  0.8140647677047212  0.7041224798840037  0.2118319083857466
  0.0662763720509677  0.8731240634972978  0.3003462927236508
  0.1913089004111352  0.1229364686076433  0.3003041416345600
  0.0616077455220803  0.7040251130235656  0.3451010199178577
  0.8108302403953780  0.0388641304133910  0.6104236112376812
  0.0623971412873703  0.3711712370028072  0.4341945261569151
  0.5616075044879464  0.2030521302327489  0.3451079594971788
  0.8159347567839292  0.3733420834954080  0.3002030917175708
  0.5616784638882966  0.0380203538327108  0.2561569362979820
  0.5643276409683559  0.5376266360083291  0.3894696429473843
  0.0624495163855012  0.2048178105358875  0.4783194887018830
  0.3115696572717356  0.8725679922153250  0.7879984140984456
  0.9363435930889809  0.9577403952473853  0.6995564913092246
  0.0663320737560966  0.3731510054485267  0.3004608470537425
  0.6892179990518031  0.6248089183353964  0.6548736476172103
  0.6867161188945963  0.4561560728580404  0.5657261724454683
  0.4393849828139533  0.9552211374712266  0.2121199075547625
  0.3122063948077480  0.2045514202672958  0.4782336943991025
  0.8135004177365681  0.5435479211050742  0.8752524048910019
  0.6875345312786836  0.6208324684774464  0.4342334394939809
  0.8117231780946534  0.2070810583649746  0.6996038939298574
  0.8124406139036460  0.7048877386628684  0.4782084830312657
  0.8119670347519607  0.8707024104157212  0.4342300051995707
  0.9371639784386993  0.9546518222764786  0.4783214722608192
  0.5623558671329900  0.2045931765743122  0.4782472651611270
  0.1875993434612269  0.6209663369584436  0.4343104243197717
  0.3138677667456855  0.0409952082880660  0.7440127847507220
  0.9391941423468526  0.6247993782316794  0.6548408618528170
  0.5651738731934270  0.7109828444409543  0.8332483300834466
  0.3162763766240556  0.3728514957642839  0.3004350071160357
  0.5645517091825076  0.7044942039005450  0.2118169760494716
  0.1872165569035220  0.4547204287724708  0.4782716561212005
  0.3151083340273529  0.0444097094213913  0.8753042950238180
  0.1863592766240155  0.4572995739347251  0.6995411730297294
  0.5618506564947900  0.3727224325702609  0.5216839415795105
  0.1894312255357858  0.2877646496387154  0.3895431334206569
  0.4373007341858625  0.6207357357101426  0.4342695683551900
  0.0635160891349623  0.7041800411812301  0.2117936612461199
  0.5622446929135587  0.3711753623314674  0.4343393897091342
  0.4367982138610980  0.6227349149368382  0.5217236215209194
  0.8155377677295572  0.7118365680040375  0.8331438243935203
  0.0617431194829901  0.3739657222921566  0.7881487386114034
  0.4372793068594950  0.2929416498683532  0.8755367296692844
  0.3110696508596619  0.0340980604389375  0.1243341634119650
  0.6875130405076739  0.1213410723384547  0.4342731564823760
  0.1865213641929770  0.9532656022382074  0.3450901261083358
  0.0649940138069399  0.2112908370256048  0.8333492841894048
  0.5607419462246318  0.0388435958163561  0.6104121761550148
  0.6881557338183222  0.4548453023586266  0.2120170625219791
  0.1885935238805891  0.7907647643250557  0.7439873506339232
  0.1912742242763824  0.6232091265650900  0.3003375832342343
  0.4400483417769998  0.7873046768938794  0.3894292334193886
  0.4363999009472727  0.2878259888631229  0.2560566732064979
  0.0654467781952163  0.5430368553499741  0.8753282477307734
  0.5648704922821717  0.0409556412207253  0.7439976736842551
  0.1882876441579701  0.7925195563619513  0.8755261597715052
  0.9370694133891848  0.4543685430289033  0.4782523934422552
  0.5646640454129334  0.5412961226519909  0.7439395023814690
  0.8116256110331738  0.2065310822817377  0.5657525978321079
  0.1864206399837877  0.6236759708166367  0.7881556175164087
  0.0653345470594850  0.5382933180722452  0.3895386203177676
  0.0615901378549582  0.7076697155239688  0.6996053719922306
  0.3106093378815969  0.5377523190630640  0.2558472440213405
  0.3142209214771683  0.7043489365745137  0.2119598815890651
  0.3069783294236632  0.8660816020831138  0.1661634464167482
  0.3143883502023124  0.2046635464371458  0.2119938089451272
  0.8158405830263198  0.0378272280864914  0.3893935252327227
  0.9365801747444856  0.2936518353975702  0.8754500939224380
  0.9376899402185201  0.7906697211326832  0.8753384463531244
  0.0655717110263347  0.0421155310084612  0.8752542402425814
  0.3142920573014492  0.3742711257766268  0.6546834902946689
  0.8072341640851215  0.3665137622022595  0.1662995550919578
  0.0617389982431010  0.8710953131487381  0.4342519602058404
  0.9370496394454694  0.1227692866122474  0.5216123886784041
  0.1901659169609533  0.7869705595543758  0.3891967621182004
  0.3142388008812704  0.5406407872813391  0.7441072314432131
 
  0.00000000E+00  0.00000000E+00  0.00000000E+00
  0.00000000E+00  0.00000000E+00  0.00000000E+00
  0.00000000E+00  0.00000000E+00  0.00000000E+00
  0.00000000E+00  0.00000000E+00  0.00000000E+00
  0.00000000E+00  0.00000000E+00  0.00000000E+00
  0.00000000E+00  0.00000000E+00  0.00000000E+00
  0.00000000E+00  0.00000000E+00  0.00000000E+00
  0.00000000E+00  0.00000000E+00  0.00000000E+00
  0.00000000E+00  0.00000000E+00  0.00000000E+00
  0.00000000E+00  0.00000000E+00  0.00000000E+00
  0.00000000E+00  0.00000000E+00  0.00000000E+00
  0.00000000E+00  0.00000000E+00  0.00000000E+00
  0.00000000E+00  0.00000000E+00  0.00000000E+00
  0.00000000E+00  0.00000000E+00  0.00000000E+00
  0.00000000E+00  0.00000000E+00  0.00000000E+00
  0.00000000E+00  0.00000000E+00  0.00000000E+00
  0.00000000E+00  0.00000000E+00  0.00000000E+00
  0.00000000E+00  0.00000000E+00  0.00000000E+00
  0.00000000E+00  0.00000000E+00  0.00000000E+00
  0.00000000E+00  0.00000000E+00  0.00000000E+00
  0.00000000E+00  0.00000000E+00  0.00000000E+00
  0.00000000E+00  0.00000000E+00  0.00000000E+00
  0.00000000E+00  0.00000000E+00  0.00000000E+00
  0.00000000E+00  0.00000000E+00  0.00000000E+00
  0.00000000E+00  0.00000000E+00  0.00000000E+00
  0.00000000E+00  0.00000000E+00  0.00000000E+00
  0.00000000E+00  0.00000000E+00  0.00000000E+00
  0.00000000E+00  0.00000000E+00  0.00000000E+00
  0.00000000E+00  0.00000000E+00  0.00000000E+00
  0.00000000E+00  0.00000000E+00  0.00000000E+00
  0.00000000E+00  0.00000000E+00  0.00000000E+00
  0.00000000E+00  0.00000000E+00  0.00000000E+00
  0.00000000E+00  0.00000000E+00  0.00000000E+00
  0.00000000E+00  0.00000000E+00  0.00000000E+00
  0.00000000E+00  0.00000000E+00  0.00000000E+00
  0.00000000E+00  0.00000000E+00  0.00000000E+00
  0.00000000E+00  0.00000000E+00  0.00000000E+00
  0.00000000E+00  0.00000000E+00  0.00000000E+00
  0.00000000E+00  0.00000000E+00  0.00000000E+00
  0.00000000E+00  0.00000000E+00  0.00000000E+00
  0.00000000E+00  0.00000000E+00  0.00000000E+00
  0.00000000E+00  0.00000000E+00  0.00000000E+00
  0.00000000E+00  0.00000000E+00  0.00000000E+00
  0.00000000E+00  0.00000000E+00  0.00000000E+00
  0.00000000E+00  0.00000000E+00  0.00000000E+00
  0.00000000E+00  0.00000000E+00  0.00000000E+00
  0.00000000E+00  0.00000000E+00  0.00000000E+00
  0.00000000E+00  0.00000000E+00  0.00000000E+00
  0.00000000E+00  0.00000000E+00  0.00000000E+00
  0.00000000E+00  0.00000000E+00  0.00000000E+00
  0.00000000E+00  0.00000000E+00  0.00000000E+00
  0.00000000E+00  0.00000000E+00  0.00000000E+00
  0.00000000E+00  0.00000000E+00  0.00000000E+00
  0.00000000E+00  0.00000000E+00  0.00000000E+00
  0.00000000E+00  0.00000000E+00  0.00000000E+00
  0.00000000E+00  0.00000000E+00  0.00000000E+00
  0.00000000E+00  0.00000000E+00  0.00000000E+00
  0.00000000E+00  0.00000000E+00  0.00000000E+00
  0.00000000E+00  0.00000000E+00  0.00000000E+00
  0.00000000E+00  0.00000000E+00  0.00000000E+00
  0.00000000E+00  0.00000000E+00  0.00000000E+00
  0.00000000E+00  0.00000000E+00  0.00000000E+00
  0.00000000E+00  0.00000000E+00  0.00000000E+00
  0.00000000E+00  0.00000000E+00  0.00000000E+00
  0.00000000E+00  0.00000000E+00  0.00000000E+00
  0.00000000E+00  0.00000000E+00  0.00000000E+00
  0.00000000E+00  0.00000000E+00  0.00000000E+00
  0.00000000E+00  0.00000000E+00  0.00000000E+00
  0.00000000E+00  0.00000000E+00  0.00000000E+00
  0.00000000E+00  0.00000000E+00  0.00000000E+00
  0.00000000E+00  0.00000000E+00  0.00000000E+00
  0.00000000E+00  0.00000000E+00  0.00000000E+00
  0.00000000E+00  0.00000000E+00  0.00000000E+00
  0.00000000E+00  0.00000000E+00  0.00000000E+00
  0.00000000E+00  0.00000000E+00  0.00000000E+00
  0.00000000E+00  0.00000000E+00  0.00000000E+00
  0.00000000E+00  0.00000000E+00  0.00000000E+00
  0.00000000E+00  0.00000000E+00  0.00000000E+00
  0.00000000E+00  0.00000000E+00  0.00000000E+00
  0.00000000E+00  0.00000000E+00  0.00000000E+00
  0.00000000E+00  0.00000000E+00  0.00000000E+00
  0.00000000E+00  0.00000000E+00  0.00000000E+00
  0.00000000E+00  0.00000000E+00  0.00000000E+00
  0.00000000E+00  0.00000000E+00  0.00000000E+00
  0.00000000E+00  0.00000000E+00  0.00000000E+00
  0.00000000E+00  0.00000000E+00  0.00000000E+00
  0.00000000E+00  0.00000000E+00  0.00000000E+00
  0.00000000E+00  0.00000000E+00  0.00000000E+00
  0.00000000E+00  0.00000000E+00  0.00000000E+00
  0.00000000E+00  0.00000000E+00  0.00000000E+00
  0.00000000E+00  0.00000000E+00  0.00000000E+00
  0.00000000E+00  0.00000000E+00  0.00000000E+00
  0.00000000E+00  0.00000000E+00  0.00000000E+00
  0.00000000E+00  0.00000000E+00  0.00000000E+00
  0.00000000E+00  0.00000000E+00  0.00000000E+00
  0.00000000E+00  0.00000000E+00  0.00000000E+00
  0.00000000E+00  0.00000000E+00  0.00000000E+00
  0.00000000E+00  0.00000000E+00  0.00000000E+00
  0.00000000E+00  0.00000000E+00  0.00000000E+00
  0.00000000E+00  0.00000000E+00  0.00000000E+00
  0.00000000E+00  0.00000000E+00  0.00000000E+00
  0.00000000E+00  0.00000000E+00  0.00000000E+00
  0.00000000E+00  0.00000000E+00  0.00000000E+00
  0.00000000E+00  0.00000000E+00  0.00000000E+00
  0.00000000E+00  0.00000000E+00  0.00000000E+00
  0.00000000E+00  0.00000000E+00  0.00000000E+00
  0.00000000E+00  0.00000000E+00  0.00000000E+00
  0.00000000E+00  0.00000000E+00  0.00000000E+00
  0.00000000E+00  0.00000000E+00  0.00000000E+00
  0.00000000E+00  0.00000000E+00  0.00000000E+00
  0.00000000E+00  0.00000000E+00  0.00000000E+00
  0.00000000E+00  0.00000000E+00  0.00000000E+00
  0.00000000E+00  0.00000000E+00  0.00000000E+00
  0.00000000E+00  0.00000000E+00  0.00000000E+00
  0.00000000E+00  0.00000000E+00  0.00000000E+00
  0.00000000E+00  0.00000000E+00  0.00000000E+00
  0.00000000E+00  0.00000000E+00  0.00000000E+00
  0.00000000E+00  0.00000000E+00  0.00000000E+00
  0.00000000E+00  0.00000000E+00  0.00000000E+00
  0.00000000E+00  0.00000000E+00  0.00000000E+00
  0.00000000E+00  0.00000000E+00  0.00000000E+00
  0.00000000E+00  0.00000000E+00  0.00000000E+00
  0.00000000E+00  0.00000000E+00  0.00000000E+00
  0.00000000E+00  0.00000000E+00  0.00000000E+00
  0.00000000E+00  0.00000000E+00  0.00000000E+00
  0.00000000E+00  0.00000000E+00  0.00000000E+00
  0.00000000E+00  0.00000000E+00  0.00000000E+00
  0.00000000E+00  0.00000000E+00  0.00000000E+00
  0.00000000E+00  0.00000000E+00  0.00000000E+00
  0.00000000E+00  0.00000000E+00  0.00000000E+00
  0.00000000E+00  0.00000000E+00  0.00000000E+00
  0.00000000E+00  0.00000000E+00  0.00000000E+00
  0.00000000E+00  0.00000000E+00  0.00000000E+00
  0.00000000E+00  0.00000000E+00  0.00000000E+00
  0.00000000E+00  0.00000000E+00  0.00000000E+00
  0.00000000E+00  0.00000000E+00  0.00000000E+00
  0.00000000E+00  0.00000000E+00  0.00000000E+00
  0.00000000E+00  0.00000000E+00  0.00000000E+00
  0.00000000E+00  0.00000000E+00  0.00000000E+00
  0.00000000E+00  0.00000000E+00  0.00000000E+00
  0.00000000E+00  0.00000000E+00  0.00000000E+00
  0.00000000E+00  0.00000000E+00  0.00000000E+00
  0.00000000E+00  0.00000000E+00  0.00000000E+00
  0.00000000E+00  0.00000000E+00  0.00000000E+00
  0.00000000E+00  0.00000000E+00  0.00000000E+00
  0.00000000E+00  0.00000000E+00  0.00000000E+00
  0.00000000E+00  0.00000000E+00  0.00000000E+00
  0.00000000E+00  0.00000000E+00  0.00000000E+00
  0.00000000E+00  0.00000000E+00  0.00000000E+00
  0.00000000E+00  0.00000000E+00  0.00000000E+00
  0.00000000E+00  0.00000000E+00  0.00000000E+00
  0.00000000E+00  0.00000000E+00  0.00000000E+00
  0.00000000E+00  0.00000000E+00  0.00000000E+00
  0.00000000E+00  0.00000000E+00  0.00000000E+00
  0.00000000E+00  0.00000000E+00  0.00000000E+00
  0.00000000E+00  0.00000000E+00  0.00000000E+00
  0.00000000E+00  0.00000000E+00  0.00000000E+00
  0.00000000E+00  0.00000000E+00  0.00000000E+00
  0.00000000E+00  0.00000000E+00  0.00000000E+00
  0.00000000E+00  0.00000000E+00  0.00000000E+00
  0.00000000E+00  0.00000000E+00  0.00000000E+00
  0.00000000E+00  0.00000000E+00  0.00000000E+00
  0.00000000E+00  0.00000000E+00  0.00000000E+00
  0.00000000E+00  0.00000000E+00  0.00000000E+00
  0.00000000E+00  0.00000000E+00  0.00000000E+00
  0.00000000E+00  0.00000000E+00  0.00000000E+00
  0.00000000E+00  0.00000000E+00  0.00000000E+00
  0.00000000E+00  0.00000000E+00  0.00000000E+00
  0.00000000E+00  0.00000000E+00  0.00000000E+00
  0.00000000E+00  0.00000000E+00  0.00000000E+00
  0.00000000E+00  0.00000000E+00  0.00000000E+00
  0.00000000E+00  0.00000000E+00  0.00000000E+00
  0.00000000E+00  0.00000000E+00  0.00000000E+00
  0.00000000E+00  0.00000000E+00  0.00000000E+00
  0.00000000E+00  0.00000000E+00  0.00000000E+00
  0.00000000E+00  0.00000000E+00  0.00000000E+00
  0.00000000E+00  0.00000000E+00  0.00000000E+00
  0.00000000E+00  0.00000000E+00  0.00000000E+00
  0.00000000E+00  0.00000000E+00  0.00000000E+00
  0.00000000E+00  0.00000000E+00  0.00000000E+00
  0.00000000E+00  0.00000000E+00  0.00000000E+00
  0.00000000E+00  0.00000000E+00  0.00000000E+00
  0.00000000E+00  0.00000000E+00  0.00000000E+00
  0.00000000E+00  0.00000000E+00  0.00000000E+00
  0.00000000E+00  0.00000000E+00  0.00000000E+00
  0.00000000E+00  0.00000000E+00  0.00000000E+00
  0.00000000E+00  0.00000000E+00  0.00000000E+00
  0.00000000E+00  0.00000000E+00  0.00000000E+00
  0.00000000E+00  0.00000000E+00  0.00000000E+00
  0.00000000E+00  0.00000000E+00  0.00000000E+00
  0.00000000E+00  0.00000000E+00  0.00000000E+00
  0.00000000E+00  0.00000000E+00  0.00000000E+00
  0.00000000E+00  0.00000000E+00  0.00000000E+00
  0.00000000E+00  0.00000000E+00  0.00000000E+00
  0.00000000E+00  0.00000000E+00  0.00000000E+00
  0.00000000E+00  0.00000000E+00  0.00000000E+00
  0.00000000E+00  0.00000000E+00  0.00000000E+00
  0.00000000E+00  0.00000000E+00  0.00000000E+00
  0.00000000E+00  0.00000000E+00  0.00000000E+00
  0.00000000E+00  0.00000000E+00  0.00000000E+00
  0.00000000E+00  0.00000000E+00  0.00000000E+00
  0.00000000E+00  0.00000000E+00  0.00000000E+00
  0.00000000E+00  0.00000000E+00  0.00000000E+00
  0.00000000E+00  0.00000000E+00  0.00000000E+00
  0.00000000E+00  0.00000000E+00  0.00000000E+00
  0.00000000E+00  0.00000000E+00  0.00000000E+00
  0.00000000E+00  0.00000000E+00  0.00000000E+00
  0.00000000E+00  0.00000000E+00  0.00000000E+00
  0.00000000E+00  0.00000000E+00  0.00000000E+00
  0.00000000E+00  0.00000000E+00  0.00000000E+00
  0.00000000E+00  0.00000000E+00  0.00000000E+00
  0.00000000E+00  0.00000000E+00  0.00000000E+00
  0.00000000E+00  0.00000000E+00  0.00000000E+00
  0.00000000E+00  0.00000000E+00  0.00000000E+00
  0.00000000E+00  0.00000000E+00  0.00000000E+00
  0.00000000E+00  0.00000000E+00  0.00000000E+00
  0.00000000E+00  0.00000000E+00  0.00000000E+00
  0.00000000E+00  0.00000000E+00  0.00000000E+00
  0.00000000E+00  0.00000000E+00  0.00000000E+00
  0.00000000E+00  0.00000000E+00  0.00000000E+00
  0.00000000E+00  0.00000000E+00  0.00000000E+00
  0.00000000E+00  0.00000000E+00  0.00000000E+00
  0.00000000E+00  0.00000000E+00  0.00000000E+00
  0.00000000E+00  0.00000000E+00  0.00000000E+00
  0.00000000E+00  0.00000000E+00  0.00000000E+00
  0.00000000E+00  0.00000000E+00  0.00000000E+00
  0.00000000E+00  0.00000000E+00  0.00000000E+00
  0.00000000E+00  0.00000000E+00  0.00000000E+00
  0.00000000E+00  0.00000000E+00  0.00000000E+00
  0.00000000E+00  0.00000000E+00  0.00000000E+00
  0.00000000E+00  0.00000000E+00  0.00000000E+00
  0.00000000E+00  0.00000000E+00  0.00000000E+00
  0.00000000E+00  0.00000000E+00  0.00000000E+00
  0.00000000E+00  0.00000000E+00  0.00000000E+00
  0.00000000E+00  0.00000000E+00  0.00000000E+00
  0.00000000E+00  0.00000000E+00  0.00000000E+00
  0.00000000E+00  0.00000000E+00  0.00000000E+00
  0.00000000E+00  0.00000000E+00  0.00000000E+00
  0.00000000E+00  0.00000000E+00  0.00000000E+00
  0.00000000E+00  0.00000000E+00  0.00000000E+00
  0.00000000E+00  0.00000000E+00  0.00000000E+00
  0.00000000E+00  0.00000000E+00  0.00000000E+00
  0.00000000E+00  0.00000000E+00  0.00000000E+00
  0.00000000E+00  0.00000000E+00  0.00000000E+00
  0.00000000E+00  0.00000000E+00  0.00000000E+00
  0.00000000E+00  0.00000000E+00  0.00000000E+00
  0.00000000E+00  0.00000000E+00  0.00000000E+00