FeMn_288_15                             
    1.000000000000000     
     9.7266779999999997    0.0000000000000000    0.0000000000000000
     0.0000000000000000    8.4235500000000005    0.0000000000000000
     0.0000000000000000    0.0000000000000000   45.0000000000000000
   Fe   Mn
   273    15
Direct
  0.4374269010675615  0.7929728725635754  0.8733192957806909
  0.0631333631205848  0.5422284979305800  0.8732932364978201
  0.4377311997491641  0.6256923515329994  0.7863957240530387
  0.3123524824727430  0.0419064387648029  0.7422738669675508
  0.4370755440638296  0.9590416551526294  0.8311987064333144
  0.8128223593825138  0.3726805495914718  0.5213624564850505
  0.8125568228228559  0.0364345281073702  0.1267071232912169
  0.8126210006474355  0.2083079575623643  0.6982424020471079
  0.9375663090231200  0.9567288648108652  0.5652498633044950
  0.8125204518498235  0.8757712622546934  0.7864485523440414
  0.0622845110972720  0.3724863752295923  0.5213435512096088
  0.6870977233019302  0.1211466260934199  0.4347752142416869
  0.1879581081660501  0.6225117949770476  0.5212917456585273
  0.6873971317018227  0.1226457443176028  0.5212299931950620
  0.1877252461707176  0.1213133951292923  0.4347965934009231
  0.9376455240625352  0.2876104879863316  0.3902010662556950
  0.1875266780900569  0.6238522934065086  0.6537154322449656
  0.5623140903170735  0.2083360568678025  0.6981771445355237
  0.5623569924641898  0.3708834250076613  0.4346536156651616
  0.8127712011507416  0.5408043887136882  0.6098094935591777
  0.5621519880228184  0.3755842859347592  0.7863494276373024
  0.8125332129498151  0.8691587162224674  0.3017882000261379
  0.4378255822583002  0.1195944080659313  0.3018866296294785
  0.4372125672196018  0.6211352731599858  0.4346688078224425
  0.3125574497552316  0.7095696631712582  0.8311778580238666
  0.1874017520779590  0.9564542175657824  0.5652487018465926
  0.1874882876673559  0.7902174499781837  0.6098302660407903
  0.3124885913734480  0.2083420216926380  0.6982933547753766
  0.0629165785719209  0.7065884249131267  0.5647823355119060
  0.0620012667200775  0.8682869744586219  0.1687375262183297
  0.5619159216721150  0.2064208332932196  0.5651613909304984
  0.9376406647338460  0.2859423388465872  0.2576921914633044
  0.9375399284691370  0.6221535511985863  0.5212369180744045
  0.4374307094358371  0.7922514302796045  0.7422602537528118
  0.1877748671881199  0.2924932369338409  0.7422627666746970
  0.6872961781773139  0.4564282543596094  0.5651286628366701
  0.6875812439931427  0.4520000554551234  0.2136507308091236
  0.6874756495861807  0.9535716201006692  0.3462172860991405
  0.5625795623310375  0.5423438125215708  0.7422017337407282
  0.4376961577660846  0.4585476554372374  0.6982343997431818
  0.8125270539033226  0.0371727546260077  0.3901555060289714
  0.9373201525324841  0.6242231653369580  0.6538180815845498
  0.3124941427734355  0.0374223611250467  0.3901430170302970
  0.1875478601959671  0.9590299228079286  0.8310987401668538
  0.9371563337398100  0.2909758544579510  0.6098891019221607
  0.5620379956724747  0.2053332622688654  0.4785002750140991
  0.4374948376123381  0.1223508893584681  0.5212167239500100
  0.9375797009763046  0.1260471561564437  0.7864263867146225
  0.8128961348489319  0.0418446547153931  0.8733511557046026
  0.3124363777373553  0.7032354428189708  0.3462355731832030
  0.5624217328828088  0.8758374633559014  0.7865277959494533
  0.9374769715327849  0.4534093889172904  0.3462143475536664
  0.1873510150946440  0.7868911920385797  0.3901754061135271
  0.3125497288331343  0.3759665010460961  0.7864709135137367
  0.1878040055090024  0.9553851604270213  0.4785796697532509
  0.9374848845022080  0.4585501235871483  0.6982297990671357
  0.1881733543495714  0.6213378680951287  0.4347061148904354
  0.4370995587768295  0.6223112192439950  0.5214175683658889
  0.0628277526475706  0.3744890993522527  0.6538524550207250
  0.0625066120278906  0.5360416880374300  0.2578066288511653
  0.8124216634536986  0.7088085761962221  0.6982207505128557
  0.8125686374640735  0.0356535785190115  0.2577540933617010
  0.8120724180176376  0.5419093895518865  0.8735189850565270
  0.4375317149449042  0.1189624954313771  0.1688627532638633
  0.5626577636153811  0.0355374808463697  0.2577001774688004
  0.4374883295980985  0.4522214228060279  0.2136053887711635
  0.6873430017850543  0.6261516669345190  0.7864385747945875
  0.6871522317678139  0.1244829936241910  0.6536631538651151
  0.4374244179653985  0.2855421923961725  0.2577550408205678
  0.9375083669252982  0.4513832372112953  0.2137656768922560
  0.6875044182150826  0.1197614731612798  0.3017533569162069
  0.0625924450153876  0.0423147631350292  0.7423068833772363
  0.5627140485257656  0.7085050162735288  0.6982814021904852
  0.3125704221428814  0.8694458506225057  0.3018238780834019
  0.0625377798484683  0.7021909944717623  0.2135998597339734
  0.9374233073029627  0.7857766788454646  0.2576795953084828
  0.5620346273584901  0.3747894314518031  0.6537219046981728
  0.6874662783391152  0.9584769872186588  0.6981852868960411
  0.8127483365661685  0.0419898190031431  0.7423352184783764
  0.6879464109675366  0.6189978195783058  0.1687814383249675
  0.9373874592406780  0.6192597650522864  0.3017732333389786
  0.5625656322632125  0.3689083660911697  0.1689156180690004
  0.1872328624464556  0.1260323942253799  0.7864338612156231
  0.0624565037373236  0.0365042127632002  0.1266817862984319
  0.8129485737738558  0.8727178992242645  0.5213390255255250
  0.3124301444061558  0.0356871667939542  0.2576922628380552
  0.1876740785932991  0.2873565754248670  0.3901117878960094
  0.6876842407156064  0.4583656339731946  0.6982202019449638
  0.3128144237172095  0.2054985698516704  0.4785679229825562
  0.1875099788623723  0.2857978906256635  0.2577112676755259
  0.4373575828570108  0.1246770003508644  0.6537370135235576
  0.9379325503581238  0.9588632261459979  0.8312783993306310
  0.8123854273145109  0.0401816086880609  0.6097669018406722
  0.9373929428365148  0.9519858516717162  0.2135349482243514
  0.1879105549929949  0.9524935440799018  0.2137335687302970
  0.8123972440346308  0.2018931076614590  0.2136622737669910
  0.0622429216543705  0.8731662033986146  0.5212039428951304
  0.1877161077317205  0.2921239534624402  0.8733366605024764
  0.0625981600611837  0.2081011790310379  0.6982792468919219
  0.5622544035274223  0.8690365402666297  0.1689796574398864
  0.3122630275037778  0.0408656752009495  0.6098009471197720
  0.4374706760776366  0.7908710747690456  0.6098771403482812
  0.0624525872378344  0.3693508656578980  0.3017941333532005
  0.9374977931464628  0.1183802337137211  0.1686802329107342
  0.1876203181977356  0.9580113277639528  0.6982658008000422
  0.0626197652717713  0.2056877620568578  0.4785535773168382
  0.4375542841867125  0.1258450773817637  0.7864026713401424
  0.3126190840146098  0.2065422852202920  0.5650999843555210
  0.1876100955219542  0.2856591479338864  0.1266798382534193
  0.1876750228332090  0.4529845486562655  0.3460833840535224
  0.0624137940052570  0.0358183435223218  0.2577560246063305
  0.3122577934512173  0.2089447532076082  0.8312707126204650
  0.0626620450777724  0.7093338103496192  0.8311717135673234
  0.8123703095999580  0.7050992384979000  0.4786006120755595
  0.8124587629754749  0.7019890072467776  0.2136097411637544
  0.3125310213665198  0.8742335646762003  0.6536192575486144
  0.6876855373287845  0.7907678474713697  0.6097754321288349
  0.8131645942196127  0.8683848582017186  0.1688090194951182
  0.4374567139429272  0.9534576471983943  0.3462232542244778
  0.0626573114145209  0.0421977067450079  0.8733978652917952
  0.1877318162485308  0.1187638292136798  0.1689397197519116
  0.6873851360017501  0.2856177042126881  0.1266919452355402
  0.1878409000977169  0.7921660605034408  0.7422339021901752
  0.5623366779393406  0.8725247848464821  0.5212459187928781
  0.1873478938466133  0.1244030063793329  0.6537067665245497
  0.9373565857125551  0.1211455868300494  0.4347987998750127
  0.4375256417984754  0.2853754239133281  0.1267386323325556
  0.9377209140836414  0.1242959976633123  0.6537149150122188
  0.6871962808307414  0.6214804515859174  0.4350358865455232
  0.5625390531514701  0.0369652995702748  0.3901760565958053
  0.4373414742647309  0.4553566323827301  0.4785948489934692
  0.1875021546351183  0.7923302238930977  0.8733602006138815
  0.4375870688522220  0.7855665739884466  0.2576888235982291
  0.5620993836411955  0.8745621003392436  0.6537817118371594
  0.1873515190086106  0.4550564286109101  0.4785575507544069
  0.3124730040874064  0.3688957116359280  0.1689091815531145
  0.0624829648025601  0.8693112995605484  0.3018169942758369
  0.1874705500525310  0.6193619668138305  0.3017589798298984
  0.8124643241603727  0.2038776809736341  0.3462261961326736
  0.8124552139690869  0.5357087890261207  0.2577353017581084
  0.4378357035533397  0.2904788768379103  0.6097728487424791
  0.6876022651453406  0.7918776991267668  0.8733763742764140
  0.3123180938983459  0.5404430618109736  0.6098502797823312
  0.3123778117360337  0.0358252556326288  0.1267503000230104
  0.0625916295631409  0.3714529248927559  0.4348175040419188
  0.5624253437757940  0.2036314317161864  0.3462187704881350
  0.5623945313657609  0.7034697259662992  0.3461971661739095
  0.3121002910746442  0.5425690316684088  0.7423620274493840
  0.0624209461377473  0.2034318675042456  0.3462618278937311
  0.9373651535488537  0.6255718721023830  0.7864124877826321
  0.3126107949602532  0.2032398903594288  0.3462405193195802
  0.9375808474005222  0.7930686073638306  0.8732777992342468
  0.5630664724722316  0.5419931597773464  0.8734782907348481
  0.5621293396411415  0.7049423289028964  0.4786339459581407
  0.6874816485425760  0.6244815132008587  0.6537406510472070
  0.3117687447624344  0.5419281193144220  0.8732811954925065
  0.3124684924374886  0.3693550012932462  0.3018556821952918
  0.1874837548811187  0.7858596496320949  0.2578052453704534
  0.5626632424280333  0.5354408303895531  0.1266728894546453
  0.8125678903770309  0.3710375057130695  0.4346757267751183
  0.8125875277238547  0.3684308585236787  0.1689101503300382
  0.6875115154637047  0.2856110583571378  0.2577934187391602
  0.4376942008836149  0.6193634980940808  0.3017747186074029
  0.9373414368821645  0.7901262299637278  0.6098560978266994
  0.4375165825860414  0.6188755015680114  0.1688905896388928
  0.3125492486049306  0.7022460960218547  0.2136656956596704
  0.9371818329785258  0.1192539268184037  0.3019194376506196
  0.6867983603002884  0.7849566058427213  0.1266818333744522
  0.5624212123356611  0.8693235676709196  0.3017969857029140
  0.0626652300940277  0.8741924945099780  0.6536624061368693
  0.9374196978216889  0.9539111310623170  0.3461229068680393
  0.4377412091956478  0.4565928677350062  0.5652150967672913
  0.3124451735581094  0.0422508834942487  0.8733913616229176
  0.4376517208462701  0.1210470262764788  0.4347506848992059
  0.3125758618059015  0.5359004986984262  0.2578089068656923
  0.8127557040960399  0.3757337610622497  0.7863635655400809
  0.0625719573945807  0.3759235308818672  0.7865204032650800
  0.8127787347950861  0.5415956874524954  0.7423244712104337
  0.6874308274195726  0.2900613976891987  0.6098251705627784
  0.6872137105985507  0.2922652722242317  0.7422665712134507
  0.4374089914403366  0.4534153442541799  0.3462816585345554
  0.5621655872453427  0.8714081381016725  0.4347218215789086
  0.3124577918148222  0.7068219076710068  0.5652246296028918
  0.8123237919352747  0.5375297793630733  0.3901103767672072
  0.6870994924083326  0.9522945383755032  0.2137384509342595
  0.9376456605647615  0.9584128082253414  0.6982644480281964
  0.3124476685718977  0.8726106611265737  0.5212874755898919
  0.5622541931546895  0.3723952236397307  0.5213281909306750
  0.8118724817427497  0.7088522696575691  0.8311713242740845
  0.8128761708514517  0.2096260384427076  0.8313471076267591
  0.6873073375558716  0.4534635440808545  0.3462482169282547
  0.4374753982840381  0.2921732489132913  0.7423011524999018
  0.0623694028584870  0.7084202882596191  0.6981890992518865
  0.3126355708232094  0.7084339178688337  0.6982064148724900
  0.3122234107070109  0.8713465476546697  0.4348000761451530
  0.6875482513624259  0.7854358805000006  0.2577548634482911
  0.4374264734393106  0.2873068643784524  0.3901685517265464
  0.1874802484735671  0.9533872478830770  0.3462595590011266
  0.8129021897602744  0.8714378037051119  0.4346502669331833
  0.0625693882387782  0.8713959908720754  0.4347807798823049
  0.0625730561417580  0.7032279811548782  0.3462469653663990
  0.5625148819064351  0.2021801207644001  0.2136426177404550
  0.9376957453386502  0.1224376720413581  0.5212211111814214
  0.6873951158304256  0.2877507094855885  0.3900870309210074
  0.3126228246241597  0.8689743779545951  0.1688976813912798
  0.9374501907129889  0.7920060470312759  0.7423040840507372
  0.3123406409055086  0.5354076755640260  0.1266731216076649
  0.8126071198984027  0.7065610807905474  0.5653095812925185
  0.0625394158327164  0.5421664287283730  0.7422972632518793
  0.4370979191498072  0.9555532997749773  0.4785717838294711
  0.5625057713406495  0.3697836606708162  0.3018329320380728
  0.4375148243701563  0.7854926460410105  0.1266994893129716
  0.9372962510655670  0.2922412213373187  0.8733620261752142
  0.6873627635247548  0.9561251497744224  0.5648354067199308
  0.6875995311077666  0.2926438376476365  0.8735405679641940
  0.0626034014789211  0.5371711723490664  0.3901101700457448
  0.1876725010589116  0.4595259745501208  0.8312216520290280
  0.1882369859874934  0.7851171618136470  0.1266790757282443
  0.0624980890158323  0.8755970903301797  0.7864245943016774
  0.3126974145948631  0.5367243966706384  0.3900537930018334
  0.9374398519353097  0.4566123343701117  0.5652073606543683
  0.4373699518347666  0.9585833853425475  0.6981138495195668
  0.3125021455162444  0.2022837133616199  0.2136142849982574
  0.8126324194037510  0.3697162233778778  0.3018419076171848
  0.5630749145058310  0.7088613613545629  0.8312610532444236
  0.3125875128091841  0.8759208861584605  0.7864078648158844
  0.0622755152540214  0.0407041469970389  0.6098366987575401
  0.5616867503869695  0.7065398513534781  0.5652051049460850
  0.3122677520790558  0.3745014600439759  0.6537832077166382
  0.1874869498551265  0.4523302667664547  0.2135564690724308
  0.5625241752207178  0.5354812404436796  0.2577497798371759
  0.0625635538693106  0.2086458063993618  0.8311525645010808
  0.4371708773946815  0.7871669750764968  0.3900706919192189
  0.5626709394724529  0.5374699029157709  0.3900761474152846
  0.5621354196356287  0.0419164138934863  0.8733164435201073
  0.4376541432878834  0.9519510312706828  0.2135434695071200
  0.1870612541786698  0.6188953334807048  0.1688137830199008
  0.1875856094804997  0.1225699226934465  0.5212634893502399
  0.5625380645859792  0.2096908141572247  0.8311861051132007
  0.8125465946062493  0.2052567065956153  0.4786256467385381
  0.9375113930003715  0.2857757940532365  0.1266550029184961
  0.5624917893265780  0.7020976446790468  0.2136555475051028
  0.9380670492163824  0.7872145272443335  0.3900841051698506
  0.8125789886576463  0.3743689422116236  0.6537670385904771
  0.9375263406890152  0.4587333160470352  0.8312186768759813
  0.6872929467097945  0.7923535438348563  0.7422872978029963
  0.9378621851600373  0.4549248450355409  0.4784919383360875
  0.4375160748097713  0.4585463971656898  0.8312025931284516
  0.0634496896442476  0.5356565277857041  0.1266953294025472
  0.3124240099022241  0.3712312613137559  0.4347895800824504
  0.6876129526493425  0.9593463308513314  0.8311833371319697
  0.9375546181883936  0.9552087150406369  0.4785000191133617
  0.6872864036986188  0.1188684461286571  0.1689510108074028
  0.6875677797191218  0.4548867440707916  0.4786713017631808
  0.9375277034748259  0.6194659996465549  0.1687309322015539
  0.8124923885367706  0.7034598884567470  0.3461675399894283
  0.3127262413775027  0.3725612889565147  0.5212837628685558
  0.4373513381703752  0.9562709517208363  0.5650718009484682
  0.6876694220970913  0.1260207834583970  0.7864614437451573
  0.5623647417468588  0.5407606731600131  0.6098572791541570
  0.8115774869704417  0.5356709297981981  0.1266953630967781
  0.0626389564279429  0.2020096512763126  0.2136420393161818
  0.5626444934295491  0.0357145929314058  0.1267734930235486
  0.0624340103193463  0.3684800282018300  0.1688998886348030
  0.1875646385941490  0.6257350496772235  0.7864689313013222
  0.0626933926381721  0.2066204846169718  0.5650711389247969
  0.4375524760846934  0.6242262227676857  0.6537686988881483
  0.0624244966061036  0.0378751754744541  0.3901252600660836
  0.6875045774083253  0.6196120926565808  0.3017814754740965
  0.4375225989915715  0.2923429218533892  0.8733775090466425
  0.1873004082568203  0.4582651786800314  0.6982070470667422
  0.3129463050398914  0.7054808240929832  0.4785836046762750
  0.1872212724478783  0.4563985141570150  0.5651180436425969
  0.0625814516075847  0.5410152631500115  0.6099226723697345
  0.1878814606943188  0.2906804713729067  0.6098669088462240
  0.1874898922945789  0.1193412626626012  0.3018138775733831
  0.9374719328089277  0.7856416595252630  0.1269025374633064
  0.9368516286729016  0.6211100807171951  0.4344306930087285
  0.9372245228696440  0.2921828892970931  0.7423986250913072
  0.5624920554784922  0.0420329397654167  0.7423845515108919
  0.5631786641744071  0.0401520631348125  0.6099763835365243
  0.6874490838826873  0.6226063196411105  0.5212516146082325
  0.8122580233964195  0.2067629799394412  0.5651733252788028
  0.8121637646463041  0.8743829623390401  0.6536417726402051
  0.6877214570071211  0.9549375822492429  0.4786747248328276
  0.0624700460779608  0.7051636700442461  0.4787202435221112
  0.6874896634322771  0.4591301021005917  0.8318755833309051
  0.6877535851071241  0.7873858555250122  0.3900356624769452
 
  0.00000000E+00  0.00000000E+00  0.00000000E+00
  0.00000000E+00  0.00000000E+00  0.00000000E+00
  0.00000000E+00  0.00000000E+00  0.00000000E+00
  0.00000000E+00  0.00000000E+00  0.00000000E+00
  0.00000000E+00  0.00000000E+00  0.00000000E+00
  0.00000000E+00  0.00000000E+00  0.00000000E+00
  0.00000000E+00  0.00000000E+00  0.00000000E+00
  0.00000000E+00  0.00000000E+00  0.00000000E+00
  0.00000000E+00  0.00000000E+00  0.00000000E+00
  0.00000000E+00  0.00000000E+00  0.00000000E+00
  0.00000000E+00  0.00000000E+00  0.00000000E+00
  0.00000000E+00  0.00000000E+00  0.00000000E+00
  0.00000000E+00  0.00000000E+00  0.00000000E+00
  0.00000000E+00  0.00000000E+00  0.00000000E+00
  0.00000000E+00  0.00000000E+00  0.00000000E+00
  0.00000000E+00  0.00000000E+00  0.00000000E+00
  0.00000000E+00  0.00000000E+00  0.00000000E+00
  0.00000000E+00  0.00000000E+00  0.00000000E+00
  0.00000000E+00  0.00000000E+00  0.00000000E+00
  0.00000000E+00  0.00000000E+00  0.00000000E+00
  0.00000000E+00  0.00000000E+00  0.00000000E+00
  0.00000000E+00  0.00000000E+00  0.00000000E+00
  0.00000000E+00  0.00000000E+00  0.00000000E+00
  0.00000000E+00  0.00000000E+00  0.00000000E+00
  0.00000000E+00  0.00000000E+00  0.00000000E+00
  0.00000000E+00  0.00000000E+00  0.00000000E+00
  0.00000000E+00  0.00000000E+00  0.00000000E+00
  0.00000000E+00  0.00000000E+00  0.00000000E+00
  0.00000000E+00  0.00000000E+00  0.00000000E+00
  0.00000000E+00  0.00000000E+00  0.00000000E+00
  0.00000000E+00  0.00000000E+00  0.00000000E+00
  0.00000000E+00  0.00000000E+00  0.00000000E+00
  0.00000000E+00  0.00000000E+00  0.00000000E+00
  0.00000000E+00  0.00000000E+00  0.00000000E+00
  0.00000000E+00  0.00000000E+00  0.00000000E+00
  0.00000000E+00  0.00000000E+00  0.00000000E+00
  0.00000000E+00  0.00000000E+00  0.00000000E+00
  0.00000000E+00  0.00000000E+00  0.00000000E+00
  0.00000000E+00  0.00000000E+00  0.00000000E+00
  0.00000000E+00  0.00000000E+00  0.00000000E+00
  0.00000000E+00  0.00000000E+00  0.00000000E+00
  0.00000000E+00  0.00000000E+00  0.00000000E+00
  0.00000000E+00  0.00000000E+00  0.00000000E+00
  0.00000000E+00  0.00000000E+00  0.00000000E+00
  0.00000000E+00  0.00000000E+00  0.00000000E+00
  0.00000000E+00  0.00000000E+00  0.00000000E+00
  0.00000000E+00  0.00000000E+00  0.00000000E+00
  0.00000000E+00  0.00000000E+00  0.00000000E+00
  0.00000000E+00  0.00000000E+00  0.00000000E+00
  0.00000000E+00  0.00000000E+00  0.00000000E+00
  0.00000000E+00  0.00000000E+00  0.00000000E+00
  0.00000000E+00  0.00000000E+00  0.00000000E+00
  0.00000000E+00  0.00000000E+00  0.00000000E+00
  0.00000000E+00  0.00000000E+00  0.00000000E+00
  0.00000000E+00  0.00000000E+00  0.00000000E+00
  0.00000000E+00  0.00000000E+00  0.00000000E+00
  0.00000000E+00  0.00000000E+00  0.00000000E+00
  0.00000000E+00  0.00000000E+00  0.00000000E+00
  0.00000000E+00  0.00000000E+00  0.00000000E+00
  0.00000000E+00  0.00000000E+00  0.00000000E+00
  0.00000000E+00  0.00000000E+00  0.00000000E+00
  0.00000000E+00  0.00000000E+00  0.00000000E+00
  0.00000000E+00  0.00000000E+00  0.00000000E+00
  0.00000000E+00  0.00000000E+00  0.00000000E+00
  0.00000000E+00  0.00000000E+00  0.00000000E+00
  0.00000000E+00  0.00000000E+00  0.00000000E+00
  0.00000000E+00  0.00000000E+00  0.00000000E+00
  0.00000000E+00  0.00000000E+00  0.00000000E+00
  0.00000000E+00  0.00000000E+00  0.00000000E+00
  0.00000000E+00  0.00000000E+00  0.00000000E+00
  0.00000000E+00  0.00000000E+00  0.00000000E+00
  0.00000000E+00  0.00000000E+00  0.00000000E+00
  0.00000000E+00  0.00000000E+00  0.00000000E+00
  0.00000000E+00  0.00000000E+00  0.00000000E+00
  0.00000000E+00  0.00000000E+00  0.00000000E+00
  0.00000000E+00  0.00000000E+00  0.00000000E+00
  0.00000000E+00  0.00000000E+00  0.00000000E+00
  0.00000000E+00  0.00000000E+00  0.00000000E+00
  0.00000000E+00  0.00000000E+00  0.00000000E+00
  0.00000000E+00  0.00000000E+00  0.00000000E+00
  0.00000000E+00  0.00000000E+00  0.00000000E+00
  0.00000000E+00  0.00000000E+00  0.00000000E+00
  0.00000000E+00  0.00000000E+00  0.00000000E+00
  0.00000000E+00  0.00000000E+00  0.00000000E+00
  0.00000000E+00  0.00000000E+00  0.00000000E+00
  0.00000000E+00  0.00000000E+00  0.00000000E+00
  0.00000000E+00  0.00000000E+00  0.00000000E+00
  0.00000000E+00  0.00000000E+00  0.00000000E+00
  0.00000000E+00  0.00000000E+00  0.00000000E+00
  0.00000000E+00  0.00000000E+00  0.00000000E+00
  0.00000000E+00  0.00000000E+00  0.00000000E+00
  0.00000000E+00  0.00000000E+00  0.00000000E+00
  0.00000000E+00  0.00000000E+00  0.00000000E+00
  0.00000000E+00  0.00000000E+00  0.00000000E+00
  0.00000000E+00  0.00000000E+00  0.00000000E+00
  0.00000000E+00  0.00000000E+00  0.00000000E+00
  0.00000000E+00  0.00000000E+00  0.00000000E+00
  0.00000000E+00  0.00000000E+00  0.00000000E+00
  0.00000000E+00  0.00000000E+00  0.00000000E+00
  0.00000000E+00  0.00000000E+00  0.00000000E+00
  0.00000000E+00  0.00000000E+00  0.00000000E+00
  0.00000000E+00  0.00000000E+00  0.00000000E+00
  0.00000000E+00  0.00000000E+00  0.00000000E+00
  0.00000000E+00  0.00000000E+00  0.00000000E+00
  0.00000000E+00  0.00000000E+00  0.00000000E+00
  0.00000000E+00  0.00000000E+00  0.00000000E+00
  0.00000000E+00  0.00000000E+00  0.00000000E+00
  0.00000000E+00  0.00000000E+00  0.00000000E+00
  0.00000000E+00  0.00000000E+00  0.00000000E+00
  0.00000000E+00  0.00000000E+00  0.00000000E+00
  0.00000000E+00  0.00000000E+00  0.00000000E+00
  0.00000000E+00  0.00000000E+00  0.00000000E+00
  0.00000000E+00  0.00000000E+00  0.00000000E+00
  0.00000000E+00  0.00000000E+00  0.00000000E+00
  0.00000000E+00  0.00000000E+00  0.00000000E+00
  0.00000000E+00  0.00000000E+00  0.00000000E+00
  0.00000000E+00  0.00000000E+00  0.00000000E+00
  0.00000000E+00  0.00000000E+00  0.00000000E+00
  0.00000000E+00  0.00000000E+00  0.00000000E+00
  0.00000000E+00  0.00000000E+00  0.00000000E+00
  0.00000000E+00  0.00000000E+00  0.00000000E+00
  0.00000000E+00  0.00000000E+00  0.00000000E+00
  0.00000000E+00  0.00000000E+00  0.00000000E+00
  0.00000000E+00  0.00000000E+00  0.00000000E+00
  0.00000000E+00  0.00000000E+00  0.00000000E+00
  0.00000000E+00  0.00000000E+00  0.00000000E+00
  0.00000000E+00  0.00000000E+00  0.00000000E+00
  0.00000000E+00  0.00000000E+00  0.00000000E+00
  0.00000000E+00  0.00000000E+00  0.00000000E+00
  0.00000000E+00  0.00000000E+00  0.00000000E+00
  0.00000000E+00  0.00000000E+00  0.00000000E+00
  0.00000000E+00  0.00000000E+00  0.00000000E+00
  0.00000000E+00  0.00000000E+00  0.00000000E+00
  0.00000000E+00  0.00000000E+00  0.00000000E+00
  0.00000000E+00  0.00000000E+00  0.00000000E+00
  0.00000000E+00  0.00000000E+00  0.00000000E+00
  0.00000000E+00  0.00000000E+00  0.00000000E+00
  0.00000000E+00  0.00000000E+00  0.00000000E+00
  0.00000000E+00  0.00000000E+00  0.00000000E+00
  0.00000000E+00  0.00000000E+00  0.00000000E+00
  0.00000000E+00  0.00000000E+00  0.00000000E+00
  0.00000000E+00  0.00000000E+00  0.00000000E+00
  0.00000000E+00  0.00000000E+00  0.00000000E+00
  0.00000000E+00  0.00000000E+00  0.00000000E+00
  0.00000000E+00  0.00000000E+00  0.00000000E+00
  0.00000000E+00  0.00000000E+00  0.00000000E+00
  0.00000000E+00  0.00000000E+00  0.00000000E+00
  0.00000000E+00  0.00000000E+00  0.00000000E+00
  0.00000000E+00  0.00000000E+00  0.00000000E+00
  0.00000000E+00  0.00000000E+00  0.00000000E+00
  0.00000000E+00  0.00000000E+00  0.00000000E+00
  0.00000000E+00  0.00000000E+00  0.00000000E+00
  0.00000000E+00  0.00000000E+00  0.00000000E+00
  0.00000000E+00  0.00000000E+00  0.00000000E+00
  0.00000000E+00  0.00000000E+00  0.00000000E+00
  0.00000000E+00  0.00000000E+00  0.00000000E+00
  0.00000000E+00  0.00000000E+00  0.00000000E+00
  0.00000000E+00  0.00000000E+00  0.00000000E+00
  0.00000000E+00  0.00000000E+00  0.00000000E+00
  0.00000000E+00  0.00000000E+00  0.00000000E+00
  0.00000000E+00  0.00000000E+00  0.00000000E+00
  0.00000000E+00  0.00000000E+00  0.00000000E+00
  0.00000000E+00  0.00000000E+00  0.00000000E+00
  0.00000000E+00  0.00000000E+00  0.00000000E+00
  0.00000000E+00  0.00000000E+00  0.00000000E+00
  0.00000000E+00  0.00000000E+00  0.00000000E+00
  0.00000000E+00  0.00000000E+00  0.00000000E+00
  0.00000000E+00  0.00000000E+00  0.00000000E+00
  0.00000000E+00  0.00000000E+00  0.00000000E+00
  0.00000000E+00  0.00000000E+00  0.00000000E+00
  0.00000000E+00  0.00000000E+00  0.00000000E+00
  0.00000000E+00  0.00000000E+00  0.00000000E+00
  0.00000000E+00  0.00000000E+00  0.00000000E+00
  0.00000000E+00  0.00000000E+00  0.00000000E+00
  0.00000000E+00  0.00000000E+00  0.00000000E+00
  0.00000000E+00  0.00000000E+00  0.00000000E+00
  0.00000000E+00  0.00000000E+00  0.00000000E+00
  0.00000000E+00  0.00000000E+00  0.00000000E+00
  0.00000000E+00  0.00000000E+00  0.00000000E+00
  0.00000000E+00  0.00000000E+00  0.00000000E+00
  0.00000000E+00  0.00000000E+00  0.00000000E+00
  0.00000000E+00  0.00000000E+00  0.00000000E+00
  0.00000000E+00  0.00000000E+00  0.00000000E+00
  0.00000000E+00  0.00000000E+00  0.00000000E+00
  0.00000000E+00  0.00000000E+00  0.00000000E+00
  0.00000000E+00  0.00000000E+00  0.00000000E+00
  0.00000000E+00  0.00000000E+00  0.00000000E+00
  0.00000000E+00  0.00000000E+00  0.00000000E+00
  0.00000000E+00  0.00000000E+00  0.00000000E+00
  0.00000000E+00  0.00000000E+00  0.00000000E+00
  0.00000000E+00  0.00000000E+00  0.00000000E+00
  0.00000000E+00  0.00000000E+00  0.00000000E+00
  0.00000000E+00  0.00000000E+00  0.00000000E+00
  0.00000000E+00  0.00000000E+00  0.00000000E+00
  0.00000000E+00  0.00000000E+00  0.00000000E+00
  0.00000000E+00  0.00000000E+00  0.00000000E+00
  0.00000000E+00  0.00000000E+00  0.00000000E+00
  0.00000000E+00  0.00000000E+00  0.00000000E+00
  0.00000000E+00  0.00000000E+00  0.00000000E+00
  0.00000000E+00  0.00000000E+00  0.00000000E+00
  0.00000000E+00  0.00000000E+00  0.00000000E+00
  0.00000000E+00  0.00000000E+00  0.00000000E+00
  0.00000000E+00  0.00000000E+00  0.00000000E+00
  0.00000000E+00  0.00000000E+00  0.00000000E+00
  0.00000000E+00  0.00000000E+00  0.00000000E+00
  0.00000000E+00  0.00000000E+00  0.00000000E+00
  0.00000000E+00  0.00000000E+00  0.00000000E+00
  0.00000000E+00  0.00000000E+00  0.00000000E+00
  0.00000000E+00  0.00000000E+00  0.00000000E+00
  0.00000000E+00  0.00000000E+00  0.00000000E+00
  0.00000000E+00  0.00000000E+00  0.00000000E+00
  0.00000000E+00  0.00000000E+00  0.00000000E+00
  0.00000000E+00  0.00000000E+00  0.00000000E+00
  0.00000000E+00  0.00000000E+00  0.00000000E+00
  0.00000000E+00  0.00000000E+00  0.00000000E+00
  0.00000000E+00  0.00000000E+00  0.00000000E+00
  0.00000000E+00  0.00000000E+00  0.00000000E+00
  0.00000000E+00  0.00000000E+00  0.00000000E+00
  0.00000000E+00  0.00000000E+00  0.00000000E+00
  0.00000000E+00  0.00000000E+00  0.00000000E+00
  0.00000000E+00  0.00000000E+00  0.00000000E+00
  0.00000000E+00  0.00000000E+00  0.00000000E+00
  0.00000000E+00  0.00000000E+00  0.00000000E+00
  0.00000000E+00  0.00000000E+00  0.00000000E+00
  0.00000000E+00  0.00000000E+00  0.00000000E+00
  0.00000000E+00  0.00000000E+00  0.00000000E+00
  0.00000000E+00  0.00000000E+00  0.00000000E+00
  0.00000000E+00  0.00000000E+00  0.00000000E+00
  0.00000000E+00  0.00000000E+00  0.00000000E+00
  0.00000000E+00  0.00000000E+00  0.00000000E+00
  0.00000000E+00  0.00000000E+00  0.00000000E+00
  0.00000000E+00  0.00000000E+00  0.00000000E+00
  0.00000000E+00  0.00000000E+00  0.00000000E+00
  0.00000000E+00  0.00000000E+00  0.00000000E+00
  0.00000000E+00  0.00000000E+00  0.00000000E+00
  0.00000000E+00  0.00000000E+00  0.00000000E+00
  0.00000000E+00  0.00000000E+00  0.00000000E+00
  0.00000000E+00  0.00000000E+00  0.00000000E+00
  0.00000000E+00  0.00000000E+00  0.00000000E+00
  0.00000000E+00  0.00000000E+00  0.00000000E+00
  0.00000000E+00  0.00000000E+00  0.00000000E+00
  0.00000000E+00  0.00000000E+00  0.00000000E+00
  0.00000000E+00  0.00000000E+00  0.00000000E+00
  0.00000000E+00  0.00000000E+00  0.00000000E+00
  0.00000000E+00  0.00000000E+00  0.00000000E+00
  0.00000000E+00  0.00000000E+00  0.00000000E+00
  0.00000000E+00  0.00000000E+00  0.00000000E+00