FeMn_288_15                             
    1.000000000000000     
     9.7266779999999997    0.0000000000000000    0.0000000000000000
     0.0000000000000000    8.4235500000000005    0.0000000000000000
     0.0000000000000000    0.0000000000000000   45.0000000000000000
   Fe   Mn
   273    15
Direct
  0.4372386564044732  0.7927279714811626  0.8732965882766998
  0.0632984439106852  0.5423197435153988  0.8732883291129442
  0.4376995810423057  0.6259299438189831  0.7863882436914053
  0.3124286921095776  0.0419545340731053  0.7422464899933188
  0.4371302428490203  0.9590434356475085  0.8312277949709840
  0.8127674759262786  0.3726585246201051  0.5213715714536205
  0.8125593126313301  0.0365566028496867  0.1267071926331118
  0.8125904508254301  0.2082830099439134  0.6982224706291199
  0.9375634175655467  0.9567513195385321  0.5652634048270585
  0.8124542399192649  0.8759412397600627  0.7864352303444997
  0.0623138946265430  0.3725547462752106  0.5213521097926683
  0.6871458541809188  0.1210814865506382  0.4347905818896167
  0.1879118097456796  0.6224441353628957  0.5212977019009797
  0.6874149462152309  0.1227254374091384  0.5212271019984270
  0.1876934201792239  0.1212147945451127  0.4348038808037412
  0.9376759467966038  0.2875039134624702  0.3902046346253539
  0.1875601421382989  0.6237776385534504  0.6537208448440298
  0.5623039164560849  0.2084239612183010  0.6981649563164941
  0.5624022416448263  0.3708413744858191  0.4346577184325606
  0.8127649261657937  0.5408553006388483  0.6098162671110848
  0.5621392107629676  0.3757808871224186  0.7863202152230031
  0.8125431228548742  0.8690653308091699  0.3017830292644867
  0.4378141183121657  0.1195269486852133  0.3018703542057926
  0.4372782547408711  0.6211083782685446  0.4346754607715944
  0.3126162906380235  0.7095918737648318  0.8311687343762206
  0.1873795344103180  0.9565184823491919  0.5652765084074934
  0.1875489239254068  0.7902532380992462  0.6098338614201920
  0.3124970385656533  0.2083699758185966  0.6982830610799742
  0.0629192834211289  0.7066302835366458  0.5647847097928900
  0.0619943939341917  0.8682606631504038  0.1687372515058481
  0.5619099989291170  0.2064491921850840  0.5651709568239757
  0.9376347704496171  0.2858421525773410  0.2576920095147555
  0.9375868805584382  0.6221210596261444  0.5212524895471796
  0.4374471811851993  0.7922552529353249  0.7422317483776095
  0.1878136333733303  0.2925277385856241  0.7422432971533981
  0.6872912521076318  0.4565790406887854  0.5651228139040682
  0.6876519712873632  0.4518374330927499  0.2136526934141515
  0.6875104810958880  0.9535371900464554  0.3462012107732751
  0.5625905385351266  0.5424274493769298  0.7421683827638840
  0.4377165238593788  0.4586275436685913  0.6982292007360920
  0.8125420123545407  0.0371648179754342  0.3901751601273364
  0.9373268639525626  0.6241930876594244  0.6538220803459127
  0.3124315320479015  0.0374014551261106  0.3901525214168465
  0.1875850748384098  0.9591709216515064  0.8311158448759804
  0.9370630730385460  0.2909748169730433  0.6098974129556257
  0.5620271067136539  0.2053254402883336  0.4785220233000263
  0.4374943570899588  0.1223691440211119  0.5212371293416482
  0.9375801322767677  0.1263082224456459  0.7863889967851105
  0.8128238718375652  0.0417272295478396  0.8733524436850657
  0.3123768721375790  0.7033074288478074  0.3462011542227602
  0.5623959219122147  0.8759571429836694  0.7865236143348454
  0.9374709531551403  0.4533633404308579  0.3462213129333965
  0.1873525505785682  0.7868883641456798  0.3901719796771708
  0.3126099646194551  0.3761903362538031  0.7864590488132727
  0.1877935788643430  0.9553552816622081  0.4785761913869231
  0.9374492536082267  0.4586355524002683  0.6982157260351540
  0.1880911705286145  0.6212551778538158  0.4347072318422870
  0.4371243515543997  0.6222897007941975  0.5214421028463440
  0.0628091986262757  0.3744476075509369  0.6538625376315087
  0.0624729345337474  0.5359938314796716  0.2578015509707334
  0.8123707927370221  0.7088595156067077  0.6982116430681491
  0.8126318611721326  0.0355983585870865  0.2577680371364241
  0.8120836887953997  0.5417936366749760  0.8735120844394695
  0.4375476006338463  0.1188578440227415  0.1688976933535244
  0.5627579441184004  0.0354561624772759  0.2577090173974635
  0.4375245670581482  0.4520607982792667  0.2136045445280929
  0.6872617739755131  0.6264224936361470  0.7864270631181581
  0.6871305039388792  0.1244759362430475  0.6536651686286739
  0.4374057218080128  0.2855178098352698  0.2577710420142397
  0.9374786287606194  0.4512305997572755  0.2137620534500152
  0.6875314927970849  0.1195737220023144  0.3017487111261793
  0.0626035713959847  0.0423121857819107  0.7422841363795232
  0.5627331468397835  0.7085868117544305  0.6982842728651194
  0.3125407446110853  0.8694421330553255  0.3018078824646623
  0.0624841986422760  0.7020466193208617  0.2135957488190116
  0.9374395535291734  0.7858180481912388  0.2576812268243497
  0.5620383505374190  0.3747815255715629  0.6537185220755601
  0.6874953495305728  0.9584773200581848  0.6981620522356035
  0.8126437224816966  0.0419475314139297  0.7423170786351700
  0.6879379743444867  0.6189799182480287  0.1687863584041886
  0.9374118255044815  0.6191742639597624  0.3017644467400537
  0.5626081383245238  0.3688914140507830  0.1689360066233203
  0.1872719297767842  0.1263307292245482  0.7864287691958539
  0.0624489152260087  0.0366641827707075  0.1266820445208434
  0.8129309864812236  0.8727158109523973  0.5213366207488710
  0.3123389505773579  0.0356794440646054  0.2576920782700806
  0.1876267875758064  0.2873036519292086  0.3901030251054257
  0.6876892972179325  0.4584065892655246  0.6982216922838020
  0.3128613479497153  0.2055177362304928  0.4785876278101849
  0.1874721594913350  0.2857819960541517  0.2577248236637581
  0.4373710433290526  0.1246722576078179  0.6537456967621657
  0.9379159484975643  0.9589765067404755  0.8312812157438368
  0.8123779701543173  0.0402380709316132  0.6097694356806687
  0.9373828255797693  0.9518409567063597  0.2135206144375165
  0.1878430972726789  0.9522734883141160  0.2137134017697256
  0.8124587082320915  0.2017115028297852  0.2136402663383452
  0.0622133628275636  0.8732765872698204  0.5212117880492232
  0.1877652775162439  0.2923929431595212  0.8733308641656736
  0.0626273478869968  0.2080867324139549  0.6982575566291320
  0.5622520432641783  0.8689843835843719  0.1689991614971831
  0.3123686475343854  0.0408528806545515  0.6097963008281714
  0.4374927176565516  0.7909093777476685  0.6098813146494140
  0.0624638978734297  0.3692417943140575  0.3017768659713633
  0.9374871892651720  0.1183691693942768  0.1687189609107971
  0.1876430686249011  0.9580004205072382  0.6982653294258245
  0.0626214442070521  0.2056206052992406  0.4785737618396184
  0.4375443295275531  0.1260167975509933  0.7863801476487869
  0.3126384046911926  0.2065700820345258  0.5650966779164212
  0.1877461316835655  0.2855537764214680  0.1266974582431482
  0.1876359489598209  0.4529938224481796  0.3460816301627341
  0.0623750909504885  0.0357654076581389  0.2577678875051412
  0.3122356318757913  0.2089047517997842  0.8312789728091976
  0.0626700127137546  0.7093849480344343  0.8311451360719253
  0.8123182436280681  0.7051257973106183  0.4786151213599165
  0.8124882664800301  0.7018310715788265  0.2136029716825073
  0.3125528962650195  0.8741969295061672  0.6536165558274307
  0.6876957265112872  0.7908398602126000  0.6097719157101691
  0.8131515396243063  0.8683773113797109  0.1688180015866346
  0.4374423403443371  0.9534906732630342  0.3461996452095839
  0.0625606098039281  0.0420992609082955  0.8733913602607739
  0.1876617068007495  0.1186666042120444  0.1689632755538981
  0.6872710133678919  0.2854635046196129  0.1267027470452489
  0.1878576176506841  0.7921777999788399  0.7422075337340879
  0.5623251053725518  0.8724758618405902  0.5212595953767709
  0.1873760493879121  0.1244005372119107  0.6537230379373259
  0.9373574756484432  0.1210494608262389  0.4348001938715816
  0.4375081797228101  0.2852399375626256  0.1267405748374845
  0.9376476253879144  0.1242713871729643  0.6537174415644583
  0.6872426035666144  0.6214267486064451  0.4350456954508386
  0.5625482853805970  0.0370007064962789  0.3901727939601009
  0.4373352117008098  0.4553349607502128  0.4786124019200469
  0.1874578892922724  0.7920685627164433  0.8733665843616037
  0.4375893922919315  0.7855524492767053  0.2576899316777720
  0.5621434677571661  0.8744883257674524  0.6537982790544792
  0.1873476783236836  0.4550303112250668  0.4785839863380378
  0.3124713404830211  0.3688151295001139  0.1689434100302438
  0.0624948484269256  0.8692234942106026  0.3018109179710106
  0.1874553394806087  0.6193631686345030  0.3017350504556208
  0.8124507004978718  0.2038314059812155  0.3462378031891447
  0.8124873140535467  0.5356761133690922  0.2577318613265120
  0.4378333091490609  0.2905837793774749  0.6097673044690122
  0.6876496345531357  0.7916948037349553  0.8733700945777466
  0.3123863208783529  0.5405398883164669  0.6098552241634313
  0.3123961298311766  0.0357619123331956  0.1267414811759136
  0.0625699838790548  0.3713322910248155  0.4348096600602760
  0.5624693270762150  0.2035958629959473  0.3462063770303838
  0.5624201328883639  0.7035100280906926  0.3461822689081233
  0.3120916983649845  0.5425962527892061  0.7423476111149941
  0.0624075725942430  0.2033562352650418  0.3462474120460043
  0.9374058139777385  0.6258007715528381  0.7864001809733465
  0.3125569801593208  0.2032273792644429  0.3462105416211547
  0.9377657039823519  0.7928456841259448  0.8732486790879802
  0.5630270631895639  0.5418952520351511  0.8734731365816650
  0.5621875707604564  0.7049752436925261  0.4786480454058417
  0.6874856882316320  0.6245229509408841  0.6537475882668490
  0.3115987447947611  0.5419224756241187  0.8732780406051341
  0.3124621734700228  0.3693553979951175  0.3018318379731280
  0.1874147922217204  0.7859224702427391  0.2577961127446748
  0.5626446004579799  0.5354621821867777  0.1267080093222551
  0.8125985654355877  0.3709882737713183  0.4346860130574479
  0.8125761934384461  0.3684619502914632  0.1689212006778512
  0.6875662317165143  0.2855454589781039  0.2578161190384050
  0.4376495970132888  0.6193868094223169  0.3017518583281872
  0.9372431368702232  0.7901966349252779  0.6098486074814002
  0.4375279796018600  0.6188873883729540  0.1689098231768667
  0.3125181447746308  0.7021222166655160  0.2136684815836466
  0.9371734005941134  0.1190730871852677  0.3019068199487394
  0.6867976478893268  0.7851660110435635  0.1267049440432984
  0.5624463699849380  0.8693096932696275  0.3017841534807412
  0.0626469383495829  0.8741169593148759  0.6536672374819992
  0.9374167490913119  0.9538771486170758  0.3461119554245161
  0.4377419256951985  0.4566735424815696  0.5652234864244213
  0.3125026733626742  0.0421708652098682  0.8733755261409951
  0.4376411594516990  0.1209735341764692  0.4347677940580357
  0.3125708749688867  0.5359113562800574  0.2578001222117971
  0.8126312856510660  0.3761016273233574  0.7863451118723098
  0.0626349551208409  0.3762220629991973  0.7865102015858108
  0.8127511420143062  0.5417653054912371  0.7422935072280719
  0.6874191712529277  0.2901582659398443  0.6098321918999420
  0.6871183146834802  0.2921982874748790  0.7422328681302149
  0.4373885152710741  0.4534813744815965  0.3462872731394109
  0.5622052354897072  0.8712682390455453  0.4347263244729540
  0.3124855521128241  0.7068472355858293  0.5652341099068393
  0.8123479579011134  0.5375517152114384  0.3901185521129186
  0.6871461798175621  0.9521107008859804  0.2137126565927880
  0.9376424718264684  0.9583742846637213  0.6982582316059037
  0.3124819435570620  0.8726251243497090  0.5213036424617570
  0.5622594156747509  0.3724159618578373  0.5213407940582429
  0.8117986956895025  0.7088032140185501  0.8311524604621598
  0.8129174607197094  0.2097468180617666  0.8313315317691122
  0.6873518033553015  0.4534510041081331  0.3462493738054752
  0.4375077975367738  0.2922693438039827  0.7422698757677848
  0.0623900994739611  0.7084171305375133  0.6981818458534707
  0.3126869678608233  0.7084934067009571  0.6982080075045212
  0.3122012284521463  0.8712461416687364  0.4347990329811102
  0.6876506745272908  0.7854588831416869  0.2577545228901792
  0.4374013819125139  0.2873288190918208  0.3901684229060913
  0.1874230965645000  0.9533861855894867  0.3462288554586192
  0.8129295203311629  0.8712818704603608  0.4346618436401184
  0.0625319571454166  0.8713522025685788  0.4347819823881400
  0.0625775466374533  0.7032516443119642  0.3462262410386297
  0.5625621167030728  0.2019562020493052  0.2136209377915124
  0.9376951971986498  0.1224499894804232  0.5212326477510995
  0.6874089977276051  0.2877599895732113  0.3900880081734225
  0.3126497509497000  0.8689812078833724  0.1689182660696757
  0.9374215688749090  0.7919446420089317  0.7423098120699528
  0.3123188172750530  0.5353751885116447  0.1267068973628026
  0.8125301618219841  0.7066388444782551  0.5653184015403517
  0.0625333882751945  0.5422408280105276  0.7422817880259976
  0.4371249621232166  0.9555200901788361  0.4785815077826334
  0.5625118819075192  0.3697206868437795  0.3018238909137129
  0.4375067403643270  0.7855895136893604  0.1267190718562741
  0.9371908414692399  0.2923021038596191  0.8733641375836499
  0.6873435258835593  0.9561820967231512  0.5648483726232467
  0.6875611752597826  0.2926721794272140  0.8735467817037402
  0.0625717739693956  0.5371562979987256  0.3901126047713983
  0.1876818585981505  0.4594722827107793  0.8311885241410015
  0.1882540779212091  0.7852680874793559  0.1266920401425542
  0.0625396936190996  0.8758319067626248  0.7864116280108339
  0.3126893427441308  0.5367817615138480  0.3900544037784859
  0.9374617223099126  0.4567241297001851  0.5652237504269773
  0.4373486670057215  0.9585645267975499  0.6981065862241611
  0.3124523841480437  0.2020531192569517  0.2136039740619291
  0.8126550561316878  0.3695794040718850  0.3018364304980480
  0.5630828549999934  0.7088140612778264  0.8312576508594803
  0.3125960036452531  0.8761093961846413  0.7863927821237668
  0.0622719201338246  0.0406949102967189  0.6098286970404316
  0.5617310099577042  0.7065977158475629  0.5652085389914517
  0.3123204856878820  0.3744807428761608  0.6537811315416917
  0.1874117665261618  0.4521439961977171  0.2135682767173498
  0.5625711739525419  0.5354564823886409  0.2577546232262947
  0.0626041923602585  0.2086939321764548  0.8311640939828789
  0.4371648233620308  0.7871855221680915  0.3900715088569037
  0.5626746782814417  0.5375070278988078  0.3900847693655004
  0.5622598340186652  0.0418197787648576  0.8733203964848290
  0.4376547569464631  0.9517506585192691  0.2135452998920100
  0.1870236797425033  0.6189102473127006  0.1688319876310971
  0.1875310175706735  0.1226676825582258  0.5212768947129439
  0.5625097858292959  0.2097384150393614  0.8311970805618984
  0.8125081458949938  0.2052719610451789  0.4786446090518597
  0.9375319721694962  0.2858667150936464  0.1266997120163127
  0.5625496153273852  0.7019452486940716  0.2136628048064611
  0.9380680984245406  0.7871748450155625  0.3900819385443552
  0.8125517961742853  0.3743683474612683  0.6537616326196776
  0.9374623087640620  0.4587678949107521  0.8311907172941920
  0.6872751940383852  0.7923978697496502  0.7422731851887794
  0.9379063807459888  0.4549555757021595  0.4785112019905350
  0.4375986854120281  0.4586224071576532  0.8311835921895276
  0.0635838197483762  0.5357852270789277  0.1267273738125006
  0.3123859011005415  0.3711751511629445  0.4347772653543749
  0.6875704984915342  0.9592563689032217  0.8312150327392032
  0.9375690938379581  0.9551760005142581  0.4785152166675928
  0.6873083125588378  0.1188798529196412  0.1689686475129004
  0.6875890197065097  0.4548656433898352  0.4786988789919869
  0.9375126617128264  0.6194448970493643  0.1687437851048320
  0.8125049370666436  0.7035020769545868  0.3461662041492079
  0.3127760478877796  0.3725503801152106  0.5213036555388353
  0.4373768852700906  0.9563113366873647  0.5650944205767999
  0.6876531047682269  0.1261194690915949  0.7864353383056020
  0.5623916392128006  0.5408259516689098  0.6098657101121139
  0.8114842774348432  0.5357514355002413  0.1267294658512508
  0.0625915610555065  0.2018097773705721  0.2136378687755025
  0.5626472959876121  0.0356727049976476  0.1267572780624052
  0.0624168235591654  0.3684754237492998  0.1689136690980183
  0.1876105693265762  0.6258929614211599  0.7864599136515280
  0.0626530231608887  0.2066928444869951  0.5650713992975254
  0.4375395066866091  0.6242384943995499  0.6537675574698188
  0.0624231382538418  0.0378583872900098  0.3901225651814937
  0.6875094668116500  0.6195472688285961  0.3017625167578102
  0.4376331916674541  0.2923642614046210  0.8733696318367953
  0.1873293277195088  0.4583111674322667  0.6982020953688903
  0.3129270030684038  0.7055213450355783  0.4785999941586248
  0.1872157847346513  0.4564839358757750  0.5651188930867098
  0.0625466655333760  0.5410385486769719  0.6099335636202552
  0.1879070665804602  0.2906755091318883  0.6098758485415973
  0.1874888226926115  0.1191795788018721  0.3018041381607272
  0.9374420576857826  0.7858542340906282  0.1269085292658669
  0.9368311951777787  0.6210179980534770  0.4344321533926675
  0.9372047187083827  0.2923072521274376  0.7423654984208214
  0.5625322667307427  0.0420446367167494  0.7423789907279752
  0.5631284885783957  0.0402386893992207  0.6099716649400886
  0.6874280057930019  0.6226447449670741  0.5212687281084906
  0.8122704171414853  0.2068173383351606  0.5651708713488530
  0.8121427416730499  0.8743319461655851  0.6536481513704314
  0.6877234420217406  0.9548694661095601  0.4786795152331637
  0.0624594684355566  0.7051207383513839  0.4787305942264147
  0.6874663205182292  0.4593115658509753  0.8318566123266341
  0.6877834286192533  0.7873446807906087  0.3900431931345103
 
  0.00000000E+00  0.00000000E+00  0.00000000E+00
  0.00000000E+00  0.00000000E+00  0.00000000E+00
  0.00000000E+00  0.00000000E+00  0.00000000E+00
  0.00000000E+00  0.00000000E+00  0.00000000E+00
  0.00000000E+00  0.00000000E+00  0.00000000E+00
  0.00000000E+00  0.00000000E+00  0.00000000E+00
  0.00000000E+00  0.00000000E+00  0.00000000E+00
  0.00000000E+00  0.00000000E+00  0.00000000E+00
  0.00000000E+00  0.00000000E+00  0.00000000E+00
  0.00000000E+00  0.00000000E+00  0.00000000E+00
  0.00000000E+00  0.00000000E+00  0.00000000E+00
  0.00000000E+00  0.00000000E+00  0.00000000E+00
  0.00000000E+00  0.00000000E+00  0.00000000E+00
  0.00000000E+00  0.00000000E+00  0.00000000E+00
  0.00000000E+00  0.00000000E+00  0.00000000E+00
  0.00000000E+00  0.00000000E+00  0.00000000E+00
  0.00000000E+00  0.00000000E+00  0.00000000E+00
  0.00000000E+00  0.00000000E+00  0.00000000E+00
  0.00000000E+00  0.00000000E+00  0.00000000E+00
  0.00000000E+00  0.00000000E+00  0.00000000E+00
  0.00000000E+00  0.00000000E+00  0.00000000E+00
  0.00000000E+00  0.00000000E+00  0.00000000E+00
  0.00000000E+00  0.00000000E+00  0.00000000E+00
  0.00000000E+00  0.00000000E+00  0.00000000E+00
  0.00000000E+00  0.00000000E+00  0.00000000E+00
  0.00000000E+00  0.00000000E+00  0.00000000E+00
  0.00000000E+00  0.00000000E+00  0.00000000E+00
  0.00000000E+00  0.00000000E+00  0.00000000E+00
  0.00000000E+00  0.00000000E+00  0.00000000E+00
  0.00000000E+00  0.00000000E+00  0.00000000E+00
  0.00000000E+00  0.00000000E+00  0.00000000E+00
  0.00000000E+00  0.00000000E+00  0.00000000E+00
  0.00000000E+00  0.00000000E+00  0.00000000E+00
  0.00000000E+00  0.00000000E+00  0.00000000E+00
  0.00000000E+00  0.00000000E+00  0.00000000E+00
  0.00000000E+00  0.00000000E+00  0.00000000E+00
  0.00000000E+00  0.00000000E+00  0.00000000E+00
  0.00000000E+00  0.00000000E+00  0.00000000E+00
  0.00000000E+00  0.00000000E+00  0.00000000E+00
  0.00000000E+00  0.00000000E+00  0.00000000E+00
  0.00000000E+00  0.00000000E+00  0.00000000E+00
  0.00000000E+00  0.00000000E+00  0.00000000E+00
  0.00000000E+00  0.00000000E+00  0.00000000E+00
  0.00000000E+00  0.00000000E+00  0.00000000E+00
  0.00000000E+00  0.00000000E+00  0.00000000E+00
  0.00000000E+00  0.00000000E+00  0.00000000E+00
  0.00000000E+00  0.00000000E+00  0.00000000E+00
  0.00000000E+00  0.00000000E+00  0.00000000E+00
  0.00000000E+00  0.00000000E+00  0.00000000E+00
  0.00000000E+00  0.00000000E+00  0.00000000E+00
  0.00000000E+00  0.00000000E+00  0.00000000E+00
  0.00000000E+00  0.00000000E+00  0.00000000E+00
  0.00000000E+00  0.00000000E+00  0.00000000E+00
  0.00000000E+00  0.00000000E+00  0.00000000E+00
  0.00000000E+00  0.00000000E+00  0.00000000E+00
  0.00000000E+00  0.00000000E+00  0.00000000E+00
  0.00000000E+00  0.00000000E+00  0.00000000E+00
  0.00000000E+00  0.00000000E+00  0.00000000E+00
  0.00000000E+00  0.00000000E+00  0.00000000E+00
  0.00000000E+00  0.00000000E+00  0.00000000E+00
  0.00000000E+00  0.00000000E+00  0.00000000E+00
  0.00000000E+00  0.00000000E+00  0.00000000E+00
  0.00000000E+00  0.00000000E+00  0.00000000E+00
  0.00000000E+00  0.00000000E+00  0.00000000E+00
  0.00000000E+00  0.00000000E+00  0.00000000E+00
  0.00000000E+00  0.00000000E+00  0.00000000E+00
  0.00000000E+00  0.00000000E+00  0.00000000E+00
  0.00000000E+00  0.00000000E+00  0.00000000E+00
  0.00000000E+00  0.00000000E+00  0.00000000E+00
  0.00000000E+00  0.00000000E+00  0.00000000E+00
  0.00000000E+00  0.00000000E+00  0.00000000E+00
  0.00000000E+00  0.00000000E+00  0.00000000E+00
  0.00000000E+00  0.00000000E+00  0.00000000E+00
  0.00000000E+00  0.00000000E+00  0.00000000E+00
  0.00000000E+00  0.00000000E+00  0.00000000E+00
  0.00000000E+00  0.00000000E+00  0.00000000E+00
  0.00000000E+00  0.00000000E+00  0.00000000E+00
  0.00000000E+00  0.00000000E+00  0.00000000E+00
  0.00000000E+00  0.00000000E+00  0.00000000E+00
  0.00000000E+00  0.00000000E+00  0.00000000E+00
  0.00000000E+00  0.00000000E+00  0.00000000E+00
  0.00000000E+00  0.00000000E+00  0.00000000E+00
  0.00000000E+00  0.00000000E+00  0.00000000E+00
  0.00000000E+00  0.00000000E+00  0.00000000E+00
  0.00000000E+00  0.00000000E+00  0.00000000E+00
  0.00000000E+00  0.00000000E+00  0.00000000E+00
  0.00000000E+00  0.00000000E+00  0.00000000E+00
  0.00000000E+00  0.00000000E+00  0.00000000E+00
  0.00000000E+00  0.00000000E+00  0.00000000E+00
  0.00000000E+00  0.00000000E+00  0.00000000E+00
  0.00000000E+00  0.00000000E+00  0.00000000E+00
  0.00000000E+00  0.00000000E+00  0.00000000E+00
  0.00000000E+00  0.00000000E+00  0.00000000E+00
  0.00000000E+00  0.00000000E+00  0.00000000E+00
  0.00000000E+00  0.00000000E+00  0.00000000E+00
  0.00000000E+00  0.00000000E+00  0.00000000E+00
  0.00000000E+00  0.00000000E+00  0.00000000E+00
  0.00000000E+00  0.00000000E+00  0.00000000E+00
  0.00000000E+00  0.00000000E+00  0.00000000E+00
  0.00000000E+00  0.00000000E+00  0.00000000E+00
  0.00000000E+00  0.00000000E+00  0.00000000E+00
  0.00000000E+00  0.00000000E+00  0.00000000E+00
  0.00000000E+00  0.00000000E+00  0.00000000E+00
  0.00000000E+00  0.00000000E+00  0.00000000E+00
  0.00000000E+00  0.00000000E+00  0.00000000E+00
  0.00000000E+00  0.00000000E+00  0.00000000E+00
  0.00000000E+00  0.00000000E+00  0.00000000E+00
  0.00000000E+00  0.00000000E+00  0.00000000E+00
  0.00000000E+00  0.00000000E+00  0.00000000E+00
  0.00000000E+00  0.00000000E+00  0.00000000E+00
  0.00000000E+00  0.00000000E+00  0.00000000E+00
  0.00000000E+00  0.00000000E+00  0.00000000E+00
  0.00000000E+00  0.00000000E+00  0.00000000E+00
  0.00000000E+00  0.00000000E+00  0.00000000E+00
  0.00000000E+00  0.00000000E+00  0.00000000E+00
  0.00000000E+00  0.00000000E+00  0.00000000E+00
  0.00000000E+00  0.00000000E+00  0.00000000E+00
  0.00000000E+00  0.00000000E+00  0.00000000E+00
  0.00000000E+00  0.00000000E+00  0.00000000E+00
  0.00000000E+00  0.00000000E+00  0.00000000E+00
  0.00000000E+00  0.00000000E+00  0.00000000E+00
  0.00000000E+00  0.00000000E+00  0.00000000E+00
  0.00000000E+00  0.00000000E+00  0.00000000E+00
  0.00000000E+00  0.00000000E+00  0.00000000E+00
  0.00000000E+00  0.00000000E+00  0.00000000E+00
  0.00000000E+00  0.00000000E+00  0.00000000E+00
  0.00000000E+00  0.00000000E+00  0.00000000E+00
  0.00000000E+00  0.00000000E+00  0.00000000E+00
  0.00000000E+00  0.00000000E+00  0.00000000E+00
  0.00000000E+00  0.00000000E+00  0.00000000E+00
  0.00000000E+00  0.00000000E+00  0.00000000E+00
  0.00000000E+00  0.00000000E+00  0.00000000E+00
  0.00000000E+00  0.00000000E+00  0.00000000E+00
  0.00000000E+00  0.00000000E+00  0.00000000E+00
  0.00000000E+00  0.00000000E+00  0.00000000E+00
  0.00000000E+00  0.00000000E+00  0.00000000E+00
  0.00000000E+00  0.00000000E+00  0.00000000E+00
  0.00000000E+00  0.00000000E+00  0.00000000E+00
  0.00000000E+00  0.00000000E+00  0.00000000E+00
  0.00000000E+00  0.00000000E+00  0.00000000E+00
  0.00000000E+00  0.00000000E+00  0.00000000E+00
  0.00000000E+00  0.00000000E+00  0.00000000E+00
  0.00000000E+00  0.00000000E+00  0.00000000E+00
  0.00000000E+00  0.00000000E+00  0.00000000E+00
  0.00000000E+00  0.00000000E+00  0.00000000E+00
  0.00000000E+00  0.00000000E+00  0.00000000E+00
  0.00000000E+00  0.00000000E+00  0.00000000E+00
  0.00000000E+00  0.00000000E+00  0.00000000E+00
  0.00000000E+00  0.00000000E+00  0.00000000E+00
  0.00000000E+00  0.00000000E+00  0.00000000E+00
  0.00000000E+00  0.00000000E+00  0.00000000E+00
  0.00000000E+00  0.00000000E+00  0.00000000E+00
  0.00000000E+00  0.00000000E+00  0.00000000E+00
  0.00000000E+00  0.00000000E+00  0.00000000E+00
  0.00000000E+00  0.00000000E+00  0.00000000E+00
  0.00000000E+00  0.00000000E+00  0.00000000E+00
  0.00000000E+00  0.00000000E+00  0.00000000E+00
  0.00000000E+00  0.00000000E+00  0.00000000E+00
  0.00000000E+00  0.00000000E+00  0.00000000E+00
  0.00000000E+00  0.00000000E+00  0.00000000E+00
  0.00000000E+00  0.00000000E+00  0.00000000E+00
  0.00000000E+00  0.00000000E+00  0.00000000E+00
  0.00000000E+00  0.00000000E+00  0.00000000E+00
  0.00000000E+00  0.00000000E+00  0.00000000E+00
  0.00000000E+00  0.00000000E+00  0.00000000E+00
  0.00000000E+00  0.00000000E+00  0.00000000E+00
  0.00000000E+00  0.00000000E+00  0.00000000E+00
  0.00000000E+00  0.00000000E+00  0.00000000E+00
  0.00000000E+00  0.00000000E+00  0.00000000E+00
  0.00000000E+00  0.00000000E+00  0.00000000E+00
  0.00000000E+00  0.00000000E+00  0.00000000E+00
  0.00000000E+00  0.00000000E+00  0.00000000E+00
  0.00000000E+00  0.00000000E+00  0.00000000E+00
  0.00000000E+00  0.00000000E+00  0.00000000E+00
  0.00000000E+00  0.00000000E+00  0.00000000E+00
  0.00000000E+00  0.00000000E+00  0.00000000E+00
  0.00000000E+00  0.00000000E+00  0.00000000E+00
  0.00000000E+00  0.00000000E+00  0.00000000E+00
  0.00000000E+00  0.00000000E+00  0.00000000E+00
  0.00000000E+00  0.00000000E+00  0.00000000E+00
  0.00000000E+00  0.00000000E+00  0.00000000E+00
  0.00000000E+00  0.00000000E+00  0.00000000E+00
  0.00000000E+00  0.00000000E+00  0.00000000E+00
  0.00000000E+00  0.00000000E+00  0.00000000E+00
  0.00000000E+00  0.00000000E+00  0.00000000E+00
  0.00000000E+00  0.00000000E+00  0.00000000E+00
  0.00000000E+00  0.00000000E+00  0.00000000E+00
  0.00000000E+00  0.00000000E+00  0.00000000E+00
  0.00000000E+00  0.00000000E+00  0.00000000E+00
  0.00000000E+00  0.00000000E+00  0.00000000E+00
  0.00000000E+00  0.00000000E+00  0.00000000E+00
  0.00000000E+00  0.00000000E+00  0.00000000E+00
  0.00000000E+00  0.00000000E+00  0.00000000E+00
  0.00000000E+00  0.00000000E+00  0.00000000E+00
  0.00000000E+00  0.00000000E+00  0.00000000E+00
  0.00000000E+00  0.00000000E+00  0.00000000E+00
  0.00000000E+00  0.00000000E+00  0.00000000E+00
  0.00000000E+00  0.00000000E+00  0.00000000E+00
  0.00000000E+00  0.00000000E+00  0.00000000E+00
  0.00000000E+00  0.00000000E+00  0.00000000E+00
  0.00000000E+00  0.00000000E+00  0.00000000E+00
  0.00000000E+00  0.00000000E+00  0.00000000E+00
  0.00000000E+00  0.00000000E+00  0.00000000E+00
  0.00000000E+00  0.00000000E+00  0.00000000E+00
  0.00000000E+00  0.00000000E+00  0.00000000E+00
  0.00000000E+00  0.00000000E+00  0.00000000E+00
  0.00000000E+00  0.00000000E+00  0.00000000E+00
  0.00000000E+00  0.00000000E+00  0.00000000E+00
  0.00000000E+00  0.00000000E+00  0.00000000E+00
  0.00000000E+00  0.00000000E+00  0.00000000E+00
  0.00000000E+00  0.00000000E+00  0.00000000E+00
  0.00000000E+00  0.00000000E+00  0.00000000E+00
  0.00000000E+00  0.00000000E+00  0.00000000E+00
  0.00000000E+00  0.00000000E+00  0.00000000E+00
  0.00000000E+00  0.00000000E+00  0.00000000E+00
  0.00000000E+00  0.00000000E+00  0.00000000E+00
  0.00000000E+00  0.00000000E+00  0.00000000E+00
  0.00000000E+00  0.00000000E+00  0.00000000E+00
  0.00000000E+00  0.00000000E+00  0.00000000E+00
  0.00000000E+00  0.00000000E+00  0.00000000E+00
  0.00000000E+00  0.00000000E+00  0.00000000E+00
  0.00000000E+00  0.00000000E+00  0.00000000E+00
  0.00000000E+00  0.00000000E+00  0.00000000E+00
  0.00000000E+00  0.00000000E+00  0.00000000E+00
  0.00000000E+00  0.00000000E+00  0.00000000E+00
  0.00000000E+00  0.00000000E+00  0.00000000E+00
  0.00000000E+00  0.00000000E+00  0.00000000E+00
  0.00000000E+00  0.00000000E+00  0.00000000E+00
  0.00000000E+00  0.00000000E+00  0.00000000E+00
  0.00000000E+00  0.00000000E+00  0.00000000E+00
  0.00000000E+00  0.00000000E+00  0.00000000E+00
  0.00000000E+00  0.00000000E+00  0.00000000E+00
  0.00000000E+00  0.00000000E+00  0.00000000E+00
  0.00000000E+00  0.00000000E+00  0.00000000E+00
  0.00000000E+00  0.00000000E+00  0.00000000E+00
  0.00000000E+00  0.00000000E+00  0.00000000E+00
  0.00000000E+00  0.00000000E+00  0.00000000E+00
  0.00000000E+00  0.00000000E+00  0.00000000E+00
  0.00000000E+00  0.00000000E+00  0.00000000E+00
  0.00000000E+00  0.00000000E+00  0.00000000E+00
  0.00000000E+00  0.00000000E+00  0.00000000E+00
  0.00000000E+00  0.00000000E+00  0.00000000E+00
  0.00000000E+00  0.00000000E+00  0.00000000E+00
  0.00000000E+00  0.00000000E+00  0.00000000E+00
  0.00000000E+00  0.00000000E+00  0.00000000E+00
  0.00000000E+00  0.00000000E+00  0.00000000E+00
  0.00000000E+00  0.00000000E+00  0.00000000E+00