CuInSe2gb                               
   1.00000000000000     
     9.7266780392896699    0.0000000000000000    0.0000000000000000
     0.0000000000000000    8.4235502764570693    0.0000000000000000
     0.0000000000000000    0.0000000000000000   45.0000000000000000
   Fe   Mn
   274    14
Direct
  0.0618523140381355  0.0294590063840752  0.1241490702758310
  0.3163846800855785  0.8748095037647623  0.6551427501453048
  0.1837453978765306  0.1233856325128770  0.7886234438045941
  0.4414651423670780  0.2875506032533806  0.3890888190932698
  0.3181697366290483  0.7137770598387572  0.8331942059262381
  0.8182259715010186  0.2152744833260662  0.8336297491474114
  0.1916420936334711  0.9633816835323342  0.8335928259912573
  0.5621165504175589  0.2069816564611970  0.5655395063423561
  0.0657522071901754  0.0406021041765342  0.7442106762096918
  0.8116677447013138  0.8713606893058311  0.5214184297404710
  0.1905420783039944  0.2910273829880193  0.7443758599116778
  0.9336549375423112  0.4522889705320278  0.3448914176870770
  0.9412031142486696  0.2870632572980094  0.3889144349020156
  0.8126916934302696  0.0406424733016935  0.8757775358430629
  0.1838245634225179  0.7879922167209332  0.6109342141525339
  0.5661749665529172  0.0380300969905777  0.3889868048857581
  0.9425295517137940  0.9649221470370414  0.8338858211853187
  0.3132671840700673  0.5408389776829047  0.8760763961678740
  0.6901622423557150  0.2913553974273945  0.7442543856579936
  0.1821652677625935  0.6134371246796889  0.1666343509052853
  0.8122344522387018  0.2060114043329289  0.4786405876379904
  0.8091682698151479  0.5383692317695905  0.6110606244966263
  0.3118244263342345  0.8705368099210643  0.4344507087098874
  0.8094063900910248  0.0379880766383747  0.2559550731987969
  0.6832475426986578  0.9521009153130671  0.3448162720213962
  0.9309224866843930  0.1141927899119320  0.1668957707557449
  0.0619517565708329  0.8718449513159263  0.5214632399631534
  0.5582373788359164  0.5377609430391925  0.2555789762668211
  0.6844198178385325  0.7978745094080923  0.8759386230044113
  0.5563643318993992  0.3650407149459970  0.1665820298058534
  0.4395299213180277  0.7919926468290140  0.7444403555923383
  0.8113057643004613  0.7067672695496898  0.5655024417378968
  0.5590175284570027  0.8736793867079791  0.7886345345504040
  0.6867825411961486  0.1219817090033358  0.5213959879963197
  0.8162260366286510  0.3744962628308925  0.6550118676489646
  0.9421922542946370  0.4642672093513762  0.8337442996382555
  0.0605176236905926  0.2076679946110307  0.6997156483702719
  0.4352252000331515  0.9573579165926163  0.6997320228889627
  0.3170452363957108  0.2129402827912540  0.8334828944394398
  0.4413115723890259  0.6246885258329973  0.6549773563401107
  0.3091387245925609  0.5384563284146159  0.6109907728104804
  0.9365885737971036  0.4563859307026925  0.5656276834304520
  0.6899669162152881  0.7916752402772526  0.7443174593428064
  0.9341322057268789  0.7887961977914926  0.1244218661349616
  0.6915928422295192  0.7875141115583815  0.3890602040489786
  0.9402507289930643  0.7909080780894762  0.7444972089415951
  0.0588176558933123  0.2028506967924709  0.3447997613097715
  0.6835297867211301  0.4524710096248796  0.3449082518634629
  0.4336057186155792  0.1226331930641171  0.7889913986328673
  0.0650933736436473  0.2038814380268311  0.2110689549621486
  0.0551361207779355  0.3653526163531316  0.1666258969191620
  0.9334668207785973  0.7871138722859187  0.2556012167395123
  0.5601685922498018  0.2070148540970070  0.6997997566736344
  0.6850874201130915  0.9572510182229951  0.6998005848028220
  0.8089121247466540  0.8737060439033500  0.7883866527059962
  0.4368090300415944  0.9570738164719762  0.5654343836045908
  0.8084724225066152  0.3751469100031292  0.7884900885502500
  0.6838126073760928  0.2875963193699093  0.2560315705126517
  0.1869508407854676  0.4570316976957265  0.5654445574065096
  0.0561851861562282  0.8648287795228116  0.1666576751583226
  0.1841598953179258  0.2884505663121121  0.6110804658445211
  0.0621821368295641  0.2070515187430809  0.5654024467190235
  0.3104439993700262  0.2071428594225451  0.6998329085427292
  0.5623944752431195  0.5407616124540391  0.8759967924356368
  0.0622812594154578  0.7069851419754999  0.5655391741245829
  0.6828338233421930  0.6226288053564301  0.7886061459235248
  0.3158656645258702  0.5382660648390949  0.3889285068115637
  0.1868496549980489  0.6216710352396148  0.5214214697347223
  0.5634101022915790  0.8708941897230451  0.4342370584212855
  0.4368888482619540  0.4567645048759841  0.5655788864504890
  0.4399129385204086  0.2915854772034739  0.7442773579002675
  0.8211714353673468  0.8734726801130356  0.3001871215567363
  0.8085195636844252  0.7022496178324615  0.3448660321696233
  0.4424301906290211  0.4627578438514895  0.8333550311737060
  0.6875920593872512  0.9559276333525489  0.4786912419236981
  0.6845638347312103  0.4576220966681461  0.6998068869290582
  0.5621878262109320  0.8720724430615513  0.5214497208031259
  0.5661108469082067  0.3743060332611186  0.6549904128637235
  0.8161334743266506  0.8748545213633145  0.6551132737772872
  0.8124863540665166  0.3720232096019630  0.4342053817507683
  0.8082833248306629  0.5371617676701275  0.2557866944453496
  0.6921121571068118  0.4621820571850920  0.8333122939734199
  0.1860167862690896  0.7879783183009310  0.1240394934436758
  0.6913877030169686  0.2876086552530650  0.3888016607728507
  0.3160180420701935  0.3739907348602987  0.6549760943005111
  0.3090408911741239  0.2027247599636064  0.3447391002700437
  0.8157521117199092  0.5402610076175437  0.7441833295691529
  0.6915952109756180  0.9623648266243280  0.8335204247796287
  0.5659744180243761  0.8742879570605147  0.6549719133551172
  0.3113057697190402  0.7069131932880484  0.5655251364939933
  0.3125911899872079  0.5295213307334489  0.1239539799438206
  0.6898804259059075  0.9546786585195840  0.2117775934554322
  0.3114230102646571  0.2065667278456011  0.5655159577092906
  0.1876271553957983  0.9555469215441362  0.4787697018052249
  0.6873930738447258  0.9569313056719562  0.5655374781052568
  0.4339954924055670  0.7883017950566632  0.6109664872748690
  0.6822639019068416  0.6120776284383914  0.1662214723205538
  0.3192856049845366  0.8739694271972921  0.3001595093974009
  0.3122812042946436  0.7059025486588445  0.4786158373688543
  0.9338380904335816  0.2880815315184106  0.6109118479993957
  0.4455973174757464  0.6236852440665680  0.3002514564226425
  0.8072709162110878  0.8634136012918068  0.1668615521338758
  0.5665329897943419  0.2029519739297338  0.2114551937443864
  0.9327484122713754  0.6128685184095657  0.1667339091056264
  0.4374019919061610  0.9557104464714369  0.4786714866715726
  0.5588654192831426  0.3734646943174932  0.7887435564087876
  0.0615303827508309  0.3723884882513045  0.5215086251007314
  0.3070214940378254  0.3637899912951384  0.1666182149425391
  0.6956088811335260  0.1229328772330870  0.3002576390579316
  0.4426783709936309  0.9632218553057686  0.8333507550064712
  0.1851504635401395  0.2868213217206542  0.1241246162776805
  0.1834901228712957  0.2869126506864406  0.2558212267413237
  0.3124457567166729  0.3704980636671396  0.4344481868858322
  0.5626253411789439  0.0322002061034700  0.1243279657389963
  0.4340129910415210  0.2883378697438011  0.6109895991560378
  0.1838758809763365  0.4527071243234493  0.3448454279994281
  0.4343050153877617  0.2867315200232950  0.1241563820490677
  0.6834709401881263  0.7875236723687208  0.2558158107222396
  0.4369417985941293  0.1217787357827692  0.5214763755262722
  0.1883149545464076  0.2968956111683939  0.8761743885451446
  0.1913712920739297  0.1250953105800277  0.6551590113041673
  0.9411766432622708  0.1247117407903258  0.6549896689653835
  0.8163658543166946  0.5378018495552187  0.3890574487666472
  0.0663467011877566  0.0378685657383820  0.3891171485869194
  0.1832153210590382  0.1121074932673812  0.1664826340747781
  0.0588679913977648  0.5381950792144129  0.6109954072669495
  0.9336428788175857  0.2877247787631089  0.2558274564291092
  0.5589533643629325  0.5384133434235041  0.6110178508851678
  0.9366078403953385  0.9572909150578025  0.5654560133720005
  0.6956038292170795  0.6235579928795362  0.3002005374239925
  0.8165792892741520  0.0381172600384880  0.3891197152572852
  0.9330627964820990  0.6245662321400169  0.7883475700610191
  0.5603667650784397  0.7072009126602784  0.6997345543814567
  0.0660378635139785  0.7166865406042099  0.8339029524289464
  0.9454836258836870  0.1226626346362627  0.3001158143872577
  0.9337275818372511  0.7876377242911494  0.6109140364735989
  0.4336202582147147  0.7873851813611238  0.2556571958784915
  0.3087215398805242  0.3739766857993870  0.7888030522222725
  0.4396816913910398  0.4538001147665015  0.2113570715802214
  0.1869048892210931  0.1218634554944457  0.5214586993791626
  0.8100896790909480  0.7072112249163164  0.6997735675436118
  0.0588087394249096  0.0379927531037397  0.6109258369267038
  0.5660703371951155  0.2136955373647215  0.8332168605563692
  0.3117884888895243  0.8717243492267980  0.5215195645321640
  0.6864819207721728  0.2861092676574554  0.1239104445411011
  0.1904007127391223  0.9547439614663974  0.2117107181311398
  0.6840976114946929  0.2886911270734961  0.6110470770632254
  0.3089316398143650  0.0384590094880624  0.6110851404562576
  0.9339920094253170  0.1247013533104775  0.7885922714826296
  0.4363891475875286  0.7979075286616268  0.8762125350141555
  0.8154690965201472  0.0408061009559904  0.7442852203618843
  0.9353089882676370  0.4580734769979631  0.6996450640334635
  0.1911669940821767  0.6249900881185972  0.6550721037717739
  0.3101625431759166  0.7068881125214771  0.6997756741221713
  0.9341138110624502  0.2869858343268554  0.1239089523332471
  0.4375000972683640  0.4557670656501756  0.4785362324921911
  0.0624541882137669  0.7060376543984098  0.4784846586600299
  0.9370438845891360  0.1207860604547043  0.4344607619700193
  0.4445887330330055  0.1228188449553615  0.3003915668511967
  0.1871790766882705  0.1194471799532008  0.4343368685215931
  0.5629936051590791  0.0407306714339909  0.8760643544775634
  0.1868660089963743  0.9569938987776125  0.5655454499070299
  0.6847281656017161  0.7882627778987724  0.1243508621846151
  0.5591114428656585  0.7022091233825736  0.3449388067315966
  0.3161851307261666  0.0373495920081431  0.3889710872286352
  0.6823547348662149  0.1139098982676499  0.1668708553095395
  0.8156847630409719  0.2035122932272872  0.2111367077433916
  0.0591361893729437  0.5372558042784540  0.2557140659319123
  0.5624102426849213  0.7059054125836012  0.4786079940480372
  0.4353322419160651  0.7868964277511389  0.1241338674093242
  0.5699902787577747  0.3721606758653562  0.3002881279109941
  0.4336871787304534  0.9526932394008343  0.3449056203505130
  0.1848900095875513  0.9572137963154610  0.6997600314134651
  0.4318386702875427  0.6128209230967386  0.1660934247169056
  0.9398509479179488  0.4534882127251397  0.2115805111354837
  0.0618104246967413  0.5297911452005937  0.1240737978756190
  0.8119011198156302  0.3723718098812340  0.5214446450008338
  0.9446757400939086  0.6226524895776088  0.2999881579556235
  0.3093456027101136  0.0372215707325722  0.2555032195898285
  0.6840045514188807  0.7882787230788568  0.6108991899710819
  0.1917319134327998  0.4634365756116889  0.8334639085206943
  0.4324312170571671  0.1117547177093393  0.1665730145713804
  0.3116689712513396  0.3720530345145034  0.5213698977506890
  0.4329334189963341  0.6231788127813445  0.7889620207960344
  0.0589156628344935  0.0372972148147027  0.2557938601937762
  0.5623388742322830  0.7069980054629204  0.5655359828309072
  0.9397693397777490  0.2908133844831706  0.7445242427309914
  0.6822802833021688  0.1229457365039812  0.7885296070744825
  0.1899287108314696  0.4531450789151042  0.2111416337587923
  0.9413373794408775  0.7875910201395577  0.3889080557794889
  0.6854388896187474  0.2990509698165576  0.8760167342062016
  0.5565131550763289  0.8620109459006058  0.1663096583786449
  0.4353519251663979  0.4576859750870257  0.6997641730966538
  0.9342102949295423  0.9520040236370531  0.3447480395626203
  0.6866182492427901  0.6214631151996672  0.5212873301222808
  0.0661696239534999  0.8744011604728794  0.6550018832891720
  0.0588135242547718  0.8742529276562453  0.7884503033314505
  0.0662846557333734  0.3745613234865407  0.6549544979358158
  0.6872918903028576  0.4559346957468183  0.4785804914623342
  0.1837084686193478  0.7870273886667496  0.2554905262098259
  0.4373964895405008  0.1213203834437442  0.4344068237568444
  0.8140835565238089  0.0306955082286643  0.1240189973749502
  0.9366635388698330  0.6219673728451039  0.5214177681764368
  0.4412258152958420  0.1244060030384936  0.6549252300847880
  0.8133005872706850  0.5296490952201581  0.1240195742444737
  0.4337978732600911  0.4524538056779826  0.3449559197721567
  0.8092110720941430  0.2027468361700427  0.3447989452028978
  0.3089368695387297  0.7015972338979981  0.3447705165342626
  0.6912730274938229  0.1248824801521856  0.6549907176582319
  0.5704446515225935  0.8731850902350915  0.3002813725374975
  0.0653662878475392  0.5409227146782106  0.7443183226488197
  0.9409999178564147  0.9537583472428890  0.2112950641648678
  0.8161957141174032  0.7034283425806677  0.2114851195553835
  0.0699415201821366  0.8734933342857303  0.3003379591913739
  0.1954507307245599  0.1230787580260522  0.3002479496164797
  0.0584682534009450  0.7019458139708254  0.3448595308413459
  0.8091013470596603  0.0383927925698466  0.6109909046821511
  0.0626617480492569  0.3712581548101243  0.4343752369842643
  0.5586062304350211  0.2027161164577560  0.3447556210581803
  0.8206632855922378  0.3729998410600271  0.3001362852789592
  0.5599904798259789  0.0377210257046785  0.2554826104082962
  0.5665847949902769  0.5376091853721495  0.3890764320942004
  0.0626247649545054  0.2060739028857562  0.4786486294537771
  0.3102090245563011  0.8731342161594340  0.7884395676602223
  0.9352186632482842  0.9581477217777468  0.6996639578121105
  0.0697759910972309  0.3734587000381518  0.2999978899789158
  0.6910827092784892  0.6248840691438563  0.6552273261557846
  0.6868252898076844  0.4569034529308553  0.5653752407208747
  0.4415312867223636  0.9555389552112832  0.2120458465329274
  0.3125229364885341  0.2057976588534887  0.4787295752014638
  0.8121718769247074  0.5403023355483058  0.8758473645790151
  0.6878195987234030  0.6212386972548370  0.4343894452828180
  0.8106330817258163  0.2074084009213356  0.6998428249560703
  0.8122381312921533  0.7059551866960152  0.4786002776249283
  0.8115000094774849  0.8714034435140146  0.4342203965146101
  0.9374149608668509  0.9556156068543086  0.4786904637721288
  0.5622810989577444  0.2057652679359909  0.4786572635809551
  0.1873619357094907  0.6205306425941464  0.4343872897952837
  0.3150384087685356  0.0417179056254443  0.7441304623955246
  0.9412878721502562  0.6250373010928100  0.6549337607371964
  0.5663087721849563  0.7135898317556405  0.8333109661452548
  0.3207805165574841  0.3727228806711703  0.3001490919336354
  0.3152717936119477  0.5413561975542250  0.7443048251581934
  0.1872227477007847  0.4557571179823651  0.4786756262411041
  0.3143273560387796  0.0410976697585915  0.8759056247207042
  0.1852688043922753  0.4578631033845849  0.6996598530797886
  0.5618063119949416  0.3720404111008072  0.5214003996354006
  0.1911770699624164  0.2876157937911655  0.3888295525217185
  0.3156464966133912  0.2049086950958023  0.2113402984641629
  0.0674629244976369  0.7035871516366109  0.2113045939680344
  0.5621434969221843  0.3708593843022485  0.4343767474187310
  0.4367459846231669  0.6220463934704153  0.5213581588721502
  0.8171346902743314  0.7153427788760941  0.8333766399140510
  0.0588822349570836  0.3752031864642282  0.7884468579105273
  0.4367827684223237  0.2984234476041017  0.8763431770948295
  0.3114295942836393  0.0310182948649207  0.1241577427831122
  0.6878605318930515  0.1200515976147543  0.4343211902462880
  0.1835642262873724  0.9520142231704460  0.3448722754384665
  0.0669346100024715  0.2152361334437435  0.8339973725567271
  0.5592638155329849  0.0387163381631551  0.6111230180886404
  0.6891949930739197  0.4542899450277578  0.2117758024623600
  0.1896473277704858  0.7916517520065831  0.7443972105253244
  0.1956887042704637  0.6229869608956102  0.3001331578155918
  0.4413899772409380  0.7879067412364238  0.3891367936979877
  0.4331808912485345  0.2875574171565166  0.2557587782328170
  0.0632142868908656  0.5408498336830566  0.8758822131350698
  0.5655388379477270  0.0412382792637358  0.7442914058971366
  0.1876103701889770  0.7974839379833537  0.8760713312173770
  0.9373924938160579  0.4556106800631132  0.4785498352001307
  0.5651119995173344  0.5413191325924268  0.7440671069849958
  0.8112008856062476  0.2068535503166001  0.5654785888245314
  0.1844235994083217  0.6225968569068482  0.7885216212283543
  0.0676342630804301  0.5386849324953709  0.3890545487235620
  0.0606660309285601  0.7075301169615457  0.6996891641151696
  0.3076475184497955  0.5373116982694148  0.2555327807244599
  0.3145284862593958  0.7030837349161740  0.2122701255027414
  0.3060902919076744  0.8645538440400574  0.1657882156534764
  0.4367507423446257  0.6206735702005525  0.4344023887151606
  0.9370904458876157  0.6201513226369024  0.4344671089749307
  0.9347928027877308  0.2979970586862905  0.8755805021036969
  0.9370427412841364  0.7955689381978551  0.8755746982555215
  0.0653794705638577  0.0389705441183152  0.8757608839712497
  0.5622901846182506  0.5288841414439686  0.1245280911900121
  0.8056071275002445  0.3653006824517371  0.1658948934952388
  0.0636103099220833  0.8721151589765864  0.4343204056975365
  0.9366288709987720  0.1220121539499090  0.5215021250996351
  0.1928758729042513  0.7875960313575163  0.3889256342173051
  0.5666860309149943  0.7034980744042505  0.2119538460756080
 
  0.00000000E+00  0.00000000E+00  0.00000000E+00
  0.00000000E+00  0.00000000E+00  0.00000000E+00
  0.00000000E+00  0.00000000E+00  0.00000000E+00
  0.00000000E+00  0.00000000E+00  0.00000000E+00
  0.00000000E+00  0.00000000E+00  0.00000000E+00
  0.00000000E+00  0.00000000E+00  0.00000000E+00
  0.00000000E+00  0.00000000E+00  0.00000000E+00
  0.00000000E+00  0.00000000E+00  0.00000000E+00
  0.00000000E+00  0.00000000E+00  0.00000000E+00
  0.00000000E+00  0.00000000E+00  0.00000000E+00
  0.00000000E+00  0.00000000E+00  0.00000000E+00
  0.00000000E+00  0.00000000E+00  0.00000000E+00
  0.00000000E+00  0.00000000E+00  0.00000000E+00
  0.00000000E+00  0.00000000E+00  0.00000000E+00
  0.00000000E+00  0.00000000E+00  0.00000000E+00
  0.00000000E+00  0.00000000E+00  0.00000000E+00
  0.00000000E+00  0.00000000E+00  0.00000000E+00
  0.00000000E+00  0.00000000E+00  0.00000000E+00
  0.00000000E+00  0.00000000E+00  0.00000000E+00
  0.00000000E+00  0.00000000E+00  0.00000000E+00
  0.00000000E+00  0.00000000E+00  0.00000000E+00
  0.00000000E+00  0.00000000E+00  0.00000000E+00
  0.00000000E+00  0.00000000E+00  0.00000000E+00
  0.00000000E+00  0.00000000E+00  0.00000000E+00
  0.00000000E+00  0.00000000E+00  0.00000000E+00
  0.00000000E+00  0.00000000E+00  0.00000000E+00
  0.00000000E+00  0.00000000E+00  0.00000000E+00
  0.00000000E+00  0.00000000E+00  0.00000000E+00
  0.00000000E+00  0.00000000E+00  0.00000000E+00
  0.00000000E+00  0.00000000E+00  0.00000000E+00
  0.00000000E+00  0.00000000E+00  0.00000000E+00
  0.00000000E+00  0.00000000E+00  0.00000000E+00
  0.00000000E+00  0.00000000E+00  0.00000000E+00
  0.00000000E+00  0.00000000E+00  0.00000000E+00
  0.00000000E+00  0.00000000E+00  0.00000000E+00
  0.00000000E+00  0.00000000E+00  0.00000000E+00
  0.00000000E+00  0.00000000E+00  0.00000000E+00
  0.00000000E+00  0.00000000E+00  0.00000000E+00
  0.00000000E+00  0.00000000E+00  0.00000000E+00
  0.00000000E+00  0.00000000E+00  0.00000000E+00
  0.00000000E+00  0.00000000E+00  0.00000000E+00
  0.00000000E+00  0.00000000E+00  0.00000000E+00
  0.00000000E+00  0.00000000E+00  0.00000000E+00
  0.00000000E+00  0.00000000E+00  0.00000000E+00
  0.00000000E+00  0.00000000E+00  0.00000000E+00
  0.00000000E+00  0.00000000E+00  0.00000000E+00
  0.00000000E+00  0.00000000E+00  0.00000000E+00
  0.00000000E+00  0.00000000E+00  0.00000000E+00
  0.00000000E+00  0.00000000E+00  0.00000000E+00
  0.00000000E+00  0.00000000E+00  0.00000000E+00
  0.00000000E+00  0.00000000E+00  0.00000000E+00
  0.00000000E+00  0.00000000E+00  0.00000000E+00
  0.00000000E+00  0.00000000E+00  0.00000000E+00
  0.00000000E+00  0.00000000E+00  0.00000000E+00
  0.00000000E+00  0.00000000E+00  0.00000000E+00
  0.00000000E+00  0.00000000E+00  0.00000000E+00
  0.00000000E+00  0.00000000E+00  0.00000000E+00
  0.00000000E+00  0.00000000E+00  0.00000000E+00
  0.00000000E+00  0.00000000E+00  0.00000000E+00
  0.00000000E+00  0.00000000E+00  0.00000000E+00
  0.00000000E+00  0.00000000E+00  0.00000000E+00
  0.00000000E+00  0.00000000E+00  0.00000000E+00
  0.00000000E+00  0.00000000E+00  0.00000000E+00
  0.00000000E+00  0.00000000E+00  0.00000000E+00
  0.00000000E+00  0.00000000E+00  0.00000000E+00
  0.00000000E+00  0.00000000E+00  0.00000000E+00
  0.00000000E+00  0.00000000E+00  0.00000000E+00
  0.00000000E+00  0.00000000E+00  0.00000000E+00
  0.00000000E+00  0.00000000E+00  0.00000000E+00
  0.00000000E+00  0.00000000E+00  0.00000000E+00
  0.00000000E+00  0.00000000E+00  0.00000000E+00
  0.00000000E+00  0.00000000E+00  0.00000000E+00
  0.00000000E+00  0.00000000E+00  0.00000000E+00
  0.00000000E+00  0.00000000E+00  0.00000000E+00
  0.00000000E+00  0.00000000E+00  0.00000000E+00
  0.00000000E+00  0.00000000E+00  0.00000000E+00
  0.00000000E+00  0.00000000E+00  0.00000000E+00
  0.00000000E+00  0.00000000E+00  0.00000000E+00
  0.00000000E+00  0.00000000E+00  0.00000000E+00
  0.00000000E+00  0.00000000E+00  0.00000000E+00
  0.00000000E+00  0.00000000E+00  0.00000000E+00
  0.00000000E+00  0.00000000E+00  0.00000000E+00
  0.00000000E+00  0.00000000E+00  0.00000000E+00
  0.00000000E+00  0.00000000E+00  0.00000000E+00
  0.00000000E+00  0.00000000E+00  0.00000000E+00
  0.00000000E+00  0.00000000E+00  0.00000000E+00
  0.00000000E+00  0.00000000E+00  0.00000000E+00
  0.00000000E+00  0.00000000E+00  0.00000000E+00
  0.00000000E+00  0.00000000E+00  0.00000000E+00
  0.00000000E+00  0.00000000E+00  0.00000000E+00
  0.00000000E+00  0.00000000E+00  0.00000000E+00
  0.00000000E+00  0.00000000E+00  0.00000000E+00
  0.00000000E+00  0.00000000E+00  0.00000000E+00
  0.00000000E+00  0.00000000E+00  0.00000000E+00
  0.00000000E+00  0.00000000E+00  0.00000000E+00
  0.00000000E+00  0.00000000E+00  0.00000000E+00
  0.00000000E+00  0.00000000E+00  0.00000000E+00
  0.00000000E+00  0.00000000E+00  0.00000000E+00
  0.00000000E+00  0.00000000E+00  0.00000000E+00
  0.00000000E+00  0.00000000E+00  0.00000000E+00
  0.00000000E+00  0.00000000E+00  0.00000000E+00
  0.00000000E+00  0.00000000E+00  0.00000000E+00
  0.00000000E+00  0.00000000E+00  0.00000000E+00
  0.00000000E+00  0.00000000E+00  0.00000000E+00
  0.00000000E+00  0.00000000E+00  0.00000000E+00
  0.00000000E+00  0.00000000E+00  0.00000000E+00
  0.00000000E+00  0.00000000E+00  0.00000000E+00
  0.00000000E+00  0.00000000E+00  0.00000000E+00
  0.00000000E+00  0.00000000E+00  0.00000000E+00
  0.00000000E+00  0.00000000E+00  0.00000000E+00
  0.00000000E+00  0.00000000E+00  0.00000000E+00
  0.00000000E+00  0.00000000E+00  0.00000000E+00
  0.00000000E+00  0.00000000E+00  0.00000000E+00
  0.00000000E+00  0.00000000E+00  0.00000000E+00
  0.00000000E+00  0.00000000E+00  0.00000000E+00
  0.00000000E+00  0.00000000E+00  0.00000000E+00
  0.00000000E+00  0.00000000E+00  0.00000000E+00
  0.00000000E+00  0.00000000E+00  0.00000000E+00
  0.00000000E+00  0.00000000E+00  0.00000000E+00
  0.00000000E+00  0.00000000E+00  0.00000000E+00
  0.00000000E+00  0.00000000E+00  0.00000000E+00
  0.00000000E+00  0.00000000E+00  0.00000000E+00
  0.00000000E+00  0.00000000E+00  0.00000000E+00
  0.00000000E+00  0.00000000E+00  0.00000000E+00
  0.00000000E+00  0.00000000E+00  0.00000000E+00
  0.00000000E+00  0.00000000E+00  0.00000000E+00
  0.00000000E+00  0.00000000E+00  0.00000000E+00
  0.00000000E+00  0.00000000E+00  0.00000000E+00
  0.00000000E+00  0.00000000E+00  0.00000000E+00
  0.00000000E+00  0.00000000E+00  0.00000000E+00
  0.00000000E+00  0.00000000E+00  0.00000000E+00
  0.00000000E+00  0.00000000E+00  0.00000000E+00
  0.00000000E+00  0.00000000E+00  0.00000000E+00
  0.00000000E+00  0.00000000E+00  0.00000000E+00
  0.00000000E+00  0.00000000E+00  0.00000000E+00
  0.00000000E+00  0.00000000E+00  0.00000000E+00
  0.00000000E+00  0.00000000E+00  0.00000000E+00
  0.00000000E+00  0.00000000E+00  0.00000000E+00
  0.00000000E+00  0.00000000E+00  0.00000000E+00
  0.00000000E+00  0.00000000E+00  0.00000000E+00
  0.00000000E+00  0.00000000E+00  0.00000000E+00
  0.00000000E+00  0.00000000E+00  0.00000000E+00
  0.00000000E+00  0.00000000E+00  0.00000000E+00
  0.00000000E+00  0.00000000E+00  0.00000000E+00
  0.00000000E+00  0.00000000E+00  0.00000000E+00
  0.00000000E+00  0.00000000E+00  0.00000000E+00
  0.00000000E+00  0.00000000E+00  0.00000000E+00
  0.00000000E+00  0.00000000E+00  0.00000000E+00
  0.00000000E+00  0.00000000E+00  0.00000000E+00
  0.00000000E+00  0.00000000E+00  0.00000000E+00
  0.00000000E+00  0.00000000E+00  0.00000000E+00
  0.00000000E+00  0.00000000E+00  0.00000000E+00
  0.00000000E+00  0.00000000E+00  0.00000000E+00
  0.00000000E+00  0.00000000E+00  0.00000000E+00
  0.00000000E+00  0.00000000E+00  0.00000000E+00
  0.00000000E+00  0.00000000E+00  0.00000000E+00
  0.00000000E+00  0.00000000E+00  0.00000000E+00
  0.00000000E+00  0.00000000E+00  0.00000000E+00
  0.00000000E+00  0.00000000E+00  0.00000000E+00
  0.00000000E+00  0.00000000E+00  0.00000000E+00
  0.00000000E+00  0.00000000E+00  0.00000000E+00
  0.00000000E+00  0.00000000E+00  0.00000000E+00
  0.00000000E+00  0.00000000E+00  0.00000000E+00
  0.00000000E+00  0.00000000E+00  0.00000000E+00
  0.00000000E+00  0.00000000E+00  0.00000000E+00
  0.00000000E+00  0.00000000E+00  0.00000000E+00
  0.00000000E+00  0.00000000E+00  0.00000000E+00
  0.00000000E+00  0.00000000E+00  0.00000000E+00
  0.00000000E+00  0.00000000E+00  0.00000000E+00
  0.00000000E+00  0.00000000E+00  0.00000000E+00
  0.00000000E+00  0.00000000E+00  0.00000000E+00
  0.00000000E+00  0.00000000E+00  0.00000000E+00
  0.00000000E+00  0.00000000E+00  0.00000000E+00
  0.00000000E+00  0.00000000E+00  0.00000000E+00
  0.00000000E+00  0.00000000E+00  0.00000000E+00
  0.00000000E+00  0.00000000E+00  0.00000000E+00
  0.00000000E+00  0.00000000E+00  0.00000000E+00
  0.00000000E+00  0.00000000E+00  0.00000000E+00
  0.00000000E+00  0.00000000E+00  0.00000000E+00
  0.00000000E+00  0.00000000E+00  0.00000000E+00
  0.00000000E+00  0.00000000E+00  0.00000000E+00
  0.00000000E+00  0.00000000E+00  0.00000000E+00
  0.00000000E+00  0.00000000E+00  0.00000000E+00
  0.00000000E+00  0.00000000E+00  0.00000000E+00
  0.00000000E+00  0.00000000E+00  0.00000000E+00
  0.00000000E+00  0.00000000E+00  0.00000000E+00
  0.00000000E+00  0.00000000E+00  0.00000000E+00
  0.00000000E+00  0.00000000E+00  0.00000000E+00
  0.00000000E+00  0.00000000E+00  0.00000000E+00
  0.00000000E+00  0.00000000E+00  0.00000000E+00
  0.00000000E+00  0.00000000E+00  0.00000000E+00
  0.00000000E+00  0.00000000E+00  0.00000000E+00
  0.00000000E+00  0.00000000E+00  0.00000000E+00
  0.00000000E+00  0.00000000E+00  0.00000000E+00
  0.00000000E+00  0.00000000E+00  0.00000000E+00
  0.00000000E+00  0.00000000E+00  0.00000000E+00
  0.00000000E+00  0.00000000E+00  0.00000000E+00
  0.00000000E+00  0.00000000E+00  0.00000000E+00
  0.00000000E+00  0.00000000E+00  0.00000000E+00
  0.00000000E+00  0.00000000E+00  0.00000000E+00
  0.00000000E+00  0.00000000E+00  0.00000000E+00
  0.00000000E+00  0.00000000E+00  0.00000000E+00
  0.00000000E+00  0.00000000E+00  0.00000000E+00
  0.00000000E+00  0.00000000E+00  0.00000000E+00
  0.00000000E+00  0.00000000E+00  0.00000000E+00
  0.00000000E+00  0.00000000E+00  0.00000000E+00
  0.00000000E+00  0.00000000E+00  0.00000000E+00
  0.00000000E+00  0.00000000E+00  0.00000000E+00
  0.00000000E+00  0.00000000E+00  0.00000000E+00
  0.00000000E+00  0.00000000E+00  0.00000000E+00
  0.00000000E+00  0.00000000E+00  0.00000000E+00
  0.00000000E+00  0.00000000E+00  0.00000000E+00
  0.00000000E+00  0.00000000E+00  0.00000000E+00
  0.00000000E+00  0.00000000E+00  0.00000000E+00
  0.00000000E+00  0.00000000E+00  0.00000000E+00
  0.00000000E+00  0.00000000E+00  0.00000000E+00
  0.00000000E+00  0.00000000E+00  0.00000000E+00
  0.00000000E+00  0.00000000E+00  0.00000000E+00
  0.00000000E+00  0.00000000E+00  0.00000000E+00
  0.00000000E+00  0.00000000E+00  0.00000000E+00
  0.00000000E+00  0.00000000E+00  0.00000000E+00
  0.00000000E+00  0.00000000E+00  0.00000000E+00
  0.00000000E+00  0.00000000E+00  0.00000000E+00
  0.00000000E+00  0.00000000E+00  0.00000000E+00
  0.00000000E+00  0.00000000E+00  0.00000000E+00
  0.00000000E+00  0.00000000E+00  0.00000000E+00
  0.00000000E+00  0.00000000E+00  0.00000000E+00
  0.00000000E+00  0.00000000E+00  0.00000000E+00
  0.00000000E+00  0.00000000E+00  0.00000000E+00
  0.00000000E+00  0.00000000E+00  0.00000000E+00
  0.00000000E+00  0.00000000E+00  0.00000000E+00
  0.00000000E+00  0.00000000E+00  0.00000000E+00
  0.00000000E+00  0.00000000E+00  0.00000000E+00
  0.00000000E+00  0.00000000E+00  0.00000000E+00
  0.00000000E+00  0.00000000E+00  0.00000000E+00
  0.00000000E+00  0.00000000E+00  0.00000000E+00
  0.00000000E+00  0.00000000E+00  0.00000000E+00
  0.00000000E+00  0.00000000E+00  0.00000000E+00
  0.00000000E+00  0.00000000E+00  0.00000000E+00
  0.00000000E+00  0.00000000E+00  0.00000000E+00
  0.00000000E+00  0.00000000E+00  0.00000000E+00
  0.00000000E+00  0.00000000E+00  0.00000000E+00
  0.00000000E+00  0.00000000E+00  0.00000000E+00
  0.00000000E+00  0.00000000E+00  0.00000000E+00
  0.00000000E+00  0.00000000E+00  0.00000000E+00
  0.00000000E+00  0.00000000E+00  0.00000000E+00
  0.00000000E+00  0.00000000E+00  0.00000000E+00