CuInSe2gb                               
   1.00000000000000     
     9.7266780392896699    0.0000000000000000    0.0000000000000000
     0.0000000000000000    8.4235502764570693    0.0000000000000000
     0.0000000000000000    0.0000000000000000   45.0000000000000000
   Fe   Mn
   281     7
Direct
  0.0627775324116585  0.0322667764097672  0.1247790822672771
  0.0629938217815505  0.8730014878808484  0.5217479002265832
  0.1918462483767046  0.1249657281617514  0.7882910742623800
  0.4350638261875066  0.2872469601763251  0.3894179056373525
  0.3110167641423963  0.7118026437227721  0.8334704144376203
  0.8110309282400030  0.2111078039425634  0.8335462823203067
  0.1853895896731204  0.7873367666170152  0.3894782377274877
  0.5633160723133812  0.2070418978763046  0.5656566873281091
  0.0625962354607728  0.0417295779085951  0.7439257181524188
  0.8133518576387193  0.8731907690920809  0.5217694868623791
  0.1877224362702290  0.2918973840518697  0.7439236122681951
  0.9378004757462569  0.4535631142649837  0.3450528675952487
  0.9356393065545987  0.2867760840838369  0.3894487456055647
  0.4384133504392212  0.6236576485224642  0.5217685181531094
  0.1873469839718311  0.7916639888598898  0.6104634055464698
  0.5597601655099047  0.0379468235905659  0.3894764294945700
  0.9350843231198706  0.9621197660750591  0.8334879718144086
  0.3133904339404417  0.5444482796533362  0.8752592924566955
  0.6875665149201257  0.2917710658199598  0.7439108345088575
  0.1901758578396079  0.6142372348234004  0.1666893797936439
  0.8130429054071987  0.2051112382482623  0.4781420349904370
  0.8123743473128101  0.5416098218997648  0.6104334988198576
  0.3125559248695898  0.8709714770962370  0.4341724506248871
  0.8123774465580067  0.0353535437741826  0.2560700005817455
  0.6877512360983903  0.9531045925182190  0.3450418650460128
  0.9403694539666259  0.1141290534588534  0.1666977052978750
  0.9384174127253112  0.1230540531773414  0.5216967656474647
  0.5623106380555145  0.5356913498583256  0.2560188931474736
  0.6884875773608297  0.7933950485255263  0.8753645695259307
  0.5661784024160640  0.3650885127331941  0.1664889269735600
  0.4377924736679896  0.7916819222640771  0.7439386777647072
  0.8133663933492188  0.7072177552789661  0.5657448460480177
  0.5666239138770460  0.8746736304456799  0.7881400155165553
  0.6884986355526579  0.1232043521219046  0.5217193452239635
  0.1876021281463148  0.2858866572360896  0.2560768360664263
  0.9358079233085147  0.4620961377734202  0.8334205994761998
  0.0637259920557205  0.2081527364661657  0.6997165501170951
  0.4387455183188501  0.9581554859938670  0.6997605338212193
  0.3111382827104714  0.2114925576992673  0.8335697172172913
  0.4358150801533286  0.6251654313487373  0.6549067442361360
  0.3125391086117026  0.5416430028278777  0.6104407865446874
  0.9381180850084957  0.4571065182353753  0.5656987791503810
  0.6876279394687800  0.7916221039335278  0.7438845922874332
  0.3108401986590961  0.8751691240363850  0.6549245014572441
  0.6856984170816346  0.7874231864911334  0.3894521668823231
  0.9376085786106935  0.7915550052961200  0.7438917760790521
  0.0627235904856377  0.2038731759818531  0.3451596044081260
  0.4394282951038185  0.7828565791470655  0.1249228972300209
  0.4417497003542522  0.1251206257185948  0.7883002361856125
  0.0592193645775158  0.2018599141751904  0.2116413872565608
  0.0656741593265374  0.3649594445635650  0.1666189830969891
  0.9375643968856714  0.7860081497191453  0.2559782679581701
  0.5636611983060601  0.2082159793922703  0.6997154231456233
  0.6885422982832444  0.9582004761962420  0.6997081684513716
  0.6852008986734088  0.2872822764573283  0.3894061047961174
  0.4385104025919901  0.9572689538341581  0.5658343411032586
  0.8166619692041422  0.3753933999864075  0.7881853645612860
  0.6874358189054089  0.2858639685143970  0.2561080658199777
  0.1882972752137415  0.4570236795364990  0.5657173666986807
  0.0653095471487677  0.8646185280255179  0.1665339255235635
  0.1874445899968089  0.2914472757451843  0.6104445284763516
  0.5629371736632329  0.7032367444431272  0.3450025856335454
  0.3138501595393158  0.2081700196323369  0.6997293711560310
  0.5635317558585498  0.5441479484875837  0.8753246815889892
  0.0631304716452065  0.7070855084754821  0.5658157522473438
  0.6915861935224202  0.6251839706976315  0.7883251696303967
  0.3110218182233946  0.5376862926341511  0.3894663131623230
  0.1881444678239996  0.6234695498122230  0.5217161065131514
  0.5626848807987375  0.8710109533140364  0.4342923634159527
  0.4382879022243917  0.4571530034275573  0.5657138830622133
  0.4376725321337932  0.2919952687803987  0.7439405271498326
  0.8077582450437987  0.8711979566228095  0.3002454998008375
  0.8128735929742317  0.7035302210561329  0.3451668270221341
  0.4361320492796322  0.4614233491406943  0.8335095936392687
  0.6878497845419711  0.9547122345971434  0.4782311548257019
  0.6886985434786844  0.4582910820800871  0.6997265334041973
  0.5632100910047655  0.8732779513608523  0.5217331561458073
  0.5607883302943310  0.3753716830999720  0.6548783135359278
  0.8106394032216929  0.8752563715588242  0.6549242661885438
  0.8132039845361125  0.3708370725984939  0.4342426158206494
  0.8124887785915030  0.5356467552766884  0.2561220982843754
  0.6860219545069292  0.4620730588831951  0.8334881055699056
  0.1883819687603413  0.7825571281491873  0.1249168855226335
  0.0641118568239579  0.0449062883573823  0.8752804787756495
  0.3109563276579542  0.3753400864280577  0.6549132257221725
  0.3128843544953640  0.2033783011945786  0.3450304632013183
  0.8125792248340327  0.5413187391075193  0.7439262153994490
  0.6864772758310836  0.9620380944047836  0.8335520448060306
  0.5607551095294177  0.8752696102436449  0.6549316505909006
  0.3131713474787483  0.7070119303056254  0.5658327439380235
  0.3134362859405371  0.5328677089224042  0.1244935619905179
  0.6841215730138703  0.9522830285538202  0.2118178265926422
  0.3133698249953111  0.2074133397894331  0.5658088818664124
  0.3127032279271431  0.5417565681186006  0.7438756775061405
  0.6881812505481543  0.9571412248142623  0.5657203102300515
  0.4374351412246201  0.7916007338575014  0.6104444131442662
  0.6906687698566352  0.6150212976427705  0.1666524331247762
  0.3078220347447178  0.8711361734927914  0.3002060407541385
  0.3129522118745189  0.7042623207184877  0.4781850889768881
  0.9374630992417688  0.2916255003262936  0.6104517670177407
  0.4329167039038938  0.6209151479363273  0.3003093738609394
  0.8159929611766996  0.8646815100376072  0.1666329662984258
  0.5587304920381805  0.2018109635354541  0.2117539657256677
  0.9401510397834617  0.6153464499848996  0.1666625631190214
  0.9385801003607586  0.7928093093037404  0.8752711780510266
  0.5668886669869568  0.3749827237175737  0.7882449444882856
  0.0632432157847852  0.3728726993966162  0.5217477820005851
  0.5631842489657805  0.3731323537799899  0.5216443820411647
  0.6831557171637913  0.1210914390171855  0.3003333714607273
  0.4356310733828889  0.9615729829161758  0.8335607732020300
  0.1893561770662494  0.2826655200865154  0.1247307471224433
  0.8166861128700202  0.8748249224651737  0.7882980206550553
  0.3121495733953138  0.3711732624086433  0.4342888816834239
  0.9374389685665594  0.7915882432197713  0.6104177711933276
  0.4374673397352998  0.2915815393984154  0.6104486906828172
  0.1885176685987045  0.4530326102136427  0.3450598445111767
  0.4387567771445375  0.2828886241409142  0.1246181620786613
  0.6874080118445365  0.7857344991481247  0.2559308340812619
  0.1888754967368489  0.9580769307067659  0.6997848428039215
  0.1887142886440022  0.2937686899050007  0.8753286650529599
  0.1857943513707540  0.1254126318410954  0.6548937835457249
  0.9356563920574852  0.1253356041405519  0.6548778171054739
  0.3087046790237066  0.2016101949620852  0.2118163878240617
  0.0608633188655100  0.0372941451799055  0.3895163603014856
  0.1905868508931894  0.1144368277165591  0.1666006979463798
  0.0623432898103874  0.5417258586071558  0.6104205970138422
  0.9372712496637119  0.2859712383900848  0.2559885660456636
  0.5623505697663747  0.5417041747716167  0.6104489681510218
  0.9382002973453797  0.9571745731698567  0.5657816681519042
  0.6826838881283002  0.6211140613368700  0.3002424566127263
  0.9374838515429494  0.6208565265924668  0.4343784513751032
  0.9419215431861118  0.6252202466428355  0.7883026124009893
  0.5637465222572060  0.7082133550567195  0.6997354136621614
  0.0613146144629161  0.7117014027976327  0.8332928304315321
  0.9327502079281899  0.1214835108928330  0.3002911286561988
  0.9387389985594840  0.4583182927582815  0.6997313860000607
  0.4376601133103283  0.7858393661671117  0.2560746955387894
  0.3168264628114738  0.3747412155104299  0.7882624306117738
  0.4344659372872490  0.4524219720259813  0.2118677941948506
  0.1880928439909837  0.1235668587218705  0.5216770166683478
  0.8136951223601502  0.7083945196157229  0.6996814553768103
  0.0624987379176152  0.0414201373596101  0.6104490434048350
  0.5616462359981615  0.2116657903701327  0.8336726158249566
  0.3133344326376941  0.8729584454177161  0.5217328161599560
  0.6898554566750640  0.2828393019496478  0.1249577918930751
  0.1838960949850393  0.9522170175384881  0.2117353728407294
  0.6873056907477748  0.2916565691001485  0.6104407584148684
  0.3123419655509562  0.0414846332941242  0.6104694923399571
  0.9418527013087830  0.1252438878533178  0.7883388143723763
  0.4387448650272180  0.7937045257716420  0.8752784267699613
  0.8124249292067275  0.0417251844953251  0.7439536546307864
  0.4379436646987188  0.1233460428445842  0.5217215266134976
  0.1858955192706715  0.6252834191544910  0.6549244027062815
  0.3138616775762177  0.7080652116026318  0.6996899479502544
  0.9385896894927418  0.2826358185663463  0.1249829997480115
  0.4381494343895719  0.4552373310737901  0.4781978723952240
  0.0628311910648014  0.7042222964078710  0.4781885508773588
  0.9377944595528838  0.1205017060602660  0.4342877207918441
  0.4329758340379911  0.1209334308042047  0.3003349983920451
  0.1881344788475694  0.1214071437188221  0.4342323719778727
  0.5624317737878216  0.0446882829497065  0.8753394745474800
  0.1881516365586691  0.9570349377578098  0.5654548116205820
  0.6891884449315677  0.7824322240766629  0.1248748818995428
  0.5629333058718639  0.5327739624157218  0.1247310244950555
  0.3106708958045130  0.0377732026490599  0.3895294843190908
  0.6904424703119896  0.1141380431882573  0.1666931004161571
  0.8090364025611002  0.2019810191140393  0.2117254860242893
  0.0624711159363979  0.5359400763890050  0.2560805520273689
  0.5626545052985121  0.7046796311640993  0.4781100214246216
  0.0630580276779109  0.2072951873937774  0.5657733420994553
  0.5577747964638781  0.3710551624830620  0.3003181796927065
  0.4380148358168711  0.9530479584538358  0.3450263044464906
  0.1863671282243095  0.9612480796906986  0.8334316868265135
  0.4407379841716780  0.6141689981920380  0.1665713824235431
  0.9341149686688749  0.4522635509058029  0.2119010709089759
  0.0633488650294172  0.5327125902564078  0.1247762045584189
  0.8134798690986985  0.3729151582626051  0.5218095916079808
  0.9329121879234654  0.6211530397878570  0.3003917902063304
  0.3124754369777698  0.0351947032252226  0.2560845020267803
  0.6872925728103142  0.7914945580380660  0.6104448352885582
  0.1858682306555803  0.4615064721885358  0.8334735305086214
  0.4400181882362773  0.1143143575394598  0.1666708553945317
  0.3130288896459752  0.3728933112377931  0.5217923796649694
  0.4418869756294677  0.6248686011463844  0.7883186147663785
  0.0623229659166891  0.0350589459096673  0.2560143685996323
  0.5633728045029065  0.7072088441943281  0.5657013226274997
  0.9375670445176515  0.2916826062802032  0.7439138335708971
  0.6916993706259842  0.1251896741827520  0.7883743459028502
  0.1840278709601652  0.4524514232555802  0.2119029766212091
  0.9349118533207114  0.7873747840835108  0.3894373855703725
  0.6878202971203485  0.2938465101103190  0.8754405987896525
  0.3157419880728604  0.8642566398371692  0.1665353808909172
  0.4388013140063431  0.4583057031814582  0.6997339740968572
  0.8107723682879481  0.3753410206577653  0.6549012208269284
  0.6881187725736058  0.6233952112016695  0.5217753995781761
  0.0606901906517085  0.8751518452965458  0.6549024163802043
  0.0670110621511944  0.8746831293325136  0.7881755848018481
  0.0607469041408170  0.3753126934015694  0.6549152242985472
  0.6878240951307651  0.4551914423482578  0.4781771837137855
  0.1877347678739470  0.7856671379328206  0.2559416973239364
  0.4373088713284903  0.1210712310785712  0.4341998056150797
  0.8127775990162649  0.0328601656674763  0.1247503458064661
  0.9381871444986905  0.6234372903147727  0.5217760730035200
  0.0622261581014908  0.8707344288944745  0.4342037690469819
  0.8132928651828394  0.5329904202465047  0.1248345813325317
  0.4380663524202131  0.4529809979522775  0.3450690713239477
  0.8127683644744871  0.2030759565423650  0.3449993859054020
  0.3126282811668976  0.7027066657638005  0.3450867127284457
  0.6856784381559088  0.1253853511055047  0.6549073733944737
  0.5577736062512803  0.8708495810324745  0.3002250520743556
  0.0627195856215523  0.5416019036943076  0.7439126064944819
  0.9388706567341891  0.7825454804020670  0.1248983984747244
  0.8089881847218358  0.7021538452158994  0.2116641879852124
  0.0580429118454262  0.8715286877165446  0.3002313495211624
  0.1830168308955948  0.1212576472596819  0.3003638603387074
  0.0633087149179358  0.7030824704231849  0.3449851517524601
  0.8124338976211664  0.0414297553791240  0.6104464679510643
  0.0627990034530687  0.3705874111671840  0.4343641394372573
  0.5629797386649185  0.2036530513926698  0.3450846501265487
  0.8077942220272519  0.3715685290213356  0.3002208778384519
  0.4384422127705124  0.9553529107699157  0.4781537125707611
  0.5598658055547494  0.5376955139655072  0.3894882407226636
  0.0621309829714148  0.2052946430529726  0.4782163054889326
  0.3168296372124868  0.8749833832734021  0.7882665910454355
  0.9387339040821568  0.9581124663089899  0.6997251752304818
  0.0580400870361620  0.3716139189495813  0.3003247911793664
  0.6856905293386890  0.6252094643167253  0.6549030134555074
  0.6883871884150813  0.4572648871185919  0.5656983404470881
  0.4341988626741033  0.9521097792918395  0.2118303122147981
  0.3137436873841633  0.2051960698445639  0.4780572935688090
  0.4358067929116628  0.1254298064756552  0.6549008579552373
  0.6879660147079569  0.6212282162141975  0.4342223998814678
  0.8135856496944694  0.2083415491849479  0.6997126792058583
  0.8129255698539382  0.7051034517634122  0.4783217021422982
  0.8130125468378837  0.8708210900971950  0.4343388844557369
  0.9371274851459338  0.9553900065182606  0.4781357853936745
  0.5624153804278155  0.2050048309555103  0.4782522608452359
  0.1878801281791176  0.6219822590233934  0.4343609865294187
  0.3126117183318458  0.0417899802070969  0.7439392636917587
  0.9356850909966344  0.6252019571017130  0.6549107570883363
  0.5610930104383776  0.7119120986181329  0.8333920983751441
  0.3081217234311285  0.3710630424952913  0.3002299822561281
  0.5589582242827208  0.7021088495835778  0.2117847395088515
  0.1880015606616219  0.4551629096539117  0.4782336581466458
  0.3134203517611954  0.0437664662042693  0.8752987921377551
  0.1889312060455709  0.4582974665932426  0.6997141110803641
  0.8134205803105419  0.5436886547571059  0.8752980322172380
  0.1856963500054344  0.2878509508001993  0.3894450509705917
  0.4375199317929289  0.6214128847382995  0.4342255072158598
  0.0590739616330166  0.7022425061523576  0.2117657752319005
  0.5632398028292878  0.0323053482221001  0.1248251953272275
  0.8162861979593257  0.3644409849971478  0.1666053866049895
  0.8110535873947435  0.7121237753216678  0.8335033859388358
  0.0666500001510224  0.3749158555007311  0.7882327084410211
  0.4392267075900503  0.2939770055562858  0.8753864215955729
  0.3127714820984144  0.0332799407343925  0.1247407612946014
  0.6879647159810994  0.1208696932276877  0.4343046816290357
  0.1884668688980352  0.9531254463789186  0.3450886817204361
  0.0607188577771700  0.2116041292218086  0.8335509258143367
  0.5622560063428370  0.0415374604728717  0.6104345774043515
  0.6839002427182470  0.4521878317069869  0.2118716361039433
  0.1877396870796286  0.7917309265298947  0.7439256088848956
  0.1830961212464433  0.6211379482664474  0.3003136437590076
  0.4356912880095843  0.7873621231733821  0.3893546764711713
  0.4372883588937966  0.2858224573464892  0.2561064279599544
  0.0632975842505703  0.5440685035538871  0.8752999276106602
  0.5626145813135286  0.0417795104325258  0.7439036802685534
  0.1886707816100670  0.7936898250274255  0.8752863298922920
  0.9374081372979495  0.4546794352589552  0.4781723950978141
  0.8100183205302133  0.5373295948162017  0.3894692398957985
  0.8133149963186694  0.2072195388900812  0.5656411373104610
  0.1918717728473774  0.6248174098445536  0.7882863832079366
  0.9343026215362270  0.9523465312639555  0.2118343044311151
  0.0637915504711819  0.7081791617170486  0.6997282733111150
  0.3124468323676049  0.5355553035861490  0.2560818033320048
  0.3089793682340997  0.7019206934240940  0.2117285827319849
  0.5666090161163126  0.8647333253053856  0.1665389306643332
  0.5626052352461729  0.5414774623369709  0.7439463129001008
  0.6875860334737399  0.4534470284879725  0.3450011032396524
  0.9397997772693985  0.2939812874825943  0.8753689363651288
  0.5623447974936634  0.0354127882544609  0.2560564245603322
  0.8094956117833403  0.0377477459079331  0.3894587385822519
  0.3165418010443137  0.3643763619660037  0.1660754091088393
  0.8135621850393471  0.0437207484284340  0.8751201984294215
  0.5628332394012305  0.3708529846851369  0.4342247913744584
  0.0601568673351938  0.5376207699498159  0.3893036956808745
  0.9389103599259154  0.9528340361088972  0.3449255766342266
  0.1878117858010743  0.9546229333316538  0.4783403527256190
 
  0.00000000E+00  0.00000000E+00  0.00000000E+00
  0.00000000E+00  0.00000000E+00  0.00000000E+00
  0.00000000E+00  0.00000000E+00  0.00000000E+00
  0.00000000E+00  0.00000000E+00  0.00000000E+00
  0.00000000E+00  0.00000000E+00  0.00000000E+00
  0.00000000E+00  0.00000000E+00  0.00000000E+00
  0.00000000E+00  0.00000000E+00  0.00000000E+00
  0.00000000E+00  0.00000000E+00  0.00000000E+00
  0.00000000E+00  0.00000000E+00  0.00000000E+00
  0.00000000E+00  0.00000000E+00  0.00000000E+00
  0.00000000E+00  0.00000000E+00  0.00000000E+00
  0.00000000E+00  0.00000000E+00  0.00000000E+00
  0.00000000E+00  0.00000000E+00  0.00000000E+00
  0.00000000E+00  0.00000000E+00  0.00000000E+00
  0.00000000E+00  0.00000000E+00  0.00000000E+00
  0.00000000E+00  0.00000000E+00  0.00000000E+00
  0.00000000E+00  0.00000000E+00  0.00000000E+00
  0.00000000E+00  0.00000000E+00  0.00000000E+00
  0.00000000E+00  0.00000000E+00  0.00000000E+00
  0.00000000E+00  0.00000000E+00  0.00000000E+00
  0.00000000E+00  0.00000000E+00  0.00000000E+00
  0.00000000E+00  0.00000000E+00  0.00000000E+00
  0.00000000E+00  0.00000000E+00  0.00000000E+00
  0.00000000E+00  0.00000000E+00  0.00000000E+00
  0.00000000E+00  0.00000000E+00  0.00000000E+00
  0.00000000E+00  0.00000000E+00  0.00000000E+00
  0.00000000E+00  0.00000000E+00  0.00000000E+00
  0.00000000E+00  0.00000000E+00  0.00000000E+00
  0.00000000E+00  0.00000000E+00  0.00000000E+00
  0.00000000E+00  0.00000000E+00  0.00000000E+00
  0.00000000E+00  0.00000000E+00  0.00000000E+00
  0.00000000E+00  0.00000000E+00  0.00000000E+00
  0.00000000E+00  0.00000000E+00  0.00000000E+00
  0.00000000E+00  0.00000000E+00  0.00000000E+00
  0.00000000E+00  0.00000000E+00  0.00000000E+00
  0.00000000E+00  0.00000000E+00  0.00000000E+00
  0.00000000E+00  0.00000000E+00  0.00000000E+00
  0.00000000E+00  0.00000000E+00  0.00000000E+00
  0.00000000E+00  0.00000000E+00  0.00000000E+00
  0.00000000E+00  0.00000000E+00  0.00000000E+00
  0.00000000E+00  0.00000000E+00  0.00000000E+00
  0.00000000E+00  0.00000000E+00  0.00000000E+00
  0.00000000E+00  0.00000000E+00  0.00000000E+00
  0.00000000E+00  0.00000000E+00  0.00000000E+00
  0.00000000E+00  0.00000000E+00  0.00000000E+00
  0.00000000E+00  0.00000000E+00  0.00000000E+00
  0.00000000E+00  0.00000000E+00  0.00000000E+00
  0.00000000E+00  0.00000000E+00  0.00000000E+00
  0.00000000E+00  0.00000000E+00  0.00000000E+00
  0.00000000E+00  0.00000000E+00  0.00000000E+00
  0.00000000E+00  0.00000000E+00  0.00000000E+00
  0.00000000E+00  0.00000000E+00  0.00000000E+00
  0.00000000E+00  0.00000000E+00  0.00000000E+00
  0.00000000E+00  0.00000000E+00  0.00000000E+00
  0.00000000E+00  0.00000000E+00  0.00000000E+00
  0.00000000E+00  0.00000000E+00  0.00000000E+00
  0.00000000E+00  0.00000000E+00  0.00000000E+00
  0.00000000E+00  0.00000000E+00  0.00000000E+00
  0.00000000E+00  0.00000000E+00  0.00000000E+00
  0.00000000E+00  0.00000000E+00  0.00000000E+00
  0.00000000E+00  0.00000000E+00  0.00000000E+00
  0.00000000E+00  0.00000000E+00  0.00000000E+00
  0.00000000E+00  0.00000000E+00  0.00000000E+00
  0.00000000E+00  0.00000000E+00  0.00000000E+00
  0.00000000E+00  0.00000000E+00  0.00000000E+00
  0.00000000E+00  0.00000000E+00  0.00000000E+00
  0.00000000E+00  0.00000000E+00  0.00000000E+00
  0.00000000E+00  0.00000000E+00  0.00000000E+00
  0.00000000E+00  0.00000000E+00  0.00000000E+00
  0.00000000E+00  0.00000000E+00  0.00000000E+00
  0.00000000E+00  0.00000000E+00  0.00000000E+00
  0.00000000E+00  0.00000000E+00  0.00000000E+00
  0.00000000E+00  0.00000000E+00  0.00000000E+00
  0.00000000E+00  0.00000000E+00  0.00000000E+00
  0.00000000E+00  0.00000000E+00  0.00000000E+00
  0.00000000E+00  0.00000000E+00  0.00000000E+00
  0.00000000E+00  0.00000000E+00  0.00000000E+00
  0.00000000E+00  0.00000000E+00  0.00000000E+00
  0.00000000E+00  0.00000000E+00  0.00000000E+00
  0.00000000E+00  0.00000000E+00  0.00000000E+00
  0.00000000E+00  0.00000000E+00  0.00000000E+00
  0.00000000E+00  0.00000000E+00  0.00000000E+00
  0.00000000E+00  0.00000000E+00  0.00000000E+00
  0.00000000E+00  0.00000000E+00  0.00000000E+00
  0.00000000E+00  0.00000000E+00  0.00000000E+00
  0.00000000E+00  0.00000000E+00  0.00000000E+00
  0.00000000E+00  0.00000000E+00  0.00000000E+00
  0.00000000E+00  0.00000000E+00  0.00000000E+00
  0.00000000E+00  0.00000000E+00  0.00000000E+00
  0.00000000E+00  0.00000000E+00  0.00000000E+00
  0.00000000E+00  0.00000000E+00  0.00000000E+00
  0.00000000E+00  0.00000000E+00  0.00000000E+00
  0.00000000E+00  0.00000000E+00  0.00000000E+00
  0.00000000E+00  0.00000000E+00  0.00000000E+00
  0.00000000E+00  0.00000000E+00  0.00000000E+00
  0.00000000E+00  0.00000000E+00  0.00000000E+00
  0.00000000E+00  0.00000000E+00  0.00000000E+00
  0.00000000E+00  0.00000000E+00  0.00000000E+00
  0.00000000E+00  0.00000000E+00  0.00000000E+00
  0.00000000E+00  0.00000000E+00  0.00000000E+00
  0.00000000E+00  0.00000000E+00  0.00000000E+00
  0.00000000E+00  0.00000000E+00  0.00000000E+00
  0.00000000E+00  0.00000000E+00  0.00000000E+00
  0.00000000E+00  0.00000000E+00  0.00000000E+00
  0.00000000E+00  0.00000000E+00  0.00000000E+00
  0.00000000E+00  0.00000000E+00  0.00000000E+00
  0.00000000E+00  0.00000000E+00  0.00000000E+00
  0.00000000E+00  0.00000000E+00  0.00000000E+00
  0.00000000E+00  0.00000000E+00  0.00000000E+00
  0.00000000E+00  0.00000000E+00  0.00000000E+00
  0.00000000E+00  0.00000000E+00  0.00000000E+00
  0.00000000E+00  0.00000000E+00  0.00000000E+00
  0.00000000E+00  0.00000000E+00  0.00000000E+00
  0.00000000E+00  0.00000000E+00  0.00000000E+00
  0.00000000E+00  0.00000000E+00  0.00000000E+00
  0.00000000E+00  0.00000000E+00  0.00000000E+00
  0.00000000E+00  0.00000000E+00  0.00000000E+00
  0.00000000E+00  0.00000000E+00  0.00000000E+00
  0.00000000E+00  0.00000000E+00  0.00000000E+00
  0.00000000E+00  0.00000000E+00  0.00000000E+00
  0.00000000E+00  0.00000000E+00  0.00000000E+00
  0.00000000E+00  0.00000000E+00  0.00000000E+00
  0.00000000E+00  0.00000000E+00  0.00000000E+00
  0.00000000E+00  0.00000000E+00  0.00000000E+00
  0.00000000E+00  0.00000000E+00  0.00000000E+00
  0.00000000E+00  0.00000000E+00  0.00000000E+00
  0.00000000E+00  0.00000000E+00  0.00000000E+00
  0.00000000E+00  0.00000000E+00  0.00000000E+00
  0.00000000E+00  0.00000000E+00  0.00000000E+00
  0.00000000E+00  0.00000000E+00  0.00000000E+00
  0.00000000E+00  0.00000000E+00  0.00000000E+00
  0.00000000E+00  0.00000000E+00  0.00000000E+00
  0.00000000E+00  0.00000000E+00  0.00000000E+00
  0.00000000E+00  0.00000000E+00  0.00000000E+00
  0.00000000E+00  0.00000000E+00  0.00000000E+00
  0.00000000E+00  0.00000000E+00  0.00000000E+00
  0.00000000E+00  0.00000000E+00  0.00000000E+00
  0.00000000E+00  0.00000000E+00  0.00000000E+00
  0.00000000E+00  0.00000000E+00  0.00000000E+00
  0.00000000E+00  0.00000000E+00  0.00000000E+00
  0.00000000E+00  0.00000000E+00  0.00000000E+00
  0.00000000E+00  0.00000000E+00  0.00000000E+00
  0.00000000E+00  0.00000000E+00  0.00000000E+00
  0.00000000E+00  0.00000000E+00  0.00000000E+00
  0.00000000E+00  0.00000000E+00  0.00000000E+00
  0.00000000E+00  0.00000000E+00  0.00000000E+00
  0.00000000E+00  0.00000000E+00  0.00000000E+00
  0.00000000E+00  0.00000000E+00  0.00000000E+00
  0.00000000E+00  0.00000000E+00  0.00000000E+00
  0.00000000E+00  0.00000000E+00  0.00000000E+00
  0.00000000E+00  0.00000000E+00  0.00000000E+00
  0.00000000E+00  0.00000000E+00  0.00000000E+00
  0.00000000E+00  0.00000000E+00  0.00000000E+00
  0.00000000E+00  0.00000000E+00  0.00000000E+00
  0.00000000E+00  0.00000000E+00  0.00000000E+00
  0.00000000E+00  0.00000000E+00  0.00000000E+00
  0.00000000E+00  0.00000000E+00  0.00000000E+00
  0.00000000E+00  0.00000000E+00  0.00000000E+00
  0.00000000E+00  0.00000000E+00  0.00000000E+00
  0.00000000E+00  0.00000000E+00  0.00000000E+00
  0.00000000E+00  0.00000000E+00  0.00000000E+00
  0.00000000E+00  0.00000000E+00  0.00000000E+00
  0.00000000E+00  0.00000000E+00  0.00000000E+00
  0.00000000E+00  0.00000000E+00  0.00000000E+00
  0.00000000E+00  0.00000000E+00  0.00000000E+00
  0.00000000E+00  0.00000000E+00  0.00000000E+00
  0.00000000E+00  0.00000000E+00  0.00000000E+00
  0.00000000E+00  0.00000000E+00  0.00000000E+00
  0.00000000E+00  0.00000000E+00  0.00000000E+00
  0.00000000E+00  0.00000000E+00  0.00000000E+00
  0.00000000E+00  0.00000000E+00  0.00000000E+00
  0.00000000E+00  0.00000000E+00  0.00000000E+00
  0.00000000E+00  0.00000000E+00  0.00000000E+00
  0.00000000E+00  0.00000000E+00  0.00000000E+00
  0.00000000E+00  0.00000000E+00  0.00000000E+00
  0.00000000E+00  0.00000000E+00  0.00000000E+00
  0.00000000E+00  0.00000000E+00  0.00000000E+00
  0.00000000E+00  0.00000000E+00  0.00000000E+00
  0.00000000E+00  0.00000000E+00  0.00000000E+00
  0.00000000E+00  0.00000000E+00  0.00000000E+00
  0.00000000E+00  0.00000000E+00  0.00000000E+00
  0.00000000E+00  0.00000000E+00  0.00000000E+00
  0.00000000E+00  0.00000000E+00  0.00000000E+00
  0.00000000E+00  0.00000000E+00  0.00000000E+00
  0.00000000E+00  0.00000000E+00  0.00000000E+00
  0.00000000E+00  0.00000000E+00  0.00000000E+00
  0.00000000E+00  0.00000000E+00  0.00000000E+00
  0.00000000E+00  0.00000000E+00  0.00000000E+00
  0.00000000E+00  0.00000000E+00  0.00000000E+00
  0.00000000E+00  0.00000000E+00  0.00000000E+00
  0.00000000E+00  0.00000000E+00  0.00000000E+00
  0.00000000E+00  0.00000000E+00  0.00000000E+00
  0.00000000E+00  0.00000000E+00  0.00000000E+00
  0.00000000E+00  0.00000000E+00  0.00000000E+00
  0.00000000E+00  0.00000000E+00  0.00000000E+00
  0.00000000E+00  0.00000000E+00  0.00000000E+00
  0.00000000E+00  0.00000000E+00  0.00000000E+00
  0.00000000E+00  0.00000000E+00  0.00000000E+00
  0.00000000E+00  0.00000000E+00  0.00000000E+00
  0.00000000E+00  0.00000000E+00  0.00000000E+00
  0.00000000E+00  0.00000000E+00  0.00000000E+00
  0.00000000E+00  0.00000000E+00  0.00000000E+00
  0.00000000E+00  0.00000000E+00  0.00000000E+00
  0.00000000E+00  0.00000000E+00  0.00000000E+00
  0.00000000E+00  0.00000000E+00  0.00000000E+00
  0.00000000E+00  0.00000000E+00  0.00000000E+00
  0.00000000E+00  0.00000000E+00  0.00000000E+00
  0.00000000E+00  0.00000000E+00  0.00000000E+00
  0.00000000E+00  0.00000000E+00  0.00000000E+00
  0.00000000E+00  0.00000000E+00  0.00000000E+00
  0.00000000E+00  0.00000000E+00  0.00000000E+00
  0.00000000E+00  0.00000000E+00  0.00000000E+00
  0.00000000E+00  0.00000000E+00  0.00000000E+00
  0.00000000E+00  0.00000000E+00  0.00000000E+00
  0.00000000E+00  0.00000000E+00  0.00000000E+00
  0.00000000E+00  0.00000000E+00  0.00000000E+00
  0.00000000E+00  0.00000000E+00  0.00000000E+00
  0.00000000E+00  0.00000000E+00  0.00000000E+00
  0.00000000E+00  0.00000000E+00  0.00000000E+00
  0.00000000E+00  0.00000000E+00  0.00000000E+00
  0.00000000E+00  0.00000000E+00  0.00000000E+00
  0.00000000E+00  0.00000000E+00  0.00000000E+00
  0.00000000E+00  0.00000000E+00  0.00000000E+00
  0.00000000E+00  0.00000000E+00  0.00000000E+00
  0.00000000E+00  0.00000000E+00  0.00000000E+00
  0.00000000E+00  0.00000000E+00  0.00000000E+00
  0.00000000E+00  0.00000000E+00  0.00000000E+00
  0.00000000E+00  0.00000000E+00  0.00000000E+00
  0.00000000E+00  0.00000000E+00  0.00000000E+00
  0.00000000E+00  0.00000000E+00  0.00000000E+00
  0.00000000E+00  0.00000000E+00  0.00000000E+00
  0.00000000E+00  0.00000000E+00  0.00000000E+00
  0.00000000E+00  0.00000000E+00  0.00000000E+00
  0.00000000E+00  0.00000000E+00  0.00000000E+00
  0.00000000E+00  0.00000000E+00  0.00000000E+00
  0.00000000E+00  0.00000000E+00  0.00000000E+00
  0.00000000E+00  0.00000000E+00  0.00000000E+00
  0.00000000E+00  0.00000000E+00  0.00000000E+00
  0.00000000E+00  0.00000000E+00  0.00000000E+00
  0.00000000E+00  0.00000000E+00  0.00000000E+00
  0.00000000E+00  0.00000000E+00  0.00000000E+00
  0.00000000E+00  0.00000000E+00  0.00000000E+00
  0.00000000E+00  0.00000000E+00  0.00000000E+00
  0.00000000E+00  0.00000000E+00  0.00000000E+00
  0.00000000E+00  0.00000000E+00  0.00000000E+00
  0.00000000E+00  0.00000000E+00  0.00000000E+00
  0.00000000E+00  0.00000000E+00  0.00000000E+00