CuInSe2gb                               
   1.00000000000000     
     9.7266780392896699    0.0000000000000000    0.0000000000000000
     0.0000000000000000    8.4235502764570693    0.0000000000000000
     0.0000000000000000    0.0000000000000000   45.0000000000000000
   Fe   Mn
   281     7
Direct
  0.0612775651925972  0.0348100449189336  0.1245396727235684
  0.8148110598683969  0.0417547497721071  0.8756420330691884
  0.1953037711750878  0.1250237260985775  0.7885992269056668
  0.4335796912967061  0.2874109728670270  0.3890503360902181
  0.3164088567292327  0.3598058881167364  0.1664447153341587
  0.8086097719982507  0.2129107628393209  0.8331825296248631
  0.1835563314034117  0.7872896860996945  0.3890647715529228
  0.5638040499306777  0.2077197167532847  0.5654511355722340
  0.0606300658699087  0.0423801537228753  0.7440113112308533
  0.8135005918055898  0.8720469090129707  0.5212993839140324
  0.1858887549875672  0.2917409266580462  0.7441561714478051
  0.9412859958445638  0.4519502595598652  0.3449133740212897
  0.9337341705382122  0.2872933491374983  0.3890546985690004
  0.4384106957557869  0.6220847060754278  0.5213395992049307
  0.1877556847012654  0.7918983209561778  0.6108137235296333
  0.5586065650360734  0.0377190259977070  0.3890634146937179
  0.9336353808652575  0.9631160447790302  0.8331084402018027
  0.3148016176981360  0.5417828996183200  0.8755695278458678
  0.6858875278693385  0.2920967715602479  0.7442487184894491
  0.9413390534848940  0.9521499971424630  0.3449146957087074
  0.8127921853580740  0.2057988768863538  0.4786372968634842
  0.8126384340882447  0.5419208538119367  0.6108518707650725
  0.3131227890936052  0.8706425691981626  0.4343818785488243
  0.8154078543289048  0.0352211274035592  0.2560360639188365
  0.6912090974954593  0.9518106611241145  0.3449383809320536
  0.9430014229617519  0.1140758758297963  0.1669691399477525
  0.9384604453801056  0.1220245967609704  0.5213261531605210
  0.5649881415349287  0.5354468505435068  0.2560306645102851
  0.6926953265058408  0.7976416726373676  0.8757662034709133
  0.5673663138239193  0.3624936020466967  0.1669520301106224
  0.4358247202110124  0.7914689929918165  0.7441093615769123
  0.8137901496760140  0.7077069569275705  0.5654421242171648
  0.5707686422959755  0.8746778070541493  0.7884122602988630
  0.6884703629126667  0.1220197459197848  0.5213081748583657
  0.1899729803515651  0.2858085848699446  0.2560217458465738
  0.9335818162171936  0.4631398255425959  0.8331071586362326
  0.0652655037557950  0.2082404112034583  0.6996671181008557
  0.8085746922419801  0.0376298948102171  0.3890582397993203
  0.3085844355168693  0.2131339512693191  0.8331462198881077
  0.4338230768210245  0.6258178034643878  0.6549205989826434
  0.3126833429954127  0.5418403952310867  0.6108302213751299
  0.9387570446216940  0.4577753666139295  0.5654401660387950
  0.6859153046724779  0.7914188530413001  0.7442581278603905
  0.3088864139272892  0.8756145921595259  0.6549110713256144
  0.6836288078837479  0.7875517351374004  0.3890714030189826
  0.9358664583288870  0.7917872854504384  0.7441404722991348
  0.0660903463752481  0.2022592329639718  0.3451125929289693
  0.4371075426181454  0.7799358231177709  0.1242322795159794
  0.4452298060199508  0.1249655491998851  0.7885936029166190
  0.0549641301987600  0.2027890495282819  0.2118636406862988
  0.0673315205102983  0.3609387884595532  0.1666871193286684
  0.9400353861096428  0.7853862298452328  0.2560272214259130
  0.5651637962736266  0.2081768949448460  0.6996087415681096
  0.6903926646282749  0.9586143012508312  0.6996650690965388
  0.6836967421323125  0.2874519361743277  0.3890777984389490
  0.4387256042690376  0.9577217131901047  0.5654408288643165
  0.8203579550276420  0.3742616548890095  0.7883467918222099
  0.6899415015019422  0.2852884190146998  0.2560700815894443
  0.1887116457953754  0.4576546563739720  0.5654363348095369
  0.0676479948454771  0.8611273068439181  0.1667333254963356
  0.1879709545651921  0.2916978255345082  0.6106999018919779
  0.5663064658545182  0.7020673941637672  0.3448917208643228
  0.3153011710353063  0.2083920860430816  0.6996864585393164
  0.5651385908671557  0.5417802456488270  0.8756400088392137
  0.0637823844595342  0.7077483226210735  0.5654291013044738
  0.3087413250239069  0.7132917315365167  0.8330694377741392
  0.3085224237983312  0.5376257528084544  0.3890632809297023
  0.1881790229004682  0.6220460759085545  0.5213655288722748
  0.5627143132943770  0.8704379148294636  0.4344149802714501
  0.4387088818604221  0.4578892826434451  0.5654376726927688
  0.4357379588828966  0.2917137852694532  0.7440753543874401
  0.8038568083245046  0.8722092805287305  0.3002884207888429
  0.8162356736438421  0.7021423078374812  0.3449138000075972
  0.4333479423717024  0.4635394076489086  0.8330813393220826
  0.6877878804352709  0.9558849205816936  0.4786302994103887
  0.6907511762600050  0.4582374717050142  0.6997235479790234
  0.5634655981857587  0.8721196384597426  0.5213182004307997
  0.5588662476571586  0.3756358361892495  0.6549131757820311
  0.8088617676548880  0.8756557507889221  0.6549220043231222
  0.8129327941335391  0.3704999747646256  0.4344374212674661
  0.8154695957294729  0.5352760420088551  0.2560500646868095
  0.6833446857967287  0.4642146316199000  0.8330738597823136
  0.1879561296518163  0.7796546856708735  0.1243379656691974
  0.0647332162860536  0.0418154365675157  0.8755994407302424
  0.3089498513810627  0.3758891295507196  0.6549554467288196
  0.3163884719716092  0.2016766729962473  0.3449090459585882
  0.8104573741681430  0.5422447136820820  0.7441805689056186
  0.6835365338853771  0.9631394828181642  0.8330668663357299
  0.5588354880801999  0.8755719001643815  0.6549218057118958
  0.3138196217893132  0.7077350445648907  0.5654352915737594
  0.3128420579866970  0.5355288867445009  0.1241484347757782
  0.6803549932697373  0.9527401555979574  0.2115830918835247
  0.3137551285435875  0.2077930541182971  0.5654502279952563
  0.3106069531011296  0.5424653049918005  0.7442412847829709
  0.6887383751591138  0.9577953040074374  0.5654569105710944
  0.4377150700880008  0.7918867119675570  0.6108664181367867
  0.6923515527426717  0.6118787088254311  0.1669776937029196
  0.3035386791053631  0.8719406216035319  0.3003612110416966
  0.3127827791751976  0.7057609450964003  0.4786577212413243
  0.9376479534975231  0.2918418312217127  0.6108645158901591
  0.4286081968242399  0.6223169180459776  0.3002930033422095
  0.8164311475248086  0.8617290140403658  0.1670101711154836
  0.5552790392092101  0.2025115987044316  0.2117370227723633
  0.9419146761072674  0.6133613195867312  0.1669887516957970
  0.9439565450512639  0.7985841299820234  0.8758924697290725
  0.5707817380150827  0.3745504199906036  0.7883958104624900
  0.0634806404013249  0.3721429475782150  0.5213148026178736
  0.5634980769455668  0.3720465609299554  0.5213105553869135
  0.6787487036571935  0.1221074968379768  0.3003002768873903
  0.4337384063450873  0.9632828845291200  0.8331729190294981
  0.1878528737200872  0.9558559338161431  0.4786280975531467
  0.8206668883007422  0.8748332699687943  0.7883778281425844
  0.3130212994747968  0.3704293187045205  0.4344420855837207
  0.9376404766947800  0.7919636118829064  0.6108890841488348
  0.4376991781826432  0.2918094301933214  0.6108671101848565
  0.1913524843677291  0.4517069791854506  0.3449272641874328
  0.4384293413424898  0.2798115680643980  0.1243805687683875
  0.6900304716101749  0.7853727089320826  0.2560267843053092
  0.1906056904776713  0.9583558788754271  0.6997192297998477
  0.1929152548347268  0.2986435208749203  0.8757848600789209
  0.1838598726767584  0.1256500585727809  0.6549270919489356
  0.9338721872949459  0.1256451834566207  0.6549295414582910
  0.3052823489222928  0.2024389727196496  0.2118713585186969
  0.0586391744616898  0.0374566408269466  0.3890664698341887
  0.4406233032224028  0.9583029971293717  0.6997190369908933
  0.0626814141295452  0.5418787952192041  0.6108686267258662
  0.9404772503673314  0.2852533719539281  0.2560693362235229
  0.5627424438303106  0.5417874995077189  0.6108114505335926
  0.9386935344563306  0.9577851185379233  0.5654469560464779
  0.6787641847897871  0.6221282038822988  0.3003013666974766
  0.9381296205378177  0.6201892629446644  0.4345004163360291
  0.9455364599063723  0.6250835751848175  0.7885086970697742
  0.5652037301797070  0.7082602630331565  0.6996757844705633
  0.0586540018319077  0.7130266900876419  0.8331536988957051
  0.9283638750132620  0.1222989303893325  0.3002676958119651
  0.9411124024281154  0.4585184513516974  0.6996001377090640
  0.4399599006148491  0.7860441846074990  0.2558409096327783
  0.3207425390171993  0.3745419567972895  0.7883946543950094
  0.4305662829124332  0.4522939246203029  0.2116575869906690
  0.1884585590186504  0.1220580654326588  0.5213104934961371
  0.8152482248873231  0.7082593567769254  0.6996590983348060
  0.0626428357961542  0.0419296462244312  0.6108533695658742
  0.5587042297490064  0.2131607034763993  0.8331964869930271
  0.3134374798242847  0.8720625067613489  0.5213100235882784
  0.6872452577336423  0.2804208716243673  0.1242122864447245
  0.1797857902215806  0.9517814104215160  0.2119747548049264
  0.6877426762258403  0.2918659142162775  0.6108190545853888
  0.3126484561337924  0.0418818980740475  0.6108329964372026
  0.9456398362855833  0.1248973427177550  0.7885093159071447
  0.4424103736215065  0.7985600136392619  0.8757954263529281
  0.8107150871376171  0.0423958008428355  0.7440313067909978
  0.4383994766636293  0.1220696170279766  0.5213589129086038
  0.1838054027131966  0.6258240050603706  0.6549255825597039
  0.3154047758397951  0.7083831561175015  0.6997013467215519
  0.9342020687056508  0.2781712081673614  0.1246384704240408
  0.4377894337836912  0.4559012794677713  0.4786088509876176
  0.0627869788635783  0.7058111520839359  0.4786334154971481
  0.9380397523569516  0.1202685649999949  0.4344491748337449
  0.4287234865245499  0.1221168945026566  0.3003302454788568
  0.1880054371739749  0.1207341707551451  0.4343231167652604
  0.5646110010617553  0.0418840348413515  0.8756822681314413
  0.1888214624471472  0.9576406688033238  0.5654407373090868
  0.6880137166471703  0.7807821556503771  0.1244576332122070
  0.5644603907483847  0.5335590245817160  0.1245150547810559
  0.3086776030407557  0.0375736197472599  0.3890644241710670
  0.6926403803340885  0.1124247048894464  0.1673019712159973
  0.8053780687488094  0.2030415527510942  0.2118848685456002
  0.0656726621920629  0.5355164876090220  0.2559580349321368
  0.5627859124239002  0.7058083444158071  0.4786184388502204
  0.0637921723594824  0.2077407511779970  0.5654557630071926
  0.5538725770040771  0.3718166986077137  0.3002160795664015
  0.4413935994938019  0.9518346123756610  0.3449871507117385
  0.1835400700929076  0.9633009482547138  0.8330247010808556
  0.4418444223941955  0.6126710316584714  0.1668539543802048
  0.9298446333182637  0.4533013514240172  0.2119128062321582
  0.0630431562676527  0.5343194396195465  0.1245721091332884
  0.8135071072863214  0.3719900171343044  0.5213024577272067
  0.9286712497821449  0.6223157567471755  0.3003186715589620
  0.3150640077328756  0.0357740918836050  0.2560032625024612
  0.0634950977755195  0.8719672481381480  0.5213104920015433
  0.1836313328175468  0.4631021319955252  0.8330550056554371
  0.4420151092396098  0.1119655889980816  0.1666729071152679
  0.3134180296252007  0.3721834440524070  0.5213023235119413
  0.4457722556285008  0.6249222429080153  0.7884768846890130
  0.0649991223125478  0.0354712024443234  0.2560335428757287
  0.5638669740483337  0.7076924489066756  0.5654375349347758
  0.9359270643495088  0.2916502498849895  0.7441562819827890
  0.6955269252099713  0.1247557481038216  0.7884948638400606
  0.1807367000454954  0.4520000221329968  0.2116199988762254
  0.9336239088911942  0.7870721618546134  0.3890610891247334
  0.6934334236071173  0.2972349286440031  0.8757460776575251
  0.6876630826072360  0.7918509670104459  0.6108494061952376
  0.4400510905960282  0.4581470017193395  0.6996025238121578
  0.8087806434268635  0.3755428621064418  0.6549243047694780
  0.6883771278946478  0.6222234519799976  0.5213050534737463
  0.0588173115675192  0.8756687567269742  0.6549157472502665
  0.0701272152285503  0.8747642805648158  0.7884651259320238
  0.0589787556670424  0.3759769448932714  0.6549733365029305
  0.6878085885426390  0.4558574216376571  0.4786176124522395
  0.1902786197411845  0.7859304100909182  0.2558861776551693
  0.4380352154180170  0.1201905474931711  0.4344356310617654
  0.8109881986041081  0.0337210781629177  0.1244268708889081
  0.9384203080523916  0.6220401388590741  0.5213439399353608
  0.0630084682155233  0.8705226515864847  0.4344251297390050
  0.8111911838459342  0.5343019833339796  0.1245203358671754
  0.4415021946224923  0.4522557212809007  0.3450314600204493
  0.8161935917686124  0.2018724428514861  0.3449603491144010
  0.3162768112607087  0.7016307156990166  0.3449633566621773
  0.6838223949690982  0.1254883949747849  0.6549693510254816
  0.5537241035079936  0.8720407521238287  0.3003442580693416
  0.0607683910465601  0.5423590380033031  0.7442115997304701
  0.9344474192175501  0.7796923321558465  0.1246093065299089
  0.8057176059983741  0.7024709726199677  0.2117559832201909
  0.0543760891548519  0.8724491566034478  0.3001245427320317
  0.1793302192267377  0.1229073907351510  0.3003034703212213
  0.0662685766521648  0.7016956316610362  0.3449570652105097
  0.8127790486924582  0.0418796638045983  0.6107933793464978
  0.0628763343105760  0.3704978990423895  0.4344369344410056
  0.5661638515416253  0.2019027181049408  0.3449581646135604
  0.8035528495934451  0.3718299449296160  0.3003407621263081
  0.4378066681830861  0.9559551866315419  0.4786127640599865
  0.5584905574433060  0.5373976800542981  0.3890584275711796
  0.0627881126397587  0.2057479526187319  0.4786466844571697
  0.3206664388278988  0.8747422728817976  0.7884374577748183
  0.9404864903926710  0.9584053882320165  0.6997077637987034
  0.0537634941311519  0.3720006102847998  0.3003487948945882
  0.6838336749405511  0.6256291320882783  0.6549309167384804
  0.6887973188258204  0.4576860148256477  0.5654388944110033
  0.4302462663718292  0.9525527348670939  0.2117950065190482
  0.3127242583857509  0.2057923329675807  0.4786450697143289
  0.4339006264098829  0.1258296242102043  0.6549666774009940
  0.6877676012261043  0.6204210893991282  0.4343999184332016
  0.8152155045989646  0.2083072281961033  0.6996348319346924
  0.8128605582077011  0.7058176844919105  0.4786334933549233
  0.5629124393431810  0.3704873110524803  0.4344491583454807
  0.9378248806434784  0.9559042035405263  0.4786186403880852
  0.5628193560387468  0.2058164709368920  0.4786256583549847
  0.1880454226676663  0.6203729617762702  0.4344375586912044
  0.3106039359349452  0.0422738601497070  0.7441162102003972
  0.9338602419975010  0.6258539132496110  0.6549148798418043
  0.5588968155615354  0.7134777913381263  0.8333711796115225
  0.3036480975862628  0.3723480631632464  0.3003006744480888
  0.5549217080770631  0.7025098539863019  0.2117784354324308
  0.1878642389630948  0.4558713854662521  0.4786296931571841
  0.3147804651709361  0.0420130552042017  0.8756493657209271
  0.1906401038264812  0.4582974823343537  0.6997076008924765
  0.8145934204563463  0.5418956656519872  0.8756170412431180
  0.1833480228699825  0.2876613443817473  0.3891056720823959
  0.4381249011344522  0.6204822487142845  0.4344011227452681
  0.0555691485277026  0.7025923870903715  0.2119600163347077
  0.5642365096821869  0.0342193746992531  0.1243172225872740
  0.8161966214666088  0.3625024724466140  0.1670121806538742
  0.8085540822960280  0.7129124792170080  0.8332189390791988
  0.0700967586533028  0.3743736776333689  0.7883724574343655
  0.4431520553505022  0.2983384845272221  0.8758189098097450
  0.3139962715641099  0.0343643698954364  0.1244214815046280
  0.6879917111196608  0.1204282003214999  0.4344035679290528
  0.1914065838432225  0.9520193248605403  0.3449912984353586
  0.0587556212920077  0.2131555443752771  0.8331668161429175
  0.5627687855947598  0.0417922154838181  0.6107722161404185
  0.6799970392409529  0.4530258250052462  0.2117820355199091
  0.1858147865465842  0.7918052922241473  0.7441522702170152
  0.8131039569120433  0.8705648347098617  0.4343919664695550
  0.4336447184632025  0.7876066036488483  0.3891007494008143
  0.4406113700278621  0.2855139500287346  0.2560032820906126
  0.0649429685774298  0.5416267578973978  0.8755951284218367
  0.5604840090930442  0.0423129368750098  0.7441752876806261
  0.1929378647258309  0.7993710672634250  0.8757819578618983
  0.9378171131927722  0.4558529070414798  0.4786217958833959
  0.8086880218816161  0.5376542159810890  0.3890555916907317
  0.8138210179307831  0.2077242765394637  0.5654292347684846
  0.1954141904139817  0.6251097263528642  0.7885922227291321
  0.9307344611564375  0.9531228507574971  0.2118685104533544
  0.0651920947521531  0.7082213572213178  0.6996489035510683
  0.3154270770406808  0.5356998304106123  0.2560215182772181
  0.3057636635392252  0.7024277223766983  0.2119565476333691
  0.5666576578387357  0.8629228591446831  0.1669124865688356
  0.5604602563029385  0.5422707786036080  0.7442014229425100
  0.6910767032811899  0.4524088503675373  0.3450577637233292
  0.9429902043301734  0.2983848745784923  0.8757451082529334
  0.5649286716317607  0.0354557566347009  0.2560339377609213
  0.1928685171649427  0.1123630904522025  0.1661385677944403
  0.6965106145426667  0.6244465086634652  0.7881398065955613
  0.3176438782089189  0.8586975810351317  0.1659724583185475
  0.1789846710453778  0.6223854079101333  0.3003592561720228
  0.0582989865902488  0.5379343508747962  0.3889764034919402
  0.1931822058918804  0.6106768712543501  0.1658551599227478
  0.1869173126188295  0.2783530672312380  0.1248275416118508
 
  0.00000000E+00  0.00000000E+00  0.00000000E+00
  0.00000000E+00  0.00000000E+00  0.00000000E+00
  0.00000000E+00  0.00000000E+00  0.00000000E+00
  0.00000000E+00  0.00000000E+00  0.00000000E+00
  0.00000000E+00  0.00000000E+00  0.00000000E+00
  0.00000000E+00  0.00000000E+00  0.00000000E+00
  0.00000000E+00  0.00000000E+00  0.00000000E+00
  0.00000000E+00  0.00000000E+00  0.00000000E+00
  0.00000000E+00  0.00000000E+00  0.00000000E+00
  0.00000000E+00  0.00000000E+00  0.00000000E+00
  0.00000000E+00  0.00000000E+00  0.00000000E+00
  0.00000000E+00  0.00000000E+00  0.00000000E+00
  0.00000000E+00  0.00000000E+00  0.00000000E+00
  0.00000000E+00  0.00000000E+00  0.00000000E+00
  0.00000000E+00  0.00000000E+00  0.00000000E+00
  0.00000000E+00  0.00000000E+00  0.00000000E+00
  0.00000000E+00  0.00000000E+00  0.00000000E+00
  0.00000000E+00  0.00000000E+00  0.00000000E+00
  0.00000000E+00  0.00000000E+00  0.00000000E+00
  0.00000000E+00  0.00000000E+00  0.00000000E+00
  0.00000000E+00  0.00000000E+00  0.00000000E+00
  0.00000000E+00  0.00000000E+00  0.00000000E+00
  0.00000000E+00  0.00000000E+00  0.00000000E+00
  0.00000000E+00  0.00000000E+00  0.00000000E+00
  0.00000000E+00  0.00000000E+00  0.00000000E+00
  0.00000000E+00  0.00000000E+00  0.00000000E+00
  0.00000000E+00  0.00000000E+00  0.00000000E+00
  0.00000000E+00  0.00000000E+00  0.00000000E+00
  0.00000000E+00  0.00000000E+00  0.00000000E+00
  0.00000000E+00  0.00000000E+00  0.00000000E+00
  0.00000000E+00  0.00000000E+00  0.00000000E+00
  0.00000000E+00  0.00000000E+00  0.00000000E+00
  0.00000000E+00  0.00000000E+00  0.00000000E+00
  0.00000000E+00  0.00000000E+00  0.00000000E+00
  0.00000000E+00  0.00000000E+00  0.00000000E+00
  0.00000000E+00  0.00000000E+00  0.00000000E+00
  0.00000000E+00  0.00000000E+00  0.00000000E+00
  0.00000000E+00  0.00000000E+00  0.00000000E+00
  0.00000000E+00  0.00000000E+00  0.00000000E+00
  0.00000000E+00  0.00000000E+00  0.00000000E+00
  0.00000000E+00  0.00000000E+00  0.00000000E+00
  0.00000000E+00  0.00000000E+00  0.00000000E+00
  0.00000000E+00  0.00000000E+00  0.00000000E+00
  0.00000000E+00  0.00000000E+00  0.00000000E+00
  0.00000000E+00  0.00000000E+00  0.00000000E+00
  0.00000000E+00  0.00000000E+00  0.00000000E+00
  0.00000000E+00  0.00000000E+00  0.00000000E+00
  0.00000000E+00  0.00000000E+00  0.00000000E+00
  0.00000000E+00  0.00000000E+00  0.00000000E+00
  0.00000000E+00  0.00000000E+00  0.00000000E+00
  0.00000000E+00  0.00000000E+00  0.00000000E+00
  0.00000000E+00  0.00000000E+00  0.00000000E+00
  0.00000000E+00  0.00000000E+00  0.00000000E+00
  0.00000000E+00  0.00000000E+00  0.00000000E+00
  0.00000000E+00  0.00000000E+00  0.00000000E+00
  0.00000000E+00  0.00000000E+00  0.00000000E+00
  0.00000000E+00  0.00000000E+00  0.00000000E+00
  0.00000000E+00  0.00000000E+00  0.00000000E+00
  0.00000000E+00  0.00000000E+00  0.00000000E+00
  0.00000000E+00  0.00000000E+00  0.00000000E+00
  0.00000000E+00  0.00000000E+00  0.00000000E+00
  0.00000000E+00  0.00000000E+00  0.00000000E+00
  0.00000000E+00  0.00000000E+00  0.00000000E+00
  0.00000000E+00  0.00000000E+00  0.00000000E+00
  0.00000000E+00  0.00000000E+00  0.00000000E+00
  0.00000000E+00  0.00000000E+00  0.00000000E+00
  0.00000000E+00  0.00000000E+00  0.00000000E+00
  0.00000000E+00  0.00000000E+00  0.00000000E+00
  0.00000000E+00  0.00000000E+00  0.00000000E+00
  0.00000000E+00  0.00000000E+00  0.00000000E+00
  0.00000000E+00  0.00000000E+00  0.00000000E+00
  0.00000000E+00  0.00000000E+00  0.00000000E+00
  0.00000000E+00  0.00000000E+00  0.00000000E+00
  0.00000000E+00  0.00000000E+00  0.00000000E+00
  0.00000000E+00  0.00000000E+00  0.00000000E+00
  0.00000000E+00  0.00000000E+00  0.00000000E+00
  0.00000000E+00  0.00000000E+00  0.00000000E+00
  0.00000000E+00  0.00000000E+00  0.00000000E+00
  0.00000000E+00  0.00000000E+00  0.00000000E+00
  0.00000000E+00  0.00000000E+00  0.00000000E+00
  0.00000000E+00  0.00000000E+00  0.00000000E+00
  0.00000000E+00  0.00000000E+00  0.00000000E+00
  0.00000000E+00  0.00000000E+00  0.00000000E+00
  0.00000000E+00  0.00000000E+00  0.00000000E+00
  0.00000000E+00  0.00000000E+00  0.00000000E+00
  0.00000000E+00  0.00000000E+00  0.00000000E+00
  0.00000000E+00  0.00000000E+00  0.00000000E+00
  0.00000000E+00  0.00000000E+00  0.00000000E+00
  0.00000000E+00  0.00000000E+00  0.00000000E+00
  0.00000000E+00  0.00000000E+00  0.00000000E+00
  0.00000000E+00  0.00000000E+00  0.00000000E+00
  0.00000000E+00  0.00000000E+00  0.00000000E+00
  0.00000000E+00  0.00000000E+00  0.00000000E+00
  0.00000000E+00  0.00000000E+00  0.00000000E+00
  0.00000000E+00  0.00000000E+00  0.00000000E+00
  0.00000000E+00  0.00000000E+00  0.00000000E+00
  0.00000000E+00  0.00000000E+00  0.00000000E+00
  0.00000000E+00  0.00000000E+00  0.00000000E+00
  0.00000000E+00  0.00000000E+00  0.00000000E+00
  0.00000000E+00  0.00000000E+00  0.00000000E+00
  0.00000000E+00  0.00000000E+00  0.00000000E+00
  0.00000000E+00  0.00000000E+00  0.00000000E+00
  0.00000000E+00  0.00000000E+00  0.00000000E+00
  0.00000000E+00  0.00000000E+00  0.00000000E+00
  0.00000000E+00  0.00000000E+00  0.00000000E+00
  0.00000000E+00  0.00000000E+00  0.00000000E+00
  0.00000000E+00  0.00000000E+00  0.00000000E+00
  0.00000000E+00  0.00000000E+00  0.00000000E+00
  0.00000000E+00  0.00000000E+00  0.00000000E+00
  0.00000000E+00  0.00000000E+00  0.00000000E+00
  0.00000000E+00  0.00000000E+00  0.00000000E+00
  0.00000000E+00  0.00000000E+00  0.00000000E+00
  0.00000000E+00  0.00000000E+00  0.00000000E+00
  0.00000000E+00  0.00000000E+00  0.00000000E+00
  0.00000000E+00  0.00000000E+00  0.00000000E+00
  0.00000000E+00  0.00000000E+00  0.00000000E+00
  0.00000000E+00  0.00000000E+00  0.00000000E+00
  0.00000000E+00  0.00000000E+00  0.00000000E+00
  0.00000000E+00  0.00000000E+00  0.00000000E+00
  0.00000000E+00  0.00000000E+00  0.00000000E+00
  0.00000000E+00  0.00000000E+00  0.00000000E+00
  0.00000000E+00  0.00000000E+00  0.00000000E+00
  0.00000000E+00  0.00000000E+00  0.00000000E+00
  0.00000000E+00  0.00000000E+00  0.00000000E+00
  0.00000000E+00  0.00000000E+00  0.00000000E+00
  0.00000000E+00  0.00000000E+00  0.00000000E+00
  0.00000000E+00  0.00000000E+00  0.00000000E+00
  0.00000000E+00  0.00000000E+00  0.00000000E+00
  0.00000000E+00  0.00000000E+00  0.00000000E+00
  0.00000000E+00  0.00000000E+00  0.00000000E+00
  0.00000000E+00  0.00000000E+00  0.00000000E+00
  0.00000000E+00  0.00000000E+00  0.00000000E+00
  0.00000000E+00  0.00000000E+00  0.00000000E+00
  0.00000000E+00  0.00000000E+00  0.00000000E+00
  0.00000000E+00  0.00000000E+00  0.00000000E+00
  0.00000000E+00  0.00000000E+00  0.00000000E+00
  0.00000000E+00  0.00000000E+00  0.00000000E+00
  0.00000000E+00  0.00000000E+00  0.00000000E+00
  0.00000000E+00  0.00000000E+00  0.00000000E+00
  0.00000000E+00  0.00000000E+00  0.00000000E+00
  0.00000000E+00  0.00000000E+00  0.00000000E+00
  0.00000000E+00  0.00000000E+00  0.00000000E+00
  0.00000000E+00  0.00000000E+00  0.00000000E+00
  0.00000000E+00  0.00000000E+00  0.00000000E+00
  0.00000000E+00  0.00000000E+00  0.00000000E+00
  0.00000000E+00  0.00000000E+00  0.00000000E+00
  0.00000000E+00  0.00000000E+00  0.00000000E+00
  0.00000000E+00  0.00000000E+00  0.00000000E+00
  0.00000000E+00  0.00000000E+00  0.00000000E+00
  0.00000000E+00  0.00000000E+00  0.00000000E+00
  0.00000000E+00  0.00000000E+00  0.00000000E+00
  0.00000000E+00  0.00000000E+00  0.00000000E+00
  0.00000000E+00  0.00000000E+00  0.00000000E+00
  0.00000000E+00  0.00000000E+00  0.00000000E+00
  0.00000000E+00  0.00000000E+00  0.00000000E+00
  0.00000000E+00  0.00000000E+00  0.00000000E+00
  0.00000000E+00  0.00000000E+00  0.00000000E+00
  0.00000000E+00  0.00000000E+00  0.00000000E+00
  0.00000000E+00  0.00000000E+00  0.00000000E+00
  0.00000000E+00  0.00000000E+00  0.00000000E+00
  0.00000000E+00  0.00000000E+00  0.00000000E+00
  0.00000000E+00  0.00000000E+00  0.00000000E+00
  0.00000000E+00  0.00000000E+00  0.00000000E+00
  0.00000000E+00  0.00000000E+00  0.00000000E+00
  0.00000000E+00  0.00000000E+00  0.00000000E+00
  0.00000000E+00  0.00000000E+00  0.00000000E+00
  0.00000000E+00  0.00000000E+00  0.00000000E+00
  0.00000000E+00  0.00000000E+00  0.00000000E+00
  0.00000000E+00  0.00000000E+00  0.00000000E+00
  0.00000000E+00  0.00000000E+00  0.00000000E+00
  0.00000000E+00  0.00000000E+00  0.00000000E+00
  0.00000000E+00  0.00000000E+00  0.00000000E+00
  0.00000000E+00  0.00000000E+00  0.00000000E+00
  0.00000000E+00  0.00000000E+00  0.00000000E+00
  0.00000000E+00  0.00000000E+00  0.00000000E+00
  0.00000000E+00  0.00000000E+00  0.00000000E+00
  0.00000000E+00  0.00000000E+00  0.00000000E+00
  0.00000000E+00  0.00000000E+00  0.00000000E+00
  0.00000000E+00  0.00000000E+00  0.00000000E+00
  0.00000000E+00  0.00000000E+00  0.00000000E+00
  0.00000000E+00  0.00000000E+00  0.00000000E+00
  0.00000000E+00  0.00000000E+00  0.00000000E+00
  0.00000000E+00  0.00000000E+00  0.00000000E+00
  0.00000000E+00  0.00000000E+00  0.00000000E+00
  0.00000000E+00  0.00000000E+00  0.00000000E+00
  0.00000000E+00  0.00000000E+00  0.00000000E+00
  0.00000000E+00  0.00000000E+00  0.00000000E+00
  0.00000000E+00  0.00000000E+00  0.00000000E+00
  0.00000000E+00  0.00000000E+00  0.00000000E+00
  0.00000000E+00  0.00000000E+00  0.00000000E+00
  0.00000000E+00  0.00000000E+00  0.00000000E+00
  0.00000000E+00  0.00000000E+00  0.00000000E+00
  0.00000000E+00  0.00000000E+00  0.00000000E+00
  0.00000000E+00  0.00000000E+00  0.00000000E+00
  0.00000000E+00  0.00000000E+00  0.00000000E+00
  0.00000000E+00  0.00000000E+00  0.00000000E+00
  0.00000000E+00  0.00000000E+00  0.00000000E+00
  0.00000000E+00  0.00000000E+00  0.00000000E+00
  0.00000000E+00  0.00000000E+00  0.00000000E+00
  0.00000000E+00  0.00000000E+00  0.00000000E+00
  0.00000000E+00  0.00000000E+00  0.00000000E+00
  0.00000000E+00  0.00000000E+00  0.00000000E+00
  0.00000000E+00  0.00000000E+00  0.00000000E+00
  0.00000000E+00  0.00000000E+00  0.00000000E+00
  0.00000000E+00  0.00000000E+00  0.00000000E+00
  0.00000000E+00  0.00000000E+00  0.00000000E+00
  0.00000000E+00  0.00000000E+00  0.00000000E+00
  0.00000000E+00  0.00000000E+00  0.00000000E+00
  0.00000000E+00  0.00000000E+00  0.00000000E+00
  0.00000000E+00  0.00000000E+00  0.00000000E+00
  0.00000000E+00  0.00000000E+00  0.00000000E+00
  0.00000000E+00  0.00000000E+00  0.00000000E+00
  0.00000000E+00  0.00000000E+00  0.00000000E+00
  0.00000000E+00  0.00000000E+00  0.00000000E+00
  0.00000000E+00  0.00000000E+00  0.00000000E+00
  0.00000000E+00  0.00000000E+00  0.00000000E+00
  0.00000000E+00  0.00000000E+00  0.00000000E+00
  0.00000000E+00  0.00000000E+00  0.00000000E+00
  0.00000000E+00  0.00000000E+00  0.00000000E+00
  0.00000000E+00  0.00000000E+00  0.00000000E+00
  0.00000000E+00  0.00000000E+00  0.00000000E+00
  0.00000000E+00  0.00000000E+00  0.00000000E+00
  0.00000000E+00  0.00000000E+00  0.00000000E+00
  0.00000000E+00  0.00000000E+00  0.00000000E+00
  0.00000000E+00  0.00000000E+00  0.00000000E+00
  0.00000000E+00  0.00000000E+00  0.00000000E+00
  0.00000000E+00  0.00000000E+00  0.00000000E+00
  0.00000000E+00  0.00000000E+00  0.00000000E+00
  0.00000000E+00  0.00000000E+00  0.00000000E+00
  0.00000000E+00  0.00000000E+00  0.00000000E+00
  0.00000000E+00  0.00000000E+00  0.00000000E+00
  0.00000000E+00  0.00000000E+00  0.00000000E+00
  0.00000000E+00  0.00000000E+00  0.00000000E+00
  0.00000000E+00  0.00000000E+00  0.00000000E+00
  0.00000000E+00  0.00000000E+00  0.00000000E+00
  0.00000000E+00  0.00000000E+00  0.00000000E+00
  0.00000000E+00  0.00000000E+00  0.00000000E+00
  0.00000000E+00  0.00000000E+00  0.00000000E+00
  0.00000000E+00  0.00000000E+00  0.00000000E+00
  0.00000000E+00  0.00000000E+00  0.00000000E+00
  0.00000000E+00  0.00000000E+00  0.00000000E+00
  0.00000000E+00  0.00000000E+00  0.00000000E+00
  0.00000000E+00  0.00000000E+00  0.00000000E+00
  0.00000000E+00  0.00000000E+00  0.00000000E+00
  0.00000000E+00  0.00000000E+00  0.00000000E+00
  0.00000000E+00  0.00000000E+00  0.00000000E+00
  0.00000000E+00  0.00000000E+00  0.00000000E+00