CuInSe2gb                               
   1.00000000000000     
     9.7266780392896699    0.0000000000000000    0.0000000000000000
     0.0000000000000000    8.4235502764570693    0.0000000000000000
     0.0000000000000000    0.0000000000000000   45.0000000000000000
   Fe   Mn
   281     7
Direct
  0.0625180214797425  0.0330640190903510  0.1247336695402352
  0.0630854747174531  0.8716917561998324  0.5213611230489524
  0.1902837455505783  0.1233504001425332  0.7885523650910796
  0.4345335318661807  0.2877731980506703  0.3890715194427410
  0.3094485242479317  0.7118135117509956  0.8334668458250653
  0.8090712276955303  0.2120487894832297  0.8333920431294618
  0.1842919757051083  0.7874149108200743  0.3890455650100817
  0.5627937622812629  0.2070501603754099  0.5652791506822957
  0.0606818306620341  0.0405326922353528  0.7438167259924831
  0.8133521024300835  0.8719211675812302  0.5214023632503438
  0.1855090903132995  0.2903765356256527  0.7438439546407412
  0.9393655238623837  0.4529886242755885  0.3449406866219938
  0.9340625109366962  0.2877110875092189  0.3890464222580898
  0.8122004049643278  0.0422862717118919  0.8752336851829219
  0.1884274458829368  0.7910429524718415  0.6104864220910058
  0.5596814387607845  0.0369093331326782  0.3890639954866350
  0.9340728761647561  0.9619370737032220  0.8334728710077552
  0.3125684312522264  0.5421598361329369  0.8752201853354391
  0.6855933703619135  0.2909570682908876  0.7440441117191586
  0.1919384779809125  0.6148331461154816  0.1668278893327562
  0.8130269972332660  0.2052255184425139  0.4784293226453308
  0.8133756145451106  0.5408263271941363  0.6105366485672806
  0.3133979146903858  0.8695808527449245  0.4342774300841913
  0.8147992680370090  0.0371371879801500  0.2561514086824611
  0.6898315874352988  0.9528561644429100  0.3450375412669859
  0.9413815223666461  0.1137659385704359  0.1667291242865704
  0.9385064622773048  0.1219355893181257  0.5213661905245019
  0.5647816006222591  0.5373669539682105  0.2561916583769971
  0.6878263621870708  0.7936117483163676  0.8752496426674612
  0.5674294610973672  0.3654095603718466  0.1668850712805423
  0.4347022187247946  0.7908742719444757  0.7438907352579306
  0.8138976868411107  0.7073922072391416  0.5653323772263872
  0.5647566388583005  0.8730827280175329  0.7886584362507961
  0.6882539346653781  0.1220518671948273  0.5213875621806756
  0.1904956859538162  0.2874064936589887  0.2560447594639951
  0.9340750731786320  0.4618039642807738  0.8334005940750079
  0.0634464016786805  0.2074324698312348  0.6997831738996316
  0.4378008077860656  0.9576178761495234  0.6998145393916189
  0.3094922801525931  0.2119942302320073  0.8334460615412399
  0.4358308968680663  0.6254326004655699  0.6548868269223832
  0.3133049104839538  0.5409552739724515  0.6104870014257658
  0.9388360781756006  0.4568931758619089  0.5653713760193821
  0.6852993073988228  0.7908774249810614  0.7439001966339320
  0.3105955641540867  0.8753839662351185  0.6548497043365313
  0.6845473789297438  0.7871071104858606  0.3890825174510009
  0.9363740734579579  0.7909458768818335  0.7439300541159050
  0.0647830199336264  0.2028128630165249  0.3449057710090090
  0.8091316638803543  0.0372300535256468  0.3890560055492397
  0.4404429999525172  0.1231784905172855  0.7887208587583381
  0.0605601488854368  0.2052018473008787  0.2118742096371371
  0.0678840812817162  0.3649869117865637  0.1666957329678217
  0.9401272773518110  0.7873506086071461  0.2562563196232446
  0.5627543081635914  0.2081023824360184  0.6996827048515757
  0.6879025924516390  0.9578159285978082  0.6997132311302432
  0.4398856549658304  0.7868950520771135  0.1249320931838214
  0.4385599879589075  0.9569902266642794  0.5654524636819007
  0.8149631287837735  0.3732184135697262  0.7886847232157935
  0.6898066147675277  0.2871545843588057  0.2561648742084132
  0.1887751414446548  0.4568673553278608  0.5654141609524207
  0.0671969351647793  0.8648785160029272  0.1668091574236809
  0.1885556429927420  0.2905657129652398  0.6104669887159132
  0.5649775679742296  0.7028125236545557  0.3449384211910306
  0.3127294209361569  0.2077748309269167  0.6998265935504868
  0.5621903355821932  0.5421202726083176  0.8752043430682309
  0.0637655144163430  0.7067147336521210  0.5654965922110509
  0.6901385470292474  0.6226783506034099  0.7887471589285472
  0.3095967748587055  0.5380651131025684  0.3890618557897854
  0.1883957209983874  0.6221296911829449  0.5214123519869829
  0.5629331241854636  0.8699975092845291  0.4342716355522906
  0.4384571168399896  0.4570212721572551  0.5653862320940519
  0.4349674852660749  0.2905081171334470  0.7439537497150562
  0.8061509400038012  0.8724934924409603  0.3003718250627863
  0.8149171804258174  0.7026906808160527  0.3450945277202207
  0.4343873977920966  0.4618088067654187  0.8333732314007765
  0.6878468470397457  0.9550677002457708  0.4784471437373911
  0.6877937240685358  0.4578719598696004  0.6996781096367196
  0.5631673406783287  0.8719254985674715  0.5214044285066445
  0.5605313163895080  0.3753597600968845  0.6549123754186413
  0.8106894632316097  0.8748530306614581  0.6549387109072300
  0.8128023293921013  0.3703902234895134  0.4343124951966661
  0.8144625614690425  0.5374827908736144  0.2561415797720729
  0.6841197490144489  0.4617491145675937  0.8333699508245757
  0.1908350425524965  0.7857183820747980  0.1249151369598600
  0.0624510779394434  0.0421486350378483  0.8752578923186001
  0.3104103768203310  0.3753513090075696  0.6549350897028721
  0.3148732987237867  0.2028600730334385  0.3448396779825103
  0.8107710136337599  0.5406224398293108  0.7439201916970077
  0.6840505499238462  0.9618395801838437  0.8334006089324020
  0.5604039835226944  0.8750711222257973  0.6549344569224678
  0.3135352654813222  0.7066769074245994  0.5655557653856367
  0.3133763445211622  0.5316214284642289  0.1246337637015871
  0.6850952254352642  0.9551030582967446  0.2119614583171210
  0.3136023744416213  0.2070714467547157  0.5654997999489055
  0.3100570797478240  0.5406261667065524  0.7439083461665473
  0.6884698503025497  0.9570596507954485  0.5653274048530116
  0.4378931533585505  0.7907271141998169  0.6104134237785923
  0.6923693169608769  0.6147829987184045  0.1670425607496703
  0.3066015041756502  0.8726204966670720  0.3003046617796627
  0.3126275102169165  0.7047721781572613  0.4784402314625115
  0.9385093251370988  0.2909519537016959  0.6104894409056775
  0.4314722590277620  0.6227616404215879  0.3003591954386894
  0.8179203379817496  0.8645176878225306  0.1668939677442829
  0.5604407692463410  0.2047808814443610  0.2118903741010575
  0.9420717493548072  0.6150540671712562  0.1667630907961930
  0.9378964263161302  0.7933660601012644  0.8752947746070627
  0.5648056142722593  0.3729287243634776  0.7887334359834142
  0.0634005235444537  0.3720056389506066  0.5214013624555669
  0.5632782667191847  0.3719880110544024  0.5213935096965688
  0.6813172937490720  0.1226395043944671  0.3003502883271722
  0.4343745274550696  0.9618603994556867  0.8334433906914270
  0.1908445325069682  0.2859494209271750  0.1247536469974984
  0.8148657765290821  0.8730164945337000  0.7886268529311067
  0.3128490256657283  0.3706802369046405  0.4343405362345431
  0.5630364076559063  0.0331423889547996  0.1249166342156972
  0.4377377558390051  0.2908802663151332  0.6104986909449570
  0.1899154512341865  0.4527659537933859  0.3449390296217740
  0.4395571123893397  0.2858000630511660  0.1247773986449745
  0.6897552954862153  0.7872910187574595  0.2562061531891646
  0.4379725868994378  0.1219299827148103  0.5214179217699636
  0.1882372141710942  0.2933945013387111  0.8753220282659838
  0.1865050298461262  0.1247017901417180  0.6548284777059552
  0.9359166070682787  0.1251220970132315  0.6549222477041824
  0.3103010814267986  0.2050199805524874  0.2118373586982006
  0.0589253759233036  0.0370218376914321  0.3890415540713519
  0.1931627764814623  0.1152705849986057  0.1671986729757523
  0.0631723181765114  0.5410476901555837  0.6105590566372279
  0.9400739806569247  0.2874509423513978  0.2560431520376010
  0.5631754895021324  0.5406462992425244  0.6105428892021192
  0.9388346818300526  0.9571764545333664  0.5654329870420635
  0.6811919794333563  0.6229372183026358  0.3002996496256173
  0.9376118643569207  0.6201929883093303  0.4342944843817271
  0.9401542154241457  0.6228876226450284  0.7886404878691567
  0.5627140027115594  0.7076782492178623  0.6997199914162195
  0.0592350949644956  0.7117721399641046  0.8334304192534060
  0.9314434201530158  0.1226061526414154  0.3004335857458849
  0.9384332911471008  0.7910078188140933  0.6104865618332175
  0.4405545781722885  0.7872699606328839  0.2561864222333204
  0.3150863672634733  0.3730255271415270  0.7886380278111693
  0.4361281440980821  0.4550595615495165  0.2120181308812033
  0.1883608252499903  0.1223615726577783  0.5213809008219964
  0.8131543196069321  0.7075140416927238  0.6997069974094282
  0.0638929649892554  0.0405177845537186  0.6104875107999990
  0.5592597778249490  0.2119557074197201  0.8333831699710820
  0.3135627794334640  0.8716885154069721  0.5213656961535070
  0.6915918167209999  0.2861194093222162  0.1246943507215020
  0.1863673040765529  0.9555432836743112  0.2119924278925168
  0.6882619782059174  0.2911668950873031  0.6105343483177749
  0.3129222983024388  0.0403742311909057  0.6104534435721600
  0.9399371336739724  0.1232806388116007  0.7886997554548898
  0.4380043590522343  0.7935221768499291  0.8752979764834591
  0.8105839386192704  0.0405865952486795  0.7439436655741242
  0.9379718950828276  0.4577174162186470  0.6997528310731721
  0.1857234106094500  0.6256327507267271  0.6549451268505567
  0.3126722165525591  0.7081151894155729  0.6998174016639592
  0.9397400755444528  0.2858874611943086  0.1243888004055047
  0.4380102110410294  0.4552498962378708  0.4784904029146848
  0.0629078810258705  0.7047269184002287  0.4784020018879632
  0.9378562900656401  0.1200918997415371  0.4343227996901123
  0.4313631149826824  0.1223650921654370  0.3002954115306756
  0.1879158218124039  0.1202932481832609  0.4344085093928304
  0.5623987038555043  0.0424088689466278  0.8752378704697785
  0.1886463918964452  0.9566348277133491  0.5652538318308626
  0.6901312320339830  0.7857719284873335  0.1250801685005778
  0.5632702618615978  0.5316328203638755  0.1248332132063448
  0.3095782736316240  0.0368705458870414  0.3890950066652897
  0.6919646696622666  0.1147850069871347  0.1671415511798421
  0.8101275776394413  0.2046422913321215  0.2118801453524246
  0.0652106828602146  0.5374339006067780  0.2561877253680068
  0.5626742863200815  0.7050509979178200  0.4784150817350774
  0.0636712521081230  0.2069938655037066  0.5654277608570304
  0.5564086309300139  0.3724760906721855  0.3003842667364967
  0.4399759131892755  0.9523293606711394  0.3448458176456423
  0.1843263412286840  0.9618196202050534  0.8334917621995470
  0.4416888608925876  0.6141220991863017  0.1672151414006159
  0.9359922033910295  0.4541633181097509  0.2120791265817771
  0.0637987309472553  0.5326050214709370  0.1245335488579188
  0.8132218989116882  0.3719053707237559  0.5213940169813163
  0.9313091245717638  0.6224355409502786  0.3005181752597529
  0.3153963861253464  0.0373615649167127  0.2561475041033177
  0.6881011488036539  0.7908290437725842  0.6104993617790068
  0.1842947014268678  0.4620194009507628  0.8333204400648879
  0.4414094891485031  0.1145605889227971  0.1669507935927906
  0.3133519046824662  0.3720690147695986  0.5214542996281790
  0.4399493830483350  0.6228440161373727  0.7886213542191246
  0.0651784936451086  0.0374267663131562  0.2560141000634172
  0.5632314267586725  0.7071019048121338  0.5653887304977129
  0.9359729660130539  0.2906524806095013  0.7439960339851069
  0.6899534156572992  0.1232299009899768  0.7887705916433694
  0.1849453263558907  0.4547648309770965  0.2119551909759593
  0.9341914677393927  0.7871782444799464  0.3890287441952538
  0.6878181717994509  0.2937637419603376  0.8753530570531706
  0.3178844531015017  0.8652514218462574  0.1670820055380819
  0.4377244796470793  0.4577041612714450  0.6997053505764044
  0.9397443381825208  0.9524904840220997  0.3449146399916874
  0.6882746998959006  0.6218445442951228  0.5213782201866367
  0.0608776367659702  0.8753442439697378  0.6549165341969816
  0.0649952628845944  0.8730077959323804  0.7885134167379534
  0.0605815403900185  0.3755278417708888  0.6549488537130442
  0.6878577062889998  0.4552020516042929  0.4784161536091034
  0.1904957594260156  0.7871995656876443  0.2562134720618907
  0.4377359580264252  0.1202176577283080  0.4343428394793994
  0.8144769738045952  0.0350768764065124  0.1247103195761190
  0.9384613040345519  0.6219195408322167  0.5213661237652252
  0.0624300579424294  0.8695035432693962  0.4343061936299853
  0.8135435020553546  0.5318953611078080  0.1246009418161616
  0.4401557474532269  0.4530930572154252  0.3449270483793950
  0.8149296240364774  0.2026848967858994  0.3448668391169465
  0.3149600278042466  0.7024651728773122  0.3448850608866648
  0.6868504588059433  0.1255113850207200  0.6548996893724720
  0.5561188052695294  0.8726017240065896  0.3002610870607374
  0.0608997711263040  0.5407854666086657  0.7439522581651098
  0.9356409267657644  0.9551752476746659  0.2119207077335329
  0.8102855101273837  0.7049973285078908  0.2118473580021763
  0.0562358855197893  0.8724988997318042  0.3003959023929212
  0.1814580997505272  0.1227123460951385  0.3003181558805541
  0.0646638927196231  0.7024328968595773  0.3448831241586012
  0.8135510591593968  0.0409952837573919  0.6105641474614103
  0.0627608350068642  0.3704348573699136  0.4342674742723585
  0.5651916539213735  0.2026831862813473  0.3448467380880443
  0.8063677449776914  0.3724279389884825  0.3004949662177694
  0.4380418808108659  0.9553035595773480  0.4784156211562256
  0.5597682301614362  0.5374822616564713  0.3890615335492279
  0.0624407766553467  0.2051920769926936  0.4784417389219459
  0.3150908716148306  0.8729675046680864  0.7885607378975334
  0.9382852087150422  0.9577791795090234  0.6997818700271305
  0.0563184889494410  0.3725400075227973  0.3004726627155504
  0.6860312044892823  0.6243647441086232  0.6549026239237027
  0.6884800021886162  0.4569647892775976  0.5653754628708427
  0.4358716209113458  0.9549238647767495  0.2119739026300300
  0.3130575392665684  0.2052703566732020  0.4784712460000625
  0.4362320672057174  0.1247521159456136  0.6548635447497567
  0.6879338879509509  0.6203542324801558  0.4342261174498969
  0.8131479402972879  0.2081867955084855  0.6996817394063093
  0.8129914324497070  0.7050580293825072  0.4783915425394520
  0.8128236785099558  0.8698148799194542  0.4342497610981639
  0.9375469020317536  0.9552916453976987  0.4783994523929075
  0.5626009930310851  0.2051489735834827  0.4784605839862876
  0.1877828498483800  0.6204995468195852  0.4342941751532925
  0.3098609101632593  0.0404888794384464  0.7437987536671831
  0.9358977400465990  0.6246699987788753  0.6548992035446349
  0.5592842669467897  0.7117482883997226  0.8333794017559479
  0.3064768402822126  0.3724905304602073  0.3003237758599565
  0.5601824474937817  0.7051566798367652  0.2119532520671243
  0.1877503021765636  0.4553016734569119  0.4784722787367707
  0.3123402890484513  0.0421907629766053  0.8752642980446010
  0.1879589368171460  0.4578865140772037  0.6996448617479674
  0.8121076044094596  0.5420426832278319  0.8752131396195565
  0.1840715192324943  0.2879065256824867  0.3890345310217895
  0.4380452243861660  0.6204392344182308  0.4342783197683129
  0.0602570758641754  0.7051093774270913  0.2118464556264862
  0.5630836055152565  0.3703297438712921  0.4343287979365792
  0.4381884488016805  0.6219857187095822  0.5214234051363368
  0.8090740012649306  0.7116357206209057  0.8334227801334981
  0.0650116149122458  0.3730055819468691  0.7886452331823517
  0.4380564950385343  0.2937333675899737  0.8752979780246535
  0.3129792843570496  0.0342805558699353  0.1247643029899154
  0.6879162295226234  0.1203015232014052  0.4343015359215536
  0.1896913920330205  0.9524406536566532  0.3448812554532367
  0.0592839074937753  0.2120356052258273  0.8334555485459326
  0.5627373865205881  0.0409197239424176  0.6104791324607900
  0.6849195925566328  0.4545347387654287  0.2120501356866733
  0.1854822956378649  0.7908649086328097  0.7438557771556199
  0.1814755769665659  0.6226084438413449  0.3004109709285853
  0.4345958260918706  0.7870824246656294  0.3890324197656433
  0.4403100964061684  0.2872227838245032  0.2562028147103524
  0.0622406488438204  0.5421313719175188  0.8752155095806841
  0.5599304765391425  0.0407140896187360  0.7438540576913029
  0.1881231629441345  0.7936021164104822  0.8753249663930188
  0.9375281792483999  0.4551381403150138  0.4784525017276471
  0.8091552806769520  0.5376056667768970  0.3890841445979659
  0.8136181525261353  0.2070417023971395  0.5653557301790337
  0.1902270454267929  0.6224919865106343  0.7886577078785264
  0.0590058959011478  0.5379682017277602  0.3890654595114124
  0.0634549902454434  0.7082593228597507  0.6997766472843464
  0.3153929707766854  0.5367968475105926  0.2561592170132465
  0.3108860141977765  0.7050829676263546  0.2118880149854092
  0.5671399746571184  0.8655308671572832  0.1671306640548066
  0.5596050858324335  0.5407934898494774  0.7439014993565705
  0.6902278706553744  0.4529604217979261  0.3449567757690949
  0.9380437785366573  0.2937834310874479  0.8753002468022029
  0.5652490025632668  0.0370284041961569  0.2560061094843764
  0.6838834161790397  0.2880745541303275  0.3889089658720509
  0.3190113544662616  0.3643762361367496  0.1664551931330600
  0.8187639440033911  0.3629850369411993  0.1662139655403806
  0.1882342591517603  0.9566759023037271  0.7000396304640359
  0.9410282219582262  0.7877020637183664  0.1250288276189214
  0.8104369189573701  0.3752348769324399  0.6547541521066559
  0.1877287580794821  0.9550654860783824  0.4785112659253231
 
  0.00000000E+00  0.00000000E+00  0.00000000E+00
  0.00000000E+00  0.00000000E+00  0.00000000E+00
  0.00000000E+00  0.00000000E+00  0.00000000E+00
  0.00000000E+00  0.00000000E+00  0.00000000E+00
  0.00000000E+00  0.00000000E+00  0.00000000E+00
  0.00000000E+00  0.00000000E+00  0.00000000E+00
  0.00000000E+00  0.00000000E+00  0.00000000E+00
  0.00000000E+00  0.00000000E+00  0.00000000E+00
  0.00000000E+00  0.00000000E+00  0.00000000E+00
  0.00000000E+00  0.00000000E+00  0.00000000E+00
  0.00000000E+00  0.00000000E+00  0.00000000E+00
  0.00000000E+00  0.00000000E+00  0.00000000E+00
  0.00000000E+00  0.00000000E+00  0.00000000E+00
  0.00000000E+00  0.00000000E+00  0.00000000E+00
  0.00000000E+00  0.00000000E+00  0.00000000E+00
  0.00000000E+00  0.00000000E+00  0.00000000E+00
  0.00000000E+00  0.00000000E+00  0.00000000E+00
  0.00000000E+00  0.00000000E+00  0.00000000E+00
  0.00000000E+00  0.00000000E+00  0.00000000E+00
  0.00000000E+00  0.00000000E+00  0.00000000E+00
  0.00000000E+00  0.00000000E+00  0.00000000E+00
  0.00000000E+00  0.00000000E+00  0.00000000E+00
  0.00000000E+00  0.00000000E+00  0.00000000E+00
  0.00000000E+00  0.00000000E+00  0.00000000E+00
  0.00000000E+00  0.00000000E+00  0.00000000E+00
  0.00000000E+00  0.00000000E+00  0.00000000E+00
  0.00000000E+00  0.00000000E+00  0.00000000E+00
  0.00000000E+00  0.00000000E+00  0.00000000E+00
  0.00000000E+00  0.00000000E+00  0.00000000E+00
  0.00000000E+00  0.00000000E+00  0.00000000E+00
  0.00000000E+00  0.00000000E+00  0.00000000E+00
  0.00000000E+00  0.00000000E+00  0.00000000E+00
  0.00000000E+00  0.00000000E+00  0.00000000E+00
  0.00000000E+00  0.00000000E+00  0.00000000E+00
  0.00000000E+00  0.00000000E+00  0.00000000E+00
  0.00000000E+00  0.00000000E+00  0.00000000E+00
  0.00000000E+00  0.00000000E+00  0.00000000E+00
  0.00000000E+00  0.00000000E+00  0.00000000E+00
  0.00000000E+00  0.00000000E+00  0.00000000E+00
  0.00000000E+00  0.00000000E+00  0.00000000E+00
  0.00000000E+00  0.00000000E+00  0.00000000E+00
  0.00000000E+00  0.00000000E+00  0.00000000E+00
  0.00000000E+00  0.00000000E+00  0.00000000E+00
  0.00000000E+00  0.00000000E+00  0.00000000E+00
  0.00000000E+00  0.00000000E+00  0.00000000E+00
  0.00000000E+00  0.00000000E+00  0.00000000E+00
  0.00000000E+00  0.00000000E+00  0.00000000E+00
  0.00000000E+00  0.00000000E+00  0.00000000E+00
  0.00000000E+00  0.00000000E+00  0.00000000E+00
  0.00000000E+00  0.00000000E+00  0.00000000E+00
  0.00000000E+00  0.00000000E+00  0.00000000E+00
  0.00000000E+00  0.00000000E+00  0.00000000E+00
  0.00000000E+00  0.00000000E+00  0.00000000E+00
  0.00000000E+00  0.00000000E+00  0.00000000E+00
  0.00000000E+00  0.00000000E+00  0.00000000E+00
  0.00000000E+00  0.00000000E+00  0.00000000E+00
  0.00000000E+00  0.00000000E+00  0.00000000E+00
  0.00000000E+00  0.00000000E+00  0.00000000E+00
  0.00000000E+00  0.00000000E+00  0.00000000E+00
  0.00000000E+00  0.00000000E+00  0.00000000E+00
  0.00000000E+00  0.00000000E+00  0.00000000E+00
  0.00000000E+00  0.00000000E+00  0.00000000E+00
  0.00000000E+00  0.00000000E+00  0.00000000E+00
  0.00000000E+00  0.00000000E+00  0.00000000E+00
  0.00000000E+00  0.00000000E+00  0.00000000E+00
  0.00000000E+00  0.00000000E+00  0.00000000E+00
  0.00000000E+00  0.00000000E+00  0.00000000E+00
  0.00000000E+00  0.00000000E+00  0.00000000E+00
  0.00000000E+00  0.00000000E+00  0.00000000E+00
  0.00000000E+00  0.00000000E+00  0.00000000E+00
  0.00000000E+00  0.00000000E+00  0.00000000E+00
  0.00000000E+00  0.00000000E+00  0.00000000E+00
  0.00000000E+00  0.00000000E+00  0.00000000E+00
  0.00000000E+00  0.00000000E+00  0.00000000E+00
  0.00000000E+00  0.00000000E+00  0.00000000E+00
  0.00000000E+00  0.00000000E+00  0.00000000E+00
  0.00000000E+00  0.00000000E+00  0.00000000E+00
  0.00000000E+00  0.00000000E+00  0.00000000E+00
  0.00000000E+00  0.00000000E+00  0.00000000E+00
  0.00000000E+00  0.00000000E+00  0.00000000E+00
  0.00000000E+00  0.00000000E+00  0.00000000E+00
  0.00000000E+00  0.00000000E+00  0.00000000E+00
  0.00000000E+00  0.00000000E+00  0.00000000E+00
  0.00000000E+00  0.00000000E+00  0.00000000E+00
  0.00000000E+00  0.00000000E+00  0.00000000E+00
  0.00000000E+00  0.00000000E+00  0.00000000E+00
  0.00000000E+00  0.00000000E+00  0.00000000E+00
  0.00000000E+00  0.00000000E+00  0.00000000E+00
  0.00000000E+00  0.00000000E+00  0.00000000E+00
  0.00000000E+00  0.00000000E+00  0.00000000E+00
  0.00000000E+00  0.00000000E+00  0.00000000E+00
  0.00000000E+00  0.00000000E+00  0.00000000E+00
  0.00000000E+00  0.00000000E+00  0.00000000E+00
  0.00000000E+00  0.00000000E+00  0.00000000E+00
  0.00000000E+00  0.00000000E+00  0.00000000E+00
  0.00000000E+00  0.00000000E+00  0.00000000E+00
  0.00000000E+00  0.00000000E+00  0.00000000E+00
  0.00000000E+00  0.00000000E+00  0.00000000E+00
  0.00000000E+00  0.00000000E+00  0.00000000E+00
  0.00000000E+00  0.00000000E+00  0.00000000E+00
  0.00000000E+00  0.00000000E+00  0.00000000E+00
  0.00000000E+00  0.00000000E+00  0.00000000E+00
  0.00000000E+00  0.00000000E+00  0.00000000E+00
  0.00000000E+00  0.00000000E+00  0.00000000E+00
  0.00000000E+00  0.00000000E+00  0.00000000E+00
  0.00000000E+00  0.00000000E+00  0.00000000E+00
  0.00000000E+00  0.00000000E+00  0.00000000E+00
  0.00000000E+00  0.00000000E+00  0.00000000E+00
  0.00000000E+00  0.00000000E+00  0.00000000E+00
  0.00000000E+00  0.00000000E+00  0.00000000E+00
  0.00000000E+00  0.00000000E+00  0.00000000E+00
  0.00000000E+00  0.00000000E+00  0.00000000E+00
  0.00000000E+00  0.00000000E+00  0.00000000E+00
  0.00000000E+00  0.00000000E+00  0.00000000E+00
  0.00000000E+00  0.00000000E+00  0.00000000E+00
  0.00000000E+00  0.00000000E+00  0.00000000E+00
  0.00000000E+00  0.00000000E+00  0.00000000E+00
  0.00000000E+00  0.00000000E+00  0.00000000E+00
  0.00000000E+00  0.00000000E+00  0.00000000E+00
  0.00000000E+00  0.00000000E+00  0.00000000E+00
  0.00000000E+00  0.00000000E+00  0.00000000E+00
  0.00000000E+00  0.00000000E+00  0.00000000E+00
  0.00000000E+00  0.00000000E+00  0.00000000E+00
  0.00000000E+00  0.00000000E+00  0.00000000E+00
  0.00000000E+00  0.00000000E+00  0.00000000E+00
  0.00000000E+00  0.00000000E+00  0.00000000E+00
  0.00000000E+00  0.00000000E+00  0.00000000E+00
  0.00000000E+00  0.00000000E+00  0.00000000E+00
  0.00000000E+00  0.00000000E+00  0.00000000E+00
  0.00000000E+00  0.00000000E+00  0.00000000E+00
  0.00000000E+00  0.00000000E+00  0.00000000E+00
  0.00000000E+00  0.00000000E+00  0.00000000E+00
  0.00000000E+00  0.00000000E+00  0.00000000E+00
  0.00000000E+00  0.00000000E+00  0.00000000E+00
  0.00000000E+00  0.00000000E+00  0.00000000E+00
  0.00000000E+00  0.00000000E+00  0.00000000E+00
  0.00000000E+00  0.00000000E+00  0.00000000E+00
  0.00000000E+00  0.00000000E+00  0.00000000E+00
  0.00000000E+00  0.00000000E+00  0.00000000E+00
  0.00000000E+00  0.00000000E+00  0.00000000E+00
  0.00000000E+00  0.00000000E+00  0.00000000E+00
  0.00000000E+00  0.00000000E+00  0.00000000E+00
  0.00000000E+00  0.00000000E+00  0.00000000E+00
  0.00000000E+00  0.00000000E+00  0.00000000E+00
  0.00000000E+00  0.00000000E+00  0.00000000E+00
  0.00000000E+00  0.00000000E+00  0.00000000E+00
  0.00000000E+00  0.00000000E+00  0.00000000E+00
  0.00000000E+00  0.00000000E+00  0.00000000E+00
  0.00000000E+00  0.00000000E+00  0.00000000E+00
  0.00000000E+00  0.00000000E+00  0.00000000E+00
  0.00000000E+00  0.00000000E+00  0.00000000E+00
  0.00000000E+00  0.00000000E+00  0.00000000E+00
  0.00000000E+00  0.00000000E+00  0.00000000E+00
  0.00000000E+00  0.00000000E+00  0.00000000E+00
  0.00000000E+00  0.00000000E+00  0.00000000E+00
  0.00000000E+00  0.00000000E+00  0.00000000E+00
  0.00000000E+00  0.00000000E+00  0.00000000E+00
  0.00000000E+00  0.00000000E+00  0.00000000E+00
  0.00000000E+00  0.00000000E+00  0.00000000E+00
  0.00000000E+00  0.00000000E+00  0.00000000E+00
  0.00000000E+00  0.00000000E+00  0.00000000E+00
  0.00000000E+00  0.00000000E+00  0.00000000E+00
  0.00000000E+00  0.00000000E+00  0.00000000E+00
  0.00000000E+00  0.00000000E+00  0.00000000E+00
  0.00000000E+00  0.00000000E+00  0.00000000E+00
  0.00000000E+00  0.00000000E+00  0.00000000E+00
  0.00000000E+00  0.00000000E+00  0.00000000E+00
  0.00000000E+00  0.00000000E+00  0.00000000E+00
  0.00000000E+00  0.00000000E+00  0.00000000E+00
  0.00000000E+00  0.00000000E+00  0.00000000E+00
  0.00000000E+00  0.00000000E+00  0.00000000E+00
  0.00000000E+00  0.00000000E+00  0.00000000E+00
  0.00000000E+00  0.00000000E+00  0.00000000E+00
  0.00000000E+00  0.00000000E+00  0.00000000E+00
  0.00000000E+00  0.00000000E+00  0.00000000E+00
  0.00000000E+00  0.00000000E+00  0.00000000E+00
  0.00000000E+00  0.00000000E+00  0.00000000E+00
  0.00000000E+00  0.00000000E+00  0.00000000E+00
  0.00000000E+00  0.00000000E+00  0.00000000E+00
  0.00000000E+00  0.00000000E+00  0.00000000E+00
  0.00000000E+00  0.00000000E+00  0.00000000E+00
  0.00000000E+00  0.00000000E+00  0.00000000E+00
  0.00000000E+00  0.00000000E+00  0.00000000E+00
  0.00000000E+00  0.00000000E+00  0.00000000E+00
  0.00000000E+00  0.00000000E+00  0.00000000E+00
  0.00000000E+00  0.00000000E+00  0.00000000E+00
  0.00000000E+00  0.00000000E+00  0.00000000E+00
  0.00000000E+00  0.00000000E+00  0.00000000E+00
  0.00000000E+00  0.00000000E+00  0.00000000E+00
  0.00000000E+00  0.00000000E+00  0.00000000E+00
  0.00000000E+00  0.00000000E+00  0.00000000E+00
  0.00000000E+00  0.00000000E+00  0.00000000E+00
  0.00000000E+00  0.00000000E+00  0.00000000E+00
  0.00000000E+00  0.00000000E+00  0.00000000E+00
  0.00000000E+00  0.00000000E+00  0.00000000E+00
  0.00000000E+00  0.00000000E+00  0.00000000E+00
  0.00000000E+00  0.00000000E+00  0.00000000E+00
  0.00000000E+00  0.00000000E+00  0.00000000E+00
  0.00000000E+00  0.00000000E+00  0.00000000E+00
  0.00000000E+00  0.00000000E+00  0.00000000E+00
  0.00000000E+00  0.00000000E+00  0.00000000E+00
  0.00000000E+00  0.00000000E+00  0.00000000E+00
  0.00000000E+00  0.00000000E+00  0.00000000E+00
  0.00000000E+00  0.00000000E+00  0.00000000E+00
  0.00000000E+00  0.00000000E+00  0.00000000E+00
  0.00000000E+00  0.00000000E+00  0.00000000E+00
  0.00000000E+00  0.00000000E+00  0.00000000E+00
  0.00000000E+00  0.00000000E+00  0.00000000E+00
  0.00000000E+00  0.00000000E+00  0.00000000E+00
  0.00000000E+00  0.00000000E+00  0.00000000E+00
  0.00000000E+00  0.00000000E+00  0.00000000E+00
  0.00000000E+00  0.00000000E+00  0.00000000E+00
  0.00000000E+00  0.00000000E+00  0.00000000E+00
  0.00000000E+00  0.00000000E+00  0.00000000E+00
  0.00000000E+00  0.00000000E+00  0.00000000E+00
  0.00000000E+00  0.00000000E+00  0.00000000E+00
  0.00000000E+00  0.00000000E+00  0.00000000E+00
  0.00000000E+00  0.00000000E+00  0.00000000E+00
  0.00000000E+00  0.00000000E+00  0.00000000E+00
  0.00000000E+00  0.00000000E+00  0.00000000E+00
  0.00000000E+00  0.00000000E+00  0.00000000E+00
  0.00000000E+00  0.00000000E+00  0.00000000E+00
  0.00000000E+00  0.00000000E+00  0.00000000E+00
  0.00000000E+00  0.00000000E+00  0.00000000E+00
  0.00000000E+00  0.00000000E+00  0.00000000E+00
  0.00000000E+00  0.00000000E+00  0.00000000E+00
  0.00000000E+00  0.00000000E+00  0.00000000E+00
  0.00000000E+00  0.00000000E+00  0.00000000E+00
  0.00000000E+00  0.00000000E+00  0.00000000E+00
  0.00000000E+00  0.00000000E+00  0.00000000E+00
  0.00000000E+00  0.00000000E+00  0.00000000E+00
  0.00000000E+00  0.00000000E+00  0.00000000E+00
  0.00000000E+00  0.00000000E+00  0.00000000E+00
  0.00000000E+00  0.00000000E+00  0.00000000E+00
  0.00000000E+00  0.00000000E+00  0.00000000E+00
  0.00000000E+00  0.00000000E+00  0.00000000E+00
  0.00000000E+00  0.00000000E+00  0.00000000E+00
  0.00000000E+00  0.00000000E+00  0.00000000E+00
  0.00000000E+00  0.00000000E+00  0.00000000E+00
  0.00000000E+00  0.00000000E+00  0.00000000E+00
  0.00000000E+00  0.00000000E+00  0.00000000E+00
  0.00000000E+00  0.00000000E+00  0.00000000E+00
  0.00000000E+00  0.00000000E+00  0.00000000E+00
  0.00000000E+00  0.00000000E+00  0.00000000E+00
  0.00000000E+00  0.00000000E+00  0.00000000E+00
  0.00000000E+00  0.00000000E+00  0.00000000E+00
  0.00000000E+00  0.00000000E+00  0.00000000E+00