FeMn_288_20                             
    1.000000000000000     
     9.7266779999999997    0.0000000000000000    0.0000000000000000
     0.0000000000000000    8.4235500000000005    0.0000000000000000
     0.0000000000000000    0.0000000000000000   45.0000000000000000
   Fe   Mn
   268    20
Direct
  0.4369711729848056  0.2958069071377036  0.8737902463539269
  0.8124908928077773  0.3784905820645004  0.7868063252392606
  0.4373161158403706  0.1211059624899432  0.4346816728619488
  0.9374610698299654  0.4515340732840428  0.3460462642561174
  0.0622206401057880  0.5449348705333279  0.8738517828049748
  0.9377390021448448  0.1157378386138260  0.1684964584302162
  0.3127947218493682  0.5449311172030815  0.8737757930989793
  0.6876757513961592  0.6158321438656854  0.1685624418191149
  0.4375474637543226  0.2917460637407210  0.6098176044720417
  0.8125131524118546  0.0323812999334199  0.1263276008156062
  0.6875120069758932  0.4601521351547779  0.6982690797507992
  0.0626017788388021  0.0332175129837681  0.2573004579922874
  0.9375632127528496  0.2833121722979782  0.1263276240320528
  0.8123995575794111  0.0356734609916287  0.3900031814505374
  0.8124059212000582  0.1994450006132708  0.2133448452540655
  0.3121686643473464  0.7125147681698283  0.8316341127852237
  0.3126815752868881  0.1997495299108561  0.2133175599322157
  0.0622829968416588  0.3704912332851039  0.4348521622485866
  0.0625910987351408  0.3759939740427273  0.6539188058440967
  0.1879532908553428  0.9571737195816563  0.5651592663976921
  0.5623234123913609  0.3677660147534577  0.3016356875215193
  0.3127120141663061  0.3657951192109389  0.1685578629984546
  0.6879610170485024  0.6226049184329409  0.5213039304177003
  0.9380402176262600  0.6205752516781384  0.4346945412711506
  0.8124429529219397  0.8671383378053353  0.3017050477560378
  0.4369745178655701  0.9623717684770442  0.8316890507150985
  0.3126144071420663  0.7098715757821009  0.6982216927410683
  0.6871957918567031  0.9495818534459755  0.2133581692100766
  0.3126266896812290  0.0326017563331018  0.1263790581881142
  0.8125797327846362  0.5358429473282940  0.3900318768992813
  0.6872951113278201  0.4623767988344442  0.8315236593517636
  0.9374882196418178  0.7827085786803506  0.1262297357102349
  0.3124322658286570  0.5450137686741012  0.7426310741235188
  0.6867376077842550  0.6269189857305079  0.6541363526728428
  0.1878322515350820  0.4513285338423650  0.3460753633985441
  0.4369515865841175  0.6205473839933825  0.4345498996393329
  0.5626619343189900  0.5332194543510649  0.2574781353258785
  0.1873952883637260  0.9617432064256811  0.8316802040984461
  0.0622032882561578  0.8672892246151048  0.3015675003608080
  0.5626735513672841  0.0357224853499859  0.3900019065575295
  0.3126962473043767  0.0455677670394618  0.8738655805065718
  0.8123600494629308  0.7104393564168960  0.6983192045420296
  0.1880349533069206  0.6262412406169859  0.6538849479985852
  0.0623657328733660  0.8655906714702302  0.1683680875505765
  0.3122914631014986  0.2066571608703619  0.5651763967022810
  0.4375349495390876  0.1232401725791336  0.5213288577325248
  0.3124695344837391  0.2047951033490654  0.4785298435763586
  0.4367877607163270  0.9603698446353411  0.6983763944413961
  0.8127812097944788  0.2050556209162575  0.4785081585271208
  0.3123814079488474  0.3762292186060456  0.6539277761460029
  0.4376857897875001  0.6175928172258457  0.3016220753805821
  0.8122679042707575  0.3764383564333858  0.6538574399863909
  0.8124863308238174  0.5423143333882081  0.6098945686425415
  0.8130282916559206  0.8725176380513506  0.5213250408302412
  0.4373716479324131  0.2947770547288328  0.7425420618867514
  0.9380304895077777  0.2950617845283957  0.8738798963349566
  0.1875711759199916  0.9551831086558938  0.4785108649552435
  0.1873865258370457  0.6174864229807089  0.3016265114860927
  0.6869044147418609  0.1263986804690904  0.6537897696422036
  0.8123704395543206  0.7117596867122000  0.8316299760319650
  0.8124942033716055  0.0446120031369077  0.7427031045300705
  0.5625504852736180  0.2013849494954118  0.3460984141692812
  0.1875769276483658  0.7833670099313046  0.2574308773169335
  0.1876555653186887  0.1159280903604365  0.1685893989531165
  0.0622581589301067  0.7075987086742147  0.5652740747100437
  0.4377770932723431  0.6156533033279217  0.1685717760321939
  0.3127894859668393  0.6995848717327279  0.2132323223903678
  0.6872820336082829  0.2825324156366696  0.1264033774221571
  0.6870277426779247  0.7949288711732488  0.8738243239624625
  0.1873498686396708  0.2856298252625650  0.3900712231137857
  0.6874572146102299  0.9571813675895471  0.5651001550077959
  0.4378408933676129  0.7833530167069443  0.2574510554086819
  0.9376050839717920  0.1288669174109229  0.7869028617974668
  0.4375225324558761  0.7919579798379139  0.6097794490285283
  0.5627212172021541  0.7014781065408988  0.3460540619920935
  0.9373705490291687  0.7918233082685142  0.6098232155675798
  0.5626702099621930  0.8670658933870604  0.3015012498602963
  0.0625383741747181  0.2000678690256847  0.2133223116911515
  0.9371831558596933  0.2857002444102703  0.3900536535781132
  0.6873059471356991  0.2950737286644845  0.8738980366170134
  0.0624308318756170  0.8729362886167357  0.5212871839596182
  0.0621791146630832  0.7122202585648345  0.8316715674191711
  0.5627216681525177  0.0333269244651850  0.2575021737581916
  0.3124205902570463  0.2108384078111973  0.6982771720277318
  0.5628993856020246  0.5359627625192650  0.3899679795338915
  0.0622925039561725  0.7099210915722806  0.6982820930988758
  0.9371020207699812  0.1172650963467788  0.3016647135306996
  0.5623396725363222  0.3706379732747938  0.4346967766478119
  0.5624761681095813  0.7068138075490153  0.5650889255504821
  0.6875237729645794  0.1230094124731919  0.5211965557112005
  0.8120910435136117  0.5445266439013037  0.7425796527112315
  0.8124237054477322  0.8764388322040830  0.6538724139037766
  0.1873214343562934  0.4620922322733816  0.8315656376029430
  0.1872305057054895  0.7948520259205014  0.7426222440627810
  0.9377332950035174  0.7833487148581625  0.2574146124438190
  0.5623110405008457  0.2050952094809523  0.4786055026888027
  0.1876984222245084  0.6285211664192529  0.7868873176459196
  0.0623914712198443  0.3783682722143641  0.7868803002822922
  0.8123168900971647  0.7012913248813060  0.3461298492495762
  0.9374274911318043  0.1228341134014142  0.5213551734733937
  0.1875657782738330  0.9512001879411361  0.3461135549096422
  0.8120779663817879  0.6994937723297449  0.2132366837453570
  0.3125240024396713  0.8678061251580294  0.3017497084922092
  0.3128478167743292  0.7014201481362450  0.3461372289846231
  0.3122811807622757  0.5354716446989658  0.3900098930326290
  0.0624065861668824  0.0354526184279196  0.3899947261921478
  0.3126355376996542  0.0424298630996122  0.6099535054737116
  0.4377177784095909  0.1157331840930501  0.1686394116792757
  0.4370963291922104  0.6276456949511749  0.7867538108334543
  0.5626554058766901  0.3658320808484282  0.1685670926965341
  0.0623273075947021  0.5327445462670590  0.1262472772911012
  0.0627851449579150  0.2105511768396029  0.6983198223515181
  0.4375628394342810  0.4570966793256161  0.5652877444079170
  0.0621150901777078  0.2120445039919209  0.8316189291994803
  0.0625935354962270  0.8704748888855681  0.4347230941842963
  0.4376387552638861  0.2832334491611012  0.2575233444148645
  0.8121092372247332  0.5322031932723816  0.1263191035452774
  0.3122286741927438  0.8725348711921301  0.5213644663767756
  0.6872698720769181  0.9625751008910333  0.8316390464212041
  0.0624251277382103  0.0445001951683378  0.7426102752766689
  0.3130464077114645  0.7054135505825506  0.4785930203556279
  0.5625668127890110  0.1997781111467751  0.2133243625625856
  0.9377530263501732  0.2830606730578732  0.2574993970296004
  0.8126269956276184  0.8704999267235208  0.4346277805451225
  0.9372418407683976  0.9551126418457943  0.4785021282124419
  0.8125487710472054  0.0331189855187526  0.2575157557022182
  0.4373731418004773  0.7955558971824384  0.8738553665812416
  0.4375749825721368  0.7824117555731460  0.1263583632015681
  0.6868187390725810  0.7821495559787857  0.1263369947679021
  0.4371454913892166  0.1287858849085622  0.7869075738709224
  0.1874528395495507  0.9601239589866066  0.6984135557646118
  0.5630015720628414  0.0459250655908632  0.8739308973590272
  0.5623423168009409  0.5454774635556560  0.8737404717310858
  0.8125839686487161  0.5330247669974927  0.2573690111579561
  0.3124819634785654  0.2122290146961848  0.8315279296889534
  0.3126342939011991  0.3724713895135047  0.5212737144877969
  0.1875681363101164  0.4503542096846588  0.2132245147882148
  0.3124220666704466  0.8764290062126554  0.6539036691896469
  0.3126311593700338  0.8657451744502001  0.1685126541856619
  0.6870367632543393  0.6279861145028772  0.7869911563542416
  0.4375208469911584  0.7861503758294880  0.3899640998540861
  0.6870709473887833  0.2943000990659307  0.7425061456920664
  0.1874994089936834  0.2955845506331105  0.8738326094904637
  0.6875769594489111  0.2919060217987021  0.6096879872725848
  0.8119966147396808  0.2117762127935285  0.8317503574403899
  0.8129380101282975  0.3705503605942916  0.4347277362189985
  0.9380410178315007  0.9510107372884107  0.3459928851553373
  0.9374460879962858  0.2947871861873988  0.7425977683998999
  0.4377941444265939  0.4514373202950957  0.3460580119325227
  0.8123226493866170  0.2098708168871217  0.6983671568022386
  0.3125979498924851  0.5414583064696239  0.6098237973344164
  0.4379665378027665  0.2856077648153465  0.3900772458610761
  0.9376998143312263  0.2924962991065372  0.6098463712043517
  0.5622666991684173  0.5420792161512539  0.6099514147275568
  0.4372690818370559  0.4620629410886755  0.8315326067222543
  0.4372762713384429  0.6266648873534570  0.6538864149109971
  0.3128540640536296  0.5321641290516523  0.1263080016250297
  0.5622831948744959  0.0323245597246757  0.1264097184213124
  0.6876818208203451  0.4551269369068409  0.4784670897054019
  0.3127120783980942  0.5334176738620168  0.2574666376574899
  0.1875748930348065  0.6207414050493876  0.4347480675846548
  0.5624375576568937  0.8706842090996649  0.4349304956415557
  0.1878337218981352  0.2833009615517445  0.2575050569456399
  0.6876861097731212  0.7834105824186748  0.2574898653364329
  0.8124947864223775  0.7052040068735405  0.4784946551467570
  0.8121390393907681  0.7076433391923972  0.5650732757601759
  0.5628197320720943  0.3778900652933510  0.7867325537962425
  0.6876359474124006  0.2832239885417088  0.2575288137493050
  0.1876297099432782  0.1208140908273096  0.4347098210091225
  0.9370743576147675  0.4555119079793413  0.4785736537260210
  0.1875860786403390  0.6228061273303785  0.5212134940456330
  0.9374809503006827  0.7950225408803610  0.8738816891456287
  0.5624953169602491  0.8783643206280539  0.7868035629341358
  0.5624960214642634  0.8656186076268316  0.1686513104605036
  0.0626539600768727  0.5333264310446716  0.2574700435541941
  0.3127231720150160  0.8704452456177147  0.4347243194694038
  0.1879893476523417  0.4570845671013809  0.5647831460581371
  0.4376473465680770  0.9551594800327516  0.4785775383022863
  0.6878593169041135  0.9515131674567600  0.3460435139653550
  0.0624593015954915  0.3671311373713632  0.3017425052089601
  0.1876681658535924  0.7823906782865628  0.1262452090491463
  0.1878440616061101  0.7958704492453467  0.8738648201194004
  0.9376822160880480  0.1206958311724780  0.4347280861994665
  0.6876027654642232  0.1159123406741388  0.1686097571687323
  0.8124185533792742  0.2016424404856663  0.3461321736891043
  0.8120401171869018  0.0458181987023027  0.8739478988806000
  0.8129801731195040  0.8660375852945024  0.1684797544023653
  0.5627535135185314  0.7106521016619770  0.6982689453298671
  0.1874985880330678  0.1229476414422166  0.5212974733141265
  0.0623092990799346  0.7053670193438470  0.4784910491589953
  0.4379663737147391  0.4553235078345845  0.4785335865826740
  0.6874255460604549  0.2861304729302082  0.3900843624748831
  0.5625599575836066  0.6992845487598602  0.2133144987670487
  0.6872044393455190  0.1175785706900242  0.3016858819732190
  0.0622506672515188  0.0330664052487446  0.1262682226183919
  0.9371045591450927  0.6169653966212633  0.3016970463505489
  0.8125880735502742  0.3659325962435884  0.1685634744491322
  0.9381352764790847  0.9604935557828836  0.6982078048802847
  0.1875946507229490  0.9497846149666065  0.2132943195459057
  0.4376565153170139  0.1176047584823215  0.3016237308874135
  0.4373273096786862  0.9498366418296036  0.2132603416145089
  0.3127523321756151  0.7075050945226824  0.5653351475741145
  0.8124631546972967  0.3673819209920801  0.3016383416635671
  0.9374717110504684  0.6227918301046630  0.5212952952258404
  0.1875159740912403  0.4603571611320067  0.6983198204638484
  0.4375137620277815  0.7943090551650720  0.7425151722849141
  0.5624201595805455  0.3728606970598540  0.5213609089324719
  0.5621135442701658  0.0445141066125459  0.7426539700547301
  0.8127415220248818  0.0420984866074907  0.6098493240752793
  0.0627924764000302  0.2071089502918292  0.5652311307422934
  0.6874803854901849  0.6171594849462413  0.3016611875867647
  0.0626306549567597  0.3659304304262683  0.1684988809700834
  0.3127368300283990  0.0332948433572642  0.2574741802458965
  0.6871398146556743  0.7859678687969002  0.3900013491050813
  0.3129839173598589  0.3706160316559588  0.4347209398718326
  0.5628621837331923  0.3766665867928436  0.6538424581351857
  0.1874678477646126  0.7855358811040569  0.3900728955529343
  0.9376779784218826  0.9622100678562068  0.8316591098734684
  0.9374168878825496  0.9577155133913089  0.5650301865369994
  0.5626191608899453  0.2118997255052365  0.8317119551787232
  0.0624645872868914  0.2045627886006916  0.4785063710432143
  0.6876194580861801  0.9550825465834648  0.4785074519652571
  0.5624167834636539  0.7121625811569425  0.8315219009755267
  0.9379438718929282  0.6158820155578020  0.1685055939902549
  0.4369764846133599  0.6224969364042596  0.5213334644780155
  0.1874906670632812  0.2949059231839428  0.7426345719777292
  0.0624335430970869  0.3725770177851575  0.5212619693526682
  0.8123436993001604  0.2073994340318631  0.5651325963366891
  0.5624838337516783  0.0414508784029795  0.6097871309953623
  0.5622444868924655  0.8767969984532733  0.6538627499098422
  0.4372566176766511  0.4494417566790710  0.2133267273694516
  0.4373742576541981  0.9513689962993092  0.3459500284429786
  0.4375653298836804  0.2824052960084458  0.1263938790117074
  0.0624159059214020  0.5355118989076302  0.3900393447145071
  0.4376007923875660  0.9569813992879903  0.5651218838512436
  0.8123547312487279  0.8780791601877797  0.7868401819730686
  0.6871822757046877  0.4495903746328916  0.2133541629681019
  0.0627602147501074  0.5419965416826767  0.6097684732265856
  0.9372061481591503  0.7937494038860320  0.7426457602737769
  0.6876912230449911  0.4515394022285721  0.3459829350610025
  0.8126425551414290  0.3728419168412444  0.5213262220154473
  0.1876732082003271  0.7918198491867849  0.6098750395767598
  0.5623793882990438  0.2097241759006118  0.6983531515117575
  0.6877603557716317  0.6205375915147493  0.4346470817973258
  0.1875423060041629  0.1277981589940386  0.7868570762608990
  0.0624812492618025  0.5451280672036634  0.7427174484094595
  0.1873137954401329  0.2826627509879531  0.1263674808765101
  0.8124739581752246  0.5454782846220277  0.8738340533449646
  0.1881058958703920  0.1264718925091229  0.6537958910978412
  0.0627528997026802  0.2012629235034084  0.3460949405646125
  0.5622499419393675  0.7048345335705027  0.4785688030493925
  0.9374791185177543  0.4620009368459376  0.8316764962599197
  0.6870931045457812  0.4570599847964849  0.5651013275816348
  0.3125604625688151  0.3678198770725545  0.3015662458906099
  0.6873745104664776  0.7949313727584738  0.7426967224154749
  0.5624377352253224  0.5323030654620998  0.1263141389264663
  0.9372958371093253  0.4498000391463070  0.2133248973525562
  0.3129605123228167  0.2014854254720521  0.3460386790414242
  0.5626971539510845  0.2066747900169306  0.5651208962954016
  0.3120771303212677  0.0443962252868248  0.7425925975234036
  0.0624299575169205  0.0424231663933632  0.6098625048980567
  0.0621292998917117  0.0454336486821181  0.8738907953255945
  0.1876243650216388  0.6158829059315121  0.1684338508587672
  0.9376592915667276  0.7855398674145985  0.3900159790718398
  0.4372815111983944  0.1267681808273952  0.6539086610088471
  0.0625544030510493  0.8762485454429371  0.6538615697843480
  0.3124977405840523  0.3783757854319778  0.7867897411019028
  0.5622456107278003  0.5444792188732968  0.7425270025341209
  0.0629114519678524  0.6993176480514737  0.2135306256979486
  0.6876416979303902  0.9604394337172930  0.6983192931768707
  0.9370239430385103  0.9503062546289808  0.2134620233012684
  0.3135404924525646  0.8783878737747813  0.7865295001779208
  0.1877369718541933  0.1177105014799905  0.3016627013216730
  0.9373344405835019  0.6267830136000745  0.6536698984665904
  0.1869529445410086  0.2919020087141241  0.6099238745278401
  0.9374639726059487  0.4597433772746534  0.6985015647175388
  0.0620848184846613  0.8789466001719212  0.7865644576976012
  0.4375383261766225  0.4604467522283214  0.6984212950137012
  0.6873184124099687  0.1282358560666000  0.7866875953233100
  0.0625762176136482  0.7011483748781678  0.3461018546250726
  0.1875004654045414  0.4552394156116361  0.4786231433959167
  0.9373762405083481  0.1263019902269449  0.6539384835420538
  0.3127144704030947  0.0357377063485580  0.3899340256823146
  0.6876494053635070  0.1209377980271101  0.4344891091737377
  0.6875411614568357  0.7920482255943843  0.6099428623845767
  0.9374950288771412  0.6273151200044620  0.7865413214535252
  0.5624598724756822  0.8726289276992236  0.5212667054807083
  0.9377331791884114  0.4576444413862875  0.5653107495550417
 
  0.00000000E+00  0.00000000E+00  0.00000000E+00
  0.00000000E+00  0.00000000E+00  0.00000000E+00
  0.00000000E+00  0.00000000E+00  0.00000000E+00
  0.00000000E+00  0.00000000E+00  0.00000000E+00
  0.00000000E+00  0.00000000E+00  0.00000000E+00
  0.00000000E+00  0.00000000E+00  0.00000000E+00
  0.00000000E+00  0.00000000E+00  0.00000000E+00
  0.00000000E+00  0.00000000E+00  0.00000000E+00
  0.00000000E+00  0.00000000E+00  0.00000000E+00
  0.00000000E+00  0.00000000E+00  0.00000000E+00
  0.00000000E+00  0.00000000E+00  0.00000000E+00
  0.00000000E+00  0.00000000E+00  0.00000000E+00
  0.00000000E+00  0.00000000E+00  0.00000000E+00
  0.00000000E+00  0.00000000E+00  0.00000000E+00
  0.00000000E+00  0.00000000E+00  0.00000000E+00
  0.00000000E+00  0.00000000E+00  0.00000000E+00
  0.00000000E+00  0.00000000E+00  0.00000000E+00
  0.00000000E+00  0.00000000E+00  0.00000000E+00
  0.00000000E+00  0.00000000E+00  0.00000000E+00
  0.00000000E+00  0.00000000E+00  0.00000000E+00
  0.00000000E+00  0.00000000E+00  0.00000000E+00
  0.00000000E+00  0.00000000E+00  0.00000000E+00
  0.00000000E+00  0.00000000E+00  0.00000000E+00
  0.00000000E+00  0.00000000E+00  0.00000000E+00
  0.00000000E+00  0.00000000E+00  0.00000000E+00
  0.00000000E+00  0.00000000E+00  0.00000000E+00
  0.00000000E+00  0.00000000E+00  0.00000000E+00
  0.00000000E+00  0.00000000E+00  0.00000000E+00
  0.00000000E+00  0.00000000E+00  0.00000000E+00
  0.00000000E+00  0.00000000E+00  0.00000000E+00
  0.00000000E+00  0.00000000E+00  0.00000000E+00
  0.00000000E+00  0.00000000E+00  0.00000000E+00
  0.00000000E+00  0.00000000E+00  0.00000000E+00
  0.00000000E+00  0.00000000E+00  0.00000000E+00
  0.00000000E+00  0.00000000E+00  0.00000000E+00
  0.00000000E+00  0.00000000E+00  0.00000000E+00
  0.00000000E+00  0.00000000E+00  0.00000000E+00
  0.00000000E+00  0.00000000E+00  0.00000000E+00
  0.00000000E+00  0.00000000E+00  0.00000000E+00
  0.00000000E+00  0.00000000E+00  0.00000000E+00
  0.00000000E+00  0.00000000E+00  0.00000000E+00
  0.00000000E+00  0.00000000E+00  0.00000000E+00
  0.00000000E+00  0.00000000E+00  0.00000000E+00
  0.00000000E+00  0.00000000E+00  0.00000000E+00
  0.00000000E+00  0.00000000E+00  0.00000000E+00
  0.00000000E+00  0.00000000E+00  0.00000000E+00
  0.00000000E+00  0.00000000E+00  0.00000000E+00
  0.00000000E+00  0.00000000E+00  0.00000000E+00
  0.00000000E+00  0.00000000E+00  0.00000000E+00
  0.00000000E+00  0.00000000E+00  0.00000000E+00
  0.00000000E+00  0.00000000E+00  0.00000000E+00
  0.00000000E+00  0.00000000E+00  0.00000000E+00
  0.00000000E+00  0.00000000E+00  0.00000000E+00
  0.00000000E+00  0.00000000E+00  0.00000000E+00
  0.00000000E+00  0.00000000E+00  0.00000000E+00
  0.00000000E+00  0.00000000E+00  0.00000000E+00
  0.00000000E+00  0.00000000E+00  0.00000000E+00
  0.00000000E+00  0.00000000E+00  0.00000000E+00
  0.00000000E+00  0.00000000E+00  0.00000000E+00
  0.00000000E+00  0.00000000E+00  0.00000000E+00
  0.00000000E+00  0.00000000E+00  0.00000000E+00
  0.00000000E+00  0.00000000E+00  0.00000000E+00
  0.00000000E+00  0.00000000E+00  0.00000000E+00
  0.00000000E+00  0.00000000E+00  0.00000000E+00
  0.00000000E+00  0.00000000E+00  0.00000000E+00
  0.00000000E+00  0.00000000E+00  0.00000000E+00
  0.00000000E+00  0.00000000E+00  0.00000000E+00
  0.00000000E+00  0.00000000E+00  0.00000000E+00
  0.00000000E+00  0.00000000E+00  0.00000000E+00
  0.00000000E+00  0.00000000E+00  0.00000000E+00
  0.00000000E+00  0.00000000E+00  0.00000000E+00
  0.00000000E+00  0.00000000E+00  0.00000000E+00
  0.00000000E+00  0.00000000E+00  0.00000000E+00
  0.00000000E+00  0.00000000E+00  0.00000000E+00
  0.00000000E+00  0.00000000E+00  0.00000000E+00
  0.00000000E+00  0.00000000E+00  0.00000000E+00
  0.00000000E+00  0.00000000E+00  0.00000000E+00
  0.00000000E+00  0.00000000E+00  0.00000000E+00
  0.00000000E+00  0.00000000E+00  0.00000000E+00
  0.00000000E+00  0.00000000E+00  0.00000000E+00
  0.00000000E+00  0.00000000E+00  0.00000000E+00
  0.00000000E+00  0.00000000E+00  0.00000000E+00
  0.00000000E+00  0.00000000E+00  0.00000000E+00
  0.00000000E+00  0.00000000E+00  0.00000000E+00
  0.00000000E+00  0.00000000E+00  0.00000000E+00
  0.00000000E+00  0.00000000E+00  0.00000000E+00
  0.00000000E+00  0.00000000E+00  0.00000000E+00
  0.00000000E+00  0.00000000E+00  0.00000000E+00
  0.00000000E+00  0.00000000E+00  0.00000000E+00
  0.00000000E+00  0.00000000E+00  0.00000000E+00
  0.00000000E+00  0.00000000E+00  0.00000000E+00
  0.00000000E+00  0.00000000E+00  0.00000000E+00
  0.00000000E+00  0.00000000E+00  0.00000000E+00
  0.00000000E+00  0.00000000E+00  0.00000000E+00
  0.00000000E+00  0.00000000E+00  0.00000000E+00
  0.00000000E+00  0.00000000E+00  0.00000000E+00
  0.00000000E+00  0.00000000E+00  0.00000000E+00
  0.00000000E+00  0.00000000E+00  0.00000000E+00
  0.00000000E+00  0.00000000E+00  0.00000000E+00
  0.00000000E+00  0.00000000E+00  0.00000000E+00
  0.00000000E+00  0.00000000E+00  0.00000000E+00
  0.00000000E+00  0.00000000E+00  0.00000000E+00
  0.00000000E+00  0.00000000E+00  0.00000000E+00
  0.00000000E+00  0.00000000E+00  0.00000000E+00
  0.00000000E+00  0.00000000E+00  0.00000000E+00
  0.00000000E+00  0.00000000E+00  0.00000000E+00
  0.00000000E+00  0.00000000E+00  0.00000000E+00
  0.00000000E+00  0.00000000E+00  0.00000000E+00
  0.00000000E+00  0.00000000E+00  0.00000000E+00
  0.00000000E+00  0.00000000E+00  0.00000000E+00
  0.00000000E+00  0.00000000E+00  0.00000000E+00
  0.00000000E+00  0.00000000E+00  0.00000000E+00
  0.00000000E+00  0.00000000E+00  0.00000000E+00
  0.00000000E+00  0.00000000E+00  0.00000000E+00
  0.00000000E+00  0.00000000E+00  0.00000000E+00
  0.00000000E+00  0.00000000E+00  0.00000000E+00
  0.00000000E+00  0.00000000E+00  0.00000000E+00
  0.00000000E+00  0.00000000E+00  0.00000000E+00
  0.00000000E+00  0.00000000E+00  0.00000000E+00
  0.00000000E+00  0.00000000E+00  0.00000000E+00
  0.00000000E+00  0.00000000E+00  0.00000000E+00
  0.00000000E+00  0.00000000E+00  0.00000000E+00
  0.00000000E+00  0.00000000E+00  0.00000000E+00
  0.00000000E+00  0.00000000E+00  0.00000000E+00
  0.00000000E+00  0.00000000E+00  0.00000000E+00
  0.00000000E+00  0.00000000E+00  0.00000000E+00
  0.00000000E+00  0.00000000E+00  0.00000000E+00
  0.00000000E+00  0.00000000E+00  0.00000000E+00
  0.00000000E+00  0.00000000E+00  0.00000000E+00
  0.00000000E+00  0.00000000E+00  0.00000000E+00
  0.00000000E+00  0.00000000E+00  0.00000000E+00
  0.00000000E+00  0.00000000E+00  0.00000000E+00
  0.00000000E+00  0.00000000E+00  0.00000000E+00
  0.00000000E+00  0.00000000E+00  0.00000000E+00
  0.00000000E+00  0.00000000E+00  0.00000000E+00
  0.00000000E+00  0.00000000E+00  0.00000000E+00
  0.00000000E+00  0.00000000E+00  0.00000000E+00
  0.00000000E+00  0.00000000E+00  0.00000000E+00
  0.00000000E+00  0.00000000E+00  0.00000000E+00
  0.00000000E+00  0.00000000E+00  0.00000000E+00
  0.00000000E+00  0.00000000E+00  0.00000000E+00
  0.00000000E+00  0.00000000E+00  0.00000000E+00
  0.00000000E+00  0.00000000E+00  0.00000000E+00
  0.00000000E+00  0.00000000E+00  0.00000000E+00
  0.00000000E+00  0.00000000E+00  0.00000000E+00
  0.00000000E+00  0.00000000E+00  0.00000000E+00
  0.00000000E+00  0.00000000E+00  0.00000000E+00
  0.00000000E+00  0.00000000E+00  0.00000000E+00
  0.00000000E+00  0.00000000E+00  0.00000000E+00
  0.00000000E+00  0.00000000E+00  0.00000000E+00
  0.00000000E+00  0.00000000E+00  0.00000000E+00
  0.00000000E+00  0.00000000E+00  0.00000000E+00
  0.00000000E+00  0.00000000E+00  0.00000000E+00
  0.00000000E+00  0.00000000E+00  0.00000000E+00
  0.00000000E+00  0.00000000E+00  0.00000000E+00
  0.00000000E+00  0.00000000E+00  0.00000000E+00
  0.00000000E+00  0.00000000E+00  0.00000000E+00
  0.00000000E+00  0.00000000E+00  0.00000000E+00
  0.00000000E+00  0.00000000E+00  0.00000000E+00
  0.00000000E+00  0.00000000E+00  0.00000000E+00
  0.00000000E+00  0.00000000E+00  0.00000000E+00
  0.00000000E+00  0.00000000E+00  0.00000000E+00
  0.00000000E+00  0.00000000E+00  0.00000000E+00
  0.00000000E+00  0.00000000E+00  0.00000000E+00
  0.00000000E+00  0.00000000E+00  0.00000000E+00
  0.00000000E+00  0.00000000E+00  0.00000000E+00
  0.00000000E+00  0.00000000E+00  0.00000000E+00
  0.00000000E+00  0.00000000E+00  0.00000000E+00
  0.00000000E+00  0.00000000E+00  0.00000000E+00
  0.00000000E+00  0.00000000E+00  0.00000000E+00
  0.00000000E+00  0.00000000E+00  0.00000000E+00
  0.00000000E+00  0.00000000E+00  0.00000000E+00
  0.00000000E+00  0.00000000E+00  0.00000000E+00
  0.00000000E+00  0.00000000E+00  0.00000000E+00
  0.00000000E+00  0.00000000E+00  0.00000000E+00
  0.00000000E+00  0.00000000E+00  0.00000000E+00
  0.00000000E+00  0.00000000E+00  0.00000000E+00
  0.00000000E+00  0.00000000E+00  0.00000000E+00
  0.00000000E+00  0.00000000E+00  0.00000000E+00
  0.00000000E+00  0.00000000E+00  0.00000000E+00
  0.00000000E+00  0.00000000E+00  0.00000000E+00
  0.00000000E+00  0.00000000E+00  0.00000000E+00
  0.00000000E+00  0.00000000E+00  0.00000000E+00
  0.00000000E+00  0.00000000E+00  0.00000000E+00
  0.00000000E+00  0.00000000E+00  0.00000000E+00
  0.00000000E+00  0.00000000E+00  0.00000000E+00
  0.00000000E+00  0.00000000E+00  0.00000000E+00
  0.00000000E+00  0.00000000E+00  0.00000000E+00
  0.00000000E+00  0.00000000E+00  0.00000000E+00
  0.00000000E+00  0.00000000E+00  0.00000000E+00
  0.00000000E+00  0.00000000E+00  0.00000000E+00
  0.00000000E+00  0.00000000E+00  0.00000000E+00
  0.00000000E+00  0.00000000E+00  0.00000000E+00
  0.00000000E+00  0.00000000E+00  0.00000000E+00
  0.00000000E+00  0.00000000E+00  0.00000000E+00
  0.00000000E+00  0.00000000E+00  0.00000000E+00
  0.00000000E+00  0.00000000E+00  0.00000000E+00
  0.00000000E+00  0.00000000E+00  0.00000000E+00
  0.00000000E+00  0.00000000E+00  0.00000000E+00
  0.00000000E+00  0.00000000E+00  0.00000000E+00
  0.00000000E+00  0.00000000E+00  0.00000000E+00
  0.00000000E+00  0.00000000E+00  0.00000000E+00
  0.00000000E+00  0.00000000E+00  0.00000000E+00
  0.00000000E+00  0.00000000E+00  0.00000000E+00
  0.00000000E+00  0.00000000E+00  0.00000000E+00
  0.00000000E+00  0.00000000E+00  0.00000000E+00
  0.00000000E+00  0.00000000E+00  0.00000000E+00
  0.00000000E+00  0.00000000E+00  0.00000000E+00
  0.00000000E+00  0.00000000E+00  0.00000000E+00
  0.00000000E+00  0.00000000E+00  0.00000000E+00
  0.00000000E+00  0.00000000E+00  0.00000000E+00
  0.00000000E+00  0.00000000E+00  0.00000000E+00
  0.00000000E+00  0.00000000E+00  0.00000000E+00
  0.00000000E+00  0.00000000E+00  0.00000000E+00
  0.00000000E+00  0.00000000E+00  0.00000000E+00
  0.00000000E+00  0.00000000E+00  0.00000000E+00
  0.00000000E+00  0.00000000E+00  0.00000000E+00
  0.00000000E+00  0.00000000E+00  0.00000000E+00
  0.00000000E+00  0.00000000E+00  0.00000000E+00
  0.00000000E+00  0.00000000E+00  0.00000000E+00
  0.00000000E+00  0.00000000E+00  0.00000000E+00
  0.00000000E+00  0.00000000E+00  0.00000000E+00
  0.00000000E+00  0.00000000E+00  0.00000000E+00
  0.00000000E+00  0.00000000E+00  0.00000000E+00
  0.00000000E+00  0.00000000E+00  0.00000000E+00
  0.00000000E+00  0.00000000E+00  0.00000000E+00
  0.00000000E+00  0.00000000E+00  0.00000000E+00
  0.00000000E+00  0.00000000E+00  0.00000000E+00
  0.00000000E+00  0.00000000E+00  0.00000000E+00
  0.00000000E+00  0.00000000E+00  0.00000000E+00
  0.00000000E+00  0.00000000E+00  0.00000000E+00
  0.00000000E+00  0.00000000E+00  0.00000000E+00
  0.00000000E+00  0.00000000E+00  0.00000000E+00
  0.00000000E+00  0.00000000E+00  0.00000000E+00
  0.00000000E+00  0.00000000E+00  0.00000000E+00
  0.00000000E+00  0.00000000E+00  0.00000000E+00
  0.00000000E+00  0.00000000E+00  0.00000000E+00
  0.00000000E+00  0.00000000E+00  0.00000000E+00
  0.00000000E+00  0.00000000E+00  0.00000000E+00
  0.00000000E+00  0.00000000E+00  0.00000000E+00
  0.00000000E+00  0.00000000E+00  0.00000000E+00
  0.00000000E+00  0.00000000E+00  0.00000000E+00
  0.00000000E+00  0.00000000E+00  0.00000000E+00
  0.00000000E+00  0.00000000E+00  0.00000000E+00
  0.00000000E+00  0.00000000E+00  0.00000000E+00
  0.00000000E+00  0.00000000E+00  0.00000000E+00
  0.00000000E+00  0.00000000E+00  0.00000000E+00