CuInSe2gb                               
   1.00000000000000     
     9.7266780392896699    0.0000000000000000    0.0000000000000000
     0.0000000000000000    8.4235502764570693    0.0000000000000000
     0.0000000000000000    0.0000000000000000   45.0000000000000000
   Fe   Mn
   281     7
Direct
  0.0586245659287466  0.7033613136740474  0.2114926193099776
  0.3144731872161491  0.7163792866383534  0.8753339472230983
  0.6887862863954132  0.9574912771889632  0.6113185276530633
  0.4378026750949122  0.4571579899414336  0.6113712940320065
  0.4367332270534197  0.2875668444598719  0.2558545290871352
  0.0607335780092375  0.3846215998178057  0.8340856952964617
  0.3102206256500212  0.8845413401253656  0.8338220199895513
  0.4427836060231399  0.6256296786076762  0.7001230324751512
  0.0638790898332064  0.2116107867723974  0.7443249843542727
  0.1837692389349768  0.4536524854490868  0.2113330849708212
  0.5639700595993737  0.2088927965239341  0.4779105668151820
  0.0641132660389716  0.8744065539795071  0.5667382302566716
  0.5633038237322852  0.2165109215907063  0.8754505156666232
  0.8103870830608266  0.5340728367807802  0.1247150608451162
  0.4338140138468758  0.9536896493797649  0.2113665763922009
  0.5643949520640807  0.3746795373637093  0.5666361032914551
  0.8118960885229722  0.0413584713293233  0.3886651718481037
  0.6862306254386689  0.7909067188680440  0.5220659719052332
  0.4389649363729505  0.4590208683836627  0.4778929829944765
  0.4394122958039174  0.9614921128034359  0.7442771499273413
  0.4385164832684142  0.6248330813230382  0.5666952722284755
  0.0603123312666170  0.5342646314185024  0.1246595214498841
  0.3103933142750390  0.0340940959061012  0.1246762145948421
  0.6869517562382095  0.9572291279358798  0.3444222963496192
  0.6853109799658600  0.7851408032626137  0.1245245475327278
  0.0584405837212816  0.3730537916983742  0.2999327642774365
  0.6866396856860695  0.4688943664005318  0.8752434796983936
  0.4338358325215541  0.4536675579024971  0.2113791954149543
  0.8110097997027395  0.3749623280449957  0.4332510797871180
  0.8173834249589722  0.3755975661171117  0.7000102703079598
  0.5630295785438175  0.5403845588919562  0.6554760402661416
  0.9361598976327149  0.1249590929587429  0.4332724207548739
  0.5617683347638088  0.5383049984307623  0.2557584795408683
  0.6869765313956646  0.4569783782497228  0.3444285137211653
  0.1869625324072443  0.6178113051982852  0.1663795990260495
  0.1923789822327465  0.7960688168438079  0.7882454906177755
  0.4430729098411634  0.1254298872312136  0.7000554028070619
  0.9337030660930720  0.6227493536052473  0.2999287121314911
  0.3131538397255649  0.2173612057774160  0.8754906740377385
  0.3143045409062994  0.8742089000819152  0.5666284385048094
  0.8145303418369009  0.2156839508300674  0.8755067541321191
  0.8131425752789356  0.5409114885124118  0.6554624562398026
  0.5604787082603805  0.5341317871437414  0.1246785461761082
  0.5620864792409569  0.8678542351753281  0.1664638912309080
  0.1866629565831912  0.2877561662929297  0.2558615936529748
  0.8111631923434246  0.8748799196585112  0.4332780285158885
  0.5675365855072193  0.3754072847635884  0.7002006310290312
  0.0605264000202087  0.0343169203521867  0.1246601857579774
  0.3133562538068230  0.5408777711702148  0.6553257199139518
  0.5620906667132248  0.2068503593323432  0.3444171636850404
  0.1883712505381732  0.9578759796368493  0.6113268755191428
  0.3082127226974931  0.3729782152649178  0.2999253944007005
  0.4385716782982184  0.7906583329165546  0.6554483647368403
  0.6888404996220474  0.4616478113423146  0.7442791525198130
  0.0622144610514583  0.3680308310730033  0.1664370995920637
  0.6925391737304161  0.6257885686217716  0.7001183211996475
  0.3121169227945445  0.5415684152508751  0.3886408788006471
  0.0641301070706572  0.7160370264649275  0.8754905281847413
  0.9354583449179197  0.6351172460202615  0.8337733455033610
  0.3176495872644942  0.5482254358371627  0.7885835075726482
  0.3086955722908248  0.2036341039806873  0.2115215330034067
  0.0640518498587602  0.7092888595923253  0.4779053668966211
  0.5585923411220408  0.2035048834002749  0.2115050489569043
  0.3145007094396511  0.2121689915653235  0.7442414265147901
  0.0673308266715263  0.3754789726809253  0.7000761499484146
  0.1862710910882517  0.6339293946512464  0.8334450483137293
  0.0667799429519124  0.0473053862079128  0.7886739652761671
  0.4390862752934302  0.1247159398568192  0.5666592149742307
  0.9383882439911231  0.2908647249156515  0.6554578125112389
  0.8086183268689900  0.2034717869325786  0.2115064709698034
  0.9336479995685010  0.9537931293743024  0.2113668369172272
  0.9396647354639257  0.6246221559886832  0.5666927530776625
  0.8102146065077332  0.3852702934738068  0.8339249468636197
  0.1923059586633545  0.6260519269645274  0.7000153444702347
  0.5677099103101916  0.8750599060134938  0.7001042954353889
  0.6883119761699714  0.2911548672763118  0.6554395929713798
  0.3123712434273400  0.2075085578104683  0.6113367289235229
  0.4389606049270504  0.4613714790359465  0.7441959860114984
  0.4369485153253049  0.7912139498563174  0.3886571385910533
  0.6893296589124930  0.9615096145373917  0.7443183130454524
  0.8086421004270068  0.7033416804932157  0.2114956108115111
  0.8142541801213878  0.7075420242942713  0.6113866406306944
  0.4353104518240259  0.7853689745503342  0.1245537017472713
  0.3139564074642022  0.7120796930124202  0.7443519200697492
  0.3168662918343772  0.0477264421337390  0.7886629888583916
  0.8119033371074177  0.5414585378913751  0.3886420158565911
  0.6864831212508115  0.2908219240285404  0.5220764494724572
  0.6918098689028834  0.7961693133068953  0.7885051717890820
  0.1866671353572611  0.7879039587892021  0.2558611940718398
  0.6869092787495652  0.1179334588621916  0.1664318731580166
  0.6889700549045830  0.9590793654629928  0.4778876911494379
  0.9370326664487195  0.9573804840261767  0.3444083326335005
  0.8112447683837618  0.0408249509491284  0.5219831837701060
  0.6862153603729861  0.6248448035267451  0.4332738835938094
  0.4370090205201081  0.4571420921483172  0.3444408256005337
  0.8139011135123072  0.2110143885041714  0.7442682532086525
  0.4377081945332713  0.9683994603120739  0.8752388428642391
  0.5643799926570535  0.8747531651751883  0.5666393733746177
  0.8104387870835069  0.0340426606775042  0.1246471112047228
  0.4336257185508285  0.6231093509297256  0.2999133930833842
  0.5642570828548017  0.2115020655608785  0.7442960247439582
  0.6884725179832543  0.4575119723574902  0.6113648117783037
  0.5597167044621695  0.3850915188471763  0.8337058910052334
  0.8084442458921234  0.3729914736571765  0.2999563466895487
  0.1869988705457525  0.2916115478889171  0.3886577538518077
  0.8169698230903925  0.5486465326949007  0.7886953422498849
  0.1863238558404711  0.7906023617380837  0.5220292673022974
  0.3084094090003953  0.8728602892833511  0.2999443222325241
  0.1837419963267612  0.9536508652550751  0.2113998643679821
  0.1888273244641697  0.4613770121317876  0.7441972563155318
  0.4362081705333044  0.2910485768363075  0.5220395545051449
  0.0620736290602797  0.7066654066972212  0.3444384139135875
  0.1882800929799570  0.7910189261828057  0.6554978187769803
  0.4422357984304244  0.7962077634483232  0.7883704597709424
  0.6861371910766338  0.1247913030916489  0.4332537343843697
  0.9364855209916472  0.7904185906423857  0.5220425641175256
  0.6871585663666560  0.6177244445045796  0.1663568292996105
  0.8120092407995987  0.7068272895318791  0.3444385573283143
  0.9393917225921655  0.4613438926576952  0.7442869936599098
  0.1869582673209890  0.4570228886358072  0.3443911129676882
  0.5669357296579361  0.5475933748648174  0.7884883725870995
  0.5621826172238059  0.3678011866032830  0.1664567024427515
  0.5619534281876231  0.7067560316582895  0.3444090987736891
  0.5585543673582491  0.3728394114303678  0.2999460110554632
  0.1868042173066903  0.4683082061890960  0.8753447369454261
  0.1871053955869804  0.1180035645935377  0.1663724346457278
  0.4421016359156048  0.2961196153852753  0.7884182591290829
  0.6866287651787200  0.7876961159479217  0.2558486161481115
  0.9356412558869803  0.1350682433866156  0.8337122914120545
  0.4389252849948507  0.9589196450620452  0.4778932406768889
  0.5632341335291491  0.7162852966403044  0.8755377763463960
  0.1889189936637583  0.4593441407598330  0.4780234813015329
  0.9353692698988743  0.2851716715230370  0.1245239640409570
  0.3120588364269808  0.0413374781216931  0.3886795152007541
  0.0632189911831256  0.0411085253960474  0.6554254312209998
  0.5608989146963091  0.3751219426371345  0.4332526442699747
  0.9361143144064035  0.6250953860724590  0.4332939586175987
  0.3122454811838800  0.3675747718709486  0.1664390761683739
  0.9427798448965907  0.1259060776469196  0.7000382547332236
  0.5632643547648457  0.0406103589032179  0.6554834671094344
  0.5613789351835031  0.5408921954953645  0.5219279229305362
  0.1835938726105424  0.1229559064498002  0.2999393460252372
  0.4372691804464786  0.1179249632162346  0.1664213858779101
  0.6835586934376550  0.6228891305257356  0.2999236923337179
  0.9336399389187425  0.1230371060918673  0.2999242768155386
  0.8140516277676150  0.3745768390675867  0.5666899781724903
  0.0584394032612937  0.8728902055251671  0.2999459580555974
  0.1890019019622995  0.6245113792852174  0.5667084471445615
  0.9411914715930617  0.7958330942783856  0.7883891951290104
  0.3105172928630042  0.3842408687976148  0.8338732301224143
  0.9388670505106723  0.4687621438550764  0.8754075541439046
  0.4355316913331752  0.6342309612946491  0.8337306823083755
  0.0620842172211119  0.2067930915009908  0.3444030440649327
  0.1872819532696765  0.9688919554481427  0.8752512874823224
  0.9352854529606646  0.7850887268526706  0.1245242171993538
  0.6871197581662356  0.7913662633768533  0.3886650580288160
  0.9379860451831719  0.7913415285849933  0.6554633180392371
  0.9370919653755403  0.1179245552353848  0.1664054452492337
  0.4380917458364527  0.2912939616033510  0.6554732046878496
  0.0587389585878400  0.2035072817817279  0.2115009553593749
  0.6837179539607017  0.9539273821376295  0.2113600878426408
  0.1834992066802657  0.6227000440710228  0.2999106197395816
  0.8177244717465474  0.8754222607849578  0.7000243711171703
  0.9428918119731784  0.6257080556588579  0.7001101585578369
  0.1924872317100343  0.1259884887668486  0.7000798781416407
  0.9389951489743887  0.4591541089919207  0.4779995588006946
  0.8142116974287122  0.2074668485798609  0.6113511121007631
  0.1858527297644363  0.6249025981613643  0.4332895150428479
  0.4335889976901620  0.1229373428848747  0.2999107485141074
  0.6834229517949088  0.1228366509623693  0.2998982496762910
  0.5620769314145014  0.5414104272961601  0.3886454568687409
  0.8122110690998937  0.2069367428745303  0.3444202111427176
  0.4378153645600136  0.4689493586550623  0.8751343531137376
  0.5598348116433962  0.8839739990038781  0.8341534132791871
  0.3139667092015447  0.2088662387291861  0.4778809320524383
  0.1887851497132091  0.9591054957854928  0.4779609897354418
  0.0604721396069434  0.8851313070464385  0.8338102731700699
  0.0613192767967434  0.5407397036746110  0.5220677401620512
  0.9391252858942237  0.9589730748316569  0.4779730418684853
  0.0631926420500289  0.7074835647243081  0.6112798539534056
  0.5614254199561558  0.0409997653345067  0.5219306089784650
  0.6919968597858266  0.2969170644739998  0.7885190094022595
  0.8122129882121879  0.3679331243243243  0.1664206968922082
  0.4360354185488705  0.1247807420061010  0.4332176420097074
  0.0641037460885197  0.2090364349491847  0.4779129516641625
  0.3131766777707650  0.0412626182917373  0.6553737857179958
  0.4363056773841797  0.7913202482604573  0.5220725149530909
  0.1858381313527453  0.1353568276624013  0.8336155667393919
  0.1852876209452718  0.2850468811673068  0.1245406203092233
  0.9371774177109683  0.4571579168262400  0.3444154778206560
  0.3122257186522848  0.8675961010012372  0.1664162447172909
  0.3087145660323584  0.7034949937352776  0.2114977058316085
  0.9371079702419804  0.6175553940482731  0.1663461573855916
  0.1885711930060311  0.4575948260755445  0.6113081609244433
  0.0675045136285307  0.8760315027042719  0.7001057552715737
  0.0632511809135312  0.5407948821419427  0.6553761957720982
  0.3103078208656949  0.5341390519428356  0.1246492216436885
  0.9371367931266423  0.7912398140522370  0.3886455179833371
  0.9417257548831393  0.2967258037887796  0.7885557098019872
  0.1881383380495024  0.2909742863985337  0.6554853993647490
  0.9383105917362690  0.9577259340585801  0.6113383908868320
  0.8143388973303231  0.7117794253962646  0.7443431141235393
  0.6865891169562625  0.2875913857769330  0.2558490960430187
  0.0639425550821046  0.7115921923138671  0.7442625880012516
  0.6836748884087132  0.4536939827264039  0.2113694019170322
  0.8138152604966372  0.2088783389723006  0.4779287889723478
  0.5638702163569812  0.7089012990783914  0.4779400139509412
  0.0623582665157488  0.8677475586897910  0.1664089845470902
  0.9365192770748672  0.2905431489911789  0.5220139943725529
  0.6880908848709234  0.7911609757206108  0.6554541615544989
  0.0610970292948069  0.8747997878671547  0.4332812385718987
  0.0640386992101118  0.2170078360267613  0.8755581656925386
  0.8132681156282835  0.0410867979475877  0.6554675430758852
  0.5602922773633869  0.0340643638496604  0.1246896747863521
  0.3112561122005096  0.3749505398119609  0.4333044655128913
  0.3141120610935439  0.3746640600364546  0.5666691446139469
  0.3138592447774985  0.7089064447486515  0.4778570166674321
  0.0614165654667071  0.0409312537177087  0.5220419689670069
  0.3173019351600695  0.8758176181832381  0.7000759456168958
  0.0616502846577425  0.5382970081902997  0.2557917979700801
  0.6859518812481319  0.1359884579412085  0.8335346562363888
  0.8116656634000305  0.0382733149578116  0.2557598801701207
  0.1859668933933753  0.1248445619925234  0.4333071416140631
  0.6926951762290572  0.1256242043224996  0.7001874975404461
  0.1862256711102824  0.2905194774265620  0.5220352754437264
  0.4366216908151147  0.7876736204484192  0.2558618721380782
  0.8118122093879621  0.5382889269737532  0.2557629770461300
  0.0633653774158858  0.2077005110559502  0.6113051514946449
  0.1869505157079708  0.7915248354773916  0.3886555726240485
  0.3113277963545206  0.5403662866621106  0.5219832065458327
  0.8122561056793989  0.8675662349585659  0.1664448842947630
  0.6870933625990900  0.2915495071586596  0.3886785835017542
  0.1888702868351862  0.1243333953627247  0.5666840053836485
  0.6861823374685253  0.9687881806225487  0.8757628462155922
  0.6893569685587033  0.1246398037747511  0.5666204636417753
  0.4370794100647891  0.9573264672858629  0.3443724961523292
  0.1889504093583600  0.9616329504941814  0.7441719993108817
  0.9366831509867584  0.7876546762558830  0.2558405978997635
  0.5610491991147926  0.8751917002167376  0.4332444575620342
  0.3111178818876632  0.8751839216001774  0.4332865036856958
  0.8114139805525976  0.5405844923290256  0.5219427371782190
  0.9337475791109568  0.4537021784545038  0.2113349060015199
  0.3116689437294909  0.5382969223549505  0.2557466869210009
  0.5619695918807069  0.0413970047152875  0.3886660492508083
  0.9383778903881974  0.4577364687187711  0.6112741798127920
  0.0619227755872407  0.0411300579190491  0.3886564496611900
  0.0618965753183666  0.5414733074409147  0.3886466206441679
  0.4370692322558294  0.2912637984955381  0.3886521198378879
  0.6888915582926604  0.4590085465075538  0.4778924027782565
  0.0641322744148840  0.3745110736111368  0.5667386341182832
  0.5585572921771819  0.7032992623054335  0.2114816650870360
  0.9367284254381897  0.2876817531662545  0.2558855929645344
  0.8174600332322486  0.0485403169958283  0.7884365946176565
  0.1871110157770856  0.9573094537647903  0.3444023910820898
  0.5584030355042323  0.8728988548430338  0.2999522402839585
  0.0611356564954731  0.3748047442199761  0.4332407394756898
  0.3122263732337317  0.7069229122811092  0.3444187303318775
  0.3121678076547182  0.2068305831502460  0.3444278733793014
  0.9391751585676172  0.1243776576310533  0.5667288984418184
  0.4377512323855001  0.9571282400098572  0.6113322780157430
  0.5617940203919873  0.0384509598120246  0.2557771099689442
  0.1853672849826837  0.7851148300175402  0.1245686814549523
  0.0617869858285937  0.0382935462026113  0.2557324212461914
  0.6891642119251418  0.6246036461966640  0.5666294741965689
  0.4372116860090237  0.6179252860226551  0.1664180329951977
  0.3114015176291535  0.0405267107496438  0.5220172943374006
  0.6854424877046477  0.2852599937932374  0.1245415079208009
  0.8140072696114721  0.7089201778200078  0.4778858650494738
  0.4358524098780438  0.1349570029298721  0.8337299582225460
  0.3177777115264709  0.3755778130653571  0.7001173631025169
  0.6859023432759629  0.6352773305539962  0.8337549159229892
  0.5644042140794739  0.7117024842748130  0.7443472077001581
  0.9370393874331997  0.2913323524968354  0.3886560318987675
  0.9382795410281118  0.9694235334766551  0.8754981602327957
  0.9389654269958114  0.9612656690475503  0.7442061291105622
  0.8139447134407172  0.8749178793376262  0.5666689834437857
  0.8083614028023891  0.8729263416453363  0.2999459064533148
  0.3117910804013269  0.0383029464497466  0.2557514619596946
  0.4352845332229079  0.2852669366574569  0.1245759977906302
  0.3124396274550583  0.7070424379986504  0.6113158672256839
  0.4360212512502456  0.6247895524633986  0.4332811096466840
  0.1932111737818041  0.2948896397637938  0.7883236369958615
  0.5677907373420721  0.0478361886995367  0.7882684075567674
  0.0669755101384086  0.5480929880653547  0.7883042683591289
  0.8094282003122316  0.8852007439463681  0.8341390511302049
  0.8134718701152250  0.7166916940980138  0.8759180627781404
  0.5632558146674497  0.2080284194049027  0.6112688781599281
  0.5632197033671504  0.7081080657887676  0.6113435552224699
 
  0.00000000E+00  0.00000000E+00  0.00000000E+00
  0.00000000E+00  0.00000000E+00  0.00000000E+00
  0.00000000E+00  0.00000000E+00  0.00000000E+00
  0.00000000E+00  0.00000000E+00  0.00000000E+00
  0.00000000E+00  0.00000000E+00  0.00000000E+00
  0.00000000E+00  0.00000000E+00  0.00000000E+00
  0.00000000E+00  0.00000000E+00  0.00000000E+00
  0.00000000E+00  0.00000000E+00  0.00000000E+00
  0.00000000E+00  0.00000000E+00  0.00000000E+00
  0.00000000E+00  0.00000000E+00  0.00000000E+00
  0.00000000E+00  0.00000000E+00  0.00000000E+00
  0.00000000E+00  0.00000000E+00  0.00000000E+00
  0.00000000E+00  0.00000000E+00  0.00000000E+00
  0.00000000E+00  0.00000000E+00  0.00000000E+00
  0.00000000E+00  0.00000000E+00  0.00000000E+00
  0.00000000E+00  0.00000000E+00  0.00000000E+00
  0.00000000E+00  0.00000000E+00  0.00000000E+00
  0.00000000E+00  0.00000000E+00  0.00000000E+00
  0.00000000E+00  0.00000000E+00  0.00000000E+00
  0.00000000E+00  0.00000000E+00  0.00000000E+00
  0.00000000E+00  0.00000000E+00  0.00000000E+00
  0.00000000E+00  0.00000000E+00  0.00000000E+00
  0.00000000E+00  0.00000000E+00  0.00000000E+00
  0.00000000E+00  0.00000000E+00  0.00000000E+00
  0.00000000E+00  0.00000000E+00  0.00000000E+00
  0.00000000E+00  0.00000000E+00  0.00000000E+00
  0.00000000E+00  0.00000000E+00  0.00000000E+00
  0.00000000E+00  0.00000000E+00  0.00000000E+00
  0.00000000E+00  0.00000000E+00  0.00000000E+00
  0.00000000E+00  0.00000000E+00  0.00000000E+00
  0.00000000E+00  0.00000000E+00  0.00000000E+00
  0.00000000E+00  0.00000000E+00  0.00000000E+00
  0.00000000E+00  0.00000000E+00  0.00000000E+00
  0.00000000E+00  0.00000000E+00  0.00000000E+00
  0.00000000E+00  0.00000000E+00  0.00000000E+00
  0.00000000E+00  0.00000000E+00  0.00000000E+00
  0.00000000E+00  0.00000000E+00  0.00000000E+00
  0.00000000E+00  0.00000000E+00  0.00000000E+00
  0.00000000E+00  0.00000000E+00  0.00000000E+00
  0.00000000E+00  0.00000000E+00  0.00000000E+00
  0.00000000E+00  0.00000000E+00  0.00000000E+00
  0.00000000E+00  0.00000000E+00  0.00000000E+00
  0.00000000E+00  0.00000000E+00  0.00000000E+00
  0.00000000E+00  0.00000000E+00  0.00000000E+00
  0.00000000E+00  0.00000000E+00  0.00000000E+00
  0.00000000E+00  0.00000000E+00  0.00000000E+00
  0.00000000E+00  0.00000000E+00  0.00000000E+00
  0.00000000E+00  0.00000000E+00  0.00000000E+00
  0.00000000E+00  0.00000000E+00  0.00000000E+00
  0.00000000E+00  0.00000000E+00  0.00000000E+00
  0.00000000E+00  0.00000000E+00  0.00000000E+00
  0.00000000E+00  0.00000000E+00  0.00000000E+00
  0.00000000E+00  0.00000000E+00  0.00000000E+00
  0.00000000E+00  0.00000000E+00  0.00000000E+00
  0.00000000E+00  0.00000000E+00  0.00000000E+00
  0.00000000E+00  0.00000000E+00  0.00000000E+00
  0.00000000E+00  0.00000000E+00  0.00000000E+00
  0.00000000E+00  0.00000000E+00  0.00000000E+00
  0.00000000E+00  0.00000000E+00  0.00000000E+00
  0.00000000E+00  0.00000000E+00  0.00000000E+00
  0.00000000E+00  0.00000000E+00  0.00000000E+00
  0.00000000E+00  0.00000000E+00  0.00000000E+00
  0.00000000E+00  0.00000000E+00  0.00000000E+00
  0.00000000E+00  0.00000000E+00  0.00000000E+00
  0.00000000E+00  0.00000000E+00  0.00000000E+00
  0.00000000E+00  0.00000000E+00  0.00000000E+00
  0.00000000E+00  0.00000000E+00  0.00000000E+00
  0.00000000E+00  0.00000000E+00  0.00000000E+00
  0.00000000E+00  0.00000000E+00  0.00000000E+00
  0.00000000E+00  0.00000000E+00  0.00000000E+00
  0.00000000E+00  0.00000000E+00  0.00000000E+00
  0.00000000E+00  0.00000000E+00  0.00000000E+00
  0.00000000E+00  0.00000000E+00  0.00000000E+00
  0.00000000E+00  0.00000000E+00  0.00000000E+00
  0.00000000E+00  0.00000000E+00  0.00000000E+00
  0.00000000E+00  0.00000000E+00  0.00000000E+00
  0.00000000E+00  0.00000000E+00  0.00000000E+00
  0.00000000E+00  0.00000000E+00  0.00000000E+00
  0.00000000E+00  0.00000000E+00  0.00000000E+00
  0.00000000E+00  0.00000000E+00  0.00000000E+00
  0.00000000E+00  0.00000000E+00  0.00000000E+00
  0.00000000E+00  0.00000000E+00  0.00000000E+00
  0.00000000E+00  0.00000000E+00  0.00000000E+00
  0.00000000E+00  0.00000000E+00  0.00000000E+00
  0.00000000E+00  0.00000000E+00  0.00000000E+00
  0.00000000E+00  0.00000000E+00  0.00000000E+00
  0.00000000E+00  0.00000000E+00  0.00000000E+00
  0.00000000E+00  0.00000000E+00  0.00000000E+00
  0.00000000E+00  0.00000000E+00  0.00000000E+00
  0.00000000E+00  0.00000000E+00  0.00000000E+00
  0.00000000E+00  0.00000000E+00  0.00000000E+00
  0.00000000E+00  0.00000000E+00  0.00000000E+00
  0.00000000E+00  0.00000000E+00  0.00000000E+00
  0.00000000E+00  0.00000000E+00  0.00000000E+00
  0.00000000E+00  0.00000000E+00  0.00000000E+00
  0.00000000E+00  0.00000000E+00  0.00000000E+00
  0.00000000E+00  0.00000000E+00  0.00000000E+00
  0.00000000E+00  0.00000000E+00  0.00000000E+00
  0.00000000E+00  0.00000000E+00  0.00000000E+00
  0.00000000E+00  0.00000000E+00  0.00000000E+00
  0.00000000E+00  0.00000000E+00  0.00000000E+00
  0.00000000E+00  0.00000000E+00  0.00000000E+00
  0.00000000E+00  0.00000000E+00  0.00000000E+00
  0.00000000E+00  0.00000000E+00  0.00000000E+00
  0.00000000E+00  0.00000000E+00  0.00000000E+00
  0.00000000E+00  0.00000000E+00  0.00000000E+00
  0.00000000E+00  0.00000000E+00  0.00000000E+00
  0.00000000E+00  0.00000000E+00  0.00000000E+00
  0.00000000E+00  0.00000000E+00  0.00000000E+00
  0.00000000E+00  0.00000000E+00  0.00000000E+00
  0.00000000E+00  0.00000000E+00  0.00000000E+00
  0.00000000E+00  0.00000000E+00  0.00000000E+00
  0.00000000E+00  0.00000000E+00  0.00000000E+00
  0.00000000E+00  0.00000000E+00  0.00000000E+00
  0.00000000E+00  0.00000000E+00  0.00000000E+00
  0.00000000E+00  0.00000000E+00  0.00000000E+00
  0.00000000E+00  0.00000000E+00  0.00000000E+00
  0.00000000E+00  0.00000000E+00  0.00000000E+00
  0.00000000E+00  0.00000000E+00  0.00000000E+00
  0.00000000E+00  0.00000000E+00  0.00000000E+00
  0.00000000E+00  0.00000000E+00  0.00000000E+00
  0.00000000E+00  0.00000000E+00  0.00000000E+00
  0.00000000E+00  0.00000000E+00  0.00000000E+00
  0.00000000E+00  0.00000000E+00  0.00000000E+00
  0.00000000E+00  0.00000000E+00  0.00000000E+00
  0.00000000E+00  0.00000000E+00  0.00000000E+00
  0.00000000E+00  0.00000000E+00  0.00000000E+00
  0.00000000E+00  0.00000000E+00  0.00000000E+00
  0.00000000E+00  0.00000000E+00  0.00000000E+00
  0.00000000E+00  0.00000000E+00  0.00000000E+00
  0.00000000E+00  0.00000000E+00  0.00000000E+00
  0.00000000E+00  0.00000000E+00  0.00000000E+00
  0.00000000E+00  0.00000000E+00  0.00000000E+00
  0.00000000E+00  0.00000000E+00  0.00000000E+00
  0.00000000E+00  0.00000000E+00  0.00000000E+00
  0.00000000E+00  0.00000000E+00  0.00000000E+00
  0.00000000E+00  0.00000000E+00  0.00000000E+00
  0.00000000E+00  0.00000000E+00  0.00000000E+00
  0.00000000E+00  0.00000000E+00  0.00000000E+00
  0.00000000E+00  0.00000000E+00  0.00000000E+00
  0.00000000E+00  0.00000000E+00  0.00000000E+00
  0.00000000E+00  0.00000000E+00  0.00000000E+00
  0.00000000E+00  0.00000000E+00  0.00000000E+00
  0.00000000E+00  0.00000000E+00  0.00000000E+00
  0.00000000E+00  0.00000000E+00  0.00000000E+00
  0.00000000E+00  0.00000000E+00  0.00000000E+00
  0.00000000E+00  0.00000000E+00  0.00000000E+00
  0.00000000E+00  0.00000000E+00  0.00000000E+00
  0.00000000E+00  0.00000000E+00  0.00000000E+00
  0.00000000E+00  0.00000000E+00  0.00000000E+00
  0.00000000E+00  0.00000000E+00  0.00000000E+00
  0.00000000E+00  0.00000000E+00  0.00000000E+00
  0.00000000E+00  0.00000000E+00  0.00000000E+00
  0.00000000E+00  0.00000000E+00  0.00000000E+00
  0.00000000E+00  0.00000000E+00  0.00000000E+00
  0.00000000E+00  0.00000000E+00  0.00000000E+00
  0.00000000E+00  0.00000000E+00  0.00000000E+00
  0.00000000E+00  0.00000000E+00  0.00000000E+00
  0.00000000E+00  0.00000000E+00  0.00000000E+00
  0.00000000E+00  0.00000000E+00  0.00000000E+00
  0.00000000E+00  0.00000000E+00  0.00000000E+00
  0.00000000E+00  0.00000000E+00  0.00000000E+00
  0.00000000E+00  0.00000000E+00  0.00000000E+00
  0.00000000E+00  0.00000000E+00  0.00000000E+00
  0.00000000E+00  0.00000000E+00  0.00000000E+00
  0.00000000E+00  0.00000000E+00  0.00000000E+00
  0.00000000E+00  0.00000000E+00  0.00000000E+00
  0.00000000E+00  0.00000000E+00  0.00000000E+00
  0.00000000E+00  0.00000000E+00  0.00000000E+00
  0.00000000E+00  0.00000000E+00  0.00000000E+00
  0.00000000E+00  0.00000000E+00  0.00000000E+00
  0.00000000E+00  0.00000000E+00  0.00000000E+00
  0.00000000E+00  0.00000000E+00  0.00000000E+00
  0.00000000E+00  0.00000000E+00  0.00000000E+00
  0.00000000E+00  0.00000000E+00  0.00000000E+00
  0.00000000E+00  0.00000000E+00  0.00000000E+00
  0.00000000E+00  0.00000000E+00  0.00000000E+00
  0.00000000E+00  0.00000000E+00  0.00000000E+00
  0.00000000E+00  0.00000000E+00  0.00000000E+00
  0.00000000E+00  0.00000000E+00  0.00000000E+00
  0.00000000E+00  0.00000000E+00  0.00000000E+00
  0.00000000E+00  0.00000000E+00  0.00000000E+00
  0.00000000E+00  0.00000000E+00  0.00000000E+00
  0.00000000E+00  0.00000000E+00  0.00000000E+00
  0.00000000E+00  0.00000000E+00  0.00000000E+00
  0.00000000E+00  0.00000000E+00  0.00000000E+00
  0.00000000E+00  0.00000000E+00  0.00000000E+00
  0.00000000E+00  0.00000000E+00  0.00000000E+00
  0.00000000E+00  0.00000000E+00  0.00000000E+00
  0.00000000E+00  0.00000000E+00  0.00000000E+00
  0.00000000E+00  0.00000000E+00  0.00000000E+00
  0.00000000E+00  0.00000000E+00  0.00000000E+00
  0.00000000E+00  0.00000000E+00  0.00000000E+00
  0.00000000E+00  0.00000000E+00  0.00000000E+00
  0.00000000E+00  0.00000000E+00  0.00000000E+00
  0.00000000E+00  0.00000000E+00  0.00000000E+00
  0.00000000E+00  0.00000000E+00  0.00000000E+00
  0.00000000E+00  0.00000000E+00  0.00000000E+00
  0.00000000E+00  0.00000000E+00  0.00000000E+00
  0.00000000E+00  0.00000000E+00  0.00000000E+00
  0.00000000E+00  0.00000000E+00  0.00000000E+00
  0.00000000E+00  0.00000000E+00  0.00000000E+00
  0.00000000E+00  0.00000000E+00  0.00000000E+00
  0.00000000E+00  0.00000000E+00  0.00000000E+00
  0.00000000E+00  0.00000000E+00  0.00000000E+00
  0.00000000E+00  0.00000000E+00  0.00000000E+00
  0.00000000E+00  0.00000000E+00  0.00000000E+00
  0.00000000E+00  0.00000000E+00  0.00000000E+00
  0.00000000E+00  0.00000000E+00  0.00000000E+00
  0.00000000E+00  0.00000000E+00  0.00000000E+00
  0.00000000E+00  0.00000000E+00  0.00000000E+00
  0.00000000E+00  0.00000000E+00  0.00000000E+00
  0.00000000E+00  0.00000000E+00  0.00000000E+00
  0.00000000E+00  0.00000000E+00  0.00000000E+00
  0.00000000E+00  0.00000000E+00  0.00000000E+00
  0.00000000E+00  0.00000000E+00  0.00000000E+00
  0.00000000E+00  0.00000000E+00  0.00000000E+00
  0.00000000E+00  0.00000000E+00  0.00000000E+00
  0.00000000E+00  0.00000000E+00  0.00000000E+00
  0.00000000E+00  0.00000000E+00  0.00000000E+00
  0.00000000E+00  0.00000000E+00  0.00000000E+00
  0.00000000E+00  0.00000000E+00  0.00000000E+00
  0.00000000E+00  0.00000000E+00  0.00000000E+00
  0.00000000E+00  0.00000000E+00  0.00000000E+00
  0.00000000E+00  0.00000000E+00  0.00000000E+00
  0.00000000E+00  0.00000000E+00  0.00000000E+00
  0.00000000E+00  0.00000000E+00  0.00000000E+00
  0.00000000E+00  0.00000000E+00  0.00000000E+00
  0.00000000E+00  0.00000000E+00  0.00000000E+00
  0.00000000E+00  0.00000000E+00  0.00000000E+00
  0.00000000E+00  0.00000000E+00  0.00000000E+00
  0.00000000E+00  0.00000000E+00  0.00000000E+00
  0.00000000E+00  0.00000000E+00  0.00000000E+00
  0.00000000E+00  0.00000000E+00  0.00000000E+00
  0.00000000E+00  0.00000000E+00  0.00000000E+00
  0.00000000E+00  0.00000000E+00  0.00000000E+00
  0.00000000E+00  0.00000000E+00  0.00000000E+00
  0.00000000E+00  0.00000000E+00  0.00000000E+00
  0.00000000E+00  0.00000000E+00  0.00000000E+00
  0.00000000E+00  0.00000000E+00  0.00000000E+00
  0.00000000E+00  0.00000000E+00  0.00000000E+00
  0.00000000E+00  0.00000000E+00  0.00000000E+00
  0.00000000E+00  0.00000000E+00  0.00000000E+00
  0.00000000E+00  0.00000000E+00  0.00000000E+00
  0.00000000E+00  0.00000000E+00  0.00000000E+00
  0.00000000E+00  0.00000000E+00  0.00000000E+00
  0.00000000E+00  0.00000000E+00  0.00000000E+00