CuInSe2gb                               
   1.00000000000000     
     9.7266780392896699    0.0000000000000000    0.0000000000000000
     0.0000000000000000    8.4235502764570693    0.0000000000000000
     0.0000000000000000    0.0000000000000000   45.0000000000000000
   Fe   Mn
   281     7
Direct
  0.0558933402655831  0.7045587461064761  0.2114726688638309
  0.3148954401571074  0.7211434199466339  0.8760735905799154
  0.6875160473059255  0.9582311872648100  0.6112211425515075
  0.4381046888454339  0.4576207880649696  0.6111957270950045
  0.4404241614271255  0.2886800625163259  0.2555845286563758
  0.0586801079621921  0.3863173808679575  0.8333420919963545
  0.3067353060733620  0.8860307300708116  0.8331933967777496
  0.4475040839682847  0.6252058174727384  0.7000716444336545
  0.0609646091656597  0.2111048378035345  0.7446719530777104
  0.1813352479970568  0.4535900931617747  0.2113589106029350
  0.5680375256692124  0.2100751304118405  0.4775621949655819
  0.0669463563123680  0.8747187048209558  0.5667297846129526
  0.5643977740103385  0.2207937842638134  0.8758975247686921
  0.8095634291403639  0.5367662771620991  0.1242926733663744
  0.4313610814274261  0.9535820917205686  0.2114031814537256
  0.5666800911109490  0.3749173358170286  0.5668842646740490
  0.8124383810183466  0.0416927297356014  0.3887382018456738
  0.6827309762881135  0.7890269128519883  0.5222637371942948
  0.4427963800205303  0.4603872317316106  0.4774731180380588
  0.4352474672700407  0.9607634482605533  0.7442212201780993
  0.4423768772496361  0.6250816648837376  0.5667613667039207
  0.0596942959098693  0.5366532227454051  0.1243369715832040
  0.3095765280371703  0.0368049758081002  0.1244145157595851
  0.6898177750150936  0.9559256304855542  0.3444025461806595
  0.6852413462094061  0.7827906015374552  0.1242718110453002
  0.0535333498497686  0.3732069286404557  0.2999749004836730
  0.6870143249206528  0.4612778733054120  0.8757829556108268
  0.4312752051201481  0.4535458154207621  0.2113820171444151
  0.8083563761820532  0.3750234547160322  0.4332778339900535
  0.8222918504207198  0.3750013253020522  0.6999961019496168
  0.5599578451576300  0.5407522573051244  0.6556858110254619
  0.9334199977453876  0.1248715334905508  0.4331699417540692
  0.5661796253463015  0.5379168090611608  0.2555731536869488
  0.6899768740992922  0.4563455957077814  0.3443951651578987
  0.1882942510216797  0.6172536404558472  0.1667519087059942
  0.1951275850960307  0.7974787930240853  0.7883781498936840
  0.4477633854202467  0.1252853248204762  0.7000841011214118
  0.9286769801512563  0.6233239505438035  0.2998292220633494
  0.3151570171335817  0.2198783661175375  0.8760138326463079
  0.3165895901841812  0.8748599883419845  0.5668599330171142
  0.8151511928671396  0.2210273831387708  0.8759628993817712
  0.8099545151341077  0.5411266616555148  0.6556816406030895
  0.5593055347230206  0.5366722606039340  0.1243661474287412
  0.5634382517559654  0.8668101212228740  0.1665857151904988
  0.1903558150856143  0.2885589133287113  0.2555573153463708
  0.8082854816594246  0.8749906246825593  0.4332184826130530
  0.5727745209241053  0.3750459419793630  0.7000243695343489
  0.0594225570367273  0.0365950444375518  0.1243590791636406
  0.3098843641155034  0.5406830122873310  0.6558264923264849
  0.5651189106255738  0.2064273505600048  0.3443681280042706
  0.1877591958020058  0.9578316814075546  0.6112609882189005
  0.3036531884816714  0.3733870095288935  0.2999096984558058
  0.4344375258623666  0.7906358492631442  0.6558256817698841
  0.6850240943102253  0.4611895102212375  0.7444523824021637
  0.0633877085627332  0.3666869955329554  0.1665105081674324
  0.6978008235974896  0.6249801261267022  0.7001102517773915
  0.3123669340553304  0.5415509512664772  0.3887439042751186
  0.0678642759331850  0.7222974895355670  0.8757071883200552
  0.9330318377788496  0.6382882918330219  0.8337096489249015
  0.3201140379846645  0.5466080280473654  0.7883444343054841
  0.3058860413493188  0.2044485807499457  0.2114889127298385
  0.0678581669439205  0.7103919616839335  0.4774750280674451
  0.5559508672500164  0.2044118121048665  0.2115211276949442
  0.3113382657360859  0.2100955823106301  0.7443438078662779
  0.0728378190379995  0.3754101755905102  0.7001222049581293
  0.1831779890560839  0.6361290551862065  0.8330560044063053
  0.0702176905852586  0.0466910281301370  0.7884162297534304
  0.4418910675089997  0.1248440975138716  0.5667796854983328
  0.9348168925389729  0.2909114717931610  0.6556459871302117
  0.8059931226226701  0.2044226543886245  0.2115135302102964
  0.9316218684738395  0.9533370927281968  0.2113663783618042
  0.9414984944447213  0.6249878208996736  0.5668906175544381
  0.8085090409467839  0.3873337208509536  0.8335317757970154
  0.1978687725111068  0.6251017623321141  0.7000433553137957
  0.5728332945677910  0.8751733968584982  0.7001599547404619
  0.6848197807935011  0.2906191621283351  0.6557766532366474
  0.3128251890272004  0.2080286928250706  0.6113758374952304
  0.4356743137661957  0.4610391453546621  0.7445200841940205
  0.4375342418766919  0.7917995679160350  0.3887378648788651
  0.6855685057993068  0.9606833075890931  0.7443294626894388
  0.8059687500489926  0.7043208997295974  0.2115035634202605
  0.8126762168807137  0.7077096286483945  0.6112142318240942
  0.4351262388476347  0.7826790252899125  0.1242600452846320
  0.3103080057740931  0.7104662102661594  0.7441555384627700
  0.3209085002624905  0.0454420708063568  0.7883534960066945
  0.8125004386455612  0.5416263723343518  0.3887433312078524
  0.6824351485010547  0.2892380940086001  0.5222535074605070
  0.6948426667410041  0.7980195148400614  0.7885418581469572
  0.1903224961483854  0.7882473078230727  0.2555052967120225
  0.6885813073182656  0.1169163258090335  0.1668042491381814
  0.6928769082582336  0.9603948512895054  0.4774885803844559
  0.9397133448948769  0.9558553406869353  0.3443849127860009
  0.8077642671166446  0.0386448148067887  0.5222472884346262
  0.6833641599333635  0.6250374785988745  0.4330975820179592
  0.4398604996352421  0.4562121857835865  0.3443988226270770
  0.8110405343443861  0.2110077585707081  0.7446489277818880
  0.4363877041712537  0.9645026350384849  0.8758172352913819
  0.5668099404174358  0.8749448626072244  0.5668902263719237
  0.8095301975417727  0.0368366091502848  0.1244341804513000
  0.4287044578539941  0.6232268084308220  0.2998641696382465
  0.5610825827202280  0.2104499212661705  0.7448028802917503
  0.6876223166914135  0.4582996778787095  0.6112807938065692
  0.5571182597203341  0.3861251229475187  0.8331102359880502
  0.8035745933370229  0.3731839344284435  0.2999281914252837
  0.1873236022900052  0.2913663249778718  0.3887423464387452
  0.8212971315023827  0.5476490171010447  0.7885613789275143
  0.1824488344427593  0.7890549232247315  0.5223368530876319
  0.3034065434186820  0.8732811964024596  0.2998697549071121
  0.1814500035381861  0.9536747241593944  0.2113290824645651
  0.1849299812566277  0.4606253364648564  0.7445632205022473
  0.4326125345625357  0.2886603261952014  0.5221484818131675
  0.0651294923488996  0.7067616224812362  0.3443581643883542
  0.1848717510229629  0.7905867422001580  0.6557411095424445
  0.4450102719356370  0.7981398680946407  0.7885320040568166
  0.6834743944580900  0.1252305688229992  0.4331178253045982
  0.9323764536179630  0.7894929544435854  0.5224084178376834
  0.6883021305461563  0.6167911035847368  0.1668133998034607
  0.8152817294668544  0.7063828746877286  0.3443574106068483
  0.9346787515349498  0.4606112227087617  0.7441988627093857
  0.1899086002855301  0.4562245423782776  0.3444288880059916
  0.5694169670850161  0.5474129352488456  0.7885719598144303
  0.5635093439384532  0.3669592619073627  0.1665973031366031
  0.5652825740722585  0.7067793099919372  0.3443557114811139
  0.5534380930022719  0.3734528090774749  0.2999343104437084
  0.1894579821907036  0.4640855559427271  0.8758167958801236
  0.1883784884830992  0.1170320035715711  0.1668131983380419
  0.4448840491565068  0.2981024139028499  0.7884943852979313
  0.6904031248712824  0.7886078276300705  0.2555684508771219
  0.9325699120120295  0.1368244506157970  0.8334151839841587
  0.4429444926280017  0.9604263839905417  0.4774726007078584
  0.5631240046219891  0.7198088353048627  0.8758178679952112
  0.1928707002163528  0.4604883603097603  0.4775012699585684
  0.9353997043510306  0.2827781821163096  0.1242230337398963
  0.3123416920050818  0.0418297057840715  0.3886245760938128
  0.0597318928844234  0.0405828859935460  0.6558348775999868
  0.5586534551373350  0.3749518608108767  0.4331841813979558
  0.9335045957496355  0.6248759494619082  0.4330850122128723
  0.3133243294521236  0.3672834928006306  0.1666971610415846
  0.9469091174150043  0.1249303176381879  0.6999584602825530
  0.5597615350508321  0.0411135674444086  0.6556643436807411
  0.5570926297963279  0.5394571356203699  0.5224798656230212
  0.1788076624723292  0.1232844769677517  0.2998308393130626
  0.4383568839609606  0.1169764083485672  0.1668176131297449
  0.6787720449552462  0.6232700982009439  0.2998613471002989
  0.9287732150102628  0.1230827026799129  0.2998472123641424
  0.8165675918217912  0.3746297488974422  0.5667402349104413
  0.0535206548176431  0.8733288646046367  0.2999247867057190
  0.1919654457403755  0.6247491708383817  0.5668316887198025
  0.9450679586399248  0.7977403396770631  0.7884273879247615
  0.3067443595451673  0.3853302393670471  0.8333861203344790
  0.9373128264303947  0.4620931416247832  0.8756806037315326
  0.4332621190560283  0.6358426254170096  0.8331131406563614
  0.0651164296598776  0.2065888420168038  0.3444104358445149
  0.1894911940810687  0.9631198291190792  0.8759174152984900
  0.9351684179241185  0.7825556888871229  0.1242536739926260
  0.6873998449993937  0.7915454081493813  0.3887228133704607
  0.9350547114047448  0.7902905159601120  0.6557652696708703
  0.9385689561148106  0.1169040202336841  0.1667950638901097
  0.4347504856053079  0.2905809033444421  0.6558137015914056
  0.0558445167712973  0.2044693855609316  0.2114974627331920
  0.6815312551049403  0.9531191702644314  0.2113623965697403
  0.1787998254862889  0.6234229627094505  0.2998611773130472
  0.8229848071509438  0.8751518455978499  0.7000236888669548
  0.9476625763558154  0.6249561195559683  0.7000522674884258
  0.1979523940697029  0.1253433919463492  0.7000457321490807
  0.9426503778694505  0.4608320215552013  0.4774811153833090
  0.8128402975060294  0.2077055973835221  0.6112570569077311
  0.1835637228254865  0.6251014060110915  0.4331411240089367
  0.4288271390815920  0.1232344163468147  0.2998841946361934
  0.6789544212195965  0.1233399370901707  0.2998611004044551
  0.5621682936771384  0.5416443003715086  0.3887356659607337
  0.8148636086566634  0.2063531029064247  0.3443918137134985
  0.4389998534501819  0.4637654038316485  0.8758106493606040
  0.5583568962150637  0.8866193503554279  0.8333645355759849
  0.3179851083131258  0.2106505091726228  0.4774224143557029
  0.1930670771507538  0.9607163285341046  0.4775617620082168
  0.0565082773480049  0.8840948576068063  0.8332874136425295
  0.0572295882952914  0.5391441157878941  0.5225167702994792
  0.9427174458610433  0.9609398966410260  0.4775647355778982
  0.0631221476744586  0.7079793707959832  0.6112301008841913
  0.5572221047618788  0.0393242156855382  0.5224090374947243
  0.6957610993309864  0.2983650646604666  0.7883140484544402
  0.8134781413734465  0.3666826767526508  0.1666035760990038
  0.4333935233049842  0.1251318029812379  0.4331421647570520
  0.0679565489984023  0.2106276004081251  0.4774930977837289
  0.3100287691966936  0.0407334698217524  0.6557691146504577
  0.4324204187124270  0.7885627859532326  0.5221568295352983
  0.1831828009347390  0.1372902642297365  0.8332096198282424
  0.1854969873845347  0.2827163743903837  0.1242425152123439
  0.9397022925702667  0.4558617716136311  0.3444427878826106
  0.3133165469748284  0.8671891309330886  0.1666810956462435
  0.3057849265443359  0.7044667568354317  0.2114856384928376
  0.9383753292866054  0.6172186428338906  0.1667808400210857
  0.1878789835636593  0.4580306365385669  0.6112294918805135
  0.0726541135501601  0.8753685460237206  0.6999724995368938
  0.0597895734186054  0.5406478155309847  0.6557317468711167
  0.3098244186235158  0.5367950462103408  0.1243915210048867
  0.9373755037474216  0.7917689257484497  0.3887537802646971
  0.9451883512603052  0.2983591805985560  0.7884575974268366
  0.1847440995725183  0.2906846032541824  0.6556950446677314
  0.9377737509386125  0.9578580644439761  0.6113816957250848
  0.8109081584769718  0.7105548724839069  0.7443692534795673
  0.6904715826504079  0.2886510701884403  0.2555878129431739
  0.0603609643617672  0.7106965326116119  0.7446418927552465
  0.6814880487664121  0.4533673294044398  0.2113566545678471
  0.8183282895769435  0.2106236739534177  0.4774545725452661
  0.5680326266891879  0.7103003288938461  0.4775469842640042
  0.0632687902727147  0.8668910071700299  0.1665984191930126
  0.9322315408080938  0.2893628725016362  0.5224989872820308
  0.6849729121429536  0.7904371985469542  0.6557870849506563
  0.0583597625867885  0.8751506401272184  0.4331199334424347
  0.0666465459740598  0.2200350600958956  0.8758929808265774
  0.8097531127386213  0.0408450795315441  0.6557929333319863
  0.5597868441664399  0.0370800667101108  0.1243853151000377
  0.3082782972813933  0.3751638087293896  0.4332182304734886
  0.3170829311689316  0.3745516767078977  0.5667386670200899
  0.3179296051760229  0.7106371642497212  0.4774666330729105
  0.0572247067933168  0.0392755276565830  0.5224923545050235
  0.3225244493056096  0.8756800716934827  0.7000068532102397
  0.0662261526401914  0.5378190843700401  0.2555202937765462
  0.6831239812439971  0.1370877651822899  0.8334068972623231
  0.8163621956278887  0.0379298448980532  0.2555260949156239
  0.1834539779621755  0.1250817847479646  0.4331027206206949
  0.6976673241030251  0.1252602562790460  0.7000721823009310
  0.1826011334097247  0.2893048136410460  0.5223351981330409
  0.4403985275245166  0.7886061763709307  0.2555302733002254
  0.8161381748378227  0.5378163110798541  0.2555543313971995
  0.0627779371592611  0.2078101330900917  0.6112701262370744
  0.1873666185395988  0.7914971136002726  0.3887590212963136
  0.3069925872750441  0.5396249570235716  0.5224677257632898
  0.8132921121180330  0.8669840838128433  0.1666164835139735
  0.6872560051692089  0.2914308420925855  0.3886885309407810
  0.1923017706222971  0.1251040419377148  0.5668230076394813
  0.6864708094920884  0.9646823632770564  0.8758782085450108
  0.6918859806382166  0.1254498080702998  0.5667944341793406
  0.4395935687613839  0.9558571398162015  0.3444421984401608
  0.1850247431489128  0.9613667053880274  0.7444895494371810
  0.9404041745303507  0.7885619785941990  0.2555866492887123
  0.5584445473640436  0.8749270975167805  0.4331420410105024
  0.3083473650013280  0.8748500937663085  0.4331998255880536
  0.8074499966314829  0.5389683731295503  0.5222806607849731
  0.9313314101026353  0.4534891770654613  0.2113978217285245
  0.3162505282619976  0.5379168462944088  0.2555282482276342
  0.5623098606963116  0.0415702868882525  0.3886752909999762
  0.9376241157721572  0.4580914321331290  0.6113629631622463
  0.0623781526072766  0.0418560055294974  0.3886950393257909
  0.0624032669571689  0.5415342947617754  0.3887132178464656
  0.4374611687555606  0.2917279726822702  0.3887355415350752
  0.6928881076537643  0.4605204634279683  0.4774706562145590
  0.0669061115462641  0.3744753585072212  0.5667441026364951
  0.5560846703945774  0.7045772210432257  0.2115020242530947
  0.9404368567287984  0.2886141520758433  0.2555360094894584
  0.8201183426661430  0.0482069827163511  0.7884826094530860
  0.1896367138038766  0.9558344613644437  0.3443969286086119
  0.5535219275294367  0.8733739732513066  0.2998743734407279
  0.0584322802920176  0.3750265565689835  0.4331451774079470
  0.3149534535625647  0.7062324848426212  0.3443968830664091
  0.3150152238166777  0.2067463169694802  0.3443414881196223
  0.9418481621641496  0.1251125881874826  0.5668246197165865
  0.4382450758238379  0.9576249569167298  0.6112330034471182
  0.5662548545736588  0.0377916790027382  0.2555116028816991
  0.1852287206962153  0.7829386977380381  0.1241851435771674
  0.0661654021110326  0.0379116638497168  0.2555824246699214
  0.6919682182755146  0.6253434608445735  0.5667822196057234
  0.4382995298545037  0.6170983597847882  0.1667628619506572
  0.3071986026837653  0.0391369744728567  0.5224092382249689
  0.6849101653154821  0.2827751493837534  0.1242634520034578
  0.8180626742641651  0.7104667117332103  0.4774748593914123
  0.4329908738568159  0.1366285296485160  0.8333489965849638
  0.3226153033051304  0.3750490769953918  0.6999936660639141
  0.6833712862308093  0.6377898843299948  0.8335407707781451
  0.5605175689488189  0.7118470692092098  0.7442790730644354
  0.9374259633212972  0.2915357383775838  0.3887181370094895
  0.9396399522297466  0.9631641106155517  0.8758522900629847
  0.9352444461067855  0.9607521754343740  0.7442737860822971
  0.8167539767705471  0.8744516481948722  0.5667619392406237
  0.8034647126415738  0.8733441822189448  0.2998940545525134
  0.3161677678302255  0.0378810168345479  0.2556086080429374
  0.4352492137128939  0.2825359340057724  0.1242743202911747
  0.3128832147591358  0.7082074274704555  0.6115428616352829
  0.4334881840993886  0.6252372316586962  0.4330980094201268
  0.1958293151197817  0.2965898963274573  0.7882940603145175
  0.5713606242285678  0.0462618265896029  0.7885970752911285
  0.0708284686048206  0.5461541262262390  0.7884016666096096
  0.8061122354503467  0.8848960958384855  0.8343025263695909
  0.8147363011582646  0.7217231883536165  0.8755506357245582
  0.5631638107422507  0.2061664524262675  0.6112007661142993
  0.5632694218746719  0.7068676809691962  0.6112005198166061
 
  0.00000000E+00  0.00000000E+00  0.00000000E+00
  0.00000000E+00  0.00000000E+00  0.00000000E+00
  0.00000000E+00  0.00000000E+00  0.00000000E+00
  0.00000000E+00  0.00000000E+00  0.00000000E+00
  0.00000000E+00  0.00000000E+00  0.00000000E+00
  0.00000000E+00  0.00000000E+00  0.00000000E+00
  0.00000000E+00  0.00000000E+00  0.00000000E+00
  0.00000000E+00  0.00000000E+00  0.00000000E+00
  0.00000000E+00  0.00000000E+00  0.00000000E+00
  0.00000000E+00  0.00000000E+00  0.00000000E+00
  0.00000000E+00  0.00000000E+00  0.00000000E+00
  0.00000000E+00  0.00000000E+00  0.00000000E+00
  0.00000000E+00  0.00000000E+00  0.00000000E+00
  0.00000000E+00  0.00000000E+00  0.00000000E+00
  0.00000000E+00  0.00000000E+00  0.00000000E+00
  0.00000000E+00  0.00000000E+00  0.00000000E+00
  0.00000000E+00  0.00000000E+00  0.00000000E+00
  0.00000000E+00  0.00000000E+00  0.00000000E+00
  0.00000000E+00  0.00000000E+00  0.00000000E+00
  0.00000000E+00  0.00000000E+00  0.00000000E+00
  0.00000000E+00  0.00000000E+00  0.00000000E+00
  0.00000000E+00  0.00000000E+00  0.00000000E+00
  0.00000000E+00  0.00000000E+00  0.00000000E+00
  0.00000000E+00  0.00000000E+00  0.00000000E+00
  0.00000000E+00  0.00000000E+00  0.00000000E+00
  0.00000000E+00  0.00000000E+00  0.00000000E+00
  0.00000000E+00  0.00000000E+00  0.00000000E+00
  0.00000000E+00  0.00000000E+00  0.00000000E+00
  0.00000000E+00  0.00000000E+00  0.00000000E+00
  0.00000000E+00  0.00000000E+00  0.00000000E+00
  0.00000000E+00  0.00000000E+00  0.00000000E+00
  0.00000000E+00  0.00000000E+00  0.00000000E+00
  0.00000000E+00  0.00000000E+00  0.00000000E+00
  0.00000000E+00  0.00000000E+00  0.00000000E+00
  0.00000000E+00  0.00000000E+00  0.00000000E+00
  0.00000000E+00  0.00000000E+00  0.00000000E+00
  0.00000000E+00  0.00000000E+00  0.00000000E+00
  0.00000000E+00  0.00000000E+00  0.00000000E+00
  0.00000000E+00  0.00000000E+00  0.00000000E+00
  0.00000000E+00  0.00000000E+00  0.00000000E+00
  0.00000000E+00  0.00000000E+00  0.00000000E+00
  0.00000000E+00  0.00000000E+00  0.00000000E+00
  0.00000000E+00  0.00000000E+00  0.00000000E+00
  0.00000000E+00  0.00000000E+00  0.00000000E+00
  0.00000000E+00  0.00000000E+00  0.00000000E+00
  0.00000000E+00  0.00000000E+00  0.00000000E+00
  0.00000000E+00  0.00000000E+00  0.00000000E+00
  0.00000000E+00  0.00000000E+00  0.00000000E+00
  0.00000000E+00  0.00000000E+00  0.00000000E+00
  0.00000000E+00  0.00000000E+00  0.00000000E+00
  0.00000000E+00  0.00000000E+00  0.00000000E+00
  0.00000000E+00  0.00000000E+00  0.00000000E+00
  0.00000000E+00  0.00000000E+00  0.00000000E+00
  0.00000000E+00  0.00000000E+00  0.00000000E+00
  0.00000000E+00  0.00000000E+00  0.00000000E+00
  0.00000000E+00  0.00000000E+00  0.00000000E+00
  0.00000000E+00  0.00000000E+00  0.00000000E+00
  0.00000000E+00  0.00000000E+00  0.00000000E+00
  0.00000000E+00  0.00000000E+00  0.00000000E+00
  0.00000000E+00  0.00000000E+00  0.00000000E+00
  0.00000000E+00  0.00000000E+00  0.00000000E+00
  0.00000000E+00  0.00000000E+00  0.00000000E+00
  0.00000000E+00  0.00000000E+00  0.00000000E+00
  0.00000000E+00  0.00000000E+00  0.00000000E+00
  0.00000000E+00  0.00000000E+00  0.00000000E+00
  0.00000000E+00  0.00000000E+00  0.00000000E+00
  0.00000000E+00  0.00000000E+00  0.00000000E+00
  0.00000000E+00  0.00000000E+00  0.00000000E+00
  0.00000000E+00  0.00000000E+00  0.00000000E+00
  0.00000000E+00  0.00000000E+00  0.00000000E+00
  0.00000000E+00  0.00000000E+00  0.00000000E+00
  0.00000000E+00  0.00000000E+00  0.00000000E+00
  0.00000000E+00  0.00000000E+00  0.00000000E+00
  0.00000000E+00  0.00000000E+00  0.00000000E+00
  0.00000000E+00  0.00000000E+00  0.00000000E+00
  0.00000000E+00  0.00000000E+00  0.00000000E+00
  0.00000000E+00  0.00000000E+00  0.00000000E+00
  0.00000000E+00  0.00000000E+00  0.00000000E+00
  0.00000000E+00  0.00000000E+00  0.00000000E+00
  0.00000000E+00  0.00000000E+00  0.00000000E+00
  0.00000000E+00  0.00000000E+00  0.00000000E+00
  0.00000000E+00  0.00000000E+00  0.00000000E+00
  0.00000000E+00  0.00000000E+00  0.00000000E+00
  0.00000000E+00  0.00000000E+00  0.00000000E+00
  0.00000000E+00  0.00000000E+00  0.00000000E+00
  0.00000000E+00  0.00000000E+00  0.00000000E+00
  0.00000000E+00  0.00000000E+00  0.00000000E+00
  0.00000000E+00  0.00000000E+00  0.00000000E+00
  0.00000000E+00  0.00000000E+00  0.00000000E+00
  0.00000000E+00  0.00000000E+00  0.00000000E+00
  0.00000000E+00  0.00000000E+00  0.00000000E+00
  0.00000000E+00  0.00000000E+00  0.00000000E+00
  0.00000000E+00  0.00000000E+00  0.00000000E+00
  0.00000000E+00  0.00000000E+00  0.00000000E+00
  0.00000000E+00  0.00000000E+00  0.00000000E+00
  0.00000000E+00  0.00000000E+00  0.00000000E+00
  0.00000000E+00  0.00000000E+00  0.00000000E+00
  0.00000000E+00  0.00000000E+00  0.00000000E+00
  0.00000000E+00  0.00000000E+00  0.00000000E+00
  0.00000000E+00  0.00000000E+00  0.00000000E+00
  0.00000000E+00  0.00000000E+00  0.00000000E+00
  0.00000000E+00  0.00000000E+00  0.00000000E+00
  0.00000000E+00  0.00000000E+00  0.00000000E+00
  0.00000000E+00  0.00000000E+00  0.00000000E+00
  0.00000000E+00  0.00000000E+00  0.00000000E+00
  0.00000000E+00  0.00000000E+00  0.00000000E+00
  0.00000000E+00  0.00000000E+00  0.00000000E+00
  0.00000000E+00  0.00000000E+00  0.00000000E+00
  0.00000000E+00  0.00000000E+00  0.00000000E+00
  0.00000000E+00  0.00000000E+00  0.00000000E+00
  0.00000000E+00  0.00000000E+00  0.00000000E+00
  0.00000000E+00  0.00000000E+00  0.00000000E+00
  0.00000000E+00  0.00000000E+00  0.00000000E+00
  0.00000000E+00  0.00000000E+00  0.00000000E+00
  0.00000000E+00  0.00000000E+00  0.00000000E+00
  0.00000000E+00  0.00000000E+00  0.00000000E+00
  0.00000000E+00  0.00000000E+00  0.00000000E+00
  0.00000000E+00  0.00000000E+00  0.00000000E+00
  0.00000000E+00  0.00000000E+00  0.00000000E+00
  0.00000000E+00  0.00000000E+00  0.00000000E+00
  0.00000000E+00  0.00000000E+00  0.00000000E+00
  0.00000000E+00  0.00000000E+00  0.00000000E+00
  0.00000000E+00  0.00000000E+00  0.00000000E+00
  0.00000000E+00  0.00000000E+00  0.00000000E+00
  0.00000000E+00  0.00000000E+00  0.00000000E+00
  0.00000000E+00  0.00000000E+00  0.00000000E+00
  0.00000000E+00  0.00000000E+00  0.00000000E+00
  0.00000000E+00  0.00000000E+00  0.00000000E+00
  0.00000000E+00  0.00000000E+00  0.00000000E+00
  0.00000000E+00  0.00000000E+00  0.00000000E+00
  0.00000000E+00  0.00000000E+00  0.00000000E+00
  0.00000000E+00  0.00000000E+00  0.00000000E+00
  0.00000000E+00  0.00000000E+00  0.00000000E+00
  0.00000000E+00  0.00000000E+00  0.00000000E+00
  0.00000000E+00  0.00000000E+00  0.00000000E+00
  0.00000000E+00  0.00000000E+00  0.00000000E+00
  0.00000000E+00  0.00000000E+00  0.00000000E+00
  0.00000000E+00  0.00000000E+00  0.00000000E+00
  0.00000000E+00  0.00000000E+00  0.00000000E+00
  0.00000000E+00  0.00000000E+00  0.00000000E+00
  0.00000000E+00  0.00000000E+00  0.00000000E+00
  0.00000000E+00  0.00000000E+00  0.00000000E+00
  0.00000000E+00  0.00000000E+00  0.00000000E+00
  0.00000000E+00  0.00000000E+00  0.00000000E+00
  0.00000000E+00  0.00000000E+00  0.00000000E+00
  0.00000000E+00  0.00000000E+00  0.00000000E+00
  0.00000000E+00  0.00000000E+00  0.00000000E+00
  0.00000000E+00  0.00000000E+00  0.00000000E+00
  0.00000000E+00  0.00000000E+00  0.00000000E+00
  0.00000000E+00  0.00000000E+00  0.00000000E+00
  0.00000000E+00  0.00000000E+00  0.00000000E+00
  0.00000000E+00  0.00000000E+00  0.00000000E+00
  0.00000000E+00  0.00000000E+00  0.00000000E+00
  0.00000000E+00  0.00000000E+00  0.00000000E+00
  0.00000000E+00  0.00000000E+00  0.00000000E+00
  0.00000000E+00  0.00000000E+00  0.00000000E+00
  0.00000000E+00  0.00000000E+00  0.00000000E+00
  0.00000000E+00  0.00000000E+00  0.00000000E+00
  0.00000000E+00  0.00000000E+00  0.00000000E+00
  0.00000000E+00  0.00000000E+00  0.00000000E+00
  0.00000000E+00  0.00000000E+00  0.00000000E+00
  0.00000000E+00  0.00000000E+00  0.00000000E+00
  0.00000000E+00  0.00000000E+00  0.00000000E+00
  0.00000000E+00  0.00000000E+00  0.00000000E+00
  0.00000000E+00  0.00000000E+00  0.00000000E+00
  0.00000000E+00  0.00000000E+00  0.00000000E+00
  0.00000000E+00  0.00000000E+00  0.00000000E+00
  0.00000000E+00  0.00000000E+00  0.00000000E+00
  0.00000000E+00  0.00000000E+00  0.00000000E+00
  0.00000000E+00  0.00000000E+00  0.00000000E+00
  0.00000000E+00  0.00000000E+00  0.00000000E+00
  0.00000000E+00  0.00000000E+00  0.00000000E+00
  0.00000000E+00  0.00000000E+00  0.00000000E+00
  0.00000000E+00  0.00000000E+00  0.00000000E+00
  0.00000000E+00  0.00000000E+00  0.00000000E+00
  0.00000000E+00  0.00000000E+00  0.00000000E+00
  0.00000000E+00  0.00000000E+00  0.00000000E+00
  0.00000000E+00  0.00000000E+00  0.00000000E+00
  0.00000000E+00  0.00000000E+00  0.00000000E+00
  0.00000000E+00  0.00000000E+00  0.00000000E+00
  0.00000000E+00  0.00000000E+00  0.00000000E+00
  0.00000000E+00  0.00000000E+00  0.00000000E+00
  0.00000000E+00  0.00000000E+00  0.00000000E+00
  0.00000000E+00  0.00000000E+00  0.00000000E+00
  0.00000000E+00  0.00000000E+00  0.00000000E+00
  0.00000000E+00  0.00000000E+00  0.00000000E+00
  0.00000000E+00  0.00000000E+00  0.00000000E+00
  0.00000000E+00  0.00000000E+00  0.00000000E+00
  0.00000000E+00  0.00000000E+00  0.00000000E+00
  0.00000000E+00  0.00000000E+00  0.00000000E+00
  0.00000000E+00  0.00000000E+00  0.00000000E+00
  0.00000000E+00  0.00000000E+00  0.00000000E+00
  0.00000000E+00  0.00000000E+00  0.00000000E+00
  0.00000000E+00  0.00000000E+00  0.00000000E+00
  0.00000000E+00  0.00000000E+00  0.00000000E+00
  0.00000000E+00  0.00000000E+00  0.00000000E+00
  0.00000000E+00  0.00000000E+00  0.00000000E+00
  0.00000000E+00  0.00000000E+00  0.00000000E+00
  0.00000000E+00  0.00000000E+00  0.00000000E+00
  0.00000000E+00  0.00000000E+00  0.00000000E+00
  0.00000000E+00  0.00000000E+00  0.00000000E+00
  0.00000000E+00  0.00000000E+00  0.00000000E+00
  0.00000000E+00  0.00000000E+00  0.00000000E+00
  0.00000000E+00  0.00000000E+00  0.00000000E+00
  0.00000000E+00  0.00000000E+00  0.00000000E+00
  0.00000000E+00  0.00000000E+00  0.00000000E+00
  0.00000000E+00  0.00000000E+00  0.00000000E+00
  0.00000000E+00  0.00000000E+00  0.00000000E+00
  0.00000000E+00  0.00000000E+00  0.00000000E+00
  0.00000000E+00  0.00000000E+00  0.00000000E+00
  0.00000000E+00  0.00000000E+00  0.00000000E+00
  0.00000000E+00  0.00000000E+00  0.00000000E+00
  0.00000000E+00  0.00000000E+00  0.00000000E+00
  0.00000000E+00  0.00000000E+00  0.00000000E+00
  0.00000000E+00  0.00000000E+00  0.00000000E+00
  0.00000000E+00  0.00000000E+00  0.00000000E+00
  0.00000000E+00  0.00000000E+00  0.00000000E+00
  0.00000000E+00  0.00000000E+00  0.00000000E+00
  0.00000000E+00  0.00000000E+00  0.00000000E+00
  0.00000000E+00  0.00000000E+00  0.00000000E+00
  0.00000000E+00  0.00000000E+00  0.00000000E+00
  0.00000000E+00  0.00000000E+00  0.00000000E+00
  0.00000000E+00  0.00000000E+00  0.00000000E+00
  0.00000000E+00  0.00000000E+00  0.00000000E+00
  0.00000000E+00  0.00000000E+00  0.00000000E+00
  0.00000000E+00  0.00000000E+00  0.00000000E+00
  0.00000000E+00  0.00000000E+00  0.00000000E+00
  0.00000000E+00  0.00000000E+00  0.00000000E+00
  0.00000000E+00  0.00000000E+00  0.00000000E+00
  0.00000000E+00  0.00000000E+00  0.00000000E+00
  0.00000000E+00  0.00000000E+00  0.00000000E+00
  0.00000000E+00  0.00000000E+00  0.00000000E+00
  0.00000000E+00  0.00000000E+00  0.00000000E+00
  0.00000000E+00  0.00000000E+00  0.00000000E+00
  0.00000000E+00  0.00000000E+00  0.00000000E+00
  0.00000000E+00  0.00000000E+00  0.00000000E+00
  0.00000000E+00  0.00000000E+00  0.00000000E+00
  0.00000000E+00  0.00000000E+00  0.00000000E+00
  0.00000000E+00  0.00000000E+00  0.00000000E+00
  0.00000000E+00  0.00000000E+00  0.00000000E+00
  0.00000000E+00  0.00000000E+00  0.00000000E+00
  0.00000000E+00  0.00000000E+00  0.00000000E+00
  0.00000000E+00  0.00000000E+00  0.00000000E+00
  0.00000000E+00  0.00000000E+00  0.00000000E+00
  0.00000000E+00  0.00000000E+00  0.00000000E+00
  0.00000000E+00  0.00000000E+00  0.00000000E+00
  0.00000000E+00  0.00000000E+00  0.00000000E+00