CuInSe2gb                               
   1.00000000000000     
     9.7266780392896699    0.0000000000000000    0.0000000000000000
     0.0000000000000000    8.4235502764570693    0.0000000000000000
     0.0000000000000000    0.0000000000000000   45.0000000000000000
   Fe   Mn
   281     7
Direct
  0.0617395133281434  0.0315597630448490  0.1246401830021764
  0.0630895033972158  0.8712502211029330  0.5212133104055959
  0.1912094786669592  0.1224655334679272  0.7884148429972860
  0.4336533605255438  0.2876320206530852  0.3890549486638205
  0.3083543516256117  0.7127072411585349  0.8331538475729110
  0.8084624217901901  0.2126973258911294  0.8331484358856264
  0.1835986012055170  0.7877631262723449  0.3890786881283912
  0.5631783534330352  0.2070558979735963  0.5653137026875744
  0.0595981199899151  0.0406360926510437  0.7439686458534571
  0.8132862840231921  0.8715696604430866  0.5213121377520739
  0.1846168818252943  0.2903292542520496  0.7439725073568882
  0.9411882979153595  0.4523052319983392  0.3449687047453677
  0.9335652029983419  0.2876706490236553  0.3890564190354214
  0.8129634632145046  0.0415777573079162  0.8755285846765827
  0.1886315599920781  0.7908368214832789  0.6106688395129624
  0.5587769528778724  0.0374074840409735  0.3889915273992345
  0.9334373974904316  0.9625705554894015  0.8331553845158981
  0.3131289915915791  0.5416354434867846  0.8755087262613960
  0.6850510205403192  0.2907277068322607  0.7440660216105175
  0.1921723060066497  0.6138828965249598  0.1669743048224280
  0.8128552667096328  0.2056373582491446  0.4786125344563734
  0.8134053890650647  0.5406654685523018  0.6107029735721798
  0.3133108514931767  0.8697792353635784  0.4342637964101935
  0.8162606811183285  0.0371171006175434  0.2562194863391922
  0.6910064897306518  0.9527121937436543  0.3451254453456798
  0.9417292246488523  0.1124589785939932  0.1668298628777367
  0.9384378059375685  0.1211448498154823  0.5212210687813276
  0.5661958338616963  0.5368829542957535  0.2561742292206305
  0.6884141022279366  0.7937386411274729  0.8756036080203736
  0.5684991595160795  0.3651267136958194  0.1669362151320115
  0.4347500592315230  0.7904710378186950  0.7440168880485556
  0.8138079539396963  0.7076456379970766  0.5653522616241593
  0.5660665384222706  0.8724142608596654  0.7883642255866242
  0.6884477798975096  0.1214467879310514  0.5212621094696612
  0.1915312451756860  0.2874616739827037  0.2560112832127128
  0.9334725934847491  0.4626291233252431  0.8331470900719512
  0.0634572521286848  0.2078658242044110  0.6996443325358662
  0.4388133371505932  0.9577570797093392  0.6996713173119985
  0.3084511246059423  0.2126490988197460  0.8331638644100789
  0.4350186872287574  0.6257370235840384  0.6547605685879645
  0.3135744151146053  0.5406546261816308  0.6106810715725882
  0.9389972408483500  0.4571905386583405  0.5654193321755340
  0.6848064503690927  0.7905882169023266  0.7440102386184559
  0.3098046133323398  0.8752323348073918  0.6548113500204542
  0.6836244524340883  0.7874880197504804  0.3890698661725094
  0.9350693972585611  0.7906507031135563  0.7440564579581577
  0.0665141353259262  0.2020565506593758  0.3450458650345712
  0.8084025373305127  0.0376924385411996  0.3890550577532261
  0.4414231248245462  0.1222101047945035  0.7884764950836163
  0.0597048950517704  0.2057791621806840  0.2119945723404363
  0.0685466847635724  0.3645222598950683  0.1668636835826770
  0.9415667600514248  0.7874393550375717  0.2562812528728318
  0.5634256373395741  0.2079713450858583  0.6996195553012972
  0.6884524897203129  0.9580035345709573  0.6996295555802311
  0.4398367804883618  0.7877111099405487  0.1245938543211707
  0.4388616223637579  0.9575272495103441  0.5653845986735546
  0.8159700525902533  0.3725882525392961  0.7883777113149742
  0.6915196552958962  0.2874975928909104  0.2561977914249550
  0.1886523063772472  0.4575720937073526  0.5653964094236655
  0.0679434263493509  0.8635337910924132  0.1669115581597677
  0.1884546916924922  0.2904889599888543  0.6107112299104958
  0.5663766239847835  0.7023784102601820  0.3449344001318145
  0.3134943607037265  0.2079836280058787  0.6996456895877243
  0.5628851262753943  0.5415321287337342  0.8755292221379115
  0.0637127732586396  0.7070356143622660  0.5654667535728410
  0.6914187985235621  0.6224172923592831  0.7884047277754218
  0.3086430201440988  0.5376936899862628  0.3890582829025467
  0.1881279085580132  0.6212625453394717  0.5212575640062869
  0.5632376245209513  0.8698641420219708  0.4343424767138395
  0.4387187366103600  0.4573430128043893  0.5654032260750504
  0.4349927396202236  0.2904535982129604  0.7440228320587741
  0.8045547003833945  0.8731100085018969  0.3002702620473966
  0.8164962943945877  0.7022920949693260  0.3450832981697143
  0.4333989628487968  0.4625651419238836  0.8331479774511701
  0.6875953747290228  0.9558217980342076  0.4786449986085854
  0.6883841772092778  0.4579870127342682  0.6996456167753912
  0.5633786573798936  0.8713994026447692  0.5212626528390725
  0.5601123326897165  0.3755616909165669  0.6548107147779626
  0.8101434765291032  0.8749527388920403  0.6547521364530955
  0.8128430010878955  0.3695729180260959  0.4344480019497206
  0.8158375137228111  0.5371555983322872  0.2560698179337104
  0.6833876299603497  0.4626678022447697  0.8331340237279745
  0.1914159038251434  0.7872354622939111  0.1248122193114601
  0.0629817969418216  0.0416861872957759  0.8755345025545109
  0.3095222854269343  0.3755250008711467  0.6548820994070191
  0.3162869452725756  0.2024410609834744  0.3449720707803756
  0.8098195072511846  0.5406944514633474  0.7439549756251775
  0.6834287503661303  0.9626006877149220  0.8331436778395109
  0.5597976452790564  0.8753540541429281  0.6548306963384786
  0.3136283678921457  0.7069644678618913  0.5655195236330035
  0.3135213725515288  0.5314088036935651  0.1244762331965381
  0.6848704521639029  0.9550548655346487  0.2119781433352828
  0.3135225228450607  0.2074094466838806  0.5654643063426735
  0.3098280323996344  0.5406892242596805  0.7440021376033378
  0.6885215581225049  0.9577583671716179  0.5653487271363032
  0.4383756686625355  0.7903412389806903  0.6107042773661995
  0.6933227291894904  0.6136455584730612  0.1670102343961726
  0.3045580165151112  0.8730907039931721  0.3003484572768170
  0.3124512011336635  0.7053209517787122  0.4786093366715248
  0.9382596032155935  0.2908567076545339  0.6106448570940317
  0.4296107351529332  0.6232408797896816  0.3003647722824241
  0.8181759350364253  0.8632712092125386  0.1668991907748418
  0.5600235559058658  0.2054261248850509  0.2118615544264927
  0.9427761245303813  0.6135071309474359  0.1667581223449265
  0.9385465107668685  0.7937764099776493  0.8756144184560107
  0.5662541157580127  0.3723605414287381  0.7883743211926062
  0.0634114781508075  0.3714894885322533  0.5212638959221740
  0.5632814137315078  0.3719259069710816  0.5212488350270322
  0.6796056403678520  0.1232287269262418  0.3003565939022428
  0.4334367728157329  0.9626074621506444  0.8331436723370516
  0.1913198680585366  0.2873868494861798  0.1247149171780074
  0.8162001163144516  0.8723669634076160  0.7883756009734968
  0.3126855450594999  0.3705478375860756  0.4343727599194316
  0.5624891643564741  0.0316034922093478  0.1247982575709921
  0.4381549328554623  0.2906822086900938  0.6106527602124076
  0.1913298791247986  0.4518065813355955  0.3449974204274220
  0.4398316191461863  0.2877537893051170  0.1246233264572187
  0.6912456973374383  0.7870878950846014  0.2562376208572205
  0.1886064479794132  0.9578462273875846  0.6996478500380245
  0.1886315618962523  0.2937488912371302  0.8756471879718446
  0.1855782219042677  0.1249423283828500  0.6547637692067925
  0.9350530907751713  0.1254343797916669  0.6547863807629616
  0.3092404728607991  0.2053500472402554  0.2118902747289723
  0.0586600266634434  0.0374486025536220  0.3890486966752038
  0.1941012255153419  0.1146295399942455  0.1673120312785947
  0.0630713287469007  0.5409700561225106  0.6107072579595778
  0.9414071456923986  0.2875303888362934  0.2559720671111251
  0.5635832226059951  0.5406724004527199  0.6107188964341184
  0.9388861159675052  0.9575457191177223  0.5653599113309260
  0.6795011838586488  0.6233603865331655  0.3002789348072012
  0.9379485916054686  0.6198040491095589  0.4344489161837131
  0.9411706353210637  0.6225489673533060  0.7884006882420751
  0.5634216784284174  0.7079873012658153  0.6996320522894743
  0.0584927360783335  0.7126861118056839  0.8331497813134366
  0.9296540303638797  0.1232000774309121  0.3003733869063220
  0.9382512940247603  0.7911538137542808  0.6106768100069313
  0.4416754089417348  0.7871586359531584  0.2561877075947668
  0.3159987503288776  0.3723052312542453  0.7883752574986589
  0.4355034825392220  0.4555906338023585  0.2120401609657574
  0.1882368554312668  0.1216834994863567  0.5212212875736241
  0.8133923919674049  0.7077134582928739  0.6995992599666054
  0.0635476835664335  0.0408110580803328  0.6106865885012966
  0.5583950678370219  0.2127354118862650  0.8331389558559237
  0.3134683558342863  0.8711833568065674  0.5211827362869823
  0.6908707061737513  0.2876584238883014  0.1246836013260396
  0.1855048291848450  0.9554903500024480  0.2119984888673551
  0.6887318287917615  0.2911195686086124  0.6106749609021368
  0.3136274141987697  0.0407171503747172  0.6106666014005769
  0.9411509753010611  0.1222973176544079  0.7884520225951273
  0.4384944070718488  0.7936265353379891  0.8756257931814758
  0.8097970088238432  0.0405916830352400  0.7440207659050815
  0.9386724745506417  0.4578959835355223  0.6996736674044644
  0.1849239653787627  0.6258901057414196  0.6548546724356995
  0.3134266144967279  0.7079330405035723  0.6996158416718945
  0.9396683032309396  0.2871890805696902  0.1245941203124616
  0.4378966607172439  0.4556035133789732  0.4786259997075961
  0.0629349967976096  0.7054968358404917  0.4785808061357900
  0.9382065223518323  0.1197475940812077  0.4344371253945526
  0.4293443409380627  0.1229832420206151  0.3003908617570492
  0.1879596775996195  0.1196539112855788  0.4344879708933168
  0.5630760025663337  0.0417332204801244  0.8755573330180551
  0.1887235047865154  0.9568006386744465  0.5652451881029947
  0.6904910439013464  0.7870032172388532  0.1248386326486759
  0.5625943727266224  0.5314898273235972  0.1246218717386715
  0.3086476547788372  0.0374795166349360  0.3890734122715453
  0.6928690109625183  0.1142733532236529  0.1672064585393506
  0.8094811171602989  0.2052452595265583  0.2119410593351821
  0.0664197525932463  0.5372942071657113  0.2561962896608291
  0.5627524298230734  0.7057023859256889  0.4786564168897988
  0.0637532870720357  0.2072324918591404  0.5654467191423747
  0.5543142424436761  0.3728917000002693  0.3003938762602540
  0.4413493488698254  0.9520621595409197  0.3449596533403329
  0.1834711514035315  0.9625600383820462  0.8331349394563554
  0.4423781463430673  0.6127806926547255  0.1672407570263413
  0.9352828482894729  0.4549193702741356  0.2120728516578965
  0.0632439202370099  0.5330474263019207  0.1244890871352331
  0.8132587452403818  0.3713388652269484  0.5212717918016248
  0.9293230285635530  0.6231405186318127  0.3003750834416849
  0.3160203654263912  0.0372535251720539  0.2561903355405956
  0.6882505028694327  0.7911347051047838  0.6106738297915988
  0.1834025280824451  0.4626406585194680  0.8331652246718139
  0.4419350882268022  0.1130963772736249  0.1669719448588323
  0.3136069609468461  0.3722831700465295  0.5213106138791205
  0.4410858459076936  0.6224725896165498  0.7883609183933880
  0.0663714903976181  0.0374312828074012  0.2559589577067522
  0.5635232844602844  0.7075071790260506  0.5653663441194317
  0.9350883266319095  0.2906774650657433  0.7440588473841693
  0.6909834339362493  0.1224343224297155  0.7884691555562982
  0.1833735288643013  0.4554138143101034  0.2119250407456230
  0.9337191597626161  0.7874040469717789  0.3890601660852216
  0.6884754221926080  0.2937456118842910  0.8756743209526144
  0.3183443809443437  0.8639060368004569  0.1671367144896700
  0.4382154029724107  0.4578214587048204  0.6995964439107791
  0.9414189612334766  0.9521151391239180  0.3449547254693242
  0.6885194259322791  0.6213716661362668  0.5212495630962523
  0.0599475719002429  0.8754763377726166  0.6548330889709898
  0.0659523994282886  0.8726130244218375  0.7883589193939186
  0.0596422050152788  0.3753907970958379  0.6548445615814431
  0.6878812179799999  0.4556143855698424  0.4786013564577817
  0.1912480233609495  0.7869731915248755  0.2562327549823183
  0.4375124425481428  0.1201217166572105  0.4345761895218235
  0.8139075459882796  0.0328421559520029  0.1245263735218557
  0.9384469703277117  0.6214781508514089  0.5212182491931213
  0.0628616851699055  0.8695707926747644  0.4344657608767858
  0.8123411558420084  0.5324614375887501  0.1246619985001607
  0.4412834338022055  0.4523068290500799  0.3449685055192396
  0.8164256789190998  0.2019302625334095  0.3449725676021275
  0.3164685251441918  0.7017531575671766  0.3449633747547214
  0.6867167399361728  0.1257197263758252  0.6548040298740926
  0.5543918506242874  0.8731525934421530  0.3003167304053235
  0.0598842002348636  0.5408356898535734  0.7440061163425878
  0.9347787818651216  0.9547752379417578  0.2119881798426046
  0.8100343925692162  0.7052992624192220  0.2118350656823764
  0.0542641888326910  0.8730303447281899  0.3003714562344468
  0.1795179536706134  0.1232274092630238  0.3002760912936484
  0.0663782152923351  0.7020014798306063  0.3449637794808918
  0.8133752382958552  0.0411446276078264  0.6107431205236550
  0.0635008831914699  0.3698788309387273  0.4343438719773829
  0.5663438371495740  0.2017107583237713  0.3449492888635177
  0.8044027373401281  0.3728732706338115  0.3004494832563527
  0.4379989966414711  0.9555044528323449  0.4786574926239837
  0.5587566311077747  0.5370503761274935  0.3890572952065013
  0.0627609111696415  0.2056568097886921  0.4785931691856205
  0.3160352584550944  0.8722687826857562  0.7883939208944988
  0.9383855675662423  0.9579849535342079  0.6996167542631839
  0.0543109303032940  0.3727759328661537  0.3003991150586175
  0.6850483643800462  0.6248569355026350  0.6547655336116895
  0.6887452493059667  0.4575908766171971  0.5653858852594656
  0.4349091178660377  0.9552204593043543  0.2119695962435753
  0.3125450914426569  0.2058524437850154  0.4786442801952174
  0.4357242192530980  0.1251839467886198  0.6547110065398021
  0.6880533665967453  0.6203470152872650  0.4344272349611946
  0.8132727647766537  0.2079267534798296  0.6995860066721614
  0.8128760264485994  0.7056946787750741  0.4786408842265914
  0.8130465562880324  0.8699377200462174  0.4344728597383110
  0.9376951204623066  0.9557778031309130  0.4785978003443390
  0.5629396921977768  0.2055307131418444  0.4786447547114083
  0.1881140340830120  0.6199997660916834  0.4343710512421597
  0.3095157926429857  0.0406841097226507  0.7439271290645237
  0.9349954189964264  0.6250732367747497  0.6548031381177730
  0.5583999813289416  0.7127113050460402  0.8331547085682345
  0.3043269695346736  0.3729497203825596  0.3003761870208927
  0.5593725600645656  0.7052226106658446  0.2118990063470658
  0.1877997055850185  0.4555210736272408  0.4785987031333473
  0.3129826453197484  0.0415747123887559  0.8755262053310734
  0.1882977414105002  0.4577592101888587  0.6994334095009106
  0.8128426009366195  0.5414857045831050  0.8755059387172296
  0.1834901765331956  0.2876720176251293  0.3890639503358028
  0.4379366270793087  0.6203885246641960  0.4344535867422585
  0.0589136704446701  0.7052010143793505  0.2118382841683472
  0.5630924674529325  0.3696348989207143  0.4344182143440000
  0.4384033375438367  0.6214555238044693  0.5212498804809316
  0.8084301283888803  0.7126390525442146  0.8331582871569404
  0.0660505984442425  0.3722838779798056  0.7884413465429340
  0.4385252724812991  0.2940113928559286  0.8756304517523995
  0.3125637036540701  0.0324341495021812  0.1246046006244025
  0.6881338081541631  0.1202774496897146  0.4344112926865486
  0.1911989588317121  0.9522774653867968  0.3449862479233989
  0.0584735943007920  0.2126585502465878  0.8331524719129888
  0.5629449404839979  0.0410252237176557  0.6106312893883888
  0.6840421618130192  0.4546325652461948  0.2119869042747647
  0.1847068291406719  0.7904854227558347  0.7440113708294436
  0.1793854956124490  0.6231436540470505  0.3003318699365041
  0.4336850087543873  0.7875232192372952  0.3890661899601326
  0.4414379538089560  0.2873213129383753  0.2562056543458713
  0.0629090220967228  0.5414402456399656  0.8755018887513809
  0.5596547826472605  0.0405793304308795  0.7439152825494869
  0.1885994402666966  0.7940002524169821  0.8756198198001798
  0.9376939725155148  0.4556723090907644  0.4786397015547889
  0.8084855340865429  0.5373313240233017  0.3890728832641044
  0.8136838293666748  0.2073044714248037  0.5653792527649777
  0.1912414442632347  0.6223347187747325  0.7884304653402928
  0.0585111999322571  0.5376765679272545  0.3890705799540451
  0.0633433280169748  0.7078119353904524  0.6996464710034535
  0.3157768005225263  0.5366924064200064  0.2561173548913492
  0.3098241218623087  0.7057418256126302  0.2118774388410875
  0.5676786935111867  0.8645571359743255  0.1670722700993335
  0.5594759860342418  0.5406231374651734  0.7439604940691646
  0.6914989207154855  0.4522075157436476  0.3450193498938761
  0.9387389451390754  0.2939887650515888  0.8756172442102225
  0.5667899812846723  0.0371721296839459  0.2560007629424557
  0.6827051164445241  0.2877550671571756  0.3889920749759485
  0.3195810823131756  0.3642026954596515  0.1666082062262545
  0.8196232540421298  0.3630375176987938  0.1665184309490826
  0.4380110545360589  0.1209888632745435  0.5212192395272517
  0.9403597891616858  0.7890620629735119  0.1249102921087400
  0.8096241380828416  0.3752367939065581  0.6545608242233319
  0.1880480891604971  0.9558342179683376  0.4786134586578683
 
  0.00000000E+00  0.00000000E+00  0.00000000E+00
  0.00000000E+00  0.00000000E+00  0.00000000E+00
  0.00000000E+00  0.00000000E+00  0.00000000E+00
  0.00000000E+00  0.00000000E+00  0.00000000E+00
  0.00000000E+00  0.00000000E+00  0.00000000E+00
  0.00000000E+00  0.00000000E+00  0.00000000E+00
  0.00000000E+00  0.00000000E+00  0.00000000E+00
  0.00000000E+00  0.00000000E+00  0.00000000E+00
  0.00000000E+00  0.00000000E+00  0.00000000E+00
  0.00000000E+00  0.00000000E+00  0.00000000E+00
  0.00000000E+00  0.00000000E+00  0.00000000E+00
  0.00000000E+00  0.00000000E+00  0.00000000E+00
  0.00000000E+00  0.00000000E+00  0.00000000E+00
  0.00000000E+00  0.00000000E+00  0.00000000E+00
  0.00000000E+00  0.00000000E+00  0.00000000E+00
  0.00000000E+00  0.00000000E+00  0.00000000E+00
  0.00000000E+00  0.00000000E+00  0.00000000E+00
  0.00000000E+00  0.00000000E+00  0.00000000E+00
  0.00000000E+00  0.00000000E+00  0.00000000E+00
  0.00000000E+00  0.00000000E+00  0.00000000E+00
  0.00000000E+00  0.00000000E+00  0.00000000E+00
  0.00000000E+00  0.00000000E+00  0.00000000E+00
  0.00000000E+00  0.00000000E+00  0.00000000E+00
  0.00000000E+00  0.00000000E+00  0.00000000E+00
  0.00000000E+00  0.00000000E+00  0.00000000E+00
  0.00000000E+00  0.00000000E+00  0.00000000E+00
  0.00000000E+00  0.00000000E+00  0.00000000E+00
  0.00000000E+00  0.00000000E+00  0.00000000E+00
  0.00000000E+00  0.00000000E+00  0.00000000E+00
  0.00000000E+00  0.00000000E+00  0.00000000E+00
  0.00000000E+00  0.00000000E+00  0.00000000E+00
  0.00000000E+00  0.00000000E+00  0.00000000E+00
  0.00000000E+00  0.00000000E+00  0.00000000E+00
  0.00000000E+00  0.00000000E+00  0.00000000E+00
  0.00000000E+00  0.00000000E+00  0.00000000E+00
  0.00000000E+00  0.00000000E+00  0.00000000E+00
  0.00000000E+00  0.00000000E+00  0.00000000E+00
  0.00000000E+00  0.00000000E+00  0.00000000E+00
  0.00000000E+00  0.00000000E+00  0.00000000E+00
  0.00000000E+00  0.00000000E+00  0.00000000E+00
  0.00000000E+00  0.00000000E+00  0.00000000E+00
  0.00000000E+00  0.00000000E+00  0.00000000E+00
  0.00000000E+00  0.00000000E+00  0.00000000E+00
  0.00000000E+00  0.00000000E+00  0.00000000E+00
  0.00000000E+00  0.00000000E+00  0.00000000E+00
  0.00000000E+00  0.00000000E+00  0.00000000E+00
  0.00000000E+00  0.00000000E+00  0.00000000E+00
  0.00000000E+00  0.00000000E+00  0.00000000E+00
  0.00000000E+00  0.00000000E+00  0.00000000E+00
  0.00000000E+00  0.00000000E+00  0.00000000E+00
  0.00000000E+00  0.00000000E+00  0.00000000E+00
  0.00000000E+00  0.00000000E+00  0.00000000E+00
  0.00000000E+00  0.00000000E+00  0.00000000E+00
  0.00000000E+00  0.00000000E+00  0.00000000E+00
  0.00000000E+00  0.00000000E+00  0.00000000E+00
  0.00000000E+00  0.00000000E+00  0.00000000E+00
  0.00000000E+00  0.00000000E+00  0.00000000E+00
  0.00000000E+00  0.00000000E+00  0.00000000E+00
  0.00000000E+00  0.00000000E+00  0.00000000E+00
  0.00000000E+00  0.00000000E+00  0.00000000E+00
  0.00000000E+00  0.00000000E+00  0.00000000E+00
  0.00000000E+00  0.00000000E+00  0.00000000E+00
  0.00000000E+00  0.00000000E+00  0.00000000E+00
  0.00000000E+00  0.00000000E+00  0.00000000E+00
  0.00000000E+00  0.00000000E+00  0.00000000E+00
  0.00000000E+00  0.00000000E+00  0.00000000E+00
  0.00000000E+00  0.00000000E+00  0.00000000E+00
  0.00000000E+00  0.00000000E+00  0.00000000E+00
  0.00000000E+00  0.00000000E+00  0.00000000E+00
  0.00000000E+00  0.00000000E+00  0.00000000E+00
  0.00000000E+00  0.00000000E+00  0.00000000E+00
  0.00000000E+00  0.00000000E+00  0.00000000E+00
  0.00000000E+00  0.00000000E+00  0.00000000E+00
  0.00000000E+00  0.00000000E+00  0.00000000E+00
  0.00000000E+00  0.00000000E+00  0.00000000E+00
  0.00000000E+00  0.00000000E+00  0.00000000E+00
  0.00000000E+00  0.00000000E+00  0.00000000E+00
  0.00000000E+00  0.00000000E+00  0.00000000E+00
  0.00000000E+00  0.00000000E+00  0.00000000E+00
  0.00000000E+00  0.00000000E+00  0.00000000E+00
  0.00000000E+00  0.00000000E+00  0.00000000E+00
  0.00000000E+00  0.00000000E+00  0.00000000E+00
  0.00000000E+00  0.00000000E+00  0.00000000E+00
  0.00000000E+00  0.00000000E+00  0.00000000E+00
  0.00000000E+00  0.00000000E+00  0.00000000E+00
  0.00000000E+00  0.00000000E+00  0.00000000E+00
  0.00000000E+00  0.00000000E+00  0.00000000E+00
  0.00000000E+00  0.00000000E+00  0.00000000E+00
  0.00000000E+00  0.00000000E+00  0.00000000E+00
  0.00000000E+00  0.00000000E+00  0.00000000E+00
  0.00000000E+00  0.00000000E+00  0.00000000E+00
  0.00000000E+00  0.00000000E+00  0.00000000E+00
  0.00000000E+00  0.00000000E+00  0.00000000E+00
  0.00000000E+00  0.00000000E+00  0.00000000E+00
  0.00000000E+00  0.00000000E+00  0.00000000E+00
  0.00000000E+00  0.00000000E+00  0.00000000E+00
  0.00000000E+00  0.00000000E+00  0.00000000E+00
  0.00000000E+00  0.00000000E+00  0.00000000E+00
  0.00000000E+00  0.00000000E+00  0.00000000E+00
  0.00000000E+00  0.00000000E+00  0.00000000E+00
  0.00000000E+00  0.00000000E+00  0.00000000E+00
  0.00000000E+00  0.00000000E+00  0.00000000E+00
  0.00000000E+00  0.00000000E+00  0.00000000E+00
  0.00000000E+00  0.00000000E+00  0.00000000E+00
  0.00000000E+00  0.00000000E+00  0.00000000E+00
  0.00000000E+00  0.00000000E+00  0.00000000E+00
  0.00000000E+00  0.00000000E+00  0.00000000E+00
  0.00000000E+00  0.00000000E+00  0.00000000E+00
  0.00000000E+00  0.00000000E+00  0.00000000E+00
  0.00000000E+00  0.00000000E+00  0.00000000E+00
  0.00000000E+00  0.00000000E+00  0.00000000E+00
  0.00000000E+00  0.00000000E+00  0.00000000E+00
  0.00000000E+00  0.00000000E+00  0.00000000E+00
  0.00000000E+00  0.00000000E+00  0.00000000E+00
  0.00000000E+00  0.00000000E+00  0.00000000E+00
  0.00000000E+00  0.00000000E+00  0.00000000E+00
  0.00000000E+00  0.00000000E+00  0.00000000E+00
  0.00000000E+00  0.00000000E+00  0.00000000E+00
  0.00000000E+00  0.00000000E+00  0.00000000E+00
  0.00000000E+00  0.00000000E+00  0.00000000E+00
  0.00000000E+00  0.00000000E+00  0.00000000E+00
  0.00000000E+00  0.00000000E+00  0.00000000E+00
  0.00000000E+00  0.00000000E+00  0.00000000E+00
  0.00000000E+00  0.00000000E+00  0.00000000E+00
  0.00000000E+00  0.00000000E+00  0.00000000E+00
  0.00000000E+00  0.00000000E+00  0.00000000E+00
  0.00000000E+00  0.00000000E+00  0.00000000E+00
  0.00000000E+00  0.00000000E+00  0.00000000E+00
  0.00000000E+00  0.00000000E+00  0.00000000E+00
  0.00000000E+00  0.00000000E+00  0.00000000E+00
  0.00000000E+00  0.00000000E+00  0.00000000E+00
  0.00000000E+00  0.00000000E+00  0.00000000E+00
  0.00000000E+00  0.00000000E+00  0.00000000E+00
  0.00000000E+00  0.00000000E+00  0.00000000E+00
  0.00000000E+00  0.00000000E+00  0.00000000E+00
  0.00000000E+00  0.00000000E+00  0.00000000E+00
  0.00000000E+00  0.00000000E+00  0.00000000E+00
  0.00000000E+00  0.00000000E+00  0.00000000E+00
  0.00000000E+00  0.00000000E+00  0.00000000E+00
  0.00000000E+00  0.00000000E+00  0.00000000E+00
  0.00000000E+00  0.00000000E+00  0.00000000E+00
  0.00000000E+00  0.00000000E+00  0.00000000E+00
  0.00000000E+00  0.00000000E+00  0.00000000E+00
  0.00000000E+00  0.00000000E+00  0.00000000E+00
  0.00000000E+00  0.00000000E+00  0.00000000E+00
  0.00000000E+00  0.00000000E+00  0.00000000E+00
  0.00000000E+00  0.00000000E+00  0.00000000E+00
  0.00000000E+00  0.00000000E+00  0.00000000E+00
  0.00000000E+00  0.00000000E+00  0.00000000E+00
  0.00000000E+00  0.00000000E+00  0.00000000E+00
  0.00000000E+00  0.00000000E+00  0.00000000E+00
  0.00000000E+00  0.00000000E+00  0.00000000E+00
  0.00000000E+00  0.00000000E+00  0.00000000E+00
  0.00000000E+00  0.00000000E+00  0.00000000E+00
  0.00000000E+00  0.00000000E+00  0.00000000E+00
  0.00000000E+00  0.00000000E+00  0.00000000E+00
  0.00000000E+00  0.00000000E+00  0.00000000E+00
  0.00000000E+00  0.00000000E+00  0.00000000E+00
  0.00000000E+00  0.00000000E+00  0.00000000E+00
  0.00000000E+00  0.00000000E+00  0.00000000E+00
  0.00000000E+00  0.00000000E+00  0.00000000E+00
  0.00000000E+00  0.00000000E+00  0.00000000E+00
  0.00000000E+00  0.00000000E+00  0.00000000E+00
  0.00000000E+00  0.00000000E+00  0.00000000E+00
  0.00000000E+00  0.00000000E+00  0.00000000E+00
  0.00000000E+00  0.00000000E+00  0.00000000E+00
  0.00000000E+00  0.00000000E+00  0.00000000E+00
  0.00000000E+00  0.00000000E+00  0.00000000E+00
  0.00000000E+00  0.00000000E+00  0.00000000E+00
  0.00000000E+00  0.00000000E+00  0.00000000E+00
  0.00000000E+00  0.00000000E+00  0.00000000E+00
  0.00000000E+00  0.00000000E+00  0.00000000E+00
  0.00000000E+00  0.00000000E+00  0.00000000E+00
  0.00000000E+00  0.00000000E+00  0.00000000E+00
  0.00000000E+00  0.00000000E+00  0.00000000E+00
  0.00000000E+00  0.00000000E+00  0.00000000E+00
  0.00000000E+00  0.00000000E+00  0.00000000E+00
  0.00000000E+00  0.00000000E+00  0.00000000E+00
  0.00000000E+00  0.00000000E+00  0.00000000E+00
  0.00000000E+00  0.00000000E+00  0.00000000E+00
  0.00000000E+00  0.00000000E+00  0.00000000E+00
  0.00000000E+00  0.00000000E+00  0.00000000E+00
  0.00000000E+00  0.00000000E+00  0.00000000E+00
  0.00000000E+00  0.00000000E+00  0.00000000E+00
  0.00000000E+00  0.00000000E+00  0.00000000E+00
  0.00000000E+00  0.00000000E+00  0.00000000E+00
  0.00000000E+00  0.00000000E+00  0.00000000E+00
  0.00000000E+00  0.00000000E+00  0.00000000E+00
  0.00000000E+00  0.00000000E+00  0.00000000E+00
  0.00000000E+00  0.00000000E+00  0.00000000E+00
  0.00000000E+00  0.00000000E+00  0.00000000E+00
  0.00000000E+00  0.00000000E+00  0.00000000E+00
  0.00000000E+00  0.00000000E+00  0.00000000E+00
  0.00000000E+00  0.00000000E+00  0.00000000E+00
  0.00000000E+00  0.00000000E+00  0.00000000E+00
  0.00000000E+00  0.00000000E+00  0.00000000E+00
  0.00000000E+00  0.00000000E+00  0.00000000E+00
  0.00000000E+00  0.00000000E+00  0.00000000E+00
  0.00000000E+00  0.00000000E+00  0.00000000E+00
  0.00000000E+00  0.00000000E+00  0.00000000E+00
  0.00000000E+00  0.00000000E+00  0.00000000E+00
  0.00000000E+00  0.00000000E+00  0.00000000E+00
  0.00000000E+00  0.00000000E+00  0.00000000E+00
  0.00000000E+00  0.00000000E+00  0.00000000E+00
  0.00000000E+00  0.00000000E+00  0.00000000E+00
  0.00000000E+00  0.00000000E+00  0.00000000E+00
  0.00000000E+00  0.00000000E+00  0.00000000E+00
  0.00000000E+00  0.00000000E+00  0.00000000E+00
  0.00000000E+00  0.00000000E+00  0.00000000E+00
  0.00000000E+00  0.00000000E+00  0.00000000E+00
  0.00000000E+00  0.00000000E+00  0.00000000E+00
  0.00000000E+00  0.00000000E+00  0.00000000E+00
  0.00000000E+00  0.00000000E+00  0.00000000E+00
  0.00000000E+00  0.00000000E+00  0.00000000E+00
  0.00000000E+00  0.00000000E+00  0.00000000E+00
  0.00000000E+00  0.00000000E+00  0.00000000E+00
  0.00000000E+00  0.00000000E+00  0.00000000E+00
  0.00000000E+00  0.00000000E+00  0.00000000E+00
  0.00000000E+00  0.00000000E+00  0.00000000E+00
  0.00000000E+00  0.00000000E+00  0.00000000E+00
  0.00000000E+00  0.00000000E+00  0.00000000E+00
  0.00000000E+00  0.00000000E+00  0.00000000E+00
  0.00000000E+00  0.00000000E+00  0.00000000E+00
  0.00000000E+00  0.00000000E+00  0.00000000E+00
  0.00000000E+00  0.00000000E+00  0.00000000E+00
  0.00000000E+00  0.00000000E+00  0.00000000E+00
  0.00000000E+00  0.00000000E+00  0.00000000E+00
  0.00000000E+00  0.00000000E+00  0.00000000E+00
  0.00000000E+00  0.00000000E+00  0.00000000E+00
  0.00000000E+00  0.00000000E+00  0.00000000E+00
  0.00000000E+00  0.00000000E+00  0.00000000E+00
  0.00000000E+00  0.00000000E+00  0.00000000E+00
  0.00000000E+00  0.00000000E+00  0.00000000E+00
  0.00000000E+00  0.00000000E+00  0.00000000E+00
  0.00000000E+00  0.00000000E+00  0.00000000E+00
  0.00000000E+00  0.00000000E+00  0.00000000E+00
  0.00000000E+00  0.00000000E+00  0.00000000E+00
  0.00000000E+00  0.00000000E+00  0.00000000E+00
  0.00000000E+00  0.00000000E+00  0.00000000E+00
  0.00000000E+00  0.00000000E+00  0.00000000E+00
  0.00000000E+00  0.00000000E+00  0.00000000E+00
  0.00000000E+00  0.00000000E+00  0.00000000E+00
  0.00000000E+00  0.00000000E+00  0.00000000E+00
  0.00000000E+00  0.00000000E+00  0.00000000E+00
  0.00000000E+00  0.00000000E+00  0.00000000E+00
  0.00000000E+00  0.00000000E+00  0.00000000E+00
  0.00000000E+00  0.00000000E+00  0.00000000E+00