CuInSe2gb                               
   1.00000000000000     
     9.7266780392896699    0.0000000000000000    0.0000000000000000
     0.0000000000000000    8.4235502764570693    0.0000000000000000
     0.0000000000000000    0.0000000000000000   45.0000000000000000
   Fe   Mn
   281     7
Direct
  0.0613879590951875  0.0308640337255122  0.1244470248204740
  0.0632996738228297  0.8719279792756615  0.5212755217268245
  0.1944989154045927  0.1238454483890341  0.7884480102493155
  0.4334495536149595  0.2879893059835004  0.3891149368718413
  0.3085666275429615  0.7128128099125564  0.8331599383755864
  0.8084650333758435  0.2127324743618432  0.8331624333861072
  0.1835085772220498  0.7876085954000218  0.3890703797336519
  0.5631028859877011  0.2076096266109165  0.5653629911206483
  0.0602089610541353  0.0412676448878998  0.7440816011064788
  0.8134133452034864  0.8721414403694659  0.5213897694434170
  0.1851247863563498  0.2910382402755288  0.7440789886571414
  0.9413202332698194  0.4521944880935618  0.3449260128196441
  0.9335167292096963  0.2874957341055910  0.3890834005201080
  0.8139268889409463  0.0423082896967500  0.8756178358485727
  0.1880356256961218  0.7914850382281623  0.6108182690762846
  0.5586502582672419  0.0376629916484071  0.3890502763587337
  0.9335250398562491  0.9626759356434034  0.8331434909575269
  0.3138569240990819  0.5422137000553312  0.8756177552265590
  0.6853038320891994  0.2914030077104525  0.7441571626156809
  0.1925461629726705  0.6121370456423110  0.1668209589869830
  0.8127781049707777  0.2058619094245234  0.4786175900239016
  0.8126208120495758  0.5416630791989039  0.6109674420587090
  0.3131181228865755  0.8706004182745777  0.4344261245682953
  0.8155971961716707  0.0359700947679854  0.2559953321581275
  0.6914798352305015  0.9520925687263802  0.3449562016814773
  0.9420736225406918  0.1118661141650845  0.1669809301486457
  0.9384920826741545  0.1220951904034533  0.5213035347173238
  0.5655014994118205  0.5360134992661166  0.2560707838927040
  0.6891374046810397  0.7939590885402203  0.8756436928090712
  0.5681699483187680  0.3636279737972881  0.1668926082865452
  0.4352160473107637  0.7912217660225280  0.7440814357745440
  0.8135251562018876  0.7079766618787227  0.5653279158790656
  0.5693454179502796  0.8736105924819938  0.7884221982079230
  0.6886387785289751  0.1220135031734489  0.5213412831041772
  0.1906947723225042  0.2863140670700045  0.2560857977179585
  0.9335130655976496  0.4626819511895388  0.8331485408576972
  0.0647081372877215  0.2080942267418557  0.6996516192204210
  0.4400036024357374  0.9581293933056546  0.6996944314512062
  0.3086138019110428  0.2126922115704272  0.8331613490866987
  0.4337352159662064  0.6256929152852904  0.6549157904841514
  0.3132650897887483  0.5411517658357617  0.6107067393249106
  0.9387515308209697  0.4575857565393927  0.5654264136617404
  0.6852312024454359  0.7913575747443765  0.7441432701253897
  0.3087218868308461  0.8753546650415327  0.6549427762842724
  0.6838260249468592  0.7874491835318926  0.3889809316920231
  0.9353775109652006  0.7912641093299703  0.7441520157527977
  0.0661290610880341  0.2017064080322017  0.3449254364695357
  0.4397528196258075  0.7865671104487804  0.1245225170050177
  0.4446998176322149  0.1235813056209005  0.7884812828812086
  0.0571372612807175  0.2049654916914076  0.2119386283702089
  0.0679764290066037  0.3637587135527897  0.1669359497995830
  0.9412109121868203  0.7861690739296257  0.2559556855137468
  0.5648358973770097  0.2080099912422360  0.6996476469677086
  0.6899555767454059  0.9582367000210024  0.6996812912016228
  0.6837191895881782  0.2874317319681319  0.3890809549991781
  0.4387196436314817  0.9573402723346511  0.5655140860513249
  0.8192322322598996  0.3736684926590090  0.7884216057298309
  0.6904506116761790  0.2859663412833355  0.2560778394593625
  0.1888105209929488  0.4577016070847927  0.5654454614386552
  0.0679826299979350  0.8632497234154898  0.1668233464373899
  0.1886229690257752  0.2909360408337118  0.6107601826342657
  0.5662304902289234  0.7023326731200782  0.3449879442881706
  0.3149077175830499  0.2082117961865636  0.6996840132078399
  0.5638111486750677  0.5422382753501754  0.8756189416660535
  0.0637272560345940  0.7070405711962889  0.5655444117210130
  0.6947085255443354  0.6235861997954830  0.7884945339964987
  0.3087024341563706  0.5375629518284952  0.3890272160248818
  0.1881983856621517  0.6218943700222175  0.5213908822828921
  0.5624279876020418  0.8716999644067865  0.4343682306868719
  0.4381481774580430  0.4579248422489604  0.5653368989418149
  0.4352755393757899  0.2911640614731993  0.7441335267649571
  0.8043680036652917  0.8728768284650690  0.3003551717386169
  0.8160550784409460  0.7025205745137018  0.3451583203357453
  0.4334849578676733  0.4626506208681016  0.8331359725003329
  0.6877587508343466  0.9557536235768180  0.4786210505697012
  0.6901140291767275  0.4581595021234225  0.6996995580826213
  0.5631900093809821  0.8724699511823690  0.5213722053575320
  0.5588971070261429  0.3756912546604392  0.6549134775511735
  0.8085133324632201  0.8752526316248836  0.6548673905964515
  0.8125444689438134  0.3708558793908494  0.4344433567135545
  0.8151312438577807  0.5358527165877781  0.2561937985769032
  0.6835280232721100  0.4627152682062077  0.8331575955718060
  0.1896763631619051  0.7870424976701972  0.1245338913370149
  0.0638374655199734  0.0422109456910067  0.8756243929479163
  0.3087986216586154  0.3752399786512929  0.6549420195853185
  0.3162670439080464  0.2016367299164947  0.3448502821224735
  0.8102563902088825  0.5412359983817012  0.7440920273433365
  0.6835063698237166  0.9627457225067880  0.8331382537802392
  0.5585681548379631  0.8753020180133299  0.6548923685296373
  0.3132834260985284  0.7072937714876696  0.5655203872210168
  0.3123763561288085  0.5307492988006580  0.1244107152837674
  0.6826397359836925  0.9532932450163317  0.2117273409045331
  0.3139526258164845  0.2073382120854018  0.5654831991122126
  0.3102266342052518  0.5413343932063037  0.7440879112689509
  0.6887530661973752  0.9574983198233227  0.5653935502110760
  0.4382344592978337  0.7911287438354911  0.6106817694036575
  0.6929857749992220  0.6134825587089195  0.1669598772000637
  0.3039321105957176  0.8723462140869978  0.3002925715100596
  0.3124833208834999  0.7054014690006891  0.4786670078424180
  0.9382798781964279  0.2913018316894108  0.6106741797159174
  0.4295202886150310  0.6230383000626901  0.3002804937634164
  0.8183674430717847  0.8637002069744706  0.1669500299922948
  0.5572841383536321  0.2035294411404948  0.2116537350572003
  0.9426614046812049  0.6136868243343436  0.1670978688690580
  0.9392084797223010  0.7939788392301216  0.8756502332087783
  0.5694663929512477  0.3734973989373991  0.7884348970886357
  0.0634779065865003  0.3721858858719467  0.5213170534548685
  0.5635121407626307  0.3719521261979943  0.5212624046747685
  0.6790508735790972  0.1224930137089316  0.3003748043078321
  0.4335332478574223  0.9627813522905203  0.8331546159756240
  0.1897526095390851  0.2868400208118668  0.1245848823466723
  0.8194222005283254  0.8735564540769911  0.7883970006744405
  0.3120669826237771  0.3710247762664516  0.4342776622915678
  0.9377019510459124  0.7918434166665408  0.6108799123225206
  0.4381861366362195  0.2907551700504105  0.6107411074211738
  0.1914727321015664  0.4520931501576656  0.3450077635292164
  0.4390583957765270  0.2865290168258145  0.1244936527013974
  0.6904838561033901  0.7858478614532455  0.2559707000241866
  0.1897633344064920  0.9581270588192609  0.6996492820746967
  0.1890969451896000  0.2939293021724020  0.8756479617868521
  0.1835964062425408  0.1250572270492470  0.6548873896485939
  0.9334760185168702  0.1254527318828207  0.6548820296219466
  0.3067648516100668  0.2034630294507975  0.2117441704648513
  0.0586423657375255  0.0375422207441693  0.3890661061867041
  0.1932908255649136  0.1136839126891840  0.1668398705293988
  0.0627202641269184  0.5417779767539423  0.6108800617663070
  0.9405709653891331  0.2853465353577677  0.2560360122223481
  0.5631939128742444  0.5413119696372678  0.6107660954540179
  0.9383736878623152  0.9577972382709138  0.5653923993347266
  0.6796595270989665  0.6227043146028065  0.3001218838617570
  0.9374492459760808  0.6202123041203220  0.4344682788218374
  0.9445890378387474  0.6238877012557583  0.7884496225402408
  0.5647526824238575  0.7083191991171724  0.6996743719500130
  0.0584888002804325  0.7127972437203993  0.8331533936948653
  0.9293017170300697  0.1230103346840660  0.3003667911991640
  0.9400965727148490  0.4581379050881408  0.6996728809905225
  0.4408834421427187  0.7865179176837686  0.2561404592871678
  0.3194197515255630  0.3735343578009763  0.7884016129082623
  0.4330075966572399  0.4542833629039577  0.2119824159155046
  0.1884740221144389  0.1221126611877428  0.5212504080864050
  0.8147959122011776  0.7077998303425719  0.6996585957480542
  0.0633019800167169  0.0412073578756031  0.6107195129725826
  0.5585132183232769  0.2127904703816057  0.8331468562488984
  0.3136893987221034  0.8723273863417720  0.5213289497526573
  0.6902886923481141  0.2864930513589548  0.1246371571322209
  0.1813985548962639  0.9531065391437942  0.2117421297010243
  0.6885172471463139  0.2913815375851329  0.6106685529018733
  0.3131734438695223  0.0412335553227749  0.6108160351045340
  0.9445211644298958  0.1236807561439142  0.7884362991034429
  0.4391166706980414  0.7939501692975953  0.8756445197605401
  0.8103298605898567  0.0412311898000761  0.7441193834013263
  0.4381828417891157  0.1220322885791930  0.5213897346590468
  0.1837517779118257  0.6254743760344035  0.6549552757172925
  0.3149231963218830  0.7082534287606215  0.6996870372437994
  0.9388950738413570  0.2867688571208736  0.1245718321811716
  0.4378034297308820  0.4557488559749898  0.4786858785210231
  0.0633989765201847  0.7053097064641819  0.4786010248868756
  0.9380361087309554  0.1202389899540396  0.4344193048672669
  0.4292053877448919  0.1222617619925328  0.3003369736552532
  0.1880490807399419  0.1203771723394647  0.4344516491016955
  0.5638442350716325  0.0422577338149843  0.8756453318894289
  0.1885804380821016  0.9573849260219287  0.5653455518676872
  0.6891958470891856  0.7863810616221890  0.1244676133764444
  0.5630299073137215  0.5313617126126375  0.1244011565488230
  0.3085848581267916  0.0374010122618101  0.3890655904155509
  0.6928564639873610  0.1133179568256716  0.1668877611617886
  0.8074289924221499  0.2047593439288677  0.2118565538102587
  0.0658069741687375  0.5361368011633680  0.2561142997802772
  0.5629365066763076  0.7057662005721116  0.4786426938548104
  0.0638097966786648  0.2077436360661617  0.5654531806482197
  0.5543746510798924  0.3731450415005071  0.3003196504966117
  0.4413888246049439  0.9524828520012926  0.3449231288152528
  0.1835689255117798  0.9627706904828902  0.8331575657368180
  0.4421307410046076  0.6120871643717675  0.1668402622639638
  0.9330051839280112  0.4543561489129058  0.2117555317335692
  0.0618685914731943  0.5306474630081116  0.1243726029906279
  0.8133366608243220  0.3718196469994596  0.5213020957670018
  0.9293928848316170  0.6230696723235927  0.3003249015144587
  0.3158850237350584  0.0362685206198048  0.2559019670447559
  0.6880656055913202  0.7916465064345738  0.6108943318087502
  0.1835932944886261  0.4628451505443734  0.8331633762556304
  0.4418455467490908  0.1128424994567368  0.1669248987304095
  0.3132182724661666  0.3719795154945812  0.5213499338836834
  0.4446544401062337  0.6236682998542189  0.7884077800920619
  0.0663891716375681  0.0362821204234206  0.2558114047024765
  0.5636549195618887  0.7077373673351427  0.5653202830236276
  0.9353274510004479  0.2913598321590152  0.7441402058542801
  0.6942665413434178  0.1236428765940994  0.7884611675258504
  0.1816537509846358  0.4541264548003636  0.2119746755954583
  0.9334400514382685  0.7875860776177707  0.3890622180393301
  0.6891339327762885  0.2939401414713960  0.8756695091039228
  0.3179699841215297  0.8632872301645843  0.1669626513539753
  0.4399122344705898  0.4579213933563203  0.6996098437408609
  0.9416014152043772  0.9523227009292894  0.3450171166949037
  0.6885393514428260  0.6221387765417475  0.5213381609350701
  0.0589887865661920  0.8753692644861238  0.6549264634949122
  0.0693530620214786  0.8736965533201039  0.7884246747094399
  0.0585619286089514  0.3753092597618118  0.6548897265945386
  0.6877317304154205  0.4558090918079839  0.4786958841287003
  0.1908262280518951  0.7865412512243192  0.2561322991000068
  0.4377297256142091  0.1203174409838306  0.4344429235370756
  0.8124578862507639  0.0309129574744555  0.1244334694904927
  0.9383841207366614  0.6218874101281958  0.5213175954239264
  0.0626490853228713  0.8705353637794760  0.4345063483701158
  0.8130544009355387  0.5308024955878162  0.1243090161126717
  0.4413983473222575  0.4518870175539713  0.3449557255604408
  0.8165827003862540  0.2018711033965480  0.3449670910007978
  0.3162905703790687  0.7016849072404017  0.3449455639626309
  0.6839200226878597  0.1257390158471234  0.6549593047558694
  0.5537683551566216  0.8723700320740081  0.3003253310985533
  0.0603515705695765  0.5413674564150326  0.7441385492727189
  0.9381279364096305  0.7855648572040810  0.1244888919871911
  0.8073484747460542  0.7034029520086594  0.2115341846676252
  0.0543727021143285  0.8726878518447789  0.3002271636752740
  0.1797440218953703  0.1230720571072822  0.3004518691424314
  0.0664466003447703  0.7018609845349960  0.3449610877221929
  0.8131133424348460  0.0414958022713683  0.6107935851942635
  0.0629457026045404  0.3706677876365544  0.4344577831019173
  0.5664447417756076  0.2018793296883157  0.3449592343181836
  0.8039624034256186  0.3731581688278341  0.3003346193475757
  0.4378465388712216  0.9559062554566267  0.4786310917835202
  0.5585999522709568  0.5374496251198865  0.3890921064866736
  0.0628333952072151  0.2058402296054865  0.4786342173064494
  0.3193974531726428  0.8735770329855825  0.7884355062434014
  0.9398623382752047  0.9581821628642859  0.6996767961897336
  0.0539908762375017  0.3722085298967434  0.3004572213193498
  0.6836259331447919  0.6250198374638875  0.6549681227382410
  0.6884763397714403  0.4579168986571169  0.5654390707804622
  0.4318109486853394  0.9528217153827522  0.2117395319299198
  0.3128255226079458  0.2058889415359246  0.4786109218842450
  0.4336891755722848  0.1253377295101499  0.6548675862921549
  0.6882707519731873  0.6202252510160259  0.4343816256358352
  0.8149792409932657  0.2080090926131561  0.6996219635504843
  0.8128482257534431  0.7057120955429750  0.4786755371955370
  0.8130279197888508  0.8707547822981452  0.4344652475551462
  0.9378111125960037  0.9557857901795640  0.4786235033188693
  0.5627395899420718  0.2056748068903481  0.4785777080477706
  0.1882122114501577  0.6202573211450755  0.4343600748364706
  0.3102087375233346  0.0413428617040767  0.7440910869920054
  0.9336888136592366  0.6250289773397500  0.6548987116047920
  0.5586370375831814  0.7127658156166611  0.8331631924879390
  0.3041303565514272  0.3729982994172087  0.3003496665241785
  0.5574761038296838  0.7034801620757231  0.2115300018890260
  0.1878969671415464  0.4559474593046323  0.4786258188728548
  0.3138467208595679  0.0422516866511317  0.8756339912564801
  0.1902158465423395  0.4578901510713254  0.6995700255782290
  0.8139016094298100  0.5422264161496057  0.8756355365281472
  0.1836168188839788  0.2881178855836672  0.3891135553049743
  0.4378196966165208  0.6206146542392500  0.4345265416516527
  0.0564805174254754  0.7030818047186749  0.2116301894626630
  0.5625657202504145  0.0309704145185450  0.1246306429635730
  0.8184435240745939  0.3631929475091819  0.1671425465271051
  0.8085263924683592  0.7127105485401342  0.8331751444941454
  0.0692971847584867  0.3736138716403620  0.7884229135858238
  0.4391342607112005  0.2940176261184436  0.8756497958821079
  0.3122145215847633  0.0313605344857771  0.1244767462016722
  0.6874777975216450  0.1202650378384218  0.4344731100208392
  0.1917660410878664  0.9523291685711521  0.3451513462060721
  0.0585594219699381  0.2127835865033628  0.8331616149036416
  0.5629357895850149  0.0414129955510425  0.6107308277850548
  0.6817568542255420  0.4535035536830670  0.2116639526276354
  0.1851743963683281  0.7911050908771149  0.7440865116635633
  0.1794037405373204  0.6231607189638051  0.3002871779088711
  0.4339327528509122  0.7874291767775223  0.3889751085794392
  0.4406818608098740  0.2860446430391463  0.2559538189939544
  0.0637771944766963  0.5421635961549990  0.8756087965244029
  0.5602549740215444  0.0412479039908322  0.7440708860842203
  0.1891604550987923  0.7940087201639248  0.8756492674145671
  0.9376313781215572  0.4557957204230248  0.4786534732599114
  0.8086085180087228  0.5375981930097610  0.3890710748735800
  0.8135291754560042  0.2076717179367063  0.5653914499916101
  0.1946805810575888  0.6236694489630799  0.7884063825252750
  0.0586634393939867  0.5374928934784226  0.3890775463953983
  0.0649354668901065  0.7081813225340701  0.6996755494577290
  0.3155038960006690  0.5358780593315127  0.2559744858980896
  0.3071404463283099  0.7027447518570672  0.2114178311603721
  0.5680459465263711  0.8634961378169865  0.1669924732020852
  0.5600459096028458  0.5411933123479430  0.7441011778700823
  0.6912477949227083  0.4521278109345027  0.3449381533705736
  0.9391487299935882  0.2939472498231878  0.8756455906502805
  0.5660658670764801  0.0364917982291122  0.2558363423197577
  0.8083297636069258  0.0374225760658501  0.3889277103868820
  0.3191154934757791  0.3630666299793270  0.1663937907536290
  0.4383741858044924  0.6220702186343026  0.5213908116439069
  0.5632896170197695  0.3709110299223027  0.4342498545180361
  0.9321113838755236  0.9542179075159660  0.2121786370050965
  0.8083830175192555  0.3755336745629281  0.6547082697205627
  0.1878827471435388  0.9558895384734988  0.4785989695213691
 
  0.00000000E+00  0.00000000E+00  0.00000000E+00
  0.00000000E+00  0.00000000E+00  0.00000000E+00
  0.00000000E+00  0.00000000E+00  0.00000000E+00
  0.00000000E+00  0.00000000E+00  0.00000000E+00
  0.00000000E+00  0.00000000E+00  0.00000000E+00
  0.00000000E+00  0.00000000E+00  0.00000000E+00
  0.00000000E+00  0.00000000E+00  0.00000000E+00
  0.00000000E+00  0.00000000E+00  0.00000000E+00
  0.00000000E+00  0.00000000E+00  0.00000000E+00
  0.00000000E+00  0.00000000E+00  0.00000000E+00
  0.00000000E+00  0.00000000E+00  0.00000000E+00
  0.00000000E+00  0.00000000E+00  0.00000000E+00
  0.00000000E+00  0.00000000E+00  0.00000000E+00
  0.00000000E+00  0.00000000E+00  0.00000000E+00
  0.00000000E+00  0.00000000E+00  0.00000000E+00
  0.00000000E+00  0.00000000E+00  0.00000000E+00
  0.00000000E+00  0.00000000E+00  0.00000000E+00
  0.00000000E+00  0.00000000E+00  0.00000000E+00
  0.00000000E+00  0.00000000E+00  0.00000000E+00
  0.00000000E+00  0.00000000E+00  0.00000000E+00
  0.00000000E+00  0.00000000E+00  0.00000000E+00
  0.00000000E+00  0.00000000E+00  0.00000000E+00
  0.00000000E+00  0.00000000E+00  0.00000000E+00
  0.00000000E+00  0.00000000E+00  0.00000000E+00
  0.00000000E+00  0.00000000E+00  0.00000000E+00
  0.00000000E+00  0.00000000E+00  0.00000000E+00
  0.00000000E+00  0.00000000E+00  0.00000000E+00
  0.00000000E+00  0.00000000E+00  0.00000000E+00
  0.00000000E+00  0.00000000E+00  0.00000000E+00
  0.00000000E+00  0.00000000E+00  0.00000000E+00
  0.00000000E+00  0.00000000E+00  0.00000000E+00
  0.00000000E+00  0.00000000E+00  0.00000000E+00
  0.00000000E+00  0.00000000E+00  0.00000000E+00
  0.00000000E+00  0.00000000E+00  0.00000000E+00
  0.00000000E+00  0.00000000E+00  0.00000000E+00
  0.00000000E+00  0.00000000E+00  0.00000000E+00
  0.00000000E+00  0.00000000E+00  0.00000000E+00
  0.00000000E+00  0.00000000E+00  0.00000000E+00
  0.00000000E+00  0.00000000E+00  0.00000000E+00
  0.00000000E+00  0.00000000E+00  0.00000000E+00
  0.00000000E+00  0.00000000E+00  0.00000000E+00
  0.00000000E+00  0.00000000E+00  0.00000000E+00
  0.00000000E+00  0.00000000E+00  0.00000000E+00
  0.00000000E+00  0.00000000E+00  0.00000000E+00
  0.00000000E+00  0.00000000E+00  0.00000000E+00
  0.00000000E+00  0.00000000E+00  0.00000000E+00
  0.00000000E+00  0.00000000E+00  0.00000000E+00
  0.00000000E+00  0.00000000E+00  0.00000000E+00
  0.00000000E+00  0.00000000E+00  0.00000000E+00
  0.00000000E+00  0.00000000E+00  0.00000000E+00
  0.00000000E+00  0.00000000E+00  0.00000000E+00
  0.00000000E+00  0.00000000E+00  0.00000000E+00
  0.00000000E+00  0.00000000E+00  0.00000000E+00
  0.00000000E+00  0.00000000E+00  0.00000000E+00
  0.00000000E+00  0.00000000E+00  0.00000000E+00
  0.00000000E+00  0.00000000E+00  0.00000000E+00
  0.00000000E+00  0.00000000E+00  0.00000000E+00
  0.00000000E+00  0.00000000E+00  0.00000000E+00
  0.00000000E+00  0.00000000E+00  0.00000000E+00
  0.00000000E+00  0.00000000E+00  0.00000000E+00
  0.00000000E+00  0.00000000E+00  0.00000000E+00
  0.00000000E+00  0.00000000E+00  0.00000000E+00
  0.00000000E+00  0.00000000E+00  0.00000000E+00
  0.00000000E+00  0.00000000E+00  0.00000000E+00
  0.00000000E+00  0.00000000E+00  0.00000000E+00
  0.00000000E+00  0.00000000E+00  0.00000000E+00
  0.00000000E+00  0.00000000E+00  0.00000000E+00
  0.00000000E+00  0.00000000E+00  0.00000000E+00
  0.00000000E+00  0.00000000E+00  0.00000000E+00
  0.00000000E+00  0.00000000E+00  0.00000000E+00
  0.00000000E+00  0.00000000E+00  0.00000000E+00
  0.00000000E+00  0.00000000E+00  0.00000000E+00
  0.00000000E+00  0.00000000E+00  0.00000000E+00
  0.00000000E+00  0.00000000E+00  0.00000000E+00
  0.00000000E+00  0.00000000E+00  0.00000000E+00
  0.00000000E+00  0.00000000E+00  0.00000000E+00
  0.00000000E+00  0.00000000E+00  0.00000000E+00
  0.00000000E+00  0.00000000E+00  0.00000000E+00
  0.00000000E+00  0.00000000E+00  0.00000000E+00
  0.00000000E+00  0.00000000E+00  0.00000000E+00
  0.00000000E+00  0.00000000E+00  0.00000000E+00
  0.00000000E+00  0.00000000E+00  0.00000000E+00
  0.00000000E+00  0.00000000E+00  0.00000000E+00
  0.00000000E+00  0.00000000E+00  0.00000000E+00
  0.00000000E+00  0.00000000E+00  0.00000000E+00
  0.00000000E+00  0.00000000E+00  0.00000000E+00
  0.00000000E+00  0.00000000E+00  0.00000000E+00
  0.00000000E+00  0.00000000E+00  0.00000000E+00
  0.00000000E+00  0.00000000E+00  0.00000000E+00
  0.00000000E+00  0.00000000E+00  0.00000000E+00
  0.00000000E+00  0.00000000E+00  0.00000000E+00
  0.00000000E+00  0.00000000E+00  0.00000000E+00
  0.00000000E+00  0.00000000E+00  0.00000000E+00
  0.00000000E+00  0.00000000E+00  0.00000000E+00
  0.00000000E+00  0.00000000E+00  0.00000000E+00
  0.00000000E+00  0.00000000E+00  0.00000000E+00
  0.00000000E+00  0.00000000E+00  0.00000000E+00
  0.00000000E+00  0.00000000E+00  0.00000000E+00
  0.00000000E+00  0.00000000E+00  0.00000000E+00
  0.00000000E+00  0.00000000E+00  0.00000000E+00
  0.00000000E+00  0.00000000E+00  0.00000000E+00
  0.00000000E+00  0.00000000E+00  0.00000000E+00
  0.00000000E+00  0.00000000E+00  0.00000000E+00
  0.00000000E+00  0.00000000E+00  0.00000000E+00
  0.00000000E+00  0.00000000E+00  0.00000000E+00
  0.00000000E+00  0.00000000E+00  0.00000000E+00
  0.00000000E+00  0.00000000E+00  0.00000000E+00
  0.00000000E+00  0.00000000E+00  0.00000000E+00
  0.00000000E+00  0.00000000E+00  0.00000000E+00
  0.00000000E+00  0.00000000E+00  0.00000000E+00
  0.00000000E+00  0.00000000E+00  0.00000000E+00
  0.00000000E+00  0.00000000E+00  0.00000000E+00
  0.00000000E+00  0.00000000E+00  0.00000000E+00
  0.00000000E+00  0.00000000E+00  0.00000000E+00
  0.00000000E+00  0.00000000E+00  0.00000000E+00
  0.00000000E+00  0.00000000E+00  0.00000000E+00
  0.00000000E+00  0.00000000E+00  0.00000000E+00
  0.00000000E+00  0.00000000E+00  0.00000000E+00
  0.00000000E+00  0.00000000E+00  0.00000000E+00
  0.00000000E+00  0.00000000E+00  0.00000000E+00
  0.00000000E+00  0.00000000E+00  0.00000000E+00
  0.00000000E+00  0.00000000E+00  0.00000000E+00
  0.00000000E+00  0.00000000E+00  0.00000000E+00
  0.00000000E+00  0.00000000E+00  0.00000000E+00
  0.00000000E+00  0.00000000E+00  0.00000000E+00
  0.00000000E+00  0.00000000E+00  0.00000000E+00
  0.00000000E+00  0.00000000E+00  0.00000000E+00
  0.00000000E+00  0.00000000E+00  0.00000000E+00
  0.00000000E+00  0.00000000E+00  0.00000000E+00
  0.00000000E+00  0.00000000E+00  0.00000000E+00
  0.00000000E+00  0.00000000E+00  0.00000000E+00
  0.00000000E+00  0.00000000E+00  0.00000000E+00
  0.00000000E+00  0.00000000E+00  0.00000000E+00
  0.00000000E+00  0.00000000E+00  0.00000000E+00
  0.00000000E+00  0.00000000E+00  0.00000000E+00
  0.00000000E+00  0.00000000E+00  0.00000000E+00
  0.00000000E+00  0.00000000E+00  0.00000000E+00
  0.00000000E+00  0.00000000E+00  0.00000000E+00
  0.00000000E+00  0.00000000E+00  0.00000000E+00
  0.00000000E+00  0.00000000E+00  0.00000000E+00
  0.00000000E+00  0.00000000E+00  0.00000000E+00
  0.00000000E+00  0.00000000E+00  0.00000000E+00
  0.00000000E+00  0.00000000E+00  0.00000000E+00
  0.00000000E+00  0.00000000E+00  0.00000000E+00
  0.00000000E+00  0.00000000E+00  0.00000000E+00
  0.00000000E+00  0.00000000E+00  0.00000000E+00
  0.00000000E+00  0.00000000E+00  0.00000000E+00
  0.00000000E+00  0.00000000E+00  0.00000000E+00
  0.00000000E+00  0.00000000E+00  0.00000000E+00
  0.00000000E+00  0.00000000E+00  0.00000000E+00
  0.00000000E+00  0.00000000E+00  0.00000000E+00
  0.00000000E+00  0.00000000E+00  0.00000000E+00
  0.00000000E+00  0.00000000E+00  0.00000000E+00
  0.00000000E+00  0.00000000E+00  0.00000000E+00
  0.00000000E+00  0.00000000E+00  0.00000000E+00
  0.00000000E+00  0.00000000E+00  0.00000000E+00
  0.00000000E+00  0.00000000E+00  0.00000000E+00
  0.00000000E+00  0.00000000E+00  0.00000000E+00
  0.00000000E+00  0.00000000E+00  0.00000000E+00
  0.00000000E+00  0.00000000E+00  0.00000000E+00
  0.00000000E+00  0.00000000E+00  0.00000000E+00
  0.00000000E+00  0.00000000E+00  0.00000000E+00
  0.00000000E+00  0.00000000E+00  0.00000000E+00
  0.00000000E+00  0.00000000E+00  0.00000000E+00
  0.00000000E+00  0.00000000E+00  0.00000000E+00
  0.00000000E+00  0.00000000E+00  0.00000000E+00
  0.00000000E+00  0.00000000E+00  0.00000000E+00
  0.00000000E+00  0.00000000E+00  0.00000000E+00
  0.00000000E+00  0.00000000E+00  0.00000000E+00
  0.00000000E+00  0.00000000E+00  0.00000000E+00
  0.00000000E+00  0.00000000E+00  0.00000000E+00
  0.00000000E+00  0.00000000E+00  0.00000000E+00
  0.00000000E+00  0.00000000E+00  0.00000000E+00
  0.00000000E+00  0.00000000E+00  0.00000000E+00
  0.00000000E+00  0.00000000E+00  0.00000000E+00
  0.00000000E+00  0.00000000E+00  0.00000000E+00
  0.00000000E+00  0.00000000E+00  0.00000000E+00
  0.00000000E+00  0.00000000E+00  0.00000000E+00
  0.00000000E+00  0.00000000E+00  0.00000000E+00
  0.00000000E+00  0.00000000E+00  0.00000000E+00
  0.00000000E+00  0.00000000E+00  0.00000000E+00
  0.00000000E+00  0.00000000E+00  0.00000000E+00
  0.00000000E+00  0.00000000E+00  0.00000000E+00
  0.00000000E+00  0.00000000E+00  0.00000000E+00
  0.00000000E+00  0.00000000E+00  0.00000000E+00
  0.00000000E+00  0.00000000E+00  0.00000000E+00
  0.00000000E+00  0.00000000E+00  0.00000000E+00
  0.00000000E+00  0.00000000E+00  0.00000000E+00
  0.00000000E+00  0.00000000E+00  0.00000000E+00
  0.00000000E+00  0.00000000E+00  0.00000000E+00
  0.00000000E+00  0.00000000E+00  0.00000000E+00
  0.00000000E+00  0.00000000E+00  0.00000000E+00
  0.00000000E+00  0.00000000E+00  0.00000000E+00
  0.00000000E+00  0.00000000E+00  0.00000000E+00
  0.00000000E+00  0.00000000E+00  0.00000000E+00
  0.00000000E+00  0.00000000E+00  0.00000000E+00
  0.00000000E+00  0.00000000E+00  0.00000000E+00
  0.00000000E+00  0.00000000E+00  0.00000000E+00
  0.00000000E+00  0.00000000E+00  0.00000000E+00
  0.00000000E+00  0.00000000E+00  0.00000000E+00
  0.00000000E+00  0.00000000E+00  0.00000000E+00
  0.00000000E+00  0.00000000E+00  0.00000000E+00
  0.00000000E+00  0.00000000E+00  0.00000000E+00
  0.00000000E+00  0.00000000E+00  0.00000000E+00
  0.00000000E+00  0.00000000E+00  0.00000000E+00
  0.00000000E+00  0.00000000E+00  0.00000000E+00
  0.00000000E+00  0.00000000E+00  0.00000000E+00
  0.00000000E+00  0.00000000E+00  0.00000000E+00
  0.00000000E+00  0.00000000E+00  0.00000000E+00
  0.00000000E+00  0.00000000E+00  0.00000000E+00
  0.00000000E+00  0.00000000E+00  0.00000000E+00
  0.00000000E+00  0.00000000E+00  0.00000000E+00
  0.00000000E+00  0.00000000E+00  0.00000000E+00
  0.00000000E+00  0.00000000E+00  0.00000000E+00
  0.00000000E+00  0.00000000E+00  0.00000000E+00
  0.00000000E+00  0.00000000E+00  0.00000000E+00
  0.00000000E+00  0.00000000E+00  0.00000000E+00
  0.00000000E+00  0.00000000E+00  0.00000000E+00
  0.00000000E+00  0.00000000E+00  0.00000000E+00
  0.00000000E+00  0.00000000E+00  0.00000000E+00
  0.00000000E+00  0.00000000E+00  0.00000000E+00
  0.00000000E+00  0.00000000E+00  0.00000000E+00
  0.00000000E+00  0.00000000E+00  0.00000000E+00
  0.00000000E+00  0.00000000E+00  0.00000000E+00
  0.00000000E+00  0.00000000E+00  0.00000000E+00
  0.00000000E+00  0.00000000E+00  0.00000000E+00
  0.00000000E+00  0.00000000E+00  0.00000000E+00
  0.00000000E+00  0.00000000E+00  0.00000000E+00
  0.00000000E+00  0.00000000E+00  0.00000000E+00
  0.00000000E+00  0.00000000E+00  0.00000000E+00
  0.00000000E+00  0.00000000E+00  0.00000000E+00
  0.00000000E+00  0.00000000E+00  0.00000000E+00
  0.00000000E+00  0.00000000E+00  0.00000000E+00
  0.00000000E+00  0.00000000E+00  0.00000000E+00
  0.00000000E+00  0.00000000E+00  0.00000000E+00
  0.00000000E+00  0.00000000E+00  0.00000000E+00
  0.00000000E+00  0.00000000E+00  0.00000000E+00
  0.00000000E+00  0.00000000E+00  0.00000000E+00
  0.00000000E+00  0.00000000E+00  0.00000000E+00
  0.00000000E+00  0.00000000E+00  0.00000000E+00
  0.00000000E+00  0.00000000E+00  0.00000000E+00
  0.00000000E+00  0.00000000E+00  0.00000000E+00
  0.00000000E+00  0.00000000E+00  0.00000000E+00
  0.00000000E+00  0.00000000E+00  0.00000000E+00
  0.00000000E+00  0.00000000E+00  0.00000000E+00
  0.00000000E+00  0.00000000E+00  0.00000000E+00
  0.00000000E+00  0.00000000E+00  0.00000000E+00