CuInSe2gb                               
   1.00000000000000     
     9.7266780392896699    0.0000000000000000    0.0000000000000000
     0.0000000000000000    8.4235502764570693    0.0000000000000000
     0.0000000000000000    0.0000000000000000   45.0000000000000000
   Fe   Mn
   274    14
Direct
  0.0628766300121490  0.0381235289346972  0.1264689489176974
  0.3125360121103921  0.8707035916860787  0.6536360723384540
  0.1877417317618209  0.1195751775710914  0.7865279951660449
  0.4379733555433059  0.2909413938640044  0.3903374157335818
  0.3125621733394000  0.7054357284771220  0.8312135113355427
  0.8132639700935981  0.2065469807744791  0.8317075553637658
  0.1869202400352301  0.9559719836334523  0.8314531952736078
  0.5626335896389291  0.2058024661054460  0.5650594688529158
  0.0617970242318063  0.0374317349451048  0.7422819244949322
  0.8124274879723097  0.8717651774676275  0.5213861904579108
  0.1874128672273694  0.2872029103968424  0.7422632535535463
  0.9377237944871786  0.4571736824348024  0.3463647582210773
  0.9368613538310249  0.2905082222985903  0.3902938400131347
  0.8121715321902621  0.0378526391436417  0.8736494329928439
  0.1874742780314407  0.7874231510577926  0.6096511865279394
  0.5623866397363444  0.0410231728778535  0.3903497157113664
  0.9383758002195735  0.9567975687873308  0.8317715809480976
  0.3129897165456769  0.5377192493974292  0.8736487501475828
  0.6875847230628777  0.2874886134208601  0.7422389287464947
  0.1880150056392273  0.6209182137780235  0.1685671046068904
  0.8123227593010313  0.2059489679063828  0.4785494654556519
  0.8127152527906349  0.5374274905605094  0.6097088049705798
  0.3126734800144086  0.8738735743578527  0.4348644953035156
  0.8128086290515311  0.0407389289782798  0.2577872364756500
  0.6872310775594523  0.9573553178391400  0.3463539834974947
  0.9371717615983033  0.1212457280830248  0.1686956399265121
  0.9374525304481829  0.1224450558240504  0.5213659716402608
  0.5625711850318351  0.5406916231871426  0.2577812679246872
  0.6866765565371200  0.7886924064619703  0.8736702316305637
  0.5627372871727133  0.3709633594721383  0.1682481438443934
  0.4373704053995121  0.7875754388047779  0.7423326679205029
  0.8128821822109532  0.7058565934178341  0.5651009591114876
  0.5623445302419239  0.8690824263044402  0.7864083554217324
  0.6880780452114680  0.1220874833009823  0.5213891612174061
  0.8125925759005677  0.3701573693843566  0.6536722972679940
  0.9375883718773653  0.4559681704599740  0.8315981805935782
  0.0623397117560244  0.2033247186694727  0.6980523585837076
  0.4376129094204240  0.9535368666451080  0.6980512237666814
  0.3124286375560307  0.2049002930964930  0.8316996192161467
  0.4375662202018223  0.6204004898419681  0.6536423019694234
  0.3122880166418576  0.5373465879634280  0.6096633081973051
  0.9375253866677582  0.4560637118024173  0.5650560737794071
  0.6875699980473161  0.7878850563932054  0.7423516853131868
  0.9386363755709584  0.7904806924689665  0.1266605681906032
  0.6874011047458536  0.7903721954986627  0.3902910269741791
  0.9375025199958084  0.7876048270799798  0.7422807714980817
  0.0625739252098066  0.2071925975366355  0.3464012211798032
  0.8124740430358232  0.0406201800296454  0.3904450990402789
  0.4374715719440515  0.1193944641901141  0.7865676541241630
  0.0619324667035322  0.2082075323458807  0.2134950418379700
  0.0622213392337891  0.3712868534269145  0.1684724612278776
  0.9375453078413667  0.7905893418843384  0.2577697630004696
  0.5625682984264335  0.2036951863435976  0.6981632213884176
  0.6874335374455022  0.9535707949377258  0.6980301479298248
  0.4374179519852210  0.7893835695773052  0.1261061422928798
  0.4373790202820627  0.9559571012289635  0.5650464060620006
  0.8126271198145485  0.3698853726410474  0.7864605133665552
  0.6875367233000252  0.2907537003886695  0.2577779103903406
  0.1875822175858995  0.4560032124934674  0.5650546228293699
  0.0630382207372909  0.8711171871637927  0.1685945662267216
  0.1876193213723647  0.2871898858361662  0.6097333204609000
  0.5627443352376887  0.7070684442348848  0.3464561397746244
  0.3123570652836926  0.2038065051611739  0.6981158781120025
  0.5622139780707175  0.5384421329849824  0.8736079126280378
  0.0626004793543101  0.7055561404989830  0.5650501787591363
  0.6875795110745577  0.6191198499064627  0.7865300209518948
  0.3122991097992960  0.5406784155978579  0.3903874673080004
  0.1880477157562820  0.6219775611417255  0.5213995487427804
  0.5623072224532136  0.8739655056981218  0.4349103830038509
  0.4373172662645901  0.4563068998706243  0.5650465276860108
  0.4375053539005093  0.2877958245318143  0.7423123628722017
  0.8124202910406466  0.8748153091487336  0.3019779520721768
  0.8124092643056114  0.7073682212509609  0.3463993586855602
  0.4377117454527716  0.4548329138323846  0.8315056999105480
  0.6875378763395212  0.9559225372936394  0.4785349188561365
  0.6873761610623483  0.4534228525753255  0.6980105931555103
  0.5625047812862491  0.8721089242764266  0.5213471958050961
  0.5625586129631325  0.3703399773191122  0.6535373555699363
  0.8125376301973710  0.8703009565400603  0.6536330207760800
  0.8126024407009801  0.3739921471758946  0.4347837085456192
  0.8126194579424849  0.5404211406797594  0.2577669890578766
  0.6881923696587636  0.4549117098650763  0.8316319051065404
  0.1873668671427891  0.7899405649988620  0.1264389629958284
  0.6872030187755935  0.2907780652179945  0.3903267281714101
  0.3125522795340444  0.3705404477908207  0.6535882363217805
  0.3125604115812652  0.2073818833705643  0.3463948842790621
  0.8120737212198774  0.5373699560243590  0.7423136579168346
  0.6875247077903689  0.9553447769668654  0.8315883739345435
  0.5625850802227487  0.8707593492278048  0.6535437638753655
  0.3122717321449524  0.7059940324775352  0.5650999528713354
  0.3119863599003437  0.5381588688121779  0.1263380055034898
  0.6878728543878002  0.9584192458368546  0.2136373874295290
  0.3129039232911351  0.2059216929610356  0.5650933358897817
  0.1877093360015996  0.9561996661388822  0.4786496514274144
  0.6876014866277997  0.9560316500023895  0.5650041806544297
  0.4373717518416465  0.7871291009171690  0.6096560856285925
  0.6870154631237294  0.6202230956811223  0.1684819604738324
  0.3125463749469198  0.8741011883736437  0.3019122881421504
  0.3123826632173497  0.7058414643627274  0.4785790261522124
  0.9373426119856961  0.2872657270837992  0.6097847645463690
  0.4377980529521345  0.6239316692181355  0.3019652904440192
  0.8126795184097345  0.8708024802419714  0.1684501890960752
  0.5631597607237160  0.2079355530142578  0.2134359061361898
  0.9376910799892773  0.6197370261480257  0.1685544023073583
  0.9374726247975413  0.7867343281353042  0.8737459094343335
  0.5620028862514863  0.3690343463199463  0.7865159288333521
  0.0624540487581766  0.3721905947128944  0.5213621016194019
  0.3119885177953078  0.3706926704883152  0.1686043247779988
  0.6876878520026400  0.1245691411770194  0.3020404285796517
  0.4383002642732876  0.9548789497334844  0.8314240813855610
  0.1881854561921685  0.2896494281332831  0.1264852404455624
  0.1875203572365464  0.2903443896789552  0.2578474392489436
  0.3124053789208035  0.3737829715648609  0.4348038314926077
  0.5622814118592864  0.0378095447367968  0.1262207400069875
  0.4376277926056278  0.2874045779640343  0.6096209122784796
  0.1875283730034210  0.4575831197686100  0.3464380539832045
  0.4361395063028460  0.2900646717365972  0.1265316153000336
  0.6874701615352299  0.7913172801884378  0.2577595983811009
  0.4370362729255076  0.1220708093597901  0.5213845342616612
  0.1887189635840214  0.2888017480781756  0.8737895178034801
  0.1874605103685190  0.1205606312475567  0.6536536282314866
  0.9375150438272843  0.1201010198454999  0.6536404591729000
  0.3126790735653155  0.2082770406922108  0.2136138205295135
  0.0622608938583095  0.0404508335659401  0.3903577957702532
  0.1874929753669317  0.1211457032988751  0.1685853295610598
  0.0625238369194999  0.5367334445386872  0.6097666271444457
  0.9374680598316826  0.2906436680326832  0.2577936509586651
  0.5625409196642597  0.5371537634632879  0.6095930296512712
  0.9373422774055327  0.9563030840761771  0.5650840355659544
  0.6873743854244192  0.6242388216791865  0.3019807763101647
  0.9375144733262373  0.6240252849858440  0.4348688814948007
  0.9370645584847694  0.6207586078091077  0.7862436209426308
  0.5619716646957398  0.7030162335051445  0.6979621839726069
  0.0620955532938250  0.7071344911444720  0.8315979731652022
  0.9376557276184740  0.1244332589231042  0.3019664569998515
  0.9376963566715174  0.7875500203680313  0.6096442250528133
  0.4378555580342828  0.7908256950572657  0.2578137129917457
  0.3125812663940673  0.3694800482851023  0.7864038690050352
  0.4377316998038436  0.4584049008087846  0.2134499449626991
  0.1875806884561134  0.1223264876212465  0.5213927447332057
  0.8123819168972659  0.7035978886340138  0.6980849903159700
  0.0625436243081401  0.0372110065901237  0.6096107433224176
  0.5619136574492629  0.2050673951305471  0.8315216580392476
  0.3125431590661722  0.8718650966282683  0.5214084609504549
  0.6882782253931127  0.2900975003999007  0.1262367609775874
  0.1875378355758751  0.9586020153416888  0.2135883102284273
  0.6873684802176839  0.2875295152178605  0.6096619461408179
  0.3126987975639892  0.0371042348804637  0.6097805947238628
  0.9375550892582655  0.1198145980073851  0.7866115338545122
  0.4371355012507501  0.7883711643018997  0.8735718195553862
  0.8128269693970515  0.0374988628416272  0.7422750481957130
  0.9374858722775574  0.4536966853964481  0.6980818273203470
  0.1875961084546706  0.6204324307365884  0.6535964446842105
  0.3127345551173668  0.7032957076017916  0.6980741972014706
  0.9380257060078486  0.2895426061311383  0.1262517879514544
  0.4372448387674143  0.4560308651136207  0.4786497168464134
  0.0624256484005551  0.7052953384498133  0.4786352855175070
  0.9373452699315797  0.1239140321545814  0.4348067291094518
  0.4373212297067089  0.1240313788093513  0.3020105691482258
  0.1873802258116953  0.1240850040307608  0.4347658674579869
  0.5623626211882919  0.0375595817495519  0.8736625035735470
  0.1877368501092815  0.9563917038566550  0.5650722478792364
  0.6871157558406211  0.7901744912788224  0.1262650120391965
  0.5629980281994987  0.5381523113395971  0.1262569071004622
  0.3123791096654149  0.0406041381098666  0.3903495148613451
  0.6880303725290102  0.1201008923088372  0.1685128634169576
  0.8124131279709992  0.2072150473549381  0.2135578716055770
  0.0624074475150056  0.5405069361653309  0.2578009810696122
  0.5625928956433677  0.7056903767542663  0.4785843898099076
  0.0626427044160773  0.2058259951209126  0.5650994953407504
  0.5621744778869936  0.3742047964928858  0.3018861307988757
  0.4372122391761984  0.9571476448893200  0.3464375723527526
  0.1875242674638263  0.9536962675522355  0.6980750016823889
  0.4376894881616720  0.6214779455660118  0.1683520033993796
  0.9378568853792868  0.4579670387497553  0.2136709148722719
  0.0621993830613543  0.5382065180269376  0.1263354720105081
  0.8126383470959170  0.3719250227052759  0.5213805794419563
  0.9371834314731878  0.6244050051151386  0.3019056618122308
  0.3125511992690734  0.0403058077212286  0.2577484809218619
  0.6876054534509578  0.7871496254460238  0.6096603181643739
  0.1873032885244938  0.4556791410550696  0.8316440664358096
  0.4374626015383272  0.1199299404449994  0.1685077618590211
  0.3125183355811754  0.3717593208634759  0.5213914938859312
  0.4375424943210402  0.6185344103446127  0.7865374874799681
  0.0621238178453919  0.0403353199611939  0.2577717457900334
  0.5624998246254643  0.7058171633938181  0.5650917893528858
  0.9374627017574678  0.2869651257713970  0.7423037551749594
  0.6867466288349808  0.1192276617247595  0.7863848220838455
  0.1869763392714199  0.4583643465223516  0.2135589312061331
  0.9373267261217193  0.7908323011537032  0.3903097007826911
  0.6867220681860801  0.2896779806209865  0.8738240662773190
  0.3123313026020667  0.8709327171186838  0.1684001389264463
  0.4374644898673626  0.4534554750447441  0.6980302690275302
  0.9381216766499781  0.9570298597373801  0.3463417253337506
  0.6875937658766792  0.6222650653674204  0.5213563837581018
  0.0626256623496844  0.8704335548424339  0.6535878112929658
  0.0628630715289192  0.8701937490119368  0.7864712092058862
  0.0623873978881797  0.3702240509363376  0.6535924351186293
  0.6877414405747054  0.4560823603591078  0.4785920190457830
  0.1874850319347437  0.7902892470065125  0.2577362087172354
  0.4374612769108953  0.1238122568823107  0.4348159328026251
  0.8124847454486237  0.0386094964416727  0.1263805477871038
  0.9369865370636843  0.6220233756545327  0.5213951311858448
  0.0623540098060444  0.8740216641365367  0.4351910387265908
  0.8130078520548452  0.5374988911350647  0.1261641897376438
  0.4371767952150393  0.4573495804250189  0.3463809460069900
  0.8128055920752468  0.2072509062049499  0.3464403011132309
  0.3124980753145276  0.7076193623891610  0.3464413255384533
  0.6876958385188526  0.1204143469963668  0.6535684927358171
  0.5627961995056040  0.8746499539488440  0.3020651867845482
  0.0627632861802854  0.5370647783577752  0.7422282622408046
  0.9376851756337444  0.9579949797114372  0.2135232690981526
  0.8125371695380110  0.7076498831285901  0.2134446488658000
  0.0622238855226703  0.8743718650675070  0.3019732575891683
  0.1874469399743806  0.1243839406942657  0.3018962483303177
  0.0624097151937641  0.7075957502193881  0.3464425659814747
  0.8123058861850514  0.0373016297942000  0.6097076359025388
  0.0623897507405762  0.3740292425315421  0.4348990691089158
  0.5622760944585284  0.2072234340121169  0.3464089474241621
  0.8125900427040499  0.3743871931192979  0.3019606362958862
  0.4374668886357916  0.9557977400792034  0.4785779089320914
  0.5623559792157391  0.5402524063376309  0.3903214625999910
  0.0623950478095462  0.2055186394282104  0.4785809667331886
  0.3127876260936577  0.8688643830340871  0.7863013024836241
  0.9375694687245674  0.9534220053933534  0.6979757199300383
  0.0626705304599530  0.3746727054762575  0.3020157447776559
  0.6874297877330180  0.6204088563468314  0.6535869347311561
  0.6878469973337130  0.4562002626348253  0.5650514653271227
  0.4369909294269950  0.9590786481647010  0.2136646355773923
  0.3126991884024867  0.2056620002759757  0.4785580310130082
  0.4374603320661450  0.1206745272370251  0.6535923781764297
  0.6875332212907477  0.6239338847339903  0.4347670853816333
  0.8125982807905474  0.2038092375326926  0.6979638781809763
  0.8126307075988152  0.7058317653118305  0.4785728771231011
  0.8124294009492107  0.8737687712906477  0.4348752748812935
  0.9371709056815928  0.9561822532971472  0.4787099015704940
  0.5625028441464336  0.2054784414330540  0.4786256276604557
  0.1875977929452475  0.6237789982653849  0.4348521352649352
  0.3119436977334195  0.0377602898929447  0.7422979117843135
  0.9374290035649187  0.6204004624878900  0.6536165025211296
  0.5624724027204532  0.7055923595131606  0.8314793703744106
  0.3124374686084611  0.3742279679612697  0.3019773058476669
  0.5627557346293667  0.7074990753029351  0.2135653293573113
  0.1874979665495771  0.4557580892069473  0.4785937555437430
  0.3138490990803173  0.0386759695744017  0.8734998351233925
  0.1873350475082672  0.4533158584617685  0.6980405081954653
  0.8116301453128895  0.5372897142942347  0.8736899708600264
  0.1873842926003368  0.2905895583886298  0.3903184240539415
  0.4372162545289238  0.6242752162102304  0.4348913426836953
  0.0621872045349609  0.7075892928146857  0.2135460533861181
  0.5622644071452481  0.3738119658397056  0.4351438621448638
  0.4374794163559663  0.6224365692458986  0.5213844350796463
  0.8123771409838706  0.7071922472130202  0.8312511901579718
  0.0626226367774898  0.3706898317503374  0.7864287959507206
  0.4371046393559707  0.2888853416947577  0.8739267033814522
  0.3125012599010781  0.0388344245055815  0.1262815306105642
  0.6876092532440775  0.1233325761432998  0.4348715098690589
  0.1873960047443010  0.9571126585574534  0.3464181944723008
  0.0623999417781320  0.2060096134194026  0.8316923975907664
  0.5625426615183621  0.0367989152372884  0.6097964306445137
  0.6870524315390639  0.4579069994924229  0.2135424786703887
  0.1874898111198383  0.7876688708070969  0.7423107909805865
  0.1875563175006323  0.6244450836940092  0.3020047900184012
  0.4373602370666515  0.7907135096952240  0.3904335240099866
  0.4374925910465096  0.2904366230539738  0.2577082870694804
  0.0641144693479360  0.5381462848430040  0.8735948924680962
  0.5630972265409369  0.0376885924622039  0.7423630704154432
  0.1876568884848408  0.7875542638195835  0.8735702967674635
  0.9374152087184796  0.4557387955667607  0.4785414702132380
  0.8123807485202079  0.5404515770087853  0.3903176220509399
  0.8121850374098250  0.2059504814545027  0.5650886192329143
  0.1870778128463136  0.6196517055831268  0.7864597489252672
  0.0625692426559077  0.5407798553039345  0.3903603390570866
  0.0627753200312571  0.7036251920588883  0.6980336164322641
  0.3120074439139843  0.5401257486688079  0.2576103684758894
  0.3130097523274715  0.7088854677349871  0.2135728451414068
  0.5621541448648499  0.8705388156861086  0.1678351350581589
  0.5632385228244682  0.5377759252967808  0.7422509750751128
  0.6876605250225607  0.4568903226371233  0.3464822960788796
  0.9356559363903496  0.2902443423880476  0.8735894844646938
  0.5629016380984744  0.0405539399574398  0.2576455226564388
  0.0637181897174932  0.0356582651061572  0.8734598314618839
  0.1871462242992223  0.7908542246962770  0.3903201598362845
  0.8125807188697645  0.3710869574417916  0.1678181923272123
  0.5625346398028191  0.3720106934432125  0.5212809159728048
  0.0625540383360243  0.8718760668385555  0.5213036284162800
  0.8117377066862475  0.8697487942750731  0.7861384451167406
  0.3113516206756833  0.5372726561098757  0.7424243998457828
 
  0.00000000E+00  0.00000000E+00  0.00000000E+00
  0.00000000E+00  0.00000000E+00  0.00000000E+00
  0.00000000E+00  0.00000000E+00  0.00000000E+00
  0.00000000E+00  0.00000000E+00  0.00000000E+00
  0.00000000E+00  0.00000000E+00  0.00000000E+00
  0.00000000E+00  0.00000000E+00  0.00000000E+00
  0.00000000E+00  0.00000000E+00  0.00000000E+00
  0.00000000E+00  0.00000000E+00  0.00000000E+00
  0.00000000E+00  0.00000000E+00  0.00000000E+00
  0.00000000E+00  0.00000000E+00  0.00000000E+00
  0.00000000E+00  0.00000000E+00  0.00000000E+00
  0.00000000E+00  0.00000000E+00  0.00000000E+00
  0.00000000E+00  0.00000000E+00  0.00000000E+00
  0.00000000E+00  0.00000000E+00  0.00000000E+00
  0.00000000E+00  0.00000000E+00  0.00000000E+00
  0.00000000E+00  0.00000000E+00  0.00000000E+00
  0.00000000E+00  0.00000000E+00  0.00000000E+00
  0.00000000E+00  0.00000000E+00  0.00000000E+00
  0.00000000E+00  0.00000000E+00  0.00000000E+00
  0.00000000E+00  0.00000000E+00  0.00000000E+00
  0.00000000E+00  0.00000000E+00  0.00000000E+00
  0.00000000E+00  0.00000000E+00  0.00000000E+00
  0.00000000E+00  0.00000000E+00  0.00000000E+00
  0.00000000E+00  0.00000000E+00  0.00000000E+00
  0.00000000E+00  0.00000000E+00  0.00000000E+00
  0.00000000E+00  0.00000000E+00  0.00000000E+00
  0.00000000E+00  0.00000000E+00  0.00000000E+00
  0.00000000E+00  0.00000000E+00  0.00000000E+00
  0.00000000E+00  0.00000000E+00  0.00000000E+00
  0.00000000E+00  0.00000000E+00  0.00000000E+00
  0.00000000E+00  0.00000000E+00  0.00000000E+00
  0.00000000E+00  0.00000000E+00  0.00000000E+00
  0.00000000E+00  0.00000000E+00  0.00000000E+00
  0.00000000E+00  0.00000000E+00  0.00000000E+00
  0.00000000E+00  0.00000000E+00  0.00000000E+00
  0.00000000E+00  0.00000000E+00  0.00000000E+00
  0.00000000E+00  0.00000000E+00  0.00000000E+00
  0.00000000E+00  0.00000000E+00  0.00000000E+00
  0.00000000E+00  0.00000000E+00  0.00000000E+00
  0.00000000E+00  0.00000000E+00  0.00000000E+00
  0.00000000E+00  0.00000000E+00  0.00000000E+00
  0.00000000E+00  0.00000000E+00  0.00000000E+00
  0.00000000E+00  0.00000000E+00  0.00000000E+00
  0.00000000E+00  0.00000000E+00  0.00000000E+00
  0.00000000E+00  0.00000000E+00  0.00000000E+00
  0.00000000E+00  0.00000000E+00  0.00000000E+00
  0.00000000E+00  0.00000000E+00  0.00000000E+00
  0.00000000E+00  0.00000000E+00  0.00000000E+00
  0.00000000E+00  0.00000000E+00  0.00000000E+00
  0.00000000E+00  0.00000000E+00  0.00000000E+00
  0.00000000E+00  0.00000000E+00  0.00000000E+00
  0.00000000E+00  0.00000000E+00  0.00000000E+00
  0.00000000E+00  0.00000000E+00  0.00000000E+00
  0.00000000E+00  0.00000000E+00  0.00000000E+00
  0.00000000E+00  0.00000000E+00  0.00000000E+00
  0.00000000E+00  0.00000000E+00  0.00000000E+00
  0.00000000E+00  0.00000000E+00  0.00000000E+00
  0.00000000E+00  0.00000000E+00  0.00000000E+00
  0.00000000E+00  0.00000000E+00  0.00000000E+00
  0.00000000E+00  0.00000000E+00  0.00000000E+00
  0.00000000E+00  0.00000000E+00  0.00000000E+00
  0.00000000E+00  0.00000000E+00  0.00000000E+00
  0.00000000E+00  0.00000000E+00  0.00000000E+00
  0.00000000E+00  0.00000000E+00  0.00000000E+00
  0.00000000E+00  0.00000000E+00  0.00000000E+00
  0.00000000E+00  0.00000000E+00  0.00000000E+00
  0.00000000E+00  0.00000000E+00  0.00000000E+00
  0.00000000E+00  0.00000000E+00  0.00000000E+00
  0.00000000E+00  0.00000000E+00  0.00000000E+00
  0.00000000E+00  0.00000000E+00  0.00000000E+00
  0.00000000E+00  0.00000000E+00  0.00000000E+00
  0.00000000E+00  0.00000000E+00  0.00000000E+00
  0.00000000E+00  0.00000000E+00  0.00000000E+00
  0.00000000E+00  0.00000000E+00  0.00000000E+00
  0.00000000E+00  0.00000000E+00  0.00000000E+00
  0.00000000E+00  0.00000000E+00  0.00000000E+00
  0.00000000E+00  0.00000000E+00  0.00000000E+00
  0.00000000E+00  0.00000000E+00  0.00000000E+00
  0.00000000E+00  0.00000000E+00  0.00000000E+00
  0.00000000E+00  0.00000000E+00  0.00000000E+00
  0.00000000E+00  0.00000000E+00  0.00000000E+00
  0.00000000E+00  0.00000000E+00  0.00000000E+00
  0.00000000E+00  0.00000000E+00  0.00000000E+00
  0.00000000E+00  0.00000000E+00  0.00000000E+00
  0.00000000E+00  0.00000000E+00  0.00000000E+00
  0.00000000E+00  0.00000000E+00  0.00000000E+00
  0.00000000E+00  0.00000000E+00  0.00000000E+00
  0.00000000E+00  0.00000000E+00  0.00000000E+00
  0.00000000E+00  0.00000000E+00  0.00000000E+00
  0.00000000E+00  0.00000000E+00  0.00000000E+00
  0.00000000E+00  0.00000000E+00  0.00000000E+00
  0.00000000E+00  0.00000000E+00  0.00000000E+00
  0.00000000E+00  0.00000000E+00  0.00000000E+00
  0.00000000E+00  0.00000000E+00  0.00000000E+00
  0.00000000E+00  0.00000000E+00  0.00000000E+00
  0.00000000E+00  0.00000000E+00  0.00000000E+00
  0.00000000E+00  0.00000000E+00  0.00000000E+00
  0.00000000E+00  0.00000000E+00  0.00000000E+00
  0.00000000E+00  0.00000000E+00  0.00000000E+00
  0.00000000E+00  0.00000000E+00  0.00000000E+00
  0.00000000E+00  0.00000000E+00  0.00000000E+00
  0.00000000E+00  0.00000000E+00  0.00000000E+00
  0.00000000E+00  0.00000000E+00  0.00000000E+00
  0.00000000E+00  0.00000000E+00  0.00000000E+00
  0.00000000E+00  0.00000000E+00  0.00000000E+00
  0.00000000E+00  0.00000000E+00  0.00000000E+00
  0.00000000E+00  0.00000000E+00  0.00000000E+00
  0.00000000E+00  0.00000000E+00  0.00000000E+00
  0.00000000E+00  0.00000000E+00  0.00000000E+00
  0.00000000E+00  0.00000000E+00  0.00000000E+00
  0.00000000E+00  0.00000000E+00  0.00000000E+00
  0.00000000E+00  0.00000000E+00  0.00000000E+00
  0.00000000E+00  0.00000000E+00  0.00000000E+00
  0.00000000E+00  0.00000000E+00  0.00000000E+00
  0.00000000E+00  0.00000000E+00  0.00000000E+00
  0.00000000E+00  0.00000000E+00  0.00000000E+00
  0.00000000E+00  0.00000000E+00  0.00000000E+00
  0.00000000E+00  0.00000000E+00  0.00000000E+00
  0.00000000E+00  0.00000000E+00  0.00000000E+00
  0.00000000E+00  0.00000000E+00  0.00000000E+00
  0.00000000E+00  0.00000000E+00  0.00000000E+00
  0.00000000E+00  0.00000000E+00  0.00000000E+00
  0.00000000E+00  0.00000000E+00  0.00000000E+00
  0.00000000E+00  0.00000000E+00  0.00000000E+00
  0.00000000E+00  0.00000000E+00  0.00000000E+00
  0.00000000E+00  0.00000000E+00  0.00000000E+00
  0.00000000E+00  0.00000000E+00  0.00000000E+00
  0.00000000E+00  0.00000000E+00  0.00000000E+00
  0.00000000E+00  0.00000000E+00  0.00000000E+00
  0.00000000E+00  0.00000000E+00  0.00000000E+00
  0.00000000E+00  0.00000000E+00  0.00000000E+00
  0.00000000E+00  0.00000000E+00  0.00000000E+00
  0.00000000E+00  0.00000000E+00  0.00000000E+00
  0.00000000E+00  0.00000000E+00  0.00000000E+00
  0.00000000E+00  0.00000000E+00  0.00000000E+00
  0.00000000E+00  0.00000000E+00  0.00000000E+00
  0.00000000E+00  0.00000000E+00  0.00000000E+00
  0.00000000E+00  0.00000000E+00  0.00000000E+00
  0.00000000E+00  0.00000000E+00  0.00000000E+00
  0.00000000E+00  0.00000000E+00  0.00000000E+00
  0.00000000E+00  0.00000000E+00  0.00000000E+00
  0.00000000E+00  0.00000000E+00  0.00000000E+00
  0.00000000E+00  0.00000000E+00  0.00000000E+00
  0.00000000E+00  0.00000000E+00  0.00000000E+00
  0.00000000E+00  0.00000000E+00  0.00000000E+00
  0.00000000E+00  0.00000000E+00  0.00000000E+00
  0.00000000E+00  0.00000000E+00  0.00000000E+00
  0.00000000E+00  0.00000000E+00  0.00000000E+00
  0.00000000E+00  0.00000000E+00  0.00000000E+00
  0.00000000E+00  0.00000000E+00  0.00000000E+00
  0.00000000E+00  0.00000000E+00  0.00000000E+00
  0.00000000E+00  0.00000000E+00  0.00000000E+00
  0.00000000E+00  0.00000000E+00  0.00000000E+00
  0.00000000E+00  0.00000000E+00  0.00000000E+00
  0.00000000E+00  0.00000000E+00  0.00000000E+00
  0.00000000E+00  0.00000000E+00  0.00000000E+00
  0.00000000E+00  0.00000000E+00  0.00000000E+00
  0.00000000E+00  0.00000000E+00  0.00000000E+00
  0.00000000E+00  0.00000000E+00  0.00000000E+00
  0.00000000E+00  0.00000000E+00  0.00000000E+00
  0.00000000E+00  0.00000000E+00  0.00000000E+00
  0.00000000E+00  0.00000000E+00  0.00000000E+00
  0.00000000E+00  0.00000000E+00  0.00000000E+00
  0.00000000E+00  0.00000000E+00  0.00000000E+00
  0.00000000E+00  0.00000000E+00  0.00000000E+00
  0.00000000E+00  0.00000000E+00  0.00000000E+00
  0.00000000E+00  0.00000000E+00  0.00000000E+00
  0.00000000E+00  0.00000000E+00  0.00000000E+00
  0.00000000E+00  0.00000000E+00  0.00000000E+00
  0.00000000E+00  0.00000000E+00  0.00000000E+00
  0.00000000E+00  0.00000000E+00  0.00000000E+00
  0.00000000E+00  0.00000000E+00  0.00000000E+00
  0.00000000E+00  0.00000000E+00  0.00000000E+00
  0.00000000E+00  0.00000000E+00  0.00000000E+00
  0.00000000E+00  0.00000000E+00  0.00000000E+00
  0.00000000E+00  0.00000000E+00  0.00000000E+00
  0.00000000E+00  0.00000000E+00  0.00000000E+00
  0.00000000E+00  0.00000000E+00  0.00000000E+00
  0.00000000E+00  0.00000000E+00  0.00000000E+00
  0.00000000E+00  0.00000000E+00  0.00000000E+00
  0.00000000E+00  0.00000000E+00  0.00000000E+00
  0.00000000E+00  0.00000000E+00  0.00000000E+00
  0.00000000E+00  0.00000000E+00  0.00000000E+00
  0.00000000E+00  0.00000000E+00  0.00000000E+00
  0.00000000E+00  0.00000000E+00  0.00000000E+00
  0.00000000E+00  0.00000000E+00  0.00000000E+00
  0.00000000E+00  0.00000000E+00  0.00000000E+00
  0.00000000E+00  0.00000000E+00  0.00000000E+00
  0.00000000E+00  0.00000000E+00  0.00000000E+00
  0.00000000E+00  0.00000000E+00  0.00000000E+00
  0.00000000E+00  0.00000000E+00  0.00000000E+00
  0.00000000E+00  0.00000000E+00  0.00000000E+00
  0.00000000E+00  0.00000000E+00  0.00000000E+00
  0.00000000E+00  0.00000000E+00  0.00000000E+00
  0.00000000E+00  0.00000000E+00  0.00000000E+00
  0.00000000E+00  0.00000000E+00  0.00000000E+00
  0.00000000E+00  0.00000000E+00  0.00000000E+00
  0.00000000E+00  0.00000000E+00  0.00000000E+00
  0.00000000E+00  0.00000000E+00  0.00000000E+00
  0.00000000E+00  0.00000000E+00  0.00000000E+00
  0.00000000E+00  0.00000000E+00  0.00000000E+00
  0.00000000E+00  0.00000000E+00  0.00000000E+00
  0.00000000E+00  0.00000000E+00  0.00000000E+00
  0.00000000E+00  0.00000000E+00  0.00000000E+00
  0.00000000E+00  0.00000000E+00  0.00000000E+00
  0.00000000E+00  0.00000000E+00  0.00000000E+00
  0.00000000E+00  0.00000000E+00  0.00000000E+00
  0.00000000E+00  0.00000000E+00  0.00000000E+00
  0.00000000E+00  0.00000000E+00  0.00000000E+00
  0.00000000E+00  0.00000000E+00  0.00000000E+00
  0.00000000E+00  0.00000000E+00  0.00000000E+00
  0.00000000E+00  0.00000000E+00  0.00000000E+00
  0.00000000E+00  0.00000000E+00  0.00000000E+00
  0.00000000E+00  0.00000000E+00  0.00000000E+00
  0.00000000E+00  0.00000000E+00  0.00000000E+00
  0.00000000E+00  0.00000000E+00  0.00000000E+00
  0.00000000E+00  0.00000000E+00  0.00000000E+00
  0.00000000E+00  0.00000000E+00  0.00000000E+00
  0.00000000E+00  0.00000000E+00  0.00000000E+00
  0.00000000E+00  0.00000000E+00  0.00000000E+00
  0.00000000E+00  0.00000000E+00  0.00000000E+00
  0.00000000E+00  0.00000000E+00  0.00000000E+00
  0.00000000E+00  0.00000000E+00  0.00000000E+00
  0.00000000E+00  0.00000000E+00  0.00000000E+00
  0.00000000E+00  0.00000000E+00  0.00000000E+00
  0.00000000E+00  0.00000000E+00  0.00000000E+00
  0.00000000E+00  0.00000000E+00  0.00000000E+00
  0.00000000E+00  0.00000000E+00  0.00000000E+00
  0.00000000E+00  0.00000000E+00  0.00000000E+00
  0.00000000E+00  0.00000000E+00  0.00000000E+00
  0.00000000E+00  0.00000000E+00  0.00000000E+00
  0.00000000E+00  0.00000000E+00  0.00000000E+00
  0.00000000E+00  0.00000000E+00  0.00000000E+00
  0.00000000E+00  0.00000000E+00  0.00000000E+00
  0.00000000E+00  0.00000000E+00  0.00000000E+00
  0.00000000E+00  0.00000000E+00  0.00000000E+00
  0.00000000E+00  0.00000000E+00  0.00000000E+00
  0.00000000E+00  0.00000000E+00  0.00000000E+00
  0.00000000E+00  0.00000000E+00  0.00000000E+00
  0.00000000E+00  0.00000000E+00  0.00000000E+00
  0.00000000E+00  0.00000000E+00  0.00000000E+00
  0.00000000E+00  0.00000000E+00  0.00000000E+00
  0.00000000E+00  0.00000000E+00  0.00000000E+00
  0.00000000E+00  0.00000000E+00  0.00000000E+00
  0.00000000E+00  0.00000000E+00  0.00000000E+00
  0.00000000E+00  0.00000000E+00  0.00000000E+00
  0.00000000E+00  0.00000000E+00  0.00000000E+00