CuInSe2gb                               
   1.00000000000000     
     9.7266780392896699    0.0000000000000000    0.0000000000000000
     0.0000000000000000    8.4235502764570693    0.0000000000000000
     0.0000000000000000    0.0000000000000000   45.0000000000000000
   Fe   Mn
   274    14
Direct
  0.0616939784151037  0.0311310637517511  0.1243605117008345
  0.3165639411021184  0.8749081186568529  0.6548569235042335
  0.1840481302825206  0.1227616266825197  0.7884099036704404
  0.4414912175113928  0.2876349141075288  0.3891129959880169
  0.3171574216353855  0.7142659149792546  0.8330485544116217
  0.8176828860945125  0.2136478807767570  0.8333369470874774
  0.9362398821066714  0.2941890496969882  0.8757490652524837
  0.5621883932359044  0.2070540575486920  0.5654913588353672
  0.0656454746587770  0.0396660198185885  0.7439611276166513
  0.8115690870346648  0.8713697313881837  0.5213913489219820
  0.1909421269329107  0.2902394732870335  0.7439894900094749
  0.9335311527247919  0.4524060959492351  0.3449103559293159
  0.9410946988433271  0.2866703874792848  0.3889583655421664
  0.8119159848021904  0.0415658874269501  0.8754349817185746
  0.1835953449857911  0.7881265296577217  0.6108350032192803
  0.5664067959015130  0.0377643244091672  0.3890689278512956
  0.9418237863934300  0.9628424881469444  0.8334551219360624
  0.3142122111148811  0.5387161854865684  0.8755780722634043
  0.6905448064784828  0.2902299238390381  0.7439400636264901
  0.1822225299417804  0.6137288506525546  0.1666826312360101
  0.8122691016369320  0.2057436271238779  0.4786895455816529
  0.8087254273985194  0.5378650016301827  0.6109021454975958
  0.3119443175658051  0.8703512726301151  0.4344857838379326
  0.8093389217546931  0.0382351492264232  0.2561323743553176
  0.6835723682683226  0.9516707315907170  0.3448736769263513
  0.9313522453303600  0.1145893770327274  0.1672388550483087
  0.0616410121490306  0.8713180897540976  0.5213883705083201
  0.5587718642357923  0.5382922683592420  0.2560620381249359
  0.6856523724734001  0.7946773120773395  0.8754985950372235
  0.5560313999279942  0.3655903445305800  0.1667677342613410
  0.4401219177891862  0.7904603860039019  0.7440135249849533
  0.8114501054788986  0.7066040140976438  0.5654759024454425
  0.5593805815725778  0.8725623463333301  0.7883837883910576
  0.6866154828010674  0.1215427682005431  0.5213699267877808
  0.8165372799077009  0.3748443997371753  0.6548918632972526
  0.9415192052390285  0.4635074941639663  0.8333363182658695
  0.0603355160371446  0.2078902308620743  0.6995346139589929
  0.4349431819810147  0.9580425220215784  0.6996046312161698
  0.3163519892815265  0.2124625912401137  0.8333087457487960
  0.4414690102509816  0.6249317921636062  0.6548752565613422
  0.3087898104857912  0.5379129213376185  0.6108706086179246
  0.9365878543564939  0.4564953765189733  0.5655879713678504
  0.6900037268526709  0.7912340588059833  0.7440008778310624
  0.9337032042823593  0.7883989275857786  0.1246503470783752
  0.6916548156328651  0.7877696040269487  0.3890666568022942
  0.9403058124810260  0.7906350866706031  0.7439781835476913
  0.0587640255254686  0.2028123408256311  0.3450507700077743
  0.6836835173029145  0.4523713334325776  0.3450659026906195
  0.4344304897434903  0.1219648663829293  0.7885476133754876
  0.0647465981534608  0.2051899138226623  0.2116034485470527
  0.0553533995611101  0.3656345962775750  0.1668019676944767
  0.9332566346852793  0.7882719034294363  0.2557877354064416
  0.5604433466321882  0.2078237892679019  0.6996398133259739
  0.6849013277500932  0.9581781025082780  0.6996213435805418
  0.8097874820337109  0.8723404523617984  0.7883336882477804
  0.4370023660267082  0.9571140633999197  0.5653752411233417
  0.8098831598044941  0.3730144733202704  0.7882430092521703
  0.6839741852009936  0.2892248011531680  0.2561430921883750
  0.1873247203048369  0.4571954404799072  0.5654685972685519
  0.0557581597180900  0.8656248001373340  0.1667723145104677
  0.1837424693407952  0.2879450690945376  0.6108990864361850
  0.0621861676749571  0.2072033008449991  0.5653557742683587
  0.3103981631313238  0.2080332812226690  0.6996321729810130
  0.5644692800583159  0.5390546755402519  0.8756143313701196
  0.0618118708240836  0.7062697581646021  0.5655193245689257
  0.6845289621174182  0.6212682695913713  0.7882308708143257
  0.3162022558196100  0.5378994300355602  0.3890421631470516
  0.1867625785633135  0.6212986128423947  0.5214235776775589
  0.5623943215948632  0.8702755804999845  0.4344534584261425
  0.4368344740350844  0.4570167241004280  0.5654897267176042
  0.4400475941002182  0.2907179136287036  0.7440381192929632
  0.8194863170572533  0.8749194627018507  0.3003916109974862
  0.8087120975433343  0.7027028309879862  0.3450613779966806
  0.4419505407348334  0.4624773142669583  0.8331683524006637
  0.6874555124294989  0.9556302777486102  0.4786752927572080
  0.6849967975815097  0.4580513432299299  0.6995948042445540
  0.5617631037710774  0.8718876154978108  0.5214176462816666
  0.5665511253635536  0.3748603222159936  0.6548901892798974
  0.8163532895299856  0.8748526333050582  0.6549240093094436
  0.8116298036938120  0.3710774403617947  0.4342196264365964
  0.8087077742946749  0.5380660619026538  0.2562308188972928
  0.6914454988281866  0.4624871533371033  0.8330969606591355
  0.1861523292729736  0.7884747120168455  0.1242463714298649
  0.6913447690383555  0.2873481731452888  0.3890437626068570
  0.3163953548922081  0.3748993076081427  0.6549000881301119
  0.3086130180342156  0.2024704771241290  0.3448616894758109
  0.8160003316372241  0.5401373883149658  0.7439510079703621
  0.6916078456305893  0.9624017723097346  0.8331595423536514
  0.5664070297346149  0.8749582268850548  0.6548970294996024
  0.3113380637006445  0.7071811931264558  0.5654565736614836
  0.3123995108076050  0.5314070564002220  0.1242638028666895
  0.6898148329154057  0.9556350781286106  0.2118801460137785
  0.3114030404854417  0.2066201346009043  0.5654913509980108
  0.1873329308842878  0.9557147540184115  0.4786990445024504
  0.6874157896786438  0.9570867527715518  0.5654973769692014
  0.4336864434425725  0.7880157721262047  0.6108606669413409
  0.6822680099033722  0.6120365883770317  0.1666985229388108
  0.3191198432245222  0.8744289406679718  0.3001528363344674
  0.3121977021383340  0.7058160816180705  0.4786797210957818
  0.9336718270937683  0.2878095067410369  0.6109051431642903
  0.4453818663631596  0.6247227031954308  0.3004154043454700
  0.8067991222884957  0.8640826877352493  0.1672139574424722
  0.5666678719552853  0.2031353066619778  0.2117228105679675
  0.9329279489149820  0.6129439870855101  0.1668422574994797
  0.4372377571764592  0.9556761597269783  0.4786436025864137
  0.5605137831515324  0.3719499559003370  0.7883432424340082
  0.0614052286534830  0.3720940030173834  0.5213457192474182
  0.3068121822799700  0.3646350058668155  0.1668951268705575
  0.6950308915305494  0.1237947588573680  0.3003662838285043
  0.4424504422364915  0.9620415241476120  0.8332693842737333
  0.1846626226152112  0.2873983981156825  0.1244862126228545
  0.1840314478481604  0.2893368110188317  0.2561343653659565
  0.3124718024939715  0.3702640908166273  0.4344595716450080
  0.5625256262690899  0.0327141848407507  0.1245898690278563
  0.4337473368870658  0.2879623932965875  0.6108652214483679
  0.1836447193237969  0.4526964411102980  0.3450766747037047
  0.4346512786535257  0.2872453743501900  0.1245257055635257
  0.6839405946706258  0.7891889008772580  0.2560378405902085
  0.4366190219644530  0.1214756812122842  0.5213839272695536
  0.1878862823070062  0.2945102278456932  0.8757955864203014
  0.1915317976469351  0.1250301101511818  0.6548685713881168
  0.9414668053531718  0.1250392296158350  0.6548923062235554
  0.8163352972587020  0.5375243164609996  0.3890780913753322
  0.0664093323900093  0.0379949012617960  0.3891376286974822
  0.1829429633308150  0.1121990582358100  0.1666453347426979
  0.0586455983765364  0.5377092082878323  0.6109199715188641
  0.9341706790180699  0.2892747474982085  0.2560719774592469
  0.5586319462478848  0.5380450053137948  0.6108562065412552
  0.9369781995004246  0.9573544575369676  0.5654432317773832
  0.6941992590941793  0.6247343186544089  0.3002101848647649
  0.9373844645434053  0.6202831338777174  0.4344655619013083
  0.9338680938059726  0.6220704381092073  0.7881367128108490
  0.5603796530568679  0.7076293158350013  0.6995806337141134
  0.0661761094019134  0.7151119481716758  0.8336192251929676
  0.9449991489516674  0.1235818532072077  0.3003215110109387
  0.9336780024243229  0.7875748565496749  0.6108968726030742
  0.4336207456542419  0.7893807756872031  0.2560382680003448
  0.3097541960033904  0.3725158493692106  0.7882860915790230
  0.4398758631982408  0.4553311246839754  0.2118095412044153
  0.1867133062127579  0.1214353267185705  0.5213759048991113
  0.8101903492997967  0.7077970318341179  0.6995489712812598
  0.0587113380604728  0.0379917902820104  0.6108393096815479
  0.5666247898646761  0.2134465102600936  0.8330798471393087
  0.3116875406862772  0.8716636267243240  0.5214135579772790
  0.6862860466624061  0.2871462204512239  0.1243595020995789
  0.1900645855929501  0.9562731158794628  0.2120462285009317
  0.6835969303520739  0.2880074742764023  0.6109364199302211
  0.3086377841340965  0.0379754659025277  0.6109584828382004
  0.9353458493313512  0.1223519377905602  0.7882617401230523
  0.4370293930312769  0.7952741966953981  0.8757145648667918
  0.8154112182577041  0.0404072675689509  0.7438584758317870
  0.9348652052306490  0.4581481779099356  0.6996420424215685
  0.1914580451931597  0.6250025584407990  0.6548959660678223
  0.3102506027716176  0.7076395329281554  0.6995992696263654
  0.9344442127724476  0.2870931048174487  0.1244191193770453
  0.4374434139499307  0.4558722737348172  0.4785852946585456
  0.0622135406697789  0.7057733351808887  0.4785724578876874
  0.9370995121993687  0.1195893414614944  0.4346229770030043
  0.4442703455428336  0.1243365194977558  0.3004561603518852
  0.1874631288478114  0.1198711102786030  0.4344029682455082
  0.5635505620299484  0.0394923933929234  0.8757399018449139
  0.1868323933053299  0.9570526485347870  0.5655129883757083
  0.6842385299826025  0.7884108558756039  0.1247483724640702
  0.5588186500983959  0.7025758066195491  0.3450494576371779
  0.3163593586285753  0.0370982342403594  0.3890258206872124
  0.6823952957181024  0.1143078354682823  0.1671623917582694
  0.8151706764671089  0.2049111029691966  0.2116364642516435
  0.0597609331549710  0.5381537315235317  0.2559646198896624
  0.5622504282155099  0.7057621542446718  0.4786310060043758
  0.4346318172355839  0.7877078866002050  0.1245005065180077
  0.5691053923955078  0.3738085391129735  0.3003880347237600
  0.4335850762450041  0.9527671612468602  0.3450643153202208
  0.1851289904153459  0.9581656165342014  0.6996490583991849
  0.4318802617041431  0.6136909088204372  0.1666490292943608
  0.9401720752467930  0.4555130280257359  0.2119823733480647
  0.0618147726000472  0.5311169593272809  0.1243208041195556
  0.8117775682748133  0.3718208477842311  0.5213802549181399
  0.9446706437995178  0.6243784867713765  0.3001463171715432
  0.3092010634938387  0.0380751291239084  0.2558456653768737
  0.6836798337450799  0.7880032933737980  0.6108634309207881
  0.1925153834522659  0.4636807358254233  0.8331183489769742
  0.4319244514666142  0.1123609896318728  0.1666899246508911
  0.3115144929912803  0.3715868285448087  0.5213747009417190
  0.4341174959920976  0.6221943694297084  0.7884124613362159
  0.0589492424122509  0.0383366759386828  0.2560727421659579
  0.5620265289724503  0.7071150383168631  0.5654978058631686
  0.9403393004070614  0.2898807507092087  0.7440617140518692
  0.6842090602512960  0.1222444018086711  0.7884989684743755
  0.1895467670707947  0.4550862678067686  0.2116236967469098
  0.9412760493969250  0.7875559485537625  0.3890548681923554
  0.6866050523329098  0.2961744630623815  0.8759513691464875
  0.5555326720725037  0.8648665967357178  0.1666688456735906
  0.4352474174543989  0.4579186249613430  0.6995221879272524
  0.9340263087080585  0.9516370069748719  0.3449104727542792
  0.6865298472266826  0.6213801332613720  0.5212711662306669
  0.0665451295467909  0.8748567493278765  0.6548793294090430
  0.0588030514748026  0.8730862561947313  0.7882056729224455
  0.0663933458328903  0.3748957675006124  0.6548920847168884
  0.6871217910010611  0.4556928331808988  0.4786323467616850
  0.1842800235091865  0.7892446803255699  0.2559481868892361
  0.4371612456895281  0.1204794505119357  0.4344290881779391
  0.8135574196058134  0.0315488162066622  0.1243359098644326
  0.9365136850833933  0.6214666006394560  0.5213897266677873
  0.4416258697277921  0.1247251445931356  0.6548350218360772
  0.8125958506422960  0.5306970280396286  0.1243722558022360
  0.4336401947905736  0.4525586184859215  0.3450978688447363
  0.8088111162675509  0.2025156755136685  0.3450758650717339
  0.3088997225042430  0.7019560738146225  0.3449158389545867
  0.6913693515344400  0.1248705163985721  0.6548730990526233
  0.5695016814896484  0.8740298153889943  0.3004758183046016
  0.0653496715571854  0.5403361475737376  0.7440030766650765
  0.9408338796445286  0.9553840655956162  0.2116005129528568
  0.8167338470050550  0.7052454902383561  0.2117128176430741
  0.0693256571721651  0.8741901029717686  0.3004648804430659
  0.1945741629854869  0.1242906765397703  0.3004187717896804
  0.0584511451494544  0.7021465056790268  0.3449764623287673
  0.8088327719849226  0.0379397553815591  0.6108715640257897
  0.0629292771142646  0.3710085036555425  0.4343802739986337
  0.5587266667057519  0.2025994905293438  0.3449251586419697
  0.8194413036490799  0.3743927613617864  0.3003362929038295
  0.5593550995828804  0.0387969945634453  0.2558817819065429
  0.5664272975924708  0.5377054273556450  0.3890903406801545
  0.0625127396178026  0.2057961960625777  0.4786966784468165
  0.3111285766119859  0.8718173642761109  0.7880496493015748
  0.9350190655843295  0.9582945190624297  0.6995972699453578
  0.0690340608508686  0.3749342875351666  0.3004150304208056
  0.6913550577927949  0.6250438923999083  0.6549333866014611
  0.6867842270736984  0.4569199433841654  0.5654445687221362
  0.4401459035185584  0.9566186108364243  0.2122509366710117
  0.3123271199514428  0.2056728762327134  0.4786936323175087
  0.8136437122048827  0.5392983967980808  0.8755753397251211
  0.6876497782126686  0.6202666101646891  0.4344656000098901
  0.8104986052105800  0.2076825935792363  0.6996504205858010
  0.8124051764164985  0.7057644006408508  0.4786402685988680
  0.8116369579574224  0.8708182889403508  0.4342670609586347
  0.9373142926168753  0.9551509813616476  0.4787175661381717
  0.5622572347779911  0.2055987738547072  0.4786474170051894
  0.1870261092516175  0.6199500550374535  0.4344748800946356
  0.3153974941590854  0.0405554965239194  0.7439025514465978
  0.9414893968828157  0.6251736348078855  0.6548634083500852
  0.5665722596338348  0.7127729040071141  0.8330396741005169
  0.3201153286799059  0.3732636978339115  0.3002895329624481
  0.5652339019687619  0.7044251018660914  0.2117163570504036
  0.1872998378862264  0.4557040324667804  0.4786715815903470
  0.3136858088501305  0.0409788021064559  0.8757106310325096
  0.1850149223937069  0.4581122240274828  0.6995457804907930
  0.5616387337548164  0.3715202036978159  0.5213858299895407
  0.1912556562294263  0.2877148859746865  0.3890478628526081
  0.3157444734349653  0.2050913837013198  0.2115807629867594
  0.0670006878752498  0.7055938898071408  0.2116672316413034
  0.5621000535769166  0.3704882142454162  0.4344421225120795
  0.4365803273702780  0.6217390811340973  0.5213221360508494
  0.8167481596750936  0.7135514847407054  0.8330910490487393
  0.0612062311574708  0.3738985844642431  0.7880955942171262
  0.4372757208912028  0.2970471080118851  0.8758659902821224
  0.3112800678135209  0.0316229490260202  0.1244171992724359
  0.6878376937966733  0.1197428495662480  0.4343753620868525
  0.1836940769982807  0.9527046715780112  0.3450985624495709
  0.0670630645281715  0.2126214601339854  0.8335104156643207
  0.5590155081607330  0.0383730650594696  0.6109761836572757
  0.6896717104517606  0.4554040438139557  0.2119966140156810
  0.1903700022013098  0.7904997095033827  0.7440205084815766
  0.1943671103049260  0.6243626719789387  0.3004450361452887
  0.4414253843391807  0.7876981017906721  0.3890727797411559
  0.4337228463348922  0.2894484034009423  0.2560749797432537
  0.0632843998144694  0.5388990235042799  0.8755370554062187
  0.5659762167132277  0.0404559021672630  0.7439216630769190
  0.1869939174286775  0.7946886608488269  0.8756113341374223
  0.9372970940325838  0.4554896755135008  0.4786481920962787
  0.5653073125209711  0.5406781614855104  0.7439408405730725
  0.8113830867767632  0.2067304726656294  0.5654236239804895
  0.1852877523243267  0.6207272520417232  0.7881263817550341
  0.0670051552571111  0.5386326578881060  0.3891960449780924
  0.0603288738565549  0.7076179625572010  0.6995829158098651
  0.3083266271329477  0.5385062426536148  0.2556836103908697
  0.3151916344122674  0.7037990731715541  0.2123751972205122
  0.3051565883336335  0.8652569095208854  0.1661274004063126
  0.4368707947635879  0.6207442916543204  0.4344244323513248
  0.8180141001202721  0.0390882387590547  0.3892603797928561
  0.1917825251808413  0.9631035167597838  0.8340122983993818
  0.9371375018664300  0.7936919053690594  0.8750562380856142
  0.0643513332646522  0.0405125049552140  0.8755048398687862
  0.5628556059355552  0.5298576086967495  0.1248695268001472
  0.8049016534159933  0.3662912664255836  0.1664409175064473
  0.0620706549642101  0.8708875248537727  0.4344395064482995
  0.9364439325042394  0.1215906429810072  0.5214681711374740
  0.1929345408342638  0.7875631457659382  0.3890442654119984
  0.3155593898237584  0.5403622714191904  0.7442410448466099
 
  0.00000000E+00  0.00000000E+00  0.00000000E+00
  0.00000000E+00  0.00000000E+00  0.00000000E+00
  0.00000000E+00  0.00000000E+00  0.00000000E+00
  0.00000000E+00  0.00000000E+00  0.00000000E+00
  0.00000000E+00  0.00000000E+00  0.00000000E+00
  0.00000000E+00  0.00000000E+00  0.00000000E+00
  0.00000000E+00  0.00000000E+00  0.00000000E+00
  0.00000000E+00  0.00000000E+00  0.00000000E+00
  0.00000000E+00  0.00000000E+00  0.00000000E+00
  0.00000000E+00  0.00000000E+00  0.00000000E+00
  0.00000000E+00  0.00000000E+00  0.00000000E+00
  0.00000000E+00  0.00000000E+00  0.00000000E+00
  0.00000000E+00  0.00000000E+00  0.00000000E+00
  0.00000000E+00  0.00000000E+00  0.00000000E+00
  0.00000000E+00  0.00000000E+00  0.00000000E+00
  0.00000000E+00  0.00000000E+00  0.00000000E+00
  0.00000000E+00  0.00000000E+00  0.00000000E+00
  0.00000000E+00  0.00000000E+00  0.00000000E+00
  0.00000000E+00  0.00000000E+00  0.00000000E+00
  0.00000000E+00  0.00000000E+00  0.00000000E+00
  0.00000000E+00  0.00000000E+00  0.00000000E+00
  0.00000000E+00  0.00000000E+00  0.00000000E+00
  0.00000000E+00  0.00000000E+00  0.00000000E+00
  0.00000000E+00  0.00000000E+00  0.00000000E+00
  0.00000000E+00  0.00000000E+00  0.00000000E+00
  0.00000000E+00  0.00000000E+00  0.00000000E+00
  0.00000000E+00  0.00000000E+00  0.00000000E+00
  0.00000000E+00  0.00000000E+00  0.00000000E+00
  0.00000000E+00  0.00000000E+00  0.00000000E+00
  0.00000000E+00  0.00000000E+00  0.00000000E+00
  0.00000000E+00  0.00000000E+00  0.00000000E+00
  0.00000000E+00  0.00000000E+00  0.00000000E+00
  0.00000000E+00  0.00000000E+00  0.00000000E+00
  0.00000000E+00  0.00000000E+00  0.00000000E+00
  0.00000000E+00  0.00000000E+00  0.00000000E+00
  0.00000000E+00  0.00000000E+00  0.00000000E+00
  0.00000000E+00  0.00000000E+00  0.00000000E+00
  0.00000000E+00  0.00000000E+00  0.00000000E+00
  0.00000000E+00  0.00000000E+00  0.00000000E+00
  0.00000000E+00  0.00000000E+00  0.00000000E+00
  0.00000000E+00  0.00000000E+00  0.00000000E+00
  0.00000000E+00  0.00000000E+00  0.00000000E+00
  0.00000000E+00  0.00000000E+00  0.00000000E+00
  0.00000000E+00  0.00000000E+00  0.00000000E+00
  0.00000000E+00  0.00000000E+00  0.00000000E+00
  0.00000000E+00  0.00000000E+00  0.00000000E+00
  0.00000000E+00  0.00000000E+00  0.00000000E+00
  0.00000000E+00  0.00000000E+00  0.00000000E+00
  0.00000000E+00  0.00000000E+00  0.00000000E+00
  0.00000000E+00  0.00000000E+00  0.00000000E+00
  0.00000000E+00  0.00000000E+00  0.00000000E+00
  0.00000000E+00  0.00000000E+00  0.00000000E+00
  0.00000000E+00  0.00000000E+00  0.00000000E+00
  0.00000000E+00  0.00000000E+00  0.00000000E+00
  0.00000000E+00  0.00000000E+00  0.00000000E+00
  0.00000000E+00  0.00000000E+00  0.00000000E+00
  0.00000000E+00  0.00000000E+00  0.00000000E+00
  0.00000000E+00  0.00000000E+00  0.00000000E+00
  0.00000000E+00  0.00000000E+00  0.00000000E+00
  0.00000000E+00  0.00000000E+00  0.00000000E+00
  0.00000000E+00  0.00000000E+00  0.00000000E+00
  0.00000000E+00  0.00000000E+00  0.00000000E+00
  0.00000000E+00  0.00000000E+00  0.00000000E+00
  0.00000000E+00  0.00000000E+00  0.00000000E+00
  0.00000000E+00  0.00000000E+00  0.00000000E+00
  0.00000000E+00  0.00000000E+00  0.00000000E+00
  0.00000000E+00  0.00000000E+00  0.00000000E+00
  0.00000000E+00  0.00000000E+00  0.00000000E+00
  0.00000000E+00  0.00000000E+00  0.00000000E+00
  0.00000000E+00  0.00000000E+00  0.00000000E+00
  0.00000000E+00  0.00000000E+00  0.00000000E+00
  0.00000000E+00  0.00000000E+00  0.00000000E+00
  0.00000000E+00  0.00000000E+00  0.00000000E+00
  0.00000000E+00  0.00000000E+00  0.00000000E+00
  0.00000000E+00  0.00000000E+00  0.00000000E+00
  0.00000000E+00  0.00000000E+00  0.00000000E+00
  0.00000000E+00  0.00000000E+00  0.00000000E+00
  0.00000000E+00  0.00000000E+00  0.00000000E+00
  0.00000000E+00  0.00000000E+00  0.00000000E+00
  0.00000000E+00  0.00000000E+00  0.00000000E+00
  0.00000000E+00  0.00000000E+00  0.00000000E+00
  0.00000000E+00  0.00000000E+00  0.00000000E+00
  0.00000000E+00  0.00000000E+00  0.00000000E+00
  0.00000000E+00  0.00000000E+00  0.00000000E+00
  0.00000000E+00  0.00000000E+00  0.00000000E+00
  0.00000000E+00  0.00000000E+00  0.00000000E+00
  0.00000000E+00  0.00000000E+00  0.00000000E+00
  0.00000000E+00  0.00000000E+00  0.00000000E+00
  0.00000000E+00  0.00000000E+00  0.00000000E+00
  0.00000000E+00  0.00000000E+00  0.00000000E+00
  0.00000000E+00  0.00000000E+00  0.00000000E+00
  0.00000000E+00  0.00000000E+00  0.00000000E+00
  0.00000000E+00  0.00000000E+00  0.00000000E+00
  0.00000000E+00  0.00000000E+00  0.00000000E+00
  0.00000000E+00  0.00000000E+00  0.00000000E+00
  0.00000000E+00  0.00000000E+00  0.00000000E+00
  0.00000000E+00  0.00000000E+00  0.00000000E+00
  0.00000000E+00  0.00000000E+00  0.00000000E+00
  0.00000000E+00  0.00000000E+00  0.00000000E+00
  0.00000000E+00  0.00000000E+00  0.00000000E+00
  0.00000000E+00  0.00000000E+00  0.00000000E+00
  0.00000000E+00  0.00000000E+00  0.00000000E+00
  0.00000000E+00  0.00000000E+00  0.00000000E+00
  0.00000000E+00  0.00000000E+00  0.00000000E+00
  0.00000000E+00  0.00000000E+00  0.00000000E+00
  0.00000000E+00  0.00000000E+00  0.00000000E+00
  0.00000000E+00  0.00000000E+00  0.00000000E+00
  0.00000000E+00  0.00000000E+00  0.00000000E+00
  0.00000000E+00  0.00000000E+00  0.00000000E+00
  0.00000000E+00  0.00000000E+00  0.00000000E+00
  0.00000000E+00  0.00000000E+00  0.00000000E+00
  0.00000000E+00  0.00000000E+00  0.00000000E+00
  0.00000000E+00  0.00000000E+00  0.00000000E+00
  0.00000000E+00  0.00000000E+00  0.00000000E+00
  0.00000000E+00  0.00000000E+00  0.00000000E+00
  0.00000000E+00  0.00000000E+00  0.00000000E+00
  0.00000000E+00  0.00000000E+00  0.00000000E+00
  0.00000000E+00  0.00000000E+00  0.00000000E+00
  0.00000000E+00  0.00000000E+00  0.00000000E+00
  0.00000000E+00  0.00000000E+00  0.00000000E+00
  0.00000000E+00  0.00000000E+00  0.00000000E+00
  0.00000000E+00  0.00000000E+00  0.00000000E+00
  0.00000000E+00  0.00000000E+00  0.00000000E+00
  0.00000000E+00  0.00000000E+00  0.00000000E+00
  0.00000000E+00  0.00000000E+00  0.00000000E+00
  0.00000000E+00  0.00000000E+00  0.00000000E+00
  0.00000000E+00  0.00000000E+00  0.00000000E+00
  0.00000000E+00  0.00000000E+00  0.00000000E+00
  0.00000000E+00  0.00000000E+00  0.00000000E+00
  0.00000000E+00  0.00000000E+00  0.00000000E+00
  0.00000000E+00  0.00000000E+00  0.00000000E+00
  0.00000000E+00  0.00000000E+00  0.00000000E+00
  0.00000000E+00  0.00000000E+00  0.00000000E+00
  0.00000000E+00  0.00000000E+00  0.00000000E+00
  0.00000000E+00  0.00000000E+00  0.00000000E+00
  0.00000000E+00  0.00000000E+00  0.00000000E+00
  0.00000000E+00  0.00000000E+00  0.00000000E+00
  0.00000000E+00  0.00000000E+00  0.00000000E+00
  0.00000000E+00  0.00000000E+00  0.00000000E+00
  0.00000000E+00  0.00000000E+00  0.00000000E+00
  0.00000000E+00  0.00000000E+00  0.00000000E+00
  0.00000000E+00  0.00000000E+00  0.00000000E+00
  0.00000000E+00  0.00000000E+00  0.00000000E+00
  0.00000000E+00  0.00000000E+00  0.00000000E+00
  0.00000000E+00  0.00000000E+00  0.00000000E+00
  0.00000000E+00  0.00000000E+00  0.00000000E+00
  0.00000000E+00  0.00000000E+00  0.00000000E+00
  0.00000000E+00  0.00000000E+00  0.00000000E+00
  0.00000000E+00  0.00000000E+00  0.00000000E+00
  0.00000000E+00  0.00000000E+00  0.00000000E+00
  0.00000000E+00  0.00000000E+00  0.00000000E+00
  0.00000000E+00  0.00000000E+00  0.00000000E+00
  0.00000000E+00  0.00000000E+00  0.00000000E+00
  0.00000000E+00  0.00000000E+00  0.00000000E+00
  0.00000000E+00  0.00000000E+00  0.00000000E+00
  0.00000000E+00  0.00000000E+00  0.00000000E+00
  0.00000000E+00  0.00000000E+00  0.00000000E+00
  0.00000000E+00  0.00000000E+00  0.00000000E+00
  0.00000000E+00  0.00000000E+00  0.00000000E+00
  0.00000000E+00  0.00000000E+00  0.00000000E+00
  0.00000000E+00  0.00000000E+00  0.00000000E+00
  0.00000000E+00  0.00000000E+00  0.00000000E+00
  0.00000000E+00  0.00000000E+00  0.00000000E+00
  0.00000000E+00  0.00000000E+00  0.00000000E+00
  0.00000000E+00  0.00000000E+00  0.00000000E+00
  0.00000000E+00  0.00000000E+00  0.00000000E+00
  0.00000000E+00  0.00000000E+00  0.00000000E+00
  0.00000000E+00  0.00000000E+00  0.00000000E+00
  0.00000000E+00  0.00000000E+00  0.00000000E+00
  0.00000000E+00  0.00000000E+00  0.00000000E+00
  0.00000000E+00  0.00000000E+00  0.00000000E+00
  0.00000000E+00  0.00000000E+00  0.00000000E+00
  0.00000000E+00  0.00000000E+00  0.00000000E+00
  0.00000000E+00  0.00000000E+00  0.00000000E+00
  0.00000000E+00  0.00000000E+00  0.00000000E+00
  0.00000000E+00  0.00000000E+00  0.00000000E+00
  0.00000000E+00  0.00000000E+00  0.00000000E+00
  0.00000000E+00  0.00000000E+00  0.00000000E+00
  0.00000000E+00  0.00000000E+00  0.00000000E+00
  0.00000000E+00  0.00000000E+00  0.00000000E+00
  0.00000000E+00  0.00000000E+00  0.00000000E+00
  0.00000000E+00  0.00000000E+00  0.00000000E+00
  0.00000000E+00  0.00000000E+00  0.00000000E+00
  0.00000000E+00  0.00000000E+00  0.00000000E+00
  0.00000000E+00  0.00000000E+00  0.00000000E+00
  0.00000000E+00  0.00000000E+00  0.00000000E+00
  0.00000000E+00  0.00000000E+00  0.00000000E+00
  0.00000000E+00  0.00000000E+00  0.00000000E+00
  0.00000000E+00  0.00000000E+00  0.00000000E+00
  0.00000000E+00  0.00000000E+00  0.00000000E+00
  0.00000000E+00  0.00000000E+00  0.00000000E+00
  0.00000000E+00  0.00000000E+00  0.00000000E+00
  0.00000000E+00  0.00000000E+00  0.00000000E+00
  0.00000000E+00  0.00000000E+00  0.00000000E+00
  0.00000000E+00  0.00000000E+00  0.00000000E+00
  0.00000000E+00  0.00000000E+00  0.00000000E+00
  0.00000000E+00  0.00000000E+00  0.00000000E+00
  0.00000000E+00  0.00000000E+00  0.00000000E+00
  0.00000000E+00  0.00000000E+00  0.00000000E+00
  0.00000000E+00  0.00000000E+00  0.00000000E+00
  0.00000000E+00  0.00000000E+00  0.00000000E+00
  0.00000000E+00  0.00000000E+00  0.00000000E+00
  0.00000000E+00  0.00000000E+00  0.00000000E+00
  0.00000000E+00  0.00000000E+00  0.00000000E+00
  0.00000000E+00  0.00000000E+00  0.00000000E+00
  0.00000000E+00  0.00000000E+00  0.00000000E+00
  0.00000000E+00  0.00000000E+00  0.00000000E+00
  0.00000000E+00  0.00000000E+00  0.00000000E+00
  0.00000000E+00  0.00000000E+00  0.00000000E+00
  0.00000000E+00  0.00000000E+00  0.00000000E+00
  0.00000000E+00  0.00000000E+00  0.00000000E+00
  0.00000000E+00  0.00000000E+00  0.00000000E+00
  0.00000000E+00  0.00000000E+00  0.00000000E+00
  0.00000000E+00  0.00000000E+00  0.00000000E+00
  0.00000000E+00  0.00000000E+00  0.00000000E+00
  0.00000000E+00  0.00000000E+00  0.00000000E+00
  0.00000000E+00  0.00000000E+00  0.00000000E+00
  0.00000000E+00  0.00000000E+00  0.00000000E+00
  0.00000000E+00  0.00000000E+00  0.00000000E+00
  0.00000000E+00  0.00000000E+00  0.00000000E+00
  0.00000000E+00  0.00000000E+00  0.00000000E+00
  0.00000000E+00  0.00000000E+00  0.00000000E+00
  0.00000000E+00  0.00000000E+00  0.00000000E+00
  0.00000000E+00  0.00000000E+00  0.00000000E+00
  0.00000000E+00  0.00000000E+00  0.00000000E+00
  0.00000000E+00  0.00000000E+00  0.00000000E+00
  0.00000000E+00  0.00000000E+00  0.00000000E+00
  0.00000000E+00  0.00000000E+00  0.00000000E+00
  0.00000000E+00  0.00000000E+00  0.00000000E+00
  0.00000000E+00  0.00000000E+00  0.00000000E+00
  0.00000000E+00  0.00000000E+00  0.00000000E+00
  0.00000000E+00  0.00000000E+00  0.00000000E+00
  0.00000000E+00  0.00000000E+00  0.00000000E+00
  0.00000000E+00  0.00000000E+00  0.00000000E+00
  0.00000000E+00  0.00000000E+00  0.00000000E+00
  0.00000000E+00  0.00000000E+00  0.00000000E+00
  0.00000000E+00  0.00000000E+00  0.00000000E+00
  0.00000000E+00  0.00000000E+00  0.00000000E+00
  0.00000000E+00  0.00000000E+00  0.00000000E+00
  0.00000000E+00  0.00000000E+00  0.00000000E+00
  0.00000000E+00  0.00000000E+00  0.00000000E+00
  0.00000000E+00  0.00000000E+00  0.00000000E+00
  0.00000000E+00  0.00000000E+00  0.00000000E+00
  0.00000000E+00  0.00000000E+00  0.00000000E+00
  0.00000000E+00  0.00000000E+00  0.00000000E+00
  0.00000000E+00  0.00000000E+00  0.00000000E+00
  0.00000000E+00  0.00000000E+00  0.00000000E+00