CuInSe2gb                               
   1.00000000000000     
     9.7266780392896699    0.0000000000000000    0.0000000000000000
     0.0000000000000000    8.4235502764570693    0.0000000000000000
     0.0000000000000000    0.0000000000000000   45.0000000000000000
   Fe   Mn
   274    14
Direct
  0.0618858231004468  0.0316348125788590  0.1243143187797214
  0.3164369101102841  0.8749886104265712  0.6551087059192919
  0.1850080162930437  0.1216534045220060  0.7881170653214594
  0.4416500405085907  0.2876007847492759  0.3892365247934172
  0.3173765670122080  0.7125322210343240  0.8327888502656039
  0.8175641002653646  0.2136054962868202  0.8333015695032713
  0.1912470070308304  0.9623516184712327  0.8331474097243360
  0.5623240879942304  0.2068896338063011  0.5654824995628462
  0.0655581965453656  0.0398013061995727  0.7438314189491411
  0.8112534438211749  0.8715902637659196  0.5212906481324309
  0.1909501810573363  0.2904427107569542  0.7437533975648998
  0.9340514666666589  0.4522645583578347  0.3449940829354017
  0.9407413766431135  0.2867927080379507  0.3891099020664369
  0.8130519660466838  0.0400147303980156  0.8754748116755078
  0.1831591509681485  0.7880897549157120  0.6110865996202645
  0.5660935553244348  0.0375058581098097  0.3892416334987444
  0.9417510384794887  0.9629561184842185  0.8334489752968299
  0.3142444067315758  0.5394763952186901  0.8757227322090643
  0.6901663730319900  0.2902660694499246  0.7437617743114057
  0.1827308504707250  0.6141351647203507  0.1666591776788049
  0.8115771991460395  0.2055624132462255  0.4785705937978176
  0.8090083602124608  0.5381513045505569  0.6110534118340748
  0.3121810593789466  0.8704245268684826  0.4346095280491678
  0.8093981109920517  0.0382947989535211  0.2561463229114979
  0.6836872309822578  0.9518625502238722  0.3449912831849132
  0.9314410398490850  0.1148770150841611  0.1671677055321768
  0.0617940898566873  0.8713982961139135  0.5212245746994956
  0.5590045153751715  0.5383212507148936  0.2560679989473040
  0.6848321146350550  0.7951205724090847  0.8754847928389961
  0.5563740005189096  0.3659284061356218  0.1667201556007349
  0.4397018849422525  0.7908698504517125  0.7438638487117017
  0.8115505935798134  0.7067240225210517  0.5655582490567197
  0.5600261801915434  0.8723830500376262  0.7881121333721033
  0.6863874115689549  0.1212122412773643  0.5212741215405341
  0.8161138495006647  0.3748618516366954  0.6550082379090078
  0.9418325007189812  0.4629165478645743  0.8334342512266215
  0.0606471102972051  0.2079651756148980  0.6994593929947698
  0.4353329857376776  0.9579705930420668  0.6994521521678342
  0.3166618315140786  0.2119085886217609  0.8332284301487440
  0.4415654064065775  0.6247730774204834  0.6551158605639342
  0.3086798533795221  0.5378330697476490  0.6110901412262809
  0.9363915619028759  0.4569737284641978  0.5656566978655746
  0.6897427332650985  0.7911335281226598  0.7438853731409937
  0.9334775486527198  0.7876328231236768  0.1246280610630384
  0.6913872892150880  0.7875484226608985  0.3891790060670233
  0.9406200696424190  0.7902201235029562  0.7440017273360725
  0.0591008793502889  0.2029112026240456  0.3450246308115218
  0.4368358813652614  0.6204117121466366  0.4345917198512592
  0.4350790041314715  0.1213397467776356  0.7884255416000258
  0.0648840171672568  0.2052679381518408  0.2117409097625702
  0.0554374009746044  0.3658614167330717  0.1667762537200000
  0.9337193329501478  0.7885358930151082  0.2558731775407930
  0.5604642916020081  0.2077505093624152  0.6994689850036044
  0.6848737096747712  0.9579849949937551  0.6994628310854956
  0.8100069721811961  0.8723217935291844  0.7880679139799434
  0.4372974599555724  0.9571246806480578  0.5653779311611876
  0.8105470861997606  0.3732751323874477  0.7880114148084914
  0.6840435803171134  0.2896231587136117  0.2561859877967743
  0.1869433127066134  0.4572903163694789  0.5655450947825945
  0.0563568961053902  0.8657545026649786  0.1668094547392558
  0.1834561795588384  0.2881357582143865  0.6111460161061848
  0.0622243668319504  0.2072446967864756  0.5654813363216705
  0.3106525565834899  0.2078045262467733  0.6995512470184323
  0.5635073372694359  0.5398042108838911  0.8756754228151215
  0.0612548663165139  0.7064193064708698  0.5655684077667572
  0.6850152336814539  0.6218991785855762  0.7880227065743808
  0.3162330146342465  0.5377392224039035  0.3891110887632147
  0.1867180398116890  0.6216480135649403  0.5212266234788584
  0.5617936204211139  0.8706854877464525  0.4345781499608780
  0.4372873734467716  0.4570828016771941  0.5655271855179200
  0.4397669533396468  0.2908797106627123  0.7438302807690687
  0.8190937513139053  0.8747555993901470  0.3004890972555934
  0.8086252189950440  0.7029616346344968  0.3451793571804120
  0.4413315968662362  0.4622566803657366  0.8331353249159825
  0.6869003012521989  0.9557088700500120  0.4785211333985034
  0.6848830131035827  0.4579151990105634  0.6994820882007506
  0.5621012374059380  0.8723290883001449  0.5212421475731261
  0.5665818790835544  0.3746063934023656  0.6550840813956796
  0.8160556224334230  0.8749527407301529  0.6550283645400305
  0.8117790312493107  0.3715018585789027  0.4342884694805449
  0.8089111276657480  0.5381768851936779  0.2562980437665904
  0.6917294463241870  0.4615372006581892  0.8330013399463361
  0.1864442866995361  0.7880048797270592  0.1242796077231658
  0.6909708723243745  0.2873193102534265  0.3892527900565055
  0.3163112876383775  0.3745136250776495  0.6550831350672576
  0.3096575416601264  0.2026288022925618  0.3450453440034379
  0.8154817458200327  0.5399287250185441  0.7437896333349110
  0.6913851795201518  0.9617508193892483  0.8331195921496840
  0.5665112265190084  0.8746658059057884  0.6551211651521174
  0.3119156177274400  0.7069351038428338  0.5654428707945039
  0.3124514276678323  0.5317173714131166  0.1242073954032820
  0.6894374100576918  0.9553016174082424  0.2120534213136772
  0.3116588565814055  0.2065451572881122  0.5654424213129925
  0.1877649160101908  0.9554630611627458  0.4785047219741029
  0.6874555373319527  0.9568931048092937  0.5654772314597440
  0.4341855139830452  0.7880580382315500  0.6110947399830257
  0.6825490336637178  0.6122129412414448  0.1666952148625575
  0.3189335590182028  0.8741896847077244  0.3003140685831970
  0.3122804218030334  0.7060296860878190  0.4784307646528436
  0.9336885908441753  0.2881403430555275  0.6110900736999916
  0.4446370130328507  0.6245782333937697  0.3005629190751777
  0.8067238729760086  0.8642261617489885  0.1671773735576447
  0.5663221455632285  0.2039589327308518  0.2118832709758148
  0.9328287732157439  0.6126897772793640  0.1667883831705771
  0.4370766258984504  0.9554821283813694  0.4784807723576077
  0.5603175483960399  0.3717856285424642  0.7881620414080719
  0.0614453441234249  0.3722476441269261  0.5212747887024483
  0.3071469694326968  0.3648348655684591  0.1668355289236944
  0.6945109009679428  0.1243805747951414  0.3005246852761176
  0.4424501771135958  0.9615811445232998  0.8329974875008588
  0.1849627792516390  0.2871888165431971  0.1244851519180817
  0.1841878066333450  0.2891642247287919  0.2561590950926420
  0.3122760019343705  0.3702837151771739  0.4345608770663432
  0.5619451426495733  0.0330279354426333  0.1245148173027986
  0.4340041405432633  0.2880480125527876  0.6110779437325490
  0.1841759350755723  0.4531695319124527  0.3451121083208620
  0.4345170159071380  0.2869571905142145  0.1244847594262600
  0.6840031487573069  0.7894257932436186  0.2560201570895985
  0.4366811357217033  0.1211674794497327  0.5211787173122985
  0.1884311057131031  0.2945070646390034  0.8757158128765347
  0.1911835961794592  0.1248524890532288  0.6551016026487350
  0.9412274139304313  0.1247474928162308  0.6549771232180774
  0.8162804297358222  0.5376638181725459  0.3892446997305275
  0.0664741413424526  0.0375365812094644  0.3892890404069223
  0.1833801751321765  0.1122165756289969  0.1666342308439408
  0.0583276194494320  0.5378131140718337  0.6110717537072478
  0.9346472915103691  0.2896195201981343  0.2561059180856596
  0.5592659574540121  0.5380573320532389  0.6110540750182727
  0.9366388415265091  0.9566565097225744  0.5655270473193799
  0.6936538402617007  0.6249168120248542  0.3004283777040503
  0.9378609325805939  0.6207608587147340  0.4344934013286539
  0.9342137597421459  0.6231268253310811  0.7878562623763757
  0.5604419464985773  0.7076689755840653  0.6994675667569392
  0.0660300628197949  0.7149124233088091  0.8335383545885608
  0.9445668932436937  0.1238695514535760  0.3003744862751577
  0.9336057148188447  0.7876430493994163  0.6111084420000712
  0.4339588398043828  0.7895042674265544  0.2561529380523789
  0.3106821162367557  0.3717577403772734  0.7880453301358269
  0.4399149310863923  0.4556056515910309  0.2118712301057513
  0.1870456845271960  0.1210787979566817  0.5211788600330083
  0.8102452869100812  0.7080028511038818  0.6994124323674430
  0.0582524359570456  0.0380104996693109  0.6111140870065519
  0.5657914460231077  0.2128336833246534  0.8329526894013082
  0.3114670308843331  0.8719354587292052  0.5211229890522076
  0.6860901966636518  0.2871448210668746  0.1243309238116306
  0.1900788316042961  0.9561132452937406  0.2120445630927957
  0.6839922773874502  0.2880832600812825  0.6111242830272522
  0.3085873096877683  0.0380451422321190  0.6111900986301836
  0.9354953973905487  0.1227608423193739  0.7881563591436893
  0.4371027194174608  0.7947765931821854  0.8756559592418480
  0.8153606968437868  0.0403769770891533  0.7437321554540952
  0.9350852091227113  0.4580126821688502  0.6994862299206600
  0.1912002260448437  0.6249577114682519  0.6550875002551431
  0.3105249667134518  0.7077939967041212  0.6995382631424027
  0.9342247901035201  0.2871887033263493  0.1243952885811801
  0.4370440307681099  0.4558539822953743  0.4784168716137090
  0.0628912483685491  0.7059565052597030  0.4784050258320826
  0.9370932657814089  0.1200665589345931  0.4346310266839631
  0.4436727809567069  0.1247506592796899  0.3005087943496719
  0.1878785895395440  0.1198658077324811  0.4344183345317251
  0.5636683387652840  0.0393932904205745  0.8757951474187250
  0.1868048454311931  0.9570677151887329  0.5654223857827002
  0.6839528275573727  0.7879560438037911  0.1247045574797369
  0.5591962665455970  0.7031197773678798  0.3451446533294096
  0.3162649952201476  0.0367696723290247  0.3892314242420454
  0.6823935598365419  0.1146449920917220  0.1671187390853789
  0.8147625624391337  0.2052571964419411  0.2117620547542072
  0.0598154463718693  0.5386276705436985  0.2559871223482439
  0.5618281716861370  0.7059591566618824  0.4784218586885509
  0.4347017156879975  0.7874761425791211  0.1244678129815041
  0.5686331579623390  0.3744947856672068  0.3004563737251406
  0.4336289770736488  0.9524861437665317  0.3451896939258607
  0.1854083318498739  0.9581906387648775  0.6995969225475944
  0.4318760900619617  0.6141311971906863  0.1666455344915477
  0.9399111325222939  0.4554457182128154  0.2120424542278581
  0.0616412887698757  0.5313148596331480  0.1242336821029205
  0.8115167813695074  0.3717390938826557  0.5213114704404114
  0.9440244835537531  0.6243053547274029  0.3002249764054428
  0.3096383076180287  0.0381816486678778  0.2559654531544412
  0.6842364479394384  0.7879430716790105  0.6110689368541075
  0.1916581597703347  0.4626237212606712  0.8331580080318753
  0.4321874890821298  0.1124894751651906  0.1666137279597237
  0.3114135994670763  0.3712111448982618  0.5211615869253555
  0.4343740088399126  0.6219779723702415  0.7883514610262408
  0.0589139365075014  0.0381985675841589  0.2561329914041516
  0.5621310999379894  0.7068300294590800  0.5655926633270231
  0.9401851724359295  0.2895670575251272  0.7438690625554274
  0.6835454947627232  0.1222608985803071  0.7881523592969046
  0.1895564085058914  0.4548903699206361  0.2116897268810848
  0.9410263400286937  0.7876225203160417  0.3892481289885513
  0.6861787989389612  0.2969729345951983  0.8757678544980305
  0.5554186677660553  0.8648283134351329  0.1666149378511803
  0.4356013315235225  0.4577893453616781  0.6994747814906978
  0.9344276517796597  0.9514797583599299  0.3449433236480940
  0.6865522512859324  0.6216449598753379  0.5212238248554347
  0.0661778806466422  0.8749121081029917  0.6550117260054436
  0.0604370519848157  0.8731305298452315  0.7880677760301881
  0.0661507070405209  0.3746808153134080  0.6550146490192540
  0.6869002512483616  0.4556215750534081  0.4784645602190147
  0.1845215403419815  0.7895199185806412  0.2560300360103638
  0.4369723935678795  0.1203383764946678  0.4344517418762268
  0.8130967399385951  0.0319839557957246  0.1242702625576774
  0.9364172941374345  0.6217525945735518  0.5213448465840498
  0.4416132012576907  0.1246894934849799  0.6550936995708142
  0.8125669950467608  0.5308918325564550  0.1243171249380350
  0.4340110913334442  0.4524546050025573  0.3451458409557268
  0.8090887484318005  0.2027080794060434  0.3450714132264588
  0.3095501870929767  0.7027913653577340  0.3450415684881775
  0.6911615068247686  0.1247232815060962  0.6551022509482211
  0.5689894178671301  0.8742430342351410  0.3005740015679536
  0.0655780974329063  0.5397839355517475  0.7438191748268388
  0.9404146476029702  0.9551520317289299  0.2117797227628895
  0.8162643224452987  0.7054327402715751  0.2118775274046454
  0.0691226536458583  0.8743702987319563  0.3005219398172367
  0.1943044913194253  0.1245813248099464  0.3005095497080245
  0.0590006369484026  0.7027353377567339  0.3451294396183613
  0.8089875413066443  0.0378165154658564  0.6111318036348653
  0.0624411842931477  0.3707883176268351  0.4344552001578894
  0.5593898786106738  0.2028268366259615  0.3451709250271105
  0.8194820098439939  0.3742325584568438  0.3002694809574483
  0.5593116146800896  0.0387507352358545  0.2559142679658330
  0.5660355984290060  0.5376405461939554  0.3892839459357182
  0.0631983212338837  0.2055201225743589  0.4785167978307143
  0.3111942925249163  0.8717635569397680  0.7878960256697710
  0.9352619894768510  0.9583189276467615  0.6994574191113716
  0.0689360398972647  0.3748345706320590  0.3004596345331255
  0.6911479237964718  0.6250395168508575  0.6550926270999691
  0.6872202567632341  0.4572928632677892  0.5655212999245856
  0.4397022945652288  0.9562609540336456  0.2122869741805321
  0.3123822920698656  0.2051281494104967  0.4785155685644743
  0.8134237448665668  0.5393064310980821  0.8756328543727833
  0.6874396433344491  0.6203698188550515  0.4344769570832008
  0.8103732914055295  0.2077277855405661  0.6995088653229398
  0.8120399705731987  0.7059589360857139  0.4785240943831706
  0.8116938150689247  0.8711497707821125  0.4343330814682420
  0.9373266285183396  0.9549796041594145  0.4785675815523431
  0.5619712552293454  0.2052744342547086  0.4785087271972377
  0.1871377570430915  0.6205206144719063  0.4345101990220063
  0.3152433141031815  0.0407094594767258  0.7437380208288992
  0.9411810259325789  0.6253089714419359  0.6549508911529650
  0.5661678388839141  0.7127754151611125  0.8330495962898107
  0.3192317665053209  0.3736386175010857  0.3004840015654812
  0.5648632426104216  0.7044728708443937  0.2118039782977773
  0.1876846287533415  0.4559198829897122  0.4784899629912724
  0.3147993731251268  0.0405170439156788  0.8755511263164721
  0.1850846869290185  0.4579122517820490  0.6995020089408522
  0.5619131200065872  0.3710764621835526  0.5212228004455048
  0.1911574653238812  0.2876177149311817  0.3892595765376595
  0.3152672618675524  0.2057477717849431  0.2117831190129950
  0.0669429860585947  0.7054912344949195  0.2117988344212823
  0.5620363169630949  0.3706512353075602  0.4345069846177202
  0.4365779667165693  0.6219083088461468  0.5211817423831016
  0.8167983648003622  0.7141231922389513  0.8329768963015285
  0.0609403831893696  0.3729581721749076  0.7879847291806654
  0.4367627572484301  0.2959989191672813  0.8760031429618975
  0.3117785933967796  0.0318424311191384  0.1243886173559985
  0.6873218414308336  0.1193424308052360  0.4344632737866992
  0.1841646808152870  0.9526591695495189  0.3451657714380125
  0.0665863263359220  0.2135862522767550  0.8334871275857371
  0.5594380852189599  0.0379165065949589  0.6111409631528402
  0.6893548071999518  0.4555555457794156  0.2120462410860830
  0.1904273957825467  0.7903885245391593  0.7438297894633275
  0.1939219193137872  0.6245703407993337  0.3005373483801921
  0.4412295953958590  0.7878794651615824  0.3892529891814073
  0.4339097824495982  0.2893941607579576  0.2561145149778860
  0.0647480663890710  0.5391865697749881  0.8755355724612791
  0.5656185280727020  0.0405022034604373  0.7437474153266930
  0.1877737491444061  0.7944878598061725  0.8756574290997317
  0.9372969732094737  0.4556295869829924  0.4785292906177742
  0.5653367282814939  0.5405906579656956  0.7436641031626625
  0.8109896821066921  0.2069309196778100  0.5655227545755562
  0.1854435635567345  0.6212316235211747  0.7879604151552825
  0.0669006422964145  0.5381374065342409  0.3892028336342573
  0.0606972113432191  0.7079298152983385  0.6994751940230818
  0.3085687482574967  0.5385156499764082  0.2557922515174926
  0.3153657506818581  0.7043670665183676  0.2123696571883200
  0.3056347235507145  0.8653270993095176  0.1661790406394820
  0.6831601379815351  0.4523511098650036  0.3453131027822813
  0.8172392129595911  0.0381833298527309  0.3893903615450879
  0.9353968977935074  0.2958231329552756  0.8753833207060164
  0.9374000733348898  0.7931288192805871  0.8752829580599012
  0.0652956798828957  0.0380716184392281  0.8754157675840113
  0.5626349282844083  0.5304132166291727  0.1247591624205786
  0.8051983031310768  0.3666414263789008  0.1664108513339471
  0.0619126668177710  0.8711686558210383  0.4345036983054952
  0.9362234013268093  0.1211833127734976  0.5212515509862160
  0.1920092157909550  0.7882768240442414  0.3892319630782879
  0.3155000372086360  0.5400662948753407  0.7438769742124584
 
  0.00000000E+00  0.00000000E+00  0.00000000E+00
  0.00000000E+00  0.00000000E+00  0.00000000E+00
  0.00000000E+00  0.00000000E+00  0.00000000E+00
  0.00000000E+00  0.00000000E+00  0.00000000E+00
  0.00000000E+00  0.00000000E+00  0.00000000E+00
  0.00000000E+00  0.00000000E+00  0.00000000E+00
  0.00000000E+00  0.00000000E+00  0.00000000E+00
  0.00000000E+00  0.00000000E+00  0.00000000E+00
  0.00000000E+00  0.00000000E+00  0.00000000E+00
  0.00000000E+00  0.00000000E+00  0.00000000E+00
  0.00000000E+00  0.00000000E+00  0.00000000E+00
  0.00000000E+00  0.00000000E+00  0.00000000E+00
  0.00000000E+00  0.00000000E+00  0.00000000E+00
  0.00000000E+00  0.00000000E+00  0.00000000E+00
  0.00000000E+00  0.00000000E+00  0.00000000E+00
  0.00000000E+00  0.00000000E+00  0.00000000E+00
  0.00000000E+00  0.00000000E+00  0.00000000E+00
  0.00000000E+00  0.00000000E+00  0.00000000E+00
  0.00000000E+00  0.00000000E+00  0.00000000E+00
  0.00000000E+00  0.00000000E+00  0.00000000E+00
  0.00000000E+00  0.00000000E+00  0.00000000E+00
  0.00000000E+00  0.00000000E+00  0.00000000E+00
  0.00000000E+00  0.00000000E+00  0.00000000E+00
  0.00000000E+00  0.00000000E+00  0.00000000E+00
  0.00000000E+00  0.00000000E+00  0.00000000E+00
  0.00000000E+00  0.00000000E+00  0.00000000E+00
  0.00000000E+00  0.00000000E+00  0.00000000E+00
  0.00000000E+00  0.00000000E+00  0.00000000E+00
  0.00000000E+00  0.00000000E+00  0.00000000E+00
  0.00000000E+00  0.00000000E+00  0.00000000E+00
  0.00000000E+00  0.00000000E+00  0.00000000E+00
  0.00000000E+00  0.00000000E+00  0.00000000E+00
  0.00000000E+00  0.00000000E+00  0.00000000E+00
  0.00000000E+00  0.00000000E+00  0.00000000E+00
  0.00000000E+00  0.00000000E+00  0.00000000E+00
  0.00000000E+00  0.00000000E+00  0.00000000E+00
  0.00000000E+00  0.00000000E+00  0.00000000E+00
  0.00000000E+00  0.00000000E+00  0.00000000E+00
  0.00000000E+00  0.00000000E+00  0.00000000E+00
  0.00000000E+00  0.00000000E+00  0.00000000E+00
  0.00000000E+00  0.00000000E+00  0.00000000E+00
  0.00000000E+00  0.00000000E+00  0.00000000E+00
  0.00000000E+00  0.00000000E+00  0.00000000E+00
  0.00000000E+00  0.00000000E+00  0.00000000E+00
  0.00000000E+00  0.00000000E+00  0.00000000E+00
  0.00000000E+00  0.00000000E+00  0.00000000E+00
  0.00000000E+00  0.00000000E+00  0.00000000E+00
  0.00000000E+00  0.00000000E+00  0.00000000E+00
  0.00000000E+00  0.00000000E+00  0.00000000E+00
  0.00000000E+00  0.00000000E+00  0.00000000E+00
  0.00000000E+00  0.00000000E+00  0.00000000E+00
  0.00000000E+00  0.00000000E+00  0.00000000E+00
  0.00000000E+00  0.00000000E+00  0.00000000E+00
  0.00000000E+00  0.00000000E+00  0.00000000E+00
  0.00000000E+00  0.00000000E+00  0.00000000E+00
  0.00000000E+00  0.00000000E+00  0.00000000E+00
  0.00000000E+00  0.00000000E+00  0.00000000E+00
  0.00000000E+00  0.00000000E+00  0.00000000E+00
  0.00000000E+00  0.00000000E+00  0.00000000E+00
  0.00000000E+00  0.00000000E+00  0.00000000E+00
  0.00000000E+00  0.00000000E+00  0.00000000E+00
  0.00000000E+00  0.00000000E+00  0.00000000E+00
  0.00000000E+00  0.00000000E+00  0.00000000E+00
  0.00000000E+00  0.00000000E+00  0.00000000E+00
  0.00000000E+00  0.00000000E+00  0.00000000E+00
  0.00000000E+00  0.00000000E+00  0.00000000E+00
  0.00000000E+00  0.00000000E+00  0.00000000E+00
  0.00000000E+00  0.00000000E+00  0.00000000E+00
  0.00000000E+00  0.00000000E+00  0.00000000E+00
  0.00000000E+00  0.00000000E+00  0.00000000E+00
  0.00000000E+00  0.00000000E+00  0.00000000E+00
  0.00000000E+00  0.00000000E+00  0.00000000E+00
  0.00000000E+00  0.00000000E+00  0.00000000E+00
  0.00000000E+00  0.00000000E+00  0.00000000E+00
  0.00000000E+00  0.00000000E+00  0.00000000E+00
  0.00000000E+00  0.00000000E+00  0.00000000E+00
  0.00000000E+00  0.00000000E+00  0.00000000E+00
  0.00000000E+00  0.00000000E+00  0.00000000E+00
  0.00000000E+00  0.00000000E+00  0.00000000E+00
  0.00000000E+00  0.00000000E+00  0.00000000E+00
  0.00000000E+00  0.00000000E+00  0.00000000E+00
  0.00000000E+00  0.00000000E+00  0.00000000E+00
  0.00000000E+00  0.00000000E+00  0.00000000E+00
  0.00000000E+00  0.00000000E+00  0.00000000E+00
  0.00000000E+00  0.00000000E+00  0.00000000E+00
  0.00000000E+00  0.00000000E+00  0.00000000E+00
  0.00000000E+00  0.00000000E+00  0.00000000E+00
  0.00000000E+00  0.00000000E+00  0.00000000E+00
  0.00000000E+00  0.00000000E+00  0.00000000E+00
  0.00000000E+00  0.00000000E+00  0.00000000E+00
  0.00000000E+00  0.00000000E+00  0.00000000E+00
  0.00000000E+00  0.00000000E+00  0.00000000E+00
  0.00000000E+00  0.00000000E+00  0.00000000E+00
  0.00000000E+00  0.00000000E+00  0.00000000E+00
  0.00000000E+00  0.00000000E+00  0.00000000E+00
  0.00000000E+00  0.00000000E+00  0.00000000E+00
  0.00000000E+00  0.00000000E+00  0.00000000E+00
  0.00000000E+00  0.00000000E+00  0.00000000E+00
  0.00000000E+00  0.00000000E+00  0.00000000E+00
  0.00000000E+00  0.00000000E+00  0.00000000E+00
  0.00000000E+00  0.00000000E+00  0.00000000E+00
  0.00000000E+00  0.00000000E+00  0.00000000E+00
  0.00000000E+00  0.00000000E+00  0.00000000E+00
  0.00000000E+00  0.00000000E+00  0.00000000E+00
  0.00000000E+00  0.00000000E+00  0.00000000E+00
  0.00000000E+00  0.00000000E+00  0.00000000E+00
  0.00000000E+00  0.00000000E+00  0.00000000E+00
  0.00000000E+00  0.00000000E+00  0.00000000E+00
  0.00000000E+00  0.00000000E+00  0.00000000E+00
  0.00000000E+00  0.00000000E+00  0.00000000E+00
  0.00000000E+00  0.00000000E+00  0.00000000E+00
  0.00000000E+00  0.00000000E+00  0.00000000E+00
  0.00000000E+00  0.00000000E+00  0.00000000E+00
  0.00000000E+00  0.00000000E+00  0.00000000E+00
  0.00000000E+00  0.00000000E+00  0.00000000E+00
  0.00000000E+00  0.00000000E+00  0.00000000E+00
  0.00000000E+00  0.00000000E+00  0.00000000E+00
  0.00000000E+00  0.00000000E+00  0.00000000E+00
  0.00000000E+00  0.00000000E+00  0.00000000E+00
  0.00000000E+00  0.00000000E+00  0.00000000E+00
  0.00000000E+00  0.00000000E+00  0.00000000E+00
  0.00000000E+00  0.00000000E+00  0.00000000E+00
  0.00000000E+00  0.00000000E+00  0.00000000E+00
  0.00000000E+00  0.00000000E+00  0.00000000E+00
  0.00000000E+00  0.00000000E+00  0.00000000E+00
  0.00000000E+00  0.00000000E+00  0.00000000E+00
  0.00000000E+00  0.00000000E+00  0.00000000E+00
  0.00000000E+00  0.00000000E+00  0.00000000E+00
  0.00000000E+00  0.00000000E+00  0.00000000E+00
  0.00000000E+00  0.00000000E+00  0.00000000E+00
  0.00000000E+00  0.00000000E+00  0.00000000E+00
  0.00000000E+00  0.00000000E+00  0.00000000E+00
  0.00000000E+00  0.00000000E+00  0.00000000E+00
  0.00000000E+00  0.00000000E+00  0.00000000E+00
  0.00000000E+00  0.00000000E+00  0.00000000E+00
  0.00000000E+00  0.00000000E+00  0.00000000E+00
  0.00000000E+00  0.00000000E+00  0.00000000E+00
  0.00000000E+00  0.00000000E+00  0.00000000E+00
  0.00000000E+00  0.00000000E+00  0.00000000E+00
  0.00000000E+00  0.00000000E+00  0.00000000E+00
  0.00000000E+00  0.00000000E+00  0.00000000E+00
  0.00000000E+00  0.00000000E+00  0.00000000E+00
  0.00000000E+00  0.00000000E+00  0.00000000E+00
  0.00000000E+00  0.00000000E+00  0.00000000E+00
  0.00000000E+00  0.00000000E+00  0.00000000E+00
  0.00000000E+00  0.00000000E+00  0.00000000E+00
  0.00000000E+00  0.00000000E+00  0.00000000E+00
  0.00000000E+00  0.00000000E+00  0.00000000E+00
  0.00000000E+00  0.00000000E+00  0.00000000E+00
  0.00000000E+00  0.00000000E+00  0.00000000E+00
  0.00000000E+00  0.00000000E+00  0.00000000E+00
  0.00000000E+00  0.00000000E+00  0.00000000E+00
  0.00000000E+00  0.00000000E+00  0.00000000E+00
  0.00000000E+00  0.00000000E+00  0.00000000E+00
  0.00000000E+00  0.00000000E+00  0.00000000E+00
  0.00000000E+00  0.00000000E+00  0.00000000E+00
  0.00000000E+00  0.00000000E+00  0.00000000E+00
  0.00000000E+00  0.00000000E+00  0.00000000E+00
  0.00000000E+00  0.00000000E+00  0.00000000E+00
  0.00000000E+00  0.00000000E+00  0.00000000E+00
  0.00000000E+00  0.00000000E+00  0.00000000E+00
  0.00000000E+00  0.00000000E+00  0.00000000E+00
  0.00000000E+00  0.00000000E+00  0.00000000E+00
  0.00000000E+00  0.00000000E+00  0.00000000E+00
  0.00000000E+00  0.00000000E+00  0.00000000E+00
  0.00000000E+00  0.00000000E+00  0.00000000E+00
  0.00000000E+00  0.00000000E+00  0.00000000E+00
  0.00000000E+00  0.00000000E+00  0.00000000E+00
  0.00000000E+00  0.00000000E+00  0.00000000E+00
  0.00000000E+00  0.00000000E+00  0.00000000E+00
  0.00000000E+00  0.00000000E+00  0.00000000E+00
  0.00000000E+00  0.00000000E+00  0.00000000E+00
  0.00000000E+00  0.00000000E+00  0.00000000E+00
  0.00000000E+00  0.00000000E+00  0.00000000E+00
  0.00000000E+00  0.00000000E+00  0.00000000E+00
  0.00000000E+00  0.00000000E+00  0.00000000E+00
  0.00000000E+00  0.00000000E+00  0.00000000E+00
  0.00000000E+00  0.00000000E+00  0.00000000E+00
  0.00000000E+00  0.00000000E+00  0.00000000E+00
  0.00000000E+00  0.00000000E+00  0.00000000E+00
  0.00000000E+00  0.00000000E+00  0.00000000E+00
  0.00000000E+00  0.00000000E+00  0.00000000E+00
  0.00000000E+00  0.00000000E+00  0.00000000E+00
  0.00000000E+00  0.00000000E+00  0.00000000E+00
  0.00000000E+00  0.00000000E+00  0.00000000E+00
  0.00000000E+00  0.00000000E+00  0.00000000E+00
  0.00000000E+00  0.00000000E+00  0.00000000E+00
  0.00000000E+00  0.00000000E+00  0.00000000E+00
  0.00000000E+00  0.00000000E+00  0.00000000E+00
  0.00000000E+00  0.00000000E+00  0.00000000E+00
  0.00000000E+00  0.00000000E+00  0.00000000E+00
  0.00000000E+00  0.00000000E+00  0.00000000E+00
  0.00000000E+00  0.00000000E+00  0.00000000E+00
  0.00000000E+00  0.00000000E+00  0.00000000E+00
  0.00000000E+00  0.00000000E+00  0.00000000E+00
  0.00000000E+00  0.00000000E+00  0.00000000E+00
  0.00000000E+00  0.00000000E+00  0.00000000E+00
  0.00000000E+00  0.00000000E+00  0.00000000E+00
  0.00000000E+00  0.00000000E+00  0.00000000E+00
  0.00000000E+00  0.00000000E+00  0.00000000E+00
  0.00000000E+00  0.00000000E+00  0.00000000E+00
  0.00000000E+00  0.00000000E+00  0.00000000E+00
  0.00000000E+00  0.00000000E+00  0.00000000E+00
  0.00000000E+00  0.00000000E+00  0.00000000E+00
  0.00000000E+00  0.00000000E+00  0.00000000E+00
  0.00000000E+00  0.00000000E+00  0.00000000E+00
  0.00000000E+00  0.00000000E+00  0.00000000E+00
  0.00000000E+00  0.00000000E+00  0.00000000E+00
  0.00000000E+00  0.00000000E+00  0.00000000E+00
  0.00000000E+00  0.00000000E+00  0.00000000E+00
  0.00000000E+00  0.00000000E+00  0.00000000E+00
  0.00000000E+00  0.00000000E+00  0.00000000E+00
  0.00000000E+00  0.00000000E+00  0.00000000E+00
  0.00000000E+00  0.00000000E+00  0.00000000E+00
  0.00000000E+00  0.00000000E+00  0.00000000E+00
  0.00000000E+00  0.00000000E+00  0.00000000E+00
  0.00000000E+00  0.00000000E+00  0.00000000E+00
  0.00000000E+00  0.00000000E+00  0.00000000E+00
  0.00000000E+00  0.00000000E+00  0.00000000E+00
  0.00000000E+00  0.00000000E+00  0.00000000E+00
  0.00000000E+00  0.00000000E+00  0.00000000E+00
  0.00000000E+00  0.00000000E+00  0.00000000E+00
  0.00000000E+00  0.00000000E+00  0.00000000E+00
  0.00000000E+00  0.00000000E+00  0.00000000E+00
  0.00000000E+00  0.00000000E+00  0.00000000E+00
  0.00000000E+00  0.00000000E+00  0.00000000E+00
  0.00000000E+00  0.00000000E+00  0.00000000E+00
  0.00000000E+00  0.00000000E+00  0.00000000E+00
  0.00000000E+00  0.00000000E+00  0.00000000E+00
  0.00000000E+00  0.00000000E+00  0.00000000E+00
  0.00000000E+00  0.00000000E+00  0.00000000E+00
  0.00000000E+00  0.00000000E+00  0.00000000E+00
  0.00000000E+00  0.00000000E+00  0.00000000E+00
  0.00000000E+00  0.00000000E+00  0.00000000E+00
  0.00000000E+00  0.00000000E+00  0.00000000E+00
  0.00000000E+00  0.00000000E+00  0.00000000E+00
  0.00000000E+00  0.00000000E+00  0.00000000E+00
  0.00000000E+00  0.00000000E+00  0.00000000E+00
  0.00000000E+00  0.00000000E+00  0.00000000E+00
  0.00000000E+00  0.00000000E+00  0.00000000E+00
  0.00000000E+00  0.00000000E+00  0.00000000E+00
  0.00000000E+00  0.00000000E+00  0.00000000E+00
  0.00000000E+00  0.00000000E+00  0.00000000E+00
  0.00000000E+00  0.00000000E+00  0.00000000E+00
  0.00000000E+00  0.00000000E+00  0.00000000E+00
  0.00000000E+00  0.00000000E+00  0.00000000E+00
  0.00000000E+00  0.00000000E+00  0.00000000E+00