CuInSe2gb                               
   1.00000000000000     
     9.7266780392896699    0.0000000000000000    0.0000000000000000
     0.0000000000000000    8.4235502764570693    0.0000000000000000
     0.0000000000000000    0.0000000000000000   45.0000000000000000
   Fe   Mn
   274    14
Direct
  0.0618399177112985  0.0311157008074423  0.1243641432471945
  0.3165868218273450  0.8749573665339000  0.6548645198552808
  0.1848387033588197  0.1216117908194446  0.7882802139352281
  0.4415707838722321  0.2877191755955588  0.3890943024763927
  0.3176994889691799  0.7125915450069386  0.8327931196251640
  0.8177032990186205  0.2139095697067688  0.8333638583979139
  0.1912736225569465  0.9626799108346714  0.8333013161240105
  0.5621460322917758  0.2071001328392662  0.5655068768229825
  0.0655582760125692  0.0397660969929653  0.7439629422436261
  0.8115397369621590  0.8714237640542695  0.5213402542867569
  0.1910353089065821  0.2904920840801345  0.7439150535981534
  0.9336967250811375  0.4521205028098712  0.3449182821081152
  0.9409664029266219  0.2865891053060829  0.3889599387422567
  0.8131398799820613  0.0397794207689300  0.8754264707990841
  0.1835559321079436  0.7880473679597613  0.6108638433502366
  0.5664279342387248  0.0376453169237713  0.3891004987000927
  0.9417291143617686  0.9631991487688745  0.8335675309646235
  0.3143290534071003  0.5388966070221166  0.8757884625135649
  0.6905789712206274  0.2902767233073210  0.7439275229192864
  0.1823553335008690  0.6138522549234607  0.1666866026473348
  0.8121552697473232  0.2056953493200010  0.4787113957838207
  0.8087487271645051  0.5379391221996288  0.6109037230681432
  0.3121062463952978  0.8703101904302121  0.4345072214443913
  0.8092308310920394  0.0382909362794961  0.2561405380788687
  0.6836619350332146  0.9516590223992544  0.3448885994484271
  0.9312758731588423  0.1145008550426048  0.1672434263319501
  0.0615986118858576  0.8713278318696999  0.5213578886064375
  0.5588368342401390  0.5382393441482597  0.2560459192441106
  0.6846351903536496  0.7954011343197243  0.8754643260716976
  0.5562666483070084  0.3657390633595262  0.1667603825103361
  0.4399106481261250  0.7907899039686576  0.7440528533147130
  0.8116238563463916  0.7067644535446923  0.5654645863315898
  0.5599657798963605  0.8722188084588536  0.7882929273745500
  0.6866393765614808  0.1214615209834806  0.5213786749049124
  0.8164879762563373  0.3749320454113871  0.6548928803027875
  0.9415665815346594  0.4628255739466488  0.8335327662004700
  0.0603651024492670  0.2080153976251323  0.6995522770409586
  0.4351008563985493  0.9579729774895991  0.6995531142977630
  0.3168771642897635  0.2119260149325026  0.8333169034363056
  0.4414710994916057  0.6247704311945643  0.6548823765507962
  0.3087628997180542  0.5379034953894453  0.6108778178867910
  0.9366901369963663  0.4566781430447532  0.5655640051968974
  0.6900677749111025  0.7910649780644211  0.7440401509067177
  0.9335856255091517  0.7883094894857395  0.1246772508070169
  0.6917226673166680  0.7875806864100855  0.3890476525868610
  0.9405332427894390  0.7901280801268517  0.7441367037024519
  0.0590067098490810  0.2029055725840217  0.3449780663794772
  0.4368717425762103  0.6201065836090054  0.4345050004482638
  0.4350445513204858  0.1212903565104778  0.7886216515883645
  0.0647447516883728  0.2052536427877636  0.2116236226954051
  0.0554214230184922  0.3657775530468771  0.1668105533289226
  0.9334450872273131  0.7885988511953501  0.2558299516121740
  0.5604544001372808  0.2077973718113665  0.6995925513113961
  0.6850089711633838  0.9580001792533387  0.6996184989915946
  0.8098690565338109  0.8722633548058549  0.7882322968008669
  0.4369410919118226  0.9571349016878319  0.5654089375253420
  0.8104541287642208  0.3732956915093750  0.7881860871316336
  0.6839967958570902  0.2895511707472297  0.2561476506386441
  0.1872505527242517  0.4571985213352565  0.5654862587031746
  0.0557721936534632  0.8656928414962819  0.1667912109198364
  0.1837463240308072  0.2879713725645450  0.6109027800128186
  0.0622507060103484  0.2070924510135608  0.5653746471032759
  0.3104214758114461  0.2079114380969198  0.6996280921183083
  0.5635461888669835  0.5391210060529573  0.8756894084143367
  0.0617141997643252  0.7065147521051601  0.5655030414007340
  0.6849042796246669  0.6216723273476562  0.7881846517869886
  0.3161600397994440  0.5375567785956477  0.3889694774833412
  0.1867396155452012  0.6213733897241116  0.5214248251241975
  0.5620047608646372  0.8705503179245113  0.4345242758023553
  0.4369368605829651  0.4570805655602816  0.5654841852793199
  0.4398782232064532  0.2909060525342096  0.7440270459268363
  0.8193316905260147  0.8749774136461898  0.3004098468330383
  0.8084066741994123  0.7026552772723877  0.3450886900768436
  0.4416498901138824  0.4623659740530536  0.8331396978552214
  0.6872831754772764  0.9557411131147755  0.4786433288077486
  0.6850347672100390  0.4579579759848400  0.6996216129649516
  0.5618264250113834  0.8718270801661495  0.5213859810191247
  0.5665273175754001  0.3747872009187390  0.6548769101848516
  0.8163957862982621  0.8749359232014536  0.6549207927533116
  0.8119589480078609  0.3715950818271969  0.4342832474888497
  0.8087757194911921  0.5382123739755110  0.2562614744331195
  0.6918783245916025  0.4615087982472631  0.8330569572598817
  0.1861316276697876  0.7884706704109421  0.1242700590055491
  0.6912439712160103  0.2874453918544265  0.3890768445705783
  0.3164345759513855  0.3747696511026501  0.6548712282649932
  0.3092015984414978  0.2026303489211103  0.3449952047993219
  0.8156504155139002  0.5398692792058472  0.7439401846040521
  0.6914655414150291  0.9620073890815405  0.8331376385307723
  0.5663600679943904  0.8746219219994020  0.6549020478890633
  0.3118303558063726  0.7069126799287238  0.5654242138099562
  0.3123161771809095  0.5315483231019988  0.1242642516968211
  0.6896082763413126  0.9555326312401998  0.2119607676611704
  0.3114125778562021  0.2065734679056124  0.5654742484372950
  0.1872695486598990  0.9557650563986416  0.4786852453206058
  0.6873764750142364  0.9571671226340567  0.5654689853707269
  0.4337128785579529  0.7879954706742088  0.6108801151549672
  0.6824746112863347  0.6122178807913388  0.1667206263742730
  0.3191636178120337  0.8744645814806676  0.3002344836796720
  0.3122510736803092  0.7057547801830808  0.4786493885059642
  0.9336267267195263  0.2879693928510230  0.6108660245372766
  0.4449245662787192  0.6247192379710655  0.3004567583305629
  0.8068793521098163  0.8643001101985228  0.1672153096868129
  0.5666566036339276  0.2037287246286101  0.2117786971904444
  0.9329688658644316  0.6128756266839673  0.1668504396300241
  0.4373017640470073  0.9556621970874768  0.4786643407156954
  0.5601897423090473  0.3718552573142507  0.7883601953922227
  0.0613987074192621  0.3720361159744304  0.5213740804063327
  0.3068875939090858  0.3646761411587835  0.1668961457446263
  0.6948292651325386  0.1242903925507236  0.3003987218637252
  0.4427065043901590  0.9618899526265341  0.8330925599944192
  0.1846955072587743  0.2874420829215513  0.1245004618566556
  0.1840495096787327  0.2893827808042879  0.2561126416668192
  0.3120703222940605  0.3703358765168547  0.4344773375335638
  0.5623916212221637  0.0329026273827571  0.1246080824247219
  0.4336627768978660  0.2879105119129087  0.6108578086618683
  0.1838675690474638  0.4528691513643401  0.3450867349841921
  0.4345298165432935  0.2874226560538708  0.1245757885791649
  0.6840265468678964  0.7895950633593892  0.2559950675558753
  0.4365760582739356  0.1213051353826438  0.5213373049575102
  0.1883978628437900  0.2944881514520269  0.8757665089188181
  0.1914839719122828  0.1249581974981272  0.6549051232439884
  0.9414836581579614  0.1249463496148781  0.6548842773770911
  0.8162870840920147  0.5375013784147861  0.3890713068071753
  0.0664525872942699  0.0376897959411439  0.3890960415631992
  0.1830021416516944  0.1122539152959570  0.1666322904372951
  0.0586343897739780  0.5377656225502203  0.6109100199971689
  0.9344250255268594  0.2896066813581039  0.2560651720306449
  0.5586132512960180  0.5380215078825576  0.6108651415345759
  0.9369517716821975  0.9573953046549154  0.5654366222528473
  0.6939600431044274  0.6249542367353682  0.3003818752356199
  0.9377324525994940  0.6205274466718608  0.4345015340039052
  0.9340341319224574  0.6229281638874112  0.7879878934912574
  0.5603864700493987  0.7076135260063654  0.6995789776064781
  0.0659142401037027  0.7151712141071267  0.8336329182814918
  0.9447590700114626  0.1238082059888105  0.3003016926612895
  0.9337014134288453  0.7876019621253502  0.6109111570352225
  0.4337566333361557  0.7895565699139120  0.2561185066490185
  0.3107062741364701  0.3720997916592170  0.7882139252419124
  0.4399032463399880  0.4555911981079236  0.2118217393773967
  0.1866417995172430  0.1213673106783889  0.5213729087792563
  0.8103831635923134  0.7079658800157000  0.6995522503464823
  0.0585668544789718  0.0379436684676667  0.6108598981287771
  0.5660729569213450  0.2129755837278574  0.8330143539439804
  0.3116171118576365  0.8715780822241012  0.5213540554672427
  0.6862348778612861  0.2874346756888604  0.1243313193658373
  0.1899598329279761  0.9563614208575764  0.2120253746854535
  0.6835966857541127  0.2879344611409987  0.6109032039016130
  0.3086544759707956  0.0379286206213579  0.6109488968310492
  0.9352565593710660  0.1227227367465560  0.7883411646742959
  0.4369735722649521  0.7953994807178880  0.8756950599647151
  0.8155200790646280  0.0403658491247383  0.7438734496599024
  0.9349526251703270  0.4580401053331019  0.6995904799347145
  0.1914624044451637  0.6249380244342725  0.6549126876604079
  0.3103185312189299  0.7076773043490380  0.6995930450193568
  0.9343921062842827  0.2872496438477701  0.1244390269880612
  0.4372447129805138  0.4557031245443564  0.4786357771381756
  0.0622617996769579  0.7057284725670194  0.4785720527087930
  0.9369318364879581  0.1201583514107600  0.4346237639322136
  0.4439261814449008  0.1246785198517927  0.3004153118427104
  0.1877560070975027  0.1202555744336762  0.4343582060546191
  0.5634208350815489  0.0391104687290288  0.8758107711176848
  0.1870099885202726  0.9572836063677123  0.5654458266102838
  0.6842335710425366  0.7884233317717332  0.1247615720750938
  0.5592899546982001  0.7027887052084288  0.3450621348713975
  0.3161589009006598  0.0369601367295851  0.3890547654451689
  0.6824413640216707  0.1143561378993791  0.1672100057083699
  0.8148611563723422  0.2050584022166107  0.2116664734283208
  0.0598252541610634  0.5386085726652081  0.2559447778969089
  0.5622097559089253  0.7056746673522303  0.4786302569363948
  0.4346700027287179  0.7877170449222426  0.1245047073450945
  0.5691634988600226  0.3745868431972544  0.3004151825209160
  0.4334131012080964  0.9524293221237087  0.3450882671427349
  0.1851312295763466  0.9581875428789505  0.6996983665698099
  0.4318045382318987  0.6136957933371411  0.1666668983746968
  0.9400732952347760  0.4555464246248486  0.2119703176709715
  0.0617960826164490  0.5311415926803064  0.1242965576248996
  0.8116760891643983  0.3716966280772527  0.5213617598884208
  0.9441335816334876  0.6244744499481364  0.3001475925240447
  0.3094947916023138  0.0382066988276497  0.2559272174499545
  0.6836738860736457  0.7879030621018195  0.6108683208342208
  0.1917583253302880  0.4626164945527727  0.8331878117706307
  0.4322719405735184  0.1124385613769783  0.1666996681439498
  0.3115706340077430  0.3714666960216215  0.5213291169425138
  0.4340723907641348  0.6215886781539901  0.7885356723507826
  0.0586911732673701  0.0381632218909590  0.2561062864220372
  0.5616938893128753  0.7068590364412103  0.5655407073245361
  0.9400287096153724  0.2896047847678208  0.7440110283638062
  0.6834722443757358  0.1222171863866726  0.7883437271238464
  0.1895936973666559  0.4549581093189927  0.2116306490122097
  0.9411387123557068  0.7877141552863075  0.3890824820790368
  0.6861589616474846  0.2975722142109110  0.8757528940065920
  0.5556697166269359  0.8649514440007645  0.1666674853588812
  0.4353502444383193  0.4579680489228188  0.6995367138619047
  0.9342487235781727  0.9513881828598191  0.3448665533345293
  0.6863891680872248  0.6214324039306049  0.5212873591062550
  0.0665012472587240  0.8748304423937593  0.6548784016031448
  0.0602084203792994  0.8730431654337757  0.7882181601986238
  0.0663623501442553  0.3749072494173197  0.6549029746544274
  0.6871701570510925  0.4556707697075072  0.4786386801637080
  0.1843537596589247  0.7894969714945826  0.2559716112480149
  0.4369729908816717  0.1205203846770163  0.4343888359465069
  0.8135123266658929  0.0315676632544858  0.1243340256291446
  0.9364901604074625  0.6214861944561274  0.5213899673120904
  0.4415187088372608  0.1247923093338972  0.6548269807140119
  0.8126700455454583  0.5306988755399524  0.1243594601825786
  0.4340509072232951  0.4523151887484839  0.3451205369564709
  0.8089924736991415  0.2028415568118637  0.3450170874121996
  0.3091714231059134  0.7027167703209019  0.3450023132262434
  0.6913545719927496  0.1249023495311002  0.6549319243017571
  0.5693702969747038  0.8745145226477119  0.3004921017629616
  0.0655742545510758  0.5398241481528339  0.7439837398478546
  0.9404820801513047  0.9552520843959056  0.2116532587090874
  0.8165868241214145  0.7056011574646677  0.2117870244944093
  0.0691174525934128  0.8745710445111157  0.3004470592614553
  0.1943944890692493  0.1246113197047879  0.3004568250532072
  0.0587453004162010  0.7027079986200288  0.3450783851160822
  0.8087220647161206  0.0379143876014569  0.6108869356610661
  0.0623130971519412  0.3707986140226884  0.4344435215146565
  0.5592993142670992  0.2030645949160892  0.3450902793071704
  0.8196041238327552  0.3742878009999817  0.3002054912732190
  0.5593071766149104  0.0387861365207608  0.2558761585810931
  0.5663344921387905  0.5374185610789266  0.3890933694507003
  0.0625639196382139  0.2057263150931204  0.4786703754769432
  0.3112062923676537  0.8714697445281491  0.7880560420890942
  0.9351614368215837  0.9583453565515372  0.6995868601992968
  0.0689817914377210  0.3747995656439561  0.3004159149837187
  0.6912795404370041  0.6249379964288911  0.6549434775950700
  0.6870147160183295  0.4571332651079522  0.5654453367259419
  0.4399760307711291  0.9566557236639698  0.2122603342466777
  0.3122605870810258  0.2056501506860940  0.4786765785912483
  0.8133448985923164  0.5385591096402162  0.8756138748799461
  0.6876041651791288  0.6202972791059850  0.4344606305676681
  0.8105099863550010  0.2077590147186239  0.6996426128036318
  0.8123316475065637  0.7057428009122854  0.4786482539749727
  0.8117803100767831  0.8711046090336568  0.4343007561232382
  0.9372162672388413  0.9554324966570145  0.4787262465670609
  0.5621794711222506  0.2057633146355431  0.4786401609054668
  0.1870103956460824  0.6202257300200990  0.4344192375923761
  0.3153338304353890  0.0407273812824781  0.7438818693608945
  0.9415287173651868  0.6252028270669301  0.6548649292364216
  0.5663385171201536  0.7127499929339074  0.8330720606140043
  0.3193690760304582  0.3736755350017555  0.3003783707411247
  0.5651231731134573  0.7045827364306840  0.2117216126914308
  0.1872753713397545  0.4556553704653450  0.4786587612449147
  0.3145603284103914  0.0401383202663793  0.8755802452542799
  0.1848551585064067  0.4580294218922776  0.6995569386505663
  0.5616017688679185  0.3714135389018711  0.5213221224811866
  0.1911701050369913  0.2877209126431324  0.3890891583584393
  0.3153375268792363  0.2056713741889531  0.2116844994495216
  0.0668984353138121  0.7055994544401863  0.2116870266041208
  0.5621205282146340  0.3707008160486661  0.4344616850428685
  0.4366063045679972  0.6216367729773867  0.5213596589449710
  0.8169378075885734  0.7142615958241404  0.8330277649820355
  0.0607752970553624  0.3730549708146870  0.7881298515425899
  0.4366444886553735  0.2962974745493657  0.8760320172148268
  0.3113525839987871  0.0315961312456427  0.1244223624449570
  0.6875475809742072  0.1193559706706068  0.4344122909974547
  0.1838199566322052  0.9526351391613058  0.3451088516696569
  0.0664294062967379  0.2136206735218308  0.8336497362962556
  0.5588088134914138  0.0379580981587452  0.6109284678466957
  0.6895545255938836  0.4555237538265375  0.2120347772236540
  0.1903943191460588  0.7902736471081446  0.7439902863813388
  0.1940446285753511  0.6245916567370192  0.3004332323399966
  0.4412186062749169  0.7877265703833921  0.3890912493144833
  0.4337204970599732  0.2895048674984864  0.2560804744937569
  0.0645814439788936  0.5386267520904983  0.8755487413598488
  0.5658601489310054  0.0404624904214515  0.7439127781935104
  0.1876227345799814  0.7952341476098574  0.8757056247846643
  0.9372724874347562  0.4556389828422594  0.4786589003350941
  0.5655875595951659  0.5406306399462033  0.7438517286041952
  0.8114252234592079  0.2067816953764676  0.5654410553912388
  0.1855318879483710  0.6208449426527151  0.7880868665336804
  0.0671064904509503  0.5380000382201554  0.3890526021821519
  0.0604443389099068  0.7078569343650516  0.6995582040367582
  0.3083452298776296  0.5385251823020184  0.2557214010855514
  0.3152230674723400  0.7040237621332673  0.2123954927403319
  0.3052832282430714  0.8652713660804722  0.1661314863396274
  0.6830762523106778  0.4524271456413479  0.3452561586358063
  0.8174646022659340  0.0382504334134831  0.3892463912464258
  0.9352973477431306  0.2961207926923755  0.8752844505330338
  0.9376121819310897  0.7935916672447870  0.8752189948986535
  0.0655800264208261  0.0375909231321786  0.8753431123096530
  0.5629136453343705  0.5300519525255074  0.1248662108358998
  0.8050968485320484  0.3662714605264629  0.1664395625421897
  0.0615513042431369  0.8710192035080659  0.4344320760340326
  0.9364903392816348  0.1213819936694194  0.5214176157229542
  0.1919709105450825  0.7881833880032424  0.3890470282581456
  0.3155401259753373  0.5400702344749140  0.7441310166791094
 
  0.00000000E+00  0.00000000E+00  0.00000000E+00
  0.00000000E+00  0.00000000E+00  0.00000000E+00
  0.00000000E+00  0.00000000E+00  0.00000000E+00
  0.00000000E+00  0.00000000E+00  0.00000000E+00
  0.00000000E+00  0.00000000E+00  0.00000000E+00
  0.00000000E+00  0.00000000E+00  0.00000000E+00
  0.00000000E+00  0.00000000E+00  0.00000000E+00
  0.00000000E+00  0.00000000E+00  0.00000000E+00
  0.00000000E+00  0.00000000E+00  0.00000000E+00
  0.00000000E+00  0.00000000E+00  0.00000000E+00
  0.00000000E+00  0.00000000E+00  0.00000000E+00
  0.00000000E+00  0.00000000E+00  0.00000000E+00
  0.00000000E+00  0.00000000E+00  0.00000000E+00
  0.00000000E+00  0.00000000E+00  0.00000000E+00
  0.00000000E+00  0.00000000E+00  0.00000000E+00
  0.00000000E+00  0.00000000E+00  0.00000000E+00
  0.00000000E+00  0.00000000E+00  0.00000000E+00
  0.00000000E+00  0.00000000E+00  0.00000000E+00
  0.00000000E+00  0.00000000E+00  0.00000000E+00
  0.00000000E+00  0.00000000E+00  0.00000000E+00
  0.00000000E+00  0.00000000E+00  0.00000000E+00
  0.00000000E+00  0.00000000E+00  0.00000000E+00
  0.00000000E+00  0.00000000E+00  0.00000000E+00
  0.00000000E+00  0.00000000E+00  0.00000000E+00
  0.00000000E+00  0.00000000E+00  0.00000000E+00
  0.00000000E+00  0.00000000E+00  0.00000000E+00
  0.00000000E+00  0.00000000E+00  0.00000000E+00
  0.00000000E+00  0.00000000E+00  0.00000000E+00
  0.00000000E+00  0.00000000E+00  0.00000000E+00
  0.00000000E+00  0.00000000E+00  0.00000000E+00
  0.00000000E+00  0.00000000E+00  0.00000000E+00
  0.00000000E+00  0.00000000E+00  0.00000000E+00
  0.00000000E+00  0.00000000E+00  0.00000000E+00
  0.00000000E+00  0.00000000E+00  0.00000000E+00
  0.00000000E+00  0.00000000E+00  0.00000000E+00
  0.00000000E+00  0.00000000E+00  0.00000000E+00
  0.00000000E+00  0.00000000E+00  0.00000000E+00
  0.00000000E+00  0.00000000E+00  0.00000000E+00
  0.00000000E+00  0.00000000E+00  0.00000000E+00
  0.00000000E+00  0.00000000E+00  0.00000000E+00
  0.00000000E+00  0.00000000E+00  0.00000000E+00
  0.00000000E+00  0.00000000E+00  0.00000000E+00
  0.00000000E+00  0.00000000E+00  0.00000000E+00
  0.00000000E+00  0.00000000E+00  0.00000000E+00
  0.00000000E+00  0.00000000E+00  0.00000000E+00
  0.00000000E+00  0.00000000E+00  0.00000000E+00
  0.00000000E+00  0.00000000E+00  0.00000000E+00
  0.00000000E+00  0.00000000E+00  0.00000000E+00
  0.00000000E+00  0.00000000E+00  0.00000000E+00
  0.00000000E+00  0.00000000E+00  0.00000000E+00
  0.00000000E+00  0.00000000E+00  0.00000000E+00
  0.00000000E+00  0.00000000E+00  0.00000000E+00
  0.00000000E+00  0.00000000E+00  0.00000000E+00
  0.00000000E+00  0.00000000E+00  0.00000000E+00
  0.00000000E+00  0.00000000E+00  0.00000000E+00
  0.00000000E+00  0.00000000E+00  0.00000000E+00
  0.00000000E+00  0.00000000E+00  0.00000000E+00
  0.00000000E+00  0.00000000E+00  0.00000000E+00
  0.00000000E+00  0.00000000E+00  0.00000000E+00
  0.00000000E+00  0.00000000E+00  0.00000000E+00
  0.00000000E+00  0.00000000E+00  0.00000000E+00
  0.00000000E+00  0.00000000E+00  0.00000000E+00
  0.00000000E+00  0.00000000E+00  0.00000000E+00
  0.00000000E+00  0.00000000E+00  0.00000000E+00
  0.00000000E+00  0.00000000E+00  0.00000000E+00
  0.00000000E+00  0.00000000E+00  0.00000000E+00
  0.00000000E+00  0.00000000E+00  0.00000000E+00
  0.00000000E+00  0.00000000E+00  0.00000000E+00
  0.00000000E+00  0.00000000E+00  0.00000000E+00
  0.00000000E+00  0.00000000E+00  0.00000000E+00
  0.00000000E+00  0.00000000E+00  0.00000000E+00
  0.00000000E+00  0.00000000E+00  0.00000000E+00
  0.00000000E+00  0.00000000E+00  0.00000000E+00
  0.00000000E+00  0.00000000E+00  0.00000000E+00
  0.00000000E+00  0.00000000E+00  0.00000000E+00
  0.00000000E+00  0.00000000E+00  0.00000000E+00
  0.00000000E+00  0.00000000E+00  0.00000000E+00
  0.00000000E+00  0.00000000E+00  0.00000000E+00
  0.00000000E+00  0.00000000E+00  0.00000000E+00
  0.00000000E+00  0.00000000E+00  0.00000000E+00
  0.00000000E+00  0.00000000E+00  0.00000000E+00
  0.00000000E+00  0.00000000E+00  0.00000000E+00
  0.00000000E+00  0.00000000E+00  0.00000000E+00
  0.00000000E+00  0.00000000E+00  0.00000000E+00
  0.00000000E+00  0.00000000E+00  0.00000000E+00
  0.00000000E+00  0.00000000E+00  0.00000000E+00
  0.00000000E+00  0.00000000E+00  0.00000000E+00
  0.00000000E+00  0.00000000E+00  0.00000000E+00
  0.00000000E+00  0.00000000E+00  0.00000000E+00
  0.00000000E+00  0.00000000E+00  0.00000000E+00
  0.00000000E+00  0.00000000E+00  0.00000000E+00
  0.00000000E+00  0.00000000E+00  0.00000000E+00
  0.00000000E+00  0.00000000E+00  0.00000000E+00
  0.00000000E+00  0.00000000E+00  0.00000000E+00
  0.00000000E+00  0.00000000E+00  0.00000000E+00
  0.00000000E+00  0.00000000E+00  0.00000000E+00
  0.00000000E+00  0.00000000E+00  0.00000000E+00
  0.00000000E+00  0.00000000E+00  0.00000000E+00
  0.00000000E+00  0.00000000E+00  0.00000000E+00
  0.00000000E+00  0.00000000E+00  0.00000000E+00
  0.00000000E+00  0.00000000E+00  0.00000000E+00
  0.00000000E+00  0.00000000E+00  0.00000000E+00
  0.00000000E+00  0.00000000E+00  0.00000000E+00
  0.00000000E+00  0.00000000E+00  0.00000000E+00
  0.00000000E+00  0.00000000E+00  0.00000000E+00
  0.00000000E+00  0.00000000E+00  0.00000000E+00
  0.00000000E+00  0.00000000E+00  0.00000000E+00
  0.00000000E+00  0.00000000E+00  0.00000000E+00
  0.00000000E+00  0.00000000E+00  0.00000000E+00
  0.00000000E+00  0.00000000E+00  0.00000000E+00
  0.00000000E+00  0.00000000E+00  0.00000000E+00
  0.00000000E+00  0.00000000E+00  0.00000000E+00
  0.00000000E+00  0.00000000E+00  0.00000000E+00
  0.00000000E+00  0.00000000E+00  0.00000000E+00
  0.00000000E+00  0.00000000E+00  0.00000000E+00
  0.00000000E+00  0.00000000E+00  0.00000000E+00
  0.00000000E+00  0.00000000E+00  0.00000000E+00
  0.00000000E+00  0.00000000E+00  0.00000000E+00
  0.00000000E+00  0.00000000E+00  0.00000000E+00
  0.00000000E+00  0.00000000E+00  0.00000000E+00
  0.00000000E+00  0.00000000E+00  0.00000000E+00
  0.00000000E+00  0.00000000E+00  0.00000000E+00
  0.00000000E+00  0.00000000E+00  0.00000000E+00
  0.00000000E+00  0.00000000E+00  0.00000000E+00
  0.00000000E+00  0.00000000E+00  0.00000000E+00
  0.00000000E+00  0.00000000E+00  0.00000000E+00
  0.00000000E+00  0.00000000E+00  0.00000000E+00
  0.00000000E+00  0.00000000E+00  0.00000000E+00
  0.00000000E+00  0.00000000E+00  0.00000000E+00
  0.00000000E+00  0.00000000E+00  0.00000000E+00
  0.00000000E+00  0.00000000E+00  0.00000000E+00
  0.00000000E+00  0.00000000E+00  0.00000000E+00
  0.00000000E+00  0.00000000E+00  0.00000000E+00
  0.00000000E+00  0.00000000E+00  0.00000000E+00
  0.00000000E+00  0.00000000E+00  0.00000000E+00
  0.00000000E+00  0.00000000E+00  0.00000000E+00
  0.00000000E+00  0.00000000E+00  0.00000000E+00
  0.00000000E+00  0.00000000E+00  0.00000000E+00
  0.00000000E+00  0.00000000E+00  0.00000000E+00
  0.00000000E+00  0.00000000E+00  0.00000000E+00
  0.00000000E+00  0.00000000E+00  0.00000000E+00
  0.00000000E+00  0.00000000E+00  0.00000000E+00
  0.00000000E+00  0.00000000E+00  0.00000000E+00
  0.00000000E+00  0.00000000E+00  0.00000000E+00
  0.00000000E+00  0.00000000E+00  0.00000000E+00
  0.00000000E+00  0.00000000E+00  0.00000000E+00
  0.00000000E+00  0.00000000E+00  0.00000000E+00
  0.00000000E+00  0.00000000E+00  0.00000000E+00
  0.00000000E+00  0.00000000E+00  0.00000000E+00
  0.00000000E+00  0.00000000E+00  0.00000000E+00
  0.00000000E+00  0.00000000E+00  0.00000000E+00
  0.00000000E+00  0.00000000E+00  0.00000000E+00
  0.00000000E+00  0.00000000E+00  0.00000000E+00
  0.00000000E+00  0.00000000E+00  0.00000000E+00
  0.00000000E+00  0.00000000E+00  0.00000000E+00
  0.00000000E+00  0.00000000E+00  0.00000000E+00
  0.00000000E+00  0.00000000E+00  0.00000000E+00
  0.00000000E+00  0.00000000E+00  0.00000000E+00
  0.00000000E+00  0.00000000E+00  0.00000000E+00
  0.00000000E+00  0.00000000E+00  0.00000000E+00
  0.00000000E+00  0.00000000E+00  0.00000000E+00
  0.00000000E+00  0.00000000E+00  0.00000000E+00
  0.00000000E+00  0.00000000E+00  0.00000000E+00
  0.00000000E+00  0.00000000E+00  0.00000000E+00
  0.00000000E+00  0.00000000E+00  0.00000000E+00
  0.00000000E+00  0.00000000E+00  0.00000000E+00
  0.00000000E+00  0.00000000E+00  0.00000000E+00
  0.00000000E+00  0.00000000E+00  0.00000000E+00
  0.00000000E+00  0.00000000E+00  0.00000000E+00
  0.00000000E+00  0.00000000E+00  0.00000000E+00
  0.00000000E+00  0.00000000E+00  0.00000000E+00
  0.00000000E+00  0.00000000E+00  0.00000000E+00
  0.00000000E+00  0.00000000E+00  0.00000000E+00
  0.00000000E+00  0.00000000E+00  0.00000000E+00
  0.00000000E+00  0.00000000E+00  0.00000000E+00
  0.00000000E+00  0.00000000E+00  0.00000000E+00
  0.00000000E+00  0.00000000E+00  0.00000000E+00
  0.00000000E+00  0.00000000E+00  0.00000000E+00
  0.00000000E+00  0.00000000E+00  0.00000000E+00
  0.00000000E+00  0.00000000E+00  0.00000000E+00
  0.00000000E+00  0.00000000E+00  0.00000000E+00
  0.00000000E+00  0.00000000E+00  0.00000000E+00
  0.00000000E+00  0.00000000E+00  0.00000000E+00
  0.00000000E+00  0.00000000E+00  0.00000000E+00
  0.00000000E+00  0.00000000E+00  0.00000000E+00
  0.00000000E+00  0.00000000E+00  0.00000000E+00
  0.00000000E+00  0.00000000E+00  0.00000000E+00
  0.00000000E+00  0.00000000E+00  0.00000000E+00
  0.00000000E+00  0.00000000E+00  0.00000000E+00
  0.00000000E+00  0.00000000E+00  0.00000000E+00
  0.00000000E+00  0.00000000E+00  0.00000000E+00
  0.00000000E+00  0.00000000E+00  0.00000000E+00
  0.00000000E+00  0.00000000E+00  0.00000000E+00
  0.00000000E+00  0.00000000E+00  0.00000000E+00
  0.00000000E+00  0.00000000E+00  0.00000000E+00
  0.00000000E+00  0.00000000E+00  0.00000000E+00
  0.00000000E+00  0.00000000E+00  0.00000000E+00
  0.00000000E+00  0.00000000E+00  0.00000000E+00
  0.00000000E+00  0.00000000E+00  0.00000000E+00
  0.00000000E+00  0.00000000E+00  0.00000000E+00
  0.00000000E+00  0.00000000E+00  0.00000000E+00
  0.00000000E+00  0.00000000E+00  0.00000000E+00
  0.00000000E+00  0.00000000E+00  0.00000000E+00
  0.00000000E+00  0.00000000E+00  0.00000000E+00
  0.00000000E+00  0.00000000E+00  0.00000000E+00
  0.00000000E+00  0.00000000E+00  0.00000000E+00
  0.00000000E+00  0.00000000E+00  0.00000000E+00
  0.00000000E+00  0.00000000E+00  0.00000000E+00
  0.00000000E+00  0.00000000E+00  0.00000000E+00
  0.00000000E+00  0.00000000E+00  0.00000000E+00
  0.00000000E+00  0.00000000E+00  0.00000000E+00
  0.00000000E+00  0.00000000E+00  0.00000000E+00
  0.00000000E+00  0.00000000E+00  0.00000000E+00
  0.00000000E+00  0.00000000E+00  0.00000000E+00
  0.00000000E+00  0.00000000E+00  0.00000000E+00
  0.00000000E+00  0.00000000E+00  0.00000000E+00
  0.00000000E+00  0.00000000E+00  0.00000000E+00
  0.00000000E+00  0.00000000E+00  0.00000000E+00
  0.00000000E+00  0.00000000E+00  0.00000000E+00
  0.00000000E+00  0.00000000E+00  0.00000000E+00
  0.00000000E+00  0.00000000E+00  0.00000000E+00
  0.00000000E+00  0.00000000E+00  0.00000000E+00
  0.00000000E+00  0.00000000E+00  0.00000000E+00
  0.00000000E+00  0.00000000E+00  0.00000000E+00
  0.00000000E+00  0.00000000E+00  0.00000000E+00
  0.00000000E+00  0.00000000E+00  0.00000000E+00
  0.00000000E+00  0.00000000E+00  0.00000000E+00
  0.00000000E+00  0.00000000E+00  0.00000000E+00
  0.00000000E+00  0.00000000E+00  0.00000000E+00
  0.00000000E+00  0.00000000E+00  0.00000000E+00
  0.00000000E+00  0.00000000E+00  0.00000000E+00
  0.00000000E+00  0.00000000E+00  0.00000000E+00
  0.00000000E+00  0.00000000E+00  0.00000000E+00
  0.00000000E+00  0.00000000E+00  0.00000000E+00
  0.00000000E+00  0.00000000E+00  0.00000000E+00
  0.00000000E+00  0.00000000E+00  0.00000000E+00
  0.00000000E+00  0.00000000E+00  0.00000000E+00
  0.00000000E+00  0.00000000E+00  0.00000000E+00
  0.00000000E+00  0.00000000E+00  0.00000000E+00
  0.00000000E+00  0.00000000E+00  0.00000000E+00
  0.00000000E+00  0.00000000E+00  0.00000000E+00
  0.00000000E+00  0.00000000E+00  0.00000000E+00
  0.00000000E+00  0.00000000E+00  0.00000000E+00
  0.00000000E+00  0.00000000E+00  0.00000000E+00
  0.00000000E+00  0.00000000E+00  0.00000000E+00
  0.00000000E+00  0.00000000E+00  0.00000000E+00
  0.00000000E+00  0.00000000E+00  0.00000000E+00