FeMn_288_25                             
    1.000000000000000     
     9.7266779999999997    0.0000000000000000    0.0000000000000000
     0.0000000000000000    8.4235500000000005    0.0000000000000000
     0.0000000000000000    0.0000000000000000   45.0000000000000000
   Fe   Mn
   263    25
Direct
  0.4375404177172276  0.7907760856477745  0.8735079326591866
  0.0627015209877683  0.5400247855588808  0.7423231225874258
  0.5623361001374506  0.8721175649296856  0.4349184159822684
  0.8127082066679259  0.5398496357230350  0.7423638104789573
  0.4374911323035073  0.2878162202730449  0.3901969500941744
  0.3123607099691432  0.3712632575605411  0.3018777643044181
  0.0628039201676027  0.2045299541391129  0.2136451341630739
  0.5626137410628508  0.0397671159239879  0.6099436804801390
  0.4375334581090762  0.6230676899622614  0.6538253484050391
  0.1874125596970804  0.2901284192708774  0.6099075792605856
  0.3127380360362178  0.0401858848720035  0.7424952415301063
  0.3123991361574004  0.7059218918740719  0.5652272034880240
  0.3123193192161641  0.0380263566007383  0.3901511037185309
  0.5621880385816915  0.7052466674375174  0.4785757148402378
  0.9377631665859102  0.9549582594919821  0.3461998475388922
  0.4367284180036588  0.9541407257778249  0.2134107019070747
  0.4374856231936540  0.2914366100892032  0.8734915189297542
  0.9377827436110844  0.2902986772288131  0.7424492611952040
  0.6872444403058351  0.1226385584586643  0.5214361881907694
  0.6872196843847281  0.1222029765762606  0.4349148381939363
  0.8107473165237248  0.5363284444862871  0.1261526297879094
  0.3121908179563893  0.2056209111828353  0.4785772070868741
  0.5625772884462855  0.7067464381685209  0.6982937807622591
  0.8122547134186456  0.3703553160817563  0.3017606714921621
  0.9373050824413248  0.6213703528335009  0.1682994770076689
  0.5628740318958639  0.0404374166196960  0.7423760774142044
  0.6880253004092628  0.4561371653663365  0.8315299171810019
  0.5622029326394320  0.2042077350710194  0.3462153162457416
  0.3126097498911664  0.7050091434556793  0.4786151823762277
  0.8123961706864109  0.7050600495364938  0.4786259376595186
  0.3121640231948360  0.2059628352741388  0.5652453725541636
  0.9377504723970701  0.6216861684579799  0.4347639881677017
  0.8125631948676119  0.0394133606609767  0.8734609606379946
  0.4380466418406790  0.4570995869327861  0.6983335016976177
  0.4371530363996975  0.9558663154650721  0.4787630276826279
  0.8127622411694161  0.2063232253351217  0.5653420089773071
  0.8122989029218529  0.0381148907241787  0.3903387252927341
  0.9372224223771671  0.1213627125206283  0.4349285536291031
  0.0619741618661002  0.0380354302861819  0.1263580811833351
  0.1879216762810161  0.2912098124603067  0.8735333087205116
  0.6877535712213405  0.6244565173242234  0.7863638011711326
  0.8127645525087817  0.0405511110491527  0.7423805731204840
  0.8121837833415479  0.8719375577156577  0.4349558227512074
  0.0624633372169437  0.5380193390086595  0.2575521961942527
  0.9377757129214842  0.7896608643527171  0.6098933369263613
  0.0627951499041972  0.2058190773640085  0.5652079857760773
  0.0625678077638354  0.8717203139269186  0.4349344264552903
  0.1870976258132351  0.2879559783212356  0.3901525479266258
  0.0628593790647071  0.0391182985624298  0.8734004423298366
  0.1878802138333207  0.7909370197420591  0.8734967980535193
  0.6873754912939418  0.6210825772392888  0.3020366959920980
  0.3124330848114523  0.3735298477262431  0.6538469443402078
  0.6874775956475156  0.4554834998983158  0.4785958596802390
  0.5610809468644797  0.0372714548297420  0.1262849924818957
  0.5624406881877663  0.8721473477647620  0.5214820900478901
  0.5631605687378327  0.2070559430099458  0.8313353399503741
  0.4376058913779713  0.2903877434776889  0.7424515192922068
  0.4376999060463936  0.1221621751485389  0.4348878075550229
  0.1872452213687736  0.9556569684112243  0.4786479007627535
  0.3126281015234025  0.2065406051334813  0.8312078774125977
  0.0628169381694799  0.3738197216936388  0.7865140239794941
  0.1874971509406751  0.1237309377939302  0.6538983343993615
  0.5619218534280621  0.5376949266493565  0.2574596130097287
  0.4379379077568069  0.2864179717181617  0.1263389540183137
  0.9376194137232881  0.2877673370272353  0.2575589927027245
  0.9371544688320878  0.1221335077843263  0.5214918937600009
  0.5620558394895147  0.2063686977047636  0.5652685254772929
  0.0630393985402713  0.5378892137457998  0.1260744165363021
  0.1870858023543935  0.9559791210583467  0.5652075824986404
  0.3123617962896240  0.5383272501400688  0.3901950290018924
  0.6872869361193426  0.7901336501215843  0.6099239731631735
  0.3123380470399124  0.0378863413516975  0.2575958046756920
  0.8123558322965955  0.7038981061397127  0.2135535920862592
  0.3126009251510710  0.3736029370715720  0.7864662190535979
  0.8126825658276666  0.5375200961463737  0.2573554683274116
  0.5626311616617320  0.8715068691889284  0.3017244536679664
  0.0622902068932126  0.5401513438394326  0.6099519082741175
  0.3130438363426891  0.0381366797482564  0.1264071341526828
  0.9377671780837626  0.6246268175260248  0.7863627707933298
  0.8127867477746996  0.5404378994006306  0.8734998106420341
  0.9373450835016736  0.1204031253855507  0.3020218049778314
  0.4375064827888065  0.6226315773411982  0.5215237766192750
  0.1875661116503552  0.9541524664849570  0.3462600341088927
  0.9377360026086027  0.7906035722328055  0.8735598806292095
  0.6874585295340335  0.2882008020965945  0.3901170781885970
  0.3126498598686205  0.3722262384615173  0.5214638446686672
  0.3119088264113432  0.3700986993388946  0.1685275119658780
  0.4366129356170131  0.1205625022628644  0.1683278989813709
  0.6872077480033911  0.2869636204193176  0.2572949307328831
  0.8125178699869162  0.0397620757999751  0.6098961271965003
  0.9378269555474127  0.2877450652838708  0.3901534272434399
  0.5623282680991761  0.5383254469511375  0.3900953902779986
  0.9373675853239273  0.4559843699076049  0.5652581613047600
  0.8120768418494133  0.3708316171442922  0.1682760673751351
  0.4374737828098962  0.7871861356154544  0.2574233803406907
  0.0627426910898710  0.8739387091604398  0.7865281363667767
  0.9374397903601827  0.4566747630743632  0.6983360424696937
  0.1877083947732393  0.2875638964612546  0.2573855053888878
  0.9380416441759352  0.7901382006995018  0.7424342997618382
  0.9374252178805814  0.4556357583102146  0.4786740993284161
  0.5623972754035216  0.2072816221929828  0.6982528401606833
  0.5622137065875483  0.7044561714752821  0.2134144943417067
  0.9375084589059896  0.6229402548493929  0.5214600867666140
  0.5623615712193691  0.3710640975525429  0.3017664302392093
  0.0627304890030474  0.8735369804975244  0.6538548728648987
  0.8127925964526884  0.2080237781302006  0.8314595812097003
  0.6872300473906023  0.7884003913470439  0.3903113008184880
  0.0623584635435625  0.2075498133207398  0.8313844806712843
  0.3126899645542954  0.8711193752167475  0.3018713435019383
  0.6876850275572207  0.9572911981865184  0.8315383568173352
  0.8133446847028475  0.8714915640832045  0.1683508134097080
  0.6877273275568415  0.7908044004478104  0.8735268883972411
  0.6879816964937729  0.7901680863376220  0.7424136297270570
  0.4375652731220908  0.9567128108669442  0.8312814370953708
  0.5623425013893339  0.8731396319639806  0.6538892325146374
  0.0627199980001710  0.2067008654754667  0.6982193765150231
  0.5627083878398652  0.5396929962117564  0.6098554383375093
  0.1876885512726381  0.7872702142255851  0.2575820300733444
  0.6878943546092691  0.1204758680115296  0.1684499062410900
  0.4372034526550693  0.4555867953638771  0.4786609718119764
  0.4374277812490501  0.2879978362586509  0.2576040226332478
  0.6876406334794990  0.9565525133713103  0.5650653740891208
  0.0626327120612004  0.0373048775359991  0.2574736542595752
  0.0626765314922853  0.3734693229445492  0.6538155831667098
  0.1871702052256125  0.6226792136093139  0.5214630607648741
  0.4374800365604092  0.6215595318841742  0.1685652936994972
  0.1878492516584236  0.9569942034392716  0.8312989379231128
  0.9376343590303267  0.9561329477764626  0.5653551681918826
  0.1879578489572368  0.1223964097195388  0.5214898864964168
  0.3128545896753847  0.5401643746233776  0.6099498872400964
  0.1874648286338501  0.9535212783877615  0.2138983847140025
  0.1876664842989686  0.7899352352127295  0.6098830207159953
  0.5622749309741251  0.2056857622044466  0.4786105409878090
  0.3126654907128446  0.2067684458425117  0.6982856078477901
  0.6868138992749980  0.7864178684354129  0.1263167716817792
  0.8125866832179061  0.3728728827166637  0.6539031741560689
  0.6871414086060296  0.2878862599668598  0.1261502646397962
  0.5622036579289562  0.8708816843675521  0.1683208814827139
  0.1873659092575163  0.7858143384148205  0.1261122503311128
  0.8127312498042475  0.2071036984076489  0.6981776269934199
  0.9378365913890746  0.9573927688278615  0.8314265800380842
  0.0623950266406456  0.7055429958758410  0.4786407843337389
  0.6875331529023566  0.1236298475251102  0.7864445883988334
  0.8127685364729240  0.3739009617314893  0.7865752211474479
  0.8127943887225860  0.7066171970446116  0.6982279441970551
  0.1878001829825595  0.4548153426515615  0.3462528477479769
  0.3115211327611663  0.5372563737147261  0.1262773433488230
  0.8125018369633931  0.5399755922848026  0.6099921710477139
  0.3122662185054193  0.5374923479802988  0.2575535104759648
  0.4374780751734614  0.1234695457751694  0.6537066141662059
  0.0626271132301295  0.8713543319132936  0.3018955385373872
  0.8118521554803489  0.2046110438607977  0.2134302531373142
  0.3128086110799841  0.7045525150130365  0.3462834283970421
  0.3126092115403690  0.8734643631032041  0.7865553237920543
  0.1873297628028782  0.1215908334374728  0.1686612743710640
  0.5633026445242285  0.5373232235110592  0.1262798315897291
  0.0627765325849040  0.7053745461984299  0.5652109455831944
  0.6878073862186938  0.6231343815433260  0.6536406991597336
  0.4380869116083285  0.4565968860043277  0.8315732302434552
  0.6875081559216343  0.6228136984069722  0.5213542596473537
  0.5625267396026638  0.3735219242117397  0.7865268864918696
  0.6871070472003717  0.4541823303668593  0.3461804733148604
  0.5628451747164702  0.0393009056587700  0.8734566571010854
  0.4377097542842155  0.7881373133402030  0.3901531499130608
  0.6872948838958690  0.1209686698607222  0.3018022497448256
  0.1872245107657523  0.1214630580829734  0.4347979646277134
  0.4372966104861065  0.2897105175112821  0.6099082920989719
  0.5627865735644013  0.5402719747754208  0.7423850764045884
  0.3127784818304538  0.2049378305832461  0.3461277658440319
  0.0633305386934519  0.5409506950990207  0.8735196881574668
  0.3126422632223707  0.0403305069406694  0.8734022538647692
  0.8122712522599631  0.3724760412924962  0.5214326324594837
  0.9378354199468965  0.2899380388980691  0.6098512889249864
  0.1875073475401280  0.4569157700851519  0.6982376771635201
  0.6870156619931433  0.6209029986090578  0.1681525520026221
  0.9375646487102589  0.6234140575337680  0.6538659115397110
  0.4372770116051977  0.1225754470562717  0.5214164066756376
  0.5627539829359161  0.8735738955530867  0.7865041896170155
  0.3124599134459964  0.3719035034824923  0.4348097270188604
  0.3131745051640508  0.8701303638692831  0.1685166815727563
  0.3126479698957520  0.8733448133271405  0.6538409878788205
  0.0620597264460046  0.5377838730722810  0.3901985663847643
  0.3129402601564140  0.7036257012190715  0.2134011075343308
  0.8128156080541575  0.7075522077660710  0.8312683579648901
  0.1872294810258924  0.4567215756616609  0.8314016156863699
  0.4380018149212515  0.9568045414232008  0.6981458165124926
  0.5626448473743489  0.3731126594666020  0.6538336595901350
  0.6877531709336453  0.4569358274292405  0.6982123308988341
  0.4377075512345514  0.4558978415577302  0.5651821448928088
  0.9373784138286358  0.9568623908346481  0.6981999411272605
  0.0625650270594832  0.7075727776999504  0.8312227246300733
  0.1877991422540834  0.6235989795275996  0.7866550173820623
  0.1875184186753794  0.6234088279819485  0.6537903211934336
  0.4370768836309656  0.4542665530198513  0.3461818084079469
  0.0628198995902434  0.0378220911012736  0.3901467476519248
  0.9378020446582515  0.1238156164445532  0.7865069963123423
  0.4376403245401219  0.6236082478120464  0.7865488080951374
  0.6869475338019317  0.6217878263251885  0.4349615323893586
  0.8123970695453437  0.8709299904678158  0.3019698662560050
  0.5618635423328695  0.5409899592113926  0.8735720911562729
  0.4373315397709108  0.1214440627270936  0.3019796937732641
  0.1872787442067831  0.1212028909761637  0.3018112842529754
  0.3125648856543242  0.8721877100570223  0.5214045067930924
  0.0623433901075178  0.3716842955010746  0.4351110445803162
  0.6871337087006036  0.4536649862366349  0.2134212579754029
  0.3128679485146499  0.5408350990367274  0.8735821545075625
  0.9374777999922017  0.4563486771160806  0.8315961110854645
  0.0612959544613481  0.8701926409331897  0.1682607713172273
  0.8120896860077214  0.2048813955721037  0.3462591689237779
  0.6876537834963072  0.9566833789169165  0.6983874055998096
  0.0629080734669968  0.2048741070405173  0.3462366146228229
  0.6876743041039034  0.1231901152013778  0.6539216839978271
  0.8124743276899293  0.7045057225064117  0.3462396992408396
  0.8128988449136187  0.2055144705752666  0.4786962525205646
  0.9375665528185253  0.6204620612840837  0.3018585257694324
  0.5627214964824431  0.7043931474107328  0.3461345278456258
  0.8123681216554310  0.8723439916916222  0.5214138510162881
  0.1875591449716792  0.4537656595148446  0.2133224924228536
  0.0626279346260627  0.3706251407377504  0.3018342449561456
  0.0622791420644850  0.2053117957560803  0.4787179822522465
  0.1880101542446316  0.1234778446557598  0.7863937517078559
  0.3128100250880119  0.7067611461570789  0.8312688767934683
  0.8126459797246344  0.5381893573858404  0.3901508354780081
  0.9379347235013028  0.9557529150464805  0.4786687932847751
  0.9379175627254576  0.9543511142668393  0.2134013446678349
  0.0625339685850363  0.0402973344073433  0.7423689458956744
  0.9374558064998328  0.7875549018468708  0.3901505890783525
  0.9367123852264083  0.2876064050641468  0.1262357990410164
  0.5627825173279322  0.7071773491306812  0.8312290204897339
  0.3124529323746570  0.0397179192720422  0.6098828628939928
  0.0626880054142245  0.7067692672590639  0.6982928352237727
  0.1873031788388678  0.2903683411817969  0.7423350789734431
  0.3125868634589398  0.7068862762139405  0.6981932864798263
  0.4373584779321850  0.4535553740799601  0.2135764617085705
  0.8125999105401722  0.8730379666737134  0.6538195154764783
  0.5623742626298380  0.0379475354118276  0.3902650220378911
  0.9370462186440373  0.1205266818720855  0.1681040718995212
  0.5622482545880767  0.3721285240215882  0.4348609713556130
  0.4371890672695011  0.9543960455682636  0.3461674127739008
  0.4375725395922510  0.1235544026988237  0.7864365037080764
  0.4374628724110632  0.6220272060233706  0.4349010206280352
  0.5623594707598302  0.3706815933615121  0.1686642821738971
  0.5623982436359541  0.2041364437265947  0.2135956414193859
  0.5621832018230341  0.0378013536825084  0.2576410468152839
  0.0622956574159661  0.8721330310127451  0.5215047503322356
  0.1870449035212902  0.6209717152448710  0.3018226471415235
  0.3126239098785739  0.2041938919793020  0.2134499255175804
  0.4375164172702610  0.7898409778531660  0.6098237309864331
  0.1875181169212385  0.4555858543965566  0.4787530865319199
  0.0626754688698738  0.0393281506600247  0.6099833596826691
  0.5621995118975833  0.7056812689993964  0.5653827445980204
  0.1875460997591869  0.7902481513050257  0.7423979142687723
  0.6869563663870183  0.7876439783548942  0.2576404371602367
  0.5624066963446727  0.3724589981719612  0.5214041136101868
  0.0632025545234017  0.3704033560593227  0.1685110756117630
  0.9376753312947321  0.1230214773469369  0.6537864806005080
  0.8127979787378438  0.8740164594570846  0.7864652143437338
  0.1872464255090583  0.4558437232435456  0.5652888557354908
  0.1874853708769708  0.7879130474546796  0.3902867845701102
  0.3127810504614005  0.5404525116046390  0.7423357107211148
  0.1873035595504439  0.6222945570657671  0.4348579080006995
  0.1869289407593818  0.6208662965238469  0.1679406544451244
  0.6874221590576156  0.4561500240922583  0.5651657128365054
  0.8120188933536651  0.0385913434797381  0.2575110978442173
  0.6872450696743104  0.9558431227934651  0.4786675966994987
  0.4371805970840968  0.7904497189115385  0.7424170939118304
  0.9372729973250526  0.4536206056891111  0.3462859236389689
  0.0624470543754058  0.3722222467007362  0.5214021627801492
  0.6877096058165126  0.2895734066314113  0.6100343174606775
  0.8119285749784115  0.0389872305930739  0.1264236270974548
  0.0625093196330771  0.7053122309597744  0.3463024616784651
  0.1876728845742946  0.2869620203834325  0.1265923820212358
  0.3124409370692660  0.8720904401958169  0.4349532478211369
  0.4374281497419247  0.7866973634629922  0.1264528193960928
  0.6872488322562914  0.9546403516840478  0.3463179645452781
  0.6872527258487796  0.9545329786779968  0.2138153524313118
  0.9390073581457311  0.7867530390986817  0.1263775960025141
  0.8122791243339476  0.3719002407938810  0.4348516827751908
  0.8123943781692945  0.7055604803901733  0.5653429177772621
  0.4373438585958371  0.6209007644226975  0.3017749224664423
  0.4373673956023610  0.9565083737900589  0.5653708214158700
  0.9391886570146858  0.2912615467078860  0.8733021834279842
  0.9367186877680679  0.4536285067609677  0.2139705375838303
  0.0627489432076490  0.7044977331493011  0.2135737280253059
  0.6879187435908649  0.2904752751175814  0.7424728275281782
  0.6861713457344443  0.2911853039572000  0.8733426349580808
  0.9373539987244113  0.7864445936200419  0.2571912673477386
  0.1878675335529756  0.9562614653598932  0.6982162839682876
 
  0.00000000E+00  0.00000000E+00  0.00000000E+00
  0.00000000E+00  0.00000000E+00  0.00000000E+00
  0.00000000E+00  0.00000000E+00  0.00000000E+00
  0.00000000E+00  0.00000000E+00  0.00000000E+00
  0.00000000E+00  0.00000000E+00  0.00000000E+00
  0.00000000E+00  0.00000000E+00  0.00000000E+00
  0.00000000E+00  0.00000000E+00  0.00000000E+00
  0.00000000E+00  0.00000000E+00  0.00000000E+00
  0.00000000E+00  0.00000000E+00  0.00000000E+00
  0.00000000E+00  0.00000000E+00  0.00000000E+00
  0.00000000E+00  0.00000000E+00  0.00000000E+00
  0.00000000E+00  0.00000000E+00  0.00000000E+00
  0.00000000E+00  0.00000000E+00  0.00000000E+00
  0.00000000E+00  0.00000000E+00  0.00000000E+00
  0.00000000E+00  0.00000000E+00  0.00000000E+00
  0.00000000E+00  0.00000000E+00  0.00000000E+00
  0.00000000E+00  0.00000000E+00  0.00000000E+00
  0.00000000E+00  0.00000000E+00  0.00000000E+00
  0.00000000E+00  0.00000000E+00  0.00000000E+00
  0.00000000E+00  0.00000000E+00  0.00000000E+00
  0.00000000E+00  0.00000000E+00  0.00000000E+00
  0.00000000E+00  0.00000000E+00  0.00000000E+00
  0.00000000E+00  0.00000000E+00  0.00000000E+00
  0.00000000E+00  0.00000000E+00  0.00000000E+00
  0.00000000E+00  0.00000000E+00  0.00000000E+00
  0.00000000E+00  0.00000000E+00  0.00000000E+00
  0.00000000E+00  0.00000000E+00  0.00000000E+00
  0.00000000E+00  0.00000000E+00  0.00000000E+00
  0.00000000E+00  0.00000000E+00  0.00000000E+00
  0.00000000E+00  0.00000000E+00  0.00000000E+00
  0.00000000E+00  0.00000000E+00  0.00000000E+00
  0.00000000E+00  0.00000000E+00  0.00000000E+00
  0.00000000E+00  0.00000000E+00  0.00000000E+00
  0.00000000E+00  0.00000000E+00  0.00000000E+00
  0.00000000E+00  0.00000000E+00  0.00000000E+00
  0.00000000E+00  0.00000000E+00  0.00000000E+00
  0.00000000E+00  0.00000000E+00  0.00000000E+00
  0.00000000E+00  0.00000000E+00  0.00000000E+00
  0.00000000E+00  0.00000000E+00  0.00000000E+00
  0.00000000E+00  0.00000000E+00  0.00000000E+00
  0.00000000E+00  0.00000000E+00  0.00000000E+00
  0.00000000E+00  0.00000000E+00  0.00000000E+00
  0.00000000E+00  0.00000000E+00  0.00000000E+00
  0.00000000E+00  0.00000000E+00  0.00000000E+00
  0.00000000E+00  0.00000000E+00  0.00000000E+00
  0.00000000E+00  0.00000000E+00  0.00000000E+00
  0.00000000E+00  0.00000000E+00  0.00000000E+00
  0.00000000E+00  0.00000000E+00  0.00000000E+00
  0.00000000E+00  0.00000000E+00  0.00000000E+00
  0.00000000E+00  0.00000000E+00  0.00000000E+00
  0.00000000E+00  0.00000000E+00  0.00000000E+00
  0.00000000E+00  0.00000000E+00  0.00000000E+00
  0.00000000E+00  0.00000000E+00  0.00000000E+00
  0.00000000E+00  0.00000000E+00  0.00000000E+00
  0.00000000E+00  0.00000000E+00  0.00000000E+00
  0.00000000E+00  0.00000000E+00  0.00000000E+00
  0.00000000E+00  0.00000000E+00  0.00000000E+00
  0.00000000E+00  0.00000000E+00  0.00000000E+00
  0.00000000E+00  0.00000000E+00  0.00000000E+00
  0.00000000E+00  0.00000000E+00  0.00000000E+00
  0.00000000E+00  0.00000000E+00  0.00000000E+00
  0.00000000E+00  0.00000000E+00  0.00000000E+00
  0.00000000E+00  0.00000000E+00  0.00000000E+00
  0.00000000E+00  0.00000000E+00  0.00000000E+00
  0.00000000E+00  0.00000000E+00  0.00000000E+00
  0.00000000E+00  0.00000000E+00  0.00000000E+00
  0.00000000E+00  0.00000000E+00  0.00000000E+00
  0.00000000E+00  0.00000000E+00  0.00000000E+00
  0.00000000E+00  0.00000000E+00  0.00000000E+00
  0.00000000E+00  0.00000000E+00  0.00000000E+00
  0.00000000E+00  0.00000000E+00  0.00000000E+00
  0.00000000E+00  0.00000000E+00  0.00000000E+00
  0.00000000E+00  0.00000000E+00  0.00000000E+00
  0.00000000E+00  0.00000000E+00  0.00000000E+00
  0.00000000E+00  0.00000000E+00  0.00000000E+00
  0.00000000E+00  0.00000000E+00  0.00000000E+00
  0.00000000E+00  0.00000000E+00  0.00000000E+00
  0.00000000E+00  0.00000000E+00  0.00000000E+00
  0.00000000E+00  0.00000000E+00  0.00000000E+00
  0.00000000E+00  0.00000000E+00  0.00000000E+00
  0.00000000E+00  0.00000000E+00  0.00000000E+00
  0.00000000E+00  0.00000000E+00  0.00000000E+00
  0.00000000E+00  0.00000000E+00  0.00000000E+00
  0.00000000E+00  0.00000000E+00  0.00000000E+00
  0.00000000E+00  0.00000000E+00  0.00000000E+00
  0.00000000E+00  0.00000000E+00  0.00000000E+00
  0.00000000E+00  0.00000000E+00  0.00000000E+00
  0.00000000E+00  0.00000000E+00  0.00000000E+00
  0.00000000E+00  0.00000000E+00  0.00000000E+00
  0.00000000E+00  0.00000000E+00  0.00000000E+00
  0.00000000E+00  0.00000000E+00  0.00000000E+00
  0.00000000E+00  0.00000000E+00  0.00000000E+00
  0.00000000E+00  0.00000000E+00  0.00000000E+00
  0.00000000E+00  0.00000000E+00  0.00000000E+00
  0.00000000E+00  0.00000000E+00  0.00000000E+00
  0.00000000E+00  0.00000000E+00  0.00000000E+00
  0.00000000E+00  0.00000000E+00  0.00000000E+00
  0.00000000E+00  0.00000000E+00  0.00000000E+00
  0.00000000E+00  0.00000000E+00  0.00000000E+00
  0.00000000E+00  0.00000000E+00  0.00000000E+00
  0.00000000E+00  0.00000000E+00  0.00000000E+00
  0.00000000E+00  0.00000000E+00  0.00000000E+00
  0.00000000E+00  0.00000000E+00  0.00000000E+00
  0.00000000E+00  0.00000000E+00  0.00000000E+00
  0.00000000E+00  0.00000000E+00  0.00000000E+00
  0.00000000E+00  0.00000000E+00  0.00000000E+00
  0.00000000E+00  0.00000000E+00  0.00000000E+00
  0.00000000E+00  0.00000000E+00  0.00000000E+00
  0.00000000E+00  0.00000000E+00  0.00000000E+00
  0.00000000E+00  0.00000000E+00  0.00000000E+00
  0.00000000E+00  0.00000000E+00  0.00000000E+00
  0.00000000E+00  0.00000000E+00  0.00000000E+00
  0.00000000E+00  0.00000000E+00  0.00000000E+00
  0.00000000E+00  0.00000000E+00  0.00000000E+00
  0.00000000E+00  0.00000000E+00  0.00000000E+00
  0.00000000E+00  0.00000000E+00  0.00000000E+00
  0.00000000E+00  0.00000000E+00  0.00000000E+00
  0.00000000E+00  0.00000000E+00  0.00000000E+00
  0.00000000E+00  0.00000000E+00  0.00000000E+00
  0.00000000E+00  0.00000000E+00  0.00000000E+00
  0.00000000E+00  0.00000000E+00  0.00000000E+00
  0.00000000E+00  0.00000000E+00  0.00000000E+00
  0.00000000E+00  0.00000000E+00  0.00000000E+00
  0.00000000E+00  0.00000000E+00  0.00000000E+00
  0.00000000E+00  0.00000000E+00  0.00000000E+00
  0.00000000E+00  0.00000000E+00  0.00000000E+00
  0.00000000E+00  0.00000000E+00  0.00000000E+00
  0.00000000E+00  0.00000000E+00  0.00000000E+00
  0.00000000E+00  0.00000000E+00  0.00000000E+00
  0.00000000E+00  0.00000000E+00  0.00000000E+00
  0.00000000E+00  0.00000000E+00  0.00000000E+00
  0.00000000E+00  0.00000000E+00  0.00000000E+00
  0.00000000E+00  0.00000000E+00  0.00000000E+00
  0.00000000E+00  0.00000000E+00  0.00000000E+00
  0.00000000E+00  0.00000000E+00  0.00000000E+00
  0.00000000E+00  0.00000000E+00  0.00000000E+00
  0.00000000E+00  0.00000000E+00  0.00000000E+00
  0.00000000E+00  0.00000000E+00  0.00000000E+00
  0.00000000E+00  0.00000000E+00  0.00000000E+00
  0.00000000E+00  0.00000000E+00  0.00000000E+00
  0.00000000E+00  0.00000000E+00  0.00000000E+00
  0.00000000E+00  0.00000000E+00  0.00000000E+00
  0.00000000E+00  0.00000000E+00  0.00000000E+00
  0.00000000E+00  0.00000000E+00  0.00000000E+00
  0.00000000E+00  0.00000000E+00  0.00000000E+00
  0.00000000E+00  0.00000000E+00  0.00000000E+00
  0.00000000E+00  0.00000000E+00  0.00000000E+00
  0.00000000E+00  0.00000000E+00  0.00000000E+00
  0.00000000E+00  0.00000000E+00  0.00000000E+00
  0.00000000E+00  0.00000000E+00  0.00000000E+00
  0.00000000E+00  0.00000000E+00  0.00000000E+00
  0.00000000E+00  0.00000000E+00  0.00000000E+00
  0.00000000E+00  0.00000000E+00  0.00000000E+00
  0.00000000E+00  0.00000000E+00  0.00000000E+00
  0.00000000E+00  0.00000000E+00  0.00000000E+00
  0.00000000E+00  0.00000000E+00  0.00000000E+00
  0.00000000E+00  0.00000000E+00  0.00000000E+00
  0.00000000E+00  0.00000000E+00  0.00000000E+00
  0.00000000E+00  0.00000000E+00  0.00000000E+00
  0.00000000E+00  0.00000000E+00  0.00000000E+00
  0.00000000E+00  0.00000000E+00  0.00000000E+00
  0.00000000E+00  0.00000000E+00  0.00000000E+00
  0.00000000E+00  0.00000000E+00  0.00000000E+00
  0.00000000E+00  0.00000000E+00  0.00000000E+00
  0.00000000E+00  0.00000000E+00  0.00000000E+00
  0.00000000E+00  0.00000000E+00  0.00000000E+00
  0.00000000E+00  0.00000000E+00  0.00000000E+00
  0.00000000E+00  0.00000000E+00  0.00000000E+00
  0.00000000E+00  0.00000000E+00  0.00000000E+00
  0.00000000E+00  0.00000000E+00  0.00000000E+00
  0.00000000E+00  0.00000000E+00  0.00000000E+00
  0.00000000E+00  0.00000000E+00  0.00000000E+00
  0.00000000E+00  0.00000000E+00  0.00000000E+00
  0.00000000E+00  0.00000000E+00  0.00000000E+00
  0.00000000E+00  0.00000000E+00  0.00000000E+00
  0.00000000E+00  0.00000000E+00  0.00000000E+00
  0.00000000E+00  0.00000000E+00  0.00000000E+00
  0.00000000E+00  0.00000000E+00  0.00000000E+00
  0.00000000E+00  0.00000000E+00  0.00000000E+00
  0.00000000E+00  0.00000000E+00  0.00000000E+00
  0.00000000E+00  0.00000000E+00  0.00000000E+00
  0.00000000E+00  0.00000000E+00  0.00000000E+00
  0.00000000E+00  0.00000000E+00  0.00000000E+00
  0.00000000E+00  0.00000000E+00  0.00000000E+00
  0.00000000E+00  0.00000000E+00  0.00000000E+00
  0.00000000E+00  0.00000000E+00  0.00000000E+00
  0.00000000E+00  0.00000000E+00  0.00000000E+00
  0.00000000E+00  0.00000000E+00  0.00000000E+00
  0.00000000E+00  0.00000000E+00  0.00000000E+00
  0.00000000E+00  0.00000000E+00  0.00000000E+00
  0.00000000E+00  0.00000000E+00  0.00000000E+00
  0.00000000E+00  0.00000000E+00  0.00000000E+00
  0.00000000E+00  0.00000000E+00  0.00000000E+00
  0.00000000E+00  0.00000000E+00  0.00000000E+00
  0.00000000E+00  0.00000000E+00  0.00000000E+00
  0.00000000E+00  0.00000000E+00  0.00000000E+00
  0.00000000E+00  0.00000000E+00  0.00000000E+00
  0.00000000E+00  0.00000000E+00  0.00000000E+00
  0.00000000E+00  0.00000000E+00  0.00000000E+00
  0.00000000E+00  0.00000000E+00  0.00000000E+00
  0.00000000E+00  0.00000000E+00  0.00000000E+00
  0.00000000E+00  0.00000000E+00  0.00000000E+00
  0.00000000E+00  0.00000000E+00  0.00000000E+00
  0.00000000E+00  0.00000000E+00  0.00000000E+00
  0.00000000E+00  0.00000000E+00  0.00000000E+00
  0.00000000E+00  0.00000000E+00  0.00000000E+00
  0.00000000E+00  0.00000000E+00  0.00000000E+00
  0.00000000E+00  0.00000000E+00  0.00000000E+00
  0.00000000E+00  0.00000000E+00  0.00000000E+00
  0.00000000E+00  0.00000000E+00  0.00000000E+00
  0.00000000E+00  0.00000000E+00  0.00000000E+00
  0.00000000E+00  0.00000000E+00  0.00000000E+00
  0.00000000E+00  0.00000000E+00  0.00000000E+00
  0.00000000E+00  0.00000000E+00  0.00000000E+00
  0.00000000E+00  0.00000000E+00  0.00000000E+00
  0.00000000E+00  0.00000000E+00  0.00000000E+00
  0.00000000E+00  0.00000000E+00  0.00000000E+00
  0.00000000E+00  0.00000000E+00  0.00000000E+00
  0.00000000E+00  0.00000000E+00  0.00000000E+00
  0.00000000E+00  0.00000000E+00  0.00000000E+00
  0.00000000E+00  0.00000000E+00  0.00000000E+00
  0.00000000E+00  0.00000000E+00  0.00000000E+00
  0.00000000E+00  0.00000000E+00  0.00000000E+00
  0.00000000E+00  0.00000000E+00  0.00000000E+00
  0.00000000E+00  0.00000000E+00  0.00000000E+00
  0.00000000E+00  0.00000000E+00  0.00000000E+00
  0.00000000E+00  0.00000000E+00  0.00000000E+00
  0.00000000E+00  0.00000000E+00  0.00000000E+00
  0.00000000E+00  0.00000000E+00  0.00000000E+00
  0.00000000E+00  0.00000000E+00  0.00000000E+00
  0.00000000E+00  0.00000000E+00  0.00000000E+00
  0.00000000E+00  0.00000000E+00  0.00000000E+00
  0.00000000E+00  0.00000000E+00  0.00000000E+00
  0.00000000E+00  0.00000000E+00  0.00000000E+00
  0.00000000E+00  0.00000000E+00  0.00000000E+00
  0.00000000E+00  0.00000000E+00  0.00000000E+00
  0.00000000E+00  0.00000000E+00  0.00000000E+00
  0.00000000E+00  0.00000000E+00  0.00000000E+00
  0.00000000E+00  0.00000000E+00  0.00000000E+00
  0.00000000E+00  0.00000000E+00  0.00000000E+00
  0.00000000E+00  0.00000000E+00  0.00000000E+00
  0.00000000E+00  0.00000000E+00  0.00000000E+00
  0.00000000E+00  0.00000000E+00  0.00000000E+00
  0.00000000E+00  0.00000000E+00  0.00000000E+00
  0.00000000E+00  0.00000000E+00  0.00000000E+00
  0.00000000E+00  0.00000000E+00  0.00000000E+00
  0.00000000E+00  0.00000000E+00  0.00000000E+00