CuInSe2gb                               
   1.00000000000000     
     9.7266780392896699    0.0000000000000000    0.0000000000000000
     0.0000000000000000    8.4235502764570693    0.0000000000000000
     0.0000000000000000    0.0000000000000000   45.0000000000000000
   Fe   Mn
   274    14
Direct
  0.0611501890001724  0.0302713447420464  0.1241794071378482
  0.3163282384531243  0.8749869801955891  0.6550825679559945
  0.1837190542962534  0.1232324790311177  0.7886611737746979
  0.4416483700012635  0.2876892717255375  0.3890979213331636
  0.3182564624147340  0.7136671011499864  0.8331916526055934
  0.8180825577680145  0.2151929488423830  0.8336509092352654
  0.1916598874903309  0.9634427206885793  0.8335865202337623
  0.5621035571002830  0.2069888762813457  0.5655617681669153
  0.0656138473200772  0.0404995010699808  0.7441560534433983
  0.8116726489119258  0.8715929805917200  0.5214449119688898
  0.1908462741079812  0.2910031377466962  0.7443520342655536
  0.9335683292206570  0.4523639935778286  0.3448767642946274
  0.9412196647112913  0.2866963808448135  0.3889237600069344
  0.8126840749011003  0.0408010560222726  0.8757850369703691
  0.1837034194449534  0.7880966562331374  0.6109093561344886
  0.5662913753649615  0.0376797136111786  0.3890360774474242
  0.9427535268078648  0.9650155859177886  0.8339226923926136
  0.3132103912502233  0.5407197871333170  0.8760483827927595
  0.6903937088472409  0.2914493224560529  0.7442017939425039
  0.1829414488381622  0.6134853231718922  0.1667112696994146
  0.8122262268461568  0.2058925838524016  0.4786502779467771
  0.8090482750500668  0.5383901972730443  0.6110429476685156
  0.3121149013429695  0.8705922515572826  0.4344610012995987
  0.8090893162763154  0.0377557116439242  0.2558604051612164
  0.6827366083109695  0.9519429061838168  0.3448052930020001
  0.3154326293877230  0.7038379631037879  0.2116638823972968
  0.0619812699284128  0.8718042084887179  0.5214011571195525
  0.5583054370417888  0.5372293525950610  0.2556782737685968
  0.6845745945506730  0.7979344439124588  0.8759612936101944
  0.5567456458453499  0.3651683309417467  0.1666603198447936
  0.4395180088036605  0.7922247151182829  0.7444253335661966
  0.8113467598056977  0.7065522204579937  0.5654663156708393
  0.5591414628505875  0.8735603619475706  0.7885573550102862
  0.6867492470282810  0.1218863895794857  0.5214124246690123
  0.8162909093457605  0.3749679108179802  0.6549818769476953
  0.9423080205935361  0.4643083161323814  0.8337810648112883
  0.0605486858175567  0.2074842619971915  0.6997165774965416
  0.4353114314194189  0.9576083008764742  0.6997241903154305
  0.3171412602013441  0.2129911199047638  0.8334185507205328
  0.4412289575031317  0.6248339961231892  0.6549661286288643
  0.3089638082714711  0.5382342526612497  0.6109700674391215
  0.9364696383690728  0.4564188929765288  0.5656058524444315
  0.6902389760898747  0.7917335443258636  0.7442613713756349
  0.9349303655545391  0.7892513114064678  0.1241621041316105
  0.6917319295014791  0.7877043398279084  0.3890512937424839
  0.9404701066467503  0.7908884168018738  0.7444789877568067
  0.0586533084529729  0.2027811488595146  0.3449392660332509
  0.6837601433108447  0.4523640551354779  0.3449307937052949
  0.4337079715612980  0.1228747892508920  0.7889976088776329
  0.0660801858117008  0.2039528787945844  0.2115009184922744
  0.0552296805518716  0.3643613722702015  0.1667178229684479
  0.9334751600758960  0.7877090039349002  0.2557549605811861
  0.5605015144949786  0.2070063526064235  0.6997691992313966
  0.6851830721564118  0.9571633792636053  0.6997902755790939
  0.8088029490029388  0.8738483013196299  0.7883482752154106
  0.4368448980015898  0.9570939449790397  0.5654039981338802
  0.8089927245873489  0.3748320923768002  0.7885064220056657
  0.6838908201144160  0.2872589597406298  0.2558316178932180
  0.1874308854250730  0.4571221221127462  0.5655146619530098
  0.0551522845858377  0.8659645800660547  0.1666042857731603
  0.1841489609388988  0.2885375065124538  0.6110730543386350
  0.0622632350184821  0.2071156178001962  0.5653825533915163
  0.3105725941202794  0.2073422040346502  0.6997893495644991
  0.5624388590860970  0.5409847418686209  0.8759884396790284
  0.0621216334933388  0.7066564734602270  0.5655711002806825
  0.6829616021894240  0.6226823210771003  0.7886069032965932
  0.3159269297799181  0.5382450959115292  0.3889395292569575
  0.1870349941557280  0.6216153923334411  0.5214641320401470
  0.5626873093447688  0.8705371145864575  0.4344412246055023
  0.4368128827737806  0.4569131754026164  0.5655487101590410
  0.4399708630647870  0.2916675316184602  0.7442245844279552
  0.8209509740350013  0.8731994100009658  0.3002225142221657
  0.8085770284347389  0.7026438402725782  0.3449193020751131
  0.4426178791215908  0.4628622206194782  0.8333367246614588
  0.6874957534738708  0.9557952327529600  0.4787496503905090
  0.6847592604148861  0.4574140731706237  0.6997974168399529
  0.5620482266544671  0.8722837450114106  0.5214522985436025
  0.5662780047309192  0.3745791901840787  0.6549727059214612
  0.8160817904793300  0.8748900850525281  0.6550867542720252
  0.8117627644112614  0.3715769144681174  0.4341804958498922
  0.8083458198532231  0.5375143328207981  0.2558347573309384
  0.6921835347342066  0.4621255667258344  0.8333285864232773
  0.1857681924224765  0.7867750891036716  0.1241719671620767
  0.6914615386606006  0.2872581821579730  0.3890773580318872
  0.3160452372696939  0.3743284938007342  0.6549790006415237
  0.3087380933930796  0.2024674592676898  0.3447365848102079
  0.8157640481627245  0.5404338200352278  0.7441816505298565
  0.6920396218716508  0.9621174815001475  0.8334677694112772
  0.5660881917413495  0.8744339378085398  0.6549822944175451
  0.3113302179111344  0.7070362022642125  0.5655447391849063
  0.3132141249132511  0.5301014389583150  0.1241424684261986
  0.6909364928351817  0.9552240310647026  0.2117160519002892
  0.3113566204476511  0.2066101720684718  0.5654993068366236
  0.1874362475476970  0.9558558127687338  0.4786768362540325
  0.6873368933814014  0.9569406199829048  0.5655525997473924
  0.4338961463832547  0.7882112880654540  0.6109749799675973
  0.6826176365342337  0.6110549048332102  0.1662623343742817
  0.3193972107858866  0.8738470569963437  0.3001849528168813
  0.3122983056972360  0.7058831076448735  0.4786356833079511
  0.9336067061940814  0.2878605631683834  0.6109040431163233
  0.4464497346100811  0.6235978601704057  0.3001481676927218
  0.8074094582638284  0.8635378753081661  0.1667570241750471
  0.5670822810783562  0.2027372125353041  0.2113584879003963
  0.9334519682597343  0.6124571194873633  0.1665333760888036
  0.4372284537976707  0.9558781964382824  0.4786618197490388
  0.5589534145653533  0.3733759512034892  0.7887281689961063
  0.0614743969805680  0.3723842237528171  0.5214123077679773
  0.3064976807293998  0.3642419917300278  0.1666831568545536
  0.6956608663075137  0.1231998418250746  0.3002743579018099
  0.4428481498400711  0.9633164098548208  0.8333953653942177
  0.1851656771178308  0.2870773073355636  0.1242571933208273
  0.1837324914992550  0.2878557668933220  0.2558908382960007
  0.3124278441676495  0.3705315657773768  0.4344770802256246
  0.5616418432683127  0.0326666914052186  0.1244686498593711
  0.4339721716366585  0.2883263925943226  0.6109699602106341
  0.1836116575158787  0.4525781739514795  0.3449249940137410
  0.4341955395717189  0.2859689437970760  0.1242214434363992
  0.6831392422228403  0.7875860673135644  0.2557513251417743
  0.4368644771250347  0.1217989809735283  0.5214693212776456
  0.1884383606115772  0.2969101778894491  0.8761756917720841
  0.1912439283147554  0.1249676797701936  0.6551570763177262
  0.9411702812451674  0.1249384047807216  0.6549457055280313
  0.8162590196399260  0.5376196615709233  0.3890019977073552
  0.0665999890342366  0.0380315560423879  0.3891658531441111
  0.1832337031699395  0.1126644259226953  0.1664666483978958
  0.0587821624264586  0.5381334835979862  0.6109695827086565
  0.9337766860819469  0.2873831617814431  0.2557840877800929
  0.5589845345767815  0.5382905253339489  0.6109685644112492
  0.9366561913429789  0.9571796671661014  0.5655411842836380
  0.6952437462014937  0.6236241090042137  0.3000731447229335
  0.9374975317155522  0.6204179434633356  0.4344454085204469
  0.9331708627168306  0.6244335044269348  0.7883635027850964
  0.5603629434162211  0.7073983360394483  0.6997364312957850
  0.0660609225738054  0.7168515705199345  0.8339659689879372
  0.9456127069814281  0.1227992894927439  0.3001321041572997
  0.9336261498026724  0.7876419649947333  0.6109179517180825
  0.4328659851402095  0.7873707425010514  0.2556116465785662
  0.3088906118397637  0.3738449104193365  0.7887677712700570
  0.4402585435896585  0.4535385282321723  0.2113151516838991
  0.1869699714342045  0.1219471287253002  0.5213936246604759
  0.8103172576834746  0.7073836396767020  0.6997216242340734
  0.0587725728338102  0.0380314536256439  0.6108797911238933
  0.5660744100793033  0.2135932586120801  0.8332454299658102
  0.3117675114369038  0.8719325227313798  0.5214283122935068
  0.6859468916267381  0.2870685046598198  0.1238260154108271
  0.1900906440729416  0.9547733450221092  0.2117609045470958
  0.6838554636371387  0.2885617460965061  0.6110399998232319
  0.3090326432082404  0.0383802761664607  0.6110478272103135
  0.9341039100896960  0.1247867102902024  0.7885995251325091
  0.4366016352772684  0.7978296246856409  0.8762225198784024
  0.8157356928929154  0.0407317563123026  0.7441803086528331
  0.9351979064340494  0.4581231969797517  0.6996579449644335
  0.1911551112898118  0.6250456190639950  0.6550580644089358
  0.3103767727939215  0.7068950627951813  0.6997869153350813
  0.9344889867520154  0.2862611931145739  0.1242174193455799
  0.4374495815620715  0.4559227539466805  0.4786043786043008
  0.0624568940362360  0.7058183196170895  0.4785629183030376
  0.9370311423373356  0.1198983648690136  0.4345412521229202
  0.4448202712789450  0.1226320056802799  0.3003588568277281
  0.1866959756776518  0.1201111279866747  0.4342876391167860
  0.5627360123113352  0.0406268130520719  0.8760087238697385
  0.1869780419894888  0.9571649548140995  0.5655213466401263
  0.6837827121746887  0.7875688565986780  0.1244471363159234
  0.5591890940320786  0.7024880870485227  0.3448828665249663
  0.3162766974780759  0.0371246632793366  0.3888351421229367
  0.6823369315857561  0.1138865883327250  0.1667603041939768
  0.8151947854429733  0.2033692950925676  0.2114830459209831
  0.0588268565912520  0.5365289537836431  0.2557194236549386
  0.5624954602144443  0.7056474213565852  0.4786382968594050
  0.4352593244840203  0.7866685989756456  0.1241801219615894
  0.5700694340725260  0.3720151281192797  0.3001384855279073
  0.4337528488979684  0.9525574672406082  0.3449682674287746
  0.1850053585570014  0.9574883215311130  0.6997793858757310
  0.4321612755759709  0.6130084976135987  0.1664651123885580
  0.9401664313480413  0.4545637060347825  0.2117385319091148
  0.0630356788671186  0.5309571278077955  0.1241544079764303
  0.8118690910611773  0.3721094699166213  0.5213929013385695
  0.9451928367274779  0.6240834204149442  0.2997395958246798
  0.3084657013292987  0.0369258255596915  0.2557307627825983
  0.6838498309069730  0.7878633704774713  0.6109355839700004
  0.1918425831241529  0.4634309016147526  0.8334757740594110
  0.4325199549458071  0.1114035762137378  0.1666472157432396
  0.3118975423870051  0.3720259895006874  0.5214044770366704
  0.4330961173613170  0.6230404314693371  0.7889130107652640
  0.0583654691364550  0.0370507332372333  0.2556475103839541
  0.5623936234616701  0.7070968959376406  0.5655277064431202
  0.9401907621029234  0.2907244713477783  0.7444827421792063
  0.6822228486095055  0.1228801232943459  0.7885378296587284
  0.1906335716245349  0.4534160587759972  0.2113772599795843
  0.9412145081512320  0.7872859375565479  0.3888467268707236
  0.6855311445731468  0.2991574831455600  0.8759920328814825
  0.5557322652785445  0.8628308410678706  0.1665158810129121
  0.4355422292690659  0.4575296455215397  0.6997482188159381
  0.9339635115337308  0.9514431119289135  0.3448060987277257
  0.6866202531264685  0.6215814899657732  0.5213665497598347
  0.0663612359925808  0.8747445393601966  0.6549171596924892
  0.0590772963472182  0.8742174688916936  0.7884501275679670
  0.0662650046201140  0.3747084960123952  0.6549388699910939
  0.6873341675179343  0.4556572922598681  0.4786310499783097
  0.1837187906803115  0.7872153873874358  0.2555381046141841
  0.4369574090712994  0.1207078844117829  0.4343944673178267
  0.8147218752578859  0.0309346701473412  0.1239537464827569
  0.9367894335961635  0.6219964472862014  0.5214178350307214
  0.4413770854614499  0.1247015419202636  0.6549073475232373
  0.8118309596974377  0.5305301926069638  0.1241197293151957
  0.4334942895164245  0.4523797092512171  0.3449435216549340
  0.8087884524749923  0.2024634850143800  0.3449233474250124
  0.3089263599249132  0.7014738907613040  0.3448262455003938
  0.6911586305751257  0.1247728383732477  0.6549519188253480
  0.5696714524733121  0.8735779782240853  0.3001537267873529
  0.0653903192378876  0.5410371081470549  0.7443278412975866
  0.9398066587880940  0.9537788845107558  0.2112840240178219
  0.8170623415997723  0.7032578354646122  0.2113926326603922
  0.0705187041751801  0.8729627020921996  0.3001178146712289
  0.1954989431396449  0.1231681487206190  0.3001431566236478
  0.0587068857110969  0.7022772041701020  0.3448947622896581
  0.8090526937659969  0.0383624093353753  0.6109881251432480
  0.0627934193578938  0.3720015269960302  0.4343152441980514
  0.5586237688815359  0.2024531048763814  0.3447629521499115
  0.8198540653087449  0.3741201149704242  0.3001563901996150
  0.5593121644533836  0.0375756345413660  0.2554500198280661
  0.5664774412200514  0.5377031689921028  0.3890430834768537
  0.0624935545636063  0.2060398486485262  0.4786678435787645
  0.3103136600383068  0.8732330362648856  0.7884068693853716
  0.9353007503692687  0.9581195640545702  0.6996570491159736
  0.0697707789314146  0.3745206484858394  0.3000854627595312
  0.6910920290606689  0.6251399839977499  0.6552044995647164
  0.6865524272219067  0.4570412357962114  0.5654166286364105
  0.4413086562417656  0.9547032200591891  0.2119087622534425
  0.3125291834660266  0.2057108525884537  0.4787298738526308
  0.8121797770771587  0.5403014718228997  0.8758734305430870
  0.6878863885387239  0.6205434325590278  0.4344633380791035
  0.8107847054922961  0.2074889498783369  0.6998106900923721
  0.8125253502004927  0.7057676368918189  0.4786009740946195
  0.8116153008848696  0.8712869032704893  0.4342694951915640
  0.9373889776865024  0.9553412589666176  0.4787159018353058
  0.5622718110992551  0.2057499191779336  0.4786833160150826
  0.1871155233055542  0.6197350976997953  0.4344734481166508
  0.3150458715289324  0.0417975077718818  0.7440905111656063
  0.9414274877414472  0.6250508161813625  0.6549221859940241
  0.5662882579099754  0.7136437461510233  0.8333345425551772
  0.3205778405863267  0.3728033025582130  0.3001069892428235
  0.3152100321990257  0.5413911111397680  0.7442677654244091
  0.1873571329927912  0.4557589687684379  0.4786505458446362
  0.3143871692029976  0.0412601327984913  0.8758813170122278
  0.1852715885695543  0.4576848238563530  0.6996651028826255
  0.5618322354929730  0.3720348848421689  0.5213969273398472
  0.1910702393996692  0.2875662196169289  0.3889102895347085
  0.3154852669009212  0.2036369703629372  0.2111805360792933
  0.0664061709997131  0.7028810143258172  0.2111211113386718
  0.5618818315983487  0.3708713297261388  0.4343653534675579
  0.4366615644556928  0.6221291704306561  0.5213795556504121
  0.8171368656357858  0.7154176200865757  0.8333578734763810
  0.0589065035927148  0.3752589651783712  0.7884269204026071
  0.4367820114593617  0.2983859849408724  0.8763556772086979
  0.3115654280686886  0.0311144236299656  0.1242421539825373
  0.6874487293287062  0.1200146531187773  0.4344266726607441
  0.1837510438529166  0.9520661183858191  0.3449161985759694
  0.0669234768516530  0.2152564265303518  0.8340049473214219
  0.5591505347584766  0.0385930545119805  0.6111137294387464
  0.6893491553989674  0.4545389838201663  0.2117395182496310
  0.1897463152258092  0.7916297888490252  0.7444090310805713
  0.1957703022470265  0.6222534292317429  0.3000383322381547
  0.4416538099621832  0.7877027112597192  0.3890904503771928
  0.4331595398092677  0.2875555836474357  0.2557545262519851
  0.0634080445751675  0.5408084048798981  0.8758908934740074
  0.5655939354815915  0.0413696994661553  0.7442538146297357
  0.1877869173384299  0.7973224436420482  0.8760920375911982
  0.9372846199058770  0.4556346213749057  0.4786708360454798
  0.5650264966340919  0.5412595677084839  0.7440760177385844
  0.8112719131875447  0.2069618433959592  0.5654753498792641
  0.1843288677473691  0.6225132482934230  0.7884995421525063
  0.0672857166794500  0.5384352005221137  0.3890840161241155
  0.0606532472731361  0.7076941553705915  0.6996760815532106
  0.3077949905331758  0.5369779390771763  0.2558081739890838
  0.9311815530394567  0.1122948754236329  0.1662072371910220
  0.3059991151920821  0.8638643342141453  0.1660031263647458
  0.4367225460655894  0.6209031685556770  0.4343518868506265
  0.8182666537237481  0.0390194796013538  0.3890196696074317
  0.9348724819173961  0.2979962153766435  0.8755743228851021
  0.9369088883374578  0.7955088093760738  0.8755935879880669
  0.0653721545767546  0.0391160476896782  0.8757630148438003
  0.5617341597415275  0.5291385793465775  0.1244307180799515
  0.8044050191190272  0.3661432937439393  0.1658066524936856
  0.0621521539606751  0.8714743365368918  0.4344405318074596
  0.9366293868063444  0.1218110877943058  0.5215572481816364
  0.1933965475392611  0.7875834793121635  0.3887175766375348
  0.5655156948555448  0.7034107296819732  0.2120738949792448
 
  0.00000000E+00  0.00000000E+00  0.00000000E+00
  0.00000000E+00  0.00000000E+00  0.00000000E+00
  0.00000000E+00  0.00000000E+00  0.00000000E+00
  0.00000000E+00  0.00000000E+00  0.00000000E+00
  0.00000000E+00  0.00000000E+00  0.00000000E+00
  0.00000000E+00  0.00000000E+00  0.00000000E+00
  0.00000000E+00  0.00000000E+00  0.00000000E+00
  0.00000000E+00  0.00000000E+00  0.00000000E+00
  0.00000000E+00  0.00000000E+00  0.00000000E+00
  0.00000000E+00  0.00000000E+00  0.00000000E+00
  0.00000000E+00  0.00000000E+00  0.00000000E+00
  0.00000000E+00  0.00000000E+00  0.00000000E+00
  0.00000000E+00  0.00000000E+00  0.00000000E+00
  0.00000000E+00  0.00000000E+00  0.00000000E+00
  0.00000000E+00  0.00000000E+00  0.00000000E+00
  0.00000000E+00  0.00000000E+00  0.00000000E+00
  0.00000000E+00  0.00000000E+00  0.00000000E+00
  0.00000000E+00  0.00000000E+00  0.00000000E+00
  0.00000000E+00  0.00000000E+00  0.00000000E+00
  0.00000000E+00  0.00000000E+00  0.00000000E+00
  0.00000000E+00  0.00000000E+00  0.00000000E+00
  0.00000000E+00  0.00000000E+00  0.00000000E+00
  0.00000000E+00  0.00000000E+00  0.00000000E+00
  0.00000000E+00  0.00000000E+00  0.00000000E+00
  0.00000000E+00  0.00000000E+00  0.00000000E+00
  0.00000000E+00  0.00000000E+00  0.00000000E+00
  0.00000000E+00  0.00000000E+00  0.00000000E+00
  0.00000000E+00  0.00000000E+00  0.00000000E+00
  0.00000000E+00  0.00000000E+00  0.00000000E+00
  0.00000000E+00  0.00000000E+00  0.00000000E+00
  0.00000000E+00  0.00000000E+00  0.00000000E+00
  0.00000000E+00  0.00000000E+00  0.00000000E+00
  0.00000000E+00  0.00000000E+00  0.00000000E+00
  0.00000000E+00  0.00000000E+00  0.00000000E+00
  0.00000000E+00  0.00000000E+00  0.00000000E+00
  0.00000000E+00  0.00000000E+00  0.00000000E+00
  0.00000000E+00  0.00000000E+00  0.00000000E+00
  0.00000000E+00  0.00000000E+00  0.00000000E+00
  0.00000000E+00  0.00000000E+00  0.00000000E+00
  0.00000000E+00  0.00000000E+00  0.00000000E+00
  0.00000000E+00  0.00000000E+00  0.00000000E+00
  0.00000000E+00  0.00000000E+00  0.00000000E+00
  0.00000000E+00  0.00000000E+00  0.00000000E+00
  0.00000000E+00  0.00000000E+00  0.00000000E+00
  0.00000000E+00  0.00000000E+00  0.00000000E+00
  0.00000000E+00  0.00000000E+00  0.00000000E+00
  0.00000000E+00  0.00000000E+00  0.00000000E+00
  0.00000000E+00  0.00000000E+00  0.00000000E+00
  0.00000000E+00  0.00000000E+00  0.00000000E+00
  0.00000000E+00  0.00000000E+00  0.00000000E+00
  0.00000000E+00  0.00000000E+00  0.00000000E+00
  0.00000000E+00  0.00000000E+00  0.00000000E+00
  0.00000000E+00  0.00000000E+00  0.00000000E+00
  0.00000000E+00  0.00000000E+00  0.00000000E+00
  0.00000000E+00  0.00000000E+00  0.00000000E+00
  0.00000000E+00  0.00000000E+00  0.00000000E+00
  0.00000000E+00  0.00000000E+00  0.00000000E+00
  0.00000000E+00  0.00000000E+00  0.00000000E+00
  0.00000000E+00  0.00000000E+00  0.00000000E+00
  0.00000000E+00  0.00000000E+00  0.00000000E+00
  0.00000000E+00  0.00000000E+00  0.00000000E+00
  0.00000000E+00  0.00000000E+00  0.00000000E+00
  0.00000000E+00  0.00000000E+00  0.00000000E+00
  0.00000000E+00  0.00000000E+00  0.00000000E+00
  0.00000000E+00  0.00000000E+00  0.00000000E+00
  0.00000000E+00  0.00000000E+00  0.00000000E+00
  0.00000000E+00  0.00000000E+00  0.00000000E+00
  0.00000000E+00  0.00000000E+00  0.00000000E+00
  0.00000000E+00  0.00000000E+00  0.00000000E+00
  0.00000000E+00  0.00000000E+00  0.00000000E+00
  0.00000000E+00  0.00000000E+00  0.00000000E+00
  0.00000000E+00  0.00000000E+00  0.00000000E+00
  0.00000000E+00  0.00000000E+00  0.00000000E+00
  0.00000000E+00  0.00000000E+00  0.00000000E+00
  0.00000000E+00  0.00000000E+00  0.00000000E+00
  0.00000000E+00  0.00000000E+00  0.00000000E+00
  0.00000000E+00  0.00000000E+00  0.00000000E+00
  0.00000000E+00  0.00000000E+00  0.00000000E+00
  0.00000000E+00  0.00000000E+00  0.00000000E+00
  0.00000000E+00  0.00000000E+00  0.00000000E+00
  0.00000000E+00  0.00000000E+00  0.00000000E+00
  0.00000000E+00  0.00000000E+00  0.00000000E+00
  0.00000000E+00  0.00000000E+00  0.00000000E+00
  0.00000000E+00  0.00000000E+00  0.00000000E+00
  0.00000000E+00  0.00000000E+00  0.00000000E+00
  0.00000000E+00  0.00000000E+00  0.00000000E+00
  0.00000000E+00  0.00000000E+00  0.00000000E+00
  0.00000000E+00  0.00000000E+00  0.00000000E+00
  0.00000000E+00  0.00000000E+00  0.00000000E+00
  0.00000000E+00  0.00000000E+00  0.00000000E+00
  0.00000000E+00  0.00000000E+00  0.00000000E+00
  0.00000000E+00  0.00000000E+00  0.00000000E+00
  0.00000000E+00  0.00000000E+00  0.00000000E+00
  0.00000000E+00  0.00000000E+00  0.00000000E+00
  0.00000000E+00  0.00000000E+00  0.00000000E+00
  0.00000000E+00  0.00000000E+00  0.00000000E+00
  0.00000000E+00  0.00000000E+00  0.00000000E+00
  0.00000000E+00  0.00000000E+00  0.00000000E+00
  0.00000000E+00  0.00000000E+00  0.00000000E+00
  0.00000000E+00  0.00000000E+00  0.00000000E+00
  0.00000000E+00  0.00000000E+00  0.00000000E+00
  0.00000000E+00  0.00000000E+00  0.00000000E+00
  0.00000000E+00  0.00000000E+00  0.00000000E+00
  0.00000000E+00  0.00000000E+00  0.00000000E+00
  0.00000000E+00  0.00000000E+00  0.00000000E+00
  0.00000000E+00  0.00000000E+00  0.00000000E+00
  0.00000000E+00  0.00000000E+00  0.00000000E+00
  0.00000000E+00  0.00000000E+00  0.00000000E+00
  0.00000000E+00  0.00000000E+00  0.00000000E+00
  0.00000000E+00  0.00000000E+00  0.00000000E+00
  0.00000000E+00  0.00000000E+00  0.00000000E+00
  0.00000000E+00  0.00000000E+00  0.00000000E+00
  0.00000000E+00  0.00000000E+00  0.00000000E+00
  0.00000000E+00  0.00000000E+00  0.00000000E+00
  0.00000000E+00  0.00000000E+00  0.00000000E+00
  0.00000000E+00  0.00000000E+00  0.00000000E+00
  0.00000000E+00  0.00000000E+00  0.00000000E+00
  0.00000000E+00  0.00000000E+00  0.00000000E+00
  0.00000000E+00  0.00000000E+00  0.00000000E+00
  0.00000000E+00  0.00000000E+00  0.00000000E+00
  0.00000000E+00  0.00000000E+00  0.00000000E+00
  0.00000000E+00  0.00000000E+00  0.00000000E+00
  0.00000000E+00  0.00000000E+00  0.00000000E+00
  0.00000000E+00  0.00000000E+00  0.00000000E+00
  0.00000000E+00  0.00000000E+00  0.00000000E+00
  0.00000000E+00  0.00000000E+00  0.00000000E+00
  0.00000000E+00  0.00000000E+00  0.00000000E+00
  0.00000000E+00  0.00000000E+00  0.00000000E+00
  0.00000000E+00  0.00000000E+00  0.00000000E+00
  0.00000000E+00  0.00000000E+00  0.00000000E+00
  0.00000000E+00  0.00000000E+00  0.00000000E+00
  0.00000000E+00  0.00000000E+00  0.00000000E+00
  0.00000000E+00  0.00000000E+00  0.00000000E+00
  0.00000000E+00  0.00000000E+00  0.00000000E+00
  0.00000000E+00  0.00000000E+00  0.00000000E+00
  0.00000000E+00  0.00000000E+00  0.00000000E+00
  0.00000000E+00  0.00000000E+00  0.00000000E+00
  0.00000000E+00  0.00000000E+00  0.00000000E+00
  0.00000000E+00  0.00000000E+00  0.00000000E+00
  0.00000000E+00  0.00000000E+00  0.00000000E+00
  0.00000000E+00  0.00000000E+00  0.00000000E+00
  0.00000000E+00  0.00000000E+00  0.00000000E+00
  0.00000000E+00  0.00000000E+00  0.00000000E+00
  0.00000000E+00  0.00000000E+00  0.00000000E+00
  0.00000000E+00  0.00000000E+00  0.00000000E+00
  0.00000000E+00  0.00000000E+00  0.00000000E+00
  0.00000000E+00  0.00000000E+00  0.00000000E+00
  0.00000000E+00  0.00000000E+00  0.00000000E+00
  0.00000000E+00  0.00000000E+00  0.00000000E+00
  0.00000000E+00  0.00000000E+00  0.00000000E+00
  0.00000000E+00  0.00000000E+00  0.00000000E+00
  0.00000000E+00  0.00000000E+00  0.00000000E+00
  0.00000000E+00  0.00000000E+00  0.00000000E+00
  0.00000000E+00  0.00000000E+00  0.00000000E+00
  0.00000000E+00  0.00000000E+00  0.00000000E+00
  0.00000000E+00  0.00000000E+00  0.00000000E+00
  0.00000000E+00  0.00000000E+00  0.00000000E+00
  0.00000000E+00  0.00000000E+00  0.00000000E+00
  0.00000000E+00  0.00000000E+00  0.00000000E+00
  0.00000000E+00  0.00000000E+00  0.00000000E+00
  0.00000000E+00  0.00000000E+00  0.00000000E+00
  0.00000000E+00  0.00000000E+00  0.00000000E+00
  0.00000000E+00  0.00000000E+00  0.00000000E+00
  0.00000000E+00  0.00000000E+00  0.00000000E+00
  0.00000000E+00  0.00000000E+00  0.00000000E+00
  0.00000000E+00  0.00000000E+00  0.00000000E+00
  0.00000000E+00  0.00000000E+00  0.00000000E+00
  0.00000000E+00  0.00000000E+00  0.00000000E+00
  0.00000000E+00  0.00000000E+00  0.00000000E+00
  0.00000000E+00  0.00000000E+00  0.00000000E+00
  0.00000000E+00  0.00000000E+00  0.00000000E+00
  0.00000000E+00  0.00000000E+00  0.00000000E+00
  0.00000000E+00  0.00000000E+00  0.00000000E+00
  0.00000000E+00  0.00000000E+00  0.00000000E+00
  0.00000000E+00  0.00000000E+00  0.00000000E+00
  0.00000000E+00  0.00000000E+00  0.00000000E+00
  0.00000000E+00  0.00000000E+00  0.00000000E+00
  0.00000000E+00  0.00000000E+00  0.00000000E+00
  0.00000000E+00  0.00000000E+00  0.00000000E+00
  0.00000000E+00  0.00000000E+00  0.00000000E+00
  0.00000000E+00  0.00000000E+00  0.00000000E+00
  0.00000000E+00  0.00000000E+00  0.00000000E+00
  0.00000000E+00  0.00000000E+00  0.00000000E+00
  0.00000000E+00  0.00000000E+00  0.00000000E+00
  0.00000000E+00  0.00000000E+00  0.00000000E+00
  0.00000000E+00  0.00000000E+00  0.00000000E+00
  0.00000000E+00  0.00000000E+00  0.00000000E+00
  0.00000000E+00  0.00000000E+00  0.00000000E+00
  0.00000000E+00  0.00000000E+00  0.00000000E+00
  0.00000000E+00  0.00000000E+00  0.00000000E+00
  0.00000000E+00  0.00000000E+00  0.00000000E+00
  0.00000000E+00  0.00000000E+00  0.00000000E+00
  0.00000000E+00  0.00000000E+00  0.00000000E+00
  0.00000000E+00  0.00000000E+00  0.00000000E+00
  0.00000000E+00  0.00000000E+00  0.00000000E+00
  0.00000000E+00  0.00000000E+00  0.00000000E+00
  0.00000000E+00  0.00000000E+00  0.00000000E+00
  0.00000000E+00  0.00000000E+00  0.00000000E+00
  0.00000000E+00  0.00000000E+00  0.00000000E+00
  0.00000000E+00  0.00000000E+00  0.00000000E+00
  0.00000000E+00  0.00000000E+00  0.00000000E+00
  0.00000000E+00  0.00000000E+00  0.00000000E+00
  0.00000000E+00  0.00000000E+00  0.00000000E+00
  0.00000000E+00  0.00000000E+00  0.00000000E+00
  0.00000000E+00  0.00000000E+00  0.00000000E+00
  0.00000000E+00  0.00000000E+00  0.00000000E+00
  0.00000000E+00  0.00000000E+00  0.00000000E+00
  0.00000000E+00  0.00000000E+00  0.00000000E+00
  0.00000000E+00  0.00000000E+00  0.00000000E+00
  0.00000000E+00  0.00000000E+00  0.00000000E+00
  0.00000000E+00  0.00000000E+00  0.00000000E+00
  0.00000000E+00  0.00000000E+00  0.00000000E+00
  0.00000000E+00  0.00000000E+00  0.00000000E+00
  0.00000000E+00  0.00000000E+00  0.00000000E+00
  0.00000000E+00  0.00000000E+00  0.00000000E+00
  0.00000000E+00  0.00000000E+00  0.00000000E+00
  0.00000000E+00  0.00000000E+00  0.00000000E+00
  0.00000000E+00  0.00000000E+00  0.00000000E+00
  0.00000000E+00  0.00000000E+00  0.00000000E+00
  0.00000000E+00  0.00000000E+00  0.00000000E+00
  0.00000000E+00  0.00000000E+00  0.00000000E+00
  0.00000000E+00  0.00000000E+00  0.00000000E+00
  0.00000000E+00  0.00000000E+00  0.00000000E+00
  0.00000000E+00  0.00000000E+00  0.00000000E+00
  0.00000000E+00  0.00000000E+00  0.00000000E+00
  0.00000000E+00  0.00000000E+00  0.00000000E+00
  0.00000000E+00  0.00000000E+00  0.00000000E+00
  0.00000000E+00  0.00000000E+00  0.00000000E+00
  0.00000000E+00  0.00000000E+00  0.00000000E+00
  0.00000000E+00  0.00000000E+00  0.00000000E+00
  0.00000000E+00  0.00000000E+00  0.00000000E+00
  0.00000000E+00  0.00000000E+00  0.00000000E+00
  0.00000000E+00  0.00000000E+00  0.00000000E+00
  0.00000000E+00  0.00000000E+00  0.00000000E+00
  0.00000000E+00  0.00000000E+00  0.00000000E+00
  0.00000000E+00  0.00000000E+00  0.00000000E+00
  0.00000000E+00  0.00000000E+00  0.00000000E+00
  0.00000000E+00  0.00000000E+00  0.00000000E+00
  0.00000000E+00  0.00000000E+00  0.00000000E+00
  0.00000000E+00  0.00000000E+00  0.00000000E+00
  0.00000000E+00  0.00000000E+00  0.00000000E+00
  0.00000000E+00  0.00000000E+00  0.00000000E+00
  0.00000000E+00  0.00000000E+00  0.00000000E+00
  0.00000000E+00  0.00000000E+00  0.00000000E+00
  0.00000000E+00  0.00000000E+00  0.00000000E+00
  0.00000000E+00  0.00000000E+00  0.00000000E+00
  0.00000000E+00  0.00000000E+00  0.00000000E+00