FeMn_288_15                             
    1.000000000000000     
     9.7266779999999997    0.0000000000000000    0.0000000000000000
     0.0000000000000000    8.4235500000000005    0.0000000000000000
     0.0000000000000000    0.0000000000000000   45.0000000000000000
   Fe   Mn
   273    15
Direct
  0.9376654852695474  0.6195281860525230  0.1690169152045917
  0.6875514178191265  0.7861789581339885  0.2577935114128822
  0.1872315087977167  0.6227557543198763  0.5212967971702261
  0.5621997609079487  0.7062462874130430  0.5650844523107595
  0.4374134548260784  0.2901546629348321  0.6097463586290676
  0.9375853252480676  0.4539778195822665  0.3463750186482082
  0.4374891360371021  0.9537211169497819  0.3463402332891636
  0.8123898364569886  0.2026998490441256  0.2136860918956416
  0.6877769990073316  0.6224880908576522  0.5213095146293089
  0.5622363606358260  0.5361748537321124  0.2577911447599273
  0.8121034682476305  0.3711385400614397  0.4347377379741126
  0.5626849324871472  0.7051753744080558  0.4785663713411971
  0.4374645668328651  0.2921895826891729  0.8735312275929790
  0.6871487752076184  0.4555062014271502  0.4785768984662678
  0.1873897110030532  0.2909465881862484  0.7422129061456536
  0.6872104378070275  0.9553659019422742  0.4786920943369154
  0.6874326846690563  0.6196985607096051  0.3018824907188489
  0.3124285973383795  0.7026749585503528  0.2135693805767497
  0.6875376913070369  0.7852073027314513  0.1267737856186686
  0.0625777630373854  0.5425751104591631  0.8735777978534794
  0.3126567791834989  0.7057947349394248  0.5650067566429163
  0.4371305256388006  0.4562935220804744  0.5650863816863734
  0.0622451083995647  0.7076681504797889  0.6980578149108218
  0.5623058554021343  0.2083912564356039  0.6980676206629735
  0.9374173494901328  0.6219250826441535  0.4346951541142656
  0.1877508775960984  0.1239601764764863  0.6536937522064257
  0.0624431515306576  0.2060703588304336  0.5652018728390410
  0.8125458715674352  0.0404223554453622  0.6097982644119719
  0.6874513486637506  0.9539428747879518  0.3463268191391763
  0.0627714502486123  0.7051614802541296  0.4785764527359154
  0.5621623853429720  0.5419744410216241  0.7421368475470604
  0.5626648783543753  0.2082453744407369  0.8311693863125311
  0.8125868869631114  0.2081809448650125  0.6981010111297351
  0.0626107788578283  0.2083175126689711  0.8313767102338637
  0.8122983367364793  0.8723530414173010  0.5213315404357920
  0.4374474801143264  0.1222858434791473  0.5213716781054678
  0.1882124179052807  0.4557551783017211  0.4786257642347426
  0.8120607760159497  0.7051472081202009  0.4785655958798786
  0.4375385276936669  0.6239620080327971  0.6536143857901314
  0.6877631718320615  0.6212391822409923  0.4347895240833771
  0.0624371621913436  0.2038064941724406  0.3463858149731589
  0.3124065816615603  0.3684032387196737  0.1689547825727788
  0.1873065659339287  0.7901200953725211  0.6096313266023783
  0.3122041905675452  0.2030901694822072  0.2136925589873883
  0.0626725678345556  0.3714843128150618  0.4350859591216180
  0.3129234925151851  0.0362708623513767  0.1265677277057650
  0.8124545653421863  0.7038696513796626  0.3463689228425758
  0.5623616874872591  0.0402052694778077  0.6097451387215230
  0.3125498112213410  0.3754316179455665  0.7863533451498717
  0.1875221642508666  0.2866206323954313  0.2578524738086959
  0.0628374610963746  0.0415262032661195  0.7422371019118726
  0.5625948477356951  0.3753329789438801  0.7864425394557981
  0.6874067853176928  0.2859630645126785  0.1267329246334836
  0.3126450903702522  0.0363785642955771  0.2578334306716209
  0.6875348171519901  0.7876372208942619  0.3902286917010090
  0.0626053407372615  0.3742252021744646  0.6535876242984627
  0.1873739097287067  0.9560724972998802  0.5651016772396177
  0.9374732616749955  0.1190331781869151  0.1689071330230410
  0.9371194623648612  0.7898579299339799  0.6096875516280819
  0.3124207355689996  0.2036613263359996  0.3463800890518227
  0.1874939690238510  0.1193944212552521  0.1688816274136470
  0.5623283232612668  0.0423062996851670  0.7422766052082141
  0.8125428501222184  0.2038340777754765  0.3463371080398342
  0.9374467015389822  0.7879611763472403  0.3901843583302759
  0.5624310792404343  0.2053208369826330  0.4786661693344375
  0.6876024871191356  0.7900885190760801  0.6096299603897921
  0.1874135368328275  0.1199913242551578  0.3019381854285075
  0.6875917816345494  0.2921653094874027  0.8735615792326746
  0.5628969795626909  0.5362993175416473  0.1267983534290273
  0.6878440929780202  0.6251612403057736  0.7864131142754457
  0.4375407262612325  0.4526548090470990  0.2136376621847856
  0.4375828053910680  0.2916321556673327  0.7422160392580270
  0.4375537413784950  0.1199518464679596  0.3018798673003650
  0.8124603166401764  0.2083541274293283  0.8314347025682677
  0.1876689102360283  0.6242557696063896  0.6536841252062237
  0.9374604140275186  0.6231735120546378  0.5212579002677370
  0.4377159762170394  0.4580506305764011  0.6980252548458890
  0.9373221642344276  0.9575165167692936  0.6978826359005271
  0.5624940427049240  0.7077575820193135  0.6980499915398158
  0.0622592011814465  0.3762000941289726  0.7862758775550807
  0.3124823467386837  0.8745811967608584  0.7861821674117440
  0.4374241799323522  0.9554369493048108  0.4785824950886008
  0.5623474961261301  0.8724297918012813  0.5213288228622395
  0.5625163164547795  0.2062538362466129  0.5650944222071297
  0.9373072188806809  0.1253884970860402  0.7864528369641935
  0.5626387563612849  0.2038140654081031  0.3464508017656639
  0.5625988673484532  0.8749209777089233  0.7863508241819567
  0.5627520563599367  0.3699191433899948  0.3019655000650790
  0.3124601999667104  0.5372166498318874  0.3902743521104804
  0.6874401740264451  0.1201382412964654  0.3019766137490074
  0.9376921150986227  0.2904691352616823  0.6097061983850690
  0.3131823375513060  0.0431935024907667  0.8733997226827133
  0.1876024529415678  0.2859190651899707  0.1267551031816358
  0.4375064907647149  0.2863980366468154  0.2578726814956601
  0.9377098141845250  0.7911974812909148  0.8735734834308602
  0.8123022068298436  0.0417076691010542  0.7422152763578503
  0.5627198404989666  0.8699187704797917  0.3018295606861510
  0.5623990675274885  0.7038015269290158  0.3462911044161912
  0.3125624502615609  0.8742624934700609  0.6536266778198263
  0.0622661882260746  0.3694738208527993  0.1689725666627510
  0.9375138042476489  0.2859882447606406  0.1267614109752058
  0.5622518097170496  0.3733548867513182  0.6535066442848163
  0.6875324448076269  0.1195344366344279  0.1688803469928844
  0.6874472077541496  0.7918253864127318  0.7423378914179849
  0.0625217154900131  0.2026753366420142  0.2136544491195327
  0.8123876092150515  0.7085265358026341  0.8311579315905565
  0.9378515664510956  0.9563799180587744  0.5649565185750978
  0.1878438576073574  0.9553646567430730  0.4785944517900084
  0.0623235922180281  0.5403072386792183  0.6097017014250694
  0.5623604417226543  0.5400437196577516  0.6097064822423526
  0.9386251561906022  0.9589433881427689  0.8313509630894916
  0.6872144148009233  0.4562546040718352  0.5650853338677370
  0.8124978124896683  0.8698993467044412  0.3019380674641697
  0.3129802225495613  0.8692886276933457  0.1689155529367259
  0.4381610022344419  0.7911131772479351  0.8732957237976565
  0.6874559122165426  0.7913687025061041  0.8733026590113758
  0.3125345512221402  0.7080930882348107  0.6980303583610740
  0.5628762826047272  0.2027816463905401  0.2137263811819196
  0.4378032175868228  0.9579257591070228  0.6978408138476987
  0.0625983342533015  0.8758039939733515  0.7863705281309432
  0.1877448636324344  0.1216817837036009  0.4347635241897326
  0.9375200187234838  0.9538483263392507  0.3463331623211998
  0.8126337797722699  0.2065546315526830  0.5652125693747667
  0.1875488429756804  0.6199032965753073  0.3019136932690659
  0.9375749446896638  0.9527410830288094  0.2136436964059476
  0.1880866061921500  0.4560671936313574  0.5651397644369142
  0.6874502826206662  0.9589099931553733  0.8311450590195963
  0.3125834128536177  0.3714275876353836  0.4347793536125356
  0.8124995885643600  0.5361421957024451  0.2578568347174993
  0.5625443919627997  0.8741476749644577  0.6536514694362646
  0.4373873733994819  0.6224883175173372  0.5212612328679155
  0.0625208379418096  0.8742981116755688  0.6535859075606030
  0.3125242803362472  0.0419668821639957  0.7422253775005525
  0.9373828335357880  0.2912077484453880  0.7422830737104701
  0.4376463212320443  0.7860718098578469  0.2578095170992359
  0.3125513923924402  0.5421405264566317  0.8734589557747079
  0.3122332011977785  0.2053336432255684  0.4786564281131788
  0.5623806602022740  0.0375981664841607  0.3903228270838419
  0.0623463246732280  0.8716976262204303  0.4348835438471784
  0.3125548686453954  0.5417144586289839  0.7422160824397421
  0.8115545479513713  0.0434034817477889  0.8733581558701463
  0.5626213815300665  0.7025400227224636  0.2135738182801855
  0.9377509086346969  0.1242623005113104  0.6536921642512544
  0.4375930296354418  0.4537031353110467  0.3463249890766702
  0.9373098785467842  0.4577472073758838  0.6980287719414885
  0.6872844887311189  0.9527637773710146  0.2136661045204160
  0.3125672263086878  0.2079020531975858  0.6980127247088542
  0.1871202541489720  0.6190426127356344  0.1688841341768532
  0.8128364168827233  0.2051319206423464  0.4786113727267375
  0.4376405294384895  0.7873492404337304  0.3902311811269190
  0.8127824634231772  0.3755448785177889  0.7863673132485982
  0.9378016025729787  0.7913500185249416  0.7421290996781930
  0.8124265734393407  0.8746239868508068  0.7862022432043757
  0.1867283623188783  0.9594662451127418  0.8313589511530339
  0.3126682914960623  0.5404871338831617  0.6097804085571972
  0.9375791530366210  0.1214818939375896  0.4347734000862507
  0.8126995481927246  0.5375656064269200  0.3901771199587691
  0.6876068944630838  0.1225499417968062  0.5213655146230782
  0.3125171129303168  0.7037821920163854  0.3462993249690245
  0.0623806689784543  0.5359791399695550  0.1267351175955557
  0.5625379168027504  0.5423237715835308  0.8734208877622275
  0.8126032958388743  0.3698404764172391  0.1688860348869055
  0.6873022604290411  0.9579321667624460  0.6980421999290595
  0.9375261091170400  0.7857837202279356  0.1267086821479069
  0.1878314845942914  0.1223665663353115  0.5213691809068182
  0.4377620177972862  0.9589996651746835  0.8312229549352264
  0.4374950701930908  0.1216391702268286  0.4348972042702194
  0.0627643600700056  0.5363000986999129  0.2578157024471279
  0.6877374149246513  0.4583524375434692  0.6978487754444826
  0.8124106553289379  0.5420758794624385  0.8734113524902188
  0.8131324455822748  0.0360839066465262  0.1267839754787672
  0.8125768608275727  0.8689957981047153  0.1688977070152845
  0.9375598651978819  0.4563260740587475  0.5648195897207706
  0.6875644978569319  0.4582041893431827  0.8311697239333440
  0.9372276118372164  0.6251034769529280  0.7863065209073528
  0.1874891089866500  0.2876384896922841  0.3901296045016623
  0.8125168343525677  0.7028906147805046  0.2136895598676639
  0.0626725387417462  0.7038030945714295  0.3462786814810158
  0.8118787292231201  0.3719810065934848  0.5212844358421508
  0.0624138328480954  0.2076018532666152  0.6980182062526654
  0.9376586404630243  0.2878941990937312  0.3902505072075246
  0.4376828765627542  0.1253668299814301  0.7863954184944442
  0.6874760942797999  0.2861319240323787  0.2578025536058258
  0.3122674821363267  0.2083738568514799  0.8314331689130974
  0.9375489188177487  0.9554192203922353  0.4786012350848327
  0.5627027604427769  0.3685296675084604  0.1689249537729329
  0.6875371651286957  0.2915841260569601  0.7421960404037482
  0.1872683410285029  0.7854142436951168  0.1267974183325381
  0.0627583480743346  0.5374291006096062  0.3902130357212031
  0.4376873377673762  0.7863332739913224  0.1267511758504871
  0.3122758421565665  0.2064263878052010  0.5650768126436663
  0.6871663857871638  0.1239149036431593  0.6537078094768259
  0.3125035871871868  0.3699599351106609  0.3019519408528437
  0.1875064321996211  0.4526733618844527  0.2136792892120801
  0.3130216703339162  0.7082012770029190  0.8312365813960434
  0.4373960402695457  0.9521564014530071  0.2137097186570469
  0.0622683174472107  0.8699308485831272  0.3018225203662152
  0.4374324918829372  0.6214438742918614  0.4348419967887086
  0.8123351182060459  0.8741261371662995  0.6536217752688422
  0.3124120780998598  0.7053998382177901  0.4785693802122628
  0.4377317705289251  0.7900603804830288  0.6096906828751042
  0.6874646591397248  0.4526719249645996  0.2136954751220919
  0.4374589524984674  0.2855360850448521  0.1266077110572292
  0.0625310173805888  0.2045350249044012  0.4787072753985962
  0.0625090709219115  0.5415087083229772  0.7421994578206842
  0.3121159923152377  0.5362033062090488  0.1267988414036490
  0.9374535024216152  0.4595955926920549  0.8311715197459535
  0.3125305627340498  0.8714285875182528  0.4347803082345714
  0.4374808381177365  0.6187779504512800  0.1689138882749659
  0.5624799224268709  0.3713682419013674  0.4348472590229927
  0.6873547858486593  0.4539420959678339  0.3462968663537440
  0.4371894367164327  0.1240266791732439  0.6536990928589871
  0.1875437886217810  0.4537831948524378  0.3462776770883655
  0.5618706435553590  0.8691548101569251  0.1687923749478722
  0.0624973546214717  0.8724204055950272  0.5212738679355291
  0.3125362383490347  0.0373677261953275  0.3902349862111417
  0.5625498335375055  0.8714506681148149  0.4348769596555289
  0.1887676605807748  0.2916299817519296  0.8734305956943476
  0.0622720001866036  0.3698830226609105  0.3019109366842125
  0.9370691114936838  0.1224902400923042  0.5213971171125894
  0.4374655350305166  0.6199461292094545  0.3019105884459628
  0.8124416464122329  0.7078688331631930  0.6980171655406151
  0.9375328469317518  0.2860644222707864  0.2578268089419202
  0.0626626572468950  0.0379183267361644  0.3902864196301540
  0.3124011832908163  0.0402692876297813  0.6097206615235268
  0.0627827214798696  0.0361708112230297  0.2578130691674156
  0.5621372191973870  0.5375862180311015  0.3901947999604830
  0.1873235660659023  0.2906513833081582  0.6096603252858472
  0.4373334442132187  0.7919202777136219  0.7422451338090446
  0.4374094805427721  0.4552606232230980  0.4785880599254027
  0.5621044535507665  0.0362459093189852  0.1265677781142561
  0.3125577688759301  0.3739271012580146  0.6536047699363172
  0.0618313528660032  0.0361705948499322  0.1267704854285282
  0.1874583872096899  0.4600014205222060  0.8311098258570758
  0.1875217653711962  0.7920170783254837  0.7422827944349725
  0.9376184830457884  0.1202422316575004  0.3019245612996757
  0.1875778602204410  0.9536774120867948  0.3463300205940698
  0.9374977116965973  0.4527554762146865  0.2136461112477831
  0.5621661399187557  0.7087538919364021  0.8312650677235902
  0.8125821168916880  0.5356661259307957  0.1267440184134700
  0.0623742226843233  0.7059230612966948  0.5651041643179380
  0.1873891680978452  0.7861770830613536  0.2577964670550063
  0.0624252092353875  0.7025966240070288  0.2136163663291779
  0.0625004382456382  0.0403298473537842  0.6097682599959331
  0.8125529970902021  0.8714663859714072  0.4348796717148913
  0.1873854313010612  0.6215295393240029  0.4347177451275502
  0.1877744887842603  0.6250299193762402  0.7863502914903246
  0.5627259247216632  0.0420894692134676  0.8734388588061303
  0.1874414038607211  0.7873313803849964  0.3902232876111657
  0.3125354563198305  0.5363395575452465  0.2578552928776541
  0.3127747428893997  0.8724101439813933  0.5213100786406502
  0.8123265290692606  0.5402182438240111  0.6097921478496321
  0.1868329098485140  0.7905224752842678  0.8735894089801428
  0.9375814775549642  0.6197055432742717  0.3018848248591118
  0.6872884939442486  0.6235633733498079  0.6536561772755154
  0.9362336793069443  0.2923310572732379  0.8733857228650614
  0.6877577674598627  0.6193971281052059  0.1689408773604618
  0.4375864441214947  0.2876819513278818  0.3901999794120913
  0.5624379329169102  0.3725409760585104  0.5213523999454748
  0.4372104439939120  0.9561615891948174  0.5651033961940182
  0.6873852827029221  0.2899146068349683  0.6097074838342685
  0.1877930028782863  0.9526377678954336  0.2136628230741026
  0.8124759470547811  0.3739671703107318  0.6536634197737550
  0.3127761618980764  0.3721669989417262  0.5213782945379047
  0.8124936231472674  0.3700348933748209  0.3017961294866454
  0.4376332399477130  0.4584233476661922  0.8312151253360003
  0.5620439036501187  0.0362817316236464  0.2578449978344077
  0.0626063970348150  0.8687996825906336  0.1687916421171148
  0.6872321011931083  0.1216117127742848  0.4348908423048518
  0.1872198342455527  0.4580087635874934  0.6979008769945818
  0.8125374215391205  0.7063516392323540  0.5651946308101001
  0.6873498616576520  0.2874794896149783  0.3902052520858496
  0.9374508765652264  0.7861767986869171  0.2578117398518300
  0.8125742051175207  0.0361328238995551  0.2577322400292670
  0.9374169336889812  0.4553613712241847  0.4786577702854390
  0.6875113943610207  0.1250957440420764  0.7860489177914941
  0.3125138831704734  0.8698467508373329  0.3018987100858865
  0.6873869487870253  0.9563111277601242  0.5651389746065220
  0.0628012200066076  0.7097938075385267  0.8320304026376771
  0.0629372973253110  0.0419182991717086  0.8731829424269485
  0.8125457182930850  0.0378318215945371  0.3901416222898139
  0.9374038946645871  0.6240380914809984  0.6535505136940895
  0.1875916460194589  0.9580687564321201  0.6979888993724337
  0.1873703080622378  0.1248829915202213  0.7862227322280072
  0.8127508540930535  0.5417209461944852  0.7423672852477242
  0.4375183629514081  0.1190050643988356  0.1682473202333105
  0.4372394630033610  0.6248975815665210  0.7861554230175640
  0.0626195741369279  0.3723709301256422  0.5212275003962038
 
  0.00000000E+00  0.00000000E+00  0.00000000E+00
  0.00000000E+00  0.00000000E+00  0.00000000E+00
  0.00000000E+00  0.00000000E+00  0.00000000E+00
  0.00000000E+00  0.00000000E+00  0.00000000E+00
  0.00000000E+00  0.00000000E+00  0.00000000E+00
  0.00000000E+00  0.00000000E+00  0.00000000E+00
  0.00000000E+00  0.00000000E+00  0.00000000E+00
  0.00000000E+00  0.00000000E+00  0.00000000E+00
  0.00000000E+00  0.00000000E+00  0.00000000E+00
  0.00000000E+00  0.00000000E+00  0.00000000E+00
  0.00000000E+00  0.00000000E+00  0.00000000E+00
  0.00000000E+00  0.00000000E+00  0.00000000E+00
  0.00000000E+00  0.00000000E+00  0.00000000E+00
  0.00000000E+00  0.00000000E+00  0.00000000E+00
  0.00000000E+00  0.00000000E+00  0.00000000E+00
  0.00000000E+00  0.00000000E+00  0.00000000E+00
  0.00000000E+00  0.00000000E+00  0.00000000E+00
  0.00000000E+00  0.00000000E+00  0.00000000E+00
  0.00000000E+00  0.00000000E+00  0.00000000E+00
  0.00000000E+00  0.00000000E+00  0.00000000E+00
  0.00000000E+00  0.00000000E+00  0.00000000E+00
  0.00000000E+00  0.00000000E+00  0.00000000E+00
  0.00000000E+00  0.00000000E+00  0.00000000E+00
  0.00000000E+00  0.00000000E+00  0.00000000E+00
  0.00000000E+00  0.00000000E+00  0.00000000E+00
  0.00000000E+00  0.00000000E+00  0.00000000E+00
  0.00000000E+00  0.00000000E+00  0.00000000E+00
  0.00000000E+00  0.00000000E+00  0.00000000E+00
  0.00000000E+00  0.00000000E+00  0.00000000E+00
  0.00000000E+00  0.00000000E+00  0.00000000E+00
  0.00000000E+00  0.00000000E+00  0.00000000E+00
  0.00000000E+00  0.00000000E+00  0.00000000E+00
  0.00000000E+00  0.00000000E+00  0.00000000E+00
  0.00000000E+00  0.00000000E+00  0.00000000E+00
  0.00000000E+00  0.00000000E+00  0.00000000E+00
  0.00000000E+00  0.00000000E+00  0.00000000E+00
  0.00000000E+00  0.00000000E+00  0.00000000E+00
  0.00000000E+00  0.00000000E+00  0.00000000E+00
  0.00000000E+00  0.00000000E+00  0.00000000E+00
  0.00000000E+00  0.00000000E+00  0.00000000E+00
  0.00000000E+00  0.00000000E+00  0.00000000E+00
  0.00000000E+00  0.00000000E+00  0.00000000E+00
  0.00000000E+00  0.00000000E+00  0.00000000E+00
  0.00000000E+00  0.00000000E+00  0.00000000E+00
  0.00000000E+00  0.00000000E+00  0.00000000E+00
  0.00000000E+00  0.00000000E+00  0.00000000E+00
  0.00000000E+00  0.00000000E+00  0.00000000E+00
  0.00000000E+00  0.00000000E+00  0.00000000E+00
  0.00000000E+00  0.00000000E+00  0.00000000E+00
  0.00000000E+00  0.00000000E+00  0.00000000E+00
  0.00000000E+00  0.00000000E+00  0.00000000E+00
  0.00000000E+00  0.00000000E+00  0.00000000E+00
  0.00000000E+00  0.00000000E+00  0.00000000E+00
  0.00000000E+00  0.00000000E+00  0.00000000E+00
  0.00000000E+00  0.00000000E+00  0.00000000E+00
  0.00000000E+00  0.00000000E+00  0.00000000E+00
  0.00000000E+00  0.00000000E+00  0.00000000E+00
  0.00000000E+00  0.00000000E+00  0.00000000E+00
  0.00000000E+00  0.00000000E+00  0.00000000E+00
  0.00000000E+00  0.00000000E+00  0.00000000E+00
  0.00000000E+00  0.00000000E+00  0.00000000E+00
  0.00000000E+00  0.00000000E+00  0.00000000E+00
  0.00000000E+00  0.00000000E+00  0.00000000E+00
  0.00000000E+00  0.00000000E+00  0.00000000E+00
  0.00000000E+00  0.00000000E+00  0.00000000E+00
  0.00000000E+00  0.00000000E+00  0.00000000E+00
  0.00000000E+00  0.00000000E+00  0.00000000E+00
  0.00000000E+00  0.00000000E+00  0.00000000E+00
  0.00000000E+00  0.00000000E+00  0.00000000E+00
  0.00000000E+00  0.00000000E+00  0.00000000E+00
  0.00000000E+00  0.00000000E+00  0.00000000E+00
  0.00000000E+00  0.00000000E+00  0.00000000E+00
  0.00000000E+00  0.00000000E+00  0.00000000E+00
  0.00000000E+00  0.00000000E+00  0.00000000E+00
  0.00000000E+00  0.00000000E+00  0.00000000E+00
  0.00000000E+00  0.00000000E+00  0.00000000E+00
  0.00000000E+00  0.00000000E+00  0.00000000E+00
  0.00000000E+00  0.00000000E+00  0.00000000E+00
  0.00000000E+00  0.00000000E+00  0.00000000E+00
  0.00000000E+00  0.00000000E+00  0.00000000E+00
  0.00000000E+00  0.00000000E+00  0.00000000E+00
  0.00000000E+00  0.00000000E+00  0.00000000E+00
  0.00000000E+00  0.00000000E+00  0.00000000E+00
  0.00000000E+00  0.00000000E+00  0.00000000E+00
  0.00000000E+00  0.00000000E+00  0.00000000E+00
  0.00000000E+00  0.00000000E+00  0.00000000E+00
  0.00000000E+00  0.00000000E+00  0.00000000E+00
  0.00000000E+00  0.00000000E+00  0.00000000E+00
  0.00000000E+00  0.00000000E+00  0.00000000E+00
  0.00000000E+00  0.00000000E+00  0.00000000E+00
  0.00000000E+00  0.00000000E+00  0.00000000E+00
  0.00000000E+00  0.00000000E+00  0.00000000E+00
  0.00000000E+00  0.00000000E+00  0.00000000E+00
  0.00000000E+00  0.00000000E+00  0.00000000E+00
  0.00000000E+00  0.00000000E+00  0.00000000E+00
  0.00000000E+00  0.00000000E+00  0.00000000E+00
  0.00000000E+00  0.00000000E+00  0.00000000E+00
  0.00000000E+00  0.00000000E+00  0.00000000E+00
  0.00000000E+00  0.00000000E+00  0.00000000E+00
  0.00000000E+00  0.00000000E+00  0.00000000E+00
  0.00000000E+00  0.00000000E+00  0.00000000E+00
  0.00000000E+00  0.00000000E+00  0.00000000E+00
  0.00000000E+00  0.00000000E+00  0.00000000E+00
  0.00000000E+00  0.00000000E+00  0.00000000E+00
  0.00000000E+00  0.00000000E+00  0.00000000E+00
  0.00000000E+00  0.00000000E+00  0.00000000E+00
  0.00000000E+00  0.00000000E+00  0.00000000E+00
  0.00000000E+00  0.00000000E+00  0.00000000E+00
  0.00000000E+00  0.00000000E+00  0.00000000E+00
  0.00000000E+00  0.00000000E+00  0.00000000E+00
  0.00000000E+00  0.00000000E+00  0.00000000E+00
  0.00000000E+00  0.00000000E+00  0.00000000E+00
  0.00000000E+00  0.00000000E+00  0.00000000E+00
  0.00000000E+00  0.00000000E+00  0.00000000E+00
  0.00000000E+00  0.00000000E+00  0.00000000E+00
  0.00000000E+00  0.00000000E+00  0.00000000E+00
  0.00000000E+00  0.00000000E+00  0.00000000E+00
  0.00000000E+00  0.00000000E+00  0.00000000E+00
  0.00000000E+00  0.00000000E+00  0.00000000E+00
  0.00000000E+00  0.00000000E+00  0.00000000E+00
  0.00000000E+00  0.00000000E+00  0.00000000E+00
  0.00000000E+00  0.00000000E+00  0.00000000E+00
  0.00000000E+00  0.00000000E+00  0.00000000E+00
  0.00000000E+00  0.00000000E+00  0.00000000E+00
  0.00000000E+00  0.00000000E+00  0.00000000E+00
  0.00000000E+00  0.00000000E+00  0.00000000E+00
  0.00000000E+00  0.00000000E+00  0.00000000E+00
  0.00000000E+00  0.00000000E+00  0.00000000E+00
  0.00000000E+00  0.00000000E+00  0.00000000E+00
  0.00000000E+00  0.00000000E+00  0.00000000E+00
  0.00000000E+00  0.00000000E+00  0.00000000E+00
  0.00000000E+00  0.00000000E+00  0.00000000E+00
  0.00000000E+00  0.00000000E+00  0.00000000E+00
  0.00000000E+00  0.00000000E+00  0.00000000E+00
  0.00000000E+00  0.00000000E+00  0.00000000E+00
  0.00000000E+00  0.00000000E+00  0.00000000E+00
  0.00000000E+00  0.00000000E+00  0.00000000E+00
  0.00000000E+00  0.00000000E+00  0.00000000E+00
  0.00000000E+00  0.00000000E+00  0.00000000E+00
  0.00000000E+00  0.00000000E+00  0.00000000E+00
  0.00000000E+00  0.00000000E+00  0.00000000E+00
  0.00000000E+00  0.00000000E+00  0.00000000E+00
  0.00000000E+00  0.00000000E+00  0.00000000E+00
  0.00000000E+00  0.00000000E+00  0.00000000E+00
  0.00000000E+00  0.00000000E+00  0.00000000E+00
  0.00000000E+00  0.00000000E+00  0.00000000E+00
  0.00000000E+00  0.00000000E+00  0.00000000E+00
  0.00000000E+00  0.00000000E+00  0.00000000E+00
  0.00000000E+00  0.00000000E+00  0.00000000E+00
  0.00000000E+00  0.00000000E+00  0.00000000E+00
  0.00000000E+00  0.00000000E+00  0.00000000E+00
  0.00000000E+00  0.00000000E+00  0.00000000E+00
  0.00000000E+00  0.00000000E+00  0.00000000E+00
  0.00000000E+00  0.00000000E+00  0.00000000E+00
  0.00000000E+00  0.00000000E+00  0.00000000E+00
  0.00000000E+00  0.00000000E+00  0.00000000E+00
  0.00000000E+00  0.00000000E+00  0.00000000E+00
  0.00000000E+00  0.00000000E+00  0.00000000E+00
  0.00000000E+00  0.00000000E+00  0.00000000E+00
  0.00000000E+00  0.00000000E+00  0.00000000E+00
  0.00000000E+00  0.00000000E+00  0.00000000E+00
  0.00000000E+00  0.00000000E+00  0.00000000E+00
  0.00000000E+00  0.00000000E+00  0.00000000E+00
  0.00000000E+00  0.00000000E+00  0.00000000E+00
  0.00000000E+00  0.00000000E+00  0.00000000E+00
  0.00000000E+00  0.00000000E+00  0.00000000E+00
  0.00000000E+00  0.00000000E+00  0.00000000E+00
  0.00000000E+00  0.00000000E+00  0.00000000E+00
  0.00000000E+00  0.00000000E+00  0.00000000E+00
  0.00000000E+00  0.00000000E+00  0.00000000E+00
  0.00000000E+00  0.00000000E+00  0.00000000E+00
  0.00000000E+00  0.00000000E+00  0.00000000E+00
  0.00000000E+00  0.00000000E+00  0.00000000E+00
  0.00000000E+00  0.00000000E+00  0.00000000E+00
  0.00000000E+00  0.00000000E+00  0.00000000E+00
  0.00000000E+00  0.00000000E+00  0.00000000E+00
  0.00000000E+00  0.00000000E+00  0.00000000E+00
  0.00000000E+00  0.00000000E+00  0.00000000E+00
  0.00000000E+00  0.00000000E+00  0.00000000E+00
  0.00000000E+00  0.00000000E+00  0.00000000E+00
  0.00000000E+00  0.00000000E+00  0.00000000E+00
  0.00000000E+00  0.00000000E+00  0.00000000E+00
  0.00000000E+00  0.00000000E+00  0.00000000E+00
  0.00000000E+00  0.00000000E+00  0.00000000E+00
  0.00000000E+00  0.00000000E+00  0.00000000E+00
  0.00000000E+00  0.00000000E+00  0.00000000E+00
  0.00000000E+00  0.00000000E+00  0.00000000E+00
  0.00000000E+00  0.00000000E+00  0.00000000E+00
  0.00000000E+00  0.00000000E+00  0.00000000E+00
  0.00000000E+00  0.00000000E+00  0.00000000E+00
  0.00000000E+00  0.00000000E+00  0.00000000E+00
  0.00000000E+00  0.00000000E+00  0.00000000E+00
  0.00000000E+00  0.00000000E+00  0.00000000E+00
  0.00000000E+00  0.00000000E+00  0.00000000E+00
  0.00000000E+00  0.00000000E+00  0.00000000E+00
  0.00000000E+00  0.00000000E+00  0.00000000E+00
  0.00000000E+00  0.00000000E+00  0.00000000E+00
  0.00000000E+00  0.00000000E+00  0.00000000E+00
  0.00000000E+00  0.00000000E+00  0.00000000E+00
  0.00000000E+00  0.00000000E+00  0.00000000E+00
  0.00000000E+00  0.00000000E+00  0.00000000E+00
  0.00000000E+00  0.00000000E+00  0.00000000E+00
  0.00000000E+00  0.00000000E+00  0.00000000E+00
  0.00000000E+00  0.00000000E+00  0.00000000E+00
  0.00000000E+00  0.00000000E+00  0.00000000E+00
  0.00000000E+00  0.00000000E+00  0.00000000E+00
  0.00000000E+00  0.00000000E+00  0.00000000E+00
  0.00000000E+00  0.00000000E+00  0.00000000E+00
  0.00000000E+00  0.00000000E+00  0.00000000E+00
  0.00000000E+00  0.00000000E+00  0.00000000E+00
  0.00000000E+00  0.00000000E+00  0.00000000E+00
  0.00000000E+00  0.00000000E+00  0.00000000E+00
  0.00000000E+00  0.00000000E+00  0.00000000E+00
  0.00000000E+00  0.00000000E+00  0.00000000E+00
  0.00000000E+00  0.00000000E+00  0.00000000E+00
  0.00000000E+00  0.00000000E+00  0.00000000E+00
  0.00000000E+00  0.00000000E+00  0.00000000E+00
  0.00000000E+00  0.00000000E+00  0.00000000E+00
  0.00000000E+00  0.00000000E+00  0.00000000E+00
  0.00000000E+00  0.00000000E+00  0.00000000E+00
  0.00000000E+00  0.00000000E+00  0.00000000E+00
  0.00000000E+00  0.00000000E+00  0.00000000E+00
  0.00000000E+00  0.00000000E+00  0.00000000E+00
  0.00000000E+00  0.00000000E+00  0.00000000E+00
  0.00000000E+00  0.00000000E+00  0.00000000E+00
  0.00000000E+00  0.00000000E+00  0.00000000E+00
  0.00000000E+00  0.00000000E+00  0.00000000E+00
  0.00000000E+00  0.00000000E+00  0.00000000E+00
  0.00000000E+00  0.00000000E+00  0.00000000E+00
  0.00000000E+00  0.00000000E+00  0.00000000E+00
  0.00000000E+00  0.00000000E+00  0.00000000E+00
  0.00000000E+00  0.00000000E+00  0.00000000E+00
  0.00000000E+00  0.00000000E+00  0.00000000E+00
  0.00000000E+00  0.00000000E+00  0.00000000E+00
  0.00000000E+00  0.00000000E+00  0.00000000E+00
  0.00000000E+00  0.00000000E+00  0.00000000E+00
  0.00000000E+00  0.00000000E+00  0.00000000E+00
  0.00000000E+00  0.00000000E+00  0.00000000E+00
  0.00000000E+00  0.00000000E+00  0.00000000E+00
  0.00000000E+00  0.00000000E+00  0.00000000E+00
  0.00000000E+00  0.00000000E+00  0.00000000E+00
  0.00000000E+00  0.00000000E+00  0.00000000E+00
  0.00000000E+00  0.00000000E+00  0.00000000E+00
  0.00000000E+00  0.00000000E+00  0.00000000E+00
  0.00000000E+00  0.00000000E+00  0.00000000E+00
  0.00000000E+00  0.00000000E+00  0.00000000E+00
  0.00000000E+00  0.00000000E+00  0.00000000E+00