FeMn_288_15                             
    1.000000000000000     
     9.7266779999999997    0.0000000000000000    0.0000000000000000
     0.0000000000000000    8.4235500000000005    0.0000000000000000
     0.0000000000000000    0.0000000000000000   45.0000000000000000
   Fe   Mn
   273    15
Direct
  0.9376659595731266  0.6195267040028256  0.1690167260364076
  0.6875528476306604  0.7861691598242948  0.2577945419748686
  0.1872301186988453  0.6227499004793190  0.5212993852840893
  0.5621984444374243  0.7062479085977098  0.5650863289610570
  0.4374130218051486  0.2901569430811132  0.6097460472481390
  0.9375876694672157  0.4539747791747343  0.3463776065219480
  0.4374896985484061  0.9537150476087717  0.3463436523285157
  0.8123910470198090  0.2026919578501236  0.2136867672767424
  0.6877803082899324  0.6224847464749118  0.5213116274153254
  0.5622379300065474  0.5361665115349229  0.2577921609987243
  0.8121055390424580  0.3711378227938241  0.4347370661194664
  0.5626817968694325  0.7051747584556181  0.4785670988948168
  0.4374649679159321  0.2921982650923896  0.8735294703072694
  0.6871438693094831  0.4555049779773186  0.4785773774388989
  0.1873909793938618  0.2909546450774514  0.7422115905341720
  0.6872145684810700  0.9553660722162763  0.4786931598239418
  0.6874338788486222  0.6196937179002144  0.3018842205265585
  0.3124263571137381  0.7026677094738586  0.2135700628772704
  0.6875384166765635  0.7852028274210517  0.1267729983899995
  0.0625763911825222  0.5425683020459291  0.8735759524104847
  0.3126543054023490  0.7057910999835887  0.5650089059226220
  0.4371301715015082  0.4562963995287878  0.5650883258831416
  0.0622464743063708  0.7076764948237851  0.6980563720179085
  0.5623050320136720  0.2083995692674279  0.6980660809886198
  0.9374202743381685  0.6219300103219575  0.4346939406573493
  0.1877530493949723  0.1239642670922168  0.6536924023791746
  0.0624453399385550  0.2060736244922455  0.5652027142427802
  0.8125427360878638  0.0404257832367519  0.6097983857449241
  0.6874517463573567  0.9539363150064945  0.3463289226330596
  0.0627721295467727  0.7051658280240187  0.4785763917838278
  0.5621605780613211  0.5419846546584829  0.7421349952055820
  0.5626646153008419  0.2082532900947661  0.8311664970982381
  0.8125867725958628  0.2081877451379359  0.6980995758600055
  0.0626098990023955  0.2083257193819869  0.8313739314498666
  0.8122993518984223  0.8723561742614810  0.5213331674813753
  0.4374454320936678  0.1222873190493510  0.5213738641782392
  0.1882120618312675  0.4557520691051267  0.4786267388493284
  0.8120641174081523  0.7051512292388725  0.4785656201492257
  0.4375367909608029  0.6239702819513352  0.6536129956107992
  0.6877680727044312  0.6212406174340404  0.4347892348649227
  0.0624339434066947  0.2038018714829553  0.3463880755164856
  0.3124044456612800  0.3684010938725401  0.1689542675909415
  0.1873078145482755  0.7901204942994302  0.6096305622997483
  0.3122030917898874  0.2030857176311897  0.2136927530504179
  0.0626741212370508  0.3714841953617986  0.4350853349159622
  0.3129206291580998  0.0362626588155918  0.1265670356639757
  0.8124565638928499  0.7038688382739949  0.3463711663673686
  0.5623596521283066  0.0402089353025703  0.6097452284915349
  0.3125494078088499  0.3754390941893775  0.7863526047330357
  0.1875237573773336  0.2866122202836576  0.2578533953329515
  0.0628383963642553  0.0415319016031480  0.7422353097505646
  0.5625979669376513  0.3753415837587493  0.7864420762648874
  0.6874092789624019  0.2859569678956878  0.1267326368980138
  0.3126448326509167  0.0363744608472832  0.2578337953408041
  0.6875360569328556  0.7876331649628643  0.3902298656680646
  0.0626063241656246  0.3742304081906280  0.6535858256809169
  0.1873759265604882  0.9560713380882796  0.5651035436195594
  0.9374742930690828  0.1190249113886920  0.1689068088158923
  0.9371194547682009  0.7898588510200082  0.6096875520848848
  0.3124192086327139  0.2036525450025616  0.3463827998186886
  0.1874892416004344  0.1193910214801975  0.1688808533536331
  0.5623283943057477  0.0423147954932960  0.7422740553756942
  0.8125453159818439  0.2038278323910171  0.3463392056335208
  0.9374494261664760  0.7879581281295697  0.3901854221648182
  0.5624338051010078  0.2053198179720417  0.4786671508023451
  0.6876002364646907  0.7900928680031534  0.6096295833687677
  0.1874098129266017  0.1199871295043625  0.3019403818188969
  0.6875939216722347  0.2921706077755304  0.8735597387078846
  0.5628933928050437  0.5363012067150020  0.1267974810342407
  0.6878446407846370  0.6251669507719494  0.7864111669633599
  0.4375409109022053  0.4526475143333572  0.2136384673886072
  0.4375831108580900  0.2916378343125472  0.7422135112931150
  0.4375568642665729  0.1199488083864575  0.3018820592697555
  0.8124602224822237  0.2083662818334172  0.8314314864449144
  0.1876717862535729  0.6242600474795790  0.6536827642221222
  0.9374595499480216  0.6231720352528107  0.5212605342772995
  0.4377153910789796  0.4580593967649684  0.6980237736532396
  0.9373214170442892  0.9575238754214491  0.6978816052944145
  0.5624944544101986  0.7077658770470107  0.6980485569279971
  0.0622603700345898  0.3762069582759445  0.7862757573323067
  0.3124824680165758  0.8745867855693595  0.7861803460265911
  0.4374215492911308  0.9554322986961388  0.4785831881186655
  0.5623484082215553  0.8724330468897764  0.5213307552948228
  0.5625154710576585  0.2062547167529605  0.5650965186725909
  0.9373058159012702  0.1253995953902121  0.7864513885069530
  0.5626426013212050  0.2038066523301048  0.3464531268274884
  0.5625977619378086  0.8749264907320047  0.7863491130028972
  0.5627523862339289  0.3699155144154878  0.3019667777664086
  0.3124551057513477  0.5372193886152111  0.3902752931377475
  0.6874405746832002  0.1201319709793437  0.3019787268169522
  0.9376914179069443  0.2904714130090885  0.6097059500209377
  0.3131727948472925  0.0432122330432432  0.8733968349854078
  0.1876021561982527  0.2859159247145706  0.1267552160329223
  0.4375065494437573  0.2863903036099071  0.2578738086382405
  0.9377137344454315  0.7912007083581764  0.8735711369532847
  0.8122995718865476  0.0417134218472462  0.7422130310441383
  0.5627269445310494  0.8699135951459518  0.3018318349805301
  0.5623973588560951  0.7037980974604334  0.3462932675848601
  0.3125632629998746  0.8742650972247438  0.6536254425917147
  0.0622686483402316  0.3694709120541016  0.1689730528961497
  0.9375140808334510  0.2859786320906429  0.1267622037510162
  0.5622494400292982  0.3733538086116519  0.6535048590024812
  0.6875379891702071  0.1195274558044550  0.1688802088511410
  0.6874480548431490  0.7918323608444547  0.7423355495951945
  0.0625218465404532  0.2026672565180527  0.2136553461174583
  0.8123884102643336  0.7085231164760594  0.8311544946156445
  0.9378534316036522  0.9563791781964881  0.5649577585039436
  0.1878459992047471  0.9553643809565111  0.4785948072062991
  0.0623251711683047  0.5403101574452654  0.6097024074123608
  0.5623564423591173  0.5400458759561353  0.6097059733858562
  0.9386303068949517  0.9589479642597187  0.8313481984346597
  0.6872127307834206  0.4562535196981269  0.5650864868035139
  0.8124981241172730  0.8698914218190923  0.3019406309389344
  0.3129792568576065  0.8692828204645916  0.1689138025509737
  0.4381637531692813  0.7911093470983147  0.8732930867631054
  0.6874540770446681  0.7913637974445958  0.8732996970182200
  0.3125349752490208  0.7081034235617784  0.6980291664460728
  0.5628761321335183  0.2027722944609874  0.2137264717841602
  0.4378053411660123  0.9579349062160781  0.6978390269390337
  0.0626012909874302  0.8758145013205426  0.7863686847694886
  0.1877409212560876  0.1216795495554182  0.4347636242270926
  0.9375214501510097  0.9538413920667537  0.3463355067100453
  0.8126322579180317  0.2065549264340387  0.5652143626844747
  0.1875473273712766  0.6198973449916056  0.3019157066111303
  0.9375751576902059  0.9527344902830683  0.2136435284930858
  0.1880866041085767  0.4560634218639135  0.5651409399920032
  0.6874498649510730  0.9589182335883776  0.8311416957850377
  0.3125786144222043  0.3714285282510417  0.4347797846936293
  0.8124993400225516  0.5361344343088477  0.2578585130044485
  0.5625412759481071  0.8741523034628849  0.6536496506768605
  0.4373871203007164  0.6224865203207385  0.5212628194831694
  0.0625209497212272  0.8742962471598215  0.6535849432095646
  0.3125273530904180  0.0419783780823045  0.7422234022307747
  0.9373830947823344  0.2912159847987152  0.7422814534543318
  0.4376496907699982  0.7860617887206712  0.2578102665168930
  0.3125499634347566  0.5421379414094428  0.8734574287192814
  0.3122289610308610  0.2053302109525943  0.4786575437828887
  0.5623745000275564  0.0375892208344066  0.3903237756744208
  0.0623452312693784  0.8716947187999111  0.4348826345894746
  0.3125564197093625  0.5417209661365963  0.7422142616555670
  0.8115599323243724  0.0434196226016199  0.8733556557406827
  0.5626218325734540  0.7025300137415699  0.2135748404483703
  0.9377519897259634  0.1242657975657857  0.6536905199113489
  0.4375937921690919  0.4537005025402785  0.3463268973555039
  0.9373107386880412  0.4577574761256832  0.6980280098158189
  0.6872847030348123  0.9527569683614137  0.2136668442333731
  0.3125677608175375  0.2079045120451064  0.6980113328298219
  0.1871215080596416  0.6190373466862769  0.1688836870373259
  0.8128360869348161  0.2051230431342325  0.4786122556793787
  0.4376393230057739  0.7873490919453572  0.3902317073678063
  0.8127801287596722  0.3755517594544108  0.7863668649649811
  0.9378028647812260  0.7913581337275593  0.7421270986948940
  0.8124256275586069  0.8746347123691558  0.7862005554716193
  0.1867256683002808  0.9594728719622564  0.8313566830601885
  0.3126699509090058  0.5404888070199161  0.6097800910820140
  0.9375834180491808  0.1214828773173475  0.4347731636071059
  0.8127037004543728  0.5375660563498099  0.3901787487133834
  0.6876097818488879  0.1225491079804518  0.5213672176670837
  0.3125158832333787  0.7037795550257052  0.3463026684070983
  0.0623835298067328  0.5359788136941059  0.1267355410287743
  0.5625379315817257  0.5423196437199701  0.8734188157838896
  0.8126058566279767  0.3698363923698303  0.1688866209564948
  0.6873006055124049  0.9579401226243928  0.6980407425098183
  0.9375234920390495  0.7857829977331251  0.1267082376339055
  0.1878294490526923  0.1223691541729598  0.5213706003382429
  0.4377614587850305  0.9590059508618948  0.8312195938893349
  0.4374937055005422  0.1216379255051923  0.4348975860847035
  0.0627623778352625  0.5362903136135475  0.2578167742302281
  0.6877371088059907  0.4583635414571027  0.6978469227961942
  0.8124115753182386  0.5420753387476115  0.8734096763434286
  0.8131343392394854  0.0360734303870976  0.1267834705140895
  0.8125799513309668  0.8689909077718783  0.1688973211198476
  0.9375616443852914  0.4563235280328573  0.5648198033960350
  0.6875648197479767  0.4582067951416328  0.8311673965821480
  0.9372269117937965  0.6251088670950026  0.7863057367082645
  0.1874845702844474  0.2876347745440956  0.3901309441263596
  0.8125172588251309  0.7028819596701908  0.2136906697111229
  0.0626731520099350  0.7038017663554050  0.3462816088026809
  0.8118806077913771  0.3719821159428451  0.5212873863320868
  0.0624153056033038  0.2076063716671400  0.6980169686286033
  0.9376619583337057  0.2878917339921198  0.3902524767494743
  0.4376832272491352  0.1253753914748211  0.7863948898221464
  0.6874744983781883  0.2861271680582411  0.2578035817585619
  0.3122662246184950  0.2083848098214910  0.8314298777077728
  0.9375488922183733  0.9554168035308871  0.4786017445641329
  0.5627010940338132  0.3685259005814301  0.1689251805037475
  0.6875372256018489  0.2915929561600881  0.7421940486290391
  0.1872690175418592  0.7854072952328873  0.1267971828281238
  0.0627566929011329  0.5374288636549738  0.3902150494492575
  0.4376882620605321  0.7863234330897898  0.1267501760303765
  0.3122779103001783  0.2064272233946693  0.5650789424053756
  0.6871647426624453  0.1239199509704416  0.6537066772264228
  0.3125051858808858  0.3699556021192035  0.3019533695664193
  0.1875058159028603  0.4526672607040071  0.2136803746364419
  0.3130206151551903  0.7081991517127670  0.8312322677508696
  0.4373959271660495  0.9521499948111861  0.2137098483960420
  0.0622595947031695  0.8699252445871023  0.3018250431745671
  0.4374316726591225  0.6214473481756749  0.4348422480310800
  0.8123352573900974  0.8741245784413921  0.6536209289075685
  0.3124121018781724  0.7054003090469306  0.4785695980796312
  0.4377305884791401  0.7900602948035196  0.6096906086149678
  0.6874632618454379  0.4526637622638091  0.2136973888766693
  0.4374565752438795  0.2855387746189282  0.1266066451146030
  0.0625336327824508  0.2045330883869102  0.4787082997013731
  0.0625111112408875  0.5415199053126443  0.7421972933200750
  0.3121178257571004  0.5362035847473771  0.1267978751919563
  0.9374559152502966  0.4596020369607983  0.8311680981142678
  0.3125259683643925  0.8714270798338355  0.4347800984582984
  0.4374779833867870  0.6187716551507674  0.1689134204485960
  0.5624826473193224  0.3713676943328967  0.4348479769303840
  0.6873568208261349  0.4539379577679645  0.3462990789375297
  0.4371878464785068  0.1240351070097572  0.6536976284423062
  0.1875395428299828  0.4537812258307249  0.3462805419965835
  0.5618706407509383  0.8691459937345902  0.1687927259079416
  0.0624982271392661  0.8724200719742008  0.5212757577721290
  0.3125340377560952  0.0373619706407051  0.3902362891305450
  0.5625540776659025  0.8714489613976739  0.4348770981861381
  0.1887600722921625  0.2916306089273464  0.8734282931001375
  0.0622707775304165  0.3698796453314037  0.3019124032950117
  0.9370699897554534  0.1224949070122918  0.5213990659959736
  0.4374682885647769  0.6199401023134417  0.3019127487797953
  0.8124415921795890  0.7078779779809451  0.6980164215705487
  0.9375334119117580  0.2860578407983535  0.2578281333225655
  0.0626667881418270  0.0379100182642611  0.3902878621955597
  0.3124016147919458  0.0402720014289563  0.6097205463183616
  0.0627874800055823  0.0361638294113281  0.2578144012607986
  0.5621381157420340  0.5375885487877357  0.3901961834619935
  0.1873248396205172  0.2906551031718417  0.6096602334547668
  0.4373316069508741  0.7919316885286490  0.7422422427022318
  0.4374114127629966  0.4552616405772756  0.4785894322278247
  0.5621057651494314  0.0362359940396664  0.1265671364683325
  0.3125584296957308  0.3739302748353572  0.6536026381496955
  0.0618295806025077  0.0361626752252356  0.1267703177645129
  0.1874561443986930  0.4600037665106932  0.8311066920080626
  0.1875222927379828  0.7920253834353422  0.7422800312204960
  0.9376168099517846  0.1202375707331778  0.3019270225886969
  0.1875759805609899  0.9536718347947176  0.3463332633017255
  0.9374991366890991  0.4527507244177608  0.2136475859519504
  0.5621661688244485  0.7087524402880762  0.8312608236350388
  0.8125798280738973  0.5356687031566953  0.1267439957320952
  0.0623775532032243  0.7059212453227223  0.5651052212167682
  0.1873842975553563  0.7861660492918270  0.2577975029331175
  0.0624273014942255  0.7025885711993709  0.2136172388949634
  0.0625032371758329  0.0403327840697480  0.6097681489694879
  0.8125564574899491  0.8714620181564739  0.4348797952835779
  0.1873803621229282  0.6215320608057461  0.4347174778906728
  0.1877724523069770  0.6250351744864526  0.7863500377003299
  0.5627292698801047  0.0420974807565249  0.8734368976556673
  0.1874377526026567  0.7873294661393054  0.3902243750453328
  0.3125355019297678  0.5363322093222243  0.2578559919665501
  0.3127717787736772  0.8724125286246338  0.5213119631541105
  0.8123238004943718  0.5402198097568661  0.6097928017960627
  0.1868245228382403  0.7905274442546072  0.8735871059217355
  0.9375802863666255  0.6197002111230161  0.3018865816460154
  0.6872853872478470  0.6235700708796180  0.6536551358697513
  0.9362384258575718  0.2923319275899672  0.8733842638804722
  0.6877559307365351  0.6193957925863647  0.1689410876609196
  0.4375854405438145  0.2876775583208266  0.3902010119808242
  0.5624365923503046  0.3725426021338092  0.5213546149302301
  0.4372081014586798  0.9561611269492607  0.5651054004938365
  0.6873838459498350  0.2899163671033020  0.6097070483630139
  0.1877929975386863  0.9526318770412917  0.2136631768301710
  0.8124771207820402  0.3739716057120726  0.6536618301516702
  0.3127743881367569  0.3721669747487555  0.5213807507453375
  0.8124930778731485  0.3700301911693523  0.3017979557150942
  0.4376319107682980  0.4584234252825785  0.8312120759255779
  0.5620400563750041  0.0362750405740072  0.2578464787516607
  0.0626053340916559  0.8687965847608079  0.1687916292666114
  0.6872332387106320  0.1216088904265302  0.4348912070128523
  0.1872197479487304  0.4580214217708304  0.6978984874250534
  0.8125374711494635  0.7063534438717786  0.5651959055483048
  0.6873537099230019  0.2874735355358024  0.3902070354123245
  0.9374516115728730  0.7861681329079953  0.2578127645628588
  0.8125737510735364  0.0361241305208958  0.2577336610027515
  0.9374210492921858  0.4553594884298282  0.4786594297648188
  0.6875104238730524  0.1251041868216226  0.7860482895445501
  0.3125140477936022  0.8698422973959881  0.3019017631001173
  0.6873849133310763  0.9563115446291075  0.5651398123892714
  0.0627985844836109  0.7097944774646594  0.8320276888318024
  0.0629359271237591  0.0419348085622256  0.8731805054683297
  0.8125499092031455  0.0378229832331147  0.3901427332065222
  0.9374061173698603  0.6240437993412380  0.6535485443907277
  0.1875926694275493  0.9580751489462445  0.6979878904949838
  0.1873729696270179  0.1248944434573682  0.7862224437540154
  0.8127510833724121  0.5417298912838251  0.7423651687364665
  0.4375172001545368  0.1189976259117588  0.1682476234428677
  0.4372407302874118  0.6249002364238396  0.7861550642685801
  0.0626198440840244  0.3723684066535149  0.5212297049471826
 
  0.00000000E+00  0.00000000E+00  0.00000000E+00
  0.00000000E+00  0.00000000E+00  0.00000000E+00
  0.00000000E+00  0.00000000E+00  0.00000000E+00
  0.00000000E+00  0.00000000E+00  0.00000000E+00
  0.00000000E+00  0.00000000E+00  0.00000000E+00
  0.00000000E+00  0.00000000E+00  0.00000000E+00
  0.00000000E+00  0.00000000E+00  0.00000000E+00
  0.00000000E+00  0.00000000E+00  0.00000000E+00
  0.00000000E+00  0.00000000E+00  0.00000000E+00
  0.00000000E+00  0.00000000E+00  0.00000000E+00
  0.00000000E+00  0.00000000E+00  0.00000000E+00
  0.00000000E+00  0.00000000E+00  0.00000000E+00
  0.00000000E+00  0.00000000E+00  0.00000000E+00
  0.00000000E+00  0.00000000E+00  0.00000000E+00
  0.00000000E+00  0.00000000E+00  0.00000000E+00
  0.00000000E+00  0.00000000E+00  0.00000000E+00
  0.00000000E+00  0.00000000E+00  0.00000000E+00
  0.00000000E+00  0.00000000E+00  0.00000000E+00
  0.00000000E+00  0.00000000E+00  0.00000000E+00
  0.00000000E+00  0.00000000E+00  0.00000000E+00
  0.00000000E+00  0.00000000E+00  0.00000000E+00
  0.00000000E+00  0.00000000E+00  0.00000000E+00
  0.00000000E+00  0.00000000E+00  0.00000000E+00
  0.00000000E+00  0.00000000E+00  0.00000000E+00
  0.00000000E+00  0.00000000E+00  0.00000000E+00
  0.00000000E+00  0.00000000E+00  0.00000000E+00
  0.00000000E+00  0.00000000E+00  0.00000000E+00
  0.00000000E+00  0.00000000E+00  0.00000000E+00
  0.00000000E+00  0.00000000E+00  0.00000000E+00
  0.00000000E+00  0.00000000E+00  0.00000000E+00
  0.00000000E+00  0.00000000E+00  0.00000000E+00
  0.00000000E+00  0.00000000E+00  0.00000000E+00
  0.00000000E+00  0.00000000E+00  0.00000000E+00
  0.00000000E+00  0.00000000E+00  0.00000000E+00
  0.00000000E+00  0.00000000E+00  0.00000000E+00
  0.00000000E+00  0.00000000E+00  0.00000000E+00
  0.00000000E+00  0.00000000E+00  0.00000000E+00
  0.00000000E+00  0.00000000E+00  0.00000000E+00
  0.00000000E+00  0.00000000E+00  0.00000000E+00
  0.00000000E+00  0.00000000E+00  0.00000000E+00
  0.00000000E+00  0.00000000E+00  0.00000000E+00
  0.00000000E+00  0.00000000E+00  0.00000000E+00
  0.00000000E+00  0.00000000E+00  0.00000000E+00
  0.00000000E+00  0.00000000E+00  0.00000000E+00
  0.00000000E+00  0.00000000E+00  0.00000000E+00
  0.00000000E+00  0.00000000E+00  0.00000000E+00
  0.00000000E+00  0.00000000E+00  0.00000000E+00
  0.00000000E+00  0.00000000E+00  0.00000000E+00
  0.00000000E+00  0.00000000E+00  0.00000000E+00
  0.00000000E+00  0.00000000E+00  0.00000000E+00
  0.00000000E+00  0.00000000E+00  0.00000000E+00
  0.00000000E+00  0.00000000E+00  0.00000000E+00
  0.00000000E+00  0.00000000E+00  0.00000000E+00
  0.00000000E+00  0.00000000E+00  0.00000000E+00
  0.00000000E+00  0.00000000E+00  0.00000000E+00
  0.00000000E+00  0.00000000E+00  0.00000000E+00
  0.00000000E+00  0.00000000E+00  0.00000000E+00
  0.00000000E+00  0.00000000E+00  0.00000000E+00
  0.00000000E+00  0.00000000E+00  0.00000000E+00
  0.00000000E+00  0.00000000E+00  0.00000000E+00
  0.00000000E+00  0.00000000E+00  0.00000000E+00
  0.00000000E+00  0.00000000E+00  0.00000000E+00
  0.00000000E+00  0.00000000E+00  0.00000000E+00
  0.00000000E+00  0.00000000E+00  0.00000000E+00
  0.00000000E+00  0.00000000E+00  0.00000000E+00
  0.00000000E+00  0.00000000E+00  0.00000000E+00
  0.00000000E+00  0.00000000E+00  0.00000000E+00
  0.00000000E+00  0.00000000E+00  0.00000000E+00
  0.00000000E+00  0.00000000E+00  0.00000000E+00
  0.00000000E+00  0.00000000E+00  0.00000000E+00
  0.00000000E+00  0.00000000E+00  0.00000000E+00
  0.00000000E+00  0.00000000E+00  0.00000000E+00
  0.00000000E+00  0.00000000E+00  0.00000000E+00
  0.00000000E+00  0.00000000E+00  0.00000000E+00
  0.00000000E+00  0.00000000E+00  0.00000000E+00
  0.00000000E+00  0.00000000E+00  0.00000000E+00
  0.00000000E+00  0.00000000E+00  0.00000000E+00
  0.00000000E+00  0.00000000E+00  0.00000000E+00
  0.00000000E+00  0.00000000E+00  0.00000000E+00
  0.00000000E+00  0.00000000E+00  0.00000000E+00
  0.00000000E+00  0.00000000E+00  0.00000000E+00
  0.00000000E+00  0.00000000E+00  0.00000000E+00
  0.00000000E+00  0.00000000E+00  0.00000000E+00
  0.00000000E+00  0.00000000E+00  0.00000000E+00
  0.00000000E+00  0.00000000E+00  0.00000000E+00
  0.00000000E+00  0.00000000E+00  0.00000000E+00
  0.00000000E+00  0.00000000E+00  0.00000000E+00
  0.00000000E+00  0.00000000E+00  0.00000000E+00
  0.00000000E+00  0.00000000E+00  0.00000000E+00
  0.00000000E+00  0.00000000E+00  0.00000000E+00
  0.00000000E+00  0.00000000E+00  0.00000000E+00
  0.00000000E+00  0.00000000E+00  0.00000000E+00
  0.00000000E+00  0.00000000E+00  0.00000000E+00
  0.00000000E+00  0.00000000E+00  0.00000000E+00
  0.00000000E+00  0.00000000E+00  0.00000000E+00
  0.00000000E+00  0.00000000E+00  0.00000000E+00
  0.00000000E+00  0.00000000E+00  0.00000000E+00
  0.00000000E+00  0.00000000E+00  0.00000000E+00
  0.00000000E+00  0.00000000E+00  0.00000000E+00
  0.00000000E+00  0.00000000E+00  0.00000000E+00
  0.00000000E+00  0.00000000E+00  0.00000000E+00
  0.00000000E+00  0.00000000E+00  0.00000000E+00
  0.00000000E+00  0.00000000E+00  0.00000000E+00
  0.00000000E+00  0.00000000E+00  0.00000000E+00
  0.00000000E+00  0.00000000E+00  0.00000000E+00
  0.00000000E+00  0.00000000E+00  0.00000000E+00
  0.00000000E+00  0.00000000E+00  0.00000000E+00
  0.00000000E+00  0.00000000E+00  0.00000000E+00
  0.00000000E+00  0.00000000E+00  0.00000000E+00
  0.00000000E+00  0.00000000E+00  0.00000000E+00
  0.00000000E+00  0.00000000E+00  0.00000000E+00
  0.00000000E+00  0.00000000E+00  0.00000000E+00
  0.00000000E+00  0.00000000E+00  0.00000000E+00
  0.00000000E+00  0.00000000E+00  0.00000000E+00
  0.00000000E+00  0.00000000E+00  0.00000000E+00
  0.00000000E+00  0.00000000E+00  0.00000000E+00
  0.00000000E+00  0.00000000E+00  0.00000000E+00
  0.00000000E+00  0.00000000E+00  0.00000000E+00
  0.00000000E+00  0.00000000E+00  0.00000000E+00
  0.00000000E+00  0.00000000E+00  0.00000000E+00
  0.00000000E+00  0.00000000E+00  0.00000000E+00
  0.00000000E+00  0.00000000E+00  0.00000000E+00
  0.00000000E+00  0.00000000E+00  0.00000000E+00
  0.00000000E+00  0.00000000E+00  0.00000000E+00
  0.00000000E+00  0.00000000E+00  0.00000000E+00
  0.00000000E+00  0.00000000E+00  0.00000000E+00
  0.00000000E+00  0.00000000E+00  0.00000000E+00
  0.00000000E+00  0.00000000E+00  0.00000000E+00
  0.00000000E+00  0.00000000E+00  0.00000000E+00
  0.00000000E+00  0.00000000E+00  0.00000000E+00
  0.00000000E+00  0.00000000E+00  0.00000000E+00
  0.00000000E+00  0.00000000E+00  0.00000000E+00
  0.00000000E+00  0.00000000E+00  0.00000000E+00
  0.00000000E+00  0.00000000E+00  0.00000000E+00
  0.00000000E+00  0.00000000E+00  0.00000000E+00
  0.00000000E+00  0.00000000E+00  0.00000000E+00
  0.00000000E+00  0.00000000E+00  0.00000000E+00
  0.00000000E+00  0.00000000E+00  0.00000000E+00
  0.00000000E+00  0.00000000E+00  0.00000000E+00
  0.00000000E+00  0.00000000E+00  0.00000000E+00
  0.00000000E+00  0.00000000E+00  0.00000000E+00
  0.00000000E+00  0.00000000E+00  0.00000000E+00
  0.00000000E+00  0.00000000E+00  0.00000000E+00
  0.00000000E+00  0.00000000E+00  0.00000000E+00
  0.00000000E+00  0.00000000E+00  0.00000000E+00
  0.00000000E+00  0.00000000E+00  0.00000000E+00
  0.00000000E+00  0.00000000E+00  0.00000000E+00
  0.00000000E+00  0.00000000E+00  0.00000000E+00
  0.00000000E+00  0.00000000E+00  0.00000000E+00
  0.00000000E+00  0.00000000E+00  0.00000000E+00
  0.00000000E+00  0.00000000E+00  0.00000000E+00
  0.00000000E+00  0.00000000E+00  0.00000000E+00
  0.00000000E+00  0.00000000E+00  0.00000000E+00
  0.00000000E+00  0.00000000E+00  0.00000000E+00
  0.00000000E+00  0.00000000E+00  0.00000000E+00
  0.00000000E+00  0.00000000E+00  0.00000000E+00
  0.00000000E+00  0.00000000E+00  0.00000000E+00
  0.00000000E+00  0.00000000E+00  0.00000000E+00
  0.00000000E+00  0.00000000E+00  0.00000000E+00
  0.00000000E+00  0.00000000E+00  0.00000000E+00
  0.00000000E+00  0.00000000E+00  0.00000000E+00
  0.00000000E+00  0.00000000E+00  0.00000000E+00
  0.00000000E+00  0.00000000E+00  0.00000000E+00
  0.00000000E+00  0.00000000E+00  0.00000000E+00
  0.00000000E+00  0.00000000E+00  0.00000000E+00
  0.00000000E+00  0.00000000E+00  0.00000000E+00
  0.00000000E+00  0.00000000E+00  0.00000000E+00
  0.00000000E+00  0.00000000E+00  0.00000000E+00
  0.00000000E+00  0.00000000E+00  0.00000000E+00
  0.00000000E+00  0.00000000E+00  0.00000000E+00
  0.00000000E+00  0.00000000E+00  0.00000000E+00
  0.00000000E+00  0.00000000E+00  0.00000000E+00
  0.00000000E+00  0.00000000E+00  0.00000000E+00
  0.00000000E+00  0.00000000E+00  0.00000000E+00
  0.00000000E+00  0.00000000E+00  0.00000000E+00
  0.00000000E+00  0.00000000E+00  0.00000000E+00
  0.00000000E+00  0.00000000E+00  0.00000000E+00
  0.00000000E+00  0.00000000E+00  0.00000000E+00
  0.00000000E+00  0.00000000E+00  0.00000000E+00
  0.00000000E+00  0.00000000E+00  0.00000000E+00
  0.00000000E+00  0.00000000E+00  0.00000000E+00
  0.00000000E+00  0.00000000E+00  0.00000000E+00
  0.00000000E+00  0.00000000E+00  0.00000000E+00
  0.00000000E+00  0.00000000E+00  0.00000000E+00
  0.00000000E+00  0.00000000E+00  0.00000000E+00
  0.00000000E+00  0.00000000E+00  0.00000000E+00
  0.00000000E+00  0.00000000E+00  0.00000000E+00
  0.00000000E+00  0.00000000E+00  0.00000000E+00
  0.00000000E+00  0.00000000E+00  0.00000000E+00
  0.00000000E+00  0.00000000E+00  0.00000000E+00
  0.00000000E+00  0.00000000E+00  0.00000000E+00
  0.00000000E+00  0.00000000E+00  0.00000000E+00
  0.00000000E+00  0.00000000E+00  0.00000000E+00
  0.00000000E+00  0.00000000E+00  0.00000000E+00
  0.00000000E+00  0.00000000E+00  0.00000000E+00
  0.00000000E+00  0.00000000E+00  0.00000000E+00
  0.00000000E+00  0.00000000E+00  0.00000000E+00
  0.00000000E+00  0.00000000E+00  0.00000000E+00
  0.00000000E+00  0.00000000E+00  0.00000000E+00
  0.00000000E+00  0.00000000E+00  0.00000000E+00
  0.00000000E+00  0.00000000E+00  0.00000000E+00
  0.00000000E+00  0.00000000E+00  0.00000000E+00
  0.00000000E+00  0.00000000E+00  0.00000000E+00
  0.00000000E+00  0.00000000E+00  0.00000000E+00
  0.00000000E+00  0.00000000E+00  0.00000000E+00
  0.00000000E+00  0.00000000E+00  0.00000000E+00
  0.00000000E+00  0.00000000E+00  0.00000000E+00
  0.00000000E+00  0.00000000E+00  0.00000000E+00
  0.00000000E+00  0.00000000E+00  0.00000000E+00
  0.00000000E+00  0.00000000E+00  0.00000000E+00
  0.00000000E+00  0.00000000E+00  0.00000000E+00
  0.00000000E+00  0.00000000E+00  0.00000000E+00
  0.00000000E+00  0.00000000E+00  0.00000000E+00
  0.00000000E+00  0.00000000E+00  0.00000000E+00
  0.00000000E+00  0.00000000E+00  0.00000000E+00
  0.00000000E+00  0.00000000E+00  0.00000000E+00
  0.00000000E+00  0.00000000E+00  0.00000000E+00
  0.00000000E+00  0.00000000E+00  0.00000000E+00
  0.00000000E+00  0.00000000E+00  0.00000000E+00
  0.00000000E+00  0.00000000E+00  0.00000000E+00
  0.00000000E+00  0.00000000E+00  0.00000000E+00
  0.00000000E+00  0.00000000E+00  0.00000000E+00
  0.00000000E+00  0.00000000E+00  0.00000000E+00
  0.00000000E+00  0.00000000E+00  0.00000000E+00
  0.00000000E+00  0.00000000E+00  0.00000000E+00
  0.00000000E+00  0.00000000E+00  0.00000000E+00
  0.00000000E+00  0.00000000E+00  0.00000000E+00
  0.00000000E+00  0.00000000E+00  0.00000000E+00
  0.00000000E+00  0.00000000E+00  0.00000000E+00
  0.00000000E+00  0.00000000E+00  0.00000000E+00
  0.00000000E+00  0.00000000E+00  0.00000000E+00
  0.00000000E+00  0.00000000E+00  0.00000000E+00
  0.00000000E+00  0.00000000E+00  0.00000000E+00
  0.00000000E+00  0.00000000E+00  0.00000000E+00
  0.00000000E+00  0.00000000E+00  0.00000000E+00
  0.00000000E+00  0.00000000E+00  0.00000000E+00
  0.00000000E+00  0.00000000E+00  0.00000000E+00
  0.00000000E+00  0.00000000E+00  0.00000000E+00
  0.00000000E+00  0.00000000E+00  0.00000000E+00
  0.00000000E+00  0.00000000E+00  0.00000000E+00
  0.00000000E+00  0.00000000E+00  0.00000000E+00
  0.00000000E+00  0.00000000E+00  0.00000000E+00
  0.00000000E+00  0.00000000E+00  0.00000000E+00
  0.00000000E+00  0.00000000E+00  0.00000000E+00
  0.00000000E+00  0.00000000E+00  0.00000000E+00
  0.00000000E+00  0.00000000E+00  0.00000000E+00
  0.00000000E+00  0.00000000E+00  0.00000000E+00