CuInSe2gb                               
   1.00000000000000     
     9.7266780392896699    0.0000000000000000    0.0000000000000000
     0.0000000000000000    8.4235502764570693    0.0000000000000000
     0.0000000000000000    0.0000000000000000   45.0000000000000000
   Fe   Mn
   274    14
Direct
  0.0621858407310583  0.0359780763998028  0.1256306689283107
  0.3133210211240794  0.8711701576279800  0.6539125243089254
  0.1874569323537112  0.1168066914472302  0.7870697117974624
  0.4377591713875448  0.2911231691338177  0.3899082307337084
  0.3140015171203080  0.7065441450859797  0.8312376598992856
  0.8138643094231783  0.2096817574532469  0.8324461819161956
  0.1884029924851674  0.9581305751701713  0.8318504009675306
  0.5628677389174537  0.2071883666036482  0.5648645392931689
  0.0612544006373606  0.0360033766615327  0.7423628571385406
  0.8125206488893383  0.3701234376631714  0.1688845497092413
  0.1893689693288383  0.2870859104890245  0.7423173213534072
  0.9368919067644675  0.4562356496886680  0.3463297732409276
  0.9368010342454709  0.2905267485396456  0.3898956828183315
  0.8124189650000204  0.0352759769295501  0.8742358974553266
  0.1864226096374534  0.7870180266587693  0.6099846175635023
  0.5623355033888999  0.0409675725146132  0.3899130179585530
  0.9390008632076023  0.9590186436702836  0.8325603033563249
  0.3138693175335124  0.5353016767653882  0.8745310584112820
  0.6869171632657820  0.2874336916118819  0.7422023281746428
  0.1886179661436264  0.6196583300583214  0.1679154725640614
  0.8123323745706592  0.2060946492270654  0.4787010399773233
  0.8133159265960412  0.5358172652399338  0.6100518485061059
  0.3126282440590778  0.8734826637197796  0.4346401958138315
  0.8118383919329863  0.0400137992644522  0.2578284472329829
  0.6872827301450743  0.9565031147675501  0.3463427249480217
  0.9371474408173442  0.1201006949327024  0.1686549716552795
  0.9373038780606066  0.1221701230357524  0.5211346188621016
  0.5614155014862101  0.5412491602556732  0.2574488275093779
  0.6859997367170878  0.7913655899844656  0.8744487109244871
  0.5631915583813287  0.3701505316836790  0.1681202854890209
  0.4371733904464696  0.7876906081412164  0.7426620989248249
  0.8129942141772482  0.7069854338668174  0.5649105945187315
  0.5629943959063750  0.8679693541430393  0.7869276825295991
  0.6881202105312660  0.1214940285312985  0.5212064440880715
  0.8134484529094552  0.3701927003738783  0.6538029216266055
  0.9378726294141971  0.4579558345151297  0.8321984021614067
  0.0623372510052667  0.2048237039580905  0.6982895879399009
  0.4369766961384766  0.9539710084481432  0.6981001337009631
  0.3130137217334806  0.2053283872357013  0.8317368942065989
  0.4380773031603313  0.6208250869618162  0.6538157387268927
  0.3113317000359887  0.5363264895085660  0.6099278854597701
  0.9372440417239395  0.4570858751410545  0.5649255078617214
  0.6876534577471777  0.7875006213023548  0.7427124981624490
  0.9357875540168958  0.7909183662132268  0.1258300331612544
  0.6872224114983170  0.7903269917125945  0.3898091654714909
  0.9376043654745128  0.7872059755336412  0.7428231344795106
  0.0634240001027293  0.2066064556046285  0.3462508856064346
  0.8113760287470647  0.0412804852166672  0.3901840568192976
  0.4374457221796889  0.1173686250984884  0.7870945041173920
  0.0620874374430588  0.2071277745622592  0.2129324386543129
  0.0619867756061537  0.3697896330351206  0.1682874525512183
  0.9357936136289817  0.7911322773384614  0.2574984678516268
  0.5630172567640770  0.2051541319006442  0.6983782603677806
  0.6868776768550341  0.9550572641178416  0.6982522260880457
  0.4371736261582375  0.7911561111242629  0.1255173402955033
  0.4372741555204572  0.9569443338596325  0.5648772654971828
  0.8128976387887350  0.3682698949811744  0.7869707236262008
  0.6849101459167629  0.2907609079506347  0.2575701274132610
  0.1880681648236073  0.4570011537491311  0.5649096407713656
  0.0633513781715921  0.8703370519186494  0.1684758184201487
  0.1879873182895209  0.2875495676607140  0.6101563827617160
  0.5636098480450373  0.7064449589715014  0.3463574106241319
  0.3119802340424475  0.2053657195342396  0.6984682866866270
  0.5613724819075023  0.5350934865357084  0.8744553757529669
  0.0625160570756915  0.7073792185035412  0.5649284861899754
  0.6881568296531853  0.6173402439326399  0.7868924808074824
  0.3110621936420253  0.5407898002234279  0.3899495033313357
  0.1872867982315042  0.6207302396616120  0.5211382770230294
  0.5623398710919956  0.8733706410161817  0.4346862476282189
  0.4370149484713727  0.4572671364935562  0.5649514180807388
  0.4375459986865541  0.2886286929093341  0.7422842610463770
  0.8123152525177992  0.8776485998632190  0.3017005290727893
  0.8118921714006522  0.7072257072394119  0.3464819644870175
  0.4380366312391792  0.4556056096597791  0.8314537422377126
  0.6872198433984615  0.9558321256442740  0.4787068686807320
  0.6875186197863408  0.4547185800107267  0.6983279538670706
  0.5625840153812494  0.8710088244006308  0.5211258785862615
  0.5627698887897563  0.3705731412364310  0.6536700878829328
  0.8118903816440767  0.8702317165536414  0.6537626609833679
  0.8128610569756775  0.3740601722039164  0.4347782594919269
  0.8134002166321914  0.5404378923377563  0.2575343336400916
  0.6891098633896773  0.4551962172313263  0.8317094178378165
  0.1880269500627099  0.7913498559302394  0.1255098681441834
  0.6872131486603414  0.2909703117304230  0.3897796324969043
  0.3126139291752733  0.3706442458977530  0.6536655387556959
  0.3125226856748576  0.2069506510269150  0.3462719447924368
  0.8119507406244019  0.5365992755658403  0.7427018456510428
  0.6874577087868317  0.9559752357017439  0.8318371831860569
  0.5621819575587014  0.8709142559822011  0.6537273526605388
  0.3123261405286817  0.7071966421953338  0.5649512247009315
  0.3116206359276730  0.5354749634274379  0.1255294742431178
  0.6871011634698871  0.9584239956580130  0.2131083162774816
  0.3129325691423204  0.2069635301913146  0.5649052344833225
  0.1876250439823898  0.9559301707064729  0.4788190229174171
  0.6879094738021739  0.9569333787022365  0.5648980357412722
  0.4365716960711036  0.7871659126316130  0.6100046024638777
  0.6877785516147642  0.6194589945397591  0.1683095909180931
  0.3127597310704945  0.8758322460629648  0.3017078970960464
  0.3124047537033580  0.7057473023499290  0.4787642128611346
  0.9362495956239170  0.2873155509407477  0.6102551724590292
  0.4385318413833774  0.6252850189669724  0.3018875108394769
  0.8126220264832587  0.8694771852372036  0.1685266419454149
  0.5630395293482313  0.2071627119080533  0.2130037678206066
  0.9372814303682531  0.6194130788399029  0.1684692288497454
  0.9386210236689175  0.7894439455339468  0.8744900609172278
  0.5620988403275956  0.3677195292580343  0.7869050613245226
  0.0629450222621655  0.3709145559963981  0.5211404333119019
  0.3124254909575855  0.3694605461639903  0.1684673803789717
  0.6883294563000144  0.1252135765940248  0.3018526356912888
  0.4393882269665447  0.9558456536912285  0.8314191788322176
  0.1860597918459843  0.2912999399911350  0.1256641884047574
  0.1871489060538147  0.2912124494362107  0.2578452099497664
  0.3124281353846023  0.3735121198758922  0.4347942021184834
  0.5637269320409858  0.0357832191641317  0.1255257637222638
  0.4363650071776784  0.2872729306336492  0.6100666215817421
  0.1880619229143742  0.4581751999921394  0.3465878712059018
  0.4382972718641463  0.2912690942624721  0.1256373791398356
  0.6873218723593594  0.7918444636051293  0.2574630111939941
  0.4376235583786749  0.1208210025717924  0.5211208231012380
  0.1886290343021420  0.2912105435747607  0.8745233365517148
  0.1871160412647963  0.1209175717664804  0.6537075334699399
  0.9380354672029031  0.1215570748110142  0.6538929205037398
  0.3125788791717417  0.2080983195508933  0.2131156497499435
  0.0625425716017224  0.0401778091242568  0.3898642202171830
  0.1877828878949031  0.1173878880635079  0.1677726018915597
  0.0623277738127129  0.5353682478165470  0.6102611233228534
  0.9386243359148713  0.2907734200678142  0.2577268166075555
  0.5630368827115193  0.5361690451452017  0.6099930703106545
  0.9373421162211765  0.9574881312980426  0.5650213971660250
  0.6867830853491277  0.6248957512702065  0.3018393556366965
  0.9375063845300888  0.6238265266990866  0.4347041610799037
  0.9370161213401167  0.6172576326949266  0.7864971566151797
  0.5616394245067611  0.7041692979516068  0.6981338819377185
  0.0626587216385351  0.7098185830170128  0.8323192891951473
  0.9381567343316907  0.1252329801562606  0.3017742566129646
  0.9380977409855381  0.7873976319027463  0.6100312030982187
  0.4369836007871375  0.7918176489569555  0.2575464593121400
  0.3125874322840693  0.3682011297382254  0.7869095551659957
  0.4375246884578078  0.4582250358128095  0.2130453548157395
  0.1871020246526287  0.1213994310742178  0.5211940657564319
  0.8121357258937645  0.7050832654811976  0.6984029425485352
  0.0620551203774057  0.0359862021548824  0.6099651020584204
  0.5621230848810131  0.2059809040044642  0.8315167193592915
  0.3121596063015317  0.8709268146254681  0.5211152600836239
  0.6881102388351856  0.2909062103826546  0.1256669527726094
  0.1866662447094434  0.9592245724040636  0.2134132207786874
  0.6864382039870773  0.2871547614508317  0.6100437616557092
  0.3131202643754968  0.0365880214376298  0.6102090075021090
  0.9377771105214534  0.1170420047782416  0.7870235076124378
  0.4375354120968643  0.7909801362413130  0.8742568359122443
  0.8133223127867646  0.0366594407262522  0.7425852677594248
  0.9373297265719487  0.4560377972615386  0.6982861697201217
  0.1879079850583421  0.6215288208951680  0.6537725769138142
  0.3127148759888655  0.7039316773240347  0.6982736407575462
  0.9369824220670209  0.2906866959826274  0.1257061335759063
  0.4373107357809944  0.4561736923306658  0.4788575541662189
  0.0623523714995466  0.7054019058140143  0.4787328347339013
  0.9370337610750703  0.1247432830423973  0.4345819317195440
  0.4368414809666368  0.1254297341542772  0.3019298215186808
  0.1870969263483795  0.1247151676166552  0.4347253557414168
  0.5622670323076565  0.0343620231648505  0.8744598112885401
  0.1877203558626467  0.9571199300718152  0.5649395088458063
  0.6894670272641044  0.7909204360762310  0.1257595504597363
  0.5635485404026944  0.5342736499138308  0.1256641295147378
  0.3122141479192076  0.0401003028976548  0.3898550292595790
  0.6875332488515532  0.1198078993094903  0.1685618729605866
  0.8125139847390523  0.2078535567296413  0.2127491923682470
  0.0633631186178924  0.5405457391639453  0.2575349968947560
  0.5626532055860632  0.7058257014681022  0.4786660082168458
  0.0629035455225710  0.2067927918642025  0.5649131938487223
  0.5622680893315800  0.3762388447899005  0.3017098840747277
  0.4368778767671527  0.9574848847336135  0.3464424018095048
  0.1878479912027128  0.9555233052951552  0.6983532120897783
  0.4360181303251391  0.6189077199564121  0.1677402717615190
  0.9368630489086414  0.4586509214333848  0.2131444997053400
  0.0610213377345060  0.5337004423421976  0.1256525874719416
  0.8125845094152787  0.3708523836879083  0.5211083938985656
  0.9372699791180806  0.6250666082097159  0.3014929678537354
  0.3142511446639112  0.0413916577095011  0.2573221684978860
  0.6884881237410453  0.7866599273991751  0.6099955583013530
  0.1878385445680819  0.4567087281237614  0.8318503131995423
  0.4374445867755564  0.1175501335405870  0.1677273318101342
  0.3125925755153723  0.3709606050548283  0.5210781163421805
  0.4375728952055720  0.6169087491886996  0.7870957043740817
  0.0613350326179880  0.0412466131014875  0.2575301782821447
  0.5627799382624291  0.7074412331707938  0.5650021514865751
  0.9373765708060794  0.2854081819952448  0.7424010608950156
  0.6859206355240444  0.1167651381987917  0.7866862846609124
  0.1878219071088475  0.4583055551713008  0.2130567966258914
  0.9373935909663289  0.7911152739809496  0.3898061603619390
  0.6862144921832086  0.2931473337458033  0.8744858818022010
  0.5625301901861495  0.8701676501941507  0.1682257956318596
  0.4375184970877389  0.4551145859775709  0.6983031810185815
  0.9385283590069519  0.9561464479693715  0.3462276177227867
  0.6872279737368239  0.6214193160058320  0.5211750889563981
  0.0630368869866616  0.8706739160710956  0.6537225503732454
  0.0624454374735744  0.8683906080459867  0.7868282539643887
  0.0621771256824885  0.3696298055499516  0.6536888050857853
  0.6875466612362405  0.4557114331538874  0.4787407653704848
  0.1887285632275710  0.7909385064253370  0.2574184572376215
  0.4371724625091628  0.1242630664812653  0.4348807895088759
  0.8124716529209735  0.0349578716691372  0.1256187386551333
  0.9375927392930966  0.6207569126024884  0.5211310630606113
  0.0619551905742452  0.8744165524235171  0.4351300702915831
  0.8120051322539217  0.5354912430599550  0.1255255537416467
  0.4376079444385760  0.4572551989241972  0.3464922299411103
  0.8125087034145068  0.2075226505930688  0.3464803044729184
  0.3125649643127318  0.7065207444771978  0.3463344765061706
  0.6873144484314453  0.1206256455809533  0.6536044318622287
  0.5630492303643220  0.8753861436168148  0.3018888497697043
  0.0640449727037010  0.5358802383528992  0.7424734035019938
  0.9391045647275642  0.9594780285557083  0.2132130870221111
  0.8124498804438545  0.7079587283298514  0.2129675939165886
  0.0620341600841049  0.8752737920986786  0.3018963168325361
  0.1877060121789463  0.1263207093404194  0.3018475456834021
  0.0624934085821114  0.7072648836446728  0.3464655242252083
  0.8120752119553460  0.0361051662174638  0.6098184595168982
  0.0619204472331592  0.3742464540202570  0.4349084100869757
  0.5625159657219504  0.2072247644455538  0.3464610386407132
  0.8127783417595149  0.3755509866302269  0.3018005903838800
  0.4374443204896584  0.9557542988343116  0.4787611026940791
  0.5623774416135879  0.5406195594466371  0.3898362195426020
  0.0624047801278278  0.2058480775195746  0.4786534547725495
  0.3125634806500224  0.8673890678449706  0.7867768699165668
  0.9376592967984175  0.9554020060625855  0.6983132085405569
  0.0625399842746421  0.3772201370151500  0.3016907000932597
  0.6869905860229917  0.6211959800922011  0.6538197624761830
  0.6878177859634530  0.4571240018597220  0.5649035339889560
  0.4383751841020405  0.9593344668817646  0.2133653180170996
  0.3125874086565977  0.2057603405310643  0.4787525228579680
  0.4379497026949922  0.1202618094352548  0.6534877573529440
  0.6871151814770364  0.6235167539927967  0.4345459225798682
  0.8129013953298623  0.2051106802637168  0.6984006390316111
  0.8125228609807961  0.7056394080969727  0.4787932371165635
  0.8117444607784868  0.8744652960733530  0.4352126302949362
  0.9374941252840318  0.9560728999380773  0.4789407723996486
  0.5623888422861234  0.2058308058122520  0.4787626290927433
  0.1877251751836812  0.6242388927437886  0.4348728090112002
  0.3114093173408383  0.0373118293734363  0.7422756969002726
  0.9369670278925953  0.6211361830664610  0.6537992829314622
  0.5627227502829520  0.7065472188113856  0.8316045360257083
  0.3123400268279696  0.3741156281822419  0.3018438954727637
  0.5621833165410758  0.7079184092125234  0.2130525568343549
  0.1875447560820107  0.4557716590397226  0.4787115064856049
  0.3141203506103052  0.0357840160765200  0.8742201040127382
  0.1868382377675722  0.4557483580171678  0.6984104032924856
  0.8110100467120572  0.5340217809846713  0.8746021393667517
  0.1875042445636499  0.2907553432998651  0.3899174909142207
  0.4370459868455880  0.6246115900280338  0.4349670446444531
  0.0626905031309248  0.7080418059226785  0.2129808362806259
  0.5617751716596767  0.3745142675382558  0.4350819950786364
  0.4380948722173668  0.6219132243866368  0.5212341794344716
  0.8131401108286926  0.7102139992908940  0.8315617592944676
  0.0623208380086842  0.3684441512849722  0.7869886547919009
  0.4375992819354094  0.2919598929372615  0.8747962446860357
  0.3128580815247878  0.0350249587841518  0.1256716434684721
  0.6877249000403207  0.1231235644494368  0.4346456973459181
  0.1873174223202590  0.9570856182680252  0.3464889246116821
  0.0631633743388468  0.2091308597975872  0.8325269032801329
  0.5620520863426572  0.0357175214312989  0.6103415081140576
  0.6874701977631865  0.4582240984028945  0.2129979509114199
  0.1874568310915585  0.7874144338251223  0.7428167709520682
  0.1874252513386947  0.6265600973819981  0.3018438214913505
  0.4361020004229254  0.7915702148755549  0.3902262128435032
  0.4363153725436411  0.2922777623611721  0.2575120312085403
  0.0636969512528512  0.5355476370408633  0.8744871945105325
  0.5639006787001137  0.0364891416669808  0.7424177163017947
  0.1884073474459244  0.7905982061127875  0.8743503509876829
  0.9374682299070592  0.4557523231054558  0.4787213431732203
  0.8122048412216771  0.5406213821386471  0.3899499261061103
  0.8121251713893670  0.2070384685562459  0.5649173584884031
  0.1870042403358444  0.6171206541283185  0.7868613991733563
  0.0627532524791708  0.5409089354138525  0.3899060331564476
  0.0630329864384238  0.7047082607236541  0.6982338657763313
  0.3121517121846021  0.5429552743188995  0.2569982277159911
  0.3119764052854793  0.7045466916985560  0.2136681050040095
  0.3122679698110842  0.8700324803852887  0.1671203140689672
  0.5628700319029810  0.5369830312602871  0.7423581207441577
  0.6874279178015353  0.4559879547701800  0.3464826742805616
  0.9348096255702096  0.2927595770047037  0.8740921369078415
  0.5629520487099534  0.0416186872961757  0.2572380312447832
  0.0645473686991313  0.0326506232668715  0.8741604975459381
  0.1868760250694979  0.7919195369421740  0.3900943789655159
  0.8124108718410716  0.8704797450641411  0.5210524717954359
  0.5623723380017972  0.3708624145852898  0.5211593340318360
  0.0629922067734522  0.8705288174608197  0.5211571540891806
  0.8115028893124639  0.8687479421079689  0.7864616499018350
  0.3119952719163827  0.5357389438156200  0.7426752712401362
 
  0.00000000E+00  0.00000000E+00  0.00000000E+00
  0.00000000E+00  0.00000000E+00  0.00000000E+00
  0.00000000E+00  0.00000000E+00  0.00000000E+00
  0.00000000E+00  0.00000000E+00  0.00000000E+00
  0.00000000E+00  0.00000000E+00  0.00000000E+00
  0.00000000E+00  0.00000000E+00  0.00000000E+00
  0.00000000E+00  0.00000000E+00  0.00000000E+00
  0.00000000E+00  0.00000000E+00  0.00000000E+00
  0.00000000E+00  0.00000000E+00  0.00000000E+00
  0.00000000E+00  0.00000000E+00  0.00000000E+00
  0.00000000E+00  0.00000000E+00  0.00000000E+00
  0.00000000E+00  0.00000000E+00  0.00000000E+00
  0.00000000E+00  0.00000000E+00  0.00000000E+00
  0.00000000E+00  0.00000000E+00  0.00000000E+00
  0.00000000E+00  0.00000000E+00  0.00000000E+00
  0.00000000E+00  0.00000000E+00  0.00000000E+00
  0.00000000E+00  0.00000000E+00  0.00000000E+00
  0.00000000E+00  0.00000000E+00  0.00000000E+00
  0.00000000E+00  0.00000000E+00  0.00000000E+00
  0.00000000E+00  0.00000000E+00  0.00000000E+00
  0.00000000E+00  0.00000000E+00  0.00000000E+00
  0.00000000E+00  0.00000000E+00  0.00000000E+00
  0.00000000E+00  0.00000000E+00  0.00000000E+00
  0.00000000E+00  0.00000000E+00  0.00000000E+00
  0.00000000E+00  0.00000000E+00  0.00000000E+00
  0.00000000E+00  0.00000000E+00  0.00000000E+00
  0.00000000E+00  0.00000000E+00  0.00000000E+00
  0.00000000E+00  0.00000000E+00  0.00000000E+00
  0.00000000E+00  0.00000000E+00  0.00000000E+00
  0.00000000E+00  0.00000000E+00  0.00000000E+00
  0.00000000E+00  0.00000000E+00  0.00000000E+00
  0.00000000E+00  0.00000000E+00  0.00000000E+00
  0.00000000E+00  0.00000000E+00  0.00000000E+00
  0.00000000E+00  0.00000000E+00  0.00000000E+00
  0.00000000E+00  0.00000000E+00  0.00000000E+00
  0.00000000E+00  0.00000000E+00  0.00000000E+00
  0.00000000E+00  0.00000000E+00  0.00000000E+00
  0.00000000E+00  0.00000000E+00  0.00000000E+00
  0.00000000E+00  0.00000000E+00  0.00000000E+00
  0.00000000E+00  0.00000000E+00  0.00000000E+00
  0.00000000E+00  0.00000000E+00  0.00000000E+00
  0.00000000E+00  0.00000000E+00  0.00000000E+00
  0.00000000E+00  0.00000000E+00  0.00000000E+00
  0.00000000E+00  0.00000000E+00  0.00000000E+00
  0.00000000E+00  0.00000000E+00  0.00000000E+00
  0.00000000E+00  0.00000000E+00  0.00000000E+00
  0.00000000E+00  0.00000000E+00  0.00000000E+00
  0.00000000E+00  0.00000000E+00  0.00000000E+00
  0.00000000E+00  0.00000000E+00  0.00000000E+00
  0.00000000E+00  0.00000000E+00  0.00000000E+00
  0.00000000E+00  0.00000000E+00  0.00000000E+00
  0.00000000E+00  0.00000000E+00  0.00000000E+00
  0.00000000E+00  0.00000000E+00  0.00000000E+00
  0.00000000E+00  0.00000000E+00  0.00000000E+00
  0.00000000E+00  0.00000000E+00  0.00000000E+00
  0.00000000E+00  0.00000000E+00  0.00000000E+00
  0.00000000E+00  0.00000000E+00  0.00000000E+00
  0.00000000E+00  0.00000000E+00  0.00000000E+00
  0.00000000E+00  0.00000000E+00  0.00000000E+00
  0.00000000E+00  0.00000000E+00  0.00000000E+00
  0.00000000E+00  0.00000000E+00  0.00000000E+00
  0.00000000E+00  0.00000000E+00  0.00000000E+00
  0.00000000E+00  0.00000000E+00  0.00000000E+00
  0.00000000E+00  0.00000000E+00  0.00000000E+00
  0.00000000E+00  0.00000000E+00  0.00000000E+00
  0.00000000E+00  0.00000000E+00  0.00000000E+00
  0.00000000E+00  0.00000000E+00  0.00000000E+00
  0.00000000E+00  0.00000000E+00  0.00000000E+00
  0.00000000E+00  0.00000000E+00  0.00000000E+00
  0.00000000E+00  0.00000000E+00  0.00000000E+00
  0.00000000E+00  0.00000000E+00  0.00000000E+00
  0.00000000E+00  0.00000000E+00  0.00000000E+00
  0.00000000E+00  0.00000000E+00  0.00000000E+00
  0.00000000E+00  0.00000000E+00  0.00000000E+00
  0.00000000E+00  0.00000000E+00  0.00000000E+00
  0.00000000E+00  0.00000000E+00  0.00000000E+00
  0.00000000E+00  0.00000000E+00  0.00000000E+00
  0.00000000E+00  0.00000000E+00  0.00000000E+00
  0.00000000E+00  0.00000000E+00  0.00000000E+00
  0.00000000E+00  0.00000000E+00  0.00000000E+00
  0.00000000E+00  0.00000000E+00  0.00000000E+00
  0.00000000E+00  0.00000000E+00  0.00000000E+00
  0.00000000E+00  0.00000000E+00  0.00000000E+00
  0.00000000E+00  0.00000000E+00  0.00000000E+00
  0.00000000E+00  0.00000000E+00  0.00000000E+00
  0.00000000E+00  0.00000000E+00  0.00000000E+00
  0.00000000E+00  0.00000000E+00  0.00000000E+00
  0.00000000E+00  0.00000000E+00  0.00000000E+00
  0.00000000E+00  0.00000000E+00  0.00000000E+00
  0.00000000E+00  0.00000000E+00  0.00000000E+00
  0.00000000E+00  0.00000000E+00  0.00000000E+00
  0.00000000E+00  0.00000000E+00  0.00000000E+00
  0.00000000E+00  0.00000000E+00  0.00000000E+00
  0.00000000E+00  0.00000000E+00  0.00000000E+00
  0.00000000E+00  0.00000000E+00  0.00000000E+00
  0.00000000E+00  0.00000000E+00  0.00000000E+00
  0.00000000E+00  0.00000000E+00  0.00000000E+00
  0.00000000E+00  0.00000000E+00  0.00000000E+00
  0.00000000E+00  0.00000000E+00  0.00000000E+00
  0.00000000E+00  0.00000000E+00  0.00000000E+00
  0.00000000E+00  0.00000000E+00  0.00000000E+00
  0.00000000E+00  0.00000000E+00  0.00000000E+00
  0.00000000E+00  0.00000000E+00  0.00000000E+00
  0.00000000E+00  0.00000000E+00  0.00000000E+00
  0.00000000E+00  0.00000000E+00  0.00000000E+00
  0.00000000E+00  0.00000000E+00  0.00000000E+00
  0.00000000E+00  0.00000000E+00  0.00000000E+00
  0.00000000E+00  0.00000000E+00  0.00000000E+00
  0.00000000E+00  0.00000000E+00  0.00000000E+00
  0.00000000E+00  0.00000000E+00  0.00000000E+00
  0.00000000E+00  0.00000000E+00  0.00000000E+00
  0.00000000E+00  0.00000000E+00  0.00000000E+00
  0.00000000E+00  0.00000000E+00  0.00000000E+00
  0.00000000E+00  0.00000000E+00  0.00000000E+00
  0.00000000E+00  0.00000000E+00  0.00000000E+00
  0.00000000E+00  0.00000000E+00  0.00000000E+00
  0.00000000E+00  0.00000000E+00  0.00000000E+00
  0.00000000E+00  0.00000000E+00  0.00000000E+00
  0.00000000E+00  0.00000000E+00  0.00000000E+00
  0.00000000E+00  0.00000000E+00  0.00000000E+00
  0.00000000E+00  0.00000000E+00  0.00000000E+00
  0.00000000E+00  0.00000000E+00  0.00000000E+00
  0.00000000E+00  0.00000000E+00  0.00000000E+00
  0.00000000E+00  0.00000000E+00  0.00000000E+00
  0.00000000E+00  0.00000000E+00  0.00000000E+00
  0.00000000E+00  0.00000000E+00  0.00000000E+00
  0.00000000E+00  0.00000000E+00  0.00000000E+00
  0.00000000E+00  0.00000000E+00  0.00000000E+00
  0.00000000E+00  0.00000000E+00  0.00000000E+00
  0.00000000E+00  0.00000000E+00  0.00000000E+00
  0.00000000E+00  0.00000000E+00  0.00000000E+00
  0.00000000E+00  0.00000000E+00  0.00000000E+00
  0.00000000E+00  0.00000000E+00  0.00000000E+00
  0.00000000E+00  0.00000000E+00  0.00000000E+00
  0.00000000E+00  0.00000000E+00  0.00000000E+00
  0.00000000E+00  0.00000000E+00  0.00000000E+00
  0.00000000E+00  0.00000000E+00  0.00000000E+00
  0.00000000E+00  0.00000000E+00  0.00000000E+00
  0.00000000E+00  0.00000000E+00  0.00000000E+00
  0.00000000E+00  0.00000000E+00  0.00000000E+00
  0.00000000E+00  0.00000000E+00  0.00000000E+00
  0.00000000E+00  0.00000000E+00  0.00000000E+00
  0.00000000E+00  0.00000000E+00  0.00000000E+00
  0.00000000E+00  0.00000000E+00  0.00000000E+00
  0.00000000E+00  0.00000000E+00  0.00000000E+00
  0.00000000E+00  0.00000000E+00  0.00000000E+00
  0.00000000E+00  0.00000000E+00  0.00000000E+00
  0.00000000E+00  0.00000000E+00  0.00000000E+00
  0.00000000E+00  0.00000000E+00  0.00000000E+00
  0.00000000E+00  0.00000000E+00  0.00000000E+00
  0.00000000E+00  0.00000000E+00  0.00000000E+00
  0.00000000E+00  0.00000000E+00  0.00000000E+00
  0.00000000E+00  0.00000000E+00  0.00000000E+00
  0.00000000E+00  0.00000000E+00  0.00000000E+00
  0.00000000E+00  0.00000000E+00  0.00000000E+00
  0.00000000E+00  0.00000000E+00  0.00000000E+00
  0.00000000E+00  0.00000000E+00  0.00000000E+00
  0.00000000E+00  0.00000000E+00  0.00000000E+00
  0.00000000E+00  0.00000000E+00  0.00000000E+00
  0.00000000E+00  0.00000000E+00  0.00000000E+00
  0.00000000E+00  0.00000000E+00  0.00000000E+00
  0.00000000E+00  0.00000000E+00  0.00000000E+00
  0.00000000E+00  0.00000000E+00  0.00000000E+00
  0.00000000E+00  0.00000000E+00  0.00000000E+00
  0.00000000E+00  0.00000000E+00  0.00000000E+00
  0.00000000E+00  0.00000000E+00  0.00000000E+00
  0.00000000E+00  0.00000000E+00  0.00000000E+00
  0.00000000E+00  0.00000000E+00  0.00000000E+00
  0.00000000E+00  0.00000000E+00  0.00000000E+00
  0.00000000E+00  0.00000000E+00  0.00000000E+00
  0.00000000E+00  0.00000000E+00  0.00000000E+00
  0.00000000E+00  0.00000000E+00  0.00000000E+00
  0.00000000E+00  0.00000000E+00  0.00000000E+00
  0.00000000E+00  0.00000000E+00  0.00000000E+00
  0.00000000E+00  0.00000000E+00  0.00000000E+00
  0.00000000E+00  0.00000000E+00  0.00000000E+00
  0.00000000E+00  0.00000000E+00  0.00000000E+00
  0.00000000E+00  0.00000000E+00  0.00000000E+00
  0.00000000E+00  0.00000000E+00  0.00000000E+00
  0.00000000E+00  0.00000000E+00  0.00000000E+00
  0.00000000E+00  0.00000000E+00  0.00000000E+00
  0.00000000E+00  0.00000000E+00  0.00000000E+00
  0.00000000E+00  0.00000000E+00  0.00000000E+00
  0.00000000E+00  0.00000000E+00  0.00000000E+00
  0.00000000E+00  0.00000000E+00  0.00000000E+00
  0.00000000E+00  0.00000000E+00  0.00000000E+00
  0.00000000E+00  0.00000000E+00  0.00000000E+00
  0.00000000E+00  0.00000000E+00  0.00000000E+00
  0.00000000E+00  0.00000000E+00  0.00000000E+00
  0.00000000E+00  0.00000000E+00  0.00000000E+00
  0.00000000E+00  0.00000000E+00  0.00000000E+00
  0.00000000E+00  0.00000000E+00  0.00000000E+00
  0.00000000E+00  0.00000000E+00  0.00000000E+00
  0.00000000E+00  0.00000000E+00  0.00000000E+00
  0.00000000E+00  0.00000000E+00  0.00000000E+00
  0.00000000E+00  0.00000000E+00  0.00000000E+00
  0.00000000E+00  0.00000000E+00  0.00000000E+00
  0.00000000E+00  0.00000000E+00  0.00000000E+00
  0.00000000E+00  0.00000000E+00  0.00000000E+00
  0.00000000E+00  0.00000000E+00  0.00000000E+00
  0.00000000E+00  0.00000000E+00  0.00000000E+00
  0.00000000E+00  0.00000000E+00  0.00000000E+00
  0.00000000E+00  0.00000000E+00  0.00000000E+00
  0.00000000E+00  0.00000000E+00  0.00000000E+00
  0.00000000E+00  0.00000000E+00  0.00000000E+00
  0.00000000E+00  0.00000000E+00  0.00000000E+00
  0.00000000E+00  0.00000000E+00  0.00000000E+00
  0.00000000E+00  0.00000000E+00  0.00000000E+00
  0.00000000E+00  0.00000000E+00  0.00000000E+00
  0.00000000E+00  0.00000000E+00  0.00000000E+00
  0.00000000E+00  0.00000000E+00  0.00000000E+00
  0.00000000E+00  0.00000000E+00  0.00000000E+00
  0.00000000E+00  0.00000000E+00  0.00000000E+00
  0.00000000E+00  0.00000000E+00  0.00000000E+00
  0.00000000E+00  0.00000000E+00  0.00000000E+00
  0.00000000E+00  0.00000000E+00  0.00000000E+00
  0.00000000E+00  0.00000000E+00  0.00000000E+00
  0.00000000E+00  0.00000000E+00  0.00000000E+00
  0.00000000E+00  0.00000000E+00  0.00000000E+00
  0.00000000E+00  0.00000000E+00  0.00000000E+00
  0.00000000E+00  0.00000000E+00  0.00000000E+00
  0.00000000E+00  0.00000000E+00  0.00000000E+00
  0.00000000E+00  0.00000000E+00  0.00000000E+00
  0.00000000E+00  0.00000000E+00  0.00000000E+00
  0.00000000E+00  0.00000000E+00  0.00000000E+00
  0.00000000E+00  0.00000000E+00  0.00000000E+00
  0.00000000E+00  0.00000000E+00  0.00000000E+00
  0.00000000E+00  0.00000000E+00  0.00000000E+00
  0.00000000E+00  0.00000000E+00  0.00000000E+00
  0.00000000E+00  0.00000000E+00  0.00000000E+00
  0.00000000E+00  0.00000000E+00  0.00000000E+00
  0.00000000E+00  0.00000000E+00  0.00000000E+00
  0.00000000E+00  0.00000000E+00  0.00000000E+00
  0.00000000E+00  0.00000000E+00  0.00000000E+00
  0.00000000E+00  0.00000000E+00  0.00000000E+00
  0.00000000E+00  0.00000000E+00  0.00000000E+00
  0.00000000E+00  0.00000000E+00  0.00000000E+00
  0.00000000E+00  0.00000000E+00  0.00000000E+00
  0.00000000E+00  0.00000000E+00  0.00000000E+00
  0.00000000E+00  0.00000000E+00  0.00000000E+00
  0.00000000E+00  0.00000000E+00  0.00000000E+00
  0.00000000E+00  0.00000000E+00  0.00000000E+00
  0.00000000E+00  0.00000000E+00  0.00000000E+00
  0.00000000E+00  0.00000000E+00  0.00000000E+00
  0.00000000E+00  0.00000000E+00  0.00000000E+00
  0.00000000E+00  0.00000000E+00  0.00000000E+00
  0.00000000E+00  0.00000000E+00  0.00000000E+00