CuInSe2gb                               
   1.00000000000000     
     9.7266780392896699    0.0000000000000000    0.0000000000000000
     0.0000000000000000    8.4235502764570693    0.0000000000000000
     0.0000000000000000    0.0000000000000000   45.0000000000000000
   Fe   Mn
   274    14
Direct
  0.0621679386959542  0.0359529151735928  0.1256303159075836
  0.3133425612677913  0.8711673167561005  0.6538805664820131
  0.1874739776644780  0.1167886153360820  0.7870947773961805
  0.4377410728371571  0.2910936331386249  0.3899205858261172
  0.3140328569721120  0.7065360797817691  0.8312737526792998
  0.8138074952331408  0.2097012867326696  0.8324884191026325
  0.1884418094854454  0.9580788468057369  0.8318950948093247
  0.5628781486812497  0.2072300887712149  0.5648345413783611
  0.0612576671890560  0.0360028087495802  0.7424114866994697
  0.8125379180384747  0.3701010180352852  0.1688916399643215
  0.1893976384027708  0.2870970834057961  0.7423521504690223
  0.9368970272598007  0.4562143446243635  0.3463233428651101
  0.9368180495530160  0.2905039660965307  0.3899010788521044
  0.8124031167016151  0.0351956986188564  0.8742145655266484
  0.1864180473653043  0.7869969503626481  0.6099339143381504
  0.5623385969838766  0.0409770123614100  0.3899244858186044
  0.9389564785101681  0.9589341277505845  0.8326062053174965
  0.3138406557952654  0.5352572758352597  0.8745080240713160
  0.6868940387679233  0.2874255541059956  0.7422376009034601
  0.1886277252775958  0.6196864303421892  0.1679089468923437
  0.8123611372931140  0.2060899360152863  0.4787040240380157
  0.8133196132844063  0.5357843788152130  0.6100078509610090
  0.3126097394948241  0.8734970117247758  0.4346496188116654
  0.8118231838757118  0.0400215963803431  0.2578191462309666
  0.6873205892269991  0.9565214339563979  0.3463396646494110
  0.9371528596247032  0.1201023896034464  0.1686647021381982
  0.9373305603534672  0.1222161860530864  0.5211359653136244
  0.5614436071986548  0.5412531377845733  0.2574415580434843
  0.6860186475989739  0.7914255925893569  0.8744196439792917
  0.5632045153454294  0.3701377132276482  0.1681181589069988
  0.4371792977557993  0.7876868039045630  0.7427007474255942
  0.8129597716775896  0.7069229456522915  0.5648918817020777
  0.5630070892972614  0.8679537381976747  0.7869645384509483
  0.6881189230076696  0.1215100361318969  0.5212091922057368
  0.8134527128542679  0.3701958314610196  0.6537460136437313
  0.9378516718578337  0.4580119234836821  0.8322510379615304
  0.0623719023458121  0.2048546629233902  0.6983195658919816
  0.4369988854870414  0.9539591566152568  0.6981220459569256
  0.3130463628579699  0.2053420116351127  0.8317747594619633
  0.4380863635998586  0.6208267508372298  0.6537873547276457
  0.3113083362491712  0.5362998423218948  0.6098719537316113
  0.9372437129544848  0.4570416730439183  0.5649028941687281
  0.6876475272430014  0.7875100197779679  0.7427556346894816
  0.9357894394118470  0.7909548554120813  0.1258306163562546
  0.6872497346117594  0.7903504208545219  0.3898189048090880
  0.9375979267243234  0.7872124688590076  0.7428668471460503
  0.0634115643411021  0.2066042849651803  0.3462500641312061
  0.8114006781115856  0.0412901820840163  0.3901941644522510
  0.4374662620861028  0.1173550458951341  0.7871274719486381
  0.0620404922577187  0.2071307923660458  0.2129123469733704
  0.0619745562082136  0.3697705117000457  0.1682902501258456
  0.9357802113570640  0.7911181120023609  0.2574918884326325
  0.5630102457421815  0.2051517785516059  0.6984038859115749
  0.6868121550875339  0.9550643716438439  0.6982760410869131
  0.4371516177543374  0.7911870301177594  0.1255241693799499
  0.4372816100202383  0.9569390699019557  0.5648427727864354
  0.8128596850327349  0.3682521781828237  0.7869995254221862
  0.6849260024405111  0.2907615060264649  0.2575623041733718
  0.1880784313899639  0.4569899290188592  0.5648726096962565
  0.0633723124001085  0.8703423707156044  0.1684738668214939
  0.1879589899094727  0.2875710563510204  0.6101060582185306
  0.5636480498941963  0.7064582363349873  0.3463510829283689
  0.3120155742938451  0.2053854829255416  0.6984959684032601
  0.5614009942169199  0.5350452507177664  0.8744277368329207
  0.0625497083701688  0.7073143165796816  0.5648972998671108
  0.6881194875463260  0.6173549820606659  0.7869307370845746
  0.3110178511059380  0.5407772294846374  0.3899613075072058
  0.1873185734437037  0.6206991557091135  0.5211460130903066
  0.5623535857162035  0.8733979910533152  0.4347027898877356
  0.4370060123815273  0.4572817242981312  0.5649111586459841
  0.4375467657743060  0.2886331649441762  0.7423184194402024
  0.8123330640416169  0.8776568237467814  0.3016981242765333
  0.8119323994998904  0.7072279664132666  0.3464769082374675
  0.4380542094896138  0.4556409871696867  0.8314848216447367
  0.6872134233921339  0.9558247965017131  0.4787100968391025
  0.6874743528514697  0.4547166102312316  0.6983556878407119
  0.5625507584915301  0.8709854260426432  0.5211286995353153
  0.5627753188459672  0.3705722828353774  0.6536323230030856
  0.8118543842190630  0.8702338175584192  0.6537113864764754
  0.8128774216990597  0.3740275346417286  0.4347938846827310
  0.8134095033728306  0.5404179055432470  0.2575292799429635
  0.6890893880063530  0.4552217024636895  0.8317543937598570
  0.1880135669594821  0.7913741485515710  0.1255189883796035
  0.6872327565521986  0.2909484890517916  0.3897894217496988
  0.3126130622430252  0.3706463508994368  0.6536306963860796
  0.3124884122337978  0.2069406077076900  0.3462709774848813
  0.8119327792734957  0.5366020148631919  0.7427404313366062
  0.6874348248604158  0.9559089617966249  0.8318780612902784
  0.5621959254966425  0.8709117562119582  0.6536906082602648
  0.3123482301495430  0.7071506573644091  0.5649104775004783
  0.3115955956412511  0.5354310277653815  0.1255268223825202
  0.6871311054761970  0.9584483637328217  0.2130946204795572
  0.3129149614148575  0.2070079405689997  0.5648685144280762
  0.1876282426318850  0.9559515493253500  0.4788279789395770
  0.6878785287512945  0.9569488120639696  0.5648768358541969
  0.4366035284790311  0.7871628027326566  0.6099522246242446
  0.6877951364564259  0.6194515443295429  0.1683106091501850
  0.3127418804864187  0.8758319756840672  0.3017025229348423
  0.3124052223401143  0.7057378503698966  0.4787803977381183
  0.9362185398169454  0.2873484720076679  0.6102074826310231
  0.4385403800965733  0.6252905477880367  0.3018787316799882
  0.8126477607329473  0.8694803744364303  0.1685279947986563
  0.5630850322259672  0.2071606427848918  0.2129912622621412
  0.9372882028232639  0.6194151109038414  0.1684705084365668
  0.9386344230149312  0.7894675561361201  0.8744640620156090
  0.5620881629562273  0.3677248921629699  0.7869400350306547
  0.0629745267235991  0.3708959188158284  0.5211503994013013
  0.3124066246277384  0.3694678954379395  0.1684602025252534
  0.6883585503685590  0.1252296500783411  0.3018468035705736
  0.4394273979282685  0.9558169074946884  0.8314585669517475
  0.1860411959159943  0.2913502681239581  0.1256623580396185
  0.1871095093966750  0.2912242402628655  0.2578372640902650
  0.3124184706850498  0.3734839254846730  0.4348067694826552
  0.5637517289246703  0.0357869206647931  0.1255208830306700
  0.4363772003370087  0.2872730264549564  0.6100133485747130
  0.1880202327287988  0.4581487657345789  0.3465857830651855
  0.4382987087119533  0.2913081242728527  0.1256328708226651
  0.6873253011155188  0.7918435267045987  0.2574556612149066
  0.4376103271324629  0.1208135217965912  0.5211285659041497
  0.1886502172930430  0.2912801781804545  0.8745059883654435
  0.1871242396851274  0.1209343198432814  0.6536641841617450
  0.9380175451764969  0.1215815706910523  0.6538380490610327
  0.3125482962540932  0.2081109501085484  0.2130988489810557
  0.0625436185317622  0.0401761953296182  0.3898727275732735
  0.1877543132616781  0.1173458605466583  0.1677723560868055
  0.0622906792546716  0.5353042050403852  0.6102139030559147
  0.9386085653022040  0.2907860815375355  0.2577160168007950
  0.5630929641626150  0.5361649491291359  0.6099409329243539
  0.9373384365282018  0.9575626676998289  0.5649959396002384
  0.6868206986714928  0.6248822967675250  0.3018313841046777
  0.9375133880559163  0.6238323765820347  0.4347183593474756
  0.9369976386318307  0.6172842721868874  0.7865260041887171
  0.5616139146009632  0.7041782338140465  0.6981524438032202
  0.0626661843272836  0.7098179926222584  0.8323735723216884
  0.9381537050616746  0.1252452991815536  0.3017761494494215
  0.9380516311956418  0.7873650507796622  0.6099880419735570
  0.4369933277023103  0.7918219173980467  0.2575391221016804
  0.3126160757488080  0.3682079616946013  0.7869421780814133
  0.4375382741894527  0.4582140275630702  0.2130300947403048
  0.1870905864251260  0.1214212077327991  0.5211998116713520
  0.8120775676468691  0.7050699469526720  0.6984317314077008
  0.0620322525292726  0.0360326671843308  0.6099160884036441
  0.5621226994412928  0.2059949651380561  0.8315474204520745
  0.3121697684524377  0.8709037891752833  0.5211202114283211
  0.6881110763233929  0.2909163123254927  0.1256643993852601
  0.1866238030951242  0.9592368652029640  0.2133915045708391
  0.6864740873371606  0.2871663647881821  0.6099955311436730
  0.3131357313006158  0.0366024709332190  0.6101608108084756
  0.9377600988404482  0.1170094059529194  0.7870466082100177
  0.4375271689374675  0.7910446885829403  0.8742287186898093
  0.8133003811034885  0.0366583530264877  0.7426314930494657
  0.9373235186656098  0.4560414690269147  0.6983161284994124
  0.1879189856068934  0.6215145352494034  0.6537330328664400
  0.3127598646569199  0.7039199697919678  0.6982962737416644
  0.9369971162281093  0.2907101076922298  0.1257052064878630
  0.4373041067212098  0.4561820030628621  0.4788721468080024
  0.0623611434567609  0.7053777970262489  0.4787402409115844
  0.9370412634685579  0.1247465004295445  0.4345946438356872
  0.4368430537170554  0.1254367310661591  0.3019282118584526
  0.1870752651795180  0.1247263534022927  0.4347343845714229
  0.5622760553784563  0.0342844899117236  0.8744357706217978
  0.1877470872691456  0.9571590036780221  0.5649045039395902
  0.6895014158890493  0.7909625138742340  0.1257574838022754
  0.5635490388410449  0.5342246804437236  0.1256620608522913
  0.3121835336896386  0.0401016631838882  0.3898655235312208
  0.6875557530871904  0.1198084290683443  0.1685644149392973
  0.8125507686224329  0.2078507386433282  0.2127313054115283
  0.0633355890282092  0.5405445646429825  0.2575284028162015
  0.5626495958125654  0.7058489323804799  0.4786786541825203
  0.0629051378630502  0.2068557571343166  0.5648792862127490
  0.5622996206201073  0.3762344923820676  0.3017015034463882
  0.4368652678243128  0.9575172583868848  0.3464413991618483
  0.1879152853655302  0.9555207697879209  0.6983809210905073
  0.4359871563997949  0.6189156539679683  0.1677350997635765
  0.9368616034751545  0.4586171523922719  0.2131296974315435
  0.0610234979099496  0.5336582123106820  0.1256518329438344
  0.8125865365153643  0.3708419874858581  0.5211160075651210
  0.9372613295514783  0.6250478534141393  0.3014907380440024
  0.3142712051374714  0.0413677276594748  0.2573145133180368
  0.6885037915036555  0.7866481649721163  0.6099533987110030
  0.1878636574948816  0.4567428915572628  0.8318989924346012
  0.4374450306904983  0.1175096211354351  0.1677211371352760
  0.3125893329922266  0.3709854051249689  0.5210894764048360
  0.4375914088481644  0.6169089661112727  0.7871350157732264
  0.0613001113397440  0.0412541823099402  0.2575179614205882
  0.5627611412860727  0.7074186083579913  0.5649699362125906
  0.9373718293068901  0.2854065636915785  0.7424427160298935
  0.6858976958580491  0.1167270923737111  0.7867155117567974
  0.1877757582688213  0.4582798356374528  0.2130395615044175
  0.9374194039695044  0.7911474673884340  0.3898113831950687
  0.6862345145215775  0.2932336663345192  0.8744631718552232
  0.5625192342950744  0.8701734418413746  0.1682243993295012
  0.4375208381525996  0.4551275262871219  0.6983256386915406
  0.9385396181741188  0.9561565107378579  0.3462251697718732
  0.6871870375110134  0.6213949924220356  0.5211805815170252
  0.0630394939689856  0.8706708532555454  0.6536775128068074
  0.0624374841599112  0.8683992894203795  0.7868550258856123
  0.0621725362681767  0.3696310104473205  0.6536335035602941
  0.6875629100772022  0.4557005896836511  0.4787500255901562
  0.1887247529985140  0.7909238879956494  0.2574130238421368
  0.4371630528733572  0.1242685807367189  0.4348925768498096
  0.8124784522187833  0.0349269181809578  0.1256178774063093
  0.9376139042584583  0.6207084955012079  0.5211323533269473
  0.0619515925863310  0.8744450528491028  0.4351376033934636
  0.8120235237670274  0.5354676962319777  0.1255225765882968
  0.4375938921769545  0.4572162422690312  0.3464888677407681
  0.8125482312544757  0.2075239663838012  0.3464756917251109
  0.3125133982384610  0.7065277749028668  0.3463325651422374
  0.6873135034299797  0.1206170040405266  0.6535589106377496
  0.5630675713964475  0.8753982917933231  0.3018795372249745
  0.0640660960976718  0.5358801821614290  0.7425083658978620
  0.9391089158442952  0.9595247544630215  0.2131932726292540
  0.8124644072489791  0.7079651058015896  0.2129529300396145
  0.0620187754292664  0.8752670232925654  0.3018967069054507
  0.1876812032698022  0.1263310298556283  0.3018525366154980
  0.0624704088732393  0.7072626486393394  0.3464629062847473
  0.8120417062272204  0.0361322467134151  0.6097751228686596
  0.0619147317562780  0.3742153431997793  0.4349230701986368
  0.5625275696852803  0.2072087726948731  0.3464592997030435
  0.8127991054852725  0.3755601943049485  0.3017960774712323
  0.4374614958890884  0.9557458910352923  0.4787722688767382
  0.5623923983024763  0.5405998907653062  0.3898494531031767
  0.0623862294681419  0.2058496235784151  0.4786607951473942
  0.3125956914113142  0.8673652653764832  0.7868086461843780
  0.9376367659191325  0.9554024518426729  0.6983440238538468
  0.0625064891619278  0.3772282276690889  0.3016917735106481
  0.6869889259996138  0.6212103907460260  0.6537711707357421
  0.6878158648254271  0.4571025258244662  0.5648771831697307
  0.4383882755356471  0.9593314270841848  0.2133506520311307
  0.3125687044978585  0.2057569551996612  0.4787625943318643
  0.4379608557377484  0.1202515090361916  0.6534509916358403
  0.6871224335099305  0.6235195664067871  0.4345624145099217
  0.8128394304081149  0.2051228447758180  0.6984302800961765
  0.8125179077859962  0.7056377409926434  0.4787976379385351
  0.8117522327666025  0.8745052908264933  0.4352284374104377
  0.9374807455985360  0.9561120458062384  0.4789413407436692
  0.5623963312805489  0.2058171550556831  0.4787689919880092
  0.1877187951876053  0.6242573126872497  0.4348840030457414
  0.3114243486038055  0.0373182555177632  0.7423124522951212
  0.9369492201972663  0.6211153353420129  0.6537449490452804
  0.5627210506513836  0.7065686822732746  0.8316366646806806
  0.3123200530465325  0.3740981578753378  0.3018419313716013
  0.5622044643132150  0.7079305112756005  0.2130412274999600
  0.1875361586455428  0.4557738362763379  0.4787241371199667
  0.3141153210105883  0.0357269779401945  0.8741995721530805
  0.1868815525789695  0.4557568798125632  0.6984395525821855
  0.8110090157315606  0.5339752931063070  0.8745782328096552
  0.1874870964987021  0.2907255140414569  0.3899249013244798
  0.4370390293049008  0.6246136947632075  0.4349835566708457
  0.0626664741350240  0.7080534875529947  0.2129642870382058
  0.5617724512036731  0.3744917434498178  0.4350943699822943
  0.4380819126856919  0.6219041028865722  0.5212460508134115
  0.8131042456043120  0.7102503114396369  0.8316053711339236
  0.0623379744771341  0.3684319024693861  0.7870135247491249
  0.4375837828692317  0.2920107413027757  0.8747771165861057
  0.3128483567107936  0.0349965995389588  0.1256789050345977
  0.6877480859590749  0.1231134044023955  0.4346611938521857
  0.1872778255013556  0.9571048575306392  0.3464911543957384
  0.0631925755869044  0.2091592656056624  0.8325678668043889
  0.5620903215884606  0.0357100167427015  0.6102969541751117
  0.6875028735760361  0.4582015623253260  0.2129851515077655
  0.1874638546651662  0.7874067806759156  0.7428565931740402
  0.1873862294501557  0.6265694862707910  0.3018389921614837
  0.4360718808280606  0.7916126084571561  0.3902413689961509
  0.4363440392588904  0.2922874859272974  0.2575061542916311
  0.0637018081366585  0.5355471122542542  0.8744634876893380
  0.5639046416164457  0.0364869887550657  0.7424545219511413
  0.1883762349033729  0.7906391320510094  0.8743261199987575
  0.9374702138465389  0.4557289838626836  0.4787273020794688
  0.8122311199820955  0.5406122642374005  0.3899555809501364
  0.8121382062266279  0.2070911111928821  0.5648939579667885
  0.1870385552993950  0.6171207412650048  0.7868958799569129
  0.0627545304834432  0.5409087556938676  0.3899097560506947
  0.0630729061452941  0.7046758819311638  0.6982639484901902
  0.3121407728107271  0.5429831070279204  0.2569908381224151
  0.3119613483790695  0.7045694268713653  0.2136507649121575
  0.3122301079489390  0.8700244173766130  0.1671145223382094
  0.5628550337173807  0.5369782180824204  0.7424042467766889
  0.6874896418473380  0.4559627375310762  0.3464731047932080
  0.9347718995906906  0.2928603879399303  0.8740699212532947
  0.5629880919742475  0.0416188055671029  0.2572278611729591
  0.0645675783769744  0.0325398800499445  0.8741397746876771
  0.1868432112862562  0.7919575684480871  0.3901085742068364
  0.8123889154113711  0.8704859878505868  0.5210485211067789
  0.5623423124712069  0.3708872510612422  0.5211777630849533
  0.0630394154352215  0.8705328975961933  0.5211581737092038
  0.8114577669452948  0.8687613523738250  0.7864982846409821
  0.3120109559305538  0.5357303817901535  0.7427190981864227
 
  0.00000000E+00  0.00000000E+00  0.00000000E+00
  0.00000000E+00  0.00000000E+00  0.00000000E+00
  0.00000000E+00  0.00000000E+00  0.00000000E+00
  0.00000000E+00  0.00000000E+00  0.00000000E+00
  0.00000000E+00  0.00000000E+00  0.00000000E+00
  0.00000000E+00  0.00000000E+00  0.00000000E+00
  0.00000000E+00  0.00000000E+00  0.00000000E+00
  0.00000000E+00  0.00000000E+00  0.00000000E+00
  0.00000000E+00  0.00000000E+00  0.00000000E+00
  0.00000000E+00  0.00000000E+00  0.00000000E+00
  0.00000000E+00  0.00000000E+00  0.00000000E+00
  0.00000000E+00  0.00000000E+00  0.00000000E+00
  0.00000000E+00  0.00000000E+00  0.00000000E+00
  0.00000000E+00  0.00000000E+00  0.00000000E+00
  0.00000000E+00  0.00000000E+00  0.00000000E+00
  0.00000000E+00  0.00000000E+00  0.00000000E+00
  0.00000000E+00  0.00000000E+00  0.00000000E+00
  0.00000000E+00  0.00000000E+00  0.00000000E+00
  0.00000000E+00  0.00000000E+00  0.00000000E+00
  0.00000000E+00  0.00000000E+00  0.00000000E+00
  0.00000000E+00  0.00000000E+00  0.00000000E+00
  0.00000000E+00  0.00000000E+00  0.00000000E+00
  0.00000000E+00  0.00000000E+00  0.00000000E+00
  0.00000000E+00  0.00000000E+00  0.00000000E+00
  0.00000000E+00  0.00000000E+00  0.00000000E+00
  0.00000000E+00  0.00000000E+00  0.00000000E+00
  0.00000000E+00  0.00000000E+00  0.00000000E+00
  0.00000000E+00  0.00000000E+00  0.00000000E+00
  0.00000000E+00  0.00000000E+00  0.00000000E+00
  0.00000000E+00  0.00000000E+00  0.00000000E+00
  0.00000000E+00  0.00000000E+00  0.00000000E+00
  0.00000000E+00  0.00000000E+00  0.00000000E+00
  0.00000000E+00  0.00000000E+00  0.00000000E+00
  0.00000000E+00  0.00000000E+00  0.00000000E+00
  0.00000000E+00  0.00000000E+00  0.00000000E+00
  0.00000000E+00  0.00000000E+00  0.00000000E+00
  0.00000000E+00  0.00000000E+00  0.00000000E+00
  0.00000000E+00  0.00000000E+00  0.00000000E+00
  0.00000000E+00  0.00000000E+00  0.00000000E+00
  0.00000000E+00  0.00000000E+00  0.00000000E+00
  0.00000000E+00  0.00000000E+00  0.00000000E+00
  0.00000000E+00  0.00000000E+00  0.00000000E+00
  0.00000000E+00  0.00000000E+00  0.00000000E+00
  0.00000000E+00  0.00000000E+00  0.00000000E+00
  0.00000000E+00  0.00000000E+00  0.00000000E+00
  0.00000000E+00  0.00000000E+00  0.00000000E+00
  0.00000000E+00  0.00000000E+00  0.00000000E+00
  0.00000000E+00  0.00000000E+00  0.00000000E+00
  0.00000000E+00  0.00000000E+00  0.00000000E+00
  0.00000000E+00  0.00000000E+00  0.00000000E+00
  0.00000000E+00  0.00000000E+00  0.00000000E+00
  0.00000000E+00  0.00000000E+00  0.00000000E+00
  0.00000000E+00  0.00000000E+00  0.00000000E+00
  0.00000000E+00  0.00000000E+00  0.00000000E+00
  0.00000000E+00  0.00000000E+00  0.00000000E+00
  0.00000000E+00  0.00000000E+00  0.00000000E+00
  0.00000000E+00  0.00000000E+00  0.00000000E+00
  0.00000000E+00  0.00000000E+00  0.00000000E+00
  0.00000000E+00  0.00000000E+00  0.00000000E+00
  0.00000000E+00  0.00000000E+00  0.00000000E+00
  0.00000000E+00  0.00000000E+00  0.00000000E+00
  0.00000000E+00  0.00000000E+00  0.00000000E+00
  0.00000000E+00  0.00000000E+00  0.00000000E+00
  0.00000000E+00  0.00000000E+00  0.00000000E+00
  0.00000000E+00  0.00000000E+00  0.00000000E+00
  0.00000000E+00  0.00000000E+00  0.00000000E+00
  0.00000000E+00  0.00000000E+00  0.00000000E+00
  0.00000000E+00  0.00000000E+00  0.00000000E+00
  0.00000000E+00  0.00000000E+00  0.00000000E+00
  0.00000000E+00  0.00000000E+00  0.00000000E+00
  0.00000000E+00  0.00000000E+00  0.00000000E+00
  0.00000000E+00  0.00000000E+00  0.00000000E+00
  0.00000000E+00  0.00000000E+00  0.00000000E+00
  0.00000000E+00  0.00000000E+00  0.00000000E+00
  0.00000000E+00  0.00000000E+00  0.00000000E+00
  0.00000000E+00  0.00000000E+00  0.00000000E+00
  0.00000000E+00  0.00000000E+00  0.00000000E+00
  0.00000000E+00  0.00000000E+00  0.00000000E+00
  0.00000000E+00  0.00000000E+00  0.00000000E+00
  0.00000000E+00  0.00000000E+00  0.00000000E+00
  0.00000000E+00  0.00000000E+00  0.00000000E+00
  0.00000000E+00  0.00000000E+00  0.00000000E+00
  0.00000000E+00  0.00000000E+00  0.00000000E+00
  0.00000000E+00  0.00000000E+00  0.00000000E+00
  0.00000000E+00  0.00000000E+00  0.00000000E+00
  0.00000000E+00  0.00000000E+00  0.00000000E+00
  0.00000000E+00  0.00000000E+00  0.00000000E+00
  0.00000000E+00  0.00000000E+00  0.00000000E+00
  0.00000000E+00  0.00000000E+00  0.00000000E+00
  0.00000000E+00  0.00000000E+00  0.00000000E+00
  0.00000000E+00  0.00000000E+00  0.00000000E+00
  0.00000000E+00  0.00000000E+00  0.00000000E+00
  0.00000000E+00  0.00000000E+00  0.00000000E+00
  0.00000000E+00  0.00000000E+00  0.00000000E+00
  0.00000000E+00  0.00000000E+00  0.00000000E+00
  0.00000000E+00  0.00000000E+00  0.00000000E+00
  0.00000000E+00  0.00000000E+00  0.00000000E+00
  0.00000000E+00  0.00000000E+00  0.00000000E+00
  0.00000000E+00  0.00000000E+00  0.00000000E+00
  0.00000000E+00  0.00000000E+00  0.00000000E+00
  0.00000000E+00  0.00000000E+00  0.00000000E+00
  0.00000000E+00  0.00000000E+00  0.00000000E+00
  0.00000000E+00  0.00000000E+00  0.00000000E+00
  0.00000000E+00  0.00000000E+00  0.00000000E+00
  0.00000000E+00  0.00000000E+00  0.00000000E+00
  0.00000000E+00  0.00000000E+00  0.00000000E+00
  0.00000000E+00  0.00000000E+00  0.00000000E+00
  0.00000000E+00  0.00000000E+00  0.00000000E+00
  0.00000000E+00  0.00000000E+00  0.00000000E+00
  0.00000000E+00  0.00000000E+00  0.00000000E+00
  0.00000000E+00  0.00000000E+00  0.00000000E+00
  0.00000000E+00  0.00000000E+00  0.00000000E+00
  0.00000000E+00  0.00000000E+00  0.00000000E+00
  0.00000000E+00  0.00000000E+00  0.00000000E+00
  0.00000000E+00  0.00000000E+00  0.00000000E+00
  0.00000000E+00  0.00000000E+00  0.00000000E+00
  0.00000000E+00  0.00000000E+00  0.00000000E+00
  0.00000000E+00  0.00000000E+00  0.00000000E+00
  0.00000000E+00  0.00000000E+00  0.00000000E+00
  0.00000000E+00  0.00000000E+00  0.00000000E+00
  0.00000000E+00  0.00000000E+00  0.00000000E+00
  0.00000000E+00  0.00000000E+00  0.00000000E+00
  0.00000000E+00  0.00000000E+00  0.00000000E+00
  0.00000000E+00  0.00000000E+00  0.00000000E+00
  0.00000000E+00  0.00000000E+00  0.00000000E+00
  0.00000000E+00  0.00000000E+00  0.00000000E+00
  0.00000000E+00  0.00000000E+00  0.00000000E+00
  0.00000000E+00  0.00000000E+00  0.00000000E+00
  0.00000000E+00  0.00000000E+00  0.00000000E+00
  0.00000000E+00  0.00000000E+00  0.00000000E+00
  0.00000000E+00  0.00000000E+00  0.00000000E+00
  0.00000000E+00  0.00000000E+00  0.00000000E+00
  0.00000000E+00  0.00000000E+00  0.00000000E+00
  0.00000000E+00  0.00000000E+00  0.00000000E+00
  0.00000000E+00  0.00000000E+00  0.00000000E+00
  0.00000000E+00  0.00000000E+00  0.00000000E+00
  0.00000000E+00  0.00000000E+00  0.00000000E+00
  0.00000000E+00  0.00000000E+00  0.00000000E+00
  0.00000000E+00  0.00000000E+00  0.00000000E+00
  0.00000000E+00  0.00000000E+00  0.00000000E+00
  0.00000000E+00  0.00000000E+00  0.00000000E+00
  0.00000000E+00  0.00000000E+00  0.00000000E+00
  0.00000000E+00  0.00000000E+00  0.00000000E+00
  0.00000000E+00  0.00000000E+00  0.00000000E+00
  0.00000000E+00  0.00000000E+00  0.00000000E+00
  0.00000000E+00  0.00000000E+00  0.00000000E+00
  0.00000000E+00  0.00000000E+00  0.00000000E+00
  0.00000000E+00  0.00000000E+00  0.00000000E+00
  0.00000000E+00  0.00000000E+00  0.00000000E+00
  0.00000000E+00  0.00000000E+00  0.00000000E+00
  0.00000000E+00  0.00000000E+00  0.00000000E+00
  0.00000000E+00  0.00000000E+00  0.00000000E+00
  0.00000000E+00  0.00000000E+00  0.00000000E+00
  0.00000000E+00  0.00000000E+00  0.00000000E+00
  0.00000000E+00  0.00000000E+00  0.00000000E+00
  0.00000000E+00  0.00000000E+00  0.00000000E+00
  0.00000000E+00  0.00000000E+00  0.00000000E+00
  0.00000000E+00  0.00000000E+00  0.00000000E+00
  0.00000000E+00  0.00000000E+00  0.00000000E+00
  0.00000000E+00  0.00000000E+00  0.00000000E+00
  0.00000000E+00  0.00000000E+00  0.00000000E+00
  0.00000000E+00  0.00000000E+00  0.00000000E+00
  0.00000000E+00  0.00000000E+00  0.00000000E+00
  0.00000000E+00  0.00000000E+00  0.00000000E+00
  0.00000000E+00  0.00000000E+00  0.00000000E+00
  0.00000000E+00  0.00000000E+00  0.00000000E+00
  0.00000000E+00  0.00000000E+00  0.00000000E+00
  0.00000000E+00  0.00000000E+00  0.00000000E+00
  0.00000000E+00  0.00000000E+00  0.00000000E+00
  0.00000000E+00  0.00000000E+00  0.00000000E+00
  0.00000000E+00  0.00000000E+00  0.00000000E+00
  0.00000000E+00  0.00000000E+00  0.00000000E+00
  0.00000000E+00  0.00000000E+00  0.00000000E+00
  0.00000000E+00  0.00000000E+00  0.00000000E+00
  0.00000000E+00  0.00000000E+00  0.00000000E+00
  0.00000000E+00  0.00000000E+00  0.00000000E+00
  0.00000000E+00  0.00000000E+00  0.00000000E+00
  0.00000000E+00  0.00000000E+00  0.00000000E+00
  0.00000000E+00  0.00000000E+00  0.00000000E+00
  0.00000000E+00  0.00000000E+00  0.00000000E+00
  0.00000000E+00  0.00000000E+00  0.00000000E+00
  0.00000000E+00  0.00000000E+00  0.00000000E+00
  0.00000000E+00  0.00000000E+00  0.00000000E+00
  0.00000000E+00  0.00000000E+00  0.00000000E+00
  0.00000000E+00  0.00000000E+00  0.00000000E+00
  0.00000000E+00  0.00000000E+00  0.00000000E+00
  0.00000000E+00  0.00000000E+00  0.00000000E+00
  0.00000000E+00  0.00000000E+00  0.00000000E+00
  0.00000000E+00  0.00000000E+00  0.00000000E+00
  0.00000000E+00  0.00000000E+00  0.00000000E+00
  0.00000000E+00  0.00000000E+00  0.00000000E+00
  0.00000000E+00  0.00000000E+00  0.00000000E+00
  0.00000000E+00  0.00000000E+00  0.00000000E+00
  0.00000000E+00  0.00000000E+00  0.00000000E+00
  0.00000000E+00  0.00000000E+00  0.00000000E+00
  0.00000000E+00  0.00000000E+00  0.00000000E+00
  0.00000000E+00  0.00000000E+00  0.00000000E+00
  0.00000000E+00  0.00000000E+00  0.00000000E+00
  0.00000000E+00  0.00000000E+00  0.00000000E+00
  0.00000000E+00  0.00000000E+00  0.00000000E+00
  0.00000000E+00  0.00000000E+00  0.00000000E+00
  0.00000000E+00  0.00000000E+00  0.00000000E+00
  0.00000000E+00  0.00000000E+00  0.00000000E+00
  0.00000000E+00  0.00000000E+00  0.00000000E+00
  0.00000000E+00  0.00000000E+00  0.00000000E+00
  0.00000000E+00  0.00000000E+00  0.00000000E+00
  0.00000000E+00  0.00000000E+00  0.00000000E+00
  0.00000000E+00  0.00000000E+00  0.00000000E+00
  0.00000000E+00  0.00000000E+00  0.00000000E+00
  0.00000000E+00  0.00000000E+00  0.00000000E+00
  0.00000000E+00  0.00000000E+00  0.00000000E+00
  0.00000000E+00  0.00000000E+00  0.00000000E+00
  0.00000000E+00  0.00000000E+00  0.00000000E+00
  0.00000000E+00  0.00000000E+00  0.00000000E+00
  0.00000000E+00  0.00000000E+00  0.00000000E+00
  0.00000000E+00  0.00000000E+00  0.00000000E+00
  0.00000000E+00  0.00000000E+00  0.00000000E+00
  0.00000000E+00  0.00000000E+00  0.00000000E+00
  0.00000000E+00  0.00000000E+00  0.00000000E+00
  0.00000000E+00  0.00000000E+00  0.00000000E+00
  0.00000000E+00  0.00000000E+00  0.00000000E+00
  0.00000000E+00  0.00000000E+00  0.00000000E+00
  0.00000000E+00  0.00000000E+00  0.00000000E+00
  0.00000000E+00  0.00000000E+00  0.00000000E+00
  0.00000000E+00  0.00000000E+00  0.00000000E+00
  0.00000000E+00  0.00000000E+00  0.00000000E+00
  0.00000000E+00  0.00000000E+00  0.00000000E+00
  0.00000000E+00  0.00000000E+00  0.00000000E+00
  0.00000000E+00  0.00000000E+00  0.00000000E+00
  0.00000000E+00  0.00000000E+00  0.00000000E+00
  0.00000000E+00  0.00000000E+00  0.00000000E+00
  0.00000000E+00  0.00000000E+00  0.00000000E+00
  0.00000000E+00  0.00000000E+00  0.00000000E+00
  0.00000000E+00  0.00000000E+00  0.00000000E+00
  0.00000000E+00  0.00000000E+00  0.00000000E+00
  0.00000000E+00  0.00000000E+00  0.00000000E+00
  0.00000000E+00  0.00000000E+00  0.00000000E+00
  0.00000000E+00  0.00000000E+00  0.00000000E+00
  0.00000000E+00  0.00000000E+00  0.00000000E+00
  0.00000000E+00  0.00000000E+00  0.00000000E+00
  0.00000000E+00  0.00000000E+00  0.00000000E+00
  0.00000000E+00  0.00000000E+00  0.00000000E+00
  0.00000000E+00  0.00000000E+00  0.00000000E+00
  0.00000000E+00  0.00000000E+00  0.00000000E+00
  0.00000000E+00  0.00000000E+00  0.00000000E+00
  0.00000000E+00  0.00000000E+00  0.00000000E+00
  0.00000000E+00  0.00000000E+00  0.00000000E+00