CuInSe2gb                               
   1.00000000000000     
     9.7266780392896699    0.0000000000000000    0.0000000000000000
     0.0000000000000000    8.4235502764570693    0.0000000000000000
     0.0000000000000000    0.0000000000000000   45.0000000000000000
   Fe   Mn
   281     7
Direct
  0.0626770409320452  0.0308506593521380  0.1244633941707348
  0.0633266367623229  0.8719979046879045  0.5212454575747381
  0.1956003808970356  0.1245551967695697  0.7884878283599684
  0.4336309697659438  0.2876179815463939  0.3890419838012975
  0.3085785142084257  0.7128016809151428  0.8331728132729124
  0.8086332667704179  0.2128773037623716  0.8334882019602498
  0.1834240633068309  0.7874908843820737  0.3890756007326266
  0.5639249570201911  0.2076339624404041  0.5654220217984379
  0.0605852361418204  0.0421543854344710  0.7441642985295093
  0.8135202776486117  0.8722383190242353  0.5212705928357557
  0.1858873540143666  0.2916850779574931  0.7441595562290924
  0.9412892082574745  0.4520771183967305  0.3448842145156641
  0.9337068745199476  0.2873766081217068  0.3889439755818744
  0.4384840922098706  0.6222088347428285  0.5213196462349516
  0.1876567171705167  0.7918791482510529  0.6108682072248679
  0.5586666168880741  0.0375403611305515  0.3889016988173591
  0.9334172719151932  0.9639959573994008  0.8332639528143290
  0.3141896185180223  0.5420205588503706  0.8756311668850966
  0.6857120403487434  0.2916580785593258  0.7441729840512280
  0.1923269288560606  0.6116683543352534  0.1667781532936085
  0.8129533441990580  0.2057335871892294  0.4785566513881054
  0.8126132630773002  0.5418616750307313  0.6108608261444933
  0.3131341003964070  0.8707250156093072  0.4344553481099851
  0.8153242937933487  0.0351691266909764  0.2559833536896026
  0.6914265704427951  0.9518821860013691  0.3449480468103731
  0.9417509119769976  0.1127925073409587  0.1668478044247878
  0.9384822296606004  0.1221651583167595  0.5213204318040160
  0.5655664711414325  0.5352388213093620  0.2560084692408874
  0.6919563730755243  0.7959918147410662  0.8757628519068760
  0.5677542053700718  0.3633802984434091  0.1667974411713752
  0.4360531153888987  0.7922585330659656  0.7442480449298716
  0.8139360411614442  0.7075408159958999  0.5654257136108796
  0.5700442614348215  0.8740294820315502  0.7883294189170785
  0.6885504364785995  0.1223373437829087  0.5213487532956408
  0.1905279173641450  0.2854385402998162  0.2559464548449388
  0.9334100414775152  0.4631746500063716  0.8330999887084310
  0.0650153002591611  0.2082489096658087  0.6996895247824363
  0.8085922412211322  0.0374312223928722  0.3890770798417514
  0.3086479430410385  0.2130255867211916  0.8331962189722046
  0.4338277049677634  0.6258193572056063  0.6549357013479619
  0.3127166897438132  0.5418987974756690  0.6108659785521388
  0.9389109663385217  0.4576535461824453  0.5654277338042893
  0.6859712922834501  0.7917270450996073  0.7441526753381843
  0.3089006973402896  0.8757632946923853  0.6549169020687490
  0.6836103788911031  0.7878125525969929  0.3890580192478031
  0.9357193205791674  0.7919572641925813  0.7441529768360304
  0.0657728516948368  0.2026561332197116  0.3450547373283331
  0.4389035362272527  0.7838566880070350  0.1245214475778922
  0.4450957818037326  0.1247866030676347  0.7885241958161967
  0.0552147537127069  0.2032282053230133  0.2119399807711132
  0.0679662107461949  0.3619936674793975  0.1669043827202727
  0.9406060317798908  0.7853062623443059  0.2559976257142703
  0.5653615234599215  0.2084113851823989  0.6996930919546577
  0.6905413810019259  0.9583491085957087  0.6997078795775082
  0.6836751217606810  0.2876383323627832  0.3890493636709305
  0.4388671011299048  0.9577522338673773  0.5654537004555367
  0.8202251067016152  0.3751883538094321  0.7882798229200026
  0.6905616675401660  0.2852980142353623  0.2560132219469652
  0.1887866095621330  0.4577337232458982  0.5654278153499177
  0.0685789409903208  0.8640757722921406  0.1668791972525988
  0.1878182856757996  0.2918013864743052  0.6107980002494094
  0.5660121595157143  0.7016757734164134  0.3449091603788959
  0.3150466782742816  0.2082921416363296  0.6996755646590674
  0.5640348356261782  0.5418751415823305  0.8757340968417566
  0.0636995005372408  0.7077440721524395  0.5654621807468411
  0.6952046645136751  0.6242802120074853  0.7883414796335917
  0.3086160534163606  0.5376267740267021  0.3890829610973118
  0.1884666457611712  0.6222534075037012  0.5213221631218082
  0.5626232157246511  0.8704326130105684  0.4344769481197363
  0.4388342770462503  0.4578143430676929  0.5654572564570669
  0.4357433885724294  0.2920072649726072  0.7441487554139510
  0.8040380299171475  0.8721531451780644  0.3001737199997644
  0.8167195549012419  0.7023322918134240  0.3450425892213536
  0.4335702062334559  0.4629380095423442  0.8331258868417957
  0.6876527496430881  0.9559223641810602  0.4786260447621207
  0.6900876485758931  0.4584322653696963  0.6996806295095434
  0.5632362322574502  0.8720836488021548  0.5213345901311854
  0.5589360554016793  0.3756324174414443  0.6549272532331096
  0.8088284731351796  0.8756702378835668  0.6549171485413080
  0.8125395818442306  0.3704762269893552  0.4344811739294657
  0.8155912985818237  0.5354004298672114  0.2559658593837359
  0.6836256640036955  0.4636555987903199  0.8333112357102235
  0.1875044406714750  0.7852057879723884  0.1243574163630763
  0.0644815664797093  0.0424438600861806  0.8755297400803553
  0.3088703026153777  0.3755474256836092  0.6549078517837035
  0.3162614458920596  0.2021678890521581  0.3449218136548383
  0.8108219098732855  0.5415240238527026  0.7442202071420398
  0.6839139776872752  0.9638153480506035  0.8333284660836040
  0.5588450303590257  0.8756795231001177  0.6549461782449985
  0.3138368046281692  0.7073757895870619  0.5655581383650871
  0.3131239946529779  0.5312369208030481  0.1244553595190655
  0.6804248367930725  0.9531054607913405  0.2118828889870223
  0.3138197310431619  0.2077575023971578  0.5655495162264754
  0.3106779915271179  0.5420798569337579  0.7441479774474676
  0.6886866488315356  0.9578703347745794  0.5654404474161042
  0.4376244582651769  0.7919490890763001  0.6108736715182315
  0.6926054635337320  0.6130498985453656  0.1670132465838779
  0.3038996448825499  0.8722708814583421  0.3002603988783406
  0.3127321111920560  0.7056172925577282  0.4786328971741109
  0.9378227359610269  0.2918793344656334  0.6108000475490830
  0.4290975831314209  0.6225013148860192  0.3002813062335913
  0.8172055720222172  0.8624682829971315  0.1669751944264308
  0.5553710381061011  0.2021533277974605  0.2115058248327495
  0.9420437102242788  0.6128377602206293  0.1669110963111166
  0.9389870518408511  0.7945019515265426  0.8755968852425043
  0.5702882602951471  0.3745622617855185  0.7884776172731091
  0.0635033775820929  0.3723930747583430  0.5213619290123898
  0.5634469252579907  0.3722284580148206  0.5213113628571430
  0.6795968702535388  0.1218703633333265  0.3001953844996305
  0.4333235411806784  0.9627729872562218  0.8331518046831399
  0.1880601686048801  0.2835230171793672  0.1245884159924690
  0.8202609117950408  0.8744602678093971  0.7883502631576328
  0.3129212791227609  0.3707194364647179  0.4344403778257785
  0.9378079590624017  0.7918420942664404  0.6108077049501610
  0.4378272513952198  0.2917784606283949  0.6107783165281069
  0.1917860443013728  0.4520167515830421  0.3449857522576481
  0.4380350655032351  0.2849578945714410  0.1243020728937277
  0.6899978083261825  0.7857274864756341  0.2559767447346152
  0.1903106654761310  0.9582945930739832  0.6996727695816511
  0.1909145792839646  0.2969227884340313  0.8758899725290978
  0.1839841827060585  0.1257747064144709  0.6549191191686827
  0.9338641995162844  0.1257439598459717  0.6549415128920525
  0.3059303093893577  0.2023660008966637  0.2119005168682164
  0.0584113732347047  0.0373614848660197  0.3890654590161934
  0.4403625246203232  0.9583115989499464  0.6996932216277566
  0.0626233280755901  0.5418107993575256  0.6108561770136224
  0.9405538053466662  0.2853546104253350  0.2559620061356168
  0.5627157273412876  0.5418939820822455  0.6108571575993421
  0.9389026299244572  0.9578994121934206  0.5655456910914223
  0.6794157432192348  0.6218630587516416  0.3001089183755934
  0.9374807338159058  0.6193264437431647  0.4346388967453322
  0.9453686973652893  0.6243483609573596  0.7883702041450318
  0.5651411228257749  0.7081951313175381  0.6996677623453903
  0.0590120543915523  0.7130570717614162  0.8330666825803997
  0.9288425496731670  0.1221870262770002  0.3002598710280838
  0.9403845777704372  0.4583645243629665  0.6996777144588896
  0.4406257828844840  0.7855362563157973  0.2559627563958104
  0.3203097864903420  0.3741649091185989  0.7884813797968397
  0.4310303548867733  0.4530297284240266  0.2118851848161908
  0.1884160905014589  0.1223279460792656  0.5213059024408520
  0.8150891511083489  0.7081570865192578  0.6996508279976714
  0.0626729652084516  0.0417966106667384  0.6108506075881661
  0.5587915755542601  0.2129874121758289  0.8334529808649052
  0.3135487085125833  0.8721488379554757  0.5212870716427329
  0.6890486228086062  0.2836736541681178  0.1244517898959302
  0.1811341102819411  0.9522879442900956  0.2116271520202704
  0.6876327560936356  0.2919963618125584  0.6108699635347544
  0.3127072961830676  0.0418822152034652  0.6109103490662817
  0.9449810444784684  0.1246535768850304  0.7885353864245511
  0.4411044447340830  0.7960267178709513  0.8757371753159867
  0.8107264302337085  0.0420307265838489  0.7441581942146607
  0.4382651755632513  0.1219795017680491  0.5213522730023251
  0.1838528813337228  0.6254907226551146  0.6549633559758210
  0.3151546683401079  0.7082424472423432  0.6996224863403928
  0.9370777418238422  0.2832717859269562  0.1245947480691144
  0.4379276210531861  0.4560049179105967  0.4786169156142028
  0.0628672877227519  0.7057021438137917  0.4786184536839828
  0.9384062588920772  0.1197024272232827  0.4344006727744624
  0.4286754319106398  0.1220328337714363  0.3003450879403048
  0.1880777414966773  0.1200026488595233  0.4345039379845617
  0.5637821954651432  0.0423176285921989  0.8756130193984425
  0.1885266598656302  0.9575790299827797  0.5653252255432897
  0.6881145435006196  0.7832661106684725  0.1244555766075941
  0.5628772228896550  0.5312821534791327  0.1242387488393837
  0.3086960576495832  0.0372907261826840  0.3890262802263005
  0.6926074051420040  0.1120136213521924  0.1669209810512411
  0.8058546787296131  0.2027153063010506  0.2115601395005761
  0.0654647520077896  0.5353224200777948  0.2560050329628887
  0.5628576649092293  0.7059033575803616  0.4786326800953483
  0.0638234885063135  0.2076856286539217  0.5654846943852108
  0.5537775448212188  0.3721824657949097  0.3003384333885646
  0.4418149487554118  0.9521843287387695  0.3449284051909359
  0.1837377841886539  0.9628323044969826  0.8331164884022598
  0.4429930627642129  0.6111369598324788  0.1667527488563449
  0.9311370909654371  0.4526025718268026  0.2117059736479266
  0.0612927918994573  0.5319542155027978  0.1245916884479207
  0.8134318502220567  0.3723334656935193  0.5213475418763571
  0.9286867873191131  0.6222027506407790  0.3003206815499821
  0.3150852487739897  0.0357812507162483  0.2559984128630215
  0.6877587772925446  0.7918578221316579  0.6108776903347889
  0.1836575151754418  0.4630014328880400  0.8331226865635456
  0.4418615721021487  0.1125809605191649  0.1668375102867883
  0.3135396190690845  0.3723445804098156  0.5213521411209366
  0.4452469555708648  0.6246858142754343  0.7885133517186670
  0.0655765491819715  0.0354242284678431  0.2560298437253831
  0.5637852302316377  0.7077185523119247  0.5654248332052551
  0.9359911835148124  0.2916031980089603  0.7441644737023276
  0.6955343766823311  0.1245288321048173  0.7885148370202134
  0.1803106014224007  0.4531621642882760  0.2118817252844837
  0.9339288858100924  0.7873719379833291  0.3889656969676332
  0.6901436394088757  0.2959358976336672  0.8758935272997795
  0.3167034345295602  0.8625528944098690  0.1668315878789732
  0.4402695747918326  0.4583587012842722  0.6996810534883263
  0.8088501088631223  0.3755068502435418  0.6549313277036333
  0.6883122081174725  0.6224047375568024  0.5214058506290435
  0.0589401789475592  0.8757760881452137  0.6549194379074296
  0.0708911808706301  0.8735741091854036  0.7882778243349491
  0.0588384262762954  0.3756592664484359  0.6549307461451438
  0.6878007265888322  0.4557923798847918  0.4786403042775684
  0.1905122124066339  0.7853053951379241  0.2560034471602660
  0.4380813443130673  0.1201529658985789  0.4344497413677308
  0.8110624372451082  0.0318522719690648  0.1244098894439518
  0.9384570453034052  0.6222690667668223  0.5213954590513129
  0.0625051547295890  0.8705711841939562  0.4344498990547203
  0.8112733463955665  0.5317128309096862  0.1243650520366828
  0.4414079237699664  0.4518371930291371  0.3449915213383163
  0.8164738945190541  0.2019279650691373  0.3449621610196178
  0.3161044025710487  0.7016268916505697  0.3449195398544853
  0.6840226149252229  0.1261252347819751  0.6549903586321985
  0.5536697730075847  0.8720568408082545  0.3003196194585116
  0.0607936574267905  0.5418156157500630  0.7441411664279012
  0.9365943382516820  0.7825509482512726  0.1245544008626944
  0.8056722328918490  0.7027204149714971  0.2116336073356160
  0.0534982684645451  0.8730208455643562  0.3000915993245505
  0.1793610940509833  0.1227698488540791  0.3002843705948284
  0.0663698301793457  0.7020035142576551  0.3449447781238819
  0.8130190577577511  0.0415638553313244  0.6106761540095850
  0.0631943060784419  0.3708029449872507  0.4344327899150789
  0.5662509611102847  0.2018470669344125  0.3449699404021923
  0.8034626577500118  0.3719978668042175  0.3003285412352619
  0.4379645839461100  0.9559880932199225  0.4786000092824642
  0.5584591481222154  0.5374896080794240  0.3890580828429432
  0.0627910224622627  0.2058053607269564  0.4786466675988208
  0.3203112231691687  0.8742813650828276  0.7884279937949316
  0.9404203818662515  0.9584302562009945  0.6996968481404885
  0.0539987459377964  0.3724159357816146  0.3002328475596662
  0.6839684246455211  0.6259583872361361  0.6549470353272641
  0.6887331721946492  0.4577591861782515  0.5654444834724436
  0.4301880027707432  0.9531170934615317  0.2118490391056499
  0.3127931180180820  0.2058357281206957  0.4785940369281108
  0.4338601646469824  0.1257435731381432  0.6549155333034006
  0.6881985973723860  0.6204083833098119  0.4343872495615442
  0.8151503935510603  0.2081879866498169  0.6996458330329329
  0.8128412708401922  0.7059266378789246  0.4786176022405370
  0.5630052832271869  0.3703933805258225  0.4344606179052160
  0.9378031490241741  0.9559077756350933  0.4786747862283314
  0.5628123343118253  0.2058017120085779  0.4786269068669485
  0.1880389624400447  0.6203062911024138  0.4343833403762818
  0.3107018178661251  0.0421553841609710  0.7441717746141315
  0.9338861019643545  0.6258317387236121  0.6549234906213180
  0.5584511245624824  0.7132195096572485  0.8330681019412098
  0.3040289888095342  0.3725131238278568  0.3002560339385833
  0.5559869671927898  0.7024008017440653  0.2115611673524528
  0.1878936035101670  0.4559006554063175  0.4786333369778758
  0.3142656418500709  0.0413945401979059  0.8756876967750977
  0.1902896646460490  0.4584415106542591  0.6996853457813376
  0.8145942532391746  0.5420220141243876  0.8756298406904336
  0.1833604735133077  0.2885761854511658  0.3890711572747859
  0.4383334019227733  0.6202936136917793  0.4342667425068069
  0.0555840994420667  0.7022061435613327  0.2115814618620929
  0.5627967827765495  0.0310407585230308  0.1245066217931027
  0.8178685054620294  0.3627294813134687  0.1670964253462791
  0.8087208953126498  0.7137988563199142  0.8333509470003625
  0.0702317506739696  0.3746245989406491  0.7883761873437506
  0.4408874827394664  0.2971573562163083  0.8759673310996574
  0.3110751488602120  0.0312926612763083  0.1241845759858125
  0.6876239889483132  0.1202105877130528  0.4344623874244216
  0.1912567046013032  0.9518013137899622  0.3450003550151905
  0.0583222831549263  0.2127967574253307  0.8332703971748565
  0.5629113026426645  0.0417368505914659  0.6107384667007588
  0.6808198590916972  0.4523209539802299  0.2116076662422338
  0.1858682980301923  0.7918433801155614  0.7441631135745901
  0.1788283476013399  0.6222910554389948  0.3002761768788816
  0.4337462521843926  0.7875946678119835  0.3890763635100984
  0.4405167930697536  0.2854948807614323  0.2559809788536375
  0.0649051331280564  0.5418337293817835  0.8756391534545519
  0.5604727992954305  0.0422995084957859  0.7441622573716062
  0.1905445462413394  0.7957855711805173  0.8757473924907506
  0.9376776094670251  0.4558130945088873  0.4786171192787264
  0.8086711485867927  0.5377359798754847  0.3890720241458190
  0.8138985330732669  0.2076575404391884  0.5654059889285994
  0.1951774120375740  0.6247732419142527  0.7885466200077769
  0.9309009251310608  0.9530641903027400  0.2118329016921551
  0.0652574984812438  0.7083308255326582  0.6996810708719724
  0.3155760176244511  0.5353573973637820  0.2559694809199765
  0.3056445166965174  0.7024306869419461  0.2117030362047102
  0.5680145156808885  0.8627925509626181  0.1668209652188271
  0.5608445807792904  0.5419016373941669  0.7442195787193975
  0.6911276352356229  0.4519914102342285  0.3449085775209042
  0.9422866127278742  0.2961011994835649  0.8757704331873735
  0.5658063789293042  0.0359570932803025  0.2559161691604598
  0.1932357602034769  0.1109090456175303  0.1659961406599561
  0.3198026381610239  0.3633358739501192  0.1661230048254801
  0.8146879699802672  0.0413181195510954  0.8753973939157023
  0.8130129715560415  0.8712534715508654  0.4344534057690396
  0.0579312299375291  0.5376924805994008  0.3889965329584775
  0.9425799062767911  0.9524811614646445  0.3450302804840081
  0.1878938330906929  0.9560204134277502  0.4786022324428149
 
  0.00000000E+00  0.00000000E+00  0.00000000E+00
  0.00000000E+00  0.00000000E+00  0.00000000E+00
  0.00000000E+00  0.00000000E+00  0.00000000E+00
  0.00000000E+00  0.00000000E+00  0.00000000E+00
  0.00000000E+00  0.00000000E+00  0.00000000E+00
  0.00000000E+00  0.00000000E+00  0.00000000E+00
  0.00000000E+00  0.00000000E+00  0.00000000E+00
  0.00000000E+00  0.00000000E+00  0.00000000E+00
  0.00000000E+00  0.00000000E+00  0.00000000E+00
  0.00000000E+00  0.00000000E+00  0.00000000E+00
  0.00000000E+00  0.00000000E+00  0.00000000E+00
  0.00000000E+00  0.00000000E+00  0.00000000E+00
  0.00000000E+00  0.00000000E+00  0.00000000E+00
  0.00000000E+00  0.00000000E+00  0.00000000E+00
  0.00000000E+00  0.00000000E+00  0.00000000E+00
  0.00000000E+00  0.00000000E+00  0.00000000E+00
  0.00000000E+00  0.00000000E+00  0.00000000E+00
  0.00000000E+00  0.00000000E+00  0.00000000E+00
  0.00000000E+00  0.00000000E+00  0.00000000E+00
  0.00000000E+00  0.00000000E+00  0.00000000E+00
  0.00000000E+00  0.00000000E+00  0.00000000E+00
  0.00000000E+00  0.00000000E+00  0.00000000E+00
  0.00000000E+00  0.00000000E+00  0.00000000E+00
  0.00000000E+00  0.00000000E+00  0.00000000E+00
  0.00000000E+00  0.00000000E+00  0.00000000E+00
  0.00000000E+00  0.00000000E+00  0.00000000E+00
  0.00000000E+00  0.00000000E+00  0.00000000E+00
  0.00000000E+00  0.00000000E+00  0.00000000E+00
  0.00000000E+00  0.00000000E+00  0.00000000E+00
  0.00000000E+00  0.00000000E+00  0.00000000E+00
  0.00000000E+00  0.00000000E+00  0.00000000E+00
  0.00000000E+00  0.00000000E+00  0.00000000E+00
  0.00000000E+00  0.00000000E+00  0.00000000E+00
  0.00000000E+00  0.00000000E+00  0.00000000E+00
  0.00000000E+00  0.00000000E+00  0.00000000E+00
  0.00000000E+00  0.00000000E+00  0.00000000E+00
  0.00000000E+00  0.00000000E+00  0.00000000E+00
  0.00000000E+00  0.00000000E+00  0.00000000E+00
  0.00000000E+00  0.00000000E+00  0.00000000E+00
  0.00000000E+00  0.00000000E+00  0.00000000E+00
  0.00000000E+00  0.00000000E+00  0.00000000E+00
  0.00000000E+00  0.00000000E+00  0.00000000E+00
  0.00000000E+00  0.00000000E+00  0.00000000E+00
  0.00000000E+00  0.00000000E+00  0.00000000E+00
  0.00000000E+00  0.00000000E+00  0.00000000E+00
  0.00000000E+00  0.00000000E+00  0.00000000E+00
  0.00000000E+00  0.00000000E+00  0.00000000E+00
  0.00000000E+00  0.00000000E+00  0.00000000E+00
  0.00000000E+00  0.00000000E+00  0.00000000E+00
  0.00000000E+00  0.00000000E+00  0.00000000E+00
  0.00000000E+00  0.00000000E+00  0.00000000E+00
  0.00000000E+00  0.00000000E+00  0.00000000E+00
  0.00000000E+00  0.00000000E+00  0.00000000E+00
  0.00000000E+00  0.00000000E+00  0.00000000E+00
  0.00000000E+00  0.00000000E+00  0.00000000E+00
  0.00000000E+00  0.00000000E+00  0.00000000E+00
  0.00000000E+00  0.00000000E+00  0.00000000E+00
  0.00000000E+00  0.00000000E+00  0.00000000E+00
  0.00000000E+00  0.00000000E+00  0.00000000E+00
  0.00000000E+00  0.00000000E+00  0.00000000E+00
  0.00000000E+00  0.00000000E+00  0.00000000E+00
  0.00000000E+00  0.00000000E+00  0.00000000E+00
  0.00000000E+00  0.00000000E+00  0.00000000E+00
  0.00000000E+00  0.00000000E+00  0.00000000E+00
  0.00000000E+00  0.00000000E+00  0.00000000E+00
  0.00000000E+00  0.00000000E+00  0.00000000E+00
  0.00000000E+00  0.00000000E+00  0.00000000E+00
  0.00000000E+00  0.00000000E+00  0.00000000E+00
  0.00000000E+00  0.00000000E+00  0.00000000E+00
  0.00000000E+00  0.00000000E+00  0.00000000E+00
  0.00000000E+00  0.00000000E+00  0.00000000E+00
  0.00000000E+00  0.00000000E+00  0.00000000E+00
  0.00000000E+00  0.00000000E+00  0.00000000E+00
  0.00000000E+00  0.00000000E+00  0.00000000E+00
  0.00000000E+00  0.00000000E+00  0.00000000E+00
  0.00000000E+00  0.00000000E+00  0.00000000E+00
  0.00000000E+00  0.00000000E+00  0.00000000E+00
  0.00000000E+00  0.00000000E+00  0.00000000E+00
  0.00000000E+00  0.00000000E+00  0.00000000E+00
  0.00000000E+00  0.00000000E+00  0.00000000E+00
  0.00000000E+00  0.00000000E+00  0.00000000E+00
  0.00000000E+00  0.00000000E+00  0.00000000E+00
  0.00000000E+00  0.00000000E+00  0.00000000E+00
  0.00000000E+00  0.00000000E+00  0.00000000E+00
  0.00000000E+00  0.00000000E+00  0.00000000E+00
  0.00000000E+00  0.00000000E+00  0.00000000E+00
  0.00000000E+00  0.00000000E+00  0.00000000E+00
  0.00000000E+00  0.00000000E+00  0.00000000E+00
  0.00000000E+00  0.00000000E+00  0.00000000E+00
  0.00000000E+00  0.00000000E+00  0.00000000E+00
  0.00000000E+00  0.00000000E+00  0.00000000E+00
  0.00000000E+00  0.00000000E+00  0.00000000E+00
  0.00000000E+00  0.00000000E+00  0.00000000E+00
  0.00000000E+00  0.00000000E+00  0.00000000E+00
  0.00000000E+00  0.00000000E+00  0.00000000E+00
  0.00000000E+00  0.00000000E+00  0.00000000E+00
  0.00000000E+00  0.00000000E+00  0.00000000E+00
  0.00000000E+00  0.00000000E+00  0.00000000E+00
  0.00000000E+00  0.00000000E+00  0.00000000E+00
  0.00000000E+00  0.00000000E+00  0.00000000E+00
  0.00000000E+00  0.00000000E+00  0.00000000E+00
  0.00000000E+00  0.00000000E+00  0.00000000E+00
  0.00000000E+00  0.00000000E+00  0.00000000E+00
  0.00000000E+00  0.00000000E+00  0.00000000E+00
  0.00000000E+00  0.00000000E+00  0.00000000E+00
  0.00000000E+00  0.00000000E+00  0.00000000E+00
  0.00000000E+00  0.00000000E+00  0.00000000E+00
  0.00000000E+00  0.00000000E+00  0.00000000E+00
  0.00000000E+00  0.00000000E+00  0.00000000E+00
  0.00000000E+00  0.00000000E+00  0.00000000E+00
  0.00000000E+00  0.00000000E+00  0.00000000E+00
  0.00000000E+00  0.00000000E+00  0.00000000E+00
  0.00000000E+00  0.00000000E+00  0.00000000E+00
  0.00000000E+00  0.00000000E+00  0.00000000E+00
  0.00000000E+00  0.00000000E+00  0.00000000E+00
  0.00000000E+00  0.00000000E+00  0.00000000E+00
  0.00000000E+00  0.00000000E+00  0.00000000E+00
  0.00000000E+00  0.00000000E+00  0.00000000E+00
  0.00000000E+00  0.00000000E+00  0.00000000E+00
  0.00000000E+00  0.00000000E+00  0.00000000E+00
  0.00000000E+00  0.00000000E+00  0.00000000E+00
  0.00000000E+00  0.00000000E+00  0.00000000E+00
  0.00000000E+00  0.00000000E+00  0.00000000E+00
  0.00000000E+00  0.00000000E+00  0.00000000E+00
  0.00000000E+00  0.00000000E+00  0.00000000E+00
  0.00000000E+00  0.00000000E+00  0.00000000E+00
  0.00000000E+00  0.00000000E+00  0.00000000E+00
  0.00000000E+00  0.00000000E+00  0.00000000E+00
  0.00000000E+00  0.00000000E+00  0.00000000E+00
  0.00000000E+00  0.00000000E+00  0.00000000E+00
  0.00000000E+00  0.00000000E+00  0.00000000E+00
  0.00000000E+00  0.00000000E+00  0.00000000E+00
  0.00000000E+00  0.00000000E+00  0.00000000E+00
  0.00000000E+00  0.00000000E+00  0.00000000E+00
  0.00000000E+00  0.00000000E+00  0.00000000E+00
  0.00000000E+00  0.00000000E+00  0.00000000E+00
  0.00000000E+00  0.00000000E+00  0.00000000E+00
  0.00000000E+00  0.00000000E+00  0.00000000E+00
  0.00000000E+00  0.00000000E+00  0.00000000E+00
  0.00000000E+00  0.00000000E+00  0.00000000E+00
  0.00000000E+00  0.00000000E+00  0.00000000E+00
  0.00000000E+00  0.00000000E+00  0.00000000E+00
  0.00000000E+00  0.00000000E+00  0.00000000E+00
  0.00000000E+00  0.00000000E+00  0.00000000E+00
  0.00000000E+00  0.00000000E+00  0.00000000E+00
  0.00000000E+00  0.00000000E+00  0.00000000E+00
  0.00000000E+00  0.00000000E+00  0.00000000E+00
  0.00000000E+00  0.00000000E+00  0.00000000E+00
  0.00000000E+00  0.00000000E+00  0.00000000E+00
  0.00000000E+00  0.00000000E+00  0.00000000E+00
  0.00000000E+00  0.00000000E+00  0.00000000E+00
  0.00000000E+00  0.00000000E+00  0.00000000E+00
  0.00000000E+00  0.00000000E+00  0.00000000E+00
  0.00000000E+00  0.00000000E+00  0.00000000E+00
  0.00000000E+00  0.00000000E+00  0.00000000E+00
  0.00000000E+00  0.00000000E+00  0.00000000E+00
  0.00000000E+00  0.00000000E+00  0.00000000E+00
  0.00000000E+00  0.00000000E+00  0.00000000E+00
  0.00000000E+00  0.00000000E+00  0.00000000E+00
  0.00000000E+00  0.00000000E+00  0.00000000E+00
  0.00000000E+00  0.00000000E+00  0.00000000E+00
  0.00000000E+00  0.00000000E+00  0.00000000E+00
  0.00000000E+00  0.00000000E+00  0.00000000E+00
  0.00000000E+00  0.00000000E+00  0.00000000E+00
  0.00000000E+00  0.00000000E+00  0.00000000E+00
  0.00000000E+00  0.00000000E+00  0.00000000E+00
  0.00000000E+00  0.00000000E+00  0.00000000E+00
  0.00000000E+00  0.00000000E+00  0.00000000E+00
  0.00000000E+00  0.00000000E+00  0.00000000E+00
  0.00000000E+00  0.00000000E+00  0.00000000E+00
  0.00000000E+00  0.00000000E+00  0.00000000E+00
  0.00000000E+00  0.00000000E+00  0.00000000E+00
  0.00000000E+00  0.00000000E+00  0.00000000E+00
  0.00000000E+00  0.00000000E+00  0.00000000E+00
  0.00000000E+00  0.00000000E+00  0.00000000E+00
  0.00000000E+00  0.00000000E+00  0.00000000E+00
  0.00000000E+00  0.00000000E+00  0.00000000E+00
  0.00000000E+00  0.00000000E+00  0.00000000E+00
  0.00000000E+00  0.00000000E+00  0.00000000E+00
  0.00000000E+00  0.00000000E+00  0.00000000E+00
  0.00000000E+00  0.00000000E+00  0.00000000E+00
  0.00000000E+00  0.00000000E+00  0.00000000E+00
  0.00000000E+00  0.00000000E+00  0.00000000E+00
  0.00000000E+00  0.00000000E+00  0.00000000E+00
  0.00000000E+00  0.00000000E+00  0.00000000E+00
  0.00000000E+00  0.00000000E+00  0.00000000E+00
  0.00000000E+00  0.00000000E+00  0.00000000E+00
  0.00000000E+00  0.00000000E+00  0.00000000E+00
  0.00000000E+00  0.00000000E+00  0.00000000E+00
  0.00000000E+00  0.00000000E+00  0.00000000E+00
  0.00000000E+00  0.00000000E+00  0.00000000E+00
  0.00000000E+00  0.00000000E+00  0.00000000E+00
  0.00000000E+00  0.00000000E+00  0.00000000E+00
  0.00000000E+00  0.00000000E+00  0.00000000E+00
  0.00000000E+00  0.00000000E+00  0.00000000E+00
  0.00000000E+00  0.00000000E+00  0.00000000E+00
  0.00000000E+00  0.00000000E+00  0.00000000E+00
  0.00000000E+00  0.00000000E+00  0.00000000E+00
  0.00000000E+00  0.00000000E+00  0.00000000E+00
  0.00000000E+00  0.00000000E+00  0.00000000E+00
  0.00000000E+00  0.00000000E+00  0.00000000E+00
  0.00000000E+00  0.00000000E+00  0.00000000E+00
  0.00000000E+00  0.00000000E+00  0.00000000E+00
  0.00000000E+00  0.00000000E+00  0.00000000E+00
  0.00000000E+00  0.00000000E+00  0.00000000E+00
  0.00000000E+00  0.00000000E+00  0.00000000E+00
  0.00000000E+00  0.00000000E+00  0.00000000E+00
  0.00000000E+00  0.00000000E+00  0.00000000E+00
  0.00000000E+00  0.00000000E+00  0.00000000E+00
  0.00000000E+00  0.00000000E+00  0.00000000E+00
  0.00000000E+00  0.00000000E+00  0.00000000E+00
  0.00000000E+00  0.00000000E+00  0.00000000E+00
  0.00000000E+00  0.00000000E+00  0.00000000E+00
  0.00000000E+00  0.00000000E+00  0.00000000E+00
  0.00000000E+00  0.00000000E+00  0.00000000E+00
  0.00000000E+00  0.00000000E+00  0.00000000E+00
  0.00000000E+00  0.00000000E+00  0.00000000E+00
  0.00000000E+00  0.00000000E+00  0.00000000E+00
  0.00000000E+00  0.00000000E+00  0.00000000E+00
  0.00000000E+00  0.00000000E+00  0.00000000E+00
  0.00000000E+00  0.00000000E+00  0.00000000E+00
  0.00000000E+00  0.00000000E+00  0.00000000E+00
  0.00000000E+00  0.00000000E+00  0.00000000E+00
  0.00000000E+00  0.00000000E+00  0.00000000E+00
  0.00000000E+00  0.00000000E+00  0.00000000E+00
  0.00000000E+00  0.00000000E+00  0.00000000E+00
  0.00000000E+00  0.00000000E+00  0.00000000E+00
  0.00000000E+00  0.00000000E+00  0.00000000E+00
  0.00000000E+00  0.00000000E+00  0.00000000E+00
  0.00000000E+00  0.00000000E+00  0.00000000E+00
  0.00000000E+00  0.00000000E+00  0.00000000E+00
  0.00000000E+00  0.00000000E+00  0.00000000E+00
  0.00000000E+00  0.00000000E+00  0.00000000E+00
  0.00000000E+00  0.00000000E+00  0.00000000E+00
  0.00000000E+00  0.00000000E+00  0.00000000E+00
  0.00000000E+00  0.00000000E+00  0.00000000E+00
  0.00000000E+00  0.00000000E+00  0.00000000E+00
  0.00000000E+00  0.00000000E+00  0.00000000E+00
  0.00000000E+00  0.00000000E+00  0.00000000E+00
  0.00000000E+00  0.00000000E+00  0.00000000E+00
  0.00000000E+00  0.00000000E+00  0.00000000E+00
  0.00000000E+00  0.00000000E+00  0.00000000E+00
  0.00000000E+00  0.00000000E+00  0.00000000E+00
  0.00000000E+00  0.00000000E+00  0.00000000E+00
  0.00000000E+00  0.00000000E+00  0.00000000E+00
  0.00000000E+00  0.00000000E+00  0.00000000E+00
  0.00000000E+00  0.00000000E+00  0.00000000E+00