FeMn_288_15                             
    1.000000000000000     
     9.7266779999999997    0.0000000000000000    0.0000000000000000
     0.0000000000000000    8.4235500000000005    0.0000000000000000
     0.0000000000000000    0.0000000000000000   45.0000000000000000
   Fe   Mn
   273    15
Direct
  0.8123755141135801  0.0364912596239684  0.3900620748801880
  0.0624626019199936  0.0421810864669996  0.8735080871668379
  0.0624095171522634  0.7104984173711464  0.8312418187090129
  0.8125593826567897  0.0352025855378865  0.1265691277521703
  0.0623824954138735  0.7015628536211755  0.2135533879987812
  0.1875200821353639  0.9563717335018342  0.5652688905682781
  0.9376413713088593  0.4589295655678214  0.8314455510059739
  0.5624125120441540  0.2092011606896968  0.6981216321092556
  0.9372020264710920  0.4528015763177848  0.3461488619409249
  0.8124910328784591  0.8680528766123087  0.1687393076586937
  0.6873791990091223  0.6188990478918132  0.3017876247025835
  0.9377557968260024  0.9552898921615646  0.4786170530170762
  0.1876984597507305  0.6262271884089546  0.7864829646868392
  0.0626807603871503  0.8728286173383923  0.5214334059748386
  0.4370014226814550  0.9569517089769034  0.5652799359944599
  0.6873196859879126  0.7848577744548271  0.2576178996965153
  0.5625974825530479  0.3751681706143987  0.6538041906482538
  0.4372174095167983  0.4524536651475462  0.3461108773439701
  0.6875869194751385  0.4548663537601479  0.4785206719385937
  0.6875619623461854  0.9515361541345848  0.2135415583528725
  0.8132140993228887  0.0420000811027298  0.8734751428910363
  0.5624772672137589  0.8680249643608340  0.1687030315559065
  0.9374653765935619  0.1263378920878940  0.7865926364628829
  0.8118374139120300  0.7023462716836549  0.3461913433186055
  0.1877917471654738  0.1262698195540665  0.7864717291803582
  0.0624924326819894  0.2097523537056508  0.6982587536601976
  0.0622851514635182  0.0352642400492912  0.2575821887151141
  0.3127667835762378  0.2070866453047807  0.5653138418581254
  0.5623977740126520  0.3727159530047679  0.5212835797094115
  0.8125701999241602  0.2054382011027251  0.4786088416869518
  0.1880528083656167  0.4547595024780212  0.4785427026175662
  0.5624666616456188  0.3680502334530592  0.1687144015991981
  0.4374078366923299  0.4516006420017092  0.2135502854241836
  0.0622018935650779  0.7064769581698277  0.5651537287735573
  0.1874701284394509  0.1180943578989077  0.1687581763048495
  0.5621810643905089  0.8713282639929248  0.4348714605934434
  0.3126561406091486  0.8752015083996215  0.6537432138177106
  0.5625490314510844  0.2050744515396243  0.4786043371570391
  0.6875495855103984  0.4515331282884681  0.2135779884871216
  0.6873917486554206  0.2908407946780624  0.6097665989668125
  0.3124307553215219  0.7100409120634671  0.8314163565008836
  0.9373524641269338  0.9525062339460310  0.3460971380298835
  0.9376778338589861  0.2909070133269815  0.6098575056081369
  0.1875276802410649  0.7927129760534832  0.8735263124559358
  0.5623527134503041  0.3688390733802327  0.3017918183424947
  0.8131972233848742  0.3765265041395156  0.7864929340798469
  0.5627200503049669  0.7063730080095572  0.5649696737706758
  0.0628132218108397  0.3754540428844900  0.6537125554739609
  0.9373250464637689  0.6224690127501300  0.5213391020684163
  0.8127590793694022  0.5363937276327073  0.3900195968202612
  0.9379491613266780  0.9565612794960474  0.5652856302543136
  0.5628477713191508  0.8751904477966871  0.6538388654037843
  0.4375069415464777  0.6186869800236722  0.3017214623099409
  0.6875136761379772  0.7851720512027281  0.1265840115642025
  0.4373729693866047  0.9524843702536936  0.3461149862775099
  0.4375318530265519  0.1250988808573408  0.6538322789123377
  0.0625340887939489  0.5351286545181569  0.1265752779732905
  0.8113811442078871  0.5426063145952263  0.8736953820976233
  0.5625347995025322  0.0350871910089429  0.1265763372878202
  0.9370059825469963  0.6209577329181404  0.4348240586476182
  0.0621523481457030  0.8709459728603234  0.4348689564675685
  0.3125988772370977  0.7055283528304415  0.4786666176317534
  0.9374696665979063  0.2851952319823290  0.1265684876746905
  0.5624951494595183  0.2016011180773337  0.2135112845816701
  0.4376423625862341  0.1184863240782656  0.3017538845822967
  0.8124489852757162  0.7014826071365168  0.2134734750951219
  0.6872371948663458  0.7867729397973050  0.3901850024205932
  0.4374619104263604  0.1264837693670865  0.7865026291036196
  0.0624336831126000  0.3763730049662579  0.7865665449771686
  0.1875033014719184  0.7871308035225683  0.3901222741486058
  0.3124650466560447  0.5351687596067489  0.1265730162104845
  0.0625038534435877  0.3731925672799084  0.5213843934942970
  0.6877100442836483  0.6248707168902200  0.6537872715461889
  0.1872861145857308  0.2850286961850785  0.2576167718694028
  0.9370502989872429  0.1222448750467343  0.5213961720477421
  0.3124757262546689  0.5411490342637837  0.6098346334219262
  0.0624299849855490  0.5367280801942285  0.3900294161281707
  0.5623397335396830  0.8685677472756649  0.3017205211494922
  0.3126579004191955  0.3748004135182810  0.6537853325384576
  0.8120891636175905  0.0347932258548955  0.2575959411683502
  0.5623469661031260  0.5348504210959057  0.2576869158676568
  0.9378216987230592  0.9603076233416515  0.8314139893412202
  0.5623759551111521  0.7025555302200565  0.3462276392696322
  0.6877624118624063  0.6224458591321032  0.5213482787854707
  0.4374237939464478  0.4593224464048326  0.6981854411196605
  0.8127802147633839  0.3726187255601968  0.5213522431344609
  0.0626206155332305  0.8764503323538105  0.7864378249890789
  0.0625274415029049  0.0351607607277958  0.1265811212793456
  0.8126300043423147  0.8765461198650950  0.7865441581900923
  0.6875757162145764  0.4592736422181417  0.6981470215659871
  0.6879510004734029  0.9551184304250985  0.4786434478937493
  0.0624280819500437  0.3681803091514751  0.1687102168125441
  0.3123903593604971  0.8684986958492688  0.3017199077409616
  0.5627703257433756  0.5430387043469522  0.7423744775461243
  0.1875607883995112  0.2907970725661186  0.6097820771569087
  0.5624864054616777  0.7015881008914315  0.2135030869272155
  0.6874739384823730  0.1251951261270710  0.6537616394266098
  0.0639734934641276  0.5428257672873630  0.8734275076893392
  0.8124202977747782  0.5427248927004288  0.7423033985221186
  0.1873927227773982  0.2931680212311570  0.7423249152084215
  0.4375331756125490  0.6222504288627873  0.5212977685281404
  0.5622624468825199  0.2102519818638644  0.8312891094953081
  0.9375451193765223  0.7930791729729791  0.8734764550993243
  0.1873994676825775  0.4591138020496684  0.6981921326242813
  0.6874295307066913  0.4524734264028038  0.3461678304409519
  0.5621980614364885  0.3712430658033508  0.4348132370480915
  0.4372173103061651  0.9595954058216036  0.8313840271451874
  0.0623472555024810  0.7054677754198461  0.4785596839179949
  0.9375382709008315  0.7852299785097225  0.1265722259941321
  0.1878130818255477  0.1223795488231493  0.5212713807706790
  0.0620952611064133  0.2069542292905810  0.5649509729284349
  0.0624133690643194  0.2014474071725053  0.2135225081992806
  0.1877842930272259  0.1251649734750312  0.6537159698732269
  0.8124336045983612  0.2068846215134606  0.5653069149195128
  0.4380992969257724  0.6209753182013867  0.4347571465157051
  0.8124372484674831  0.8711885353077891  0.4348923769210893
  0.3122273604327472  0.5369060021562978  0.3900677236266626
  0.4378345761883241  0.7869586366075270  0.3901469938025563
  0.3134076487605159  0.8709737464156206  0.4348665425350323
  0.8125312331461577  0.3680822406933978  0.1687450921421811
  0.8131855213653290  0.2107534263705400  0.8314194103062601
  0.8126815989962488  0.3751126651667068  0.6537382896924425
  0.9369294723824467  0.1211339732092674  0.4348818650193909
  0.9374289956072073  0.4514803038398751  0.2134686222903258
  0.5625455372529684  0.5351042168204228  0.1265756869039288
  0.4370175262060051  0.9553147843182345  0.4785296458083858
  0.6874039252419866  0.6268121790929106  0.7864632665595174
  0.9372668527989961  0.2849936925643067  0.2576513693025946
  0.3124241253863219  0.3680695507433364  0.1687451613850378
  0.6874282535194235  0.6182178745372724  0.1687335169626865
  0.3129195058049892  0.5429981968397531  0.7423085602096050
  0.0623915074113466  0.8757904928545071  0.6537982912171737
  0.6874964391294989  0.7932447377928973  0.7424036580798986
  0.1874687771344050  0.6225671533512707  0.5212804792396373
  0.6873547046235758  0.2866173353005898  0.3900878188688477
  0.5630012510405067  0.0431706661700757  0.7424550905720005
  0.1874560398252683  0.9515937570682290  0.2134828339399103
  0.3128460803697765  0.7025085345642967  0.3461497536190297
  0.9376231397536392  0.7925498892398312  0.7423249016877614
  0.6874100394261717  0.1186198443287017  0.3017652162841924
  0.5631425274056308  0.5421312329045003  0.8736872599624816
  0.0626017525406127  0.5408448907693062  0.6097759896902861
  0.4372787247585340  0.7935544986614254  0.8734722181389635
  0.9374275497817446  0.6180958058228515  0.1687553787473970
  0.1874966236334624  0.9591349292325324  0.6982304702654971
  0.0623479607875045  0.0365600051318416  0.3900557468824212
  0.1872900482429672  0.7850420102949289  0.2575865801012878
  0.6873648477847588  0.9590890573144675  0.6981864449128854
  0.3123911977533340  0.5348086672895851  0.2575873096485840
  0.4373974567688060  0.9516429405279657  0.2135158911469494
  0.3129737050944327  0.0428438073299973  0.7424181191690280
  0.8130490391943673  0.3710150122986329  0.4348692848911966
  0.8125350953764902  0.5351912132082474  0.1265803012826761
  0.0625228209307461  0.7088727666164453  0.6982007924180685
  0.1882446332584958  0.2934028543269206  0.8734863951414509
  0.6874394352415021  0.1181017435682283  0.1687567233554902
  0.6875451820381145  0.2851913991180698  0.1265827977747942
  0.5624272067151679  0.5366248863181056  0.3901276520665897
  0.3125028385190503  0.7015893708080330  0.2135181789243971
  0.5628518041576598  0.2067982801594238  0.5651943781548745
  0.6873147911968500  0.7924462958879432  0.8735180842823765
  0.5626336588822556  0.7095993764347783  0.6982571111537825
  0.6873587663423445  0.4561604749846405  0.5651586049889460
  0.3119967856504891  0.7093928758287092  0.6981379035328141
  0.4377827322714165  0.6258745128145243  0.7865894269382074
  0.4372060018388778  0.7846974160397184  0.2575997575406127
  0.9371081846465479  0.6267616041725877  0.7863627878851170
  0.8128954989550523  0.7088598816031801  0.6981234774856900
  0.8125019379825710  0.8724484164590377  0.5213828335320131
  0.1874941588902676  0.1186822890254824  0.3017631747874997
  0.6873258440489030  0.2850185844399953  0.2575807599719835
  0.6875679361094648  0.1227124655753095  0.5214075957481095
  0.1875022580225423  0.2851576652385382  0.1265622709493738
  0.9373922461146202  0.1181076367686041  0.1687470600538866
  0.9376266388199060  0.6253997159228819  0.6537353742335446
  0.1872373387392567  0.7908894518593753  0.6097339698588242
  0.3126822605320891  0.3711701538143559  0.4348633840377399
  0.5623620667484437  0.8727423963392472  0.5213369047832577
  0.9378843998104432  0.2864583551020019  0.3901489545440143
  0.5622741834075826  0.3760259240085930  0.7863954612593742
  0.8124107378268713  0.5408631899299181  0.6097918315897563
  0.4375953559749054  0.2927880211490503  0.8735109822135646
  0.8123004112412436  0.2094788934872705  0.6982112645499760
  0.8125161475963149  0.0411677052115073  0.6098760184785408
  0.4376819375651012  0.6251248970444747  0.6537837701824284
  0.6864524840530697  0.2934839535358997  0.8736581499698850
  0.0625237812466145  0.0429807328881383  0.7423073594596793
  0.4372534487506286  0.2911857984992752  0.6098105789863292
  0.6874050597026140  0.1263892542520479  0.7864489505782705
  0.5624165326097700  0.0368937153461021  0.3900721835300453
  0.1878748678587162  0.7929670878550226  0.7423371398109334
  0.4372063445290909  0.4548971628887356  0.4785223961410717
  0.3122652512005596  0.3762169678345888  0.7864516624190478
  0.3117498521291604  0.5425620216710274  0.8735023173156186
  0.4375592830774173  0.2851686890664252  0.1265800545347562
  0.8123466179838911  0.0429051544453873  0.7423826874656426
  0.3124905818215523  0.3727670821803855  0.5215091940915897
  0.0622988656806610  0.5352688759296862  0.2575608388552956
  0.9377392539811702  0.1253963140940670  0.6538839838102946
  0.4376521589089878  0.7932056367192253  0.7423965630063800
  0.6870522064839131  0.9601694433543475  0.8313195679371513
  0.1873240494477117  0.2870471746396828  0.3901837535223963
  0.1874571630957557  0.6180758613272705  0.1686770845219220
  0.6876895392537674  0.6208071823714889  0.4348866654169737
  0.0624064422072288  0.3687357985508122  0.3016861517715105
  0.9374471203962367  0.6189027516549207  0.3017296001717367
  0.8118330677161869  0.7099525468701124  0.8314170235892384
  0.8126044625183828  0.8687216806383774  0.3017715126430508
  0.4375614100179875  0.1180922053590520  0.1687608948318265
  0.0621096940585551  0.3707446373986229  0.4348210367612333
  0.6877570461050311  0.1210808709677116  0.4348560785735201
  0.3127130185135684  0.2090148893799819  0.6981300888822429
  0.4375202700889041  0.6181045736836853  0.1687759192594979
  0.1876205076031534  0.4532715556096940  0.3461294887437510
  0.4376555665165180  0.2929191679881087  0.7422851474025047
  0.3125101833843839  0.2014978230805523  0.2134926057560702
  0.6874540927226761  0.7909001366049444  0.6097891038633247
  0.1875084547321238  0.6186775214847455  0.3017529907729867
  0.3124317566595034  0.3684833412678385  0.3017177068837960
  0.4378722940100556  0.1213992225029551  0.4349541362591450
  0.3122521629026556  0.8763728587527928  0.7865300054689708
  0.4378193004298676  0.7910050104185534  0.6098492850163056
  0.3124443310229162  0.2092550061938012  0.8312366254991790
  0.5629880487412470  0.7098112837653953  0.8313042046244156
  0.3123951741932162  0.8680789327090501  0.1687652608003818
  0.8126013594171022  0.3687651823641955  0.3017992922138146
  0.8126403136857179  0.8753216054723778  0.6537799460692439
  0.5624037107609873  0.2023276348606406  0.3462610151254886
  0.9377750172641466  0.4565776596531776  0.5652510608962498
  0.0623895349347370  0.0411341196176140  0.6099327333912564
  0.9373879690970549  0.7913184932896150  0.6097545307037139
  0.4373869814905350  0.2871031926365346  0.3900970917974814
  0.1874024415060083  0.9547933336630909  0.4785104758947880
  0.8125955224333230  0.7053662871875918  0.4785680129348961
  0.5624660558291671  0.0406597538772651  0.6098348878450823
  0.9374140523226155  0.9515425155138180  0.2134452506275971
  0.3124164200811821  0.0348471452871712  0.2575999914899441
  0.1878314174362110  0.9594858889725302  0.8311692730898068
  0.0624353134269236  0.8688343382788051  0.3017385173417718
  0.9373569052410428  0.4552902837102671  0.4785774402751501
  0.8116870532551804  0.2025434904091029  0.3461685961294228
  0.9377054039903437  0.2930446968320746  0.7423666415145358
  0.3118086361880585  0.0426472959472006  0.8734846974464110
  0.4377126010966628  0.1224095196223563  0.5214101402758209
  0.4373524168471937  0.2847398733882638  0.2576664243396619
  0.6880065605784450  0.2931032384902083  0.7423105442018314
  0.1875442496437189  0.4567729578034686  0.5651917880169193
  0.0619862104075788  0.2094794194075590  0.8314779490737910
  0.1875708698562978  0.9530593420780065  0.3461152187785255
  0.4374042150966991  0.4594293300082448  0.8312607342700524
  0.1871740765941761  0.4598238953837589  0.8313983254489249
  0.1874822298021521  0.6252595969280859  0.6537889223178427
  0.8124064324260141  0.2015185045849258  0.2134846709464843
  0.5623860538916065  0.0347628654077476  0.2576527219515621
  0.8121839323793845  0.5349695728531325  0.2576122984593739
  0.3126599441035570  0.2055097461829008  0.4786191955259051
  0.3127043952280247  0.8728703031665622  0.5214287002045765
  0.0624790377653138  0.8681826424344018  0.1687249932738169
  0.3125118445246336  0.0351702780073586  0.1265823238738055
  0.4375075002536974  0.7852073489312106  0.1265874250686977
  0.3125206479480924  0.0407792828891014  0.6097787779951224
  0.4374462200496303  0.4565342324383631  0.5653112316930317
  0.5621782795565748  0.0420804258293664  0.8734504402267044
  0.1874475650376333  0.4514988591051576  0.2134751438161405
  0.9373632391195025  0.7868035439573025  0.3900504432701142
  0.8127306799855645  0.7069088031215628  0.5653256655645145
  0.5624691295804725  0.5412749526506794  0.6098460776828093
  0.3129169397551082  0.2027752570863384  0.3461835692732914
  0.9374476062829218  0.7848964435102551  0.2575602903990493
  0.9376104099619736  0.9591761853487049  0.6981559305731442
  0.9372782679970412  0.1188306402786556  0.3017526937578698
  0.1875162482868367  0.7852275443482101  0.1265672807486138
  0.3123357641598876  0.0370297463301538  0.3901248837494982
  0.1875227072132102  0.6210513548087309  0.4348571112890753
  0.6874832393379428  0.9525756831586635  0.3463070613264599
  0.5624668482846928  0.8762765327497113  0.7863517869243832
  0.1882035046650423  0.1206614299825058  0.4346331545103941
  0.6876158088480753  0.9571061992184335  0.5653332529097117
  0.9375593607845707  0.2928515411061238  0.8733024398703363
  0.0631433032118596  0.5429823878636494  0.7426160880722459
  0.0623339349067275  0.2029877511494530  0.3462774501775039
  0.0624950697791481  0.2051237010134618  0.4787410701926760
  0.9371919129476332  0.4589323840215850  0.6980530887150294
  0.6879999753085658  0.4597289285877698  0.8320285037007785
  0.0623818755579191  0.7024544935567246  0.3462758172110924
  0.4374641766843582  0.9591140880131189  0.6981364026349504
  0.3124691748248848  0.7065877863575869  0.5652698165183518
  0.5626762364010819  0.7051182229637594  0.4786093661722723
 
  0.00000000E+00  0.00000000E+00  0.00000000E+00
  0.00000000E+00  0.00000000E+00  0.00000000E+00
  0.00000000E+00  0.00000000E+00  0.00000000E+00
  0.00000000E+00  0.00000000E+00  0.00000000E+00
  0.00000000E+00  0.00000000E+00  0.00000000E+00
  0.00000000E+00  0.00000000E+00  0.00000000E+00
  0.00000000E+00  0.00000000E+00  0.00000000E+00
  0.00000000E+00  0.00000000E+00  0.00000000E+00
  0.00000000E+00  0.00000000E+00  0.00000000E+00
  0.00000000E+00  0.00000000E+00  0.00000000E+00
  0.00000000E+00  0.00000000E+00  0.00000000E+00
  0.00000000E+00  0.00000000E+00  0.00000000E+00
  0.00000000E+00  0.00000000E+00  0.00000000E+00
  0.00000000E+00  0.00000000E+00  0.00000000E+00
  0.00000000E+00  0.00000000E+00  0.00000000E+00
  0.00000000E+00  0.00000000E+00  0.00000000E+00
  0.00000000E+00  0.00000000E+00  0.00000000E+00
  0.00000000E+00  0.00000000E+00  0.00000000E+00
  0.00000000E+00  0.00000000E+00  0.00000000E+00
  0.00000000E+00  0.00000000E+00  0.00000000E+00
  0.00000000E+00  0.00000000E+00  0.00000000E+00
  0.00000000E+00  0.00000000E+00  0.00000000E+00
  0.00000000E+00  0.00000000E+00  0.00000000E+00
  0.00000000E+00  0.00000000E+00  0.00000000E+00
  0.00000000E+00  0.00000000E+00  0.00000000E+00
  0.00000000E+00  0.00000000E+00  0.00000000E+00
  0.00000000E+00  0.00000000E+00  0.00000000E+00
  0.00000000E+00  0.00000000E+00  0.00000000E+00
  0.00000000E+00  0.00000000E+00  0.00000000E+00
  0.00000000E+00  0.00000000E+00  0.00000000E+00
  0.00000000E+00  0.00000000E+00  0.00000000E+00
  0.00000000E+00  0.00000000E+00  0.00000000E+00
  0.00000000E+00  0.00000000E+00  0.00000000E+00
  0.00000000E+00  0.00000000E+00  0.00000000E+00
  0.00000000E+00  0.00000000E+00  0.00000000E+00
  0.00000000E+00  0.00000000E+00  0.00000000E+00
  0.00000000E+00  0.00000000E+00  0.00000000E+00
  0.00000000E+00  0.00000000E+00  0.00000000E+00
  0.00000000E+00  0.00000000E+00  0.00000000E+00
  0.00000000E+00  0.00000000E+00  0.00000000E+00
  0.00000000E+00  0.00000000E+00  0.00000000E+00
  0.00000000E+00  0.00000000E+00  0.00000000E+00
  0.00000000E+00  0.00000000E+00  0.00000000E+00
  0.00000000E+00  0.00000000E+00  0.00000000E+00
  0.00000000E+00  0.00000000E+00  0.00000000E+00
  0.00000000E+00  0.00000000E+00  0.00000000E+00
  0.00000000E+00  0.00000000E+00  0.00000000E+00
  0.00000000E+00  0.00000000E+00  0.00000000E+00
  0.00000000E+00  0.00000000E+00  0.00000000E+00
  0.00000000E+00  0.00000000E+00  0.00000000E+00
  0.00000000E+00  0.00000000E+00  0.00000000E+00
  0.00000000E+00  0.00000000E+00  0.00000000E+00
  0.00000000E+00  0.00000000E+00  0.00000000E+00
  0.00000000E+00  0.00000000E+00  0.00000000E+00
  0.00000000E+00  0.00000000E+00  0.00000000E+00
  0.00000000E+00  0.00000000E+00  0.00000000E+00
  0.00000000E+00  0.00000000E+00  0.00000000E+00
  0.00000000E+00  0.00000000E+00  0.00000000E+00
  0.00000000E+00  0.00000000E+00  0.00000000E+00
  0.00000000E+00  0.00000000E+00  0.00000000E+00
  0.00000000E+00  0.00000000E+00  0.00000000E+00
  0.00000000E+00  0.00000000E+00  0.00000000E+00
  0.00000000E+00  0.00000000E+00  0.00000000E+00
  0.00000000E+00  0.00000000E+00  0.00000000E+00
  0.00000000E+00  0.00000000E+00  0.00000000E+00
  0.00000000E+00  0.00000000E+00  0.00000000E+00
  0.00000000E+00  0.00000000E+00  0.00000000E+00
  0.00000000E+00  0.00000000E+00  0.00000000E+00
  0.00000000E+00  0.00000000E+00  0.00000000E+00
  0.00000000E+00  0.00000000E+00  0.00000000E+00
  0.00000000E+00  0.00000000E+00  0.00000000E+00
  0.00000000E+00  0.00000000E+00  0.00000000E+00
  0.00000000E+00  0.00000000E+00  0.00000000E+00
  0.00000000E+00  0.00000000E+00  0.00000000E+00
  0.00000000E+00  0.00000000E+00  0.00000000E+00
  0.00000000E+00  0.00000000E+00  0.00000000E+00
  0.00000000E+00  0.00000000E+00  0.00000000E+00
  0.00000000E+00  0.00000000E+00  0.00000000E+00
  0.00000000E+00  0.00000000E+00  0.00000000E+00
  0.00000000E+00  0.00000000E+00  0.00000000E+00
  0.00000000E+00  0.00000000E+00  0.00000000E+00
  0.00000000E+00  0.00000000E+00  0.00000000E+00
  0.00000000E+00  0.00000000E+00  0.00000000E+00
  0.00000000E+00  0.00000000E+00  0.00000000E+00
  0.00000000E+00  0.00000000E+00  0.00000000E+00
  0.00000000E+00  0.00000000E+00  0.00000000E+00
  0.00000000E+00  0.00000000E+00  0.00000000E+00
  0.00000000E+00  0.00000000E+00  0.00000000E+00
  0.00000000E+00  0.00000000E+00  0.00000000E+00
  0.00000000E+00  0.00000000E+00  0.00000000E+00
  0.00000000E+00  0.00000000E+00  0.00000000E+00
  0.00000000E+00  0.00000000E+00  0.00000000E+00
  0.00000000E+00  0.00000000E+00  0.00000000E+00
  0.00000000E+00  0.00000000E+00  0.00000000E+00
  0.00000000E+00  0.00000000E+00  0.00000000E+00
  0.00000000E+00  0.00000000E+00  0.00000000E+00
  0.00000000E+00  0.00000000E+00  0.00000000E+00
  0.00000000E+00  0.00000000E+00  0.00000000E+00
  0.00000000E+00  0.00000000E+00  0.00000000E+00
  0.00000000E+00  0.00000000E+00  0.00000000E+00
  0.00000000E+00  0.00000000E+00  0.00000000E+00
  0.00000000E+00  0.00000000E+00  0.00000000E+00
  0.00000000E+00  0.00000000E+00  0.00000000E+00
  0.00000000E+00  0.00000000E+00  0.00000000E+00
  0.00000000E+00  0.00000000E+00  0.00000000E+00
  0.00000000E+00  0.00000000E+00  0.00000000E+00
  0.00000000E+00  0.00000000E+00  0.00000000E+00
  0.00000000E+00  0.00000000E+00  0.00000000E+00
  0.00000000E+00  0.00000000E+00  0.00000000E+00
  0.00000000E+00  0.00000000E+00  0.00000000E+00
  0.00000000E+00  0.00000000E+00  0.00000000E+00
  0.00000000E+00  0.00000000E+00  0.00000000E+00
  0.00000000E+00  0.00000000E+00  0.00000000E+00
  0.00000000E+00  0.00000000E+00  0.00000000E+00
  0.00000000E+00  0.00000000E+00  0.00000000E+00
  0.00000000E+00  0.00000000E+00  0.00000000E+00
  0.00000000E+00  0.00000000E+00  0.00000000E+00
  0.00000000E+00  0.00000000E+00  0.00000000E+00
  0.00000000E+00  0.00000000E+00  0.00000000E+00
  0.00000000E+00  0.00000000E+00  0.00000000E+00
  0.00000000E+00  0.00000000E+00  0.00000000E+00
  0.00000000E+00  0.00000000E+00  0.00000000E+00
  0.00000000E+00  0.00000000E+00  0.00000000E+00
  0.00000000E+00  0.00000000E+00  0.00000000E+00
  0.00000000E+00  0.00000000E+00  0.00000000E+00
  0.00000000E+00  0.00000000E+00  0.00000000E+00
  0.00000000E+00  0.00000000E+00  0.00000000E+00
  0.00000000E+00  0.00000000E+00  0.00000000E+00
  0.00000000E+00  0.00000000E+00  0.00000000E+00
  0.00000000E+00  0.00000000E+00  0.00000000E+00
  0.00000000E+00  0.00000000E+00  0.00000000E+00
  0.00000000E+00  0.00000000E+00  0.00000000E+00
  0.00000000E+00  0.00000000E+00  0.00000000E+00
  0.00000000E+00  0.00000000E+00  0.00000000E+00
  0.00000000E+00  0.00000000E+00  0.00000000E+00
  0.00000000E+00  0.00000000E+00  0.00000000E+00
  0.00000000E+00  0.00000000E+00  0.00000000E+00
  0.00000000E+00  0.00000000E+00  0.00000000E+00
  0.00000000E+00  0.00000000E+00  0.00000000E+00
  0.00000000E+00  0.00000000E+00  0.00000000E+00
  0.00000000E+00  0.00000000E+00  0.00000000E+00
  0.00000000E+00  0.00000000E+00  0.00000000E+00
  0.00000000E+00  0.00000000E+00  0.00000000E+00
  0.00000000E+00  0.00000000E+00  0.00000000E+00
  0.00000000E+00  0.00000000E+00  0.00000000E+00
  0.00000000E+00  0.00000000E+00  0.00000000E+00
  0.00000000E+00  0.00000000E+00  0.00000000E+00
  0.00000000E+00  0.00000000E+00  0.00000000E+00
  0.00000000E+00  0.00000000E+00  0.00000000E+00
  0.00000000E+00  0.00000000E+00  0.00000000E+00
  0.00000000E+00  0.00000000E+00  0.00000000E+00
  0.00000000E+00  0.00000000E+00  0.00000000E+00
  0.00000000E+00  0.00000000E+00  0.00000000E+00
  0.00000000E+00  0.00000000E+00  0.00000000E+00
  0.00000000E+00  0.00000000E+00  0.00000000E+00
  0.00000000E+00  0.00000000E+00  0.00000000E+00
  0.00000000E+00  0.00000000E+00  0.00000000E+00
  0.00000000E+00  0.00000000E+00  0.00000000E+00
  0.00000000E+00  0.00000000E+00  0.00000000E+00
  0.00000000E+00  0.00000000E+00  0.00000000E+00
  0.00000000E+00  0.00000000E+00  0.00000000E+00
  0.00000000E+00  0.00000000E+00  0.00000000E+00
  0.00000000E+00  0.00000000E+00  0.00000000E+00
  0.00000000E+00  0.00000000E+00  0.00000000E+00
  0.00000000E+00  0.00000000E+00  0.00000000E+00
  0.00000000E+00  0.00000000E+00  0.00000000E+00
  0.00000000E+00  0.00000000E+00  0.00000000E+00
  0.00000000E+00  0.00000000E+00  0.00000000E+00
  0.00000000E+00  0.00000000E+00  0.00000000E+00
  0.00000000E+00  0.00000000E+00  0.00000000E+00
  0.00000000E+00  0.00000000E+00  0.00000000E+00
  0.00000000E+00  0.00000000E+00  0.00000000E+00
  0.00000000E+00  0.00000000E+00  0.00000000E+00
  0.00000000E+00  0.00000000E+00  0.00000000E+00
  0.00000000E+00  0.00000000E+00  0.00000000E+00
  0.00000000E+00  0.00000000E+00  0.00000000E+00
  0.00000000E+00  0.00000000E+00  0.00000000E+00
  0.00000000E+00  0.00000000E+00  0.00000000E+00
  0.00000000E+00  0.00000000E+00  0.00000000E+00
  0.00000000E+00  0.00000000E+00  0.00000000E+00
  0.00000000E+00  0.00000000E+00  0.00000000E+00
  0.00000000E+00  0.00000000E+00  0.00000000E+00
  0.00000000E+00  0.00000000E+00  0.00000000E+00
  0.00000000E+00  0.00000000E+00  0.00000000E+00
  0.00000000E+00  0.00000000E+00  0.00000000E+00
  0.00000000E+00  0.00000000E+00  0.00000000E+00
  0.00000000E+00  0.00000000E+00  0.00000000E+00
  0.00000000E+00  0.00000000E+00  0.00000000E+00
  0.00000000E+00  0.00000000E+00  0.00000000E+00
  0.00000000E+00  0.00000000E+00  0.00000000E+00
  0.00000000E+00  0.00000000E+00  0.00000000E+00
  0.00000000E+00  0.00000000E+00  0.00000000E+00
  0.00000000E+00  0.00000000E+00  0.00000000E+00
  0.00000000E+00  0.00000000E+00  0.00000000E+00
  0.00000000E+00  0.00000000E+00  0.00000000E+00
  0.00000000E+00  0.00000000E+00  0.00000000E+00
  0.00000000E+00  0.00000000E+00  0.00000000E+00
  0.00000000E+00  0.00000000E+00  0.00000000E+00
  0.00000000E+00  0.00000000E+00  0.00000000E+00
  0.00000000E+00  0.00000000E+00  0.00000000E+00
  0.00000000E+00  0.00000000E+00  0.00000000E+00
  0.00000000E+00  0.00000000E+00  0.00000000E+00
  0.00000000E+00  0.00000000E+00  0.00000000E+00
  0.00000000E+00  0.00000000E+00  0.00000000E+00
  0.00000000E+00  0.00000000E+00  0.00000000E+00
  0.00000000E+00  0.00000000E+00  0.00000000E+00
  0.00000000E+00  0.00000000E+00  0.00000000E+00
  0.00000000E+00  0.00000000E+00  0.00000000E+00
  0.00000000E+00  0.00000000E+00  0.00000000E+00
  0.00000000E+00  0.00000000E+00  0.00000000E+00
  0.00000000E+00  0.00000000E+00  0.00000000E+00
  0.00000000E+00  0.00000000E+00  0.00000000E+00
  0.00000000E+00  0.00000000E+00  0.00000000E+00
  0.00000000E+00  0.00000000E+00  0.00000000E+00
  0.00000000E+00  0.00000000E+00  0.00000000E+00
  0.00000000E+00  0.00000000E+00  0.00000000E+00
  0.00000000E+00  0.00000000E+00  0.00000000E+00
  0.00000000E+00  0.00000000E+00  0.00000000E+00
  0.00000000E+00  0.00000000E+00  0.00000000E+00
  0.00000000E+00  0.00000000E+00  0.00000000E+00
  0.00000000E+00  0.00000000E+00  0.00000000E+00
  0.00000000E+00  0.00000000E+00  0.00000000E+00
  0.00000000E+00  0.00000000E+00  0.00000000E+00
  0.00000000E+00  0.00000000E+00  0.00000000E+00
  0.00000000E+00  0.00000000E+00  0.00000000E+00
  0.00000000E+00  0.00000000E+00  0.00000000E+00
  0.00000000E+00  0.00000000E+00  0.00000000E+00
  0.00000000E+00  0.00000000E+00  0.00000000E+00
  0.00000000E+00  0.00000000E+00  0.00000000E+00
  0.00000000E+00  0.00000000E+00  0.00000000E+00
  0.00000000E+00  0.00000000E+00  0.00000000E+00
  0.00000000E+00  0.00000000E+00  0.00000000E+00
  0.00000000E+00  0.00000000E+00  0.00000000E+00
  0.00000000E+00  0.00000000E+00  0.00000000E+00
  0.00000000E+00  0.00000000E+00  0.00000000E+00
  0.00000000E+00  0.00000000E+00  0.00000000E+00
  0.00000000E+00  0.00000000E+00  0.00000000E+00
  0.00000000E+00  0.00000000E+00  0.00000000E+00
  0.00000000E+00  0.00000000E+00  0.00000000E+00
  0.00000000E+00  0.00000000E+00  0.00000000E+00
  0.00000000E+00  0.00000000E+00  0.00000000E+00
  0.00000000E+00  0.00000000E+00  0.00000000E+00
  0.00000000E+00  0.00000000E+00  0.00000000E+00
  0.00000000E+00  0.00000000E+00  0.00000000E+00
  0.00000000E+00  0.00000000E+00  0.00000000E+00
  0.00000000E+00  0.00000000E+00  0.00000000E+00
  0.00000000E+00  0.00000000E+00  0.00000000E+00