FeMn_288_15                             
    1.000000000000000     
     9.7266779999999997    0.0000000000000000    0.0000000000000000
     0.0000000000000000    8.4235500000000005    0.0000000000000000
     0.0000000000000000    0.0000000000000000   45.0000000000000000
   Fe   Mn
   273    15
Direct
  0.8123754556146426  0.0365106529039938  0.3900654418263542
  0.0624658187593480  0.0421356977137081  0.8735144833630218
  0.0624042007097942  0.7105095719794932  0.8312416109802863
  0.8125623364137323  0.0352196335108487  0.1265682272019778
  0.0623960138247924  0.7015353898799261  0.2135580384300146
  0.1875031272767365  0.9563560636555658  0.5652706974557710
  0.9376376921787046  0.4589640047035643  0.8314437951786755
  0.5623885696175599  0.2092375942499815  0.6981153297778223
  0.9372134434306725  0.4527768275495822  0.3461577824786830
  0.8124874793324497  0.8680361865507867  0.1687434382414967
  0.6873908025597608  0.6188852283948731  0.3017919931663409
  0.9377268424540082  0.9553028525646177  0.4786198786787330
  0.1876737334290977  0.6262676983239814  0.7864849428374605
  0.0626537821695970  0.8728014440016607  0.5214363695982620
  0.4369958087063219  0.9569772756910393  0.5652762782844510
  0.6872979661624267  0.7848432681804098  0.2576066624338325
  0.5625958910814934  0.3751853741890190  0.6538083386021557
  0.4371976522031453  0.4524127865199393  0.3461188767907997
  0.6876188960294408  0.4548543708596797  0.4785115570242497
  0.6875683271961089  0.9515383524287603  0.2135459510127179
  0.8132017906625206  0.0419727034139975  0.8734779466641759
  0.5624848565625785  0.8680041160058278  0.1687092207774050
  0.9374441783404691  0.1263572927825160  0.7865903438785256
  0.8118288333192843  0.7023013556111596  0.3461986270332295
  0.1877618665328983  0.1262816004476519  0.7864673489109523
  0.0624909930987706  0.2097754977790784  0.6982548312449097
  0.0622739783527718  0.0352539379233809  0.2575714328681541
  0.3127774818331289  0.2070866748075454  0.5653160885851655
  0.5623942368830614  0.3727188764768971  0.5212860837636508
  0.8125902734749638  0.2054359621002039  0.4786054622703358
  0.1880676373790361  0.4547524347985011  0.4785449761151900
  0.5624530737786673  0.3680407586976778  0.1687220013728727
  0.4374029163144559  0.4515957734288598  0.2135500818282847
  0.0621777061388385  0.7064734282220695  0.5651519492384007
  0.1874719877959605  0.1181026311064714  0.1687688358147953
  0.5621749314162854  0.8713454271697587  0.4348706548062083
  0.3126755560187682  0.8752238909482677  0.6537420063854689
  0.5625772721118886  0.2050633625631852  0.4786039141792982
  0.6875512037113751  0.4515206787362115  0.2135809779386303
  0.6873784441690933  0.2908434982594400  0.6097600356686871
  0.3124072272439413  0.7100729454908923  0.8314202904659953
  0.9373623767700404  0.9524884621857072  0.3461038500134506
  0.9376779322361715  0.2909220683760030  0.6098469016900246
  0.1875053163623173  0.7927556988753995  0.8735290892280839
  0.5623385237166927  0.3688236721233352  0.3018001244214430
  0.8132118459107442  0.3765233310236824  0.7864943148781134
  0.5627342992564622  0.7063641600554055  0.5649626160523932
  0.0628308837348084  0.3754635242587160  0.6537134826402676
  0.9373033859093368  0.6224850389180727  0.5213388967422626
  0.8127587557219200  0.5363674405033020  0.3900227773480847
  0.9379722503376222  0.9565500019698099  0.5652776274383555
  0.5628499232010867  0.8752151543884914  0.6538356927836964
  0.4374989604851493  0.6186623216946195  0.3017276456289467
  0.6875190306148353  0.7851960983920007  0.1265860134581379
  0.4373550346831891  0.9524742098189096  0.3461232960936720
  0.4375358976136182  0.1251217679580337  0.6538308267273910
  0.0625264687765116  0.5351262596528295  0.1265813418427590
  0.8113427341971404  0.5425970516915454  0.8736985257676196
  0.5625375863508997  0.0351054968435194  0.1265708526987934
  0.9369893076604090  0.6209500006511360  0.4348302997987809
  0.0621473206358461  0.8709489570122486  0.4348706534377043
  0.3126184279247000  0.7055371673757774  0.4786676353197111
  0.9374604988848596  0.2851895617670722  0.1265690979631479
  0.5624952818993355  0.2016122793863845  0.2135140228274014
  0.4376482846755615  0.1184858034768611  0.3017566306757575
  0.8124501625072882  0.7014597581911242  0.2134755144713649
  0.6872231422274792  0.7867649978000197  0.3901906616640606
  0.4374759832014787  0.1264865243345595  0.7864991251053970
  0.0624089433054746  0.3763818078891725  0.7865695665601623
  0.1875212101590509  0.7871389430803892  0.3901177784789531
  0.3124658897405992  0.5351592659806782  0.1265810523594939
  0.0624811890129327  0.3731888103423062  0.5213887642902387
  0.6877147521346437  0.6248965430887662  0.6537868991773120
  0.1872698341329443  0.2850156624618191  0.2576053385577639
  0.9370418720845555  0.1222517473002222  0.5213983897542595
  0.3124643491546807  0.5411345794550833  0.6098264564506850
  0.0624281733746768  0.5367062209004799  0.3900252809275330
  0.5623406685613723  0.8685611642492267  0.3017219219495618
  0.3126618730818680  0.3748098132176144  0.6537894447803900
  0.8120710250685423  0.0347699226284525  0.2575866342079796
  0.5623276916665227  0.5348191624373002  0.2576769482103823
  0.9377975130631361  0.9603260250072742  0.8314175420110350
  0.5623528569401992  0.7025126503547335  0.3462346378428175
  0.6877685589260244  0.6224450377583199  0.5213503821370399
  0.4374059515721609  0.4593628902665084  0.6981817564265238
  0.8127931779524005  0.3726318469100066  0.5213540435047486
  0.0626051331317989  0.8764786102273369  0.7864395799442420
  0.0625279251393835  0.0351705552434710  0.1265787959369933
  0.8126429471280874  0.8765560735486203  0.7865498571869024
  0.6875547849532651  0.4592951909571587  0.6981433400583864
  0.6879513315932188  0.9551122328111389  0.4786415101252373
  0.0624402618771537  0.3681518024748412  0.1687197908954154
  0.3123991962690120  0.8684869192472452  0.3017237498530888
  0.5627913977876788  0.5430237897729432  0.7423687094657258
  0.1875610925302216  0.2908040329530450  0.6097744673621910
  0.5624797693923912  0.7015761092377929  0.2135050880074686
  0.6874642989236988  0.1252099978732744  0.6537626169639597
  0.0639491208327221  0.5428376002958145  0.8734243977428744
  0.8124306681363979  0.5427391331477046  0.7423031764419421
  0.1873779227082512  0.2932015580793224  0.7423198031753376
  0.4375649827334966  0.6222308055353367  0.5212975437397444
  0.5622785570838424  0.2102299234129013  0.8312986885521167
  0.9375083913260415  0.7930849663977377  0.8734769765500511
  0.1874054861876208  0.4591401982848314  0.6981895218662357
  0.6874159126579189  0.4524510920028951  0.3461799711516242
  0.5622012969723305  0.3712484456070417  0.4348118224948325
  0.4372105694554896  0.9596363270525202  0.8313906977788756
  0.0623286992680498  0.7055056638374290  0.4785633700886156
  0.9375462874262596  0.7852543627330357  0.1265714673649391
  0.1878296664412879  0.1224077027872778  0.5212771571942447
  0.0620833191991331  0.2069628095662628  0.5649503226148450
  0.0624236417246663  0.2014534987926349  0.2135263881678701
  0.1877885061824379  0.1251771525152494  0.6537134509667497
  0.8124399693654797  0.2068824562182238  0.5653030444323230
  0.4381252181000250  0.6209574202473025  0.4347539606231539
  0.8124323031672857  0.8711959317606522  0.4348973990780847
  0.3122460445875604  0.5368686457242612  0.3900652081191325
  0.4378285883369768  0.7869465293036662  0.3901517268272109
  0.3134368221592173  0.8709635287970486  0.4348626380248523
  0.8125289036724359  0.3680645305963948  0.1687493403732556
  0.8131875074256816  0.2107798330380440  0.8314249774938635
  0.8126796744181665  0.3751262423210281  0.6537402754894507
  0.9369108305511678  0.1211510471803898  0.4348876593346073
  0.9374457720149816  0.4514574002177545  0.2134719147059211
  0.5625633275151862  0.5350918900128244  0.1265816251238279
  0.4370359188280065  0.9553186159163025  0.4785330651682180
  0.6874345998693033  0.6268213140186115  0.7864622697798710
  0.9372564108837561  0.2849672139820845  0.2576404235488053
  0.3124253202207397  0.3680554733423171  0.1687542627979126
  0.6874111412017493  0.6181876701090228  0.1687384044829654
  0.3129456939422979  0.5430200914075304  0.7422990152062078
  0.0624024744985965  0.8758143046932977  0.6538006744781157
  0.6875244092065576  0.7932462343729646  0.7424019158620619
  0.1874553861922286  0.6225700411836715  0.5212815511298088
  0.6873436548591930  0.2866252994950846  0.3900919097453992
  0.5630240668599835  0.0432049529411100  0.7424541681618704
  0.1874668042622001  0.9515918944018498  0.2134854100591914
  0.3128594580973439  0.7024641660570365  0.3461596221671458
  0.9376318176930086  0.7925577195963245  0.7423217222541221
  0.6874152109523481  0.1186059476008128  0.3017644041568135
  0.5631712805930646  0.5421461990626572  0.8736933228732215
  0.0626032239559640  0.5408436897837903  0.6097629294693324
  0.4373084618221345  0.7935711773766980  0.8734673361389249
  0.9374301138711787  0.6180652818511536  0.1687620186532298
  0.1874731780434918  0.9591525482348412  0.6982277912135273
  0.0623512674525503  0.0365704294281827  0.3900520720611691
  0.1872775514605775  0.7850040904357543  0.2575759171437329
  0.6873595174610669  0.9591162447506618  0.6981834199011921
  0.3123614161229516  0.5347883999073507  0.2575741843188432
  0.4373954164692506  0.9516436217810776  0.2135198311761097
  0.3129736533391423  0.0428617349617492  0.7424102877843735
  0.8130403016872340  0.3710371253157443  0.4348724375150354
  0.8125359997538899  0.5351897562519147  0.1265808256592206
  0.0625203240914440  0.7088840531842698  0.6982000518013398
  0.1882440033176966  0.2933181413871307  0.8734893776091732
  0.6874309167081791  0.1180934945385104  0.1687616190339461
  0.6875491244808873  0.2851902884689336  0.1265819041124195
  0.5624177749181446  0.5365856751039827  0.3901285550869550
  0.3125124324681341  0.7015651441562052  0.2135214683781341
  0.5628468786833196  0.2068073746421492  0.5651909175536568
  0.6873218491387154  0.7924359396380478  0.8735201174787188
  0.5626327679565064  0.7096155292748324  0.6982521648247615
  0.6873443907907434  0.4561545116548054  0.5651520580748621
  0.3119785961221477  0.7094160322936154  0.6981314332720485
  0.4377790450524566  0.6258860998601058  0.7865857156078029
  0.4371888671305774  0.7846765134546316  0.2575851784525297
  0.9371047863626166  0.6267955033720434  0.7863676964385737
  0.8129122077399105  0.7088953167388653  0.6981209194280760
  0.8125211220417830  0.8724365967755919  0.5213829395894398
  0.1875103426800135  0.1186718619999593  0.3017661756620710
  0.6873074060032103  0.2849858630381785  0.2575702081247109
  0.6875394006261146  0.1227076349928287  0.5214064913531918
  0.1875003001208505  0.2851436497471506  0.1265664740868801
  0.9373946567193933  0.1181004417971616  0.1687529693724374
  0.9376337973556157  0.6254320699101820  0.6537335598698908
  0.1872236361583413  0.7908910904919040  0.6097269448179404
  0.3127061390009536  0.3711791539125218  0.4348603559280628
  0.5623558993250825  0.8727502483246654  0.5213389442910252
  0.9378846685652238  0.2864656350426520  0.3901503585378020
  0.5623021961620871  0.3760283445947883  0.7863912886242225
  0.8124083344062060  0.5408701753710858  0.6097815199926978
  0.4375951750528084  0.2927508387694637  0.8735114412069948
  0.8123044725184556  0.2094877258464737  0.6982078813593604
  0.8125003144257917  0.0411782996484901  0.6098690280336249
  0.4376808430128016  0.6251412580308248  0.6537837035355593
  0.6864695576625839  0.2934796880151740  0.8736628317866888
  0.0625174672185462  0.0430050615124616  0.7423037693597053
  0.4372464247666926  0.2911825694590235  0.6098035336150824
  0.6874219423769671  0.1263921497326069  0.7864480380649721
  0.5624047999348866  0.0369043600321251  0.3900744762201455
  0.1878877265417251  0.7929948335070308  0.7423314046348748
  0.4372092514896537  0.4549171326394054  0.4785220052846211
  0.3122417177368007  0.3762172126548095  0.7864456022710267
  0.3117638148282028  0.5425192249543204  0.8735000861014558
  0.4375796893915059  0.2851576957772725  0.1265816217089525
  0.8123614961336616  0.0429233509988426  0.7423833302583721
  0.3124983067447613  0.3727635743511045  0.5215119157498990
  0.0622958958286789  0.5352439529134418  0.2575491592851399
  0.9377487065888394  0.1254005651617334  0.6538846463099545
  0.4376681807221198  0.7932132502298553  0.7423906984748945
  0.6870645313009981  0.9602374600448345  0.8313260265062389
  0.1873374159575005  0.2870596426735666  0.3901764059756953
  0.1874661740005482  0.6180249015100503  0.1686883418228526
  0.6876884559665123  0.6207805495558363  0.4348874116863654
  0.0624217139873343  0.3687252028621748  0.3016890231664901
  0.9374617565994614  0.6188905082638747  0.3017291771271939
  0.8118249174738453  0.7099758766880335  0.8314196494601448
  0.8126180249955959  0.8687100253671688  0.3017719030253657
  0.4375681342965015  0.1181035360200680  0.1687681243019377
  0.0620948753154301  0.3707355732852488  0.4348188655019018
  0.6877514357725945  0.1210817507626763  0.4348588211776618
  0.3127129287652956  0.2090390636776706  0.6981225230514425
  0.4375213133577837  0.6180528288762251  0.1687858249386004
  0.1876197270931564  0.4532522661799817  0.3461347678383525
  0.4376576924540831  0.2929466605261462  0.7422746261754865
  0.3125159862739454  0.2015037064080738  0.2134941605660223
  0.6874277455711868  0.7908939824560512  0.6097837205045626
  0.1875197257229442  0.6186471897748854  0.3017537313141256
  0.3124376589337108  0.3684679756782564  0.3017251248952991
  0.4378933359978630  0.1213896719452882  0.4349521364214224
  0.3122356648923426  0.8763791627152762  0.7865305191258234
  0.4378216799225001  0.7910216946041987  0.6098437131182338
  0.3124442481439452  0.2092506899785747  0.8312477641473154
  0.5630020420311800  0.7098492808529817  0.8313129755789339
  0.3123911406621224  0.8680531145585174  0.1687741907369259
  0.8126252497739901  0.3687495329840357  0.3018044250590879
  0.8126423427577534  0.8753537774834736  0.6537820400491273
  0.5623814785910651  0.2023365831798670  0.3462718878413631
  0.9377901399244700  0.4565765394227964  0.5652472880012523
  0.0623912517553111  0.0411322683508010  0.6099222605957426
  0.9373893423463006  0.7913142784263437  0.6097433518088970
  0.4373855970860768  0.2870985678998891  0.3900960506801400
  0.1874114526640821  0.9547810729674793  0.4785171820965529
  0.8125974819507076  0.7053609776940181  0.4785671081332480
  0.5624437157712049  0.0406634150024889  0.6098272674415114
  0.9374159068428261  0.9515382205358858  0.2134484601477843
  0.3124028018040995  0.0348317689210532  0.2575876475131654
  0.1878501857211690  0.9594973478155360  0.8311768538335113
  0.0624427131313472  0.8688149679041486  0.3017362031234823
  0.9373177781952526  0.4552793457154965  0.4785756433259702
  0.8116696490006926  0.2025442407682492  0.3461777061085901
  0.9377247429411624  0.2930462099935777  0.7423660752060940
  0.3117892507950626  0.0426296790901969  0.8734885936116404
  0.4377303346298182  0.1224054564265255  0.5214099494461965
  0.4373332305323172  0.2847101116012368  0.2576564145169465
  0.6880511963061102  0.2931283806568398  0.7423070167679841
  0.1875341279757674  0.4567609790391017  0.5651907625287419
  0.0619610991615444  0.2094748158907671  0.8314817462591872
  0.1875779426499271  0.9530523438598801  0.3461219073503746
  0.4373892883912939  0.4594663627337747  0.8312687260259243
  0.1871638874435317  0.4598682220490414  0.8313930467495554
  0.1875006618358340  0.6252629570830753  0.6537893964453504
  0.8124090250563440  0.2015203744617647  0.2134877417426217
  0.5623697870769623  0.0347340677896252  0.2576435418656630
  0.8121800141395227  0.5349369031362676  0.2576001480665495
  0.3126652471673795  0.2055103609304058  0.4786191675530965
  0.3127189465339486  0.8728790956643036  0.5214279151066892
  0.0624777708964831  0.8681657766516930  0.1687299621542642
  0.3125231316599229  0.0351914110126687  0.1265779758584229
  0.4375141345553610  0.7852428715557770  0.1265887739377822
  0.3125303697109157  0.0407677319421765  0.6097700527548759
  0.4374424056394738  0.4565239458342038  0.5653077238544644
  0.5621840042879410  0.0420532841685822  0.8734503192159374
  0.1874534410200106  0.4514838159848220  0.2134765613651051
  0.9373743843360783  0.7867978659077975  0.3900537472862701
  0.8127516566522373  0.7069045706325199  0.5653204823683212
  0.5624523364612395  0.5412831539322466  0.6098367994124883
  0.3129264938515153  0.2027712818734752  0.3461939199141346
  0.9374414869657333  0.7848710034079053  0.2575479385668373
  0.9376181662599226  0.9592186524913048  0.6981518205396644
  0.9372784365385771  0.1188118132669881  0.3017523521081221
  0.1875072870612248  0.7852578788116731  0.1265664158444062
  0.3123621673192051  0.0370285738507525  0.3901213334326780
  0.1875354380289866  0.6210528810412548  0.4348524316751136
  0.6874630583656662  0.9525780021376532  0.3463140221485542
  0.5624772791955661  0.8762923066186523  0.7863549436017941
  0.1882232372087497  0.1206808541279328  0.4346246890774633
  0.6876001092778852  0.9570853589023939  0.5653258384934960
  0.9375601455572254  0.2927999854201028  0.8733047219983567
  0.0631391586669319  0.5429871318554623  0.7426151533908826
  0.0623490848417557  0.2029874860665805  0.3462879258604770
  0.0624420589810519  0.2051350828234041  0.4787390064078445
  0.9372093711505137  0.4589577196339502  0.6980595596024035
  0.6880302685259660  0.4597708971664932  0.8320375644813383
  0.0623913797293528  0.7024134045723044  0.3462848142985337
  0.4374404923066360  0.9591588546624060  0.6981323690851617
  0.3124611952283520  0.7065769654606384  0.5652674053531728
  0.5626878994846445  0.7051094986953661  0.4786083603406600
 
  0.00000000E+00  0.00000000E+00  0.00000000E+00
  0.00000000E+00  0.00000000E+00  0.00000000E+00
  0.00000000E+00  0.00000000E+00  0.00000000E+00
  0.00000000E+00  0.00000000E+00  0.00000000E+00
  0.00000000E+00  0.00000000E+00  0.00000000E+00
  0.00000000E+00  0.00000000E+00  0.00000000E+00
  0.00000000E+00  0.00000000E+00  0.00000000E+00
  0.00000000E+00  0.00000000E+00  0.00000000E+00
  0.00000000E+00  0.00000000E+00  0.00000000E+00
  0.00000000E+00  0.00000000E+00  0.00000000E+00
  0.00000000E+00  0.00000000E+00  0.00000000E+00
  0.00000000E+00  0.00000000E+00  0.00000000E+00
  0.00000000E+00  0.00000000E+00  0.00000000E+00
  0.00000000E+00  0.00000000E+00  0.00000000E+00
  0.00000000E+00  0.00000000E+00  0.00000000E+00
  0.00000000E+00  0.00000000E+00  0.00000000E+00
  0.00000000E+00  0.00000000E+00  0.00000000E+00
  0.00000000E+00  0.00000000E+00  0.00000000E+00
  0.00000000E+00  0.00000000E+00  0.00000000E+00
  0.00000000E+00  0.00000000E+00  0.00000000E+00
  0.00000000E+00  0.00000000E+00  0.00000000E+00
  0.00000000E+00  0.00000000E+00  0.00000000E+00
  0.00000000E+00  0.00000000E+00  0.00000000E+00
  0.00000000E+00  0.00000000E+00  0.00000000E+00
  0.00000000E+00  0.00000000E+00  0.00000000E+00
  0.00000000E+00  0.00000000E+00  0.00000000E+00
  0.00000000E+00  0.00000000E+00  0.00000000E+00
  0.00000000E+00  0.00000000E+00  0.00000000E+00
  0.00000000E+00  0.00000000E+00  0.00000000E+00
  0.00000000E+00  0.00000000E+00  0.00000000E+00
  0.00000000E+00  0.00000000E+00  0.00000000E+00
  0.00000000E+00  0.00000000E+00  0.00000000E+00
  0.00000000E+00  0.00000000E+00  0.00000000E+00
  0.00000000E+00  0.00000000E+00  0.00000000E+00
  0.00000000E+00  0.00000000E+00  0.00000000E+00
  0.00000000E+00  0.00000000E+00  0.00000000E+00
  0.00000000E+00  0.00000000E+00  0.00000000E+00
  0.00000000E+00  0.00000000E+00  0.00000000E+00
  0.00000000E+00  0.00000000E+00  0.00000000E+00
  0.00000000E+00  0.00000000E+00  0.00000000E+00
  0.00000000E+00  0.00000000E+00  0.00000000E+00
  0.00000000E+00  0.00000000E+00  0.00000000E+00
  0.00000000E+00  0.00000000E+00  0.00000000E+00
  0.00000000E+00  0.00000000E+00  0.00000000E+00
  0.00000000E+00  0.00000000E+00  0.00000000E+00
  0.00000000E+00  0.00000000E+00  0.00000000E+00
  0.00000000E+00  0.00000000E+00  0.00000000E+00
  0.00000000E+00  0.00000000E+00  0.00000000E+00
  0.00000000E+00  0.00000000E+00  0.00000000E+00
  0.00000000E+00  0.00000000E+00  0.00000000E+00
  0.00000000E+00  0.00000000E+00  0.00000000E+00
  0.00000000E+00  0.00000000E+00  0.00000000E+00
  0.00000000E+00  0.00000000E+00  0.00000000E+00
  0.00000000E+00  0.00000000E+00  0.00000000E+00
  0.00000000E+00  0.00000000E+00  0.00000000E+00
  0.00000000E+00  0.00000000E+00  0.00000000E+00
  0.00000000E+00  0.00000000E+00  0.00000000E+00
  0.00000000E+00  0.00000000E+00  0.00000000E+00
  0.00000000E+00  0.00000000E+00  0.00000000E+00
  0.00000000E+00  0.00000000E+00  0.00000000E+00
  0.00000000E+00  0.00000000E+00  0.00000000E+00
  0.00000000E+00  0.00000000E+00  0.00000000E+00
  0.00000000E+00  0.00000000E+00  0.00000000E+00
  0.00000000E+00  0.00000000E+00  0.00000000E+00
  0.00000000E+00  0.00000000E+00  0.00000000E+00
  0.00000000E+00  0.00000000E+00  0.00000000E+00
  0.00000000E+00  0.00000000E+00  0.00000000E+00
  0.00000000E+00  0.00000000E+00  0.00000000E+00
  0.00000000E+00  0.00000000E+00  0.00000000E+00
  0.00000000E+00  0.00000000E+00  0.00000000E+00
  0.00000000E+00  0.00000000E+00  0.00000000E+00
  0.00000000E+00  0.00000000E+00  0.00000000E+00
  0.00000000E+00  0.00000000E+00  0.00000000E+00
  0.00000000E+00  0.00000000E+00  0.00000000E+00
  0.00000000E+00  0.00000000E+00  0.00000000E+00
  0.00000000E+00  0.00000000E+00  0.00000000E+00
  0.00000000E+00  0.00000000E+00  0.00000000E+00
  0.00000000E+00  0.00000000E+00  0.00000000E+00
  0.00000000E+00  0.00000000E+00  0.00000000E+00
  0.00000000E+00  0.00000000E+00  0.00000000E+00
  0.00000000E+00  0.00000000E+00  0.00000000E+00
  0.00000000E+00  0.00000000E+00  0.00000000E+00
  0.00000000E+00  0.00000000E+00  0.00000000E+00
  0.00000000E+00  0.00000000E+00  0.00000000E+00
  0.00000000E+00  0.00000000E+00  0.00000000E+00
  0.00000000E+00  0.00000000E+00  0.00000000E+00
  0.00000000E+00  0.00000000E+00  0.00000000E+00
  0.00000000E+00  0.00000000E+00  0.00000000E+00
  0.00000000E+00  0.00000000E+00  0.00000000E+00
  0.00000000E+00  0.00000000E+00  0.00000000E+00
  0.00000000E+00  0.00000000E+00  0.00000000E+00
  0.00000000E+00  0.00000000E+00  0.00000000E+00
  0.00000000E+00  0.00000000E+00  0.00000000E+00
  0.00000000E+00  0.00000000E+00  0.00000000E+00
  0.00000000E+00  0.00000000E+00  0.00000000E+00
  0.00000000E+00  0.00000000E+00  0.00000000E+00
  0.00000000E+00  0.00000000E+00  0.00000000E+00
  0.00000000E+00  0.00000000E+00  0.00000000E+00
  0.00000000E+00  0.00000000E+00  0.00000000E+00
  0.00000000E+00  0.00000000E+00  0.00000000E+00
  0.00000000E+00  0.00000000E+00  0.00000000E+00
  0.00000000E+00  0.00000000E+00  0.00000000E+00
  0.00000000E+00  0.00000000E+00  0.00000000E+00
  0.00000000E+00  0.00000000E+00  0.00000000E+00
  0.00000000E+00  0.00000000E+00  0.00000000E+00
  0.00000000E+00  0.00000000E+00  0.00000000E+00
  0.00000000E+00  0.00000000E+00  0.00000000E+00
  0.00000000E+00  0.00000000E+00  0.00000000E+00
  0.00000000E+00  0.00000000E+00  0.00000000E+00
  0.00000000E+00  0.00000000E+00  0.00000000E+00
  0.00000000E+00  0.00000000E+00  0.00000000E+00
  0.00000000E+00  0.00000000E+00  0.00000000E+00
  0.00000000E+00  0.00000000E+00  0.00000000E+00
  0.00000000E+00  0.00000000E+00  0.00000000E+00
  0.00000000E+00  0.00000000E+00  0.00000000E+00
  0.00000000E+00  0.00000000E+00  0.00000000E+00
  0.00000000E+00  0.00000000E+00  0.00000000E+00
  0.00000000E+00  0.00000000E+00  0.00000000E+00
  0.00000000E+00  0.00000000E+00  0.00000000E+00
  0.00000000E+00  0.00000000E+00  0.00000000E+00
  0.00000000E+00  0.00000000E+00  0.00000000E+00
  0.00000000E+00  0.00000000E+00  0.00000000E+00
  0.00000000E+00  0.00000000E+00  0.00000000E+00
  0.00000000E+00  0.00000000E+00  0.00000000E+00
  0.00000000E+00  0.00000000E+00  0.00000000E+00
  0.00000000E+00  0.00000000E+00  0.00000000E+00
  0.00000000E+00  0.00000000E+00  0.00000000E+00
  0.00000000E+00  0.00000000E+00  0.00000000E+00
  0.00000000E+00  0.00000000E+00  0.00000000E+00
  0.00000000E+00  0.00000000E+00  0.00000000E+00
  0.00000000E+00  0.00000000E+00  0.00000000E+00
  0.00000000E+00  0.00000000E+00  0.00000000E+00
  0.00000000E+00  0.00000000E+00  0.00000000E+00
  0.00000000E+00  0.00000000E+00  0.00000000E+00
  0.00000000E+00  0.00000000E+00  0.00000000E+00
  0.00000000E+00  0.00000000E+00  0.00000000E+00
  0.00000000E+00  0.00000000E+00  0.00000000E+00
  0.00000000E+00  0.00000000E+00  0.00000000E+00
  0.00000000E+00  0.00000000E+00  0.00000000E+00
  0.00000000E+00  0.00000000E+00  0.00000000E+00
  0.00000000E+00  0.00000000E+00  0.00000000E+00
  0.00000000E+00  0.00000000E+00  0.00000000E+00
  0.00000000E+00  0.00000000E+00  0.00000000E+00
  0.00000000E+00  0.00000000E+00  0.00000000E+00
  0.00000000E+00  0.00000000E+00  0.00000000E+00
  0.00000000E+00  0.00000000E+00  0.00000000E+00
  0.00000000E+00  0.00000000E+00  0.00000000E+00
  0.00000000E+00  0.00000000E+00  0.00000000E+00
  0.00000000E+00  0.00000000E+00  0.00000000E+00
  0.00000000E+00  0.00000000E+00  0.00000000E+00
  0.00000000E+00  0.00000000E+00  0.00000000E+00
  0.00000000E+00  0.00000000E+00  0.00000000E+00
  0.00000000E+00  0.00000000E+00  0.00000000E+00
  0.00000000E+00  0.00000000E+00  0.00000000E+00
  0.00000000E+00  0.00000000E+00  0.00000000E+00
  0.00000000E+00  0.00000000E+00  0.00000000E+00
  0.00000000E+00  0.00000000E+00  0.00000000E+00
  0.00000000E+00  0.00000000E+00  0.00000000E+00
  0.00000000E+00  0.00000000E+00  0.00000000E+00
  0.00000000E+00  0.00000000E+00  0.00000000E+00
  0.00000000E+00  0.00000000E+00  0.00000000E+00
  0.00000000E+00  0.00000000E+00  0.00000000E+00
  0.00000000E+00  0.00000000E+00  0.00000000E+00
  0.00000000E+00  0.00000000E+00  0.00000000E+00
  0.00000000E+00  0.00000000E+00  0.00000000E+00
  0.00000000E+00  0.00000000E+00  0.00000000E+00
  0.00000000E+00  0.00000000E+00  0.00000000E+00
  0.00000000E+00  0.00000000E+00  0.00000000E+00
  0.00000000E+00  0.00000000E+00  0.00000000E+00
  0.00000000E+00  0.00000000E+00  0.00000000E+00
  0.00000000E+00  0.00000000E+00  0.00000000E+00
  0.00000000E+00  0.00000000E+00  0.00000000E+00
  0.00000000E+00  0.00000000E+00  0.00000000E+00
  0.00000000E+00  0.00000000E+00  0.00000000E+00
  0.00000000E+00  0.00000000E+00  0.00000000E+00
  0.00000000E+00  0.00000000E+00  0.00000000E+00
  0.00000000E+00  0.00000000E+00  0.00000000E+00
  0.00000000E+00  0.00000000E+00  0.00000000E+00
  0.00000000E+00  0.00000000E+00  0.00000000E+00
  0.00000000E+00  0.00000000E+00  0.00000000E+00
  0.00000000E+00  0.00000000E+00  0.00000000E+00
  0.00000000E+00  0.00000000E+00  0.00000000E+00
  0.00000000E+00  0.00000000E+00  0.00000000E+00
  0.00000000E+00  0.00000000E+00  0.00000000E+00
  0.00000000E+00  0.00000000E+00  0.00000000E+00
  0.00000000E+00  0.00000000E+00  0.00000000E+00
  0.00000000E+00  0.00000000E+00  0.00000000E+00
  0.00000000E+00  0.00000000E+00  0.00000000E+00
  0.00000000E+00  0.00000000E+00  0.00000000E+00
  0.00000000E+00  0.00000000E+00  0.00000000E+00
  0.00000000E+00  0.00000000E+00  0.00000000E+00
  0.00000000E+00  0.00000000E+00  0.00000000E+00
  0.00000000E+00  0.00000000E+00  0.00000000E+00
  0.00000000E+00  0.00000000E+00  0.00000000E+00
  0.00000000E+00  0.00000000E+00  0.00000000E+00
  0.00000000E+00  0.00000000E+00  0.00000000E+00
  0.00000000E+00  0.00000000E+00  0.00000000E+00
  0.00000000E+00  0.00000000E+00  0.00000000E+00
  0.00000000E+00  0.00000000E+00  0.00000000E+00
  0.00000000E+00  0.00000000E+00  0.00000000E+00
  0.00000000E+00  0.00000000E+00  0.00000000E+00
  0.00000000E+00  0.00000000E+00  0.00000000E+00
  0.00000000E+00  0.00000000E+00  0.00000000E+00
  0.00000000E+00  0.00000000E+00  0.00000000E+00
  0.00000000E+00  0.00000000E+00  0.00000000E+00
  0.00000000E+00  0.00000000E+00  0.00000000E+00
  0.00000000E+00  0.00000000E+00  0.00000000E+00
  0.00000000E+00  0.00000000E+00  0.00000000E+00
  0.00000000E+00  0.00000000E+00  0.00000000E+00
  0.00000000E+00  0.00000000E+00  0.00000000E+00
  0.00000000E+00  0.00000000E+00  0.00000000E+00
  0.00000000E+00  0.00000000E+00  0.00000000E+00
  0.00000000E+00  0.00000000E+00  0.00000000E+00
  0.00000000E+00  0.00000000E+00  0.00000000E+00
  0.00000000E+00  0.00000000E+00  0.00000000E+00
  0.00000000E+00  0.00000000E+00  0.00000000E+00
  0.00000000E+00  0.00000000E+00  0.00000000E+00
  0.00000000E+00  0.00000000E+00  0.00000000E+00
  0.00000000E+00  0.00000000E+00  0.00000000E+00
  0.00000000E+00  0.00000000E+00  0.00000000E+00
  0.00000000E+00  0.00000000E+00  0.00000000E+00
  0.00000000E+00  0.00000000E+00  0.00000000E+00
  0.00000000E+00  0.00000000E+00  0.00000000E+00
  0.00000000E+00  0.00000000E+00  0.00000000E+00
  0.00000000E+00  0.00000000E+00  0.00000000E+00
  0.00000000E+00  0.00000000E+00  0.00000000E+00
  0.00000000E+00  0.00000000E+00  0.00000000E+00
  0.00000000E+00  0.00000000E+00  0.00000000E+00
  0.00000000E+00  0.00000000E+00  0.00000000E+00
  0.00000000E+00  0.00000000E+00  0.00000000E+00
  0.00000000E+00  0.00000000E+00  0.00000000E+00
  0.00000000E+00  0.00000000E+00  0.00000000E+00
  0.00000000E+00  0.00000000E+00  0.00000000E+00
  0.00000000E+00  0.00000000E+00  0.00000000E+00
  0.00000000E+00  0.00000000E+00  0.00000000E+00
  0.00000000E+00  0.00000000E+00  0.00000000E+00
  0.00000000E+00  0.00000000E+00  0.00000000E+00
  0.00000000E+00  0.00000000E+00  0.00000000E+00
  0.00000000E+00  0.00000000E+00  0.00000000E+00
  0.00000000E+00  0.00000000E+00  0.00000000E+00
  0.00000000E+00  0.00000000E+00  0.00000000E+00
  0.00000000E+00  0.00000000E+00  0.00000000E+00
  0.00000000E+00  0.00000000E+00  0.00000000E+00
  0.00000000E+00  0.00000000E+00  0.00000000E+00
  0.00000000E+00  0.00000000E+00  0.00000000E+00
  0.00000000E+00  0.00000000E+00  0.00000000E+00
  0.00000000E+00  0.00000000E+00  0.00000000E+00