CuInSe2gb                               
   1.00000000000000     
     9.7266780392896699    0.0000000000000000    0.0000000000000000
     0.0000000000000000    8.4235502764570693    0.0000000000000000
     0.0000000000000000    0.0000000000000000   45.0000000000000000
   Fe   Mn
   274    14
Direct
  0.0605966470290196  0.0338141853882174  0.1245553107446265
  0.3137911361739185  0.8741431271732399  0.6548665123199909
  0.1868875970985772  0.1234013505900891  0.7880444400482737
  0.4399004018099796  0.2879848548255622  0.3893946706380619
  0.3146555893879106  0.7097677873872772  0.8330563575895404
  0.8159051158357425  0.2114078953655438  0.8333414153628713
  0.1888779366403222  0.9602623351886298  0.8334391703432426
  0.5618783039522477  0.2061119667620440  0.5657345607865250
  0.0632944460909683  0.0404569155934587  0.7439271978233409
  0.8112463769136661  0.8724900248095834  0.5216744025153347
  0.1886360050790258  0.2907752510573628  0.7439142736474474
  0.9370584829268316  0.4541336188970199  0.3451713301618225
  0.9390757141587511  0.2876761671284613  0.3893861045506586
  0.8131343014032295  0.0434642057856948  0.8751947037507899
  0.1857908187096973  0.7889846697054057  0.6105900584094082
  0.5644984049699050  0.0382230794087121  0.3894307368705851
  0.9410927045790197  0.9608666441733175  0.8334426031056890
  0.3133831570281540  0.5429464821421088  0.8753161741021448
  0.6887167750176755  0.2908498635964584  0.7438901894121372
  0.1845781984903596  0.6172335116078475  0.1666640861542303
  0.8120375558886015  0.2050736293562324  0.4784025846389745
  0.8106923076587383  0.5389325370299621  0.6106888572786646
  0.3123948474334573  0.8710260862202714  0.4343315178139847
  0.8119265412036029  0.0385252275602267  0.2561051085625045
  0.6871360489151850  0.9542325695836891  0.3451315196149614
  0.9334787639777851  0.1169375687516347  0.1667828761847337
  0.0621996986866390  0.8725025807489902  0.5215479789142808
  0.5616310162656857  0.5387006130374989  0.2561478330085216
  0.6875293645766503  0.7923133436710816  0.8752144086882280
  0.5586627695741370  0.3674830185851488  0.1664247617882111
  0.4389828279484187  0.7910336933369880  0.7439149404019892
  0.8117149146474082  0.7061794294740422  0.5657653018580332
  0.5624647582559045  0.8728446868530441  0.7880574105965436
  0.6864312820544972  0.1221672188865151  0.5216509744005193
  0.8135239103866586  0.3740143633078679  0.6549539991489169
  0.9405645001940398  0.4611974848861253  0.8333499838175896
  0.0616731736689406  0.2076439670353761  0.6995199251195655
  0.4370744825411200  0.9572524631426541  0.6995152402085524
  0.3144749485894920  0.2099309092883505  0.8335124295138675
  0.4388545066896080  0.6237185608282382  0.6549106209571652
  0.3109926049759738  0.5391264660595437  0.6106466423687545
  0.9366794551613917  0.4556466606301256  0.5658110961016087
  0.6888725521007443  0.7907991213720192  0.7439235870085933
  0.9336225705029793  0.7848392601191869  0.1248545166805830
  0.6901280597559851  0.7876580942133593  0.3893793994715961
  0.9386842398284212  0.7904009839089763  0.7439875648991582
  0.0621922139859743  0.2047293563309727  0.3451458845925770
  0.6873033807288839  0.4539963146247075  0.3451232251887712
  0.4369245696005655  0.1235490027828478  0.7881786890087276
  0.0627287863358025  0.2041815345900879  0.2116604380429878
  0.0575095567143230  0.3667905700709537  0.1665032892272999
  0.9365374104139975  0.7886199518675849  0.2560177405954142
  0.5619776734886435  0.2075829580504145  0.6995433499242071
  0.6867979899570330  0.9570556689311772  0.6995947160173858
  0.8116912408471071  0.8732373336472316  0.7880370371742287
  0.4369555838161892  0.9561268881505347  0.5657484478397619
  0.8119978660642795  0.3741307800260998  0.7880490630450351
  0.6868988506736113  0.2884308456080572  0.2562602797488198
  0.1867291797231626  0.4560374434147884  0.5657662144455902
  0.0586896086567522  0.8678629822181172  0.1665165796886963
  0.1860164205217825  0.2892947814659622  0.6107335355449324
  0.0616155433425857  0.2059916389954510  0.5657502197951980
  0.3122967365839998  0.2076278808650470  0.6995882508065939
  0.5649207093240798  0.5436215144831767  0.8752128333202495
  0.0617173829984141  0.7059821101938117  0.5657588975655196
  0.6869584458238998  0.6234491811603919  0.7880355630407163
  0.3140897660271404  0.5377721564535739  0.3894412444177116
  0.1871775480877805  0.6226015779583169  0.5216425885213620
  0.5625808006520949  0.8715041434941437  0.4342643196682343
  0.4369141157500767  0.4561078062537572  0.5657466637450592
  0.4391499340615521  0.2912642408072111  0.7438520335478040
  0.8153185771047432  0.8732974390175552  0.3003800664827265
  0.8120472245903958  0.7034197783090265  0.3452232053541700
  0.4402763927114248  0.4603573890187925  0.8333589211805883
  0.6877158633527340  0.9549189471487174  0.4783645843850724
  0.6869272259627588  0.4572678314280208  0.6995899189368824
  0.5620222726109916  0.8722491551340181  0.5216128660028841
  0.5640121231173389  0.3737800935012653  0.6548390103459212
  0.8134662365931913  0.8737800394908359  0.6549320467576024
  0.8122435043094852  0.3709898446849029  0.4341140825969525
  0.8118001789512994  0.5380032847664297  0.2562195624940591
  0.6907187288351611  0.4607271439688462  0.8332421025052428
  0.1851171172550629  0.7848683549700103  0.1244240444812496
  0.6896541122801493  0.2876928658358445  0.3893590116226719
  0.3136554586257665  0.3739658043493218  0.6548553788090449
  0.3122357679960924  0.2042910194203524  0.3451723655618367
  0.8136820073878898  0.5405496489953109  0.7438288501598520
  0.6906603626639458  0.9601790938203550  0.8332763426694266
  0.5637435454828514  0.8739298214939888  0.6549288134949319
  0.3117864877256262  0.7061966185544287  0.5657380345837985
  0.3101199194803187  0.5343904028811067  0.1245046137296069
  0.6881294811009192  0.9543120304916108  0.2119019429062043
  0.3118410180974533  0.2063988038972613  0.5657177431100114
  0.1870881822630024  0.9549150069816933  0.4783448835202432
  0.6870142036468180  0.9562521289705648  0.5658032764104420
  0.4359430479394180  0.7890398251813363  0.6106097526703453
  0.6831493265922061  0.6154930903059712  0.1667130630388308
  0.3152190878855939  0.8725081627885297  0.3004847784423759
  0.3120309892300047  0.7047625118416230  0.4782814866862404
  0.9358128685612660  0.2889107566366049  0.6106522528446642
  0.4405976791260641  0.6225509646266609  0.3005999662966984
  0.8082929031838725  0.8665735876558662  0.1667316415976427
  0.5641264355892082  0.2037384051409173  0.2120444615928087
  0.9345124901791536  0.6159256638009880  0.1667954213853675
  0.4372165055239843  0.9548090910960191  0.4784213234427669
  0.5623221395533118  0.3735763736114706  0.7881251858196776
  0.0617194914809821  0.3726668465141980  0.5216035115383373
  0.3081011030762033  0.3658582916626582  0.1664521846889565
  0.6905280894120640  0.1232678345018332  0.3005523108918675
  0.4407439859513163  0.9595282637588947  0.8332695962766131
  0.1849748822157946  0.2837114663337298  0.1246290630451962
  0.1866765054485517  0.2877668086233968  0.2561463709553189
  0.3124809311641062  0.3711443671944223  0.4342781985261876
  0.5613979271835053  0.0338744588800283  0.1246622179956070
  0.4360642786148488  0.2892130322716542  0.6106354347999243
  0.1870863114938924  0.4541886033671950  0.3452526638010922
  0.4328666807693382  0.2836718558123034  0.1246783142646062
  0.6867738991013678  0.7885544248950633  0.2562228907200561
  0.4369777090082269  0.1227172959192650  0.5216023645021965
  0.1890854993081958  0.2927972963153155  0.8755770969308396
  0.1886427244583289  0.1242999632071200  0.6549486748446377
  0.9385553884812439  0.1240114088437236  0.6548820080448682
  0.8146667268524259  0.5375632567636055  0.3893962413330013
  0.0642206151332631  0.0382544504949300  0.3894851493991574
  0.1835070181609147  0.1159959331036886  0.1665969439666604
  0.0608492074975608  0.5390069455533468  0.6106279543861319
  0.9366585232089900  0.2881840938046742  0.2561353210829652
  0.5609527927716479  0.5390751769300832  0.6106288482424869
  0.9368019576719181  0.9557575125865192  0.5657843539292569
  0.6906210075001203  0.6233857068773909  0.3006441370674269
  0.9377933068747927  0.6213867593796053  0.4341759535419852
  0.9365245494740801  0.6246751187299201  0.7880896786080440
  0.5617410112962925  0.7067338500655359  0.6995480116555484
  0.0641407060275395  0.7114629780425594  0.8333700430006296
  0.9402819743572884  0.1233836905294153  0.3004599282382034
  0.9357512687407014  0.7887990048647070  0.6106880728624156
  0.4366181874055758  0.7883500737928146  0.2562286387671568
  0.3117880889034514  0.3729752234300505  0.7881230207546907
  0.4385580669402581  0.4547148006785884  0.2119227458718126
  0.1870581792155141  0.1221916013116384  0.5216250134934527
  0.8117031240674935  0.7069769228087494  0.6995980736771420
  0.0606461593527653  0.0392648280740611  0.6105740336343017
  0.5649311009551617  0.2103812101890097  0.8331101996358518
  0.3117306379013147  0.8721382554749215  0.5216696053470398
  0.6861479971245308  0.2834402020416482  0.1246157329576455
  0.1874292769872918  0.9555998588090940  0.2119062683016796
  0.6856536617069597  0.2893166945863654  0.6107569480828007
  0.3108555623946732  0.0389914807481357  0.6106649575193109
  0.9367607589398276  0.1247031125560164  0.7881169163959300
  0.4378532327886068  0.7910900536212284  0.8752253762419898
  0.8136856288923177  0.0408355185081511  0.7438629383824957
  0.9365866589427533  0.4573209079065616  0.6995506789165761
  0.1887045227026125  0.6238673415094437  0.6548864084475675
  0.3120867535347694  0.7072169409599024  0.6995306203114837
  0.9343319137092014  0.2833889836247067  0.1245915267937648
  0.4372984567822908  0.4545973854621621  0.4783498374821691
  0.0621748837592780  0.7044374397395478  0.4782909041893398
  0.9372973817061777  0.1207644146065315  0.4344911121271757
  0.4405935159936185  0.1230743047320746  0.3005534836013702
  0.1874470069883465  0.1205020072420667  0.4341022988572678
  0.5650690209450272  0.0427895877067846  0.8751894595175544
  0.1864062703898890  0.9560630488052813  0.5658072761546449
  0.6856343097097723  0.7852230456573620  0.1249161169890376
  0.5624057679962976  0.7037602707894145  0.3452167951881415
  0.3141922870967934  0.0378136740595665  0.3894750659679255
  0.6848333642506106  0.1164744336621993  0.1668608470547217
  0.8138397555080340  0.2039767507744437  0.2118635898615655
  0.0615824197639588  0.5385649038068534  0.2560308322396435
  0.5623736498794415  0.7047570769013040  0.4783286650044168
  0.4339795522718997  0.7849717763081276  0.1245488537112351
  0.5654682218974153  0.3729646022250248  0.3006212181183963
  0.4371755135546680  0.9540426658915336  0.3452068954443560
  0.1869677228364824  0.9574168158514658  0.6996092087389869
  0.4337805202665575  0.6166574651426724  0.1667292175717074
  0.9384968529814373  0.4546586827899809  0.2120512955470705
  0.0603933752816081  0.5328083533649373  0.1245832714711670
  0.8116728297591591  0.3725250248934524  0.5216230739273915
  0.9404346598903632  0.6234532722915825  0.3003992917889674
  0.3114581520854771  0.0384961469905140  0.2560517399263212
  0.6859679305274584  0.7890436794735800  0.6106503047270273
  0.1898215059649487  0.4609248652807384  0.8334206360643800
  0.4339176067918635  0.1156399254085933  0.1667363788444199
  0.3118015592191142  0.3725889933212608  0.5216298631591335
  0.4372383957819408  0.6236040158544226  0.7882337798940525
  0.0612635071954482  0.0384409602075183  0.2560453764864253
  0.5617683884714609  0.7060878249854545  0.5657426791739176
  0.9386069102016819  0.2905359021126419  0.7439326007645013
  0.6869335148582825  0.1237064859690139  0.7879663458274506
  0.1871748039130864  0.4549148910089310  0.2118407940833220
  0.9390172254279318  0.7873942377238211  0.3894732802876042
  0.6880941706450465  0.2936031287158301  0.8753755415635925
  0.5575473043173207  0.8667809247283559  0.1666002230005578
  0.4372631312240298  0.4572194324612606  0.6995595830547817
  0.9373706270842956  0.9541022356399085  0.3452218339849887
  0.6864437509858008  0.6223111181901820  0.5215855456767228
  0.0636027072802650  0.8738766396301909  0.6548927935016441
  0.0618950919258457  0.8731517628496307  0.7881740097543282
  0.0633638913372013  0.3739353326860385  0.6548863206228652
  0.6873063252853157  0.4544987751291077  0.4782844829722250
  0.1865957854500486  0.7885113514399207  0.2561504143025291
  0.4373551043767297  0.1211052694157401  0.4343259602634558
  0.8111637784782015  0.0343344015732735  0.1247046058228985
  0.9366216885622530  0.6223503527330256  0.5215983541394502
  0.4390122882644875  0.1240827200836889  0.6549094801161585
  0.8121108463838708  0.5339498771605116  0.1243835831840377
  0.4375011385917313  0.4540642591262589  0.3451615501059632
  0.8121996512525758  0.2039925773515138  0.3451877503641331
  0.3123726944020412  0.7039739717536175  0.3451310645625713
  0.6885585695796723  0.1240532969696173  0.6549261773953162
  0.5655173104438733  0.8729263156004855  0.3005423132437830
  0.0630459418843279  0.5402427565296684  0.7438680052567451
  0.9384055824929202  0.9549659251758225  0.2118307091693346
  0.8139206049801692  0.7042506639954408  0.2119381428951780
  0.0652555361305524  0.8730108778791191  0.3005440795203709
  0.1903489444240150  0.1234441169419531  0.3004112855784116
  0.0619774759835928  0.7039046447561014  0.3452002143420009
  0.8110077373023976  0.0391482123778210  0.6106103259408552
  0.0624069587629759  0.3712188443880046  0.4341211588686698
  0.5624580626699690  0.2040402346146219  0.3451657481738261
  0.8153841017385346  0.3733246438021350  0.3004337894532541
  0.5620083316961939  0.0388502068987375  0.2561825950033574
  0.5642805374019093  0.5374666258469725  0.3893219312821812
  0.0623330508760492  0.2045966668197222  0.4783661475295363
  0.3122272727583168  0.8722371251934943  0.7879035236060263
  0.9365840591302343  0.9572477566404664  0.6995246871108676
  0.0652639370517564  0.3733079069803758  0.3006197141123264
  0.6886182935993865  0.6238482269633080  0.6549639825541634
  0.6866950931704225  0.4559597500773630  0.5657537101546781
  0.4384337997835665  0.9547827961042483  0.2120666480380008
  0.3121012551140217  0.2046473968676830  0.4783407340740969
  0.8135144444961059  0.5428478410784602  0.8752397798755605
  0.6881283130125769  0.6208666816188304  0.4341861112124846
  0.8117320839370926  0.2075839597452561  0.6995563555171336
  0.8124478892580933  0.7049365391357003  0.4782627305994096
  0.8124050102410012  0.8710768214408123  0.4342092764114001
  0.9371572793136853  0.9544716602039022  0.4783537647753537
  0.5624578582693552  0.2046869936751371  0.4783857208375851
  0.1873348439962736  0.6211343941719875  0.4342490176440209
  0.3137513298321846  0.0410570570536623  0.7438899065809880
  0.9384772983622285  0.6238761852044377  0.6549260314516755
  0.5652122588177020  0.7099976161431985  0.8331066066694681
  0.3153343050243443  0.3728466693238317  0.3005657151459480
  0.5637055392298042  0.7043934597748401  0.2118438057539008
  0.1871896544364119  0.4547324589540638  0.4783451213628854
  0.3143965984133244  0.0440307106618966  0.8752584185791201
  0.1866191427763137  0.4573462886126463  0.6995180957510514
  0.5619885022000362  0.3725412988693158  0.5216079086946500
  0.1887553880792652  0.2878012374799435  0.3894755436335811
  0.4369434788568639  0.6209498723836204  0.4342650585587423
  0.0634102207193503  0.7042918637325293  0.2117850078201878
  0.5626186111595857  0.3708793371428021  0.4343367306744709
  0.4368464561321234  0.6224524354092567  0.5216065034544130
  0.8152288989456729  0.7108796146484837  0.8329445385079183
  0.0621242682713107  0.3745276778535964  0.7881156115446021
  0.4375777099071642  0.2933790245389083  0.8754298493255612
  0.3102642201993924  0.0346155877786563  0.1242047463722342
  0.6879183323284396  0.1213504809565444  0.4342361859548285
  0.1868460433172986  0.9540203802006131  0.3452253476273459
  0.0644611552501184  0.2109847794952401  0.8333632948752205
  0.5610788843075065  0.0392090225370957  0.6106396075541840
  0.6878804204441250  0.4544764100534642  0.2119609139785323
  0.1885305904574764  0.7905739171841281  0.7439043221631622
  0.1902436153427241  0.6228221801468081  0.3004596072091383
  0.4396021217296059  0.7873772949048391  0.3894181090721474
  0.4363963202376929  0.2882958012164788  0.2561559868522103
  0.0655493461396703  0.5425874802105501  0.8753759304818596
  0.5644828688059338  0.0411120916675553  0.7439321976233557
  0.1884284704868215  0.7918069648918775  0.8754795127805794
  0.9370193671391384  0.4543163382237586  0.4783114366475923
  0.5644870506286289  0.5408928384783955  0.7438156556294824
  0.8115764547514288  0.2062532793403461  0.5657443548006511
  0.1868416535521728  0.6235980827960069  0.7881299088548982
  0.0646715929628335  0.5381327064741684  0.3895140324453688
  0.0618635325630779  0.7070734216508896  0.6995623752512506
  0.3109592316610988  0.5379565990308066  0.2558997429868835
  0.3135829652162087  0.7045738739565446  0.2121348944410058
  0.3072029589606445  0.8673013936499867  0.1661140584372949
  0.3134808268877470  0.2048615832914309  0.2120303585128887
  0.8156345273656318  0.0379799212542233  0.3894383404803226
  0.9368914885335550  0.2941313166645873  0.8753077154732546
  0.9380785340486898  0.7900273703273292  0.8751303052614052
  0.0654322563247905  0.0419895764502644  0.8752016888469457
  0.5617489516268745  0.5332430977341616  0.1248837216891627
  0.8077616543795630  0.3668131946546225  0.1661092894452638
  0.0616640466623004  0.8712702451039651  0.4341907504083072
  0.9366858157131340  0.1226415219895673  0.5215002986402808
  0.1894213675293021  0.7869135167570790  0.3893093372080015
  0.3142044983219138  0.5406671557472973  0.7440009250367888
 
  0.00000000E+00  0.00000000E+00  0.00000000E+00
  0.00000000E+00  0.00000000E+00  0.00000000E+00
  0.00000000E+00  0.00000000E+00  0.00000000E+00
  0.00000000E+00  0.00000000E+00  0.00000000E+00
  0.00000000E+00  0.00000000E+00  0.00000000E+00
  0.00000000E+00  0.00000000E+00  0.00000000E+00
  0.00000000E+00  0.00000000E+00  0.00000000E+00
  0.00000000E+00  0.00000000E+00  0.00000000E+00
  0.00000000E+00  0.00000000E+00  0.00000000E+00
  0.00000000E+00  0.00000000E+00  0.00000000E+00
  0.00000000E+00  0.00000000E+00  0.00000000E+00
  0.00000000E+00  0.00000000E+00  0.00000000E+00
  0.00000000E+00  0.00000000E+00  0.00000000E+00
  0.00000000E+00  0.00000000E+00  0.00000000E+00
  0.00000000E+00  0.00000000E+00  0.00000000E+00
  0.00000000E+00  0.00000000E+00  0.00000000E+00
  0.00000000E+00  0.00000000E+00  0.00000000E+00
  0.00000000E+00  0.00000000E+00  0.00000000E+00
  0.00000000E+00  0.00000000E+00  0.00000000E+00
  0.00000000E+00  0.00000000E+00  0.00000000E+00
  0.00000000E+00  0.00000000E+00  0.00000000E+00
  0.00000000E+00  0.00000000E+00  0.00000000E+00
  0.00000000E+00  0.00000000E+00  0.00000000E+00
  0.00000000E+00  0.00000000E+00  0.00000000E+00
  0.00000000E+00  0.00000000E+00  0.00000000E+00
  0.00000000E+00  0.00000000E+00  0.00000000E+00
  0.00000000E+00  0.00000000E+00  0.00000000E+00
  0.00000000E+00  0.00000000E+00  0.00000000E+00
  0.00000000E+00  0.00000000E+00  0.00000000E+00
  0.00000000E+00  0.00000000E+00  0.00000000E+00
  0.00000000E+00  0.00000000E+00  0.00000000E+00
  0.00000000E+00  0.00000000E+00  0.00000000E+00
  0.00000000E+00  0.00000000E+00  0.00000000E+00
  0.00000000E+00  0.00000000E+00  0.00000000E+00
  0.00000000E+00  0.00000000E+00  0.00000000E+00
  0.00000000E+00  0.00000000E+00  0.00000000E+00
  0.00000000E+00  0.00000000E+00  0.00000000E+00
  0.00000000E+00  0.00000000E+00  0.00000000E+00
  0.00000000E+00  0.00000000E+00  0.00000000E+00
  0.00000000E+00  0.00000000E+00  0.00000000E+00
  0.00000000E+00  0.00000000E+00  0.00000000E+00
  0.00000000E+00  0.00000000E+00  0.00000000E+00
  0.00000000E+00  0.00000000E+00  0.00000000E+00
  0.00000000E+00  0.00000000E+00  0.00000000E+00
  0.00000000E+00  0.00000000E+00  0.00000000E+00
  0.00000000E+00  0.00000000E+00  0.00000000E+00
  0.00000000E+00  0.00000000E+00  0.00000000E+00
  0.00000000E+00  0.00000000E+00  0.00000000E+00
  0.00000000E+00  0.00000000E+00  0.00000000E+00
  0.00000000E+00  0.00000000E+00  0.00000000E+00
  0.00000000E+00  0.00000000E+00  0.00000000E+00
  0.00000000E+00  0.00000000E+00  0.00000000E+00
  0.00000000E+00  0.00000000E+00  0.00000000E+00
  0.00000000E+00  0.00000000E+00  0.00000000E+00
  0.00000000E+00  0.00000000E+00  0.00000000E+00
  0.00000000E+00  0.00000000E+00  0.00000000E+00
  0.00000000E+00  0.00000000E+00  0.00000000E+00
  0.00000000E+00  0.00000000E+00  0.00000000E+00
  0.00000000E+00  0.00000000E+00  0.00000000E+00
  0.00000000E+00  0.00000000E+00  0.00000000E+00
  0.00000000E+00  0.00000000E+00  0.00000000E+00
  0.00000000E+00  0.00000000E+00  0.00000000E+00
  0.00000000E+00  0.00000000E+00  0.00000000E+00
  0.00000000E+00  0.00000000E+00  0.00000000E+00
  0.00000000E+00  0.00000000E+00  0.00000000E+00
  0.00000000E+00  0.00000000E+00  0.00000000E+00
  0.00000000E+00  0.00000000E+00  0.00000000E+00
  0.00000000E+00  0.00000000E+00  0.00000000E+00
  0.00000000E+00  0.00000000E+00  0.00000000E+00
  0.00000000E+00  0.00000000E+00  0.00000000E+00
  0.00000000E+00  0.00000000E+00  0.00000000E+00
  0.00000000E+00  0.00000000E+00  0.00000000E+00
  0.00000000E+00  0.00000000E+00  0.00000000E+00
  0.00000000E+00  0.00000000E+00  0.00000000E+00
  0.00000000E+00  0.00000000E+00  0.00000000E+00
  0.00000000E+00  0.00000000E+00  0.00000000E+00
  0.00000000E+00  0.00000000E+00  0.00000000E+00
  0.00000000E+00  0.00000000E+00  0.00000000E+00
  0.00000000E+00  0.00000000E+00  0.00000000E+00
  0.00000000E+00  0.00000000E+00  0.00000000E+00
  0.00000000E+00  0.00000000E+00  0.00000000E+00
  0.00000000E+00  0.00000000E+00  0.00000000E+00
  0.00000000E+00  0.00000000E+00  0.00000000E+00
  0.00000000E+00  0.00000000E+00  0.00000000E+00
  0.00000000E+00  0.00000000E+00  0.00000000E+00
  0.00000000E+00  0.00000000E+00  0.00000000E+00
  0.00000000E+00  0.00000000E+00  0.00000000E+00
  0.00000000E+00  0.00000000E+00  0.00000000E+00
  0.00000000E+00  0.00000000E+00  0.00000000E+00
  0.00000000E+00  0.00000000E+00  0.00000000E+00
  0.00000000E+00  0.00000000E+00  0.00000000E+00
  0.00000000E+00  0.00000000E+00  0.00000000E+00
  0.00000000E+00  0.00000000E+00  0.00000000E+00
  0.00000000E+00  0.00000000E+00  0.00000000E+00
  0.00000000E+00  0.00000000E+00  0.00000000E+00
  0.00000000E+00  0.00000000E+00  0.00000000E+00
  0.00000000E+00  0.00000000E+00  0.00000000E+00
  0.00000000E+00  0.00000000E+00  0.00000000E+00
  0.00000000E+00  0.00000000E+00  0.00000000E+00
  0.00000000E+00  0.00000000E+00  0.00000000E+00
  0.00000000E+00  0.00000000E+00  0.00000000E+00
  0.00000000E+00  0.00000000E+00  0.00000000E+00
  0.00000000E+00  0.00000000E+00  0.00000000E+00
  0.00000000E+00  0.00000000E+00  0.00000000E+00
  0.00000000E+00  0.00000000E+00  0.00000000E+00
  0.00000000E+00  0.00000000E+00  0.00000000E+00
  0.00000000E+00  0.00000000E+00  0.00000000E+00
  0.00000000E+00  0.00000000E+00  0.00000000E+00
  0.00000000E+00  0.00000000E+00  0.00000000E+00
  0.00000000E+00  0.00000000E+00  0.00000000E+00
  0.00000000E+00  0.00000000E+00  0.00000000E+00
  0.00000000E+00  0.00000000E+00  0.00000000E+00
  0.00000000E+00  0.00000000E+00  0.00000000E+00
  0.00000000E+00  0.00000000E+00  0.00000000E+00
  0.00000000E+00  0.00000000E+00  0.00000000E+00
  0.00000000E+00  0.00000000E+00  0.00000000E+00
  0.00000000E+00  0.00000000E+00  0.00000000E+00
  0.00000000E+00  0.00000000E+00  0.00000000E+00
  0.00000000E+00  0.00000000E+00  0.00000000E+00
  0.00000000E+00  0.00000000E+00  0.00000000E+00
  0.00000000E+00  0.00000000E+00  0.00000000E+00
  0.00000000E+00  0.00000000E+00  0.00000000E+00
  0.00000000E+00  0.00000000E+00  0.00000000E+00
  0.00000000E+00  0.00000000E+00  0.00000000E+00
  0.00000000E+00  0.00000000E+00  0.00000000E+00
  0.00000000E+00  0.00000000E+00  0.00000000E+00
  0.00000000E+00  0.00000000E+00  0.00000000E+00
  0.00000000E+00  0.00000000E+00  0.00000000E+00
  0.00000000E+00  0.00000000E+00  0.00000000E+00
  0.00000000E+00  0.00000000E+00  0.00000000E+00
  0.00000000E+00  0.00000000E+00  0.00000000E+00
  0.00000000E+00  0.00000000E+00  0.00000000E+00
  0.00000000E+00  0.00000000E+00  0.00000000E+00
  0.00000000E+00  0.00000000E+00  0.00000000E+00
  0.00000000E+00  0.00000000E+00  0.00000000E+00
  0.00000000E+00  0.00000000E+00  0.00000000E+00
  0.00000000E+00  0.00000000E+00  0.00000000E+00
  0.00000000E+00  0.00000000E+00  0.00000000E+00
  0.00000000E+00  0.00000000E+00  0.00000000E+00
  0.00000000E+00  0.00000000E+00  0.00000000E+00
  0.00000000E+00  0.00000000E+00  0.00000000E+00
  0.00000000E+00  0.00000000E+00  0.00000000E+00
  0.00000000E+00  0.00000000E+00  0.00000000E+00
  0.00000000E+00  0.00000000E+00  0.00000000E+00
  0.00000000E+00  0.00000000E+00  0.00000000E+00
  0.00000000E+00  0.00000000E+00  0.00000000E+00
  0.00000000E+00  0.00000000E+00  0.00000000E+00
  0.00000000E+00  0.00000000E+00  0.00000000E+00
  0.00000000E+00  0.00000000E+00  0.00000000E+00
  0.00000000E+00  0.00000000E+00  0.00000000E+00
  0.00000000E+00  0.00000000E+00  0.00000000E+00
  0.00000000E+00  0.00000000E+00  0.00000000E+00
  0.00000000E+00  0.00000000E+00  0.00000000E+00
  0.00000000E+00  0.00000000E+00  0.00000000E+00
  0.00000000E+00  0.00000000E+00  0.00000000E+00
  0.00000000E+00  0.00000000E+00  0.00000000E+00
  0.00000000E+00  0.00000000E+00  0.00000000E+00
  0.00000000E+00  0.00000000E+00  0.00000000E+00
  0.00000000E+00  0.00000000E+00  0.00000000E+00
  0.00000000E+00  0.00000000E+00  0.00000000E+00
  0.00000000E+00  0.00000000E+00  0.00000000E+00
  0.00000000E+00  0.00000000E+00  0.00000000E+00
  0.00000000E+00  0.00000000E+00  0.00000000E+00
  0.00000000E+00  0.00000000E+00  0.00000000E+00
  0.00000000E+00  0.00000000E+00  0.00000000E+00
  0.00000000E+00  0.00000000E+00  0.00000000E+00
  0.00000000E+00  0.00000000E+00  0.00000000E+00
  0.00000000E+00  0.00000000E+00  0.00000000E+00
  0.00000000E+00  0.00000000E+00  0.00000000E+00
  0.00000000E+00  0.00000000E+00  0.00000000E+00
  0.00000000E+00  0.00000000E+00  0.00000000E+00
  0.00000000E+00  0.00000000E+00  0.00000000E+00
  0.00000000E+00  0.00000000E+00  0.00000000E+00
  0.00000000E+00  0.00000000E+00  0.00000000E+00
  0.00000000E+00  0.00000000E+00  0.00000000E+00
  0.00000000E+00  0.00000000E+00  0.00000000E+00
  0.00000000E+00  0.00000000E+00  0.00000000E+00
  0.00000000E+00  0.00000000E+00  0.00000000E+00
  0.00000000E+00  0.00000000E+00  0.00000000E+00
  0.00000000E+00  0.00000000E+00  0.00000000E+00
  0.00000000E+00  0.00000000E+00  0.00000000E+00
  0.00000000E+00  0.00000000E+00  0.00000000E+00
  0.00000000E+00  0.00000000E+00  0.00000000E+00
  0.00000000E+00  0.00000000E+00  0.00000000E+00
  0.00000000E+00  0.00000000E+00  0.00000000E+00
  0.00000000E+00  0.00000000E+00  0.00000000E+00
  0.00000000E+00  0.00000000E+00  0.00000000E+00
  0.00000000E+00  0.00000000E+00  0.00000000E+00
  0.00000000E+00  0.00000000E+00  0.00000000E+00
  0.00000000E+00  0.00000000E+00  0.00000000E+00
  0.00000000E+00  0.00000000E+00  0.00000000E+00
  0.00000000E+00  0.00000000E+00  0.00000000E+00
  0.00000000E+00  0.00000000E+00  0.00000000E+00
  0.00000000E+00  0.00000000E+00  0.00000000E+00
  0.00000000E+00  0.00000000E+00  0.00000000E+00
  0.00000000E+00  0.00000000E+00  0.00000000E+00
  0.00000000E+00  0.00000000E+00  0.00000000E+00
  0.00000000E+00  0.00000000E+00  0.00000000E+00
  0.00000000E+00  0.00000000E+00  0.00000000E+00
  0.00000000E+00  0.00000000E+00  0.00000000E+00
  0.00000000E+00  0.00000000E+00  0.00000000E+00
  0.00000000E+00  0.00000000E+00  0.00000000E+00
  0.00000000E+00  0.00000000E+00  0.00000000E+00
  0.00000000E+00  0.00000000E+00  0.00000000E+00
  0.00000000E+00  0.00000000E+00  0.00000000E+00
  0.00000000E+00  0.00000000E+00  0.00000000E+00
  0.00000000E+00  0.00000000E+00  0.00000000E+00
  0.00000000E+00  0.00000000E+00  0.00000000E+00
  0.00000000E+00  0.00000000E+00  0.00000000E+00
  0.00000000E+00  0.00000000E+00  0.00000000E+00
  0.00000000E+00  0.00000000E+00  0.00000000E+00
  0.00000000E+00  0.00000000E+00  0.00000000E+00
  0.00000000E+00  0.00000000E+00  0.00000000E+00
  0.00000000E+00  0.00000000E+00  0.00000000E+00
  0.00000000E+00  0.00000000E+00  0.00000000E+00
  0.00000000E+00  0.00000000E+00  0.00000000E+00
  0.00000000E+00  0.00000000E+00  0.00000000E+00
  0.00000000E+00  0.00000000E+00  0.00000000E+00
  0.00000000E+00  0.00000000E+00  0.00000000E+00
  0.00000000E+00  0.00000000E+00  0.00000000E+00
  0.00000000E+00  0.00000000E+00  0.00000000E+00
  0.00000000E+00  0.00000000E+00  0.00000000E+00
  0.00000000E+00  0.00000000E+00  0.00000000E+00
  0.00000000E+00  0.00000000E+00  0.00000000E+00
  0.00000000E+00  0.00000000E+00  0.00000000E+00
  0.00000000E+00  0.00000000E+00  0.00000000E+00
  0.00000000E+00  0.00000000E+00  0.00000000E+00
  0.00000000E+00  0.00000000E+00  0.00000000E+00
  0.00000000E+00  0.00000000E+00  0.00000000E+00
  0.00000000E+00  0.00000000E+00  0.00000000E+00
  0.00000000E+00  0.00000000E+00  0.00000000E+00
  0.00000000E+00  0.00000000E+00  0.00000000E+00
  0.00000000E+00  0.00000000E+00  0.00000000E+00
  0.00000000E+00  0.00000000E+00  0.00000000E+00
  0.00000000E+00  0.00000000E+00  0.00000000E+00
  0.00000000E+00  0.00000000E+00  0.00000000E+00
  0.00000000E+00  0.00000000E+00  0.00000000E+00
  0.00000000E+00  0.00000000E+00  0.00000000E+00
  0.00000000E+00  0.00000000E+00  0.00000000E+00
  0.00000000E+00  0.00000000E+00  0.00000000E+00
  0.00000000E+00  0.00000000E+00  0.00000000E+00
  0.00000000E+00  0.00000000E+00  0.00000000E+00
  0.00000000E+00  0.00000000E+00  0.00000000E+00
  0.00000000E+00  0.00000000E+00  0.00000000E+00
  0.00000000E+00  0.00000000E+00  0.00000000E+00
  0.00000000E+00  0.00000000E+00  0.00000000E+00
  0.00000000E+00  0.00000000E+00  0.00000000E+00