FeMn_288_15                             
    1.000000000000000     
     9.7266779999999997    0.0000000000000000    0.0000000000000000
     0.0000000000000000    8.4235500000000005    0.0000000000000000
     0.0000000000000000    0.0000000000000000   45.0000000000000000
   Fe   Mn
   273    15
Direct
  0.5622193159483315  0.7047443192582880  0.6983300064138148
  0.8124357401043820  0.8719690915933898  0.6538557380556427
  0.4374769181793139  0.6228132613318248  0.3017977724121301
  0.9376523299012054  0.6221993265323107  0.5214704757600039
  0.3119244817577449  0.5372870295225690  0.8734795770323744
  0.6872624895149736  0.2880016744475886  0.7424276871171340
  0.6874180264720241  0.1212265744622950  0.7866045094685847
  0.5630687924430399  0.5372443486895662  0.8735021480012299
  0.0624467672961546  0.2049363121605459  0.8314027895736723
  0.3124056619610995  0.3726426826523345  0.3016858135576687
  0.1876110358605517  0.6215004315337121  0.7866314298544393
  0.4375434329273893  0.1215172206066129  0.6538234341259904
  0.0625439365248960  0.3712409396965204  0.7865879891129929
  0.1874317936567819  0.4563221418904648  0.3461226932405255
  0.9373086311140006  0.4553244507125773  0.5652406042525608
  0.9374836836770266  0.7880243463995983  0.8735496204816373
  0.1877849914706929  0.1221071782653823  0.4348567897365146
  0.5623786977906652  0.8727688066820659  0.4347947422305083
  0.1880272272418039  0.1219322821628442  0.5214226160932186
  0.6878464569050636  0.1224761264515294  0.4348498546805243
  0.3123495768692993  0.7064672873061861  0.2133056435848865
  0.1877447545650569  0.7883188688127077  0.7424901540799409
  0.0625266302761660  0.2051755244859731  0.5649837115867437
  0.5627121270330323  0.7064553003595951  0.2133289882543299
  0.0625518306059910  0.0383252923845018  0.7424653876824352
  0.6872901602246051  0.1231312863736768  0.3019080813140598
  0.1873891017463238  0.6231804211679807  0.3016918756091385
  0.5624098790389843  0.0397492628898933  0.1262987375137425
  0.8124811028274118  0.3715050450959936  0.6538107847179045
  0.9375413419998080  0.9552947471757232  0.6983620953155770
  0.0624462338959218  0.7041096677911169  0.8313608443988045
  0.1871201181772210  0.1234400563263517  0.1684058159547707
  0.1876074794431561  0.7879170814957706  0.8735707870822549
  0.6867368691157015  0.2894315373996346  0.1264346812454446
  0.8125615278696290  0.2050103133034786  0.8313805364411027
  0.9374422693907193  0.2887229495020729  0.3902325119499429
  0.6868940080113666  0.4567716341652298  0.2134471667413064
  0.5626891682960106  0.8713822102366724  0.6538286135993769
  0.3122753110359613  0.2062947402929491  0.4785814862690283
  0.9375449093972296  0.9551694564053785  0.5653217507318926
  0.0623711888211461  0.5379873337795616  0.7423793600212568
  0.0628092671713232  0.7059812047026180  0.2133578804494574
  0.8124339335203058  0.3709577814378961  0.7866536839708834
  0.4375292382509204  0.7898812877484834  0.1262831414038918
  0.6873995297190483  0.2885236444900910  0.6098483674625725
  0.1880489012455155  0.4558746950713622  0.4786245278841134
  0.8125729036766770  0.5377024438148668  0.8736133708567374
  0.6878296596478708  0.4552276658026652  0.5651791554525396
  0.9375145243228610  0.4544367358486301  0.8313658376697906
  0.9371455935965842  0.9561621890051545  0.3461127904799026
  0.8127810219325189  0.2062509670402062  0.4785792731167952
  0.8125042063993593  0.0380670025498884  0.7424105207716235
  0.5626219850595781  0.7053240575094554  0.8314371784918341
  0.6875601215899748  0.4550859962543504  0.6983188759205468
  0.9373716227062121  0.4565503908657774  0.3460631170007812
  0.9373859012303906  0.9553051478541431  0.4787065739788226
  0.8122393577330981  0.8729101609401408  0.4349316293584033
  0.1874478720795771  0.6222860654188169  0.5214408767912123
  0.4376389178743754  0.2893260341380831  0.3901851037809352
  0.1873772663364941  0.9543700332308883  0.8313573289536086
  0.9374573632464321  0.9546089140274469  0.8315262332056638
  0.3124800551229487  0.5384803511579729  0.6098556443594519
  0.0626338778551484  0.8728802597306536  0.3016903894745244
  0.8125980290927489  0.5396927411384048  0.2575270764790052
  0.3124720374862786  0.7047258031303388  0.6982913061012912
  0.0626744169124881  0.2067508986629557  0.2133780036283582
  0.9375064564972759  0.4565815143863778  0.2133119575669452
  0.4374217601698671  0.4555729895470204  0.5653043640767220
  0.4375399557728282  0.6232544947809489  0.1686135624643081
  0.8126673580514934  0.5384419048794689  0.6098120318195803
  0.6873464336871409  0.2896308006311086  0.2575910175546972
  0.0625790645333711  0.3714531333631160  0.6537914099060703
  0.4374467832309809  0.9560306037948677  0.3462093938415952
  0.3124530358827351  0.2057737285149877  0.5653739160523450
  0.4374230769320270  0.7883209381060439  0.7424370632233166
  0.1873587355912093  0.2882892760322616  0.6098362517932397
  0.4374293330997867  0.4569106297320574  0.2133135807635772
  0.3123353227450700  0.8731152537200441  0.3017358287722745
  0.1872866790709740  0.4547104402201598  0.8314710190910942
  0.6878166570100697  0.1220442617350827  0.5213362794136432
  0.8127748815818058  0.5395522158714744  0.3901164010236065
  0.3123506504150219  0.5392013930212460  0.3900946048186223
  0.0618806012789848  0.3727444833402962  0.1684533927646365
  0.9376611599102372  0.2883376124855933  0.6098632858367261
  0.8125134481546651  0.7052688002335918  0.5652479987195848
  0.0624996826214848  0.8723591942937668  0.5214313495392490
  0.5624419605497792  0.0397116242011623  0.3901507768254222
  0.5625733798474414  0.0387909375504081  0.6099403437392792
  0.3124706161031658  0.5384602878241285  0.7424501228456633
  0.6874983086370713  0.6221776364638232  0.5213415603468123
  0.6875755937709972  0.2883033548795712  0.8735424153135363
  0.8118999477836982  0.3721812330976905  0.4348144886592030
  0.5622893897418959  0.8732841718705618  0.1684736241772396
  0.3125130279528727  0.0396094961665555  0.2574653876954678
  0.5623403133345420  0.7056399211816914  0.4786536116847952
  0.0623655203394198  0.0402183455269688  0.2574543727513598
  0.4374745767608277  0.9553167549363687  0.4786581695495308
  0.5626185310427101  0.8714056837631187  0.7866498529811783
  0.9376453480053418  0.4550309446657661  0.6982351650034179
  0.3125086118282647  0.0393450631876534  0.3900278354769000
  0.5623540314106649  0.5383876023745844  0.6097919125850901
  0.0625391107336234  0.7052931846883062  0.5651940557865958
  0.6874392076367537  0.9552368675617265  0.5652940571942088
  0.8123728349818411  0.8710369889066291  0.7866156964965101
  0.6878749046805341  0.1234308372774854  0.1684190403972153
  0.1876559582676876  0.7895220875451312  0.1262631973358382
  0.3121868385900974  0.8713872037573723  0.7865802493077222
  0.6877880522797454  0.9562115390623298  0.2133586394916142
  0.8127351587996067  0.5408401149171820  0.1263458614678661
  0.1875217760201392  0.1214600656167601  0.7865995082226326
  0.4374863390828697  0.6216492759966058  0.7866486148093466
  0.1881175453551452  0.4567387438271601  0.2133851379768179
  0.0624932002399116  0.7055437507077124  0.4786133615340935
  0.5623306440365464  0.3724952270248491  0.5213621282290617
  0.6876680212954850  0.7898611388403051  0.2574906923161256
  0.8125448911404198  0.2054760742081179  0.5653805663364948
  0.0628719619119781  0.2049835024207871  0.6982793397533306
  0.3124945219331577  0.0386364117278315  0.6099448366011002
  0.5623952289635815  0.5401249818644780  0.1264250851853103
  0.0625708630466151  0.5381585254957281  0.6097919171797762
  0.4374109990728513  0.6219065361370317  0.5214516706537907
  0.6875156052778336  0.9548387092310876  0.6982933773266170
  0.5625715829780397  0.7060384638043186  0.3462133288861535
  0.5625833999230829  0.2067729398449731  0.2133939686922257
  0.8119523790924308  0.7060726202663704  0.3462101472278965
  0.3126095284981049  0.3718731426800043  0.5213939345205777
  0.1882647689199650  0.2894974267374113  0.1264155773209855
  0.5623839328933554  0.3733738601313755  0.1686576778013691
  0.9375041006570393  0.1235473476398172  0.1684861213395321
  0.9375553340942597  0.6219523304586008  0.6537535848100703
  0.8125056535569202  0.8724983751308586  0.3017017288492368
  0.0624830912847319  0.8719815621605335  0.6538577429165594
  0.3124875185303453  0.5395117019665412  0.2574584236894006
  0.3125168709911730  0.7057417321081888  0.4787052630366597
  0.8123264868012616  0.2067617995658025  0.2133544302241626
  0.0627472552701980  0.8711891309317882  0.7866587320565531
  0.8124205839982338  0.0393162342204948  0.3899887299907951
  0.3130242459802079  0.3723628606148602  0.4348200904787319
  0.5625793048762905  0.8725402371386808  0.5214149574866036
  0.1877257176596242  0.6224990046278918  0.4348778070076069
  0.9374819772168601  0.6211267817044541  0.7866213781477041
  0.5621916707891476  0.2047203107000800  0.6982937128684807
  0.3125430708685814  0.0377953793904251  0.7424158385882125
  0.0625200274665801  0.3726064637257988  0.5212829389715066
  0.9373276239079568  0.7890546062318887  0.3901487370884701
  0.4375607804513929  0.4545494257347439  0.6983275083404881
  0.0625011118793619  0.0394092468838886  0.3901431949402352
  0.4375621110728954  0.9554482338025658  0.5652229508368096
  0.4370576031725175  0.6230292779611447  0.4348549007760791
  0.1876449345496166  0.7883427835913849  0.6099141294436997
  0.9376104666726458  0.6228434795802410  0.4348733844789985
  0.5624191058955297  0.5395273335902371  0.3900827382917764
  0.9374642370914348  0.6226796703118206  0.1684046125499038
  0.1877624131796648  0.2882039306427863  0.7424365777384571
  0.3130318365641585  0.8730286851792637  0.4349516832156690
  0.6875321115187970  0.9552521385886384  0.4785628457942201
  0.3130033458972111  0.7060826267877699  0.3461947988548877
  0.3126060293891513  0.3734173581065965  0.1686747195634054
  0.3127099864019068  0.8732993753024160  0.1684920243018856
  0.9374610301820802  0.1221335842079198  0.4348090099039768
  0.8123770030223307  0.8724558039890032  0.5214788982678977
  0.3124300547829540  0.2066655272436664  0.2133873004660669
  0.6874023662822484  0.2895767246627045  0.3902102419215894
  0.1873979962783063  0.1233320754150995  0.3018124743693704
  0.6880028507291621  0.4556484167119473  0.4786235210131825
  0.1872889064826130  0.7900333083338121  0.2574852406118942
  0.4374994299387181  0.2879684809126591  0.7424864760168386
  0.8127871313297271  0.8728388708828203  0.1685208783266612
  0.5626167566750846  0.0394885649388238  0.2574974914226040
  0.0624377705027281  0.0385075310998677  0.6098650164873645
  0.8131624729250221  0.3726367059636384  0.1684963450685974
  0.3125590403080440  0.7054749941411963  0.5652568078504150
  0.6877203442901578  0.4547159244198678  0.8315090743744025
  0.8125382460735356  0.7041809641154485  0.8313422578639168
  0.8124453821395871  0.2050123608457320  0.6982670441357672
  0.4368208220449549  0.1224888277230347  0.4348196741923686
  0.5626187668675335  0.5384627535986918  0.7424514300392715
  0.4375162619400578  0.2892192989277947  0.2574898556394351
  0.3128937446270066  0.2045765459054224  0.8313660901552322
  0.5620772089074618  0.2046194038902394  0.8313689234033422
  0.6873655112964859  0.6214075505028280  0.7866609124198761
  0.5625761672577063  0.2061834727880474  0.3461943860485876
  0.5625309217798432  0.3714196078970406  0.7866553587095317
  0.9368856198198604  0.4559208663638272  0.4786278497429273
  0.3125505655886921  0.8722138604241282  0.5214706762209299
  0.4375460948379994  0.7897780546623102  0.2575796027334650
  0.4370985758535287  0.1219869442326404  0.5213848238232814
  0.1877513360457853  0.2896800011584465  0.2575534530995462
  0.3132541703357195  0.2060621425943312  0.3460912235245885
  0.1874532389306003  0.4553024294556955  0.5652191667403688
  0.3125042498333613  0.3714238950336259  0.6538078069206443
  0.4377375589903932  0.7892142480112589  0.3902013621099508
  0.5625088854615851  0.3725489676163791  0.3016773150048657
  0.1879913525755487  0.9564809076893880  0.3462323676906738
  0.0623243266228269  0.5389666606912128  0.3901586242293096
  0.8125603390361490  0.0397935239511126  0.2574959991918229
  0.6876494414302305  0.1216824787167004  0.6537827202332911
  0.5620684524463092  0.0375057293388135  0.8737057273131497
  0.9375957569939636  0.7902017865750872  0.2573936057012475
  0.1874736397023397  0.2888870551565787  0.3901501346679859
  0.1872725020442820  0.9561303098336257  0.2132779548958331
  0.5624113079942785  0.7054091493722402  0.5651650038565016
  0.9375410752395011  0.1219032806696792  0.6538198857162139
  0.6875694099392571  0.9544108282226547  0.8314347046048347
  0.6872772309226206  0.6234826347291683  0.1685728237420747
  0.5625369026871827  0.8730619947325322  0.3016514097706330
  0.9370283816796179  0.1219472086931422  0.5214342672391296
  0.3125272943887235  0.2047085890879154  0.6982820002425904
  0.6873786441465292  0.7884079272503612  0.6098628233412474
  0.0625973755098061  0.3733486272374048  0.3017418340493842
  0.1877360840888286  0.6234886609375618  0.1685611876102475
  0.8131296248763170  0.0374955972794310  0.8735647329958230
  0.0623492777721655  0.8726557417509194  0.4349547978142729
  0.4372793580160755  0.4561036821379542  0.3460136079493311
  0.9374351382448631  0.7883277126489231  0.6099093057554077
  0.9374900626027456  0.2879158079344467  0.8736025415212849
  0.6877109709112780  0.4563906278558476  0.3461531911029932
  0.8119664365894980  0.2062037497768712  0.3460421605843402
  0.4374689413663891  0.7884727259318901  0.8737058881340937
  0.8125400243418266  0.0386925943599957  0.6098248497339134
  0.8123425983436543  0.5379303426547279  0.7424481814855245
  0.0626770190691391  0.7050863620896834  0.6983229378585711
  0.4376287483913526  0.2885337848953741  0.6099358590918164
  0.1874627290821046  0.9550862429765052  0.6982976536650894
  0.6872219822344833  0.7880763400616256  0.7425133738577450
  0.9375262769078646  0.2898716214577897  0.2575411160334209
  0.8118519069204403  0.0400390432312824  0.1263486263474786
  0.1876284430997922  0.9552768196605840  0.4786807222287011
  0.6873933173977858  0.6228913785990042  0.3017012527543949
  0.5624948955758816  0.2053852629191674  0.5649955385096095
  0.0624709556612257  0.5377134702600359  0.8735983203113354
  0.4375859986194464  0.9548085450184948  0.6982724939598919
  0.5626218027282895  0.5394993399339894  0.2575164399458276
  0.6877540485934661  0.6216849635806012  0.6538062908797855
  0.9375881697839265  0.1230397420030333  0.3017111656218895
  0.3123560479126791  0.7052838583413891  0.8313930022482592
  0.6874470900690308  0.9563207223482438  0.3461769323082493
  0.3129302485041405  0.0375786942994158  0.8737165601772739
  0.5624400257052703  0.3716988665724790  0.6538288744940826
  0.9374672476973405  0.7881318227402032  0.7424451219799548
  0.6874490530679144  0.7878690490810486  0.8736012643836726
  0.4371352762989148  0.4558196720429054  0.4785896498846541
  0.6873280622342189  0.7894878174129004  0.1262796643771308
  0.4375266891078995  0.2904986967993330  0.1263431750791875
  0.3125020697964731  0.3715646025097483  0.7866347426492599
  0.4374973114035446  0.1219407899240558  0.7865007428806530
  0.8126528563571155  0.7057655545595366  0.4787042883663789
  0.8122042772312466  0.7060293935718666  0.2133291975421694
  0.4375296026636602  0.7884838343666533  0.6098661509413018
  0.1872855047037868  0.6216500094934919  0.6538494963691611
  0.4374957166847967  0.4548347719647238  0.8313736651278517
  0.3123907447150031  0.8713511347771389  0.6538431211955542
  0.0619078998249272  0.0375916042709395  0.8735316677767289
  0.8125260809443524  0.3729773405456978  0.3017015462150269
  0.3126084311724488  0.5401921352371764  0.1264176883828074
  0.4374932803120546  0.2874908597623427  0.8735516963122608
  0.0622615195324800  0.8729578447146933  0.1684819246173045
  0.1874460776326884  0.2882890953026827  0.8735290738021472
  0.0622565080952027  0.5408458174640012  0.1263436508735837
  0.0625997408259466  0.5400443941244347  0.2574581728881443
  0.5624550463602369  0.3728951725024069  0.4347764448640161
  0.9374735283728945  0.7900215466135991  0.1261910449233306
  0.6871136437373352  0.7896700140365207  0.3902062704800355
  0.1874314796952528  0.4546563288044703  0.6983082062260751
  0.1875109822634024  0.9551080678920685  0.5653341199209919
  0.4375401726957399  0.1230686876199060  0.1685717203807347
  0.8125583936987356  0.3719322271143327  0.5214722893626254
  0.0631358011616708  0.0400321417486595  0.1263463548982769
  0.3126295918181914  0.0398644464805534  0.1262921711716760
  0.1873367704026420  0.1215136664383097  0.6537699527320571
  0.1874408514911049  0.7891844160214486  0.3901671658452152
  0.5623208867479739  0.0377475528045785  0.7424226566851420
  0.9375458325797515  0.1210801613802074  0.7866242393381085
  0.4375815012056599  0.9545240441791271  0.8320259568341803
  0.9374793157999416  0.2880958144182527  0.7425036601332478
  0.6875593288057540  0.6228687276413428  0.4349046495232236
  0.9374401759072027  0.2906789529996745  0.1265990745390578
  0.4375391327840353  0.1229308731747211  0.3017143261457691
  0.4374722484699690  0.6214606066211769  0.6537578424699256
  0.4374124898618707  0.9568771761637533  0.2135420019856450
  0.9374668688469563  0.9560463618276543  0.2135928170716870
  0.5624474131812131  0.2055584977790559  0.4787418406783050
  0.0629726832196287  0.7068052044825635  0.3463650870552259
  0.9372185979864466  0.6226039058337755  0.3016804662656083
  0.8125763576901085  0.7051394674978132  0.6983149612301046
  0.0624615670408901  0.3726299517857238  0.4347104322700582
  0.0625255392361001  0.2063668274685745  0.3462169614866249
  0.0625070096278851  0.2055078114566734  0.4787556080000693
 
  0.00000000E+00  0.00000000E+00  0.00000000E+00
  0.00000000E+00  0.00000000E+00  0.00000000E+00
  0.00000000E+00  0.00000000E+00  0.00000000E+00
  0.00000000E+00  0.00000000E+00  0.00000000E+00
  0.00000000E+00  0.00000000E+00  0.00000000E+00
  0.00000000E+00  0.00000000E+00  0.00000000E+00
  0.00000000E+00  0.00000000E+00  0.00000000E+00
  0.00000000E+00  0.00000000E+00  0.00000000E+00
  0.00000000E+00  0.00000000E+00  0.00000000E+00
  0.00000000E+00  0.00000000E+00  0.00000000E+00
  0.00000000E+00  0.00000000E+00  0.00000000E+00
  0.00000000E+00  0.00000000E+00  0.00000000E+00
  0.00000000E+00  0.00000000E+00  0.00000000E+00
  0.00000000E+00  0.00000000E+00  0.00000000E+00
  0.00000000E+00  0.00000000E+00  0.00000000E+00
  0.00000000E+00  0.00000000E+00  0.00000000E+00
  0.00000000E+00  0.00000000E+00  0.00000000E+00
  0.00000000E+00  0.00000000E+00  0.00000000E+00
  0.00000000E+00  0.00000000E+00  0.00000000E+00
  0.00000000E+00  0.00000000E+00  0.00000000E+00
  0.00000000E+00  0.00000000E+00  0.00000000E+00
  0.00000000E+00  0.00000000E+00  0.00000000E+00
  0.00000000E+00  0.00000000E+00  0.00000000E+00
  0.00000000E+00  0.00000000E+00  0.00000000E+00
  0.00000000E+00  0.00000000E+00  0.00000000E+00
  0.00000000E+00  0.00000000E+00  0.00000000E+00
  0.00000000E+00  0.00000000E+00  0.00000000E+00
  0.00000000E+00  0.00000000E+00  0.00000000E+00
  0.00000000E+00  0.00000000E+00  0.00000000E+00
  0.00000000E+00  0.00000000E+00  0.00000000E+00
  0.00000000E+00  0.00000000E+00  0.00000000E+00
  0.00000000E+00  0.00000000E+00  0.00000000E+00
  0.00000000E+00  0.00000000E+00  0.00000000E+00
  0.00000000E+00  0.00000000E+00  0.00000000E+00
  0.00000000E+00  0.00000000E+00  0.00000000E+00
  0.00000000E+00  0.00000000E+00  0.00000000E+00
  0.00000000E+00  0.00000000E+00  0.00000000E+00
  0.00000000E+00  0.00000000E+00  0.00000000E+00
  0.00000000E+00  0.00000000E+00  0.00000000E+00
  0.00000000E+00  0.00000000E+00  0.00000000E+00
  0.00000000E+00  0.00000000E+00  0.00000000E+00
  0.00000000E+00  0.00000000E+00  0.00000000E+00
  0.00000000E+00  0.00000000E+00  0.00000000E+00
  0.00000000E+00  0.00000000E+00  0.00000000E+00
  0.00000000E+00  0.00000000E+00  0.00000000E+00
  0.00000000E+00  0.00000000E+00  0.00000000E+00
  0.00000000E+00  0.00000000E+00  0.00000000E+00
  0.00000000E+00  0.00000000E+00  0.00000000E+00
  0.00000000E+00  0.00000000E+00  0.00000000E+00
  0.00000000E+00  0.00000000E+00  0.00000000E+00
  0.00000000E+00  0.00000000E+00  0.00000000E+00
  0.00000000E+00  0.00000000E+00  0.00000000E+00
  0.00000000E+00  0.00000000E+00  0.00000000E+00
  0.00000000E+00  0.00000000E+00  0.00000000E+00
  0.00000000E+00  0.00000000E+00  0.00000000E+00
  0.00000000E+00  0.00000000E+00  0.00000000E+00
  0.00000000E+00  0.00000000E+00  0.00000000E+00
  0.00000000E+00  0.00000000E+00  0.00000000E+00
  0.00000000E+00  0.00000000E+00  0.00000000E+00
  0.00000000E+00  0.00000000E+00  0.00000000E+00
  0.00000000E+00  0.00000000E+00  0.00000000E+00
  0.00000000E+00  0.00000000E+00  0.00000000E+00
  0.00000000E+00  0.00000000E+00  0.00000000E+00
  0.00000000E+00  0.00000000E+00  0.00000000E+00
  0.00000000E+00  0.00000000E+00  0.00000000E+00
  0.00000000E+00  0.00000000E+00  0.00000000E+00
  0.00000000E+00  0.00000000E+00  0.00000000E+00
  0.00000000E+00  0.00000000E+00  0.00000000E+00
  0.00000000E+00  0.00000000E+00  0.00000000E+00
  0.00000000E+00  0.00000000E+00  0.00000000E+00
  0.00000000E+00  0.00000000E+00  0.00000000E+00
  0.00000000E+00  0.00000000E+00  0.00000000E+00
  0.00000000E+00  0.00000000E+00  0.00000000E+00
  0.00000000E+00  0.00000000E+00  0.00000000E+00
  0.00000000E+00  0.00000000E+00  0.00000000E+00
  0.00000000E+00  0.00000000E+00  0.00000000E+00
  0.00000000E+00  0.00000000E+00  0.00000000E+00
  0.00000000E+00  0.00000000E+00  0.00000000E+00
  0.00000000E+00  0.00000000E+00  0.00000000E+00
  0.00000000E+00  0.00000000E+00  0.00000000E+00
  0.00000000E+00  0.00000000E+00  0.00000000E+00
  0.00000000E+00  0.00000000E+00  0.00000000E+00
  0.00000000E+00  0.00000000E+00  0.00000000E+00
  0.00000000E+00  0.00000000E+00  0.00000000E+00
  0.00000000E+00  0.00000000E+00  0.00000000E+00
  0.00000000E+00  0.00000000E+00  0.00000000E+00
  0.00000000E+00  0.00000000E+00  0.00000000E+00
  0.00000000E+00  0.00000000E+00  0.00000000E+00
  0.00000000E+00  0.00000000E+00  0.00000000E+00
  0.00000000E+00  0.00000000E+00  0.00000000E+00
  0.00000000E+00  0.00000000E+00  0.00000000E+00
  0.00000000E+00  0.00000000E+00  0.00000000E+00
  0.00000000E+00  0.00000000E+00  0.00000000E+00
  0.00000000E+00  0.00000000E+00  0.00000000E+00
  0.00000000E+00  0.00000000E+00  0.00000000E+00
  0.00000000E+00  0.00000000E+00  0.00000000E+00
  0.00000000E+00  0.00000000E+00  0.00000000E+00
  0.00000000E+00  0.00000000E+00  0.00000000E+00
  0.00000000E+00  0.00000000E+00  0.00000000E+00
  0.00000000E+00  0.00000000E+00  0.00000000E+00
  0.00000000E+00  0.00000000E+00  0.00000000E+00
  0.00000000E+00  0.00000000E+00  0.00000000E+00
  0.00000000E+00  0.00000000E+00  0.00000000E+00
  0.00000000E+00  0.00000000E+00  0.00000000E+00
  0.00000000E+00  0.00000000E+00  0.00000000E+00
  0.00000000E+00  0.00000000E+00  0.00000000E+00
  0.00000000E+00  0.00000000E+00  0.00000000E+00
  0.00000000E+00  0.00000000E+00  0.00000000E+00
  0.00000000E+00  0.00000000E+00  0.00000000E+00
  0.00000000E+00  0.00000000E+00  0.00000000E+00
  0.00000000E+00  0.00000000E+00  0.00000000E+00
  0.00000000E+00  0.00000000E+00  0.00000000E+00
  0.00000000E+00  0.00000000E+00  0.00000000E+00
  0.00000000E+00  0.00000000E+00  0.00000000E+00
  0.00000000E+00  0.00000000E+00  0.00000000E+00
  0.00000000E+00  0.00000000E+00  0.00000000E+00
  0.00000000E+00  0.00000000E+00  0.00000000E+00
  0.00000000E+00  0.00000000E+00  0.00000000E+00
  0.00000000E+00  0.00000000E+00  0.00000000E+00
  0.00000000E+00  0.00000000E+00  0.00000000E+00
  0.00000000E+00  0.00000000E+00  0.00000000E+00
  0.00000000E+00  0.00000000E+00  0.00000000E+00
  0.00000000E+00  0.00000000E+00  0.00000000E+00
  0.00000000E+00  0.00000000E+00  0.00000000E+00
  0.00000000E+00  0.00000000E+00  0.00000000E+00
  0.00000000E+00  0.00000000E+00  0.00000000E+00
  0.00000000E+00  0.00000000E+00  0.00000000E+00
  0.00000000E+00  0.00000000E+00  0.00000000E+00
  0.00000000E+00  0.00000000E+00  0.00000000E+00
  0.00000000E+00  0.00000000E+00  0.00000000E+00
  0.00000000E+00  0.00000000E+00  0.00000000E+00
  0.00000000E+00  0.00000000E+00  0.00000000E+00
  0.00000000E+00  0.00000000E+00  0.00000000E+00
  0.00000000E+00  0.00000000E+00  0.00000000E+00
  0.00000000E+00  0.00000000E+00  0.00000000E+00
  0.00000000E+00  0.00000000E+00  0.00000000E+00
  0.00000000E+00  0.00000000E+00  0.00000000E+00
  0.00000000E+00  0.00000000E+00  0.00000000E+00
  0.00000000E+00  0.00000000E+00  0.00000000E+00
  0.00000000E+00  0.00000000E+00  0.00000000E+00
  0.00000000E+00  0.00000000E+00  0.00000000E+00
  0.00000000E+00  0.00000000E+00  0.00000000E+00
  0.00000000E+00  0.00000000E+00  0.00000000E+00
  0.00000000E+00  0.00000000E+00  0.00000000E+00
  0.00000000E+00  0.00000000E+00  0.00000000E+00
  0.00000000E+00  0.00000000E+00  0.00000000E+00
  0.00000000E+00  0.00000000E+00  0.00000000E+00
  0.00000000E+00  0.00000000E+00  0.00000000E+00
  0.00000000E+00  0.00000000E+00  0.00000000E+00
  0.00000000E+00  0.00000000E+00  0.00000000E+00
  0.00000000E+00  0.00000000E+00  0.00000000E+00
  0.00000000E+00  0.00000000E+00  0.00000000E+00
  0.00000000E+00  0.00000000E+00  0.00000000E+00
  0.00000000E+00  0.00000000E+00  0.00000000E+00
  0.00000000E+00  0.00000000E+00  0.00000000E+00
  0.00000000E+00  0.00000000E+00  0.00000000E+00
  0.00000000E+00  0.00000000E+00  0.00000000E+00
  0.00000000E+00  0.00000000E+00  0.00000000E+00
  0.00000000E+00  0.00000000E+00  0.00000000E+00
  0.00000000E+00  0.00000000E+00  0.00000000E+00
  0.00000000E+00  0.00000000E+00  0.00000000E+00
  0.00000000E+00  0.00000000E+00  0.00000000E+00
  0.00000000E+00  0.00000000E+00  0.00000000E+00
  0.00000000E+00  0.00000000E+00  0.00000000E+00
  0.00000000E+00  0.00000000E+00  0.00000000E+00
  0.00000000E+00  0.00000000E+00  0.00000000E+00
  0.00000000E+00  0.00000000E+00  0.00000000E+00
  0.00000000E+00  0.00000000E+00  0.00000000E+00
  0.00000000E+00  0.00000000E+00  0.00000000E+00
  0.00000000E+00  0.00000000E+00  0.00000000E+00
  0.00000000E+00  0.00000000E+00  0.00000000E+00
  0.00000000E+00  0.00000000E+00  0.00000000E+00
  0.00000000E+00  0.00000000E+00  0.00000000E+00
  0.00000000E+00  0.00000000E+00  0.00000000E+00
  0.00000000E+00  0.00000000E+00  0.00000000E+00
  0.00000000E+00  0.00000000E+00  0.00000000E+00
  0.00000000E+00  0.00000000E+00  0.00000000E+00
  0.00000000E+00  0.00000000E+00  0.00000000E+00
  0.00000000E+00  0.00000000E+00  0.00000000E+00
  0.00000000E+00  0.00000000E+00  0.00000000E+00
  0.00000000E+00  0.00000000E+00  0.00000000E+00
  0.00000000E+00  0.00000000E+00  0.00000000E+00
  0.00000000E+00  0.00000000E+00  0.00000000E+00
  0.00000000E+00  0.00000000E+00  0.00000000E+00
  0.00000000E+00  0.00000000E+00  0.00000000E+00
  0.00000000E+00  0.00000000E+00  0.00000000E+00
  0.00000000E+00  0.00000000E+00  0.00000000E+00
  0.00000000E+00  0.00000000E+00  0.00000000E+00
  0.00000000E+00  0.00000000E+00  0.00000000E+00
  0.00000000E+00  0.00000000E+00  0.00000000E+00
  0.00000000E+00  0.00000000E+00  0.00000000E+00
  0.00000000E+00  0.00000000E+00  0.00000000E+00
  0.00000000E+00  0.00000000E+00  0.00000000E+00
  0.00000000E+00  0.00000000E+00  0.00000000E+00
  0.00000000E+00  0.00000000E+00  0.00000000E+00
  0.00000000E+00  0.00000000E+00  0.00000000E+00
  0.00000000E+00  0.00000000E+00  0.00000000E+00
  0.00000000E+00  0.00000000E+00  0.00000000E+00
  0.00000000E+00  0.00000000E+00  0.00000000E+00
  0.00000000E+00  0.00000000E+00  0.00000000E+00
  0.00000000E+00  0.00000000E+00  0.00000000E+00
  0.00000000E+00  0.00000000E+00  0.00000000E+00
  0.00000000E+00  0.00000000E+00  0.00000000E+00
  0.00000000E+00  0.00000000E+00  0.00000000E+00
  0.00000000E+00  0.00000000E+00  0.00000000E+00
  0.00000000E+00  0.00000000E+00  0.00000000E+00
  0.00000000E+00  0.00000000E+00  0.00000000E+00
  0.00000000E+00  0.00000000E+00  0.00000000E+00
  0.00000000E+00  0.00000000E+00  0.00000000E+00
  0.00000000E+00  0.00000000E+00  0.00000000E+00
  0.00000000E+00  0.00000000E+00  0.00000000E+00
  0.00000000E+00  0.00000000E+00  0.00000000E+00
  0.00000000E+00  0.00000000E+00  0.00000000E+00
  0.00000000E+00  0.00000000E+00  0.00000000E+00
  0.00000000E+00  0.00000000E+00  0.00000000E+00
  0.00000000E+00  0.00000000E+00  0.00000000E+00
  0.00000000E+00  0.00000000E+00  0.00000000E+00
  0.00000000E+00  0.00000000E+00  0.00000000E+00
  0.00000000E+00  0.00000000E+00  0.00000000E+00
  0.00000000E+00  0.00000000E+00  0.00000000E+00
  0.00000000E+00  0.00000000E+00  0.00000000E+00
  0.00000000E+00  0.00000000E+00  0.00000000E+00
  0.00000000E+00  0.00000000E+00  0.00000000E+00
  0.00000000E+00  0.00000000E+00  0.00000000E+00
  0.00000000E+00  0.00000000E+00  0.00000000E+00
  0.00000000E+00  0.00000000E+00  0.00000000E+00
  0.00000000E+00  0.00000000E+00  0.00000000E+00
  0.00000000E+00  0.00000000E+00  0.00000000E+00
  0.00000000E+00  0.00000000E+00  0.00000000E+00
  0.00000000E+00  0.00000000E+00  0.00000000E+00
  0.00000000E+00  0.00000000E+00  0.00000000E+00
  0.00000000E+00  0.00000000E+00  0.00000000E+00
  0.00000000E+00  0.00000000E+00  0.00000000E+00
  0.00000000E+00  0.00000000E+00  0.00000000E+00
  0.00000000E+00  0.00000000E+00  0.00000000E+00
  0.00000000E+00  0.00000000E+00  0.00000000E+00
  0.00000000E+00  0.00000000E+00  0.00000000E+00
  0.00000000E+00  0.00000000E+00  0.00000000E+00
  0.00000000E+00  0.00000000E+00  0.00000000E+00
  0.00000000E+00  0.00000000E+00  0.00000000E+00
  0.00000000E+00  0.00000000E+00  0.00000000E+00
  0.00000000E+00  0.00000000E+00  0.00000000E+00
  0.00000000E+00  0.00000000E+00  0.00000000E+00
  0.00000000E+00  0.00000000E+00  0.00000000E+00
  0.00000000E+00  0.00000000E+00  0.00000000E+00
  0.00000000E+00  0.00000000E+00  0.00000000E+00
  0.00000000E+00  0.00000000E+00  0.00000000E+00