FeMn_288_15                             
    1.000000000000000     
     9.7266779999999997    0.0000000000000000    0.0000000000000000
     0.0000000000000000    8.4235500000000005    0.0000000000000000
     0.0000000000000000    0.0000000000000000   45.0000000000000000
   Fe   Mn
   273    15
Direct
  0.5622165681413155  0.7047393717375801  0.6983319155655938
  0.8124333732964260  0.8719614662365867  0.6538562852259198
  0.4374805582915850  0.6228180003872623  0.3017974404873412
  0.9376684780458759  0.6222036480097283  0.5214693631940659
  0.3119251952756345  0.5372972890458930  0.8734786222569038
  0.6872501574082166  0.2880036024442434  0.7424284220915440
  0.6874175673846252  0.1212211683891132  0.7866072060475037
  0.5630685429413684  0.5372549344775399  0.8735011650790083
  0.0624505944249854  0.2049354148026210  0.8314023294899188
  0.3124080002723623  0.3726468461494180  0.3016853821012540
  0.1876131563673127  0.6214988494808481  0.7866336104097048
  0.4375376765595999  0.1215164285534438  0.6538239986418860
  0.0625448862808945  0.3712470271364939  0.7865904033961045
  0.1874305077573488  0.4563238865974256  0.3461227819719467
  0.9373139560494433  0.4553239582895759  0.5652420290003466
  0.9374836300888334  0.7880187880896916  0.8735489873988940
  0.1877883308369364  0.1221093120839410  0.4348543633460893
  0.5623738233589729  0.8727664355597773  0.4347931670284498
  0.1880337920143840  0.1219243643214123  0.5214245582282085
  0.6878462193598962  0.1224779388108658  0.4348464407083915
  0.3123482103234819  0.7064657724935868  0.2133093996054093
  0.1877526530946289  0.7883149145880878  0.7424907944018883
  0.0625358607239838  0.2051777256894011  0.5649859707182437
  0.5627224161315196  0.7064520033320479  0.2133334926070478
  0.0625584937476179  0.0383214142583201  0.7424666705204891
  0.6872917717930667  0.1231371324001739  0.3019074805413471
  0.1873900437051760  0.6231814281699619  0.3016914530490623
  0.5624046991650405  0.0397506295356548  0.1262942692733169
  0.8124813023196521  0.3715056333107775  0.6538116171304391
  0.9375426161729572  0.9552838297974344  0.6983628424026433
  0.0624473219253071  0.7041103411587218  0.8313601260705666
  0.1871145724031981  0.1234489173347471  0.1684052169857017
  0.1876157655631202  0.7879144121812296  0.8735712369500616
  0.6867370633587342  0.2894390641143677  0.1264300944708767
  0.8125589311823774  0.2050072637086590  0.8313799595999926
  0.9374381266519569  0.2887176572477366  0.3902333809848276
  0.6869034287545759  0.4567708797138694  0.2134515365523982
  0.5626801086070544  0.8713839501822025  0.6538287112628781
  0.3122783334075524  0.2062940079037345  0.4785771483862866
  0.9375474547540993  0.9551680474485968  0.5653229243016635
  0.0623776944297353  0.5379867339122003  0.7423804700727346
  0.0627982601315950  0.7059743378854955  0.2133619139034130
  0.8124329876617673  0.3709642809665036  0.7866563123015805
  0.4375284256187470  0.7898734456337385  0.1262778084975646
  0.6873914592077041  0.2885196782379790  0.6098486552786755
  0.1880548761041348  0.4558844907315062  0.4786215686080468
  0.8125683043584903  0.5377156837903758  0.8736138526703422
  0.6878224241002117  0.4552240933219745  0.5651797937387530
  0.9375142874981806  0.4544468578613024  0.8313646090377080
  0.9371413599479670  0.9561701149127598  0.3461129894043961
  0.8127788906007267  0.2062464860929233  0.4785757874555428
  0.8124999244638805  0.0380674742321650  0.7424124838090993
  0.5626167774015882  0.7053325086134068  0.8314377539828021
  0.6875553461727838  0.4550872095598859  0.6983204948811638
  0.9373666399373746  0.4565446111596504  0.3460625453529926
  0.9373826777374399  0.9553104172152438  0.4787034204619871
  0.8122349244443255  0.8729189905353534  0.4349282234133126
  0.1874362695026347  0.6222965248642784  0.5214405030072806
  0.4376410205369605  0.2893327446053871  0.3901873372167077
  0.1873871278399178  0.9543629461066946  0.8313583559968843
  0.9374539268356680  0.9545992490634672  0.8315252537890284
  0.3124813482365440  0.5384756865210046  0.6098563170126667
  0.0626276944883180  0.8728838820754373  0.3016900112415457
  0.8125982432630993  0.5396931472672805  0.2575264589187810
  0.3124760659451217  0.7047213039110998  0.6982934035818874
  0.0626655019817866  0.2067603689531012  0.2133810531902081
  0.9374989479101015  0.4565821354676395  0.2133153828908862
  0.4374185565703977  0.4555690865330383  0.5653045685900829
  0.4375384344498428  0.6232522383664919  0.1686107155570204
  0.8126697441882214  0.5384410623064085  0.6098120827055652
  0.6873523531822181  0.2896346856143813  0.2575910199482094
  0.0625866105661040  0.3714550692503535  0.6537915646637231
  0.4374535192700036  0.9560298751422459  0.3462090117591812
  0.3124546061935796  0.2057748631222020  0.5653768793715253
  0.4374186574872999  0.7883165910148792  0.7424380901807993
  0.1873665836214495  0.2882849786361212  0.6098365343677357
  0.4374345394531455  0.4569095393450037  0.2133170745302093
  0.3123372679798026  0.8731155733915842  0.3017355625662352
  0.1872883242081241  0.4547141813376393  0.8314704285628350
  0.6877979148219426  0.1220548396455387  0.5213360298216700
  0.8127726397549997  0.5395474076295657  0.3901165800977522
  0.3123537549737384  0.5392055473518318  0.3900972834626705
  0.0618745644018590  0.3727412561345535  0.1684532276111426
  0.9376681609513179  0.2883414842152844  0.6098637164133580
  0.8125115491814082  0.7052680990265751  0.5652504742237926
  0.0625108973247711  0.8723411438713127  0.5214314888158507
  0.5624481750126153  0.0397076668652282  0.3901523955839015
  0.5625647218846832  0.0387935870350061  0.6099410005954435
  0.3124768017968292  0.5384593322702625  0.7424500536682219
  0.6874983357927369  0.6221708552542575  0.5213408024133582
  0.6875720809711975  0.2883030768556519  0.8735416457451191
  0.8118984431997358  0.3721799436642009  0.4348114974549754
  0.5622916826381852  0.8732799797109445  0.1684719939880193
  0.3125144599349226  0.0396093850357153  0.2574654474193024
  0.5623260530799714  0.7056473977179264  0.4786494169655245
  0.0623595161215095  0.0402217083597784  0.2574549762344960
  0.4374765283947031  0.9553116331368927  0.4786544942980809
  0.5626141714560897  0.8713975647867838  0.7866536613718015
  0.9376444008032975  0.4550371769741057  0.6982355650254044
  0.3125082353868571  0.0393399756920614  0.3900295500953576
  0.5623472326734371  0.5383837332898518  0.6097925693703339
  0.0625460028304147  0.7052918817649972  0.5651942512543220
  0.6874318819346190  0.9552363140734255  0.5652962934649857
  0.8123711137430066  0.8710298360404110  0.7866199909928056
  0.6878813410563596  0.1234356254620342  0.1684190796124514
  0.1876578241560816  0.7895170853388405  0.1262593244592805
  0.3121924210798779  0.8713795480718276  0.7865830297687617
  0.6877897187326549  0.9562109347510938  0.2133637230184245
  0.8127366968605800  0.5408325836526877  0.1263417361965238
  0.1875242399588231  0.1214535101975146  0.7866019709927339
  0.4374885936069602  0.6216451513521094  0.7866506342475141
  0.1881092663760510  0.4567368764463228  0.2133877988872749
  0.0625034509691867  0.7055385351281865  0.4786139977331256
  0.5623276963866843  0.3724909168280303  0.5213635225605803
  0.6876750025362280  0.7898606066207944  0.2574910049868386
  0.8125422548327288  0.2054744417758476  0.5653821289590694
  0.0628844696752880  0.2049866836349338  0.6982798643270336
  0.3124981433393962  0.0386446543029531  0.6099453947011306
  0.5623887614000851  0.5401237268435308  0.1264203557693807
  0.0625737575503433  0.5381560882052617  0.6097919920271136
  0.4374053467475820  0.6218960259531038  0.5214512818739192
  0.6875087681112481  0.9548354989454255  0.6982939217766778
  0.5625724340242949  0.7060417502433671  0.3462134200783813
  0.5625906270611635  0.2067780579768720  0.2133985554701857
  0.8119503357369451  0.7060743715110148  0.3462092278384940
  0.3126198534334612  0.3718791974439234  0.5213953938173533
  0.1882628722749355  0.2895073940331466  0.1264106628829994
  0.5623857093486754  0.3733732070380916  0.1686565578377247
  0.9375040469609511  0.1235603506155653  0.1684858627294288
  0.9375572939576582  0.6219510027646352  0.6537542641897790
  0.8125055222839291  0.8725019977146058  0.3017007897881654
  0.0624904305379440  0.8719764655133905  0.6538574669465350
  0.3124867918223612  0.5395146783354030  0.2574587102581642
  0.3125253303141998  0.7057412009850049  0.4787019277974505
  0.8123267257650709  0.2067722554579631  0.2133586038649408
  0.0627477245866125  0.8711802430938533  0.7866620161961609
  0.8124210842565233  0.0393226406665295  0.3899887498011064
  0.3130262648866168  0.3723671662254657  0.4348182333831540
  0.5625692133465295  0.8725424030362270  0.5214146641857056
  0.1877347786893206  0.6224962011892363  0.4348764177022306
  0.9374802086992081  0.6211307012598545  0.7866256949845665
  0.5621778559261217  0.2047179531944715  0.6982948719182026
  0.3125492492111923  0.0377927366812318  0.7424154439142397
  0.0625241421952168  0.3726256950872835  0.5212830858918129
  0.9373248342915018  0.7890650805115905  0.3901490504576904
  0.4375554938601666  0.4545371389575473  0.6983293267297394
  0.0624949472044265  0.0394141292174235  0.3901437500725372
  0.4375608203230852  0.9554527782885011  0.5652246894204622
  0.4370558092229030  0.6230302315824013  0.4348536415478561
  0.1876470590219325  0.7883436858528723  0.6099138335255240
  0.9376102708619061  0.6228402209094230  0.4348709678926134
  0.5624172569474953  0.5395334627981254  0.3900835873725039
  0.9374639554591716  0.6226717148848094  0.1684062274014676
  0.1877766341410913  0.2882054991635628  0.7424364603769812
  0.3130350925858762  0.8730240093621205  0.4349509563024729
  0.6875263162561176  0.9552548937973682  0.4785594311029123
  0.3130050632850564  0.7060853873007282  0.3461962999035875
  0.3126025767904325  0.3734169457839148  0.1686724080743705
  0.3127100073307971  0.8732988935672751  0.1684898704606880
  0.9374591355924218  0.1221359596814804  0.4348047322903908
  0.8123829583402119  0.8724517781579885  0.5214784453101426
  0.3124299928028766  0.2066716109030215  0.2133905757140264
  0.6874064594826050  0.2895748133376133  0.3902110672524115
  0.1873972901830373  0.1233314286867278  0.3018115760971877
  0.6880069387052740  0.4556478863400079  0.4786221160063128
  0.1872838421558609  0.7900363592024701  0.2574851649471611
  0.4374992767100785  0.2879674403787991  0.7424853876792989
  0.8127866864381262  0.8728373999183818  0.1685203359082348
  0.5626251204051987  0.0394912768211309  0.2574978907738745
  0.0624485605133590  0.0385055104645310  0.6098649120670423
  0.8131690770077318  0.3726355915692325  0.1684977309004181
  0.3125593506990451  0.7054773924960956  0.5652571164811075
  0.6877187098873030  0.4547221834684159  0.8315076597817564
  0.8125342436534474  0.7041832158767684  0.8313407586301891
  0.8124374776553606  0.2050163732913771  0.6982680115708996
  0.4368202098888906  0.1224910123476882  0.4348178838493751
  0.5626100131471223  0.5384586971467190  0.7424523247889186
  0.4375227010563458  0.2892181284959430  0.2574899023867028
  0.3128968356542322  0.2045690528041367  0.8313675389827602
  0.5620742822433767  0.2046097178551422  0.8313699220114386
  0.6873621011056493  0.6214053509260394  0.7866637577630027
  0.5625811355209293  0.2061890247125513  0.3461931815808196
  0.5625300303235943  0.3714268571439449  0.7866563826991897
  0.9368812107946847  0.4559177445630807  0.4786263699109715
  0.3125417298257388  0.8721981638861471  0.5214711669602735
  0.4375519357243372  0.7897800614017312  0.2575808720014512
  0.4371132948978046  0.1219901548761151  0.5213860253985254
  0.1877471802455201  0.2896813447813242  0.2575536189108474
  0.3132537264362113  0.2060667353642490  0.3460906326172543
  0.1874573051607534  0.4552989956823311  0.5652208451811510
  0.3125094392949979  0.3714172370405767  0.6538087104887604
  0.4377406449924422  0.7892123449817797  0.3902026734427409
  0.5625159011250714  0.3725512474461872  0.3016771817189143
  0.1879881153198490  0.9564821312288200  0.3462324276030372
  0.0623270063892323  0.5389648924059023  0.3901597627673082
  0.8125581381506249  0.0397975091463747  0.2574963448322675
  0.6876350823807883  0.1216831844264554  0.6537827296596216
  0.5620611437712277  0.0374901277283083  0.8737023910586771
  0.9375878135220181  0.7901983162753849  0.2573938022729295
  0.1874709646992548  0.2888918320483186  0.3901518821255461
  0.1872705737869239  0.9561321645002531  0.2132819314752346
  0.5624061771420343  0.7054117023702309  0.5651660392463752
  0.9375450795609608  0.1219025761125510  0.6538198037148424
  0.6875595410899525  0.9544027523812036  0.8314350777270606
  0.6872813724088793  0.6234751068685340  0.1685731111816456
  0.5625398022830123  0.8730652027193583  0.3016509010004362
  0.9370264707370579  0.1219403617636997  0.5214345312224192
  0.3125362478529666  0.2047078034091658  0.6982823517262373
  0.6873759957755536  0.7884091905729531  0.6098627503567878
  0.0625917449256274  0.3733499986884380  0.3017408506243188
  0.1877319644368123  0.6234810573987700  0.1685592491820501
  0.8131223353766720  0.0374849534868520  0.8735633290298127
  0.0623544759977256  0.8726604801320921  0.4349523661109366
  0.4372835181005850  0.4561074364598710  0.3460131434147493
  0.9374383022465557  0.7883218437208926  0.6099099831869234
  0.9374904980633616  0.2879192488242790  0.8736015555054676
  0.6877126398362050  0.4563881339604162  0.3461523025879005
  0.8119675861051698  0.2062008753060793  0.3460420634102752
  0.4374687522033972  0.7884810304963304  0.8737032459501670
  0.8125349175819178  0.0386874843840075  0.6098252701579193
  0.8123395776991569  0.5379309195160579  0.7424488316430337
  0.0626778429215873  0.7050813055202224  0.6983237233959274
  0.4376229469238319  0.2885245306772453  0.6099362133995850
  0.1874727365333484  0.9550874175962636  0.6982982106459383
  0.6872186106206785  0.7880704468902189  0.7425144945468445
  0.9375177287438976  0.2898736007235937  0.2575401511935649
  0.8118557820217855  0.0400417532287875  0.1263459428527210
  0.1876376480189644  0.9552762858503714  0.4786777542610066
  0.6873964971032605  0.6228907546316612  0.3017000736880349
  0.5624868042363356  0.2053862982375682  0.5649956832599947
  0.0624764590296637  0.5377257757836355  0.8735985758895374
  0.4375815288519432  0.9548173323307003  0.6982734260520739
  0.5626336598117312  0.5395019452868931  0.2575173300389166
  0.6877511499271212  0.6216859777529842  0.6538070956420462
  0.9375803346426423  0.1230423035968052  0.3017109558049893
  0.3123646238866719  0.7052914679648393  0.8313942601248068
  0.6874497694473412  0.9563250356493901  0.3461771721232403
  0.3129389285908641  0.0375616513908934  0.8737131521400842
  0.5624274510718930  0.3716923686717349  0.6538291516836673
  0.9374673761786412  0.7881253147432238  0.7424457840928584
  0.6874424446734346  0.7878677251147120  0.8736014370456011
  0.4371297797962320  0.4558364432579743  0.4785865376361133
  0.6873257645098484  0.7894879761437160  0.1262759494076795
  0.4375218680523496  0.2905041722598176  0.1263396195524061
  0.3125051375693636  0.3715728848939810  0.7866358219308306
  0.4374978789723932  0.1219392597539060  0.7865021143646171
  0.8126452936909151  0.7057548969207313  0.4787025823081234
  0.8122053932893230  0.7060206782677533  0.2133339998742246
  0.4375268556943136  0.7884860964928342  0.6098671660153907
  0.1872920382680815  0.6216477185447288  0.6538493665018480
  0.4374965848677570  0.4548422221750383  0.8313728545218412
  0.3123952081516891  0.8713531498483790  0.6538432136308407
  0.0619162700839394  0.0375805890021040  0.8735306232193025
  0.8125232333749971  0.3729789359411689  0.3017001412783166
  0.3126090137486954  0.5401888577715384  0.1264129033272612
  0.4374925477221707  0.2874896530557466  0.8735503500375057
  0.0622594467963372  0.8729582357176702  0.1684808532168473
  0.1874500349102266  0.2882899364079505  0.8735282219099689
  0.0622590240969965  0.5408352623909711  0.1263392995602755
  0.0625887029549588  0.5400478642251199  0.2574574116270151
  0.5624509281471649  0.3728961529952178  0.4347737065460550
  0.9374741397718044  0.7900157521984315  0.1261870966428779
  0.6871089541410188  0.7896774338465354  0.3902068613273051
  0.1874412077870462  0.4546499128589252  0.6983089529858852
  0.1875169568585401  0.9551097605397022  0.5653356921212900
  0.4375392434626728  0.1230808948775899  0.1685707075746281
  0.8125472633382219  0.3719481583127215  0.5214707419702695
  0.0631348096194643  0.0400364556895024  0.1263430815320413
  0.3126304747129086  0.0398669194146045  0.1262876898026836
  0.1873527777003738  0.1215156318206893  0.6537700129522171
  0.1874473609318013  0.7891857587234865  0.3901684126733154
  0.5623129697009590  0.0377496060123203  0.7424230171729845
  0.9375442007042408  0.1210730728561091  0.7866278969787311
  0.4375857281001809  0.9545127713923848  0.8320295453136877
  0.9374790035107760  0.2880978771168697  0.7425050923460433
  0.6875499122501784  0.6228706274868506  0.4349025747648401
  0.9374485095074009  0.2906874083045423  0.1265938022262876
  0.4375470206501098  0.1229304839275502  0.3017145035669442
  0.4374663683430534  0.6214539642183529  0.6537583042228805
  0.4374181492782693  0.9568851123895625  0.2135477173592895
  0.9374601735261010  0.9560467857387650  0.2135984832603566
  0.5624478335088117  0.2055563374818654  0.4787403862829488
  0.0629709989876999  0.7068104577617930  0.3463648470240953
  0.9372107417559802  0.6226042371455596  0.3016787515676264
  0.8125758538915502  0.7051306211994665  0.6983163326070834
  0.0624653046187778  0.3726264926781494  0.4347073768084784
  0.0625155406755580  0.2063657898836531  0.3462188366420621
  0.0625050428099669  0.2055090253460949  0.4787510766406127
 
  0.00000000E+00  0.00000000E+00  0.00000000E+00
  0.00000000E+00  0.00000000E+00  0.00000000E+00
  0.00000000E+00  0.00000000E+00  0.00000000E+00
  0.00000000E+00  0.00000000E+00  0.00000000E+00
  0.00000000E+00  0.00000000E+00  0.00000000E+00
  0.00000000E+00  0.00000000E+00  0.00000000E+00
  0.00000000E+00  0.00000000E+00  0.00000000E+00
  0.00000000E+00  0.00000000E+00  0.00000000E+00
  0.00000000E+00  0.00000000E+00  0.00000000E+00
  0.00000000E+00  0.00000000E+00  0.00000000E+00
  0.00000000E+00  0.00000000E+00  0.00000000E+00
  0.00000000E+00  0.00000000E+00  0.00000000E+00
  0.00000000E+00  0.00000000E+00  0.00000000E+00
  0.00000000E+00  0.00000000E+00  0.00000000E+00
  0.00000000E+00  0.00000000E+00  0.00000000E+00
  0.00000000E+00  0.00000000E+00  0.00000000E+00
  0.00000000E+00  0.00000000E+00  0.00000000E+00
  0.00000000E+00  0.00000000E+00  0.00000000E+00
  0.00000000E+00  0.00000000E+00  0.00000000E+00
  0.00000000E+00  0.00000000E+00  0.00000000E+00
  0.00000000E+00  0.00000000E+00  0.00000000E+00
  0.00000000E+00  0.00000000E+00  0.00000000E+00
  0.00000000E+00  0.00000000E+00  0.00000000E+00
  0.00000000E+00  0.00000000E+00  0.00000000E+00
  0.00000000E+00  0.00000000E+00  0.00000000E+00
  0.00000000E+00  0.00000000E+00  0.00000000E+00
  0.00000000E+00  0.00000000E+00  0.00000000E+00
  0.00000000E+00  0.00000000E+00  0.00000000E+00
  0.00000000E+00  0.00000000E+00  0.00000000E+00
  0.00000000E+00  0.00000000E+00  0.00000000E+00
  0.00000000E+00  0.00000000E+00  0.00000000E+00
  0.00000000E+00  0.00000000E+00  0.00000000E+00
  0.00000000E+00  0.00000000E+00  0.00000000E+00
  0.00000000E+00  0.00000000E+00  0.00000000E+00
  0.00000000E+00  0.00000000E+00  0.00000000E+00
  0.00000000E+00  0.00000000E+00  0.00000000E+00
  0.00000000E+00  0.00000000E+00  0.00000000E+00
  0.00000000E+00  0.00000000E+00  0.00000000E+00
  0.00000000E+00  0.00000000E+00  0.00000000E+00
  0.00000000E+00  0.00000000E+00  0.00000000E+00
  0.00000000E+00  0.00000000E+00  0.00000000E+00
  0.00000000E+00  0.00000000E+00  0.00000000E+00
  0.00000000E+00  0.00000000E+00  0.00000000E+00
  0.00000000E+00  0.00000000E+00  0.00000000E+00
  0.00000000E+00  0.00000000E+00  0.00000000E+00
  0.00000000E+00  0.00000000E+00  0.00000000E+00
  0.00000000E+00  0.00000000E+00  0.00000000E+00
  0.00000000E+00  0.00000000E+00  0.00000000E+00
  0.00000000E+00  0.00000000E+00  0.00000000E+00
  0.00000000E+00  0.00000000E+00  0.00000000E+00
  0.00000000E+00  0.00000000E+00  0.00000000E+00
  0.00000000E+00  0.00000000E+00  0.00000000E+00
  0.00000000E+00  0.00000000E+00  0.00000000E+00
  0.00000000E+00  0.00000000E+00  0.00000000E+00
  0.00000000E+00  0.00000000E+00  0.00000000E+00
  0.00000000E+00  0.00000000E+00  0.00000000E+00
  0.00000000E+00  0.00000000E+00  0.00000000E+00
  0.00000000E+00  0.00000000E+00  0.00000000E+00
  0.00000000E+00  0.00000000E+00  0.00000000E+00
  0.00000000E+00  0.00000000E+00  0.00000000E+00
  0.00000000E+00  0.00000000E+00  0.00000000E+00
  0.00000000E+00  0.00000000E+00  0.00000000E+00
  0.00000000E+00  0.00000000E+00  0.00000000E+00
  0.00000000E+00  0.00000000E+00  0.00000000E+00
  0.00000000E+00  0.00000000E+00  0.00000000E+00
  0.00000000E+00  0.00000000E+00  0.00000000E+00
  0.00000000E+00  0.00000000E+00  0.00000000E+00
  0.00000000E+00  0.00000000E+00  0.00000000E+00
  0.00000000E+00  0.00000000E+00  0.00000000E+00
  0.00000000E+00  0.00000000E+00  0.00000000E+00
  0.00000000E+00  0.00000000E+00  0.00000000E+00
  0.00000000E+00  0.00000000E+00  0.00000000E+00
  0.00000000E+00  0.00000000E+00  0.00000000E+00
  0.00000000E+00  0.00000000E+00  0.00000000E+00
  0.00000000E+00  0.00000000E+00  0.00000000E+00
  0.00000000E+00  0.00000000E+00  0.00000000E+00
  0.00000000E+00  0.00000000E+00  0.00000000E+00
  0.00000000E+00  0.00000000E+00  0.00000000E+00
  0.00000000E+00  0.00000000E+00  0.00000000E+00
  0.00000000E+00  0.00000000E+00  0.00000000E+00
  0.00000000E+00  0.00000000E+00  0.00000000E+00
  0.00000000E+00  0.00000000E+00  0.00000000E+00
  0.00000000E+00  0.00000000E+00  0.00000000E+00
  0.00000000E+00  0.00000000E+00  0.00000000E+00
  0.00000000E+00  0.00000000E+00  0.00000000E+00
  0.00000000E+00  0.00000000E+00  0.00000000E+00
  0.00000000E+00  0.00000000E+00  0.00000000E+00
  0.00000000E+00  0.00000000E+00  0.00000000E+00
  0.00000000E+00  0.00000000E+00  0.00000000E+00
  0.00000000E+00  0.00000000E+00  0.00000000E+00
  0.00000000E+00  0.00000000E+00  0.00000000E+00
  0.00000000E+00  0.00000000E+00  0.00000000E+00
  0.00000000E+00  0.00000000E+00  0.00000000E+00
  0.00000000E+00  0.00000000E+00  0.00000000E+00
  0.00000000E+00  0.00000000E+00  0.00000000E+00
  0.00000000E+00  0.00000000E+00  0.00000000E+00
  0.00000000E+00  0.00000000E+00  0.00000000E+00
  0.00000000E+00  0.00000000E+00  0.00000000E+00
  0.00000000E+00  0.00000000E+00  0.00000000E+00
  0.00000000E+00  0.00000000E+00  0.00000000E+00
  0.00000000E+00  0.00000000E+00  0.00000000E+00
  0.00000000E+00  0.00000000E+00  0.00000000E+00
  0.00000000E+00  0.00000000E+00  0.00000000E+00
  0.00000000E+00  0.00000000E+00  0.00000000E+00
  0.00000000E+00  0.00000000E+00  0.00000000E+00
  0.00000000E+00  0.00000000E+00  0.00000000E+00
  0.00000000E+00  0.00000000E+00  0.00000000E+00
  0.00000000E+00  0.00000000E+00  0.00000000E+00
  0.00000000E+00  0.00000000E+00  0.00000000E+00
  0.00000000E+00  0.00000000E+00  0.00000000E+00
  0.00000000E+00  0.00000000E+00  0.00000000E+00
  0.00000000E+00  0.00000000E+00  0.00000000E+00
  0.00000000E+00  0.00000000E+00  0.00000000E+00
  0.00000000E+00  0.00000000E+00  0.00000000E+00
  0.00000000E+00  0.00000000E+00  0.00000000E+00
  0.00000000E+00  0.00000000E+00  0.00000000E+00
  0.00000000E+00  0.00000000E+00  0.00000000E+00
  0.00000000E+00  0.00000000E+00  0.00000000E+00
  0.00000000E+00  0.00000000E+00  0.00000000E+00
  0.00000000E+00  0.00000000E+00  0.00000000E+00
  0.00000000E+00  0.00000000E+00  0.00000000E+00
  0.00000000E+00  0.00000000E+00  0.00000000E+00
  0.00000000E+00  0.00000000E+00  0.00000000E+00
  0.00000000E+00  0.00000000E+00  0.00000000E+00
  0.00000000E+00  0.00000000E+00  0.00000000E+00
  0.00000000E+00  0.00000000E+00  0.00000000E+00
  0.00000000E+00  0.00000000E+00  0.00000000E+00
  0.00000000E+00  0.00000000E+00  0.00000000E+00
  0.00000000E+00  0.00000000E+00  0.00000000E+00
  0.00000000E+00  0.00000000E+00  0.00000000E+00
  0.00000000E+00  0.00000000E+00  0.00000000E+00
  0.00000000E+00  0.00000000E+00  0.00000000E+00
  0.00000000E+00  0.00000000E+00  0.00000000E+00
  0.00000000E+00  0.00000000E+00  0.00000000E+00
  0.00000000E+00  0.00000000E+00  0.00000000E+00
  0.00000000E+00  0.00000000E+00  0.00000000E+00
  0.00000000E+00  0.00000000E+00  0.00000000E+00
  0.00000000E+00  0.00000000E+00  0.00000000E+00
  0.00000000E+00  0.00000000E+00  0.00000000E+00
  0.00000000E+00  0.00000000E+00  0.00000000E+00
  0.00000000E+00  0.00000000E+00  0.00000000E+00
  0.00000000E+00  0.00000000E+00  0.00000000E+00
  0.00000000E+00  0.00000000E+00  0.00000000E+00
  0.00000000E+00  0.00000000E+00  0.00000000E+00
  0.00000000E+00  0.00000000E+00  0.00000000E+00
  0.00000000E+00  0.00000000E+00  0.00000000E+00
  0.00000000E+00  0.00000000E+00  0.00000000E+00
  0.00000000E+00  0.00000000E+00  0.00000000E+00
  0.00000000E+00  0.00000000E+00  0.00000000E+00
  0.00000000E+00  0.00000000E+00  0.00000000E+00
  0.00000000E+00  0.00000000E+00  0.00000000E+00
  0.00000000E+00  0.00000000E+00  0.00000000E+00
  0.00000000E+00  0.00000000E+00  0.00000000E+00
  0.00000000E+00  0.00000000E+00  0.00000000E+00
  0.00000000E+00  0.00000000E+00  0.00000000E+00
  0.00000000E+00  0.00000000E+00  0.00000000E+00
  0.00000000E+00  0.00000000E+00  0.00000000E+00
  0.00000000E+00  0.00000000E+00  0.00000000E+00
  0.00000000E+00  0.00000000E+00  0.00000000E+00
  0.00000000E+00  0.00000000E+00  0.00000000E+00
  0.00000000E+00  0.00000000E+00  0.00000000E+00
  0.00000000E+00  0.00000000E+00  0.00000000E+00
  0.00000000E+00  0.00000000E+00  0.00000000E+00
  0.00000000E+00  0.00000000E+00  0.00000000E+00
  0.00000000E+00  0.00000000E+00  0.00000000E+00
  0.00000000E+00  0.00000000E+00  0.00000000E+00
  0.00000000E+00  0.00000000E+00  0.00000000E+00
  0.00000000E+00  0.00000000E+00  0.00000000E+00
  0.00000000E+00  0.00000000E+00  0.00000000E+00
  0.00000000E+00  0.00000000E+00  0.00000000E+00
  0.00000000E+00  0.00000000E+00  0.00000000E+00
  0.00000000E+00  0.00000000E+00  0.00000000E+00
  0.00000000E+00  0.00000000E+00  0.00000000E+00
  0.00000000E+00  0.00000000E+00  0.00000000E+00
  0.00000000E+00  0.00000000E+00  0.00000000E+00
  0.00000000E+00  0.00000000E+00  0.00000000E+00
  0.00000000E+00  0.00000000E+00  0.00000000E+00
  0.00000000E+00  0.00000000E+00  0.00000000E+00
  0.00000000E+00  0.00000000E+00  0.00000000E+00
  0.00000000E+00  0.00000000E+00  0.00000000E+00
  0.00000000E+00  0.00000000E+00  0.00000000E+00
  0.00000000E+00  0.00000000E+00  0.00000000E+00
  0.00000000E+00  0.00000000E+00  0.00000000E+00
  0.00000000E+00  0.00000000E+00  0.00000000E+00
  0.00000000E+00  0.00000000E+00  0.00000000E+00
  0.00000000E+00  0.00000000E+00  0.00000000E+00
  0.00000000E+00  0.00000000E+00  0.00000000E+00
  0.00000000E+00  0.00000000E+00  0.00000000E+00
  0.00000000E+00  0.00000000E+00  0.00000000E+00
  0.00000000E+00  0.00000000E+00  0.00000000E+00
  0.00000000E+00  0.00000000E+00  0.00000000E+00
  0.00000000E+00  0.00000000E+00  0.00000000E+00
  0.00000000E+00  0.00000000E+00  0.00000000E+00
  0.00000000E+00  0.00000000E+00  0.00000000E+00
  0.00000000E+00  0.00000000E+00  0.00000000E+00
  0.00000000E+00  0.00000000E+00  0.00000000E+00
  0.00000000E+00  0.00000000E+00  0.00000000E+00
  0.00000000E+00  0.00000000E+00  0.00000000E+00
  0.00000000E+00  0.00000000E+00  0.00000000E+00
  0.00000000E+00  0.00000000E+00  0.00000000E+00
  0.00000000E+00  0.00000000E+00  0.00000000E+00
  0.00000000E+00  0.00000000E+00  0.00000000E+00
  0.00000000E+00  0.00000000E+00  0.00000000E+00
  0.00000000E+00  0.00000000E+00  0.00000000E+00
  0.00000000E+00  0.00000000E+00  0.00000000E+00
  0.00000000E+00  0.00000000E+00  0.00000000E+00
  0.00000000E+00  0.00000000E+00  0.00000000E+00
  0.00000000E+00  0.00000000E+00  0.00000000E+00
  0.00000000E+00  0.00000000E+00  0.00000000E+00
  0.00000000E+00  0.00000000E+00  0.00000000E+00
  0.00000000E+00  0.00000000E+00  0.00000000E+00
  0.00000000E+00  0.00000000E+00  0.00000000E+00
  0.00000000E+00  0.00000000E+00  0.00000000E+00
  0.00000000E+00  0.00000000E+00  0.00000000E+00
  0.00000000E+00  0.00000000E+00  0.00000000E+00
  0.00000000E+00  0.00000000E+00  0.00000000E+00
  0.00000000E+00  0.00000000E+00  0.00000000E+00
  0.00000000E+00  0.00000000E+00  0.00000000E+00
  0.00000000E+00  0.00000000E+00  0.00000000E+00
  0.00000000E+00  0.00000000E+00  0.00000000E+00
  0.00000000E+00  0.00000000E+00  0.00000000E+00
  0.00000000E+00  0.00000000E+00  0.00000000E+00
  0.00000000E+00  0.00000000E+00  0.00000000E+00
  0.00000000E+00  0.00000000E+00  0.00000000E+00
  0.00000000E+00  0.00000000E+00  0.00000000E+00
  0.00000000E+00  0.00000000E+00  0.00000000E+00
  0.00000000E+00  0.00000000E+00  0.00000000E+00
  0.00000000E+00  0.00000000E+00  0.00000000E+00
  0.00000000E+00  0.00000000E+00  0.00000000E+00
  0.00000000E+00  0.00000000E+00  0.00000000E+00
  0.00000000E+00  0.00000000E+00  0.00000000E+00
  0.00000000E+00  0.00000000E+00  0.00000000E+00
  0.00000000E+00  0.00000000E+00  0.00000000E+00
  0.00000000E+00  0.00000000E+00  0.00000000E+00
  0.00000000E+00  0.00000000E+00  0.00000000E+00
  0.00000000E+00  0.00000000E+00  0.00000000E+00
  0.00000000E+00  0.00000000E+00  0.00000000E+00
  0.00000000E+00  0.00000000E+00  0.00000000E+00
  0.00000000E+00  0.00000000E+00  0.00000000E+00
  0.00000000E+00  0.00000000E+00  0.00000000E+00
  0.00000000E+00  0.00000000E+00  0.00000000E+00
  0.00000000E+00  0.00000000E+00  0.00000000E+00
  0.00000000E+00  0.00000000E+00  0.00000000E+00
  0.00000000E+00  0.00000000E+00  0.00000000E+00
  0.00000000E+00  0.00000000E+00  0.00000000E+00
  0.00000000E+00  0.00000000E+00  0.00000000E+00
  0.00000000E+00  0.00000000E+00  0.00000000E+00