CuInSe2gb                               
   1.00000000000000     
     9.7266780392896699    0.0000000000000000    0.0000000000000000
     0.0000000000000000    8.4235502764570693    0.0000000000000000
     0.0000000000000000    0.0000000000000000   45.0000000000000000
   Fe   Mn
   281     7
Direct
  0.0578629721807844  0.7008036751642314  0.2110680193655738
  0.3159875418953565  0.7208422609382166  0.8756936482352888
  0.6882120154415013  0.9579494332631482  0.6114100102273381
  0.4383047303617315  0.4580128350209299  0.6114524448845862
  0.4366585263822068  0.2868141085602504  0.2555301615842784
  0.0607339899347737  0.3868088864121709  0.8341636255085185
  0.3103096303612011  0.8867882117253220  0.8342857667143710
  0.4422403768463372  0.6265264694247856  0.7003707486195265
  0.0636296858698859  0.2130469295457104  0.7445408194135700
  0.1826125786325327  0.4512404275160584  0.2112627838790115
  0.5638953255588974  0.2090351178764352  0.4778441901896693
  0.0640478895435621  0.8747936517988076  0.5668512009791901
  0.5653831894253611  0.2197936619788465  0.8759915955734782
  0.8102498146209883  0.5302952735293532  0.1245268257633711
  0.4329322789945401  0.9510636032377251  0.2111713943927458
  0.5641891399835470  0.3746323152559203  0.5667270094756314
  0.8118002455352897  0.0420818046077732  0.3883803595409201
  0.6860995046278299  0.7908997856762469  0.5221196878930249
  0.4388431781742760  0.4590411832320608  0.4777957255099746
  0.4379774567250980  0.9629742961732174  0.7445199836784883
  0.4390784107897128  0.6245476354274184  0.5668329653249518
  0.5675244099840360  0.8763109686721151  0.7002985588373412
  0.3100951174566477  0.0308093915596370  0.1244861754116022
  0.6866172534804307  0.9578225345295444  0.3440266973347093
  0.6868428774420718  0.7791799292287799  0.1245514933254743
  0.0576666824687465  0.3732244304444934  0.2995962858869540
  0.6888237902191762  0.4718001561254700  0.8757281535990032
  0.4331067376586490  0.4513047169460971  0.2111370941359230
  0.8109090667459592  0.3752697378333977  0.4330224661725338
  0.5632269722840119  0.7080260998284267  0.6114782415058374
  0.5629775818633559  0.5413270382529356  0.6557908947620715
  0.8141591276114230  0.8638238393503260  0.1659955307119832
  0.5611085363328211  0.5369692945389772  0.2555348660766872
  0.6866965221940187  0.4580027016481755  0.3441230653463971
  0.1883050435841070  0.6126752055689737  0.1662283275080677
  0.1916670795440028  0.7990207961514850  0.7887053565930398
  0.4424390151590515  0.1266938458864323  0.7003942758839210
  0.9329505971499373  0.6232050954276428  0.2996835022628048
  0.3152857529248733  0.2200406390231437  0.8757055066095918
  0.3139244897286022  0.8746579691225599  0.5667750008237977
  0.8148509641090204  0.2203457229113069  0.8756848024315563
  0.8128465085148180  0.5416871348906158  0.6557692386263785
  0.5599009989737772  0.5301787101551471  0.1244002844089942
  0.5669710655206177  0.0500246201738932  0.7889811011785403
  0.1865263104134008  0.2869572861212715  0.2555192796472060
  0.8107745065294559  0.8752612180398210  0.4330528006907094
  0.5671547420247094  0.3764568473650275  0.7004502119537565
  0.0603630705940312  0.0297243055572036  0.1244113190295321
  0.3129376598963768  0.5413186899647547  0.6557783297142019
  0.5618409176746811  0.2079280995427702  0.3441754679889441
  0.1885658462402235  0.9581024718224748  0.6114604122477808
  0.3077605578094261  0.3735259970136133  0.2996153879535042
  0.4378257901192678  0.7915775025732923  0.6558115838127079
  0.1920108636122449  0.2983792224380830  0.7888564428130174
  0.0644054339831927  0.3636796309862228  0.1660096043505024
  0.6920643661378728  0.6266413694295524  0.7003332426394111
  0.3116271176985494  0.5416122479078324  0.3884096658791198
  0.0653907680569614  0.7199447186536919  0.8758895931441215
  0.9363282120537079  0.6371921262535775  0.8342554273546097
  0.3175748135222388  0.5496809994269185  0.7889421348630958
  0.3075082233987491  0.2006605126118644  0.2111559182111287
  0.0638913966027455  0.7089179916675111  0.4778830689275521
  0.5576833410807968  0.2010352748827730  0.2110699048631135
  0.3138481686667502  0.2134507333019033  0.7444636296964341
  0.0673375256022356  0.3769701285642553  0.7003601597527204
  0.1862721440991758  0.6375979066305135  0.8340839257132178
  0.0668729168675436  0.0493650383141247  0.7889660760098363
  0.4391127303567036  0.1246886231974333  0.5668017784451646
  0.9382619787502213  0.2917175185531916  0.6556700854639899
  0.8076418939375772  0.2015164790019832  0.2110914922976463
  0.9328438872014758  0.9516037585022917  0.2112154359615057
  0.9390655897482146  0.6249093605885043  0.5667545039075531
  0.8110145840373890  0.3862865130877871  0.8341765712020655
  0.1922246301468723  0.6265921574659979  0.7003426941606693
  0.8115559848894521  0.8868881450099206  0.8342813092623591
  0.6879660770004488  0.2913148819365156  0.6557700661100950
  0.3135958623545377  0.2079736169649059  0.6114910126163133
  0.4384241857520442  0.4628273132434558  0.7444103057933567
  0.4366472379902842  0.7915583743735912  0.3884240352267003
  0.6876243187331006  0.9628165686518221  0.7445671951064323
  0.8076231504195555  0.7009900763665825  0.2111214242990898
  0.8131378969659758  0.7080856668312165  0.6114082835119170
  0.4371105271549960  0.7792767719611968  0.1246924848440873
  0.3131842526260938  0.7129120183209271  0.7444533081122872
  0.3173164661894742  0.0496843437974860  0.7889640831146756
  0.8115677080707349  0.5416380089241969  0.3884291835055333
  0.6861491686717390  0.2910494189562925  0.5221608515839524
  0.6920617857231052  0.7993673434028925  0.7889134235399542
  0.1866561060201068  0.7877321850141672  0.2555129627414878
  0.6888586757751701  0.1127204863537824  0.1661463669168886
  0.6888403091793528  0.9591857845412982  0.4778870035125180
  0.9367715800496799  0.9581875169207490  0.3440968844640349
  0.8110652684129976  0.0404117769702214  0.5220981903576687
  0.6849805194313823  0.6251837951277369  0.4330568484559136
  0.4368502016149022  0.4583552281071440  0.3441788154764731
  0.8132686046567194  0.2133484777181313  0.7444824152906477
  0.4385066005910552  0.9714648241221614  0.8754754981769021
  0.5642724270741499  0.8745256712047450  0.5667688445561014
  0.8102105931514537  0.0298607181863775  0.1244048466247135
  0.4323544961879981  0.6234782299539674  0.2996770880149778
  0.8148490554225488  0.7211271998791222  0.8758709461067845
  0.6881046145893840  0.4577922953636763  0.6114132116990294
  0.3142634683266121  0.8632904288133985  0.1659251565396120
  0.8075894168155112  0.3730375123252610  0.2996361737911780
  0.1864843336615697  0.2917259344444088  0.3883947216957955
  0.8163136008864303  0.5495281714271524  0.7891250830802898
  0.1862251278995299  0.7907880021899921  0.5221854520955789
  0.3077070567959785  0.8733488845917082  0.2996672376686175
  0.1826405733905684  0.9512558274645794  0.2112084073370749
  0.1885782903485667  0.4629924267664974  0.7444939092235433
  0.4361217108238973  0.2906557976243930  0.5220680029752613
  0.0621080082397340  0.7085470499224712  0.3442102388960353
  0.1882451470664502  0.7911662227442381  0.6556933399041874
  0.4416391445672579  0.7993612823679991  0.7888279797505033
  0.6850271326575449  0.1251675348009784  0.4330671469328313
  0.9362159224019713  0.7904727240662593  0.5221750581207799
  0.6887961334240552  0.6136942211916796  0.1661341830644470
  0.8118286781677106  0.7085979521052450  0.3442614215024614
  0.9384669387326537  0.4628662047962391  0.7444330776613051
  0.1866891060057847  0.4582035618766583  0.3441487052228060
  0.5672406435758161  0.5495984009881217  0.7889638661695911
  0.5646988376934432  0.3637320003313175  0.1658235826160561
  0.5614462932891483  0.7084237076223282  0.3443035651991742
  0.5580490704580181  0.3732466721403295  0.2995954611956135
  0.1880621664824707  0.4709517392401391  0.8755563980170558
  0.1890836322316575  0.1130424904198847  0.1660478354761664
  0.4414569041981480  0.2988078634938321  0.7888254149573695
  0.6861640136245987  0.7872690637405994  0.2555161989192574
  0.9370494966105249  0.1361705146160412  0.8340225314456161
  0.4389534072969484  0.9591037342543146  0.4777885651786581
  0.5654260297004255  0.7195076699685838  0.8756804705550124
  0.1886783437455988  0.4589952488822317  0.4777838155566924
  0.9362228248987782  0.2795166863530461  0.1245669652096714
  0.3115333769630056  0.0416297327323649  0.3884581021752899
  0.0628728225906406  0.0410402661386019  0.6557069849834143
  0.5610057570763922  0.3752026608746087  0.4330327389741129
  0.6875544622476502  0.4622587463034739  0.7444929756960652
  0.5637824051558767  0.2136885075384505  0.7443839771358126
  0.9426849274929935  0.1269128066202342  0.7004087962054510
  0.5632189107697835  0.0412979944118223  0.6557713410907869
  0.5610862810034856  0.5407603627102997  0.5220720956066377
  0.1827563741962709  0.1232508558289941  0.2995832340918465
  0.4383124286325233  0.1126331548651521  0.1661156880962695
  0.6825143765516727  0.6233359069570334  0.2996589805955939
  0.9324729724979554  0.1229017782431817  0.2996529027328451
  0.8139476962046117  0.3746903415677892  0.5668646747781952
  0.0577873744031253  0.8732035054012556  0.2996010734262799
  0.1889735361642931  0.6247508866096655  0.5668618749329251
  0.9411043325597026  0.7988742000387976  0.7889039116020535
  0.3113504730174259  0.3863958180367481  0.8343024436866439
  0.9395670825427584  0.4712497645117255  0.8755603341283807
  0.4370981675672203  0.6372778057365616  0.8341096575868014
  0.0616522241295197  0.2085054218557409  0.3441889156559630
  0.1884865823858750  0.9711391801799603  0.8754768824304882
  0.9365949392247932  0.7792967289257644  0.1245312283965590
  0.6862836078879158  0.7917136739821768  0.3883897750181566
  0.9380372741449732  0.7915087380570824  0.6557687953266230
  0.9387768725508439  0.1128380723536260  0.1660995953794608
  0.4377519618168670  0.2915147633907306  0.6558267268046464
  0.0581617047955859  0.2010399906269984  0.2110722301875077
  0.6829491538321524  0.9514321951077571  0.2112844437002753
  0.1825221256649972  0.6235146664858915  0.2996813740250369
  0.8170652525596303  0.8765422715904043  0.7003201182879409
  0.9424037313505261  0.6266987926430641  0.7003967671162209
  0.1923248282888103  0.1269864533167387  0.7004153164455480
  0.9390999373051606  0.4587382725748606  0.4778222920758833
  0.8131071550348909  0.2079528102516068  0.6114285627887455
  0.1867911359033783  0.6251221813870904  0.4330348380758725
  0.4327427904753896  0.1234297053752803  0.2996975066399369
  0.6825104464799311  0.1229411797780183  0.2996741838847820
  0.5613156094765911  0.5415760477573968  0.3884416762218330
  0.8118879582007544  0.2080950557537302  0.3442435539325268
  0.4392432132905117  0.4714220973784284  0.8757378678820938
  0.5611078667140584  0.8870013792255415  0.8342321196736905
  0.3140194639755750  0.2093264010947263  0.4778139408541315
  0.1885293925330209  0.9591103526843167  0.4778296215080688
  0.0610138532879265  0.8869391448235916  0.8341822602077723
  0.0612169897731880  0.5405299045452054  0.5220199842787399
  0.9390331692308651  0.9588028044127600  0.4778456380656320
  0.0633197131405166  0.7078686619152436  0.6114106349070748
  0.5610234145679276  0.0410325109325038  0.5220912969233985
  0.6919039852908000  0.2985799583360563  0.7886948937939151
  0.8144530439838930  0.3634179882550934  0.1659669611964363
  0.4357968512991463  0.1250002347884512  0.4330417130932480
  0.0639668465221847  0.2090468260639265  0.4778695215348935
  0.3131416478317831  0.0412149404261533  0.6557543863507815
  0.4360823075204669  0.7905865286110159  0.5220615425689001
  0.1864710911303869  0.1362829407695430  0.8340821560124162
  0.1867756777376769  0.2788345330603830  0.1244185299151357
  0.9366638362903033  0.4583969988597276  0.3441060507850612
  0.5651110701469009  0.8636439486182853  0.1659692654710270
  0.3075904082109673  0.7006978314102665  0.2111025650932958
  0.9383303307620657  0.6136186799095177  0.1662076138907223
  0.1882308694934128  0.4579710241149113  0.6114203833536687
  0.0672867183923669  0.8767560647761340  0.7002480577534638
  0.0629624947826065  0.5415017171027515  0.6558593237635136
  0.3106594937659887  0.5303191321579683  0.1240885619510338
  0.9363546085768663  0.7920404982433852  0.3884322690768576
  0.9416950484431625  0.2986520710705455  0.7887800286815438
  0.1879158859139240  0.2915711162268240  0.6558173750428690
  0.9386184743110116  0.9580989574432760  0.6114992948567224
  0.8134520029682699  0.7130730621140990  0.7445869150943301
  0.6864170404284818  0.2872735723703660  0.2554493587244970
  0.0639156329778692  0.7130330236155359  0.7444633377560071
  0.6827410704105763  0.4510867431461817  0.2112251036106015
  0.8137908357584629  0.2089420335498754  0.4778251162074317
  0.5639214817055296  0.7091405391274933  0.4778592539381626
  0.0639047509964442  0.8634697780755306  0.1660061028944118
  0.9360890422334900  0.2905779521378720  0.5221784880195207
  0.6875842284503680  0.7913933862470910  0.6557990395754205
  0.0614258968835361  0.8747916720893532  0.4329626975271690
  0.0654275374819892  0.2192881938336668  0.8756976253050505
  0.8129448158447183  0.0412419294421610  0.6557606798396278
  0.5599550528151308  0.0297587325792030  0.1244445165125719
  0.3106741629513026  0.3750352507801202  0.4331045080636310
  0.3140755736837840  0.3746746982302622  0.5667642075962880
  0.3139613943625778  0.7092203194918409  0.4778233250703513
  0.0613040115139318  0.0405006759107192  0.5220050469448031
  0.3171748115811697  0.8765995567874431  0.7003632619204523
  0.0617513022633068  0.5368992038831040  0.2555376685805535
  0.6869933288973186  0.1376809600803850  0.8340000199814043
  0.8115159510790774  0.0367874627356084  0.2555761014818029
  0.1869215388157706  0.1250671576089389  0.4330225316493553
  0.6921654261783564  0.1265362581062034  0.7003151699816149
  0.1863618115108176  0.2907262755872597  0.5221854033148579
  0.4366682862726739  0.7873033713734000  0.2555126035890420
  0.4389978937160448  0.6126311552187573  0.1660487597575731
  0.0632316612109342  0.2078480536573520  0.6113908345528540
  0.1863734014206384  0.7916143620373539  0.3883862739839488
  0.3113149926740074  0.5408449294918933  0.5220894778244514
  0.8170737466307278  0.3769383743494778  0.7003275089981407
  0.6864055835551247  0.2920285421195714  0.3884198320972941
  0.1891858726176525  0.1247503605267823  0.5668055396382212
  0.6893176868892643  0.9717470493936989  0.8754579882545754
  0.6890517417186149  0.1248222941143420  0.5668395853574281
  0.4368941983675422  0.9584514561157359  0.3441594720271282
  0.1882669677176856  0.9629577735634068  0.7445019645288802
  0.9369334541873866  0.7876060302097780  0.2555538636037044
  0.5610816318803848  0.8751963671506336  0.4330166702416594
  0.3108236671870562  0.8750417453914306  0.4330310191038052
  0.8110105656253334  0.5403455814279218  0.5221115466134288
  0.9328870304008365  0.4513094322123605  0.2113556623880965
  0.3117129720390511  0.5366514468137185  0.2556565281728059
  0.5612935210822976  0.0417848267396990  0.3884136538567503
  0.9384480974187516  0.4577902641536069  0.6114741589849167
  0.0615158026053259  0.0418375751578547  0.3884354331904031
  0.0614102356903394  0.5417829978660904  0.3884262156704602
  0.4365778370804088  0.2917047069292069  0.3884383176089672
  0.6887138905782829  0.4591752364619773  0.4778999547520260
  0.0642080725316345  0.3747923677402253  0.5668831266596854
  0.5578031983952050  0.7009041904514161  0.2111300011476433
  0.9367191536158530  0.2868436171314304  0.2555110908178255
  0.8163519946250621  0.0492800077190925  0.7889048416496359
  0.1869705091169117  0.9582100357682418  0.3441122446555754
  0.5578234357121431  0.8734172679569161  0.2996741503148518
  0.0614058746699134  0.3749170139128130  0.4330265036124017
  0.3118384964033062  0.7079976486304869  0.3441729416007120
  0.3118047329459278  0.2079965735353081  0.3441584980619817
  0.9389647308480442  0.1249533138255277  0.5667883548365997
  0.4380088411815778  0.9581035527340565  0.6114778791785684
  0.5609184873894162  0.0370368389187022  0.2555568663173463
  0.1860585564807493  0.7790727337858070  0.1245953253509115
  0.0619611864212406  0.0369978614740494  0.2555397630578989
  0.6890417450751165  0.6246434390242134  0.5668580314810837
  0.0606507513043245  0.5299392630139940  0.1244192384453736
  0.3110895807760812  0.0411825156834893  0.5220791579394118
  0.6874135154019341  0.2799011035189847  0.1245895604176664
  0.8137328366440286  0.7091292081663023  0.4778446943822430
  0.4366392645658204  0.1373927716340766  0.8340173096344456
  0.3175320785821399  0.3763236201406772  0.7003298889516271
  0.6863685332745388  0.6371980788850923  0.8340994267584780
  0.5633213601227197  0.7126450213424391  0.7445073822000586
  0.9362391568404002  0.2921340425239033  0.3884147295036919
  0.9392824156688846  0.9713846711308719  0.8755310673904407
  0.5635447375255401  0.2081117061728442  0.6114740478060383
  0.8141101349238931  0.8748126277236840  0.5668581017316113
  0.8075979559134040  0.8733826866855358  0.2995982425846754
  0.3111873468162865  0.0369216908569031  0.2555158586398537
  0.4367466392768837  0.2795099166411789  0.1242084429088010
  0.3132217944135754  0.7080558444682308  0.6114529964805760
  0.4356336971352057  0.6250356888551598  0.4330414200225755
  0.9358470866625315  0.6251943263962885  0.4330803744482977
  0.5602094224777791  0.3872659680675515  0.8345510482792077
  0.0672922569928871  0.5493246395820655  0.7887506415548945
  0.9357248905306649  0.1252121740923859  0.4330919441579291
  0.3150480225855039  0.3632963516295454  0.1655937809544399
  0.9377767325399327  0.9631133126863002  0.7446136035218187
  0.8119447287746248  0.5367122498359721  0.2553897598902212
 
  0.00000000E+00  0.00000000E+00  0.00000000E+00
  0.00000000E+00  0.00000000E+00  0.00000000E+00
  0.00000000E+00  0.00000000E+00  0.00000000E+00
  0.00000000E+00  0.00000000E+00  0.00000000E+00
  0.00000000E+00  0.00000000E+00  0.00000000E+00
  0.00000000E+00  0.00000000E+00  0.00000000E+00
  0.00000000E+00  0.00000000E+00  0.00000000E+00
  0.00000000E+00  0.00000000E+00  0.00000000E+00
  0.00000000E+00  0.00000000E+00  0.00000000E+00
  0.00000000E+00  0.00000000E+00  0.00000000E+00
  0.00000000E+00  0.00000000E+00  0.00000000E+00
  0.00000000E+00  0.00000000E+00  0.00000000E+00
  0.00000000E+00  0.00000000E+00  0.00000000E+00
  0.00000000E+00  0.00000000E+00  0.00000000E+00
  0.00000000E+00  0.00000000E+00  0.00000000E+00
  0.00000000E+00  0.00000000E+00  0.00000000E+00
  0.00000000E+00  0.00000000E+00  0.00000000E+00
  0.00000000E+00  0.00000000E+00  0.00000000E+00
  0.00000000E+00  0.00000000E+00  0.00000000E+00
  0.00000000E+00  0.00000000E+00  0.00000000E+00
  0.00000000E+00  0.00000000E+00  0.00000000E+00
  0.00000000E+00  0.00000000E+00  0.00000000E+00
  0.00000000E+00  0.00000000E+00  0.00000000E+00
  0.00000000E+00  0.00000000E+00  0.00000000E+00
  0.00000000E+00  0.00000000E+00  0.00000000E+00
  0.00000000E+00  0.00000000E+00  0.00000000E+00
  0.00000000E+00  0.00000000E+00  0.00000000E+00
  0.00000000E+00  0.00000000E+00  0.00000000E+00
  0.00000000E+00  0.00000000E+00  0.00000000E+00
  0.00000000E+00  0.00000000E+00  0.00000000E+00
  0.00000000E+00  0.00000000E+00  0.00000000E+00
  0.00000000E+00  0.00000000E+00  0.00000000E+00
  0.00000000E+00  0.00000000E+00  0.00000000E+00
  0.00000000E+00  0.00000000E+00  0.00000000E+00
  0.00000000E+00  0.00000000E+00  0.00000000E+00
  0.00000000E+00  0.00000000E+00  0.00000000E+00
  0.00000000E+00  0.00000000E+00  0.00000000E+00
  0.00000000E+00  0.00000000E+00  0.00000000E+00
  0.00000000E+00  0.00000000E+00  0.00000000E+00
  0.00000000E+00  0.00000000E+00  0.00000000E+00
  0.00000000E+00  0.00000000E+00  0.00000000E+00
  0.00000000E+00  0.00000000E+00  0.00000000E+00
  0.00000000E+00  0.00000000E+00  0.00000000E+00
  0.00000000E+00  0.00000000E+00  0.00000000E+00
  0.00000000E+00  0.00000000E+00  0.00000000E+00
  0.00000000E+00  0.00000000E+00  0.00000000E+00
  0.00000000E+00  0.00000000E+00  0.00000000E+00
  0.00000000E+00  0.00000000E+00  0.00000000E+00
  0.00000000E+00  0.00000000E+00  0.00000000E+00
  0.00000000E+00  0.00000000E+00  0.00000000E+00
  0.00000000E+00  0.00000000E+00  0.00000000E+00
  0.00000000E+00  0.00000000E+00  0.00000000E+00
  0.00000000E+00  0.00000000E+00  0.00000000E+00
  0.00000000E+00  0.00000000E+00  0.00000000E+00
  0.00000000E+00  0.00000000E+00  0.00000000E+00
  0.00000000E+00  0.00000000E+00  0.00000000E+00
  0.00000000E+00  0.00000000E+00  0.00000000E+00
  0.00000000E+00  0.00000000E+00  0.00000000E+00
  0.00000000E+00  0.00000000E+00  0.00000000E+00
  0.00000000E+00  0.00000000E+00  0.00000000E+00
  0.00000000E+00  0.00000000E+00  0.00000000E+00
  0.00000000E+00  0.00000000E+00  0.00000000E+00
  0.00000000E+00  0.00000000E+00  0.00000000E+00
  0.00000000E+00  0.00000000E+00  0.00000000E+00
  0.00000000E+00  0.00000000E+00  0.00000000E+00
  0.00000000E+00  0.00000000E+00  0.00000000E+00
  0.00000000E+00  0.00000000E+00  0.00000000E+00
  0.00000000E+00  0.00000000E+00  0.00000000E+00
  0.00000000E+00  0.00000000E+00  0.00000000E+00
  0.00000000E+00  0.00000000E+00  0.00000000E+00
  0.00000000E+00  0.00000000E+00  0.00000000E+00
  0.00000000E+00  0.00000000E+00  0.00000000E+00
  0.00000000E+00  0.00000000E+00  0.00000000E+00
  0.00000000E+00  0.00000000E+00  0.00000000E+00
  0.00000000E+00  0.00000000E+00  0.00000000E+00
  0.00000000E+00  0.00000000E+00  0.00000000E+00
  0.00000000E+00  0.00000000E+00  0.00000000E+00
  0.00000000E+00  0.00000000E+00  0.00000000E+00
  0.00000000E+00  0.00000000E+00  0.00000000E+00
  0.00000000E+00  0.00000000E+00  0.00000000E+00
  0.00000000E+00  0.00000000E+00  0.00000000E+00
  0.00000000E+00  0.00000000E+00  0.00000000E+00
  0.00000000E+00  0.00000000E+00  0.00000000E+00
  0.00000000E+00  0.00000000E+00  0.00000000E+00
  0.00000000E+00  0.00000000E+00  0.00000000E+00
  0.00000000E+00  0.00000000E+00  0.00000000E+00
  0.00000000E+00  0.00000000E+00  0.00000000E+00
  0.00000000E+00  0.00000000E+00  0.00000000E+00
  0.00000000E+00  0.00000000E+00  0.00000000E+00
  0.00000000E+00  0.00000000E+00  0.00000000E+00
  0.00000000E+00  0.00000000E+00  0.00000000E+00
  0.00000000E+00  0.00000000E+00  0.00000000E+00
  0.00000000E+00  0.00000000E+00  0.00000000E+00
  0.00000000E+00  0.00000000E+00  0.00000000E+00
  0.00000000E+00  0.00000000E+00  0.00000000E+00
  0.00000000E+00  0.00000000E+00  0.00000000E+00
  0.00000000E+00  0.00000000E+00  0.00000000E+00
  0.00000000E+00  0.00000000E+00  0.00000000E+00
  0.00000000E+00  0.00000000E+00  0.00000000E+00
  0.00000000E+00  0.00000000E+00  0.00000000E+00
  0.00000000E+00  0.00000000E+00  0.00000000E+00
  0.00000000E+00  0.00000000E+00  0.00000000E+00
  0.00000000E+00  0.00000000E+00  0.00000000E+00
  0.00000000E+00  0.00000000E+00  0.00000000E+00
  0.00000000E+00  0.00000000E+00  0.00000000E+00
  0.00000000E+00  0.00000000E+00  0.00000000E+00
  0.00000000E+00  0.00000000E+00  0.00000000E+00
  0.00000000E+00  0.00000000E+00  0.00000000E+00
  0.00000000E+00  0.00000000E+00  0.00000000E+00
  0.00000000E+00  0.00000000E+00  0.00000000E+00
  0.00000000E+00  0.00000000E+00  0.00000000E+00
  0.00000000E+00  0.00000000E+00  0.00000000E+00
  0.00000000E+00  0.00000000E+00  0.00000000E+00
  0.00000000E+00  0.00000000E+00  0.00000000E+00
  0.00000000E+00  0.00000000E+00  0.00000000E+00
  0.00000000E+00  0.00000000E+00  0.00000000E+00
  0.00000000E+00  0.00000000E+00  0.00000000E+00
  0.00000000E+00  0.00000000E+00  0.00000000E+00
  0.00000000E+00  0.00000000E+00  0.00000000E+00
  0.00000000E+00  0.00000000E+00  0.00000000E+00
  0.00000000E+00  0.00000000E+00  0.00000000E+00
  0.00000000E+00  0.00000000E+00  0.00000000E+00
  0.00000000E+00  0.00000000E+00  0.00000000E+00
  0.00000000E+00  0.00000000E+00  0.00000000E+00
  0.00000000E+00  0.00000000E+00  0.00000000E+00
  0.00000000E+00  0.00000000E+00  0.00000000E+00
  0.00000000E+00  0.00000000E+00  0.00000000E+00
  0.00000000E+00  0.00000000E+00  0.00000000E+00
  0.00000000E+00  0.00000000E+00  0.00000000E+00
  0.00000000E+00  0.00000000E+00  0.00000000E+00
  0.00000000E+00  0.00000000E+00  0.00000000E+00
  0.00000000E+00  0.00000000E+00  0.00000000E+00
  0.00000000E+00  0.00000000E+00  0.00000000E+00
  0.00000000E+00  0.00000000E+00  0.00000000E+00
  0.00000000E+00  0.00000000E+00  0.00000000E+00
  0.00000000E+00  0.00000000E+00  0.00000000E+00
  0.00000000E+00  0.00000000E+00  0.00000000E+00
  0.00000000E+00  0.00000000E+00  0.00000000E+00
  0.00000000E+00  0.00000000E+00  0.00000000E+00
  0.00000000E+00  0.00000000E+00  0.00000000E+00
  0.00000000E+00  0.00000000E+00  0.00000000E+00
  0.00000000E+00  0.00000000E+00  0.00000000E+00
  0.00000000E+00  0.00000000E+00  0.00000000E+00
  0.00000000E+00  0.00000000E+00  0.00000000E+00
  0.00000000E+00  0.00000000E+00  0.00000000E+00
  0.00000000E+00  0.00000000E+00  0.00000000E+00
  0.00000000E+00  0.00000000E+00  0.00000000E+00
  0.00000000E+00  0.00000000E+00  0.00000000E+00
  0.00000000E+00  0.00000000E+00  0.00000000E+00
  0.00000000E+00  0.00000000E+00  0.00000000E+00
  0.00000000E+00  0.00000000E+00  0.00000000E+00
  0.00000000E+00  0.00000000E+00  0.00000000E+00
  0.00000000E+00  0.00000000E+00  0.00000000E+00
  0.00000000E+00  0.00000000E+00  0.00000000E+00
  0.00000000E+00  0.00000000E+00  0.00000000E+00
  0.00000000E+00  0.00000000E+00  0.00000000E+00
  0.00000000E+00  0.00000000E+00  0.00000000E+00
  0.00000000E+00  0.00000000E+00  0.00000000E+00
  0.00000000E+00  0.00000000E+00  0.00000000E+00
  0.00000000E+00  0.00000000E+00  0.00000000E+00
  0.00000000E+00  0.00000000E+00  0.00000000E+00
  0.00000000E+00  0.00000000E+00  0.00000000E+00
  0.00000000E+00  0.00000000E+00  0.00000000E+00
  0.00000000E+00  0.00000000E+00  0.00000000E+00
  0.00000000E+00  0.00000000E+00  0.00000000E+00
  0.00000000E+00  0.00000000E+00  0.00000000E+00
  0.00000000E+00  0.00000000E+00  0.00000000E+00
  0.00000000E+00  0.00000000E+00  0.00000000E+00
  0.00000000E+00  0.00000000E+00  0.00000000E+00
  0.00000000E+00  0.00000000E+00  0.00000000E+00
  0.00000000E+00  0.00000000E+00  0.00000000E+00
  0.00000000E+00  0.00000000E+00  0.00000000E+00
  0.00000000E+00  0.00000000E+00  0.00000000E+00
  0.00000000E+00  0.00000000E+00  0.00000000E+00
  0.00000000E+00  0.00000000E+00  0.00000000E+00
  0.00000000E+00  0.00000000E+00  0.00000000E+00
  0.00000000E+00  0.00000000E+00  0.00000000E+00
  0.00000000E+00  0.00000000E+00  0.00000000E+00
  0.00000000E+00  0.00000000E+00  0.00000000E+00
  0.00000000E+00  0.00000000E+00  0.00000000E+00
  0.00000000E+00  0.00000000E+00  0.00000000E+00
  0.00000000E+00  0.00000000E+00  0.00000000E+00
  0.00000000E+00  0.00000000E+00  0.00000000E+00
  0.00000000E+00  0.00000000E+00  0.00000000E+00
  0.00000000E+00  0.00000000E+00  0.00000000E+00
  0.00000000E+00  0.00000000E+00  0.00000000E+00
  0.00000000E+00  0.00000000E+00  0.00000000E+00
  0.00000000E+00  0.00000000E+00  0.00000000E+00
  0.00000000E+00  0.00000000E+00  0.00000000E+00
  0.00000000E+00  0.00000000E+00  0.00000000E+00
  0.00000000E+00  0.00000000E+00  0.00000000E+00
  0.00000000E+00  0.00000000E+00  0.00000000E+00
  0.00000000E+00  0.00000000E+00  0.00000000E+00
  0.00000000E+00  0.00000000E+00  0.00000000E+00
  0.00000000E+00  0.00000000E+00  0.00000000E+00
  0.00000000E+00  0.00000000E+00  0.00000000E+00
  0.00000000E+00  0.00000000E+00  0.00000000E+00
  0.00000000E+00  0.00000000E+00  0.00000000E+00
  0.00000000E+00  0.00000000E+00  0.00000000E+00
  0.00000000E+00  0.00000000E+00  0.00000000E+00
  0.00000000E+00  0.00000000E+00  0.00000000E+00
  0.00000000E+00  0.00000000E+00  0.00000000E+00
  0.00000000E+00  0.00000000E+00  0.00000000E+00
  0.00000000E+00  0.00000000E+00  0.00000000E+00
  0.00000000E+00  0.00000000E+00  0.00000000E+00
  0.00000000E+00  0.00000000E+00  0.00000000E+00
  0.00000000E+00  0.00000000E+00  0.00000000E+00
  0.00000000E+00  0.00000000E+00  0.00000000E+00
  0.00000000E+00  0.00000000E+00  0.00000000E+00
  0.00000000E+00  0.00000000E+00  0.00000000E+00
  0.00000000E+00  0.00000000E+00  0.00000000E+00
  0.00000000E+00  0.00000000E+00  0.00000000E+00
  0.00000000E+00  0.00000000E+00  0.00000000E+00
  0.00000000E+00  0.00000000E+00  0.00000000E+00
  0.00000000E+00  0.00000000E+00  0.00000000E+00
  0.00000000E+00  0.00000000E+00  0.00000000E+00
  0.00000000E+00  0.00000000E+00  0.00000000E+00
  0.00000000E+00  0.00000000E+00  0.00000000E+00
  0.00000000E+00  0.00000000E+00  0.00000000E+00
  0.00000000E+00  0.00000000E+00  0.00000000E+00
  0.00000000E+00  0.00000000E+00  0.00000000E+00
  0.00000000E+00  0.00000000E+00  0.00000000E+00
  0.00000000E+00  0.00000000E+00  0.00000000E+00
  0.00000000E+00  0.00000000E+00  0.00000000E+00
  0.00000000E+00  0.00000000E+00  0.00000000E+00
  0.00000000E+00  0.00000000E+00  0.00000000E+00
  0.00000000E+00  0.00000000E+00  0.00000000E+00
  0.00000000E+00  0.00000000E+00  0.00000000E+00
  0.00000000E+00  0.00000000E+00  0.00000000E+00
  0.00000000E+00  0.00000000E+00  0.00000000E+00
  0.00000000E+00  0.00000000E+00  0.00000000E+00
  0.00000000E+00  0.00000000E+00  0.00000000E+00
  0.00000000E+00  0.00000000E+00  0.00000000E+00
  0.00000000E+00  0.00000000E+00  0.00000000E+00
  0.00000000E+00  0.00000000E+00  0.00000000E+00
  0.00000000E+00  0.00000000E+00  0.00000000E+00
  0.00000000E+00  0.00000000E+00  0.00000000E+00
  0.00000000E+00  0.00000000E+00  0.00000000E+00
  0.00000000E+00  0.00000000E+00  0.00000000E+00
  0.00000000E+00  0.00000000E+00  0.00000000E+00
  0.00000000E+00  0.00000000E+00  0.00000000E+00
  0.00000000E+00  0.00000000E+00  0.00000000E+00
  0.00000000E+00  0.00000000E+00  0.00000000E+00
  0.00000000E+00  0.00000000E+00  0.00000000E+00
  0.00000000E+00  0.00000000E+00  0.00000000E+00
  0.00000000E+00  0.00000000E+00  0.00000000E+00
  0.00000000E+00  0.00000000E+00  0.00000000E+00