CuInSe2gb                               
   1.00000000000000     
     9.7266780392896699    0.0000000000000000    0.0000000000000000
     0.0000000000000000    8.4235502764570693    0.0000000000000000
     0.0000000000000000    0.0000000000000000   45.0000000000000000
   Fe   Mn
   281     7
Direct
  0.0539338445017896  0.7010254406282929  0.2112565549137102
  0.3176937605657473  0.7245538856120646  0.8761978854532072
  0.6884809436554329  0.9587202016709224  0.6115454215977838
  0.4383275768582845  0.4583714860576904  0.6116067962695093
  0.4407172352389399  0.2872673250104966  0.2550473874386640
  0.0583700131848850  0.3894533012055678  0.8334461793194335
  0.3084166891797958  0.8876930719247327  0.8335198585347641
  0.4469291687558795  0.6264332355818107  0.7004033774821136
  0.0599640243915239  0.2130998965511620  0.7448970704422605
  0.1788853273597394  0.4516353303427065  0.2113891058147313
  0.5677866395954494  0.2105910411493027  0.4774482265258421
  0.0667416491614612  0.8750443387616009  0.5668919597205243
  0.5675815261467895  0.2246482523291237  0.8762101099270813
  0.8086419545954385  0.5277651690555124  0.1239669085877273
  0.4287832147966953  0.9514769584424010  0.2113467121335691
  0.5666236414390150  0.3749544070951585  0.5668552768922148
  0.8111585644417221  0.0416997517001831  0.3882842497231646
  0.6818916354578883  0.7889694130900883  0.5224042873908321
  0.4427172540446327  0.4607744763558651  0.4774931883628444
  0.4339193752634137  0.9625391507622096  0.7446820737179073
  0.4415038374396282  0.6250109725384554  0.5668361046951872
  0.5714896475004299  0.8764619481899396  0.7005728083773523
  0.3074928941561308  0.0263641739847729  0.1238685970996800
  0.6897108609876950  0.9588503334635757  0.3439687358429485
  0.6861357212573940  0.7827341445149357  0.1241592586183732
  0.0528519071799451  0.3737571155928996  0.2995649169264309
  0.6894992991793738  0.4675572179314675  0.8760953549008347
  0.4292286371259813  0.4515601684962002  0.2114943453966243
  0.8085733583542459  0.3754044092851792  0.4330823046801612
  0.5633553743497007  0.7085518043459731  0.6115463309029886
  0.5596135409183755  0.5405802436445445  0.6558871777495785
  0.8171332084726933  0.8625322464104302  0.1665829148708224
  0.5656860745483320  0.5374367997991976  0.2551779956445808
  0.6894504169961833  0.4588171710065879  0.3438979187758372
  0.1915471871728227  0.6112705952298925  0.1664472291945226
  0.1942312607325968  0.7996831102907305  0.7888518937564341
  0.4472964287273179  0.1259784045321585  0.7004107209590017
  0.9279944493098896  0.6235872279099562  0.2996238971730677
  0.3171463467858495  0.2232089301367149  0.8762259765151441
  0.3166651599540871  0.8748627900295257  0.5668467282794045
  0.8177672228593345  0.2239081452105603  0.8761133583386294
  0.8096534366238850  0.5408019402355770  0.6558222800896141
  0.5588360014652238  0.5275647823129956  0.1238558571700977
  0.5692009273708194  0.0496829174942788  0.7889722554364395
  0.1909683415530161  0.2872797379515832  0.2552506173062393
  0.8087350513003293  0.8753493213723559  0.4330131933704211
  0.5721710985398869  0.3763604932301225  0.7003578907082884
  0.0576082892103524  0.0263530610639705  0.1239718880645963
  0.3096208301095480  0.5406779330325319  0.6559087200209125
  0.5649188217338024  0.2089267159189151  0.3440060381307135
  0.1878595923353563  0.9582607201496954  0.6113910184686928
  0.3028872505182517  0.3738678188748302  0.2996265374997119
  0.4346658338740333  0.7905410158546062  0.6559531961946381
  0.1949043085274904  0.2988879129949232  0.7888981643564880
  0.0676261509462972  0.3622438322821310  0.1665934002966033
  0.6970530458696322  0.6263036420675945  0.7004648010395781
  0.3113173852139983  0.5413342359370649  0.3884175087009901
  0.0675543685521724  0.7230194574945964  0.8763480889548690
  0.9339999375579374  0.6380988419238771  0.8340982958901060
  0.3198827221354926  0.5496165393777553  0.7889641849591764
  0.3046362447658897  0.2005761943357100  0.2111946418706462
  0.0679307230140151  0.7106879160253159  0.4774622378657935
  0.5543316456898124  0.2008248321503639  0.2111113820475200
  0.3095966925445783  0.2125180698029682  0.7449548920811645
  0.0719179585519918  0.3764892075870618  0.7005585190597937
  0.1830845472224919  0.6376621334928658  0.8336068096401210
  0.0694201194099754  0.0492849108105259  0.7890274230931057
  0.4416335458413876  0.1249831960433673  0.5669176663093608
  0.9347467825680857  0.2907376626973687  0.6558604505279818
  0.8042629867055251  0.2009811981994633  0.2112150652110568
  0.9288038173499114  0.9514155735015132  0.2112879779476514
  0.9415020769446322  0.6251524497763830  0.5667876833655328
  0.8079111510934871  0.3875473759042917  0.8335517302388604
  0.1969952721215164  0.6262854487194927  0.7003619140839265
  0.8085623023334467  0.8875996033177362  0.8335474347914280
  0.6850131242866975  0.2907332791384171  0.6560414085987566
  0.3129166997492180  0.2083551414537251  0.6114872820868668
  0.4346303889812895  0.4626207889720091  0.7448684144538853
  0.4361044866970153  0.7912527890180727  0.3883897381194409
  0.6846562707980841  0.9626455792223622  0.7448025140416346
  0.8040435769541600  0.7008163811155462  0.2113041181641428
  0.8134740249986859  0.7083512526315699  0.6115758308171371
  0.4368717407798735  0.7832394616808255  0.1241868899575160
  0.3096036437213008  0.7123921488794271  0.7448804846867817
  0.3202208585384155  0.0494001501311630  0.7888494733022223
  0.8112270915462043  0.5421551943143612  0.3883095709684953
  0.6821015648959777  0.2888130940589961  0.5224147243025852
  0.6948286679723128  0.7994936955830084  0.7889508863550678
  0.1905983857144849  0.7873369585145380  0.2552892981127158
  0.6915766762202177  0.1122023965196291  0.1664325673706341
  0.6927319765054943  0.9607087685685740  0.4774003319408407
  0.9404744099620919  0.9592602499187308  0.3441153094440398
  0.8073808321095124  0.0393127123434832  0.5225437972074582
  0.6837950022265121  0.6247850552452623  0.4329665111288717
  0.4396658998047062  0.4585627305968237  0.3440273325493307
  0.8104454085898926  0.2118093805936510  0.7445893718396033
  0.4387916529010099  0.9672722262308806  0.8759804002136587
  0.5665184130425603  0.8747917147924299  0.5668480262445534
  0.8078035194563173  0.0267899480771850  0.1238890449178344
  0.4285555991277392  0.6234903238222755  0.2994101238112238
  0.8174258733705808  0.7246930925014929  0.8762688757488233
  0.6883489396687066  0.4586072448107388  0.6115202271560806
  0.3168380916607314  0.8619370994209622  0.1666187074611118
  0.8030099771030423  0.3735505850224182  0.2994778209520426
  0.1859616995651524  0.2910196155264131  0.3883642806663779
  0.8199723681867641  0.5492973703788152  0.7888717253086321
  0.1822161127836720  0.7892695065137048  0.5225336577364884
  0.3029237269565823  0.8738981411893251  0.2995675271043620
  0.1790366487126084  0.9512170659521358  0.2112198332689578
  0.1845220711208203  0.4623672204797295  0.7449109256404512
  0.4322480364488887  0.2890559982272374  0.5223350362391047
  0.0648559379201232  0.7085332032052779  0.3438575215298284
  0.1846643542391374  0.7906408334857445  0.6558517565095581
  0.4446686617769310  0.7992966805787020  0.7888276980258200
  0.6838573363380374  0.1248778380637280  0.4329276734265823
  0.9320943209602712  0.7886151301277580  0.5224119375352123
  0.6918630679622696  0.6124327376427389  0.1666981549506010
  0.8145423312260662  0.7082885678796050  0.3438320613551234
  0.9343272940011318  0.4626531214306188  0.7449085187805953
  0.1901186823645015  0.4589201283805897  0.3439936696403932
  0.5700071175084677  0.5499674581154760  0.7889218848407210
  0.5665004608350307  0.3624563072067435  0.1664432560627816
  0.5647317919789256  0.7087732841099124  0.3439493585736208
  0.5530307466004313  0.3736442585870852  0.2995947155513257
  0.1885460758252312  0.4680560343564569  0.8759732079916110
  0.1924306802275763  0.1119388403391301  0.1665528893962913
  0.4444178556883153  0.2989223625987455  0.7886936320184971
  0.6910098959599625  0.7873619368360347  0.2553958090032433
  0.9336852937106063  0.1377115682260328  0.8335131245651568
  0.4426245303415843  0.9607159648014343  0.4774719483594371
  0.5675421798015066  0.7249289140133073  0.8762651091614886
  0.1926189036692492  0.4608157557414487  0.4774736480729813
  0.9356530970224755  0.2824154709557340  0.1242286765363391
  0.3114344294744429  0.0413668664711947  0.3884154589171187
  0.0602543592562568  0.0406522131044757  0.6560680115250036
  0.5587336069211831  0.3750256875005222  0.4331025499248340
  0.6841203439787032  0.4627372416221677  0.7449649583477146
  0.5600044235038452  0.2127165213696534  0.7448917272347363
  0.9472781404090541  0.1263737295187054  0.7003686772888835
  0.5595547671473493  0.0406328369247228  0.6558425052192122
  0.5572550896048677  0.5392563220116130  0.5224912854795885
  0.1779819827778107  0.1236449887700698  0.2995530092651216
  0.4415022904972932  0.1119844811527251  0.1665335507567870
  0.6775875438580451  0.6235967184826777  0.2996167842151600
  0.9282403901546766  0.1233903383755089  0.2996499991743710
  0.8166837510428093  0.3751000168960994  0.5668918262239647
  0.0530580554489358  0.8737159994546685  0.2995336958163679
  0.1917177599672190  0.6249043722212505  0.5668704861856330
  0.9446085462866106  0.7995823073532343  0.7888312222693534
  0.3087072380402832  0.3874442786438907  0.8335910403296793
  0.9406663083693484  0.4684447671409610  0.8760799473776034
  0.4339770261209231  0.6382984356900132  0.8335018327049435
  0.0646283403209199  0.2084087415169186  0.3438493317887306
  0.1892934682508491  0.9676938279278727  0.8761663989379059
  0.9357340527546226  0.7822223846962877  0.1241696603663178
  0.6866813677780804  0.7915233802658210  0.3884555198137420
  0.9347553639779385  0.7906134101357414  0.6558804909171927
  0.9417686217029981  0.1119717439653044  0.1664413286709726
  0.4351105822922057  0.2907581902397777  0.6560485193134854
  0.0547681571749692  0.2008717641440409  0.2112000767303937
  0.6789066226135101  0.9515811020754534  0.2113381914270613
  0.1784346362664378  0.6235745979687614  0.2994202916393831
  0.8220964406849484  0.8761371874640815  0.7004363602253864
  0.9468698878819604  0.6265986208087522  0.7005022450489409
  0.1970948352436062  0.1262868343212896  0.7003379466499265
  0.9426620998629212  0.4607149083921764  0.4771805595958390
  0.8135424733650922  0.2084708107999717  0.6115545420433947
  0.1835756278340131  0.6250361018702464  0.4330773319966637
  0.4280642313854139  0.1235977208087424  0.2994544369038192
  0.6782260634055876  0.1236249653568987  0.2994383127042923
  0.5615442370240259  0.5415515759644247  0.3884756153907086
  0.8144369172025537  0.2084341654082379  0.3439547678309522
  0.4396515952062299  0.4670999931256770  0.8761675686687416
  0.5586419267966116  0.8877719780719753  0.8335094720369742
  0.3177235039205096  0.2104575954426318  0.4772876587626571
  0.1927422831639630  0.9607458007105448  0.4774298102111190
  0.0583750954231697  0.8876913474207871  0.8334614618271597
  0.0572132294851702  0.5391647486778072  0.5224997716770983
  0.9426099538657143  0.9606729975389733  0.4772160076507699
  0.0632683790582348  0.7084306218279812  0.6115537894733111
  0.5574548571052799  0.0388739970211086  0.5224126795042308
  0.6959648025341278  0.2987821811378479  0.7887049448879356
  0.8177346585844395  0.3617666046938005  0.1666517433701694
  0.4336769756766987  0.1248659512390300  0.4329832907661613
  0.0679453273939060  0.2106225820781781  0.4774558449706532
  0.3099579641287182  0.0408407369533436  0.6559710508373559
  0.4321949707067443  0.7891336504213793  0.5223816433850085
  0.1835392570739391  0.1375663922707706  0.8335207445911382
  0.1861271418412883  0.2826691658678619  0.1242347036257530
  0.9398824015629594  0.4593052255775822  0.3440064828391716
  0.5673912355534591  0.8620597913964093  0.1665774725261934
  0.3041854987178526  0.7009607139016480  0.2112009489831203
  0.9416148286879413  0.6122955538680028  0.1665607127092124
  0.1883062575471025  0.4585581029674984  0.6114984269632749
  0.0722516950087098  0.8764791602662971  0.7003734221105192
  0.0598399344355755  0.5406541973177998  0.6558851933234574
  0.3083544975464554  0.5260955934071843  0.1239497694154480
  0.9364377213118181  0.7912551814957602  0.3884474851980140
  0.9446409395279467  0.2987287357061320  0.7888202650921189
  0.1847306104225768  0.2905433503336450  0.6559058212954472
  0.9379186432437457  0.9582843980301947  0.6114790545875929
  0.8099070706551456  0.7118905905019549  0.7448613728240425
  0.6911856148792843  0.2874097331155867  0.2552791565957756
  0.0594013815678799  0.7123382030038464  0.7449536440139115
  0.6789488792247692  0.4514457929774353  0.2112354820336762
  0.8178619959059493  0.2107061852320791  0.4774587983455616
  0.5674750064837684  0.7105584982205219  0.4773906637600639
  0.0669394715820090  0.8623250536773931  0.1665780559733203
  0.9324237667207216  0.2885977538742960  0.5224096371062737
  0.6846021538756842  0.7904206859815388  0.6558480643921922
  0.0584661100897700  0.8748526399021739  0.4330436499365937
  0.0679573521924215  0.2228508919871068  0.8761506704242795
  0.8099848755202419  0.0404873609658226  0.6559709809901610
  0.5590069709958018  0.0267701374139485  0.1239732997141950
  0.3088780345861518  0.3750464743500264  0.4328824111872032
  0.3165239180169729  0.3748289539429999  0.5668166183176830
  0.3176323253309004  0.7103637046615553  0.4772989478509322
  0.0572050331170831  0.0392763612362778  0.5225001727099906
  0.3219175613919457  0.8763671281221530  0.7005496480138148
  0.0654674065317457  0.5376060347716143  0.2551700096218940
  0.6834883743299567  0.1388126418847891  0.8336344756268234
  0.8151759434739398  0.0376767063639919  0.2551681543225879
  0.1834553743886828  0.1249853484290818  0.4331266184769937
  0.6974779707079797  0.1262579830310370  0.7004461063356333
  0.1823673145364241  0.2893233884296275  0.5225030182195565
  0.4407945916248033  0.7875266257116880  0.2552823847081890
  0.4415674546585170  0.6111092550533701  0.1664839866096021
  0.0634371608554336  0.2085459950902765  0.6115259432409890
  0.1862685339498397  0.7910072487895717  0.3882807986358253
  0.3070019976526719  0.5388493936053633  0.5224017262338294
  0.8220316926719954  0.3760608518626837  0.7001877411930071
  0.6863112183268716  0.2911247276804939  0.3884152986507248
  0.1917146732496166  0.1249750902221691  0.5668848489434525
  0.6897657263320207  0.9677020900850901  0.8760617091696908
  0.6917011774196775  0.1249624512651384  0.5669156055999497
  0.4400195192321797  0.9589407839815064  0.3440443402823080
  0.1842070821153280  0.9624513527989755  0.7447903134768235
  0.9404765251532303  0.7876288671776756  0.2551110183325235
  0.5587327792067894  0.8750222138199921  0.4330220973861348
  0.3085937258140295  0.8750691543195364  0.4330390273962096
  0.8073216158253814  0.5393895743740666  0.5225317952295204
  0.9293483952877589  0.4512801508401436  0.2112168907616536
  0.3154432471157967  0.5376406766801525  0.2551098176885579
  0.5615732073186444  0.0414191523354520  0.3884326597718543
  0.9381205599638680  0.4582239354829467  0.6115872723807684
  0.0615861843111354  0.0414117050942421  0.3884168994555235
  0.0614084424507146  0.5414442379467215  0.3884092789575714
  0.4362553098002456  0.2911087640641037  0.3883840465187891
  0.6928460183213226  0.4606591141617694  0.4774154489019762
  0.0665182023063439  0.3750864259911560  0.5668481486849083
  0.5543806958291444  0.7008115194350054  0.2111710677591878
  0.9405966583690545  0.2874198552343671  0.2552403257664020
  0.8195259845028143  0.0497179645841499  0.7889280908920674
  0.1897823722599220  0.9587817825345645  0.3439707042680931
  0.5528824255045747  0.8737664756098187  0.2996214451189760
  0.0586102531017920  0.3749184407338802  0.4328938298752343
  0.3148684694191192  0.7087579298170589  0.3439616590652177
  0.3146781676488017  0.2088747357397058  0.3439164944103905
  0.9417016173350711  0.1250823033093583  0.5667477441984927
  0.4385617284356527  0.9586902722421838  0.6115475609691430
  0.5651763858083528  0.0376377631631277  0.2551283191714875
  0.1861010681541479  0.7830018253146095  0.1242285191813609
  0.0656103495879579  0.0375395423506529  0.2551377484839288
  0.6915821990240419  0.6250511022193121  0.5668788382959568
  0.0574805239831808  0.5269166196338259  0.1240650689685331
  0.3073825816218408  0.0384440078590802  0.5223033352365032
  0.6873619603731314  0.2821756517642910  0.1242348069284512
  0.8177881774374981  0.7107085480792734  0.4774722707310398
  0.4334938604640532  0.1390982964883761  0.8335653511027195
  0.3222004681777633  0.3765312945552936  0.7003824009677819
  0.6832024106515284  0.6378620315715736  0.8335495193690172
  0.5598008140181213  0.7122038110775063  0.7448361515315772
  0.9364562131320661  0.2914053858060429  0.3885163741498490
  0.9399978033635619  0.9686335099689346  0.8761509150808910
  0.5628753328753311  0.2079714797928642  0.6113416381464637
  0.8165882652098988  0.8751098050815880  0.5668859942486850
  0.8031847818380893  0.8732833326050283  0.2994661817966598
  0.3156590701560535  0.0375820987622934  0.2552843927695360
  0.4362695143451337  0.2830997300898783  0.1240259151127644
  0.3134521060312977  0.7084791710733720  0.6115552303965807
  0.4336162501367594  0.6249497548000263  0.4329721621007256
  0.9329918671776165  0.6248151219583812  0.4331495460786720
  0.5580297971143980  0.3873812754098024  0.8342789480056264
  0.0708318514437723  0.5491802830843975  0.7887950531823902
  0.9334858305357352  0.1249725881711222  0.4330734658503723
  0.3186641542003606  0.3627051659264451  0.1658409806014846
  0.9330449383480340  0.9617314244146592  0.7446533060005318
  0.8162916305497412  0.5377559676916128  0.2553168680998948
 
  0.00000000E+00  0.00000000E+00  0.00000000E+00
  0.00000000E+00  0.00000000E+00  0.00000000E+00
  0.00000000E+00  0.00000000E+00  0.00000000E+00
  0.00000000E+00  0.00000000E+00  0.00000000E+00
  0.00000000E+00  0.00000000E+00  0.00000000E+00
  0.00000000E+00  0.00000000E+00  0.00000000E+00
  0.00000000E+00  0.00000000E+00  0.00000000E+00
  0.00000000E+00  0.00000000E+00  0.00000000E+00
  0.00000000E+00  0.00000000E+00  0.00000000E+00
  0.00000000E+00  0.00000000E+00  0.00000000E+00
  0.00000000E+00  0.00000000E+00  0.00000000E+00
  0.00000000E+00  0.00000000E+00  0.00000000E+00
  0.00000000E+00  0.00000000E+00  0.00000000E+00
  0.00000000E+00  0.00000000E+00  0.00000000E+00
  0.00000000E+00  0.00000000E+00  0.00000000E+00
  0.00000000E+00  0.00000000E+00  0.00000000E+00
  0.00000000E+00  0.00000000E+00  0.00000000E+00
  0.00000000E+00  0.00000000E+00  0.00000000E+00
  0.00000000E+00  0.00000000E+00  0.00000000E+00
  0.00000000E+00  0.00000000E+00  0.00000000E+00
  0.00000000E+00  0.00000000E+00  0.00000000E+00
  0.00000000E+00  0.00000000E+00  0.00000000E+00
  0.00000000E+00  0.00000000E+00  0.00000000E+00
  0.00000000E+00  0.00000000E+00  0.00000000E+00
  0.00000000E+00  0.00000000E+00  0.00000000E+00
  0.00000000E+00  0.00000000E+00  0.00000000E+00
  0.00000000E+00  0.00000000E+00  0.00000000E+00
  0.00000000E+00  0.00000000E+00  0.00000000E+00
  0.00000000E+00  0.00000000E+00  0.00000000E+00
  0.00000000E+00  0.00000000E+00  0.00000000E+00
  0.00000000E+00  0.00000000E+00  0.00000000E+00
  0.00000000E+00  0.00000000E+00  0.00000000E+00
  0.00000000E+00  0.00000000E+00  0.00000000E+00
  0.00000000E+00  0.00000000E+00  0.00000000E+00
  0.00000000E+00  0.00000000E+00  0.00000000E+00
  0.00000000E+00  0.00000000E+00  0.00000000E+00
  0.00000000E+00  0.00000000E+00  0.00000000E+00
  0.00000000E+00  0.00000000E+00  0.00000000E+00
  0.00000000E+00  0.00000000E+00  0.00000000E+00
  0.00000000E+00  0.00000000E+00  0.00000000E+00
  0.00000000E+00  0.00000000E+00  0.00000000E+00
  0.00000000E+00  0.00000000E+00  0.00000000E+00
  0.00000000E+00  0.00000000E+00  0.00000000E+00
  0.00000000E+00  0.00000000E+00  0.00000000E+00
  0.00000000E+00  0.00000000E+00  0.00000000E+00
  0.00000000E+00  0.00000000E+00  0.00000000E+00
  0.00000000E+00  0.00000000E+00  0.00000000E+00
  0.00000000E+00  0.00000000E+00  0.00000000E+00
  0.00000000E+00  0.00000000E+00  0.00000000E+00
  0.00000000E+00  0.00000000E+00  0.00000000E+00
  0.00000000E+00  0.00000000E+00  0.00000000E+00
  0.00000000E+00  0.00000000E+00  0.00000000E+00
  0.00000000E+00  0.00000000E+00  0.00000000E+00
  0.00000000E+00  0.00000000E+00  0.00000000E+00
  0.00000000E+00  0.00000000E+00  0.00000000E+00
  0.00000000E+00  0.00000000E+00  0.00000000E+00
  0.00000000E+00  0.00000000E+00  0.00000000E+00
  0.00000000E+00  0.00000000E+00  0.00000000E+00
  0.00000000E+00  0.00000000E+00  0.00000000E+00
  0.00000000E+00  0.00000000E+00  0.00000000E+00
  0.00000000E+00  0.00000000E+00  0.00000000E+00
  0.00000000E+00  0.00000000E+00  0.00000000E+00
  0.00000000E+00  0.00000000E+00  0.00000000E+00
  0.00000000E+00  0.00000000E+00  0.00000000E+00
  0.00000000E+00  0.00000000E+00  0.00000000E+00
  0.00000000E+00  0.00000000E+00  0.00000000E+00
  0.00000000E+00  0.00000000E+00  0.00000000E+00
  0.00000000E+00  0.00000000E+00  0.00000000E+00
  0.00000000E+00  0.00000000E+00  0.00000000E+00
  0.00000000E+00  0.00000000E+00  0.00000000E+00
  0.00000000E+00  0.00000000E+00  0.00000000E+00
  0.00000000E+00  0.00000000E+00  0.00000000E+00
  0.00000000E+00  0.00000000E+00  0.00000000E+00
  0.00000000E+00  0.00000000E+00  0.00000000E+00
  0.00000000E+00  0.00000000E+00  0.00000000E+00
  0.00000000E+00  0.00000000E+00  0.00000000E+00
  0.00000000E+00  0.00000000E+00  0.00000000E+00
  0.00000000E+00  0.00000000E+00  0.00000000E+00
  0.00000000E+00  0.00000000E+00  0.00000000E+00
  0.00000000E+00  0.00000000E+00  0.00000000E+00
  0.00000000E+00  0.00000000E+00  0.00000000E+00
  0.00000000E+00  0.00000000E+00  0.00000000E+00
  0.00000000E+00  0.00000000E+00  0.00000000E+00
  0.00000000E+00  0.00000000E+00  0.00000000E+00
  0.00000000E+00  0.00000000E+00  0.00000000E+00
  0.00000000E+00  0.00000000E+00  0.00000000E+00
  0.00000000E+00  0.00000000E+00  0.00000000E+00
  0.00000000E+00  0.00000000E+00  0.00000000E+00
  0.00000000E+00  0.00000000E+00  0.00000000E+00
  0.00000000E+00  0.00000000E+00  0.00000000E+00
  0.00000000E+00  0.00000000E+00  0.00000000E+00
  0.00000000E+00  0.00000000E+00  0.00000000E+00
  0.00000000E+00  0.00000000E+00  0.00000000E+00
  0.00000000E+00  0.00000000E+00  0.00000000E+00
  0.00000000E+00  0.00000000E+00  0.00000000E+00
  0.00000000E+00  0.00000000E+00  0.00000000E+00
  0.00000000E+00  0.00000000E+00  0.00000000E+00
  0.00000000E+00  0.00000000E+00  0.00000000E+00
  0.00000000E+00  0.00000000E+00  0.00000000E+00
  0.00000000E+00  0.00000000E+00  0.00000000E+00
  0.00000000E+00  0.00000000E+00  0.00000000E+00
  0.00000000E+00  0.00000000E+00  0.00000000E+00
  0.00000000E+00  0.00000000E+00  0.00000000E+00
  0.00000000E+00  0.00000000E+00  0.00000000E+00
  0.00000000E+00  0.00000000E+00  0.00000000E+00
  0.00000000E+00  0.00000000E+00  0.00000000E+00
  0.00000000E+00  0.00000000E+00  0.00000000E+00
  0.00000000E+00  0.00000000E+00  0.00000000E+00
  0.00000000E+00  0.00000000E+00  0.00000000E+00
  0.00000000E+00  0.00000000E+00  0.00000000E+00
  0.00000000E+00  0.00000000E+00  0.00000000E+00
  0.00000000E+00  0.00000000E+00  0.00000000E+00
  0.00000000E+00  0.00000000E+00  0.00000000E+00
  0.00000000E+00  0.00000000E+00  0.00000000E+00
  0.00000000E+00  0.00000000E+00  0.00000000E+00
  0.00000000E+00  0.00000000E+00  0.00000000E+00
  0.00000000E+00  0.00000000E+00  0.00000000E+00
  0.00000000E+00  0.00000000E+00  0.00000000E+00
  0.00000000E+00  0.00000000E+00  0.00000000E+00
  0.00000000E+00  0.00000000E+00  0.00000000E+00
  0.00000000E+00  0.00000000E+00  0.00000000E+00
  0.00000000E+00  0.00000000E+00  0.00000000E+00
  0.00000000E+00  0.00000000E+00  0.00000000E+00
  0.00000000E+00  0.00000000E+00  0.00000000E+00
  0.00000000E+00  0.00000000E+00  0.00000000E+00
  0.00000000E+00  0.00000000E+00  0.00000000E+00
  0.00000000E+00  0.00000000E+00  0.00000000E+00
  0.00000000E+00  0.00000000E+00  0.00000000E+00
  0.00000000E+00  0.00000000E+00  0.00000000E+00
  0.00000000E+00  0.00000000E+00  0.00000000E+00
  0.00000000E+00  0.00000000E+00  0.00000000E+00
  0.00000000E+00  0.00000000E+00  0.00000000E+00
  0.00000000E+00  0.00000000E+00  0.00000000E+00
  0.00000000E+00  0.00000000E+00  0.00000000E+00
  0.00000000E+00  0.00000000E+00  0.00000000E+00
  0.00000000E+00  0.00000000E+00  0.00000000E+00
  0.00000000E+00  0.00000000E+00  0.00000000E+00
  0.00000000E+00  0.00000000E+00  0.00000000E+00
  0.00000000E+00  0.00000000E+00  0.00000000E+00
  0.00000000E+00  0.00000000E+00  0.00000000E+00
  0.00000000E+00  0.00000000E+00  0.00000000E+00
  0.00000000E+00  0.00000000E+00  0.00000000E+00
  0.00000000E+00  0.00000000E+00  0.00000000E+00
  0.00000000E+00  0.00000000E+00  0.00000000E+00
  0.00000000E+00  0.00000000E+00  0.00000000E+00
  0.00000000E+00  0.00000000E+00  0.00000000E+00
  0.00000000E+00  0.00000000E+00  0.00000000E+00
  0.00000000E+00  0.00000000E+00  0.00000000E+00
  0.00000000E+00  0.00000000E+00  0.00000000E+00
  0.00000000E+00  0.00000000E+00  0.00000000E+00
  0.00000000E+00  0.00000000E+00  0.00000000E+00
  0.00000000E+00  0.00000000E+00  0.00000000E+00
  0.00000000E+00  0.00000000E+00  0.00000000E+00
  0.00000000E+00  0.00000000E+00  0.00000000E+00
  0.00000000E+00  0.00000000E+00  0.00000000E+00
  0.00000000E+00  0.00000000E+00  0.00000000E+00
  0.00000000E+00  0.00000000E+00  0.00000000E+00
  0.00000000E+00  0.00000000E+00  0.00000000E+00
  0.00000000E+00  0.00000000E+00  0.00000000E+00
  0.00000000E+00  0.00000000E+00  0.00000000E+00
  0.00000000E+00  0.00000000E+00  0.00000000E+00
  0.00000000E+00  0.00000000E+00  0.00000000E+00
  0.00000000E+00  0.00000000E+00  0.00000000E+00
  0.00000000E+00  0.00000000E+00  0.00000000E+00
  0.00000000E+00  0.00000000E+00  0.00000000E+00
  0.00000000E+00  0.00000000E+00  0.00000000E+00
  0.00000000E+00  0.00000000E+00  0.00000000E+00
  0.00000000E+00  0.00000000E+00  0.00000000E+00
  0.00000000E+00  0.00000000E+00  0.00000000E+00
  0.00000000E+00  0.00000000E+00  0.00000000E+00
  0.00000000E+00  0.00000000E+00  0.00000000E+00
  0.00000000E+00  0.00000000E+00  0.00000000E+00
  0.00000000E+00  0.00000000E+00  0.00000000E+00
  0.00000000E+00  0.00000000E+00  0.00000000E+00
  0.00000000E+00  0.00000000E+00  0.00000000E+00
  0.00000000E+00  0.00000000E+00  0.00000000E+00
  0.00000000E+00  0.00000000E+00  0.00000000E+00
  0.00000000E+00  0.00000000E+00  0.00000000E+00
  0.00000000E+00  0.00000000E+00  0.00000000E+00
  0.00000000E+00  0.00000000E+00  0.00000000E+00
  0.00000000E+00  0.00000000E+00  0.00000000E+00
  0.00000000E+00  0.00000000E+00  0.00000000E+00
  0.00000000E+00  0.00000000E+00  0.00000000E+00
  0.00000000E+00  0.00000000E+00  0.00000000E+00
  0.00000000E+00  0.00000000E+00  0.00000000E+00
  0.00000000E+00  0.00000000E+00  0.00000000E+00
  0.00000000E+00  0.00000000E+00  0.00000000E+00
  0.00000000E+00  0.00000000E+00  0.00000000E+00
  0.00000000E+00  0.00000000E+00  0.00000000E+00
  0.00000000E+00  0.00000000E+00  0.00000000E+00
  0.00000000E+00  0.00000000E+00  0.00000000E+00
  0.00000000E+00  0.00000000E+00  0.00000000E+00
  0.00000000E+00  0.00000000E+00  0.00000000E+00
  0.00000000E+00  0.00000000E+00  0.00000000E+00
  0.00000000E+00  0.00000000E+00  0.00000000E+00
  0.00000000E+00  0.00000000E+00  0.00000000E+00
  0.00000000E+00  0.00000000E+00  0.00000000E+00
  0.00000000E+00  0.00000000E+00  0.00000000E+00
  0.00000000E+00  0.00000000E+00  0.00000000E+00
  0.00000000E+00  0.00000000E+00  0.00000000E+00
  0.00000000E+00  0.00000000E+00  0.00000000E+00
  0.00000000E+00  0.00000000E+00  0.00000000E+00
  0.00000000E+00  0.00000000E+00  0.00000000E+00
  0.00000000E+00  0.00000000E+00  0.00000000E+00
  0.00000000E+00  0.00000000E+00  0.00000000E+00
  0.00000000E+00  0.00000000E+00  0.00000000E+00
  0.00000000E+00  0.00000000E+00  0.00000000E+00
  0.00000000E+00  0.00000000E+00  0.00000000E+00
  0.00000000E+00  0.00000000E+00  0.00000000E+00
  0.00000000E+00  0.00000000E+00  0.00000000E+00
  0.00000000E+00  0.00000000E+00  0.00000000E+00
  0.00000000E+00  0.00000000E+00  0.00000000E+00
  0.00000000E+00  0.00000000E+00  0.00000000E+00
  0.00000000E+00  0.00000000E+00  0.00000000E+00
  0.00000000E+00  0.00000000E+00  0.00000000E+00
  0.00000000E+00  0.00000000E+00  0.00000000E+00
  0.00000000E+00  0.00000000E+00  0.00000000E+00
  0.00000000E+00  0.00000000E+00  0.00000000E+00
  0.00000000E+00  0.00000000E+00  0.00000000E+00
  0.00000000E+00  0.00000000E+00  0.00000000E+00
  0.00000000E+00  0.00000000E+00  0.00000000E+00
  0.00000000E+00  0.00000000E+00  0.00000000E+00
  0.00000000E+00  0.00000000E+00  0.00000000E+00
  0.00000000E+00  0.00000000E+00  0.00000000E+00
  0.00000000E+00  0.00000000E+00  0.00000000E+00
  0.00000000E+00  0.00000000E+00  0.00000000E+00
  0.00000000E+00  0.00000000E+00  0.00000000E+00
  0.00000000E+00  0.00000000E+00  0.00000000E+00
  0.00000000E+00  0.00000000E+00  0.00000000E+00
  0.00000000E+00  0.00000000E+00  0.00000000E+00
  0.00000000E+00  0.00000000E+00  0.00000000E+00
  0.00000000E+00  0.00000000E+00  0.00000000E+00
  0.00000000E+00  0.00000000E+00  0.00000000E+00
  0.00000000E+00  0.00000000E+00  0.00000000E+00
  0.00000000E+00  0.00000000E+00  0.00000000E+00
  0.00000000E+00  0.00000000E+00  0.00000000E+00
  0.00000000E+00  0.00000000E+00  0.00000000E+00
  0.00000000E+00  0.00000000E+00  0.00000000E+00
  0.00000000E+00  0.00000000E+00  0.00000000E+00
  0.00000000E+00  0.00000000E+00  0.00000000E+00
  0.00000000E+00  0.00000000E+00  0.00000000E+00
  0.00000000E+00  0.00000000E+00  0.00000000E+00
  0.00000000E+00  0.00000000E+00  0.00000000E+00
  0.00000000E+00  0.00000000E+00  0.00000000E+00
  0.00000000E+00  0.00000000E+00  0.00000000E+00
  0.00000000E+00  0.00000000E+00  0.00000000E+00
  0.00000000E+00  0.00000000E+00  0.00000000E+00