CuInSe2gb                               
   1.00000000000000     
     9.7266780392896699    0.0000000000000000    0.0000000000000000
     0.0000000000000000    8.4235502764570693    0.0000000000000000
     0.0000000000000000    0.0000000000000000   45.0000000000000000
   Fe   Mn
   281     7
Direct
  0.0623251505488030  0.0372659618526439  0.1259946196741614
  0.3125161036952094  0.8721984173100180  0.6538769638222980
  0.1869541360733422  0.1205065857636331  0.7870980168800854
  0.4378082561725448  0.2901941855517811  0.3900164992472120
  0.3122123289071483  0.7064612243998881  0.8317964032700155
  0.8124931880782558  0.2061773756217050  0.8321900028345041
  0.3127031319240829  0.3705234593271517  0.1682442047261871
  0.5627383097326045  0.2057796225576582  0.5651877507284729
  0.0616096054176015  0.0371809499727758  0.7428714868724463
  0.8123050464877911  0.8722284002817015  0.5212400806381691
  0.1867057215442941  0.2873838506435765  0.7427905097759385
  0.9375481380352074  0.4569601013610797  0.3460193125109561
  0.9370441637473051  0.2901570704262867  0.3900138637838644
  0.8107771718544851  0.0394866031837116  0.8742485719587011
  0.1881005196823412  0.7884618874077112  0.6098539241726258
  0.5623840379238999  0.0404770420005988  0.3900417356753387
  0.9374738730483543  0.9562438752954109  0.8322826640978935
  0.3126340760496466  0.5385843083295226  0.8740850216130220
  0.6868828508541278  0.2874908807868701  0.7427846419916034
  0.1877302264755734  0.6210330608252611  0.1682916605215645
  0.8125060367778830  0.2058206387314823  0.4785498735875056
  0.8132409719692203  0.5385649896330563  0.6098907978959142
  0.3125858567853928  0.8730036231926368  0.4345985914464834
  0.8129267104908621  0.0401143735396949  0.2572686739148630
  0.6875770266426874  0.9568174456448806  0.3460341401098238
  0.9372428301044020  0.1208075688950181  0.1681573011780205
  0.9377337718492147  0.1228643549321645  0.5212574512709582
  0.5629043600671073  0.5403552797970854  0.2573367068100365
  0.6871968029267372  0.7880254141679073  0.8741020403588422
  0.5627420651828872  0.3712062126244293  0.1681603618379139
  0.4368285801016303  0.7873866554075125  0.7428046500437859
  0.8129523877065433  0.7058434432882732  0.5652297405684557
  0.5619727934448078  0.8699148135660085  0.7870147726658477
  0.6877366345657011  0.1224937592025769  0.5212162962756017
  0.8125084763657050  0.3718436075152520  0.6539240569091740
  0.9364711933011044  0.4562601885689080  0.8320107527149596
  0.0622411741597865  0.2047054439375015  0.6984263468293378
  0.4375992084930695  0.9548996589358422  0.6984657071520534
  0.3111423600255853  0.2055578629042251  0.8322323020168915
  0.4374884558377583  0.6219289978527531  0.6539300807447277
  0.3131675019477800  0.5384104140809487  0.6098502301831054
  0.9377369638061795  0.4556662516341209  0.5651751116625167
  0.6870905895265963  0.7878642641029009  0.7428325142135307
  0.9378338722103304  0.7878744372032623  0.1260921053912902
  0.6874438495859194  0.7903023590121219  0.3900242014604640
  0.9369177447786770  0.7876217058078645  0.7427918309316572
  0.0625458117786199  0.2070003826397713  0.3460179743024647
  0.8125598027528584  0.0404104366240929  0.3900350036788794
  0.4370689960151795  0.1200538818385897  0.7869841677811770
  0.0625211931672043  0.2067978789299152  0.2130491582618133
  0.0625919831720986  0.3711478297689181  0.1681485304343217
  0.9379835729542052  0.7903515834605446  0.2572170792554388
  0.5624772321791415  0.2047573717492157  0.6984623624913457
  0.6873805223539022  0.9547310997122911  0.6984439783990166
  0.4372289328366061  0.7875256171249697  0.1260761489820627
  0.4377068712719085  0.9558971581854551  0.5651880348383826
  0.8122023014753246  0.3695600670612249  0.7869467157417965
  0.6881065181613061  0.2903294945768924  0.2572780170905163
  0.1876953353898038  0.4556309580894478  0.5651699828129213
  0.0631578486045484  0.8708211067188052  0.1681889953564358
  0.1882473384067169  0.2883245414266127  0.6098618779251197
  0.5625293528890302  0.7068451359399551  0.3460290701549465
  0.3123301465077011  0.2049250635814219  0.6984483992088668
  0.5621682753740765  0.5391189807182781  0.8740405947279920
  0.0626251415177737  0.7054492073040112  0.5651733774435838
  0.6871979397372833  0.6198971754883658  0.7870453728040833
  0.3124779624382475  0.5402299511420177  0.3900255956887832
  0.1878715658712603  0.6225259378934950  0.5212590010733110
  0.5623843010864346  0.8732463382304764  0.4346705756226063
  0.4377869501586766  0.4558572056110505  0.5651876494693100
  0.4370088923453925  0.2875307561276257  0.7428019939251364
  0.8126992365729743  0.8740147241109469  0.3015036912899128
  0.8125179480723983  0.7068515706715373  0.3460377902275657
  0.4371824126463348  0.4559619018173744  0.8318863084166130
  0.6875448326108264  0.9558256864259850  0.4785771928846200
  0.6874301089305899  0.4548747054493568  0.6984736764604822
  0.5627316387456862  0.8726998925576469  0.5212206829704719
  0.5626396508052812  0.3716284997020622  0.6538336950678307
  0.8124507315928651  0.8717454967984718  0.6539586231975428
  0.8124332563265197  0.3731514146821833  0.4346602414182314
  0.8130939229042874  0.5402256099706145  0.2573624639047591
  0.6870416025468750  0.4556098413663607  0.8318742688272396
  0.1874964957006517  0.7875712439940195  0.1260697164181334
  0.6873814070680589  0.2902224061086306  0.3900009116267740
  0.3124634487151792  0.3719862293286732  0.6538820800506648
  0.3125628348521561  0.2071194187852040  0.3460042889112212
  0.8118231466340770  0.5371216966819600  0.7428490931874820
  0.6868966718641916  0.9559829375107485  0.8320303585438737
  0.5624337229393337  0.8719141627552156  0.6538637651698435
  0.3125503766281508  0.7058882840558185  0.5652217523244439
  0.3122156075024070  0.5380378404501330  0.1260678233374629
  0.6876025040635907  0.9569330769939527  0.2130768507359760
  0.3127798121530028  0.2057870368776721  0.5651592705050992
  0.1878673082990553  0.9559322137217966  0.4786510953618632
  0.6877420137776858  0.9559945829393909  0.5651715655712470
  0.4381367062835720  0.7884917624740843  0.6098567859795130
  0.6876488213372480  0.6201053503672943  0.1682062801870624
  0.3126808811370007  0.8738593698634671  0.3015129690337338
  0.3124283948097832  0.7057957532605516  0.4786096361341288
  0.9382867877493789  0.2883652996052704  0.6099198669785282
  0.4378625705075904  0.6236991245051099  0.3014462175117361
  0.8126875770147730  0.8704801283312457  0.1681743923494117
  0.5629131571650702  0.2067876021774116  0.2130496948223891
  0.9376082774224965  0.6200028103267045  0.1682049100923882
  0.9370799167197065  0.7873968889314265  0.8742089316566549
  0.5616318337645161  0.3697357869025963  0.7869674907561766
  0.0626886438430722  0.3724757257571822  0.5212187505087366
  0.5626529687350019  0.3726423604386168  0.5212347875889872
  0.6875798962047882  0.1238058530288355  0.3015585754977637
  0.4374520123497899  0.9553447897285244  0.8319790120343259
  0.1880075667012136  0.2878192700473908  0.1260932272321757
  0.1880499509372527  0.2899991076666676  0.2572732028366278
  0.3124043614016646  0.3730380285423073  0.4346476433181218
  0.5621520063145219  0.0372772665532068  0.1259886058292864
  0.4382732940628052  0.2885021986275169  0.6098568812295087
  0.1875837064819287  0.4570136525837816  0.3460291076172882
  0.4367758515757113  0.2878361305141320  0.1260875558318198
  0.6880738699241350  0.7903296195493817  0.2572448715549185
  0.4376208335940220  0.1226020613754365  0.5212104709540830
  0.1883559616606559  0.2881782688142573  0.8742606907458537
  0.1874633518729706  0.1219533851215827  0.6539473190733892
  0.9374738370976563  0.1217162451606692  0.6539387834256153
  0.3127347588468754  0.2066747005791159  0.2130567033387680
  0.0623540231927662  0.0399490663016305  0.3900024480857759
  0.1877464698914758  0.1203702897002624  0.1682371185299449
  0.0632430779915423  0.5381488152134914  0.6099490757872680
  0.9379491412934431  0.2902531371722459  0.2572629159636422
  0.5633430065387903  0.5385201433858596  0.6098701057193221
  0.9376044122246828  0.9559107566760457  0.5652091804853496
  0.6875519377293398  0.6239251835201812  0.3015431216797115
  0.9374091125615585  0.6230962145174370  0.4345781008845743
  0.9370523387649047  0.6200901751879364  0.7870681454084674
  0.5621378421733875  0.7046525237916471  0.6983406806417558
  0.0615879108140964  0.7073745428167840  0.8322011633652209
  0.9376378997710021  0.1238313616804119  0.3015580696773203
  0.9382904000728183  0.7885791767278985  0.6098336954715209
  0.4380372807651058  0.7902969152468551  0.2572622390716728
  0.3120811964625228  0.3696628108477930  0.7869787225569491
  0.4377350142255519  0.4567857743770425  0.2131475106425497
  0.1875695049012390  0.1228481189770352  0.5212516393967938
  0.8126046874955012  0.7049545554681563  0.6985122997530306
  0.0631676489462499  0.0381979911693678  0.6098208523300878
  0.5619781179743019  0.2060487032030355  0.8319190245214444
  0.3129642765508591  0.8722274944256820  0.5212648010350011
  0.6876518064421371  0.2877949392434588  0.1258121418322145
  0.1876402402196762  0.9569435829590404  0.2131549054856978
  0.6881419876398208  0.2885792041715108  0.6099040861438267
  0.3133592489328951  0.0384101923516833  0.6099664757255386
  0.9373557857971112  0.1199406533103384  0.7871114622314564
  0.4371746394676722  0.7883116020691716  0.8740778222083567
  0.8118977862396243  0.0375575566370413  0.7428396731186141
  0.9375098549482922  0.4548055710205639  0.6984984841375472
  0.1875553673315871  0.6218200631980701  0.6539541870469645
  0.3125709596580291  0.7048600456553767  0.6984614059674780
  0.9370337972788683  0.2877629210272348  0.1257982655447417
  0.4376275250099181  0.4557610663990965  0.4785809097651863
  0.0624704512417929  0.7051173202007797  0.4786831084640167
  0.9373638333643913  0.1232449809273000  0.4345674125023812
  0.4376077973791869  0.1238508739032214  0.3015659355688490
  0.1874291425221438  0.1231756406301887  0.4345299185432991
  0.5623577592122773  0.0390349156342905  0.8741789383034005
  0.1878477083615018  0.9559597259067694  0.5651952778881992
  0.6870593319137882  0.7879539953348379  0.1260881692377397
  0.5622359566709008  0.5378756580297005  0.1259822471145303
  0.3124516337189586  0.0401614352715273  0.3900071348186681
  0.6880730735604981  0.1207718407339970  0.1681581605285784
  0.8126893436203240  0.2065032801567913  0.2130348011565837
  0.0629773421139734  0.5402298979810736  0.2572700096101734
  0.5625270146892472  0.7056884580904110  0.4785979159967526
  0.0627509853045935  0.2054729055750459  0.5652134407677293
  0.5626485483950485  0.3737604637471903  0.3015081710354005
  0.4375042119051822  0.9567321248724078  0.3460285238484760
  0.1872759372577776  0.9547236863407358  0.6984827438542234
  0.4375731931196592  0.6210876217012510  0.1682899855477876
  0.9378899484014774  0.4569558126779559  0.2131501270854147
  0.0622035598533924  0.5378873653650826  0.1259658390771433
  0.8124907750519472  0.3724723538723658  0.5212232670521133
  0.9375018340315371  0.6238977928105440  0.3014761396074298
  0.3130094780217026  0.0400550796598120  0.2572503099283912
  0.6882149886797130  0.7885587380218216  0.6098588703283195
  0.1868515289597488  0.4564174521892205  0.8319938032241018
  0.4376731331410056  0.1204215812841186  0.1682073962729032
  0.3129323070227817  0.3724363666331821  0.5212196718637625
  0.4372793599651804  0.6198202813808167  0.7870025108583308
  0.0629659072424117  0.0402496410860022  0.2572183782193521
  0.5626501882509998  0.7057917901889805  0.5651680288652347
  0.9370374286437519  0.2872258010657483  0.7428430436502009
  0.6869316201923057  0.1200653749191378  0.7870180409512146
  0.1874824193850322  0.4569376545640447  0.2131105134521668
  0.9373267613087205  0.7903443837975208  0.3900282420263179
  0.6875398894794645  0.2888453791819893  0.8742567136409261
  0.3127705056888053  0.8711230661687865  0.1682754492874745
  0.4374793232885376  0.4547470224016475  0.6984237283974414
  0.9376662661310818  0.9568867187924642  0.3460213093945294
  0.6877376770286235  0.6224793801506553  0.5212238879371025
  0.0625320402414283  0.8718288978509873  0.6539007333142466
  0.0620153544483858  0.8697705549104960  0.7870159641570689
  0.0624715996041067  0.3718913399192846  0.6538392115152954
  0.6875343096709402  0.4557994079405783  0.4785563802182502
  0.1881149469881547  0.7902809850574677  0.2572945851231279
  0.4375238418262620  0.1229224321195338  0.4346489923253151
  0.8122840481076220  0.0383890080989612  0.1259471000251122
  0.9374071215721774  0.6224857744321520  0.5212468247988075
  0.0624075679464773  0.8729996072949588  0.4349212980063267
  0.8122382551241811  0.5375939664059814  0.1257267425157825
  0.4376763226098142  0.4568670607634645  0.3460201806868777
  0.8126031244279158  0.2069721051396509  0.3460018311589924
  0.3125594791209385  0.7071029891533295  0.3460933276998858
  0.6875280047174031  0.1218077655735303  0.6538583714329638
  0.5626989611207869  0.8739206073200294  0.3015239714113286
  0.0616617191983094  0.5369366371377496  0.7428146621458325
  0.9377031971605592  0.9569840212289706  0.2130600068044801
  0.8125948246111221  0.7064240813149805  0.2130145831992206
  0.0626563359274870  0.8739296263709804  0.3014891028060923
  0.1876320555716667  0.1242978768705958  0.3014832190678629
  0.0624472167916342  0.7069565077805717  0.3460216921063825
  0.8130660612441465  0.0385346948979643  0.6099161053840116
  0.0624432660704348  0.3730688588480483  0.4346435291512105
  0.5625139008517515  0.2068388584255355  0.3460177323082543
  0.8126587691009054  0.3738149608353000  0.3014955810761509
  0.4375233977744372  0.9557706749797369  0.4786211226856653
  0.5623369260445147  0.5399482421143723  0.3900039892456363
  0.0625253543648518  0.2054970011002868  0.4786102785036602
  0.3127289412326328  0.8693496452851831  0.7868513759701984
  0.9373706185770353  0.9546989376956581  0.6984431116816494
  0.0626834052947395  0.3740282835491355  0.3015372168558424
  0.6875974769083665  0.6217804050001959  0.6538623641588962
  0.6877343682584449  0.4557861357890956  0.5652007086663361
  0.4376814954941343  0.9569764143841302  0.2131477543096508
  0.3125838214128622  0.2057167686548326  0.4785689760408541
  0.4373957719081075  0.1219349110823039  0.6538878907471987
  0.6873727193170052  0.6231368072119263  0.4346562238020991
  0.8124707429667153  0.2051047563588278  0.6983175602285755
  0.8126952282217224  0.7058178951664670  0.4785738932099398
  0.8123292887826817  0.8730804013217450  0.4345704138421601
  0.9372199365615512  0.9558932605134983  0.4786641906671948
  0.5625628372111917  0.2057313681458515  0.4785828394220814
  0.1875186524288127  0.6230332830002948  0.4345995208898682
  0.3117695207025373  0.0374187632882913  0.7428272435365356
  0.9374707278639797  0.6216316381197198  0.6539200277198463
  0.5621408605763829  0.7056231799880227  0.8319541932666017
  0.3127422313245918  0.3740739975204301  0.3015323858883683
  0.5627988877251432  0.7065682886865351  0.2130807282123664
  0.1875775858466653  0.4556727919963930  0.4786156392905312
  0.3125455736829513  0.0399471249497924  0.8742896615870303
  0.1875009743692147  0.4546073986445692  0.6985056566756993
  0.8119062578945188  0.5380957580842608  0.8741783648736726
  0.1874758676109688  0.2900481757770285  0.3900259493459436
  0.4373420243933453  0.6231497912723286  0.4346741586613259
  0.0625924452951280  0.7065667154463767  0.2130490849441422
  0.5624151054774020  0.3731631648936726  0.4346561130765073
  0.4375415615074447  0.6224465194831067  0.5212154813159902
  0.8117796371425832  0.7061597542873703  0.8317792694006979
  0.0624166038728425  0.3704361837478147  0.7870142986166321
  0.4369163770451786  0.2892302656184320  0.8741865570641570
  0.3122800307626464  0.0378577658090725  0.1259358876886039
  0.6874143393720072  0.1230867446859031  0.4346581610485270
  0.1876384085525594  0.9570243975996185  0.3459882241905234
  0.0622823267871583  0.2052764685489978  0.8321839676903112
  0.5632082491598488  0.0384911073290398  0.6098221987076207
  0.6873601861600249  0.4570586545234755  0.2131097605113380
  0.1868918999384369  0.7873157063947159  0.7427343608217135
  0.1874512164043931  0.6239057043094566  0.3015084882897336
  0.4376396786296249  0.7902113824743269  0.3900191933836166
  0.4381428317455241  0.2900656363900862  0.2572523769551233
  0.0619474988425352  0.5387401844506128  0.8741376831742640
  0.5623968713640138  0.0376464484230937  0.7428779252287618
  0.1871627249448867  0.7877173135340512  0.8743674516551077
  0.9375139199312852  0.4556814616150918  0.4785755231366551
  0.8125419811995909  0.5399242649249231  0.3899777705644766
  0.8126469882988242  0.2056668133424242  0.5651528584840995
  0.1870916652621249  0.6201104849857776  0.7870708072442959
  0.0624235595402542  0.5402517239463852  0.3900217244284531
  0.0627903081406005  0.7046994982666412  0.6983898407460407
  0.3130477426967436  0.5402591716737221  0.2572901381220642
  0.3126685799322451  0.7066289720912055  0.2130470389722401
  0.5622357193107844  0.8708009465782375  0.1681822883089495
  0.5622538549938014  0.5374738003194363  0.7426709551916613
  0.6875645911772920  0.4568908979838481  0.3460415010743159
  0.9360813329440474  0.2890292142111286  0.8743172784893494
  0.5631226263737208  0.0402587748785050  0.2572428124963151
  0.0629797037589560  0.0381488528656290  0.8743200744965502
  0.1873670047994822  0.7903009211165102  0.3898821836680606
  0.8126349379190585  0.3705691043099886  0.1674779245161230
  0.1858672650973792  0.9565450059374057  0.8326340475360225
  0.0626842152581549  0.8724792652487757  0.5211403581082671
  0.8120879632647333  0.8694560745399601  0.7867222101296599
  0.3118242340469126  0.5372220965341570  0.7429283150095953
 
  0.00000000E+00  0.00000000E+00  0.00000000E+00
  0.00000000E+00  0.00000000E+00  0.00000000E+00
  0.00000000E+00  0.00000000E+00  0.00000000E+00
  0.00000000E+00  0.00000000E+00  0.00000000E+00
  0.00000000E+00  0.00000000E+00  0.00000000E+00
  0.00000000E+00  0.00000000E+00  0.00000000E+00
  0.00000000E+00  0.00000000E+00  0.00000000E+00
  0.00000000E+00  0.00000000E+00  0.00000000E+00
  0.00000000E+00  0.00000000E+00  0.00000000E+00
  0.00000000E+00  0.00000000E+00  0.00000000E+00
  0.00000000E+00  0.00000000E+00  0.00000000E+00
  0.00000000E+00  0.00000000E+00  0.00000000E+00
  0.00000000E+00  0.00000000E+00  0.00000000E+00
  0.00000000E+00  0.00000000E+00  0.00000000E+00
  0.00000000E+00  0.00000000E+00  0.00000000E+00
  0.00000000E+00  0.00000000E+00  0.00000000E+00
  0.00000000E+00  0.00000000E+00  0.00000000E+00
  0.00000000E+00  0.00000000E+00  0.00000000E+00
  0.00000000E+00  0.00000000E+00  0.00000000E+00
  0.00000000E+00  0.00000000E+00  0.00000000E+00
  0.00000000E+00  0.00000000E+00  0.00000000E+00
  0.00000000E+00  0.00000000E+00  0.00000000E+00
  0.00000000E+00  0.00000000E+00  0.00000000E+00
  0.00000000E+00  0.00000000E+00  0.00000000E+00
  0.00000000E+00  0.00000000E+00  0.00000000E+00
  0.00000000E+00  0.00000000E+00  0.00000000E+00
  0.00000000E+00  0.00000000E+00  0.00000000E+00
  0.00000000E+00  0.00000000E+00  0.00000000E+00
  0.00000000E+00  0.00000000E+00  0.00000000E+00
  0.00000000E+00  0.00000000E+00  0.00000000E+00
  0.00000000E+00  0.00000000E+00  0.00000000E+00
  0.00000000E+00  0.00000000E+00  0.00000000E+00
  0.00000000E+00  0.00000000E+00  0.00000000E+00
  0.00000000E+00  0.00000000E+00  0.00000000E+00
  0.00000000E+00  0.00000000E+00  0.00000000E+00
  0.00000000E+00  0.00000000E+00  0.00000000E+00
  0.00000000E+00  0.00000000E+00  0.00000000E+00
  0.00000000E+00  0.00000000E+00  0.00000000E+00
  0.00000000E+00  0.00000000E+00  0.00000000E+00
  0.00000000E+00  0.00000000E+00  0.00000000E+00
  0.00000000E+00  0.00000000E+00  0.00000000E+00
  0.00000000E+00  0.00000000E+00  0.00000000E+00
  0.00000000E+00  0.00000000E+00  0.00000000E+00
  0.00000000E+00  0.00000000E+00  0.00000000E+00
  0.00000000E+00  0.00000000E+00  0.00000000E+00
  0.00000000E+00  0.00000000E+00  0.00000000E+00
  0.00000000E+00  0.00000000E+00  0.00000000E+00
  0.00000000E+00  0.00000000E+00  0.00000000E+00
  0.00000000E+00  0.00000000E+00  0.00000000E+00
  0.00000000E+00  0.00000000E+00  0.00000000E+00
  0.00000000E+00  0.00000000E+00  0.00000000E+00
  0.00000000E+00  0.00000000E+00  0.00000000E+00
  0.00000000E+00  0.00000000E+00  0.00000000E+00
  0.00000000E+00  0.00000000E+00  0.00000000E+00
  0.00000000E+00  0.00000000E+00  0.00000000E+00
  0.00000000E+00  0.00000000E+00  0.00000000E+00
  0.00000000E+00  0.00000000E+00  0.00000000E+00
  0.00000000E+00  0.00000000E+00  0.00000000E+00
  0.00000000E+00  0.00000000E+00  0.00000000E+00
  0.00000000E+00  0.00000000E+00  0.00000000E+00
  0.00000000E+00  0.00000000E+00  0.00000000E+00
  0.00000000E+00  0.00000000E+00  0.00000000E+00
  0.00000000E+00  0.00000000E+00  0.00000000E+00
  0.00000000E+00  0.00000000E+00  0.00000000E+00
  0.00000000E+00  0.00000000E+00  0.00000000E+00
  0.00000000E+00  0.00000000E+00  0.00000000E+00
  0.00000000E+00  0.00000000E+00  0.00000000E+00
  0.00000000E+00  0.00000000E+00  0.00000000E+00
  0.00000000E+00  0.00000000E+00  0.00000000E+00
  0.00000000E+00  0.00000000E+00  0.00000000E+00
  0.00000000E+00  0.00000000E+00  0.00000000E+00
  0.00000000E+00  0.00000000E+00  0.00000000E+00
  0.00000000E+00  0.00000000E+00  0.00000000E+00
  0.00000000E+00  0.00000000E+00  0.00000000E+00
  0.00000000E+00  0.00000000E+00  0.00000000E+00
  0.00000000E+00  0.00000000E+00  0.00000000E+00
  0.00000000E+00  0.00000000E+00  0.00000000E+00
  0.00000000E+00  0.00000000E+00  0.00000000E+00
  0.00000000E+00  0.00000000E+00  0.00000000E+00
  0.00000000E+00  0.00000000E+00  0.00000000E+00
  0.00000000E+00  0.00000000E+00  0.00000000E+00
  0.00000000E+00  0.00000000E+00  0.00000000E+00
  0.00000000E+00  0.00000000E+00  0.00000000E+00
  0.00000000E+00  0.00000000E+00  0.00000000E+00
  0.00000000E+00  0.00000000E+00  0.00000000E+00
  0.00000000E+00  0.00000000E+00  0.00000000E+00
  0.00000000E+00  0.00000000E+00  0.00000000E+00
  0.00000000E+00  0.00000000E+00  0.00000000E+00
  0.00000000E+00  0.00000000E+00  0.00000000E+00
  0.00000000E+00  0.00000000E+00  0.00000000E+00
  0.00000000E+00  0.00000000E+00  0.00000000E+00
  0.00000000E+00  0.00000000E+00  0.00000000E+00
  0.00000000E+00  0.00000000E+00  0.00000000E+00
  0.00000000E+00  0.00000000E+00  0.00000000E+00
  0.00000000E+00  0.00000000E+00  0.00000000E+00
  0.00000000E+00  0.00000000E+00  0.00000000E+00
  0.00000000E+00  0.00000000E+00  0.00000000E+00
  0.00000000E+00  0.00000000E+00  0.00000000E+00
  0.00000000E+00  0.00000000E+00  0.00000000E+00
  0.00000000E+00  0.00000000E+00  0.00000000E+00
  0.00000000E+00  0.00000000E+00  0.00000000E+00
  0.00000000E+00  0.00000000E+00  0.00000000E+00
  0.00000000E+00  0.00000000E+00  0.00000000E+00
  0.00000000E+00  0.00000000E+00  0.00000000E+00
  0.00000000E+00  0.00000000E+00  0.00000000E+00
  0.00000000E+00  0.00000000E+00  0.00000000E+00
  0.00000000E+00  0.00000000E+00  0.00000000E+00
  0.00000000E+00  0.00000000E+00  0.00000000E+00
  0.00000000E+00  0.00000000E+00  0.00000000E+00
  0.00000000E+00  0.00000000E+00  0.00000000E+00
  0.00000000E+00  0.00000000E+00  0.00000000E+00
  0.00000000E+00  0.00000000E+00  0.00000000E+00
  0.00000000E+00  0.00000000E+00  0.00000000E+00
  0.00000000E+00  0.00000000E+00  0.00000000E+00
  0.00000000E+00  0.00000000E+00  0.00000000E+00
  0.00000000E+00  0.00000000E+00  0.00000000E+00
  0.00000000E+00  0.00000000E+00  0.00000000E+00
  0.00000000E+00  0.00000000E+00  0.00000000E+00
  0.00000000E+00  0.00000000E+00  0.00000000E+00
  0.00000000E+00  0.00000000E+00  0.00000000E+00
  0.00000000E+00  0.00000000E+00  0.00000000E+00
  0.00000000E+00  0.00000000E+00  0.00000000E+00
  0.00000000E+00  0.00000000E+00  0.00000000E+00
  0.00000000E+00  0.00000000E+00  0.00000000E+00
  0.00000000E+00  0.00000000E+00  0.00000000E+00
  0.00000000E+00  0.00000000E+00  0.00000000E+00
  0.00000000E+00  0.00000000E+00  0.00000000E+00
  0.00000000E+00  0.00000000E+00  0.00000000E+00
  0.00000000E+00  0.00000000E+00  0.00000000E+00
  0.00000000E+00  0.00000000E+00  0.00000000E+00
  0.00000000E+00  0.00000000E+00  0.00000000E+00
  0.00000000E+00  0.00000000E+00  0.00000000E+00
  0.00000000E+00  0.00000000E+00  0.00000000E+00
  0.00000000E+00  0.00000000E+00  0.00000000E+00
  0.00000000E+00  0.00000000E+00  0.00000000E+00
  0.00000000E+00  0.00000000E+00  0.00000000E+00
  0.00000000E+00  0.00000000E+00  0.00000000E+00
  0.00000000E+00  0.00000000E+00  0.00000000E+00
  0.00000000E+00  0.00000000E+00  0.00000000E+00
  0.00000000E+00  0.00000000E+00  0.00000000E+00
  0.00000000E+00  0.00000000E+00  0.00000000E+00
  0.00000000E+00  0.00000000E+00  0.00000000E+00
  0.00000000E+00  0.00000000E+00  0.00000000E+00
  0.00000000E+00  0.00000000E+00  0.00000000E+00
  0.00000000E+00  0.00000000E+00  0.00000000E+00
  0.00000000E+00  0.00000000E+00  0.00000000E+00
  0.00000000E+00  0.00000000E+00  0.00000000E+00
  0.00000000E+00  0.00000000E+00  0.00000000E+00
  0.00000000E+00  0.00000000E+00  0.00000000E+00
  0.00000000E+00  0.00000000E+00  0.00000000E+00
  0.00000000E+00  0.00000000E+00  0.00000000E+00
  0.00000000E+00  0.00000000E+00  0.00000000E+00
  0.00000000E+00  0.00000000E+00  0.00000000E+00
  0.00000000E+00  0.00000000E+00  0.00000000E+00
  0.00000000E+00  0.00000000E+00  0.00000000E+00
  0.00000000E+00  0.00000000E+00  0.00000000E+00
  0.00000000E+00  0.00000000E+00  0.00000000E+00
  0.00000000E+00  0.00000000E+00  0.00000000E+00
  0.00000000E+00  0.00000000E+00  0.00000000E+00
  0.00000000E+00  0.00000000E+00  0.00000000E+00
  0.00000000E+00  0.00000000E+00  0.00000000E+00
  0.00000000E+00  0.00000000E+00  0.00000000E+00
  0.00000000E+00  0.00000000E+00  0.00000000E+00
  0.00000000E+00  0.00000000E+00  0.00000000E+00
  0.00000000E+00  0.00000000E+00  0.00000000E+00
  0.00000000E+00  0.00000000E+00  0.00000000E+00
  0.00000000E+00  0.00000000E+00  0.00000000E+00
  0.00000000E+00  0.00000000E+00  0.00000000E+00
  0.00000000E+00  0.00000000E+00  0.00000000E+00
  0.00000000E+00  0.00000000E+00  0.00000000E+00
  0.00000000E+00  0.00000000E+00  0.00000000E+00
  0.00000000E+00  0.00000000E+00  0.00000000E+00
  0.00000000E+00  0.00000000E+00  0.00000000E+00
  0.00000000E+00  0.00000000E+00  0.00000000E+00
  0.00000000E+00  0.00000000E+00  0.00000000E+00
  0.00000000E+00  0.00000000E+00  0.00000000E+00
  0.00000000E+00  0.00000000E+00  0.00000000E+00
  0.00000000E+00  0.00000000E+00  0.00000000E+00
  0.00000000E+00  0.00000000E+00  0.00000000E+00
  0.00000000E+00  0.00000000E+00  0.00000000E+00
  0.00000000E+00  0.00000000E+00  0.00000000E+00
  0.00000000E+00  0.00000000E+00  0.00000000E+00
  0.00000000E+00  0.00000000E+00  0.00000000E+00
  0.00000000E+00  0.00000000E+00  0.00000000E+00
  0.00000000E+00  0.00000000E+00  0.00000000E+00
  0.00000000E+00  0.00000000E+00  0.00000000E+00
  0.00000000E+00  0.00000000E+00  0.00000000E+00
  0.00000000E+00  0.00000000E+00  0.00000000E+00
  0.00000000E+00  0.00000000E+00  0.00000000E+00
  0.00000000E+00  0.00000000E+00  0.00000000E+00
  0.00000000E+00  0.00000000E+00  0.00000000E+00
  0.00000000E+00  0.00000000E+00  0.00000000E+00
  0.00000000E+00  0.00000000E+00  0.00000000E+00
  0.00000000E+00  0.00000000E+00  0.00000000E+00
  0.00000000E+00  0.00000000E+00  0.00000000E+00
  0.00000000E+00  0.00000000E+00  0.00000000E+00
  0.00000000E+00  0.00000000E+00  0.00000000E+00
  0.00000000E+00  0.00000000E+00  0.00000000E+00
  0.00000000E+00  0.00000000E+00  0.00000000E+00
  0.00000000E+00  0.00000000E+00  0.00000000E+00
  0.00000000E+00  0.00000000E+00  0.00000000E+00
  0.00000000E+00  0.00000000E+00  0.00000000E+00
  0.00000000E+00  0.00000000E+00  0.00000000E+00
  0.00000000E+00  0.00000000E+00  0.00000000E+00
  0.00000000E+00  0.00000000E+00  0.00000000E+00
  0.00000000E+00  0.00000000E+00  0.00000000E+00
  0.00000000E+00  0.00000000E+00  0.00000000E+00
  0.00000000E+00  0.00000000E+00  0.00000000E+00
  0.00000000E+00  0.00000000E+00  0.00000000E+00
  0.00000000E+00  0.00000000E+00  0.00000000E+00
  0.00000000E+00  0.00000000E+00  0.00000000E+00
  0.00000000E+00  0.00000000E+00  0.00000000E+00
  0.00000000E+00  0.00000000E+00  0.00000000E+00
  0.00000000E+00  0.00000000E+00  0.00000000E+00
  0.00000000E+00  0.00000000E+00  0.00000000E+00
  0.00000000E+00  0.00000000E+00  0.00000000E+00
  0.00000000E+00  0.00000000E+00  0.00000000E+00
  0.00000000E+00  0.00000000E+00  0.00000000E+00
  0.00000000E+00  0.00000000E+00  0.00000000E+00
  0.00000000E+00  0.00000000E+00  0.00000000E+00
  0.00000000E+00  0.00000000E+00  0.00000000E+00
  0.00000000E+00  0.00000000E+00  0.00000000E+00
  0.00000000E+00  0.00000000E+00  0.00000000E+00
  0.00000000E+00  0.00000000E+00  0.00000000E+00
  0.00000000E+00  0.00000000E+00  0.00000000E+00
  0.00000000E+00  0.00000000E+00  0.00000000E+00
  0.00000000E+00  0.00000000E+00  0.00000000E+00
  0.00000000E+00  0.00000000E+00  0.00000000E+00
  0.00000000E+00  0.00000000E+00  0.00000000E+00
  0.00000000E+00  0.00000000E+00  0.00000000E+00
  0.00000000E+00  0.00000000E+00  0.00000000E+00
  0.00000000E+00  0.00000000E+00  0.00000000E+00
  0.00000000E+00  0.00000000E+00  0.00000000E+00
  0.00000000E+00  0.00000000E+00  0.00000000E+00
  0.00000000E+00  0.00000000E+00  0.00000000E+00
  0.00000000E+00  0.00000000E+00  0.00000000E+00
  0.00000000E+00  0.00000000E+00  0.00000000E+00
  0.00000000E+00  0.00000000E+00  0.00000000E+00
  0.00000000E+00  0.00000000E+00  0.00000000E+00
  0.00000000E+00  0.00000000E+00  0.00000000E+00
  0.00000000E+00  0.00000000E+00  0.00000000E+00
  0.00000000E+00  0.00000000E+00  0.00000000E+00
  0.00000000E+00  0.00000000E+00  0.00000000E+00
  0.00000000E+00  0.00000000E+00  0.00000000E+00
  0.00000000E+00  0.00000000E+00  0.00000000E+00
  0.00000000E+00  0.00000000E+00  0.00000000E+00
  0.00000000E+00  0.00000000E+00  0.00000000E+00