CuInSe2gb                               
   1.00000000000000     
     9.7266780392896699    0.0000000000000000    0.0000000000000000
     0.0000000000000000    8.4235502764570693    0.0000000000000000
     0.0000000000000000    0.0000000000000000   45.0000000000000000
   Fe   Mn
   274    14
Direct
  0.0627488953730037  0.0367116661301972  0.1259303648925802
  0.3125263742107869  0.8712036322286121  0.6538566421841040
  0.1874416874591952  0.1189826604670745  0.7869708841747303
  0.4378484730857776  0.2912241092611220  0.3901379932394941
  0.3129956407029182  0.7056627242852722  0.8316518285841502
  0.8137249916814995  0.2066486399777397  0.8323238308095181
  0.1873655370855487  0.9568069938810506  0.8320440032421506
  0.5627110838394741  0.2061892085607428  0.5652525533864624
  0.0621208754063821  0.0365383046173983  0.7427066991356515
  0.8120993494011065  0.8718118818245767  0.5213964350227692
  0.1876499744426672  0.2863301853654902  0.7426280990353736
  0.9375055721518756  0.4569875299793278  0.3461057251310813
  0.9368401999865797  0.2906536102351447  0.3901742144846855
  0.8120644663438866  0.0381196985918346  0.8741790607445256
  0.1873886163493761  0.7876149506701843  0.6098011789257045
  0.5620537601928359  0.0407874868835904  0.3901637388763032
  0.9390864898931629  0.9573290699933774  0.8323486515716640
  0.3130590987719795  0.5376016404540103  0.8741444880683039
  0.6877793368771979  0.2871591180499979  0.7425912721447387
  0.1881592348848566  0.6208266746641561  0.1680062760239703
  0.8122028704259591  0.2059302932132008  0.4785016990831174
  0.8125340879084495  0.5374249913545522  0.6097815508577710
  0.3122606147178886  0.8735563036228844  0.4347375067269728
  0.8126116647929288  0.0409934387019992  0.2574891263500540
  0.6872650352012635  0.9570876933455219  0.3460693664310206
  0.9369020230733287  0.1209575168079177  0.1682796802717174
  0.9374135446959588  0.1225416759336186  0.5213470730926474
  0.5624756813402711  0.5410640421099012  0.2573862549904206
  0.6871206826996363  0.7887163685854645  0.8741468929540007
  0.5631450306702497  0.3710636471236128  0.1679188224887528
  0.4375253628776792  0.7875718635686266  0.7427513926562197
  0.8127716013453411  0.7060152130882446  0.5651702967347034
  0.5624220780116241  0.8685273482288640  0.7868606912559144
  0.6873511187368836  0.1221603674411649  0.5213422876584465
  0.8127025379674233  0.3709460797308919  0.6538602752515804
  0.9378863953820125  0.4563885260724623  0.8321653367210747
  0.0623563526466536  0.2044205088485597  0.6983490381750379
  0.4374029800483614  0.9546987242210472  0.6983255383706877
  0.3127013635752628  0.2051385057509068  0.8321534558390087
  0.4374571286926769  0.6212472026974916  0.6538533869251195
  0.3123165308108128  0.5375126506565800  0.6097511012167005
  0.9375342024758628  0.4560072254980730  0.5651415216671452
  0.6877423805615678  0.7873440072504121  0.7427285951381566
  0.9370812046697259  0.7887192160765152  0.1262170473997197
  0.6874572076253342  0.7903816452894653  0.3900660784563050
  0.9376517057606344  0.7870082564142822  0.7427639078868927
  0.0626466040470690  0.2071922667586054  0.3461248797063838
  0.8123171953912749  0.0407016557652154  0.3902392741622259
  0.4373600753850836  0.1190396972044582  0.7869713497854578
  0.0620299728959762  0.2069663020513524  0.2131100258742468
  0.0618977113482359  0.3710729546425235  0.1679401218133616
  0.9370849669919029  0.7909979680184183  0.2574052703705765
  0.5624024611598223  0.2046926466946576  0.6984138460960130
  0.6873666749267259  0.9547492498837361  0.6983682824826938
  0.4372254643738954  0.7884132807152781  0.1256588935240827
  0.4373838085395870  0.9562040129672259  0.5649252764810102
  0.8125671312275348  0.3687129860999125  0.7868952021795178
  0.6869721020621155  0.2910193511482682  0.2574130701285156
  0.1874267669183871  0.4560375189872960  0.5651445707936182
  0.0631418877634949  0.8712282343231103  0.1680604918286337
  0.1873755081146800  0.2873159261567103  0.6098578354453357
  0.5628214983465485  0.7072008745305682  0.3461741813205161
  0.3124614409309160  0.2045320016262557  0.6983476012167800
  0.5623190280586136  0.5381409921406862  0.8740077199768123
  0.0625096753170215  0.7056250449285859  0.5651063406172592
  0.6876509670235322  0.6187454528557288  0.7869912982944809
  0.3119954325742278  0.5409162009687838  0.3901831986892059
  0.1879295916257359  0.6222427680736831  0.5214081731238778
  0.5623726539598564  0.8736315410791796  0.4348007024783692
  0.4374366131739054  0.4562571862399833  0.5651413779468017
  0.4375794945731503  0.2872839569346534  0.7426348593352708
  0.8125327951563434  0.8756365805291606  0.3016049870964845
  0.8123581472104318  0.7071337079495670  0.3462072941723552
  0.4380735021044308  0.4552812306717399  0.8319288581960835
  0.6877752705385171  0.9563320331294037  0.4784836531647426
  0.6872816552881543  0.4545763578992182  0.6982450600053928
  0.5626711612741440  0.8721291760662793  0.5213103757476103
  0.5625668920694111  0.3707424330539242  0.6537777114123632
  0.8125504843462383  0.8709823845436799  0.6538454579416814
  0.8124696479335988  0.3738246439875190  0.4347755088782497
  0.8125153391804377  0.5406531336272380  0.2574237576962952
  0.6887284309886159  0.4552506324456553  0.8320777692259249
  0.1879624060135154  0.7884686254963350  0.1256834825954931
  0.6871776128159720  0.2908756449306900  0.3901376904678852
  0.3125650256273364  0.3713130672913767  0.6537606707512125
  0.3126022380118124  0.2072402193285860  0.3460718916213220
  0.5624621829295289  0.3722101336268775  0.5213686931519862
  0.6879151153228983  0.9557043721799624  0.8320670916463871
  0.5626407043417507  0.8712613640458466  0.6537666946393191
  0.3123499773701303  0.7059645502213634  0.5652673226727321
  0.3123341275809799  0.5378963140679550  0.1258006323794010
  0.6871394270936312  0.9576079565310376  0.2131888619786304
  0.3124500847892080  0.2060038944324902  0.5651893834283238
  0.1873166770927504  0.9564930546744518  0.4785654686177255
  0.6877911424294205  0.9562951829735771  0.5651884261795271
  0.4373967921709386  0.7874412320091518  0.6097824989552416
  0.6872813434803156  0.6194974976356048  0.1681012269665673
  0.3124985422784373  0.8749509385761590  0.3015302923696661
  0.3123143976798111  0.7055895238779236  0.4785288743397000
  0.9371294367565615  0.2873553002517783  0.6098702936152411
  0.4378630643835889  0.6250856569518976  0.3016434024018488
  0.8125518443107822  0.8704385552298494  0.1681344061731719
  0.5629373665297253  0.2069376895636353  0.2130405419253115
  0.9375997214692059  0.6194460483061911  0.1681453910564781
  0.9378439541161403  0.7872014611096474  0.8743270836242876
  0.5622111269788550  0.3685808774318621  0.7868643647745639
  0.0624854287755736  0.3721037412060422  0.5213344494910311
  0.3123798916202444  0.3700988732786105  0.1681156429070389
  0.6876674869437980  0.1255188537463713  0.3016782242369215
  0.4387863926275618  0.9553011793322671  0.8318720243886509
  0.1876564518143072  0.2888769756589912  0.1260948805673759
  0.1871747373569538  0.2907010850599193  0.2574452857954517
  0.3124649110728158  0.3737019132760196  0.4348077422857684
  0.5629839868251855  0.0368792487713242  0.1258983428464181
  0.4372803468371875  0.2874409113856931  0.6097718267818956
  0.1873849986858044  0.4576923175214920  0.3461855612391861
  0.4372826974097396  0.2890265943854299  0.1260986041472512
  0.6876085334537771  0.7913143803210988  0.2573648595457949
  0.4374437115261462  0.1225979504598104  0.5213005496431231
  0.1890880148594906  0.2887959364390388  0.8743138787050699
  0.1874207282234882  0.1213272672565182  0.6538748047389389
  0.9375563417251263  0.1209910339480502  0.6538701729180424
  0.3125673311985256  0.2074241308893872  0.2130446056300045
  0.0620938696338486  0.0404611511640043  0.3901408195712759
  0.1873519969979555  0.1196140781241404  0.1679482699236269
  0.0624219217051779  0.5368272097815369  0.6098842193011152
  0.9375399902601889  0.2907107053131335  0.2573848429139447
  0.5624746508699500  0.5374982375458600  0.6097658799288017
  0.9373010934879769  0.9563787074369143  0.5651666457420353
  0.6872905803033278  0.6254442512595577  0.3016211792359391
  0.9373272602640662  0.6238413523000609  0.4347488302973770
  0.9374622780120399  0.6197256170501960  0.7867609243015052
  0.5621619276899594  0.7040879080467896  0.6982507180838096
  0.0630050405788553  0.7076405414053661  0.8323058365667193
  0.9375342444710273  0.1253584539356345  0.3016801855807429
  0.9375927530795352  0.7875383145760573  0.6097960407105106
  0.4373415924921522  0.7912630720612089  0.2574019668275592
  0.3125453132702942  0.3685986558663399  0.7867748863427390
  0.4379687825672220  0.4572262253566878  0.2130459663773801
  0.1876153882205966  0.1223387679433075  0.5213589124922886
  0.8123220279834059  0.7047380620441109  0.6984303344764564
  0.0623188569441886  0.0372345183751214  0.6097495825620263
  0.5624455386920142  0.2052289981331822  0.8318568362219947
  0.3125122235027868  0.8717064432720069  0.5213891524792861
  0.6878624385555566  0.2885563917012260  0.1258787579543109
  0.1872699950390566  0.9580598896170294  0.2132501568839610
  0.6872758897539466  0.2875513348840286  0.6098046836971379
  0.3125029785861671  0.0370295317161931  0.6099308754342219
  0.9376043696837827  0.1189558690038293  0.7871332644673867
  0.4379225294110198  0.7880942550066238  0.8739933626398224
  0.8128675020358990  0.0369665651977174  0.7426969149983993
  0.9374279097799365  0.4547344359076607  0.6983908434088365
  0.1874501854201167  0.6214383125602728  0.6539123149415166
  0.3125696813246815  0.7044507920095718  0.6984196637441260
  0.9371621007145490  0.2884984749622694  0.1258821401063569
  0.4374665259271580  0.4559501703616303  0.4785568704826091
  0.0624675013649735  0.7052481917819812  0.4785957421698826
  0.9371454765169279  0.1236477530977603  0.4346922213684013
  0.4375156600581234  0.1249074125847785  0.3016462987511357
  0.1875540863141596  0.1237714284191707  0.4346240606345747
  0.5625483793030941  0.0374667452804228  0.8740949809773841
  0.1875541305816292  0.9566194362837983  0.5652401444610323
  0.6883498465114039  0.7889665126327171  0.1261539676896311
  0.5632332318159725  0.5363765623061453  0.1258929651737601
  0.3124485955442913  0.0406133546698865  0.3901849962190190
  0.6881118667552922  0.1208962470062255  0.1682255569428398
  0.8125448399372019  0.2070694206545893  0.2130730506976926
  0.0625036199313455  0.5409475362221163  0.2574107340871429
  0.5624054751520853  0.7055083186931690  0.4785449308502252
  0.0624587336969448  0.2057140317536972  0.5651190113285929
  0.5620508559083218  0.3753268624193924  0.3015777611060682
  0.4371878745977476  0.9570430726354419  0.3461639667681045
  0.1873457806502637  0.9548249223194386  0.6984152436919074
  0.4367297542593018  0.6209860564386689  0.1679597256677444
  0.9378307123920052  0.4573717305465331  0.2133011782533441
  0.0617057957263970  0.5362398498075724  0.1259154329523556
  0.8123027748930558  0.3721357524371410  0.5213563608511991
  0.9374370800291618  0.6252441651342107  0.3015141835568906
  0.3126599609341246  0.0404991199657681  0.2573580415854336
  0.6873685125147364  0.7873780305505942  0.6097369691798264
  0.1876305535250847  0.4564166876768871  0.8321322383200568
  0.4376558318804327  0.1196531384662266  0.1680050622569857
  0.3127895416224621  0.3721116955039735  0.5213763315924298
  0.4375825583368564  0.6184737978543163  0.7869822624675910
  0.0621802589096939  0.0408147313721698  0.2573997794802959
  0.5624258529784838  0.7058512504255946  0.5652236912782848
  0.9375532868782507  0.2862147892254126  0.7426801713291071
  0.6865141743930204  0.1186378057965791  0.7867757314708209
  0.1870502687108452  0.4572342634114373  0.2130537559705390
  0.9370799113098858  0.7909107926266026  0.3901660169736727
  0.6865851667375052  0.2894716220951725  0.8743226266871456
  0.5620685455477655  0.8711987499090562  0.1679754640070507
  0.4373639148650251  0.4544330074179814  0.6982956553747427
  0.9380516565106426  0.9570782907070047  0.3460947907354643
  0.6875428440694495  0.6221113324702989  0.5213631348939787
  0.0624287344103673  0.8711693323073704  0.6538474512268468
  0.0629522706007788  0.8692387196609819  0.7869903408899248
  0.0625508041118310  0.3709216757461382  0.6537652302010165
  0.6877020585027308  0.4558233803334589  0.4784964885563547
  0.1874688535572715  0.7914283940284218  0.2574180715034054
  0.4374455099146534  0.1238888972115926  0.4347950970350967
  0.8129704045542302  0.0373019815548151  0.1260358405440495
  0.9370558323301992  0.6220650251287806  0.5214024348589392
  0.0623051957970155  0.8736416399817346  0.4350899729993901
  0.8124641075573443  0.5368302978538352  0.1256866721748580
  0.4371272751471326  0.4572395752325498  0.3461835049993734
  0.8127907504483964  0.2072358322372974  0.3461682619850699
  0.3125640457224324  0.7075020018017739  0.3461760446594495
  0.6875498092810587  0.1210573377132392  0.6537646106750989
  0.5626809760922867  0.8753448738413204  0.3017196207990007
  0.0627071541354880  0.5361421570175167  0.7426531754782837
  0.9380746912303582  0.9576068833368566  0.2131517211389945
  0.8124293711655969  0.7067784692415350  0.2130655027625687
  0.0621234167985893  0.8750388584091051  0.3016913048558086
  0.1875355339355144  0.1251494412893505  0.3016312498028254
  0.0624442097708693  0.7076181123416571  0.3462125562969206
  0.8122263147546395  0.0372401722927379  0.6098648188908150
  0.0623236955195546  0.3736442491697941  0.4347743962729403
  0.5623328789577261  0.2072403888525972  0.3461256810684911
  0.8124410457776994  0.3751814573037034  0.3016072466582535
  0.5629081196208671  0.0412020725269127  0.2574083305455606
  0.5622542061056124  0.5405785093254005  0.3901956727013584
  0.0624831951372939  0.2056008022454125  0.4785100184716150
  0.3128246471807072  0.8682392248216871  0.7867557052639420
  0.9372675013325364  0.9547595216603219  0.6983251474801722
  0.0626130652924259  0.3755235960092877  0.3016149717964196
  0.6875563412387408  0.6209858323635664  0.6537968302905712
  0.6875636016977739  0.4561553150550974  0.5651363572912770
  0.4378834200539511  0.9579402886984675  0.2132386015207096
  0.3119858379040739  0.2057436417271305  0.4784824288833051
  0.4375431404477840  0.1213572507537284  0.6537670833466029
  0.6873724125332592  0.6236595859156085  0.4347849787197821
  0.8125812616920405  0.2049157772929002  0.6983168475643685
  0.8123937988089701  0.7058606855635293  0.4785335063723281
  0.8122836926102279  0.8735357141339753  0.4347727097950328
  0.9371052381725846  0.9559931755061710  0.4786617962774575
  0.5628226847916559  0.2060582139332646  0.4784983603239421
  0.1872449547263622  0.6235696554122061  0.4347400163036594
  0.3118913769473509  0.0372270702079818  0.7426411975089254
  0.9374958491000747  0.6211185359407119  0.6538883582250810
  0.5629641855332609  0.7058339022166955  0.8320367539952274
  0.3124174468902380  0.3747667681645524  0.3017269522787859
  0.5624518981945048  0.7072208561984351  0.2130203980965560
  0.1871268255817101  0.4557953193020978  0.4785568024342685
  0.3142066204629971  0.0388557878930858  0.8739747253119282
  0.1873812243962112  0.4545240638524340  0.6983493112316237
  0.8115282956070912  0.5371494956746282  0.8742397185149925
  0.1873357266958419  0.2907481799578510  0.3901765368193325
  0.4370535705123792  0.6241666985331175  0.4348594806889319
  0.0624933706543805  0.7072454531426250  0.2130529036352288
  0.5622446344516820  0.3738704537636879  0.4348063637827169
  0.4373833802234074  0.6223284815741220  0.5213518689996461
  0.8130846158104561  0.7073964780726943  0.8317484149475797
  0.0627096746174387  0.3694037379534746  0.7868962022900061
  0.4369505391074303  0.2891253021127729  0.8742795793500125
  0.3128201210117756  0.0370103385524493  0.1255448842490774
  0.6871057028292438  0.1231656099538161  0.4347824413049683
  0.1873784137784816  0.9570979708653183  0.3461495363560352
  0.0625549628177173  0.2064910284549164  0.8322365218901443
  0.5622697400526283  0.0370791615039534  0.6098690017429870
  0.6872490474002021  0.4573649664083100  0.2132325191455196
  0.1875767707617476  0.7873652960104967  0.7427476204279800
  0.1874769678049012  0.6251648619499243  0.3017297834066178
  0.4372691688725250  0.7910772666354561  0.3902635141204257
  0.4371151409915749  0.2909646131221469  0.2573098430520745
  0.0639674763735773  0.5382285208567332  0.8741711776364197
  0.5628390849774800  0.0371485012795265  0.7427306173547741
  0.1879397644808068  0.7876073859240141  0.8741302608162644
  0.9373914597111860  0.4556763897214631  0.4785119381765260
  0.8123162457308289  0.5404488350897823  0.3901509451069838
  0.8123362706502939  0.2059116515026104  0.5650669014077520
  0.1872706327441008  0.6190069953217763  0.7869201439155418
  0.0622984741241168  0.5407756369948641  0.3902170070744072
  0.0626252706324893  0.7043290444160744  0.6983359084272465
  0.3124744805787915  0.5411365422596306  0.2572104885505691
  0.3124086268476213  0.7065322619882385  0.2133158600009347
  0.3125033971956754  0.8709491140820137  0.1672629210942944
  0.5627290347741627  0.5374261239443817  0.7425615530597787
  0.6874802208679054  0.4567525044630677  0.3461700460178959
  0.9355432576872315  0.2899573485463239  0.8741997094889337
  0.4373879860030713  0.9557734742608787  0.4786420084370775
  0.0641110837688773  0.0357301359328936  0.8740926536642897
  0.1870120736967245  0.7909935730605216  0.3901212115239135
  0.8124452603180461  0.3711366490744085  0.1675222746995752
  0.8129078710382385  0.5367654481913868  0.7429743927642888
  0.0625341613479224  0.8719198767749403  0.5213247733321278
  0.8121881741677581  0.8683549284701254  0.7866194684820841
  0.3120026126302538  0.5364805443430233  0.7427914456962667
 
  0.00000000E+00  0.00000000E+00  0.00000000E+00
  0.00000000E+00  0.00000000E+00  0.00000000E+00
  0.00000000E+00  0.00000000E+00  0.00000000E+00
  0.00000000E+00  0.00000000E+00  0.00000000E+00
  0.00000000E+00  0.00000000E+00  0.00000000E+00
  0.00000000E+00  0.00000000E+00  0.00000000E+00
  0.00000000E+00  0.00000000E+00  0.00000000E+00
  0.00000000E+00  0.00000000E+00  0.00000000E+00
  0.00000000E+00  0.00000000E+00  0.00000000E+00
  0.00000000E+00  0.00000000E+00  0.00000000E+00
  0.00000000E+00  0.00000000E+00  0.00000000E+00
  0.00000000E+00  0.00000000E+00  0.00000000E+00
  0.00000000E+00  0.00000000E+00  0.00000000E+00
  0.00000000E+00  0.00000000E+00  0.00000000E+00
  0.00000000E+00  0.00000000E+00  0.00000000E+00
  0.00000000E+00  0.00000000E+00  0.00000000E+00
  0.00000000E+00  0.00000000E+00  0.00000000E+00
  0.00000000E+00  0.00000000E+00  0.00000000E+00
  0.00000000E+00  0.00000000E+00  0.00000000E+00
  0.00000000E+00  0.00000000E+00  0.00000000E+00
  0.00000000E+00  0.00000000E+00  0.00000000E+00
  0.00000000E+00  0.00000000E+00  0.00000000E+00
  0.00000000E+00  0.00000000E+00  0.00000000E+00
  0.00000000E+00  0.00000000E+00  0.00000000E+00
  0.00000000E+00  0.00000000E+00  0.00000000E+00
  0.00000000E+00  0.00000000E+00  0.00000000E+00
  0.00000000E+00  0.00000000E+00  0.00000000E+00
  0.00000000E+00  0.00000000E+00  0.00000000E+00
  0.00000000E+00  0.00000000E+00  0.00000000E+00
  0.00000000E+00  0.00000000E+00  0.00000000E+00
  0.00000000E+00  0.00000000E+00  0.00000000E+00
  0.00000000E+00  0.00000000E+00  0.00000000E+00
  0.00000000E+00  0.00000000E+00  0.00000000E+00
  0.00000000E+00  0.00000000E+00  0.00000000E+00
  0.00000000E+00  0.00000000E+00  0.00000000E+00
  0.00000000E+00  0.00000000E+00  0.00000000E+00
  0.00000000E+00  0.00000000E+00  0.00000000E+00
  0.00000000E+00  0.00000000E+00  0.00000000E+00
  0.00000000E+00  0.00000000E+00  0.00000000E+00
  0.00000000E+00  0.00000000E+00  0.00000000E+00
  0.00000000E+00  0.00000000E+00  0.00000000E+00
  0.00000000E+00  0.00000000E+00  0.00000000E+00
  0.00000000E+00  0.00000000E+00  0.00000000E+00
  0.00000000E+00  0.00000000E+00  0.00000000E+00
  0.00000000E+00  0.00000000E+00  0.00000000E+00
  0.00000000E+00  0.00000000E+00  0.00000000E+00
  0.00000000E+00  0.00000000E+00  0.00000000E+00
  0.00000000E+00  0.00000000E+00  0.00000000E+00
  0.00000000E+00  0.00000000E+00  0.00000000E+00
  0.00000000E+00  0.00000000E+00  0.00000000E+00
  0.00000000E+00  0.00000000E+00  0.00000000E+00
  0.00000000E+00  0.00000000E+00  0.00000000E+00
  0.00000000E+00  0.00000000E+00  0.00000000E+00
  0.00000000E+00  0.00000000E+00  0.00000000E+00
  0.00000000E+00  0.00000000E+00  0.00000000E+00
  0.00000000E+00  0.00000000E+00  0.00000000E+00
  0.00000000E+00  0.00000000E+00  0.00000000E+00
  0.00000000E+00  0.00000000E+00  0.00000000E+00
  0.00000000E+00  0.00000000E+00  0.00000000E+00
  0.00000000E+00  0.00000000E+00  0.00000000E+00
  0.00000000E+00  0.00000000E+00  0.00000000E+00
  0.00000000E+00  0.00000000E+00  0.00000000E+00
  0.00000000E+00  0.00000000E+00  0.00000000E+00
  0.00000000E+00  0.00000000E+00  0.00000000E+00
  0.00000000E+00  0.00000000E+00  0.00000000E+00
  0.00000000E+00  0.00000000E+00  0.00000000E+00
  0.00000000E+00  0.00000000E+00  0.00000000E+00
  0.00000000E+00  0.00000000E+00  0.00000000E+00
  0.00000000E+00  0.00000000E+00  0.00000000E+00
  0.00000000E+00  0.00000000E+00  0.00000000E+00
  0.00000000E+00  0.00000000E+00  0.00000000E+00
  0.00000000E+00  0.00000000E+00  0.00000000E+00
  0.00000000E+00  0.00000000E+00  0.00000000E+00
  0.00000000E+00  0.00000000E+00  0.00000000E+00
  0.00000000E+00  0.00000000E+00  0.00000000E+00
  0.00000000E+00  0.00000000E+00  0.00000000E+00
  0.00000000E+00  0.00000000E+00  0.00000000E+00
  0.00000000E+00  0.00000000E+00  0.00000000E+00
  0.00000000E+00  0.00000000E+00  0.00000000E+00
  0.00000000E+00  0.00000000E+00  0.00000000E+00
  0.00000000E+00  0.00000000E+00  0.00000000E+00
  0.00000000E+00  0.00000000E+00  0.00000000E+00
  0.00000000E+00  0.00000000E+00  0.00000000E+00
  0.00000000E+00  0.00000000E+00  0.00000000E+00
  0.00000000E+00  0.00000000E+00  0.00000000E+00
  0.00000000E+00  0.00000000E+00  0.00000000E+00
  0.00000000E+00  0.00000000E+00  0.00000000E+00
  0.00000000E+00  0.00000000E+00  0.00000000E+00
  0.00000000E+00  0.00000000E+00  0.00000000E+00
  0.00000000E+00  0.00000000E+00  0.00000000E+00
  0.00000000E+00  0.00000000E+00  0.00000000E+00
  0.00000000E+00  0.00000000E+00  0.00000000E+00
  0.00000000E+00  0.00000000E+00  0.00000000E+00
  0.00000000E+00  0.00000000E+00  0.00000000E+00
  0.00000000E+00  0.00000000E+00  0.00000000E+00
  0.00000000E+00  0.00000000E+00  0.00000000E+00
  0.00000000E+00  0.00000000E+00  0.00000000E+00
  0.00000000E+00  0.00000000E+00  0.00000000E+00
  0.00000000E+00  0.00000000E+00  0.00000000E+00
  0.00000000E+00  0.00000000E+00  0.00000000E+00
  0.00000000E+00  0.00000000E+00  0.00000000E+00
  0.00000000E+00  0.00000000E+00  0.00000000E+00
  0.00000000E+00  0.00000000E+00  0.00000000E+00
  0.00000000E+00  0.00000000E+00  0.00000000E+00
  0.00000000E+00  0.00000000E+00  0.00000000E+00
  0.00000000E+00  0.00000000E+00  0.00000000E+00
  0.00000000E+00  0.00000000E+00  0.00000000E+00
  0.00000000E+00  0.00000000E+00  0.00000000E+00
  0.00000000E+00  0.00000000E+00  0.00000000E+00
  0.00000000E+00  0.00000000E+00  0.00000000E+00
  0.00000000E+00  0.00000000E+00  0.00000000E+00
  0.00000000E+00  0.00000000E+00  0.00000000E+00
  0.00000000E+00  0.00000000E+00  0.00000000E+00
  0.00000000E+00  0.00000000E+00  0.00000000E+00
  0.00000000E+00  0.00000000E+00  0.00000000E+00
  0.00000000E+00  0.00000000E+00  0.00000000E+00
  0.00000000E+00  0.00000000E+00  0.00000000E+00
  0.00000000E+00  0.00000000E+00  0.00000000E+00
  0.00000000E+00  0.00000000E+00  0.00000000E+00
  0.00000000E+00  0.00000000E+00  0.00000000E+00
  0.00000000E+00  0.00000000E+00  0.00000000E+00
  0.00000000E+00  0.00000000E+00  0.00000000E+00
  0.00000000E+00  0.00000000E+00  0.00000000E+00
  0.00000000E+00  0.00000000E+00  0.00000000E+00
  0.00000000E+00  0.00000000E+00  0.00000000E+00
  0.00000000E+00  0.00000000E+00  0.00000000E+00
  0.00000000E+00  0.00000000E+00  0.00000000E+00
  0.00000000E+00  0.00000000E+00  0.00000000E+00
  0.00000000E+00  0.00000000E+00  0.00000000E+00
  0.00000000E+00  0.00000000E+00  0.00000000E+00
  0.00000000E+00  0.00000000E+00  0.00000000E+00
  0.00000000E+00  0.00000000E+00  0.00000000E+00
  0.00000000E+00  0.00000000E+00  0.00000000E+00
  0.00000000E+00  0.00000000E+00  0.00000000E+00
  0.00000000E+00  0.00000000E+00  0.00000000E+00
  0.00000000E+00  0.00000000E+00  0.00000000E+00
  0.00000000E+00  0.00000000E+00  0.00000000E+00
  0.00000000E+00  0.00000000E+00  0.00000000E+00
  0.00000000E+00  0.00000000E+00  0.00000000E+00
  0.00000000E+00  0.00000000E+00  0.00000000E+00
  0.00000000E+00  0.00000000E+00  0.00000000E+00
  0.00000000E+00  0.00000000E+00  0.00000000E+00
  0.00000000E+00  0.00000000E+00  0.00000000E+00
  0.00000000E+00  0.00000000E+00  0.00000000E+00
  0.00000000E+00  0.00000000E+00  0.00000000E+00
  0.00000000E+00  0.00000000E+00  0.00000000E+00
  0.00000000E+00  0.00000000E+00  0.00000000E+00
  0.00000000E+00  0.00000000E+00  0.00000000E+00
  0.00000000E+00  0.00000000E+00  0.00000000E+00
  0.00000000E+00  0.00000000E+00  0.00000000E+00
  0.00000000E+00  0.00000000E+00  0.00000000E+00
  0.00000000E+00  0.00000000E+00  0.00000000E+00
  0.00000000E+00  0.00000000E+00  0.00000000E+00
  0.00000000E+00  0.00000000E+00  0.00000000E+00
  0.00000000E+00  0.00000000E+00  0.00000000E+00
  0.00000000E+00  0.00000000E+00  0.00000000E+00
  0.00000000E+00  0.00000000E+00  0.00000000E+00
  0.00000000E+00  0.00000000E+00  0.00000000E+00
  0.00000000E+00  0.00000000E+00  0.00000000E+00
  0.00000000E+00  0.00000000E+00  0.00000000E+00
  0.00000000E+00  0.00000000E+00  0.00000000E+00
  0.00000000E+00  0.00000000E+00  0.00000000E+00
  0.00000000E+00  0.00000000E+00  0.00000000E+00
  0.00000000E+00  0.00000000E+00  0.00000000E+00
  0.00000000E+00  0.00000000E+00  0.00000000E+00
  0.00000000E+00  0.00000000E+00  0.00000000E+00
  0.00000000E+00  0.00000000E+00  0.00000000E+00
  0.00000000E+00  0.00000000E+00  0.00000000E+00
  0.00000000E+00  0.00000000E+00  0.00000000E+00
  0.00000000E+00  0.00000000E+00  0.00000000E+00
  0.00000000E+00  0.00000000E+00  0.00000000E+00
  0.00000000E+00  0.00000000E+00  0.00000000E+00
  0.00000000E+00  0.00000000E+00  0.00000000E+00
  0.00000000E+00  0.00000000E+00  0.00000000E+00
  0.00000000E+00  0.00000000E+00  0.00000000E+00
  0.00000000E+00  0.00000000E+00  0.00000000E+00
  0.00000000E+00  0.00000000E+00  0.00000000E+00
  0.00000000E+00  0.00000000E+00  0.00000000E+00
  0.00000000E+00  0.00000000E+00  0.00000000E+00
  0.00000000E+00  0.00000000E+00  0.00000000E+00
  0.00000000E+00  0.00000000E+00  0.00000000E+00
  0.00000000E+00  0.00000000E+00  0.00000000E+00
  0.00000000E+00  0.00000000E+00  0.00000000E+00
  0.00000000E+00  0.00000000E+00  0.00000000E+00
  0.00000000E+00  0.00000000E+00  0.00000000E+00
  0.00000000E+00  0.00000000E+00  0.00000000E+00
  0.00000000E+00  0.00000000E+00  0.00000000E+00
  0.00000000E+00  0.00000000E+00  0.00000000E+00
  0.00000000E+00  0.00000000E+00  0.00000000E+00
  0.00000000E+00  0.00000000E+00  0.00000000E+00
  0.00000000E+00  0.00000000E+00  0.00000000E+00
  0.00000000E+00  0.00000000E+00  0.00000000E+00
  0.00000000E+00  0.00000000E+00  0.00000000E+00
  0.00000000E+00  0.00000000E+00  0.00000000E+00
  0.00000000E+00  0.00000000E+00  0.00000000E+00
  0.00000000E+00  0.00000000E+00  0.00000000E+00
  0.00000000E+00  0.00000000E+00  0.00000000E+00
  0.00000000E+00  0.00000000E+00  0.00000000E+00
  0.00000000E+00  0.00000000E+00  0.00000000E+00
  0.00000000E+00  0.00000000E+00  0.00000000E+00
  0.00000000E+00  0.00000000E+00  0.00000000E+00
  0.00000000E+00  0.00000000E+00  0.00000000E+00
  0.00000000E+00  0.00000000E+00  0.00000000E+00
  0.00000000E+00  0.00000000E+00  0.00000000E+00
  0.00000000E+00  0.00000000E+00  0.00000000E+00
  0.00000000E+00  0.00000000E+00  0.00000000E+00
  0.00000000E+00  0.00000000E+00  0.00000000E+00
  0.00000000E+00  0.00000000E+00  0.00000000E+00
  0.00000000E+00  0.00000000E+00  0.00000000E+00
  0.00000000E+00  0.00000000E+00  0.00000000E+00
  0.00000000E+00  0.00000000E+00  0.00000000E+00
  0.00000000E+00  0.00000000E+00  0.00000000E+00
  0.00000000E+00  0.00000000E+00  0.00000000E+00
  0.00000000E+00  0.00000000E+00  0.00000000E+00
  0.00000000E+00  0.00000000E+00  0.00000000E+00
  0.00000000E+00  0.00000000E+00  0.00000000E+00
  0.00000000E+00  0.00000000E+00  0.00000000E+00
  0.00000000E+00  0.00000000E+00  0.00000000E+00
  0.00000000E+00  0.00000000E+00  0.00000000E+00
  0.00000000E+00  0.00000000E+00  0.00000000E+00
  0.00000000E+00  0.00000000E+00  0.00000000E+00
  0.00000000E+00  0.00000000E+00  0.00000000E+00
  0.00000000E+00  0.00000000E+00  0.00000000E+00
  0.00000000E+00  0.00000000E+00  0.00000000E+00
  0.00000000E+00  0.00000000E+00  0.00000000E+00
  0.00000000E+00  0.00000000E+00  0.00000000E+00
  0.00000000E+00  0.00000000E+00  0.00000000E+00
  0.00000000E+00  0.00000000E+00  0.00000000E+00
  0.00000000E+00  0.00000000E+00  0.00000000E+00
  0.00000000E+00  0.00000000E+00  0.00000000E+00
  0.00000000E+00  0.00000000E+00  0.00000000E+00
  0.00000000E+00  0.00000000E+00  0.00000000E+00
  0.00000000E+00  0.00000000E+00  0.00000000E+00
  0.00000000E+00  0.00000000E+00  0.00000000E+00
  0.00000000E+00  0.00000000E+00  0.00000000E+00
  0.00000000E+00  0.00000000E+00  0.00000000E+00
  0.00000000E+00  0.00000000E+00  0.00000000E+00
  0.00000000E+00  0.00000000E+00  0.00000000E+00
  0.00000000E+00  0.00000000E+00  0.00000000E+00
  0.00000000E+00  0.00000000E+00  0.00000000E+00
  0.00000000E+00  0.00000000E+00  0.00000000E+00
  0.00000000E+00  0.00000000E+00  0.00000000E+00
  0.00000000E+00  0.00000000E+00  0.00000000E+00
  0.00000000E+00  0.00000000E+00  0.00000000E+00
  0.00000000E+00  0.00000000E+00  0.00000000E+00
  0.00000000E+00  0.00000000E+00  0.00000000E+00
  0.00000000E+00  0.00000000E+00  0.00000000E+00