CuInSe2gb                               
   1.00000000000000     
     9.7266780392896699    0.0000000000000000    0.0000000000000000
     0.0000000000000000    8.4235502764570693    0.0000000000000000
     0.0000000000000000    0.0000000000000000   45.0000000000000000
   Fe   Mn
   274    14
Direct
  0.0631056075238738  0.0348874293897804  0.1255864346001027
  0.3134350518411759  0.8711292031924073  0.6539663384192954
  0.1873135184858422  0.1169837431050061  0.7871750722809185
  0.4376269013011881  0.2911212498106767  0.3898770764000889
  0.3140935518134373  0.7066445233729817  0.8313318311399017
  0.8137171161491934  0.2089916639809826  0.8326216637200404
  0.1886028980174152  0.9581228028437129  0.8320233879152702
  0.5629015174706670  0.2075667416921988  0.5651335235787429
  0.0618545869197183  0.0351970573618746  0.7424646893606927
  0.8121017832856541  0.8708465032285991  0.5210791482160643
  0.1889907914681963  0.2863970095752939  0.7423276737433920
  0.9368064362893262  0.4562069136121070  0.3463157489783558
  0.9369450303734479  0.2906395483406684  0.3898741624638235
  0.8125790413281530  0.0351379371611697  0.8741975507222749
  0.1865980799449216  0.7872677122142443  0.6098639620898622
  0.5622838525504139  0.0408241783830110  0.3898647636070522
  0.9391275478852490  0.9588588256814272  0.8326513424221071
  0.3137744881448774  0.5350870539849072  0.8745079682683408
  0.6880446301341969  0.2879720177583627  0.7422777378402643
  0.1888084209596128  0.6199085420180295  0.1679828863157810
  0.8123948737249783  0.2059562916696203  0.4786697367395822
  0.8135535577656510  0.5364620100685082  0.6099294376350668
  0.3123243519075788  0.8733208449208052  0.4346736184269174
  0.8127178126077117  0.0405131456019981  0.2576736237353111
  0.6870814125306692  0.9560826061804150  0.3461963314199571
  0.9363743652326600  0.1205293793513782  0.1686530818809868
  0.9379382523275720  0.1215948181864362  0.5211568348275846
  0.5614389890708654  0.5407257310107281  0.2574673717072927
  0.6861082789214765  0.7914330007333159  0.8744089280961356
  0.5634609718523790  0.3705564298911671  0.1681425283195495
  0.4374280750712526  0.7878241300037967  0.7427689053551132
  0.8124568510862954  0.7069910744226675  0.5650027438877923
  0.5628415829442143  0.8679905299708497  0.7870001256953125
  0.6872996964065362  0.1210715492863982  0.5210994481997866
  0.8136840404333884  0.3707559034155781  0.6539152969097641
  0.9373164106483736  0.4579432301500126  0.8323513651569934
  0.0623657254853854  0.2051378894484093  0.6983386490871341
  0.4371423001165462  0.9552283393154795  0.6982487515300410
  0.3128801949296917  0.2054157204745590  0.8318465297049360
  0.4381374625077038  0.6213036096660325  0.6538185532021984
  0.3114629770583460  0.5365048127470644  0.6099167125236278
  0.9375449865043282  0.4573353272328500  0.5650153009682118
  0.6881392038247155  0.7872817884872445  0.7427245076319180
  0.9370720970986627  0.7910857259826813  0.1257994954409500
  0.6872594842230216  0.7902944622246807  0.3897818069978228
  0.9376127696277998  0.7868775251525970  0.7428185183930458
  0.0631569645195904  0.2064791183300278  0.3462854844178634
  0.8115222282644017  0.0412468850013771  0.3900596512389332
  0.4377356155949730  0.1171060644880118  0.7872707333427191
  0.0620217140440947  0.2073488203350803  0.2129607409752257
  0.0615245223737158  0.3704628055052194  0.1681572439280718
  0.9362561411162769  0.7912226804834379  0.2574475846861212
  0.5626694155140183  0.2055606808271073  0.6985479303124098
  0.6871066384518152  0.9554906944310798  0.6983512586917682
  0.4366840648760822  0.7907854011130631  0.1254418352581763
  0.4369831629312125  0.9569357367956480  0.5647753593903134
  0.8125184172932682  0.3683825858606565  0.7868564560628954
  0.6857996370481784  0.2910294519857247  0.2575679253428296
  0.1878166610680575  0.4573516755168044  0.5649530819935369
  0.0632554391565388  0.8706868461256614  0.1683423728630913
  0.1882462013372532  0.2872707941689335  0.6100551549171556
  0.5638420381136300  0.7066288977200034  0.3463435445051374
  0.3120795962034494  0.2048546331949018  0.6984172783810717
  0.5613753202019017  0.5349211378591130  0.8744255934031900
  0.0626683513150922  0.7071292012627721  0.5648762075283837
  0.6878317579864445  0.6170125217745291  0.7869781834728401
  0.3110017447319108  0.5409428864462797  0.3899016523566947
  0.1874618776113443  0.6208408487301729  0.5211436196108369
  0.5631498146050938  0.8740693285282960  0.4349366658349410
  0.4374345148198100  0.4573382663656117  0.5649620530518714
  0.4376055535955460  0.2883679883357551  0.7423854336782608
  0.8123674094137904  0.8770359506934873  0.3016587277990090
  0.8121521303449469  0.7070751717952435  0.3464510557332901
  0.4380994363169489  0.4553741754982387  0.8315410098070058
  0.6874733421013062  0.9560152883455907  0.4786590992237450
  0.6868020792223125  0.4554157925162896  0.6982700028446851
  0.5630294257871857  0.8707999593258595  0.5211211791562517
  0.5632137504456174  0.3709354460833679  0.6537803896662284
  0.8120250412169682  0.8696802965956956  0.6536553493021244
  0.8129131373636179  0.3742945271169607  0.4348157424219047
  0.8127660770991272  0.5403945080666935  0.2575050847732359
  0.6894666975513695  0.4553213504585880  0.8318620535759207
  0.1884131692769248  0.7907026454259742  0.1254078897602917
  0.6871783086843564  0.2910391094168794  0.3897716998820280
  0.3125952301038324  0.3705638899304315  0.6535782763205111
  0.3128031976516422  0.2068867030217470  0.3462301720177588
  0.5626827213772060  0.3712164769495246  0.5212196761511753
  0.6875554465156738  0.9556887147457781  0.8320108807625505
  0.5622826820179431  0.8711416775327873  0.6537668183532448
  0.3122581199490138  0.7072664513236886  0.5651175730880361
  0.3118843718446895  0.5356101642342911  0.1255029693827457
  0.6871374671068455  0.9580149829663940  0.2130616599716954
  0.3123693612539108  0.2071285425264253  0.5650156972414543
  0.1874253172275867  0.9560439173670292  0.4787800234802158
  0.6879724683653200  0.9570347593231318  0.5649307429722450
  0.4368915488799304  0.7871316107086594  0.6098574369458953
  0.6875896159291331  0.6185462561854135  0.1682613696094476
  0.3125862872509318  0.8750254902831508  0.3014331465944209
  0.3125204739401435  0.7059566759246730  0.4787669921017113
  0.9362302218001225  0.2875326616276634  0.6101312600331174
  0.4383084168887356  0.6261705979192056  0.3018628258650189
  0.8124057431359444  0.8698899803443386  0.1685287691669239
  0.5631031586977350  0.2073133150941200  0.2129087539988190
  0.9373823072521889  0.6187329411644692  0.1683244323330859
  0.9386819191951530  0.7895589052027869  0.8744392524570579
  0.5621396620664200  0.3674276973656354  0.7869541414522132
  0.0624154366247604  0.3706927667364859  0.5211409608610702
  0.3124415844640884  0.3695713764472843  0.1684790846224630
  0.6879894620625384  0.1256873546593264  0.3017865997880833
  0.4394972180035893  0.9557027240759091  0.8314649194694989
  0.1873180829667150  0.2909002938840052  0.1257511386861863
  0.1871258470587145  0.2911440774063184  0.2577699383232645
  0.3123589589713819  0.3739382357560519  0.4349033014122068
  0.5633589985838570  0.0351099041169329  0.1255813422305019
  0.4365816886282004  0.2870792506108720  0.6099069882419744
  0.1870969815058578  0.4580502477114135  0.3465441563055981
  0.4375527235324405  0.2910169124044653  0.1257882849757166
  0.6878045489574792  0.7915965477424494  0.2574441034437701
  0.4374627459865772  0.1214770273123088  0.5210313281033377
  0.1888719837324479  0.2910396686314116  0.8744959990131977
  0.1873482662295505  0.1221414610817125  0.6537823477757967
  0.9378636560017480  0.1217784789057179  0.6538164079956176
  0.3125921661256096  0.2081054989145542  0.2130689913582952
  0.0624488629317301  0.0402043566514922  0.3898431825002164
  0.1874976751951507  0.1173131737390174  0.1676438495946349
  0.0624577646432892  0.5346785134200167  0.6101331908324358
  0.9383921359588402  0.2908083321332027  0.2575532854356690
  0.5628620240941323  0.5366063061386261  0.6100383220641713
  0.9372623373321167  0.9575273962009888  0.5649916499647475
  0.6871374490252145  0.6252974896756376  0.3017323690820715
  0.9370009585747667  0.6242093706013400  0.4348783640718402
  0.9370190661809041  0.6172103170429244  0.7865101002119612
  0.5619102151046694  0.7042604888437153  0.6981960297009445
  0.0629402921389908  0.7102487526316231  0.8324786168568821
  0.9377705957660463  0.1252369633552628  0.3017984343910615
  0.9383434539360989  0.7875933460983691  0.6100164066405436
  0.4364878012382311  0.7915384809587493  0.2573988945398640
  0.3125880961793203  0.3678822181700667  0.7869476711727239
  0.4376512424583381  0.4580987417973019  0.2129538313917464
  0.1870683682010085  0.1213607394364540  0.5211846276203902
  0.8120375055085230  0.7052181807695832  0.6984355902816747
  0.0619545186571278  0.0360615280685642  0.6098593815046103
  0.5621481526430022  0.2059665792425449  0.8315340188048387
  0.3125267386989012  0.8710062410101918  0.5211414914719757
  0.6881293554861435  0.2909480750229660  0.1255481917912651
  0.1871305605975625  0.9583594833863982  0.2132817724005200
  0.6863562335260687  0.2868381055632693  0.6099094101152535
  0.3125436766972480  0.0361008711915391  0.6102392778396517
  0.9375061390869424  0.1168142741521860  0.7871580524542184
  0.4380203755538983  0.7904550086185487  0.8742151821502469
  0.8124650059727564  0.0362585705431110  0.7428240772893706
  0.9375538635657643  0.4559709121515059  0.6983750696036013
  0.1873968380463388  0.6227015953239778  0.6538455609432532
  0.3128095941772666  0.7046561495329280  0.6983736853886077
  0.9367651948166835  0.2908930544336930  0.1255730826951345
  0.4376039334279506  0.4558803671053966  0.4787269123637663
  0.0624436991227911  0.7056861162010659  0.4787503455603775
  0.9367415998051685  0.1238868967878906  0.4348008862492534
  0.4369891653049980  0.1253649037337355  0.3018237664657351
  0.1875289821225611  0.1246394043664825  0.4347200722014753
  0.5620609214206765  0.0339517704171290  0.8745275560489660
  0.1877790336500834  0.9576224821839107  0.5650019099905872
  0.6885305197610857  0.7914370864699769  0.1257383237568135
  0.5634081336047256  0.5343848446684105  0.1256223143587721
  0.3121655510396862  0.0401652789180700  0.3898584104883905
  0.6883972694068049  0.1202298636799963  0.1686039325303990
  0.8125551559188178  0.2083571820206230  0.2128212412176766
  0.0636062891770954  0.5407244488722823  0.2575133381528810
  0.5622714687031272  0.7057006954547562  0.4786546849319600
  0.0628046905452485  0.2069199025085981  0.5648466768099920
  0.5623708332026481  0.3765138954837688  0.3016907188380058
  0.4372841052097538  0.9570556928769923  0.3463570020555148
  0.1875477569558624  0.9562817785386393  0.6984602260200602
  0.4359756196242388  0.6200879852910740  0.1679530376429901
  0.9376057752674162  0.4582085503696716  0.2133418233717737
  0.0616524128996335  0.5340466824009944  0.1255851705889836
  0.8123454391936877  0.3706292264974431  0.5211140763782020
  0.9372752650341450  0.6254053031633056  0.3014969390546660
  0.3136192692356679  0.0409671657812026  0.2573178238335425
  0.6884584486766391  0.7870614827884330  0.6098697058323987
  0.1883770745664313  0.4569469049773107  0.8319789309566328
  0.4372577025268112  0.1174272434382673  0.1676936257728367
  0.3126378664415975  0.3709686223209713  0.5210942788041441
  0.4373891983220691  0.6167864516805165  0.7871669353024252
  0.0614190984469331  0.0414416561036470  0.2575234813555239
  0.5625952071661187  0.7073033698763327  0.5650614123244297
  0.9366271233096315  0.2852588942124676  0.7425099198506624
  0.6854020150867826  0.1167587610203334  0.7867609256764224
  0.1874675325736623  0.4579523728218114  0.2129603895397208
  0.9373317863752744  0.7911145680491274  0.3897945467213253
  0.6862484514711105  0.2929894880025066  0.8744605239142205
  0.5624380109200926  0.8704570588088503  0.1680908283449712
  0.4373887823210595  0.4559568092078786  0.6984352463294421
  0.9385622838407484  0.9561180051113730  0.3462396861817778
  0.6878738503522005  0.6210070061790451  0.5211052556963076
  0.0626729363745592  0.8707854672716494  0.6537579092837494
  0.0624956487699620  0.8684252253075437  0.7869929043885702
  0.0621827378897370  0.3699123778028684  0.6536973541410792
  0.6874917106288235  0.4558255626887129  0.4786777421355903
  0.1884724557833132  0.7914856651677280  0.2573503508511887
  0.4372858892963595  0.1244337794628046  0.4350542497360013
  0.8134375948966441  0.0344968687591136  0.1254780787338024
  0.9374903666502777  0.6208248912222619  0.5211498391095988
  0.0621275281210626  0.8742056879947210  0.4353178249708778
  0.8122016813445280  0.5341792486982647  0.1254227346644156
  0.4378875239168712  0.4568421055617105  0.3464211610942196
  0.8126723560022476  0.2071294781022362  0.3464154383834495
  0.3127434948837320  0.7065697773343365  0.3463265221779901
  0.6872300903132104  0.1204214845347285  0.6534802839890579
  0.5630159070678920  0.8755492337517899  0.3018398271741130
  0.0639190269986145  0.5359564825379405  0.7425060604381182
  0.9378933967741853  0.9580781680208598  0.2130436355672940
  0.8124385207996614  0.7078068605097603  0.2129148721794312
  0.0618768443358250  0.8752734885979816  0.3018749056912173
  0.1876927699154363  0.1259053448090076  0.3018624418781692
  0.0625270934555418  0.7071855280391999  0.3463630178944987
  0.8116850348876423  0.0364866819642310  0.6100256005859273
  0.0622443128642447  0.3738128186588799  0.4349281358121060
  0.5625835785455459  0.2072810855739629  0.3463480661727572
  0.8124645803317049  0.3766276024282899  0.3018042472534443
  0.5636712841669123  0.0414369496848268  0.2574213889543325
  0.5624782970975408  0.5406616814766758  0.3898791959771618
  0.0625422764066612  0.2060014831763097  0.4786531854091644
  0.3128417563934854  0.8672058004148103  0.7869230129339251
  0.9373100342137565  0.9559929290838175  0.6982982895607438
  0.0625319361336679  0.3762007910478059  0.3016209842783613
  0.6868558718370679  0.6208947141190010  0.6537412756880170
  0.6871582297020008  0.4572464010363125  0.5649608870843370
  0.4380914524422875  0.9584288524382144  0.2133406065167467
  0.3122678051555123  0.2059468479065406  0.4787369665959079
  0.4378111561975318  0.1205740545270394  0.6534627752202684
  0.6872327012201036  0.6238095308432583  0.4349160770537158
  0.8129237231262524  0.2052842581896004  0.6983986802974729
  0.8125034254865808  0.7059902451487551  0.4787202640283869
  0.8117977250112649  0.8744059305193056  0.4349990337187758
  0.9370921406729887  0.9559151939724863  0.4788682274337258
  0.5624602109713588  0.2061688054688564  0.4786120645543142
  0.1872544263106672  0.6237240985714158  0.4347551700968246
  0.3112673785010183  0.0368372877818299  0.7422543270815035
  0.9369837561190860  0.6218395443002286  0.6538332298539303
  0.5624487498301023  0.7065575940174454  0.8317394056050416
  0.3123514039549741  0.3738020757062341  0.3018323701446206
  0.5623590441089606  0.7080839994213466  0.2129231433661832
  0.1874564245951847  0.4558530777515162  0.4787649685205760
  0.3142387760190887  0.0358479520309094  0.8742628233277875
  0.1869589696901512  0.4563105481386618  0.6985647326450216
  0.8111179283883098  0.5336795213101961  0.8745985800346412
  0.1872996919535413  0.2908433588659976  0.3898970844945668
  0.4369977107461103  0.6243846196329129  0.4350115128724312
  0.0626079837348851  0.7079970106821537  0.2130008295530412
  0.5618951116785746  0.3744219888911811  0.4348793406391022
  0.4372542514955732  0.6213021520673909  0.5212124719266091
  0.8130450626139385  0.7104508088216478  0.8315792542024376
  0.0622823958002355  0.3681051825141699  0.7870106762825255
  0.4372246760523802  0.2921538046265797  0.8747978496260231
  0.3129947357259057  0.0345802407393691  0.1255196966336216
  0.6874957876461474  0.1233701666837264  0.4347835988530536
  0.1873263468047224  0.9570968887400813  0.3464786943447520
  0.0630531233837373  0.2091017382393845  0.8326435999733596
  0.5623476366394987  0.0362330102299721  0.6103174453816218
  0.6875500213670775  0.4578879775422074  0.2131832250051516
  0.1876561681187220  0.7877057088165302  0.7427999084650594
  0.1873988689569325  0.6264605551888576  0.3018442495152447
  0.4359133796811185  0.7915355295247075  0.3902098540779934
  0.4355942641909084  0.2917126399874298  0.2574961509974215
  0.0636283586246817  0.5353511711171733  0.8744588384434024
  0.5632557399104710  0.0364276656286539  0.7425456706356406
  0.1881258164958646  0.7903158965158383  0.8743061860002453
  0.9375352928742487  0.4556979407096261  0.4787555531376805
  0.8123108722807221  0.5405886185400135  0.3899186956001266
  0.8123132177641814  0.2069281478725360  0.5648838754329093
  0.1875129419966251  0.6170147529531670  0.7868296636808422
  0.0627869982037071  0.5408365788209794  0.3898543325537443
  0.0629735236394539  0.7045698882543536  0.6983446856662869
  0.3125043184564590  0.5420354300419959  0.2569189779896819
  0.3123767759445392  0.7056532690840026  0.2135187031029412
  0.3124152643101618  0.8702930764467010  0.1671262692291345
  0.5627688088778759  0.5370918943640544  0.7424029466367672
  0.6873317810276394  0.4553077252907995  0.3462986255866037
  0.9345683538377334  0.2928893070652656  0.8740631774590951
  0.4373222633099283  0.9565562912763070  0.4788220508683094
  0.0643775006162772  0.0322669727883670  0.8741286720309590
  0.1869469849119046  0.7919535341880267  0.3900898522521012
  0.8123267436627063  0.3703780529729264  0.1676542772800512
  0.8121798944243953  0.5367316663779597  0.7432014223663920
  0.0626982016317442  0.8707418708773070  0.5212102288501604
  0.8118709804064219  0.8683478540444884  0.7865580294608707
  0.3120917102997909  0.5354831528298671  0.7427011426323614
 
  0.00000000E+00  0.00000000E+00  0.00000000E+00
  0.00000000E+00  0.00000000E+00  0.00000000E+00
  0.00000000E+00  0.00000000E+00  0.00000000E+00
  0.00000000E+00  0.00000000E+00  0.00000000E+00
  0.00000000E+00  0.00000000E+00  0.00000000E+00
  0.00000000E+00  0.00000000E+00  0.00000000E+00
  0.00000000E+00  0.00000000E+00  0.00000000E+00
  0.00000000E+00  0.00000000E+00  0.00000000E+00
  0.00000000E+00  0.00000000E+00  0.00000000E+00
  0.00000000E+00  0.00000000E+00  0.00000000E+00
  0.00000000E+00  0.00000000E+00  0.00000000E+00
  0.00000000E+00  0.00000000E+00  0.00000000E+00
  0.00000000E+00  0.00000000E+00  0.00000000E+00
  0.00000000E+00  0.00000000E+00  0.00000000E+00
  0.00000000E+00  0.00000000E+00  0.00000000E+00
  0.00000000E+00  0.00000000E+00  0.00000000E+00
  0.00000000E+00  0.00000000E+00  0.00000000E+00
  0.00000000E+00  0.00000000E+00  0.00000000E+00
  0.00000000E+00  0.00000000E+00  0.00000000E+00
  0.00000000E+00  0.00000000E+00  0.00000000E+00
  0.00000000E+00  0.00000000E+00  0.00000000E+00
  0.00000000E+00  0.00000000E+00  0.00000000E+00
  0.00000000E+00  0.00000000E+00  0.00000000E+00
  0.00000000E+00  0.00000000E+00  0.00000000E+00
  0.00000000E+00  0.00000000E+00  0.00000000E+00
  0.00000000E+00  0.00000000E+00  0.00000000E+00
  0.00000000E+00  0.00000000E+00  0.00000000E+00
  0.00000000E+00  0.00000000E+00  0.00000000E+00
  0.00000000E+00  0.00000000E+00  0.00000000E+00
  0.00000000E+00  0.00000000E+00  0.00000000E+00
  0.00000000E+00  0.00000000E+00  0.00000000E+00
  0.00000000E+00  0.00000000E+00  0.00000000E+00
  0.00000000E+00  0.00000000E+00  0.00000000E+00
  0.00000000E+00  0.00000000E+00  0.00000000E+00
  0.00000000E+00  0.00000000E+00  0.00000000E+00
  0.00000000E+00  0.00000000E+00  0.00000000E+00
  0.00000000E+00  0.00000000E+00  0.00000000E+00
  0.00000000E+00  0.00000000E+00  0.00000000E+00
  0.00000000E+00  0.00000000E+00  0.00000000E+00
  0.00000000E+00  0.00000000E+00  0.00000000E+00
  0.00000000E+00  0.00000000E+00  0.00000000E+00
  0.00000000E+00  0.00000000E+00  0.00000000E+00
  0.00000000E+00  0.00000000E+00  0.00000000E+00
  0.00000000E+00  0.00000000E+00  0.00000000E+00
  0.00000000E+00  0.00000000E+00  0.00000000E+00
  0.00000000E+00  0.00000000E+00  0.00000000E+00
  0.00000000E+00  0.00000000E+00  0.00000000E+00
  0.00000000E+00  0.00000000E+00  0.00000000E+00
  0.00000000E+00  0.00000000E+00  0.00000000E+00
  0.00000000E+00  0.00000000E+00  0.00000000E+00
  0.00000000E+00  0.00000000E+00  0.00000000E+00
  0.00000000E+00  0.00000000E+00  0.00000000E+00
  0.00000000E+00  0.00000000E+00  0.00000000E+00
  0.00000000E+00  0.00000000E+00  0.00000000E+00
  0.00000000E+00  0.00000000E+00  0.00000000E+00
  0.00000000E+00  0.00000000E+00  0.00000000E+00
  0.00000000E+00  0.00000000E+00  0.00000000E+00
  0.00000000E+00  0.00000000E+00  0.00000000E+00
  0.00000000E+00  0.00000000E+00  0.00000000E+00
  0.00000000E+00  0.00000000E+00  0.00000000E+00
  0.00000000E+00  0.00000000E+00  0.00000000E+00
  0.00000000E+00  0.00000000E+00  0.00000000E+00
  0.00000000E+00  0.00000000E+00  0.00000000E+00
  0.00000000E+00  0.00000000E+00  0.00000000E+00
  0.00000000E+00  0.00000000E+00  0.00000000E+00
  0.00000000E+00  0.00000000E+00  0.00000000E+00
  0.00000000E+00  0.00000000E+00  0.00000000E+00
  0.00000000E+00  0.00000000E+00  0.00000000E+00
  0.00000000E+00  0.00000000E+00  0.00000000E+00
  0.00000000E+00  0.00000000E+00  0.00000000E+00
  0.00000000E+00  0.00000000E+00  0.00000000E+00
  0.00000000E+00  0.00000000E+00  0.00000000E+00
  0.00000000E+00  0.00000000E+00  0.00000000E+00
  0.00000000E+00  0.00000000E+00  0.00000000E+00
  0.00000000E+00  0.00000000E+00  0.00000000E+00
  0.00000000E+00  0.00000000E+00  0.00000000E+00
  0.00000000E+00  0.00000000E+00  0.00000000E+00
  0.00000000E+00  0.00000000E+00  0.00000000E+00
  0.00000000E+00  0.00000000E+00  0.00000000E+00
  0.00000000E+00  0.00000000E+00  0.00000000E+00
  0.00000000E+00  0.00000000E+00  0.00000000E+00
  0.00000000E+00  0.00000000E+00  0.00000000E+00
  0.00000000E+00  0.00000000E+00  0.00000000E+00
  0.00000000E+00  0.00000000E+00  0.00000000E+00
  0.00000000E+00  0.00000000E+00  0.00000000E+00
  0.00000000E+00  0.00000000E+00  0.00000000E+00
  0.00000000E+00  0.00000000E+00  0.00000000E+00
  0.00000000E+00  0.00000000E+00  0.00000000E+00
  0.00000000E+00  0.00000000E+00  0.00000000E+00
  0.00000000E+00  0.00000000E+00  0.00000000E+00
  0.00000000E+00  0.00000000E+00  0.00000000E+00
  0.00000000E+00  0.00000000E+00  0.00000000E+00
  0.00000000E+00  0.00000000E+00  0.00000000E+00
  0.00000000E+00  0.00000000E+00  0.00000000E+00
  0.00000000E+00  0.00000000E+00  0.00000000E+00
  0.00000000E+00  0.00000000E+00  0.00000000E+00
  0.00000000E+00  0.00000000E+00  0.00000000E+00
  0.00000000E+00  0.00000000E+00  0.00000000E+00
  0.00000000E+00  0.00000000E+00  0.00000000E+00
  0.00000000E+00  0.00000000E+00  0.00000000E+00
  0.00000000E+00  0.00000000E+00  0.00000000E+00
  0.00000000E+00  0.00000000E+00  0.00000000E+00
  0.00000000E+00  0.00000000E+00  0.00000000E+00
  0.00000000E+00  0.00000000E+00  0.00000000E+00
  0.00000000E+00  0.00000000E+00  0.00000000E+00
  0.00000000E+00  0.00000000E+00  0.00000000E+00
  0.00000000E+00  0.00000000E+00  0.00000000E+00
  0.00000000E+00  0.00000000E+00  0.00000000E+00
  0.00000000E+00  0.00000000E+00  0.00000000E+00
  0.00000000E+00  0.00000000E+00  0.00000000E+00
  0.00000000E+00  0.00000000E+00  0.00000000E+00
  0.00000000E+00  0.00000000E+00  0.00000000E+00
  0.00000000E+00  0.00000000E+00  0.00000000E+00
  0.00000000E+00  0.00000000E+00  0.00000000E+00
  0.00000000E+00  0.00000000E+00  0.00000000E+00
  0.00000000E+00  0.00000000E+00  0.00000000E+00
  0.00000000E+00  0.00000000E+00  0.00000000E+00
  0.00000000E+00  0.00000000E+00  0.00000000E+00
  0.00000000E+00  0.00000000E+00  0.00000000E+00
  0.00000000E+00  0.00000000E+00  0.00000000E+00
  0.00000000E+00  0.00000000E+00  0.00000000E+00
  0.00000000E+00  0.00000000E+00  0.00000000E+00
  0.00000000E+00  0.00000000E+00  0.00000000E+00
  0.00000000E+00  0.00000000E+00  0.00000000E+00
  0.00000000E+00  0.00000000E+00  0.00000000E+00
  0.00000000E+00  0.00000000E+00  0.00000000E+00
  0.00000000E+00  0.00000000E+00  0.00000000E+00
  0.00000000E+00  0.00000000E+00  0.00000000E+00
  0.00000000E+00  0.00000000E+00  0.00000000E+00
  0.00000000E+00  0.00000000E+00  0.00000000E+00
  0.00000000E+00  0.00000000E+00  0.00000000E+00
  0.00000000E+00  0.00000000E+00  0.00000000E+00
  0.00000000E+00  0.00000000E+00  0.00000000E+00
  0.00000000E+00  0.00000000E+00  0.00000000E+00
  0.00000000E+00  0.00000000E+00  0.00000000E+00
  0.00000000E+00  0.00000000E+00  0.00000000E+00
  0.00000000E+00  0.00000000E+00  0.00000000E+00
  0.00000000E+00  0.00000000E+00  0.00000000E+00
  0.00000000E+00  0.00000000E+00  0.00000000E+00
  0.00000000E+00  0.00000000E+00  0.00000000E+00
  0.00000000E+00  0.00000000E+00  0.00000000E+00
  0.00000000E+00  0.00000000E+00  0.00000000E+00
  0.00000000E+00  0.00000000E+00  0.00000000E+00
  0.00000000E+00  0.00000000E+00  0.00000000E+00
  0.00000000E+00  0.00000000E+00  0.00000000E+00
  0.00000000E+00  0.00000000E+00  0.00000000E+00
  0.00000000E+00  0.00000000E+00  0.00000000E+00
  0.00000000E+00  0.00000000E+00  0.00000000E+00
  0.00000000E+00  0.00000000E+00  0.00000000E+00
  0.00000000E+00  0.00000000E+00  0.00000000E+00
  0.00000000E+00  0.00000000E+00  0.00000000E+00
  0.00000000E+00  0.00000000E+00  0.00000000E+00
  0.00000000E+00  0.00000000E+00  0.00000000E+00
  0.00000000E+00  0.00000000E+00  0.00000000E+00
  0.00000000E+00  0.00000000E+00  0.00000000E+00
  0.00000000E+00  0.00000000E+00  0.00000000E+00
  0.00000000E+00  0.00000000E+00  0.00000000E+00
  0.00000000E+00  0.00000000E+00  0.00000000E+00
  0.00000000E+00  0.00000000E+00  0.00000000E+00
  0.00000000E+00  0.00000000E+00  0.00000000E+00
  0.00000000E+00  0.00000000E+00  0.00000000E+00
  0.00000000E+00  0.00000000E+00  0.00000000E+00
  0.00000000E+00  0.00000000E+00  0.00000000E+00
  0.00000000E+00  0.00000000E+00  0.00000000E+00
  0.00000000E+00  0.00000000E+00  0.00000000E+00
  0.00000000E+00  0.00000000E+00  0.00000000E+00
  0.00000000E+00  0.00000000E+00  0.00000000E+00
  0.00000000E+00  0.00000000E+00  0.00000000E+00
  0.00000000E+00  0.00000000E+00  0.00000000E+00
  0.00000000E+00  0.00000000E+00  0.00000000E+00
  0.00000000E+00  0.00000000E+00  0.00000000E+00
  0.00000000E+00  0.00000000E+00  0.00000000E+00
  0.00000000E+00  0.00000000E+00  0.00000000E+00
  0.00000000E+00  0.00000000E+00  0.00000000E+00
  0.00000000E+00  0.00000000E+00  0.00000000E+00
  0.00000000E+00  0.00000000E+00  0.00000000E+00
  0.00000000E+00  0.00000000E+00  0.00000000E+00
  0.00000000E+00  0.00000000E+00  0.00000000E+00
  0.00000000E+00  0.00000000E+00  0.00000000E+00
  0.00000000E+00  0.00000000E+00  0.00000000E+00
  0.00000000E+00  0.00000000E+00  0.00000000E+00
  0.00000000E+00  0.00000000E+00  0.00000000E+00
  0.00000000E+00  0.00000000E+00  0.00000000E+00
  0.00000000E+00  0.00000000E+00  0.00000000E+00
  0.00000000E+00  0.00000000E+00  0.00000000E+00
  0.00000000E+00  0.00000000E+00  0.00000000E+00
  0.00000000E+00  0.00000000E+00  0.00000000E+00
  0.00000000E+00  0.00000000E+00  0.00000000E+00
  0.00000000E+00  0.00000000E+00  0.00000000E+00
  0.00000000E+00  0.00000000E+00  0.00000000E+00
  0.00000000E+00  0.00000000E+00  0.00000000E+00
  0.00000000E+00  0.00000000E+00  0.00000000E+00
  0.00000000E+00  0.00000000E+00  0.00000000E+00
  0.00000000E+00  0.00000000E+00  0.00000000E+00
  0.00000000E+00  0.00000000E+00  0.00000000E+00
  0.00000000E+00  0.00000000E+00  0.00000000E+00
  0.00000000E+00  0.00000000E+00  0.00000000E+00
  0.00000000E+00  0.00000000E+00  0.00000000E+00
  0.00000000E+00  0.00000000E+00  0.00000000E+00
  0.00000000E+00  0.00000000E+00  0.00000000E+00
  0.00000000E+00  0.00000000E+00  0.00000000E+00
  0.00000000E+00  0.00000000E+00  0.00000000E+00
  0.00000000E+00  0.00000000E+00  0.00000000E+00
  0.00000000E+00  0.00000000E+00  0.00000000E+00
  0.00000000E+00  0.00000000E+00  0.00000000E+00
  0.00000000E+00  0.00000000E+00  0.00000000E+00
  0.00000000E+00  0.00000000E+00  0.00000000E+00
  0.00000000E+00  0.00000000E+00  0.00000000E+00
  0.00000000E+00  0.00000000E+00  0.00000000E+00
  0.00000000E+00  0.00000000E+00  0.00000000E+00
  0.00000000E+00  0.00000000E+00  0.00000000E+00
  0.00000000E+00  0.00000000E+00  0.00000000E+00
  0.00000000E+00  0.00000000E+00  0.00000000E+00
  0.00000000E+00  0.00000000E+00  0.00000000E+00
  0.00000000E+00  0.00000000E+00  0.00000000E+00
  0.00000000E+00  0.00000000E+00  0.00000000E+00
  0.00000000E+00  0.00000000E+00  0.00000000E+00
  0.00000000E+00  0.00000000E+00  0.00000000E+00
  0.00000000E+00  0.00000000E+00  0.00000000E+00
  0.00000000E+00  0.00000000E+00  0.00000000E+00
  0.00000000E+00  0.00000000E+00  0.00000000E+00
  0.00000000E+00  0.00000000E+00  0.00000000E+00
  0.00000000E+00  0.00000000E+00  0.00000000E+00
  0.00000000E+00  0.00000000E+00  0.00000000E+00
  0.00000000E+00  0.00000000E+00  0.00000000E+00
  0.00000000E+00  0.00000000E+00  0.00000000E+00
  0.00000000E+00  0.00000000E+00  0.00000000E+00
  0.00000000E+00  0.00000000E+00  0.00000000E+00
  0.00000000E+00  0.00000000E+00  0.00000000E+00
  0.00000000E+00  0.00000000E+00  0.00000000E+00
  0.00000000E+00  0.00000000E+00  0.00000000E+00
  0.00000000E+00  0.00000000E+00  0.00000000E+00
  0.00000000E+00  0.00000000E+00  0.00000000E+00
  0.00000000E+00  0.00000000E+00  0.00000000E+00
  0.00000000E+00  0.00000000E+00  0.00000000E+00
  0.00000000E+00  0.00000000E+00  0.00000000E+00
  0.00000000E+00  0.00000000E+00  0.00000000E+00
  0.00000000E+00  0.00000000E+00  0.00000000E+00
  0.00000000E+00  0.00000000E+00  0.00000000E+00
  0.00000000E+00  0.00000000E+00  0.00000000E+00
  0.00000000E+00  0.00000000E+00  0.00000000E+00
  0.00000000E+00  0.00000000E+00  0.00000000E+00
  0.00000000E+00  0.00000000E+00  0.00000000E+00
  0.00000000E+00  0.00000000E+00  0.00000000E+00
  0.00000000E+00  0.00000000E+00  0.00000000E+00
  0.00000000E+00  0.00000000E+00  0.00000000E+00
  0.00000000E+00  0.00000000E+00  0.00000000E+00