CuInSe2gb                               
   1.00000000000000     
     9.7266780392896699    0.0000000000000000    0.0000000000000000
     0.0000000000000000    8.4235502764570693    0.0000000000000000
     0.0000000000000000    0.0000000000000000   45.0000000000000000
   Fe   Mn
   281     7
Direct
  0.0607167702033367  0.0319183364453212  0.1232462155398619
  0.0631793385247436  0.8709309408734315  0.5209275537171099
  0.1958981207696739  0.1252792607694118  0.7885126899018448
  0.4349109165049429  0.2897438842557836  0.3900834549010840
  0.3173973222093390  0.3633885635434602  0.1674852622417749
  0.8075239800002545  0.2123897951839767  0.8335552886702653
  0.1842803756498921  0.7872355478762040  0.3896401715254596
  0.5647832365443334  0.2078979780651869  0.5655291194097413
  0.0591670023362053  0.0438169570487311  0.7438429082060426
  0.8131051381737467  0.8716954554041970  0.5208544693882661
  0.1858352187744289  0.2921499758515843  0.7437618384548577
  0.9406153476938325  0.4515729241602539  0.3446540611926351
  0.9321397760683291  0.2864651429496911  0.3897721727676162
  0.4382651030483400  0.6212057046530028  0.5208322643872686
  0.1870200328807760  0.7913528781626479  0.6100754462930492
  0.5594223657026181  0.0392384497928978  0.3899070642334994
  0.9328607603303944  0.9632581074639318  0.8334856801868328
  0.3165946990992266  0.5439574669268695  0.8757332928124959
  0.6859494628438002  0.2919122472870576  0.7437482134706505
  0.1916762137531921  0.6124422027803191  0.1671950382731645
  0.8122474216190202  0.2073120763924209  0.4782391248180445
  0.8113616972278577  0.5413699441684450  0.6101281817402269
  0.3140860498002038  0.8696324892881414  0.4350269477468550
  0.8158882641278494  0.0361426345950759  0.2570328409969944
  0.6906117949073904  0.9522411367307131  0.3452410779127421
  0.9414590675491089  0.1117628807655964  0.1667742172592262
  0.9381964506791179  0.1228596931439958  0.5207986392996653
  0.5668602035853845  0.5345611697025020  0.2562885329185054
  0.6921294395356496  0.7954383876669938  0.8756547472348635
  0.5672285042592983  0.3623730731639223  0.1676494198812477
  0.4392071544563382  0.7927261906273283  0.7440955022943739
  0.8137578339382721  0.7072549014921603  0.5656935982031054
  0.5703487022264566  0.8748783513702846  0.7883696883013758
  0.6881241809563340  0.1232149028812440  0.5207241629194006
  0.1879330835721621  0.2870487826462776  0.2570033005110807
  0.9328008315150904  0.4646495794415716  0.8331460547929439
  0.0642894831233066  0.2092543972899613  0.6992766304143375
  0.8073551524210955  0.0388603841492614  0.3900310244163768
  0.3106304134761237  0.2126897489800194  0.8332743989035187
  0.4356023947242453  0.6244469557795904  0.6542492082625612
  0.3138561586684697  0.5419794087178939  0.6100667461957642
  0.9381938357307188  0.4577569222735710  0.5655456927818836
  0.6869643976415711  0.7916810279194603  0.7438708805715307
  0.3085258536570278  0.8746902081200175  0.6542118547706105
  0.6833007895726597  0.7862261073659853  0.3899498263476457
  0.9337241162951155  0.7913107267852564  0.7439197168778899
  0.0660226163545334  0.2038356090550672  0.3450872440925733
  0.4359637404598009  0.7819990812850590  0.1231777642901387
  0.4461587230016169  0.1258740727701895  0.7886265742861207
  0.0546920529041823  0.2041266672229603  0.2121378798398712
  0.0671679934469189  0.3632512307825603  0.1670480691221249
  0.9392433900171563  0.7847570044028859  0.2569699922167034
  0.5659199767911027  0.2102910367920751  0.6995424498314909
  0.6910488830898031  0.9581846182820226  0.6994361193197366
  0.6826440200667163  0.2886578702787570  0.3901974151552731
  0.4394069561373613  0.9569442074149697  0.5653649409107047
  0.8183904424551993  0.3756102852647178  0.7879587868652432
  0.6925421130333981  0.2858979828125129  0.2567757143622415
  0.1885585477329565  0.4583045270867907  0.5651867404403634
  0.0663934992804278  0.8612278484377475  0.1667829194004401
  0.1870079627633643  0.2926487254041148  0.6101066956598972
  0.5653438523942799  0.7003198190155259  0.3456784805251125
  0.3158238522867344  0.2100637260283051  0.6994400690783583
  0.5647510994719092  0.5414138340070507  0.8762597955368189
  0.0632670555338279  0.7074314709064492  0.5653543972938996
  0.6952603513194306  0.6244459568269530  0.7883058629135326
  0.3119066087706034  0.5355365122070975  0.3899629181932613
  0.1889372859565393  0.6217230659833586  0.5208294948110372
  0.5634456610154032  0.8703882601514713  0.4350409671617616
  0.4391626527915684  0.4583290478425667  0.5654170039450583
  0.4374242551228456  0.2918461189754548  0.7438656221689769
  0.8061776432087897  0.8727862071359338  0.3002671223693271
  0.8163275495931849  0.7017049569294421  0.3453712174111060
  0.4347135309667588  0.4622758682880718  0.8334690695056356
  0.6873283542822332  0.9576328461612463  0.4785704883083529
  0.6903185383783593  0.4586167810177564  0.6991292542762380
  0.5632784767504798  0.8720165234825308  0.5209308459366594
  0.5608681428523303  0.3773404434511583  0.6542778762834037
  0.8098450489889792  0.8747976344479522  0.6540284327745747
  0.8103341429328123  0.3705021434505412  0.4353269052177042
  0.8158860734300138  0.5344892656388295  0.2569144945856377
  0.6836503655286335  0.4632282164706360  0.8334923912826027
  0.1844161013648039  0.7821635504921611  0.1234030468234731
  0.0640975729509886  0.0416360193424453  0.8754142364609566
  0.3096305822635581  0.3767354583236482  0.6544356614660494
  0.3156219976773647  0.2040972777177331  0.3455082436462034
  0.8106414623654576  0.5410869358719811  0.7437922383232903
  0.6837937476880194  0.9638215217874477  0.8335443459350307
  0.5607123167750662  0.8742771111198497  0.6541610793405511
  0.3137286568734444  0.7071247241903088  0.5653739360095859
  0.3104111295932726  0.5323645201845514  0.1233756237835083
  0.6812904126602258  0.9524944907257303  0.2118573440504160
  0.3140199585602766  0.2082066845514894  0.5653032461010418
  0.3119971367760436  0.5390807540331601  0.7439327202695184
  0.6892419949650260  0.9574804052080034  0.5657232394901069
  0.4393384299736532  0.7909545615079613  0.6099271464047945
  0.6923707567598705  0.6125852200777594  0.1675623115011824
  0.3017928477720939  0.8716241328415197  0.3011541784217224
  0.3129176352564143  0.7025072377969838  0.4787702732334631
  0.9348598155822974  0.2918592341343778  0.6100524655638163
  0.4276579311376446  0.6216237845623401  0.3009996314990246
  0.8176358360718966  0.8630629593412513  0.1671210808868218
  0.5568694726385629  0.2027155270265987  0.2115894719352665
  0.9428009263498546  0.6134302958141334  0.1669323238203909
  0.9386243763374110  0.7929933072277336  0.8755824815266093
  0.5702957228620128  0.3740329109171076  0.7882915066045786
  0.0638132979043726  0.3728980045200942  0.5207358785064049
  0.5632405406146649  0.3724005346979547  0.5205195685395032
  0.6833736362625341  0.1216776367118283  0.3005958477151852
  0.4338400641990807  0.9633783010491798  0.8334861524477049
  0.1856002512728691  0.2831590088182571  0.1232044880093847
  0.8187075007198744  0.8738500488607133  0.7883820519769366
  0.3147914574454752  0.3718324388239402  0.4350569766955374
  0.9352750525814134  0.7916870893073826  0.6101261256516840
  0.4402411987758801  0.2930326705890300  0.6100726884921485
  0.1927047500739434  0.4517335310365331  0.3450163196616791
  0.4369897912550874  0.2830386879601708  0.1232491492474775
  0.6923231228448198  0.7851580980428443  0.2566452712989356
  0.1896438189301673  0.9597820705468439  0.6990077008246914
  0.1921194522137756  0.2962288746971533  0.8758017567201924
  0.1829562512288930  0.1259045886790429  0.6543878111696274
  0.9333238514031861  0.1260300971431798  0.6541432614350094
  0.3064617947199066  0.2052499099679433  0.2118165753934686
  0.0585420843640413  0.0379560629693983  0.3898777424611166
  0.4413057308841153  0.9594066456181859  0.6993445269641009
  0.0606263411582476  0.5416396731693246  0.6101222264461290
  0.9389791305078284  0.2857386894640919  0.2571659770207430
  0.5647511519631250  0.5413293159014315  0.6101496209053812
  0.9383316945860949  0.9575652956276930  0.5656724142990578
  0.6828972957984125  0.6220994903295738  0.3003645017095485
  0.9364214406565941  0.6178138638744527  0.4356279762423690
  0.9436703698451332  0.6253528192942687  0.7882987329671555
  0.5672592038500927  0.7061705050644561  0.6991514102477779
  0.0588314439586358  0.7137102215252373  0.8335035124205041
  0.9290077236033220  0.1235281881445203  0.3004088914229006
  0.9385102657262210  0.4583894481716863  0.6991796369217168
  0.4411400455227567  0.7839098312522916  0.2564126758607960
  0.3214439317480325  0.3735306382060081  0.7884630573571080
  0.4310494759222350  0.4531102005386157  0.2116837704038115
  0.1889476089040098  0.1237506200016789  0.5208030064518112
  0.8141634943085236  0.7075219389016923  0.6990845013152969
  0.0602361078858182  0.0416954565122103  0.6100787256650814
  0.5601203852420130  0.2125540563950651  0.8335549170903473
  0.3140985163585516  0.8714144560268364  0.5210340302661798
  0.6891224045268947  0.2825656123370507  0.1233043927896576
  0.1800147031284848  0.9511563102984942  0.2115378767230580
  0.6887225253045357  0.2923182367912894  0.6100870619970440
  0.3133332316855523  0.0416538449090923  0.6100145915832649
  0.9433987949371478  0.1250601069652311  0.7883701103378281
  0.4411577354628261  0.7961762109218120  0.8758199197769456
  0.8101631939432627  0.0426720608826651  0.7437687255942060
  0.4385459006165376  0.1231741960650226  0.5206813333765243
  0.1832805640963212  0.6252256295603265  0.6542054286451666
  0.3160380460854825  0.7068374018687770  0.6987717300393512
  0.9372592233210610  0.2821733327552117  0.1233808366578234
  0.4383450043970698  0.4539289866755907  0.4783871683704687
  0.0621856670675681  0.7029367277175400  0.4786905750236648
  0.9372235276320977  0.1216941496345672  0.4352627719870258
  0.4288380663303960  0.1219475893272778  0.3010622451374781
  0.1876919966335676  0.1228540881737670  0.4352054519336024
  0.5640683484372294  0.0451710966652369  0.8758739280122486
  0.1881194009209209  0.9568953924272242  0.5651382935188785
  0.6898551890184919  0.7826973891181772  0.1232374913432042
  0.5631877164771119  0.5312762364939553  0.1231177480435376
  0.3099216265752102  0.0392417254854480  0.3895837389616214
  0.6933850813653878  0.1116216129249629  0.1675788934853798
  0.8053921709300293  0.2022750379793359  0.2120635961566192
  0.0634518969681668  0.5344697118677069  0.2569472646019602
  0.5637623066596680  0.7040136884561432  0.4784763408494200
  0.0628709268800654  0.2078426160267604  0.5654129473337561
  0.5557887060596899  0.3708714412556140  0.3006866399406199
  0.4408370367746491  0.9522404695512054  0.3453553296107765
  0.1851862334511631  0.9625622383691841  0.8334062498632888
  0.4413443065174280  0.6118139914959105  0.1676938651044969
  0.9307647278479786  0.4530387626220853  0.2122241176214946
  0.0609150074478934  0.5329868849061452  0.1234553902928543
  0.8129186057298262  0.3725982300059426  0.5206824632310050
  0.9302999674581556  0.6219299635397276  0.3004355370338436
  0.3132538139006638  0.0369663005458483  0.2568343560494353
  0.6889207313299585  0.7915760197494687  0.6099826412352486
  0.1852292830194573  0.4642027908300813  0.8333898220770535
  0.4429529480011420  0.1126623277553203  0.1675680632349119
  0.3138924624084415  0.3729787099929712  0.5204854487541177
  0.4470180249110751  0.6232074884255658  0.7884689086975143
  0.0620733210924150  0.0360562879488461  0.2572066924212623
  0.5644513712584989  0.7073047523799941  0.5655934367592856
  0.9351526627716462  0.2923668518233246  0.7437089243826281
  0.6943017418402994  0.1251560548682109  0.7883233126415218
  0.1809411743649078  0.4537205373412121  0.2117395296280199
  0.9327991060649532  0.7864917213845003  0.3898048083435316
  0.6890336342738898  0.2966032718247026  0.8761855071942690
  0.3163491304489744  0.8604727534955714  0.1674335580442444
  0.4422384391918439  0.4568373755222531  0.6991392734810713
  0.8088379443977711  0.3766659957330853  0.6541696181324829
  0.6881215231664234  0.6215410371622757  0.5209084529702780
  0.0576332142361679  0.8751030339008498  0.6541932649688724
  0.0694213880499484  0.8742136790673423  0.7884903308527307
  0.0574667048696255  0.3763268824347345  0.6542878984157037
  0.6875930038857289  0.4540776554867220  0.4781969254869515
  0.1873392357914979  0.7836880738124562  0.2569523648825557
  0.4400666392782543  0.1233635765554131  0.4349165476546379
  0.8139848076033659  0.0323366673140013  0.1233882108016235
  0.9383954688355246  0.6218893512387399  0.5208409706161742
  0.0619342570757347  0.8700024831599638  0.4351394768200377
  0.8132302758950857  0.5320774796684871  0.1232471504472065
  0.4398730845546360  0.4515785643820679  0.3460452325525842
  0.8154528414985172  0.2031896755547128  0.3450681039020672
  0.3145786935168551  0.7008664577137262  0.3454318881368238
  0.6859135274585335  0.1271279086705123  0.6541558324261871
  0.5561994729185773  0.8727134918400721  0.3009063953863592
  0.0586933387732832  0.5402828899782470  0.7438231953228900
  0.9378691877085326  0.7829745803890198  0.1235277208329014
  0.8062307752041235  0.7025379012692408  0.2120133123988826
  0.0539201890445005  0.8723065586677659  0.3004025882758589
  0.1775697602942139  0.1230239936071557  0.3008918856791419
  0.0670413799590424  0.7020479874514275  0.3446948122925318
  0.8118029841081933  0.0420695320481520  0.6098313050337504
  0.0633833142672855  0.3707707726071202  0.4355553327047644
  0.5656353785646883  0.2028799436566973  0.3457799234518955
  0.8069297999067980  0.3703759429074361  0.3004460040846154
  0.4395876528227805  0.9569753814928494  0.4787446768362644
  0.5585442124008950  0.5352424224130091  0.3901040913889987
  0.0620634515303878  0.2084368680661935  0.4785702555496286
  0.3214008952716437  0.8757744519335580  0.7888061749236948
  0.9389486797463975  0.9586102104718188  0.6990662188116546
  0.0539112792726760  0.3721380362086902  0.3004539388945093
  0.6855438090178034  0.6244783071982253  0.6542288898034508
  0.6891943902919289  0.4578506036328956  0.5656861496840361
  0.4322328419742805  0.9521238739598361  0.2111955245848034
  0.3134391829704880  0.2095895364211902  0.4786438886338841
  0.4347690985584762  0.1270546633148755  0.6543220643260704
  0.6868173152587327  0.6174264769743754  0.4349798245085850
  0.8147005848946868  0.2097674962276681  0.6993476149327177
  0.8126173180453293  0.7037548236356300  0.4786593994367945
  0.5627810496328266  0.3706861999302430  0.4350000838236242
  0.9371469649111502  0.9564847669733531  0.4787553969319641
  0.5639977349058232  0.2082707717742062  0.4783149337532575
  0.1888300762172138  0.6178740939413249  0.4352643302502650
  0.3121621324246387  0.0450339589247907  0.7438561068110505
  0.9328923563741606  0.6254765961535855  0.6542230259083700
  0.5597765131395871  0.7132179148593315  0.8334241434441891
  0.3017049596644061  0.3719909042340604  0.3008191488621582
  0.5566408513010709  0.7018054064465906  0.2115562300118256
  0.1880970226035978  0.4546799887829945  0.4784610304368693
  0.3167902418910158  0.0405266466882124  0.8756898398755164
  0.1898091847674982  0.4569000115417793  0.6990974856463323
  0.8115074467353643  0.5438000712480880  0.8756555064093210
  0.1860994822051459  0.2888880794553357  0.3896883306787126
  0.4395800529168531  0.6172496948170588  0.4347456019966143
  0.0556012499904269  0.7010062353361748  0.2116973430167566
  0.5635728657601327  0.0337578238808343  0.1231880827598827
  0.8178396471480280  0.3624968924593209  0.1672571508842877
  0.8089651775462930  0.7142645723379404  0.8334021965338243
  0.0696353311450760  0.3746628146305807  0.7880776890721098
  0.4446240780162657  0.2968359077484363  0.8760759305968677
  0.3096629135158033  0.0324634877221973  0.1228889718659256
  0.6869616254353417  0.1231630410578815  0.4352391684886269
  0.1913653166024760  0.9520772714961098  0.3450759062930963
  0.0586413189452842  0.2119218324039690  0.8332621758263214
  0.5654433343382598  0.0421444473363662  0.6098033874556231
  0.6809453825282316  0.4521380374865429  0.2120392547744762
  0.1848872037694635  0.7919186523744839  0.7439872347090025
  0.1770341981355780  0.6210842284590918  0.3008756051432192
  0.4355114737992385  0.7854989878061369  0.3897986074876450
  0.4402319137728202  0.2874835201368139  0.2564021555689841
  0.0646481862090884  0.5451288229191249  0.8757211929197960
  0.5622066832122341  0.0436485407427604  0.7439640238381088
  0.1924442187272317  0.7951848273372913  0.8760627892952230
  0.9372983165336397  0.4547991685031490  0.4784266622937881
  0.8058807872174404  0.5370193706591785  0.3901936630538682
  0.8136553577838839  0.2078862503612957  0.5657815460072102
  0.1943828215159311  0.6238669665249638  0.7885700371650333
  0.9299512242108571  0.9519041225381755  0.2120013075841256
  0.0629148155041830  0.7075168519588700  0.6989035682584779
  0.3138156656775599  0.5335971105964290  0.2565457031426890
  0.3056168394659602  0.7004251416938186  0.2113958379864084
  0.5679806930234363  0.8621968045404289  0.1679404024236772
  0.5629454009900150  0.5403532547914150  0.7437799013984138
  0.6904781977974933  0.4517206792477055  0.3456320970736725
  0.9391343869938586  0.2958840162956215  0.8758086344788913
  0.5686950177368363  0.0372077462788376  0.2566402866627264
  0.1918092174866239  0.1117574753770619  0.1666661748782647
  0.3082764058255134  0.7153122314876881  0.8344104015253238
  0.8121430198843668  0.0423446524268384  0.8755532428447308
  0.8116327671389257  0.8711513515219804  0.4351949900017998
  0.0587080054121251  0.5378772551922052  0.3898930377723280
  0.9424322615488057  0.9529511502047283  0.3449361964702053
  0.1875820094972026  0.9562788642667726  0.4789849042002046
 
  0.00000000E+00  0.00000000E+00  0.00000000E+00
  0.00000000E+00  0.00000000E+00  0.00000000E+00
  0.00000000E+00  0.00000000E+00  0.00000000E+00
  0.00000000E+00  0.00000000E+00  0.00000000E+00
  0.00000000E+00  0.00000000E+00  0.00000000E+00
  0.00000000E+00  0.00000000E+00  0.00000000E+00
  0.00000000E+00  0.00000000E+00  0.00000000E+00
  0.00000000E+00  0.00000000E+00  0.00000000E+00
  0.00000000E+00  0.00000000E+00  0.00000000E+00
  0.00000000E+00  0.00000000E+00  0.00000000E+00
  0.00000000E+00  0.00000000E+00  0.00000000E+00
  0.00000000E+00  0.00000000E+00  0.00000000E+00
  0.00000000E+00  0.00000000E+00  0.00000000E+00
  0.00000000E+00  0.00000000E+00  0.00000000E+00
  0.00000000E+00  0.00000000E+00  0.00000000E+00
  0.00000000E+00  0.00000000E+00  0.00000000E+00
  0.00000000E+00  0.00000000E+00  0.00000000E+00
  0.00000000E+00  0.00000000E+00  0.00000000E+00
  0.00000000E+00  0.00000000E+00  0.00000000E+00
  0.00000000E+00  0.00000000E+00  0.00000000E+00
  0.00000000E+00  0.00000000E+00  0.00000000E+00
  0.00000000E+00  0.00000000E+00  0.00000000E+00
  0.00000000E+00  0.00000000E+00  0.00000000E+00
  0.00000000E+00  0.00000000E+00  0.00000000E+00
  0.00000000E+00  0.00000000E+00  0.00000000E+00
  0.00000000E+00  0.00000000E+00  0.00000000E+00
  0.00000000E+00  0.00000000E+00  0.00000000E+00
  0.00000000E+00  0.00000000E+00  0.00000000E+00
  0.00000000E+00  0.00000000E+00  0.00000000E+00
  0.00000000E+00  0.00000000E+00  0.00000000E+00
  0.00000000E+00  0.00000000E+00  0.00000000E+00
  0.00000000E+00  0.00000000E+00  0.00000000E+00
  0.00000000E+00  0.00000000E+00  0.00000000E+00
  0.00000000E+00  0.00000000E+00  0.00000000E+00
  0.00000000E+00  0.00000000E+00  0.00000000E+00
  0.00000000E+00  0.00000000E+00  0.00000000E+00
  0.00000000E+00  0.00000000E+00  0.00000000E+00
  0.00000000E+00  0.00000000E+00  0.00000000E+00
  0.00000000E+00  0.00000000E+00  0.00000000E+00
  0.00000000E+00  0.00000000E+00  0.00000000E+00
  0.00000000E+00  0.00000000E+00  0.00000000E+00
  0.00000000E+00  0.00000000E+00  0.00000000E+00
  0.00000000E+00  0.00000000E+00  0.00000000E+00
  0.00000000E+00  0.00000000E+00  0.00000000E+00
  0.00000000E+00  0.00000000E+00  0.00000000E+00
  0.00000000E+00  0.00000000E+00  0.00000000E+00
  0.00000000E+00  0.00000000E+00  0.00000000E+00
  0.00000000E+00  0.00000000E+00  0.00000000E+00
  0.00000000E+00  0.00000000E+00  0.00000000E+00
  0.00000000E+00  0.00000000E+00  0.00000000E+00
  0.00000000E+00  0.00000000E+00  0.00000000E+00
  0.00000000E+00  0.00000000E+00  0.00000000E+00
  0.00000000E+00  0.00000000E+00  0.00000000E+00
  0.00000000E+00  0.00000000E+00  0.00000000E+00
  0.00000000E+00  0.00000000E+00  0.00000000E+00
  0.00000000E+00  0.00000000E+00  0.00000000E+00
  0.00000000E+00  0.00000000E+00  0.00000000E+00
  0.00000000E+00  0.00000000E+00  0.00000000E+00
  0.00000000E+00  0.00000000E+00  0.00000000E+00
  0.00000000E+00  0.00000000E+00  0.00000000E+00
  0.00000000E+00  0.00000000E+00  0.00000000E+00
  0.00000000E+00  0.00000000E+00  0.00000000E+00
  0.00000000E+00  0.00000000E+00  0.00000000E+00
  0.00000000E+00  0.00000000E+00  0.00000000E+00
  0.00000000E+00  0.00000000E+00  0.00000000E+00
  0.00000000E+00  0.00000000E+00  0.00000000E+00
  0.00000000E+00  0.00000000E+00  0.00000000E+00
  0.00000000E+00  0.00000000E+00  0.00000000E+00
  0.00000000E+00  0.00000000E+00  0.00000000E+00
  0.00000000E+00  0.00000000E+00  0.00000000E+00
  0.00000000E+00  0.00000000E+00  0.00000000E+00
  0.00000000E+00  0.00000000E+00  0.00000000E+00
  0.00000000E+00  0.00000000E+00  0.00000000E+00
  0.00000000E+00  0.00000000E+00  0.00000000E+00
  0.00000000E+00  0.00000000E+00  0.00000000E+00
  0.00000000E+00  0.00000000E+00  0.00000000E+00
  0.00000000E+00  0.00000000E+00  0.00000000E+00
  0.00000000E+00  0.00000000E+00  0.00000000E+00
  0.00000000E+00  0.00000000E+00  0.00000000E+00
  0.00000000E+00  0.00000000E+00  0.00000000E+00
  0.00000000E+00  0.00000000E+00  0.00000000E+00
  0.00000000E+00  0.00000000E+00  0.00000000E+00
  0.00000000E+00  0.00000000E+00  0.00000000E+00
  0.00000000E+00  0.00000000E+00  0.00000000E+00
  0.00000000E+00  0.00000000E+00  0.00000000E+00
  0.00000000E+00  0.00000000E+00  0.00000000E+00
  0.00000000E+00  0.00000000E+00  0.00000000E+00
  0.00000000E+00  0.00000000E+00  0.00000000E+00
  0.00000000E+00  0.00000000E+00  0.00000000E+00
  0.00000000E+00  0.00000000E+00  0.00000000E+00
  0.00000000E+00  0.00000000E+00  0.00000000E+00
  0.00000000E+00  0.00000000E+00  0.00000000E+00
  0.00000000E+00  0.00000000E+00  0.00000000E+00
  0.00000000E+00  0.00000000E+00  0.00000000E+00
  0.00000000E+00  0.00000000E+00  0.00000000E+00
  0.00000000E+00  0.00000000E+00  0.00000000E+00
  0.00000000E+00  0.00000000E+00  0.00000000E+00
  0.00000000E+00  0.00000000E+00  0.00000000E+00
  0.00000000E+00  0.00000000E+00  0.00000000E+00
  0.00000000E+00  0.00000000E+00  0.00000000E+00
  0.00000000E+00  0.00000000E+00  0.00000000E+00
  0.00000000E+00  0.00000000E+00  0.00000000E+00
  0.00000000E+00  0.00000000E+00  0.00000000E+00
  0.00000000E+00  0.00000000E+00  0.00000000E+00
  0.00000000E+00  0.00000000E+00  0.00000000E+00
  0.00000000E+00  0.00000000E+00  0.00000000E+00
  0.00000000E+00  0.00000000E+00  0.00000000E+00
  0.00000000E+00  0.00000000E+00  0.00000000E+00
  0.00000000E+00  0.00000000E+00  0.00000000E+00
  0.00000000E+00  0.00000000E+00  0.00000000E+00
  0.00000000E+00  0.00000000E+00  0.00000000E+00
  0.00000000E+00  0.00000000E+00  0.00000000E+00
  0.00000000E+00  0.00000000E+00  0.00000000E+00
  0.00000000E+00  0.00000000E+00  0.00000000E+00
  0.00000000E+00  0.00000000E+00  0.00000000E+00
  0.00000000E+00  0.00000000E+00  0.00000000E+00
  0.00000000E+00  0.00000000E+00  0.00000000E+00
  0.00000000E+00  0.00000000E+00  0.00000000E+00
  0.00000000E+00  0.00000000E+00  0.00000000E+00
  0.00000000E+00  0.00000000E+00  0.00000000E+00
  0.00000000E+00  0.00000000E+00  0.00000000E+00
  0.00000000E+00  0.00000000E+00  0.00000000E+00
  0.00000000E+00  0.00000000E+00  0.00000000E+00
  0.00000000E+00  0.00000000E+00  0.00000000E+00
  0.00000000E+00  0.00000000E+00  0.00000000E+00
  0.00000000E+00  0.00000000E+00  0.00000000E+00
  0.00000000E+00  0.00000000E+00  0.00000000E+00
  0.00000000E+00  0.00000000E+00  0.00000000E+00
  0.00000000E+00  0.00000000E+00  0.00000000E+00
  0.00000000E+00  0.00000000E+00  0.00000000E+00
  0.00000000E+00  0.00000000E+00  0.00000000E+00
  0.00000000E+00  0.00000000E+00  0.00000000E+00
  0.00000000E+00  0.00000000E+00  0.00000000E+00
  0.00000000E+00  0.00000000E+00  0.00000000E+00
  0.00000000E+00  0.00000000E+00  0.00000000E+00
  0.00000000E+00  0.00000000E+00  0.00000000E+00
  0.00000000E+00  0.00000000E+00  0.00000000E+00
  0.00000000E+00  0.00000000E+00  0.00000000E+00
  0.00000000E+00  0.00000000E+00  0.00000000E+00
  0.00000000E+00  0.00000000E+00  0.00000000E+00
  0.00000000E+00  0.00000000E+00  0.00000000E+00
  0.00000000E+00  0.00000000E+00  0.00000000E+00
  0.00000000E+00  0.00000000E+00  0.00000000E+00
  0.00000000E+00  0.00000000E+00  0.00000000E+00
  0.00000000E+00  0.00000000E+00  0.00000000E+00
  0.00000000E+00  0.00000000E+00  0.00000000E+00
  0.00000000E+00  0.00000000E+00  0.00000000E+00
  0.00000000E+00  0.00000000E+00  0.00000000E+00
  0.00000000E+00  0.00000000E+00  0.00000000E+00
  0.00000000E+00  0.00000000E+00  0.00000000E+00
  0.00000000E+00  0.00000000E+00  0.00000000E+00
  0.00000000E+00  0.00000000E+00  0.00000000E+00
  0.00000000E+00  0.00000000E+00  0.00000000E+00
  0.00000000E+00  0.00000000E+00  0.00000000E+00
  0.00000000E+00  0.00000000E+00  0.00000000E+00
  0.00000000E+00  0.00000000E+00  0.00000000E+00
  0.00000000E+00  0.00000000E+00  0.00000000E+00
  0.00000000E+00  0.00000000E+00  0.00000000E+00
  0.00000000E+00  0.00000000E+00  0.00000000E+00
  0.00000000E+00  0.00000000E+00  0.00000000E+00
  0.00000000E+00  0.00000000E+00  0.00000000E+00
  0.00000000E+00  0.00000000E+00  0.00000000E+00
  0.00000000E+00  0.00000000E+00  0.00000000E+00
  0.00000000E+00  0.00000000E+00  0.00000000E+00
  0.00000000E+00  0.00000000E+00  0.00000000E+00
  0.00000000E+00  0.00000000E+00  0.00000000E+00
  0.00000000E+00  0.00000000E+00  0.00000000E+00
  0.00000000E+00  0.00000000E+00  0.00000000E+00
  0.00000000E+00  0.00000000E+00  0.00000000E+00
  0.00000000E+00  0.00000000E+00  0.00000000E+00
  0.00000000E+00  0.00000000E+00  0.00000000E+00
  0.00000000E+00  0.00000000E+00  0.00000000E+00
  0.00000000E+00  0.00000000E+00  0.00000000E+00
  0.00000000E+00  0.00000000E+00  0.00000000E+00
  0.00000000E+00  0.00000000E+00  0.00000000E+00
  0.00000000E+00  0.00000000E+00  0.00000000E+00
  0.00000000E+00  0.00000000E+00  0.00000000E+00
  0.00000000E+00  0.00000000E+00  0.00000000E+00
  0.00000000E+00  0.00000000E+00  0.00000000E+00
  0.00000000E+00  0.00000000E+00  0.00000000E+00
  0.00000000E+00  0.00000000E+00  0.00000000E+00
  0.00000000E+00  0.00000000E+00  0.00000000E+00
  0.00000000E+00  0.00000000E+00  0.00000000E+00
  0.00000000E+00  0.00000000E+00  0.00000000E+00
  0.00000000E+00  0.00000000E+00  0.00000000E+00
  0.00000000E+00  0.00000000E+00  0.00000000E+00
  0.00000000E+00  0.00000000E+00  0.00000000E+00
  0.00000000E+00  0.00000000E+00  0.00000000E+00
  0.00000000E+00  0.00000000E+00  0.00000000E+00
  0.00000000E+00  0.00000000E+00  0.00000000E+00
  0.00000000E+00  0.00000000E+00  0.00000000E+00
  0.00000000E+00  0.00000000E+00  0.00000000E+00
  0.00000000E+00  0.00000000E+00  0.00000000E+00
  0.00000000E+00  0.00000000E+00  0.00000000E+00
  0.00000000E+00  0.00000000E+00  0.00000000E+00
  0.00000000E+00  0.00000000E+00  0.00000000E+00
  0.00000000E+00  0.00000000E+00  0.00000000E+00
  0.00000000E+00  0.00000000E+00  0.00000000E+00
  0.00000000E+00  0.00000000E+00  0.00000000E+00
  0.00000000E+00  0.00000000E+00  0.00000000E+00
  0.00000000E+00  0.00000000E+00  0.00000000E+00
  0.00000000E+00  0.00000000E+00  0.00000000E+00
  0.00000000E+00  0.00000000E+00  0.00000000E+00
  0.00000000E+00  0.00000000E+00  0.00000000E+00
  0.00000000E+00  0.00000000E+00  0.00000000E+00
  0.00000000E+00  0.00000000E+00  0.00000000E+00
  0.00000000E+00  0.00000000E+00  0.00000000E+00
  0.00000000E+00  0.00000000E+00  0.00000000E+00
  0.00000000E+00  0.00000000E+00  0.00000000E+00
  0.00000000E+00  0.00000000E+00  0.00000000E+00
  0.00000000E+00  0.00000000E+00  0.00000000E+00
  0.00000000E+00  0.00000000E+00  0.00000000E+00
  0.00000000E+00  0.00000000E+00  0.00000000E+00
  0.00000000E+00  0.00000000E+00  0.00000000E+00
  0.00000000E+00  0.00000000E+00  0.00000000E+00
  0.00000000E+00  0.00000000E+00  0.00000000E+00
  0.00000000E+00  0.00000000E+00  0.00000000E+00
  0.00000000E+00  0.00000000E+00  0.00000000E+00
  0.00000000E+00  0.00000000E+00  0.00000000E+00
  0.00000000E+00  0.00000000E+00  0.00000000E+00
  0.00000000E+00  0.00000000E+00  0.00000000E+00
  0.00000000E+00  0.00000000E+00  0.00000000E+00
  0.00000000E+00  0.00000000E+00  0.00000000E+00
  0.00000000E+00  0.00000000E+00  0.00000000E+00
  0.00000000E+00  0.00000000E+00  0.00000000E+00
  0.00000000E+00  0.00000000E+00  0.00000000E+00
  0.00000000E+00  0.00000000E+00  0.00000000E+00
  0.00000000E+00  0.00000000E+00  0.00000000E+00
  0.00000000E+00  0.00000000E+00  0.00000000E+00
  0.00000000E+00  0.00000000E+00  0.00000000E+00
  0.00000000E+00  0.00000000E+00  0.00000000E+00
  0.00000000E+00  0.00000000E+00  0.00000000E+00
  0.00000000E+00  0.00000000E+00  0.00000000E+00
  0.00000000E+00  0.00000000E+00  0.00000000E+00
  0.00000000E+00  0.00000000E+00  0.00000000E+00
  0.00000000E+00  0.00000000E+00  0.00000000E+00
  0.00000000E+00  0.00000000E+00  0.00000000E+00
  0.00000000E+00  0.00000000E+00  0.00000000E+00
  0.00000000E+00  0.00000000E+00  0.00000000E+00
  0.00000000E+00  0.00000000E+00  0.00000000E+00
  0.00000000E+00  0.00000000E+00  0.00000000E+00
  0.00000000E+00  0.00000000E+00  0.00000000E+00
  0.00000000E+00  0.00000000E+00  0.00000000E+00
  0.00000000E+00  0.00000000E+00  0.00000000E+00
  0.00000000E+00  0.00000000E+00  0.00000000E+00
  0.00000000E+00  0.00000000E+00  0.00000000E+00
  0.00000000E+00  0.00000000E+00  0.00000000E+00