CuInSe2gb                               
   1.00000000000000     
     9.7266780392896699    0.0000000000000000    0.0000000000000000
     0.0000000000000000    8.4235502764570693    0.0000000000000000
     0.0000000000000000    0.0000000000000000   45.0000000000000000
   Fe   Mn
   281     7
Direct
  0.0626933784592282  0.0323790768981626  0.1244529123941201
  0.0633584777953481  0.8718587098483770  0.5212440411927363
  0.1959527694046514  0.1247058761836132  0.7884229325617296
  0.4336382057784570  0.2875420632578478  0.3890596068195066
  0.3176876989318039  0.3613756417347558  0.1668335977525789
  0.8086149976301944  0.2129584255302191  0.8334268083954891
  0.1834845559539646  0.7875670087282838  0.3890811217379948
  0.5639071997590749  0.2076313596855427  0.5654287949475719
  0.0603998899871705  0.0421825820615777  0.7441626715638034
  0.8134960514024960  0.8721142093391537  0.5212794259774692
  0.1856425981530773  0.2920279450849319  0.7441124876106719
  0.9413868510722860  0.4520368118570812  0.3448983697283165
  0.9337068296748845  0.2874447819684237  0.3889384113482297
  0.4384603803252796  0.6222120998483671  0.5213151277242202
  0.1877114643078218  0.7919605594196507  0.6108628145141446
  0.5587056574051958  0.0375646912993603  0.3888682694606121
  0.9332240691507496  0.9644713777831185  0.8332975704955100
  0.3141712307273645  0.5422836905992963  0.8755170927543048
  0.6853906978539063  0.2913266257662814  0.7440884816034961
  0.1920868499642343  0.6120962141837842  0.1668183214689050
  0.8131682552233170  0.2057291338341264  0.4785142127276832
  0.8126286090689593  0.5418532473832329  0.6108517933292594
  0.3131778910564533  0.8707480507507480  0.4344426952557329
  0.8153903890394244  0.0351806430647982  0.2559802140647073
  0.6914765816471395  0.9517993009189623  0.3449496105300022
  0.9421455794585148  0.1125372948018651  0.1668383364179048
  0.9385759171546082  0.1221227269098379  0.5213283539874198
  0.5654847608393840  0.5352389620156607  0.2560088970019885
  0.6931618056719566  0.7960133734115814  0.8756585308037896
  0.5673190604434791  0.3625775793707417  0.1669564632705172
  0.4360361551211523  0.7921215704000105  0.7442416544409882
  0.8139659445456090  0.7076578835904548  0.5654334224659758
  0.5698417786705575  0.8739730955581102  0.7883043808738014
  0.6885196026557568  0.1223167063871665  0.5213495562429032
  0.1903975090794615  0.2852151200038049  0.2559818805626720
  0.9335423619191959  0.4635274001804265  0.8330047888242564
  0.0653928359262617  0.2084030956904903  0.6996957532095769
  0.8085082634984363  0.0373696330457149  0.3890739878938339
  0.3089396975248510  0.2137971140679454  0.8332392007848776
  0.4340506625612408  0.6260481754890875  0.6549714249653954
  0.3127111258907554  0.5418612433976985  0.6108499958413885
  0.9389246512212881  0.4576553894013962  0.5654185664835193
  0.6858415267223524  0.7917835636195801  0.7441654671911582
  0.3088708555960780  0.8757180142111263  0.6549215808603522
  0.6836531660294169  0.7877621147503744  0.3890558186154883
  0.9356209171669680  0.7920902714987453  0.7441807826602986
  0.0657712374365149  0.2025158208556303  0.3450550079894526
  0.4373771703772967  0.7820522954193598  0.1244434958855449
  0.4451458459994337  0.1249082672698961  0.7885679935376551
  0.0550146948302987  0.2029929378287341  0.2118607550037353
  0.0674932949381667  0.3616015359273290  0.1668437723714409
  0.9405262849552024  0.7854137003426511  0.2559775477396543
  0.5656567911941938  0.2083029360680801  0.6997161466025104
  0.6905066517759596  0.9584402862662369  0.6996918329624919
  0.6836946933389970  0.2875264642470177  0.3890728595541759
  0.4389301684347853  0.9576846748599047  0.5654282263277870
  0.8203088041802035  0.3752357094354232  0.7882794870341404
  0.6904534826559731  0.2852408103132452  0.2559981144232920
  0.1887956067142693  0.4577370352962619  0.5654298578003123
  0.0679492396534044  0.8627841218440004  0.1668091203212161
  0.1877462492315100  0.2918716997279690  0.6108121312883669
  0.5660541789057950  0.7016243428401429  0.3448949069430133
  0.3153706345630790  0.2084346814796552  0.6996874806750627
  0.5646640019940964  0.5417782495414724  0.8756187546656520
  0.0637704002916860  0.7076994055416913  0.5654502854587999
  0.6952034291415762  0.6242588115760741  0.7883680578349289
  0.3085739169376079  0.5375997756420839  0.3890780433906206
  0.1885159614890390  0.6222175677709910  0.5213230981134704
  0.5626184361597957  0.8704721265850843  0.4344639796289376
  0.4388168868708132  0.4577430109576520  0.5654442611755308
  0.4357168629103248  0.2919920745486028  0.7441443054103738
  0.8039913039392222  0.8721063810138013  0.3001892821602855
  0.8167902847740696  0.7024505081736244  0.3450582493267650
  0.4335861331621067  0.4630560379581710  0.8331567269180933
  0.6876589978014298  0.9558710259191286  0.4786381025412693
  0.6905164798194716  0.4585089935341355  0.6996668284453214
  0.5632242009986368  0.8720209049949538  0.5213304214083131
  0.5588993978260052  0.3756716789819576  0.6549453816566589
  0.8088578702474691  0.8756652847820678  0.6549030562631833
  0.8125602284550525  0.3705326691379607  0.4344750139313791
  0.8155958479966567  0.5355247899990763  0.2559430864733899
  0.6834581276991273  0.4635589475727362  0.8331180274534127
  0.1868839156921538  0.7824248846076155  0.1244252354234957
  0.0639834260703880  0.0436483636170427  0.8754362843490473
  0.3088598474565913  0.3756928633544047  0.6549209833011088
  0.3162988205355208  0.2020782724392006  0.3449198752235636
  0.8108279534250428  0.5419707389215741  0.7442250546698276
  0.6840664505619106  0.9640017761081072  0.8333103867345790
  0.5589018305504648  0.8757042154155117  0.6549167444026437
  0.3138654253733386  0.7074206820224286  0.5655684966000901
  0.3125811622589522  0.5327480233483520  0.1244803723936264
  0.6802635512010043  0.9530332071933532  0.2118462429034346
  0.3139836208996381  0.2077854117521065  0.5655493272516618
  0.3107904153841921  0.5422010714428893  0.7441650488961340
  0.6886689840473567  0.9578052877789935  0.5654519019694135
  0.4376572013483190  0.7919197742804798  0.6108501689574090
  0.6920684325282901  0.6121866207642630  0.1669474317771895
  0.3037377579599326  0.8721161846086644  0.3003122083757789
  0.3128231126752077  0.7056105121396530  0.4786183191383148
  0.9378614419771701  0.2917792398618045  0.6108067529377329
  0.4287388109444511  0.6221183844051483  0.3003315449715552
  0.8168236013111655  0.8623095876008793  0.1668299904667385
  0.5555609138321975  0.2021607030146697  0.2115244270197878
  0.9419027055436942  0.6124430926612683  0.1668294628294325
  0.9389462097890913  0.7937698677012995  0.8755423416103504
  0.5709119176476881  0.3746270661265408  0.7883988479224103
  0.0634567187349535  0.3723178701807082  0.5213554971615216
  0.5635052433400779  0.3721229480537794  0.5212960636359435
  0.6792924023075686  0.1218631635419401  0.3002525094022385
  0.4324705648742091  0.9631909709096704  0.8332491244381687
  0.1875297750181891  0.2825007101238436  0.1245634205545706
  0.8204471918839706  0.8746130356533141  0.7883534623074563
  0.3129303359273722  0.3709114294079377  0.4344440129492971
  0.9377183250846014  0.7917968994759043  0.6108349804317947
  0.4377739760932818  0.2918438172976218  0.6108223062358923
  0.1918724847410936  0.4519935303220302  0.3449913982480848
  0.4376736339471057  0.2824867615970642  0.1245208311303696
  0.6901386252747879  0.7855599585395575  0.2559846095720882
  0.1905227793399478  0.9583651597828965  0.6997062124484127
  0.1905478949015113  0.2966581514851129  0.8758651590225081
  0.1838588912983367  0.1257239433709886  0.6549150683688529
  0.9340128569360289  0.1260304762554625  0.6549484623431601
  0.3056090085493746  0.2029853531501613  0.2119251778496118
  0.0585034612175263  0.0373802341351779  0.3890563920386149
  0.4403448855634763  0.9582957681995041  0.6996910978676614
  0.0626987068882093  0.5418277904757745  0.6108493215021890
  0.9404887979792940  0.2853022711234129  0.2559740390506076
  0.5627417500452213  0.5418248125374218  0.6108530473173869
  0.9389485273841223  0.9578119675743556  0.5655292722781022
  0.6791724927175125  0.6218049235585965  0.3001179240527536
  0.9375173722889603  0.6193157463069987  0.4346435351001754
  0.9458866527168900  0.6246735112703902  0.7884166839284746
  0.5653290826910363  0.7083211713133460  0.6996735245812452
  0.0590873205333056  0.7128562110849541  0.8331143196170712
  0.9288344062372222  0.1222366402455594  0.3002572771044104
  0.9404708117637766  0.4584477560601102  0.6996768067907687
  0.4406139302987228  0.7854202227059479  0.2559450224080915
  0.3203447396649091  0.3742136585807100  0.7884572640085324
  0.4305936035500970  0.4524889908127784  0.2116385370898005
  0.1884899905922357  0.1223611224146989  0.5212977339408092
  0.8153276478572991  0.7083627470891308  0.6996783657182075
  0.0627133709168212  0.0418041126674913  0.6108512233992630
  0.5591880824236314  0.2132938170365805  0.8333295298086445
  0.3136465427642318  0.8720107576869567  0.5212758498209372
  0.6872721939962759  0.2825066599279852  0.1244679080948204
  0.1807149110276131  0.9523434714790910  0.2116352066545562
  0.6876027787976008  0.2919957599481546  0.6108649188110788
  0.3126629146161336  0.0418564535594831  0.6108837916195589
  0.9451527858497256  0.1247180816596047  0.7885221097894685
  0.4405417838706369  0.7967249398797762  0.8756750572994847
  0.8106590474712974  0.0420007419619765  0.7440868531094758
  0.4383140068305101  0.1219443862874145  0.5213449680257723
  0.1839526064600812  0.6258336944614032  0.6549523813901027
  0.3152575271958951  0.7081431931888186  0.6996174453339841
  0.9368941032779344  0.2829542384031384  0.1245212070062530
  0.4379077337184303  0.4559318613607181  0.4786084352364087
  0.0629069359833401  0.7056329154540798  0.4786225614519734
  0.9386238012107812  0.1196553056952317  0.4343603314081419
  0.4286692981070557  0.1219633077595096  0.3003298352041169
  0.1880780360968079  0.1201359404034653  0.4344985710310486
  0.5639833448314315  0.0438367888555892  0.8755816537554664
  0.1886927526463152  0.9574980053676376  0.5653051084445683
  0.6872334655009255  0.7824666988060504  0.1244319000268764
  0.5627303291924971  0.5321840423946576  0.1243625721431328
  0.3086944104807631  0.0372743182854808  0.3890245580002680
  0.6926482656217320  0.1117111203080581  0.1669675414962496
  0.8057829854439185  0.2025365117444403  0.2116188971428987
  0.0656096944289948  0.5353135983531950  0.2559710229542269
  0.5627954595823644  0.7057245157960041  0.4786248479835549
  0.0637346732938549  0.2076883587374654  0.5654673451953662
  0.5537453236214237  0.3721251949072080  0.3003246822563589
  0.4419007001030192  0.9522351961211957  0.3449057588022086
  0.1839363682686151  0.9630168584246492  0.8331529209806460
  0.4425831411759936  0.6120957763226444  0.1667371315992867
  0.9302672446252203  0.4527735578617983  0.2118010864768305
  0.0615303461419808  0.5325131863396334  0.1244911148838721
  0.8134734375582277  0.3722777936135119  0.5213334055950941
  0.9286988892064709  0.6222351342883295  0.3003072008786668
  0.3152351334963021  0.0354884129962488  0.2559898072545708
  0.6877428213265971  0.7918470176708905  0.6108606883617623
  0.1840797767195578  0.4642586384289886  0.8332894418164647
  0.4422737168633060  0.1128010220841644  0.1667886520157908
  0.3134683264289834  0.3723090747803984  0.5213362693310168
  0.4462202520684520  0.6243915140766434  0.7883252348824898
  0.0655554860073199  0.0353042007307593  0.2560095471374518
  0.5637969578942205  0.7076897296126577  0.5654193500407897
  0.9360547010520015  0.2915949884933923  0.7441567485294713
  0.6958337353606496  0.1245390890824730  0.7884476378793709
  0.1804874531678244  0.4526127275917826  0.2116441783445223
  0.9339685509615726  0.7869801264404402  0.3889585931186118
  0.6920045390359403  0.2963611370604819  0.8758487930655346
  0.3166838609245390  0.8623692606928285  0.1668731781794106
  0.4403868297582740  0.4583216506685145  0.6996838592926966
  0.8088779674553360  0.3755530346106799  0.6549446033265761
  0.6883201053006810  0.6223639265002544  0.5214104428810817
  0.0589355148159757  0.8756064064828366  0.6549112491737261
  0.0713376203435405  0.8738276449805257  0.7882528721916392
  0.0589034347113207  0.3756867227219301  0.6549283772381809
  0.6877972696381887  0.4557355948618245  0.4786329846027315
  0.1905323756457916  0.7852929571827425  0.2560021268825503
  0.4381784679320910  0.1200677645779685  0.4344487332970757
  0.8111115852101900  0.0320280334329459  0.1244662207975066
  0.9384813961012410  0.6222953086611805  0.5213832512644894
  0.0625698687799230  0.8707793222571710  0.4344347044703620
  0.8111385150993283  0.5319168004466923  0.1243848248775850
  0.4414419218548115  0.4519140349675804  0.3449891227132597
  0.8164683016530723  0.2018965557782275  0.3449680530117121
  0.3161163715872700  0.7016179280004160  0.3449067555228784
  0.6839860006224109  0.1261435692963929  0.6549699324565073
  0.5537325215000859  0.8720238661301754  0.3003229565276307
  0.0607130150161887  0.5421227564215533  0.7441259462843496
  0.9369350430791967  0.7823746677667986  0.1245280607261868
  0.8055715302212971  0.7024689003893911  0.2116897532072561
  0.0537807983840861  0.8731420480576777  0.3001142936219655
  0.1792690623608279  0.1226959406042282  0.3002851334327598
  0.0664541159162350  0.7018513319973351  0.3449600952786545
  0.8130468372920221  0.0415561148421537  0.6106715607770057
  0.0631872473857564  0.3708244801673637  0.4344270430215157
  0.5663027994681368  0.2019232880908993  0.3449592952097549
  0.8035565587585004  0.3720069687165013  0.3003530944883017
  0.4379102215989470  0.9559503020561662  0.4786163616632594
  0.5584020420217275  0.5374350797621199  0.3890446226198080
  0.0628037527346881  0.2058080869121257  0.4786380275111188
  0.3205013703368195  0.8745319146619425  0.7883746521665281
  0.9404376157793034  0.9584387941896314  0.6997030704087923
  0.0540464124797502  0.3725725528854432  0.3002176087642333
  0.6840709794703027  0.6260534493875584  0.6549715207085626
  0.6887663255519456  0.4577027147972434  0.5654586574948528
  0.4302505410324887  0.9528112070836866  0.2117384551951670
  0.3128905363896609  0.2058657051116334  0.4785787500790160
  0.4338718011702328  0.1257780538500617  0.6548945556004609
  0.6881897654047253  0.6203013557435638  0.4344207956946987
  0.8153242019190848  0.2083540463032234  0.6996753455131255
  0.8128793944423395  0.7059316796221460  0.4786148276477118
  0.5628730450636504  0.3703855086950932  0.4344300998265903
  0.9378099756780010  0.9558457951694603  0.4786452351474345
  0.5628531981260276  0.2057287023199190  0.4786063143130553
  0.1881497585654547  0.6202984040994108  0.4343848751180688
  0.3107546691402102  0.0423355336671199  0.7440871642261264
  0.9340655640950891  0.6260791156162699  0.6549776052194783
  0.5585410951519050  0.7132022758763986  0.8330705835737592
  0.3039971717518444  0.3724495142361962  0.3002154953935303
  0.5557400761689911  0.7023306829261585  0.2116422194393932
  0.1878601154485021  0.4558738975612801  0.4786156925786145
  0.3150841008093077  0.0412149231026899  0.8758163560558976
  0.1904196889350301  0.4583650930898126  0.6996954801241874
  0.8144003940140773  0.5426203948456562  0.8756362617148348
  0.1833886944982679  0.2885575297436997  0.3890793655470353
  0.4383698680975598  0.6203058400147845  0.4342691078183054
  0.0555425921570537  0.7022011474767055  0.2115612614117439
  0.5627770351595345  0.0328417450722371  0.1244728345149624
  0.8174908106831530  0.3625670836412233  0.1670193809455159
  0.8085739132672864  0.7141553183519910  0.8332423752463951
  0.0704109924064721  0.3745520109053090  0.7884102546957990
  0.4420450772014607  0.2963686466600197  0.8758797296533619
  0.3113129310854296  0.0324468214342687  0.1243247259749294
  0.6879225259884403  0.1201057432428024  0.4344836946879813
  0.1913756103485291  0.9519190140209870  0.3449858327208182
  0.0582186579196239  0.2128947365376727  0.8332754135076592
  0.5628518041023765  0.0417516286209513  0.6107909502003170
  0.6806205554239123  0.4524898194718488  0.2116528248727768
  0.1859717108268165  0.7917330152923783  0.7441670137810914
  0.1787885853694539  0.6220959086249085  0.3003073180962733
  0.4337240769952939  0.7875817657313593  0.3890851591982049
  0.4405512124117072  0.2853779761909607  0.2559818618570853
  0.0647048616241447  0.5417590214698719  0.8756742739047628
  0.5604244712566250  0.0422400407280742  0.7441758160409050
  0.1927992527231969  0.7960366275216358  0.8758425206594880
  0.9376713198726121  0.4557428837308026  0.4786282581086716
  0.8087581373426355  0.5375400108393624  0.3890713122703732
  0.8139095351781216  0.2076189355056931  0.5654028753480020
  0.1952978670701580  0.6245409081964114  0.7883461013128430
  0.9308286999043519  0.9530046927345641  0.2118277659346985
  0.0653343045342470  0.7083231359408886  0.6996732453600928
  0.3155712408199555  0.5353803675146783  0.2559705288507255
  0.3056248739193159  0.7023878998047451  0.2116917098694687
  0.5676913357764470  0.8620699985497811  0.1668997952560086
  0.5606208177481701  0.5421447198369115  0.7441782889198256
  0.6911826318049716  0.4519665336377351  0.3448993084286739
  0.9415923743022293  0.2962662226842258  0.8758200213737912
  0.5656601673798897  0.0354881414448778  0.2559899474698894
  0.1932840726175222  0.1117785358403698  0.1662096689975610
  0.3076590016225287  0.7143984685747793  0.8339544915579902
  0.8151036954577199  0.0424513513405195  0.8754506121961553
  0.8130957146082677  0.8712145222668510  0.4344736906827398
  0.0579914159877139  0.5377086337745046  0.3889728699467755
  0.9423880187310760  0.9523015570523008  0.3450057103939521
  0.1879960905332099  0.9559798278146053  0.4786052102505522
 
  0.00000000E+00  0.00000000E+00  0.00000000E+00
  0.00000000E+00  0.00000000E+00  0.00000000E+00
  0.00000000E+00  0.00000000E+00  0.00000000E+00
  0.00000000E+00  0.00000000E+00  0.00000000E+00
  0.00000000E+00  0.00000000E+00  0.00000000E+00
  0.00000000E+00  0.00000000E+00  0.00000000E+00
  0.00000000E+00  0.00000000E+00  0.00000000E+00
  0.00000000E+00  0.00000000E+00  0.00000000E+00
  0.00000000E+00  0.00000000E+00  0.00000000E+00
  0.00000000E+00  0.00000000E+00  0.00000000E+00
  0.00000000E+00  0.00000000E+00  0.00000000E+00
  0.00000000E+00  0.00000000E+00  0.00000000E+00
  0.00000000E+00  0.00000000E+00  0.00000000E+00
  0.00000000E+00  0.00000000E+00  0.00000000E+00
  0.00000000E+00  0.00000000E+00  0.00000000E+00
  0.00000000E+00  0.00000000E+00  0.00000000E+00
  0.00000000E+00  0.00000000E+00  0.00000000E+00
  0.00000000E+00  0.00000000E+00  0.00000000E+00
  0.00000000E+00  0.00000000E+00  0.00000000E+00
  0.00000000E+00  0.00000000E+00  0.00000000E+00
  0.00000000E+00  0.00000000E+00  0.00000000E+00
  0.00000000E+00  0.00000000E+00  0.00000000E+00
  0.00000000E+00  0.00000000E+00  0.00000000E+00
  0.00000000E+00  0.00000000E+00  0.00000000E+00
  0.00000000E+00  0.00000000E+00  0.00000000E+00
  0.00000000E+00  0.00000000E+00  0.00000000E+00
  0.00000000E+00  0.00000000E+00  0.00000000E+00
  0.00000000E+00  0.00000000E+00  0.00000000E+00
  0.00000000E+00  0.00000000E+00  0.00000000E+00
  0.00000000E+00  0.00000000E+00  0.00000000E+00
  0.00000000E+00  0.00000000E+00  0.00000000E+00
  0.00000000E+00  0.00000000E+00  0.00000000E+00
  0.00000000E+00  0.00000000E+00  0.00000000E+00
  0.00000000E+00  0.00000000E+00  0.00000000E+00
  0.00000000E+00  0.00000000E+00  0.00000000E+00
  0.00000000E+00  0.00000000E+00  0.00000000E+00
  0.00000000E+00  0.00000000E+00  0.00000000E+00
  0.00000000E+00  0.00000000E+00  0.00000000E+00
  0.00000000E+00  0.00000000E+00  0.00000000E+00
  0.00000000E+00  0.00000000E+00  0.00000000E+00
  0.00000000E+00  0.00000000E+00  0.00000000E+00
  0.00000000E+00  0.00000000E+00  0.00000000E+00
  0.00000000E+00  0.00000000E+00  0.00000000E+00
  0.00000000E+00  0.00000000E+00  0.00000000E+00
  0.00000000E+00  0.00000000E+00  0.00000000E+00
  0.00000000E+00  0.00000000E+00  0.00000000E+00
  0.00000000E+00  0.00000000E+00  0.00000000E+00
  0.00000000E+00  0.00000000E+00  0.00000000E+00
  0.00000000E+00  0.00000000E+00  0.00000000E+00
  0.00000000E+00  0.00000000E+00  0.00000000E+00
  0.00000000E+00  0.00000000E+00  0.00000000E+00
  0.00000000E+00  0.00000000E+00  0.00000000E+00
  0.00000000E+00  0.00000000E+00  0.00000000E+00
  0.00000000E+00  0.00000000E+00  0.00000000E+00
  0.00000000E+00  0.00000000E+00  0.00000000E+00
  0.00000000E+00  0.00000000E+00  0.00000000E+00
  0.00000000E+00  0.00000000E+00  0.00000000E+00
  0.00000000E+00  0.00000000E+00  0.00000000E+00
  0.00000000E+00  0.00000000E+00  0.00000000E+00
  0.00000000E+00  0.00000000E+00  0.00000000E+00
  0.00000000E+00  0.00000000E+00  0.00000000E+00
  0.00000000E+00  0.00000000E+00  0.00000000E+00
  0.00000000E+00  0.00000000E+00  0.00000000E+00
  0.00000000E+00  0.00000000E+00  0.00000000E+00
  0.00000000E+00  0.00000000E+00  0.00000000E+00
  0.00000000E+00  0.00000000E+00  0.00000000E+00
  0.00000000E+00  0.00000000E+00  0.00000000E+00
  0.00000000E+00  0.00000000E+00  0.00000000E+00
  0.00000000E+00  0.00000000E+00  0.00000000E+00
  0.00000000E+00  0.00000000E+00  0.00000000E+00
  0.00000000E+00  0.00000000E+00  0.00000000E+00
  0.00000000E+00  0.00000000E+00  0.00000000E+00
  0.00000000E+00  0.00000000E+00  0.00000000E+00
  0.00000000E+00  0.00000000E+00  0.00000000E+00
  0.00000000E+00  0.00000000E+00  0.00000000E+00
  0.00000000E+00  0.00000000E+00  0.00000000E+00
  0.00000000E+00  0.00000000E+00  0.00000000E+00
  0.00000000E+00  0.00000000E+00  0.00000000E+00
  0.00000000E+00  0.00000000E+00  0.00000000E+00
  0.00000000E+00  0.00000000E+00  0.00000000E+00
  0.00000000E+00  0.00000000E+00  0.00000000E+00
  0.00000000E+00  0.00000000E+00  0.00000000E+00
  0.00000000E+00  0.00000000E+00  0.00000000E+00
  0.00000000E+00  0.00000000E+00  0.00000000E+00
  0.00000000E+00  0.00000000E+00  0.00000000E+00
  0.00000000E+00  0.00000000E+00  0.00000000E+00
  0.00000000E+00  0.00000000E+00  0.00000000E+00
  0.00000000E+00  0.00000000E+00  0.00000000E+00
  0.00000000E+00  0.00000000E+00  0.00000000E+00
  0.00000000E+00  0.00000000E+00  0.00000000E+00
  0.00000000E+00  0.00000000E+00  0.00000000E+00
  0.00000000E+00  0.00000000E+00  0.00000000E+00
  0.00000000E+00  0.00000000E+00  0.00000000E+00
  0.00000000E+00  0.00000000E+00  0.00000000E+00
  0.00000000E+00  0.00000000E+00  0.00000000E+00
  0.00000000E+00  0.00000000E+00  0.00000000E+00
  0.00000000E+00  0.00000000E+00  0.00000000E+00
  0.00000000E+00  0.00000000E+00  0.00000000E+00
  0.00000000E+00  0.00000000E+00  0.00000000E+00
  0.00000000E+00  0.00000000E+00  0.00000000E+00
  0.00000000E+00  0.00000000E+00  0.00000000E+00
  0.00000000E+00  0.00000000E+00  0.00000000E+00
  0.00000000E+00  0.00000000E+00  0.00000000E+00
  0.00000000E+00  0.00000000E+00  0.00000000E+00
  0.00000000E+00  0.00000000E+00  0.00000000E+00
  0.00000000E+00  0.00000000E+00  0.00000000E+00
  0.00000000E+00  0.00000000E+00  0.00000000E+00
  0.00000000E+00  0.00000000E+00  0.00000000E+00
  0.00000000E+00  0.00000000E+00  0.00000000E+00
  0.00000000E+00  0.00000000E+00  0.00000000E+00
  0.00000000E+00  0.00000000E+00  0.00000000E+00
  0.00000000E+00  0.00000000E+00  0.00000000E+00
  0.00000000E+00  0.00000000E+00  0.00000000E+00
  0.00000000E+00  0.00000000E+00  0.00000000E+00
  0.00000000E+00  0.00000000E+00  0.00000000E+00
  0.00000000E+00  0.00000000E+00  0.00000000E+00
  0.00000000E+00  0.00000000E+00  0.00000000E+00
  0.00000000E+00  0.00000000E+00  0.00000000E+00
  0.00000000E+00  0.00000000E+00  0.00000000E+00
  0.00000000E+00  0.00000000E+00  0.00000000E+00
  0.00000000E+00  0.00000000E+00  0.00000000E+00
  0.00000000E+00  0.00000000E+00  0.00000000E+00
  0.00000000E+00  0.00000000E+00  0.00000000E+00
  0.00000000E+00  0.00000000E+00  0.00000000E+00
  0.00000000E+00  0.00000000E+00  0.00000000E+00
  0.00000000E+00  0.00000000E+00  0.00000000E+00
  0.00000000E+00  0.00000000E+00  0.00000000E+00
  0.00000000E+00  0.00000000E+00  0.00000000E+00
  0.00000000E+00  0.00000000E+00  0.00000000E+00
  0.00000000E+00  0.00000000E+00  0.00000000E+00
  0.00000000E+00  0.00000000E+00  0.00000000E+00
  0.00000000E+00  0.00000000E+00  0.00000000E+00
  0.00000000E+00  0.00000000E+00  0.00000000E+00
  0.00000000E+00  0.00000000E+00  0.00000000E+00
  0.00000000E+00  0.00000000E+00  0.00000000E+00
  0.00000000E+00  0.00000000E+00  0.00000000E+00
  0.00000000E+00  0.00000000E+00  0.00000000E+00
  0.00000000E+00  0.00000000E+00  0.00000000E+00
  0.00000000E+00  0.00000000E+00  0.00000000E+00
  0.00000000E+00  0.00000000E+00  0.00000000E+00
  0.00000000E+00  0.00000000E+00  0.00000000E+00
  0.00000000E+00  0.00000000E+00  0.00000000E+00
  0.00000000E+00  0.00000000E+00  0.00000000E+00
  0.00000000E+00  0.00000000E+00  0.00000000E+00
  0.00000000E+00  0.00000000E+00  0.00000000E+00
  0.00000000E+00  0.00000000E+00  0.00000000E+00
  0.00000000E+00  0.00000000E+00  0.00000000E+00
  0.00000000E+00  0.00000000E+00  0.00000000E+00
  0.00000000E+00  0.00000000E+00  0.00000000E+00
  0.00000000E+00  0.00000000E+00  0.00000000E+00
  0.00000000E+00  0.00000000E+00  0.00000000E+00
  0.00000000E+00  0.00000000E+00  0.00000000E+00
  0.00000000E+00  0.00000000E+00  0.00000000E+00
  0.00000000E+00  0.00000000E+00  0.00000000E+00
  0.00000000E+00  0.00000000E+00  0.00000000E+00
  0.00000000E+00  0.00000000E+00  0.00000000E+00
  0.00000000E+00  0.00000000E+00  0.00000000E+00
  0.00000000E+00  0.00000000E+00  0.00000000E+00
  0.00000000E+00  0.00000000E+00  0.00000000E+00
  0.00000000E+00  0.00000000E+00  0.00000000E+00
  0.00000000E+00  0.00000000E+00  0.00000000E+00
  0.00000000E+00  0.00000000E+00  0.00000000E+00
  0.00000000E+00  0.00000000E+00  0.00000000E+00
  0.00000000E+00  0.00000000E+00  0.00000000E+00
  0.00000000E+00  0.00000000E+00  0.00000000E+00
  0.00000000E+00  0.00000000E+00  0.00000000E+00
  0.00000000E+00  0.00000000E+00  0.00000000E+00
  0.00000000E+00  0.00000000E+00  0.00000000E+00
  0.00000000E+00  0.00000000E+00  0.00000000E+00
  0.00000000E+00  0.00000000E+00  0.00000000E+00
  0.00000000E+00  0.00000000E+00  0.00000000E+00
  0.00000000E+00  0.00000000E+00  0.00000000E+00
  0.00000000E+00  0.00000000E+00  0.00000000E+00
  0.00000000E+00  0.00000000E+00  0.00000000E+00
  0.00000000E+00  0.00000000E+00  0.00000000E+00
  0.00000000E+00  0.00000000E+00  0.00000000E+00
  0.00000000E+00  0.00000000E+00  0.00000000E+00
  0.00000000E+00  0.00000000E+00  0.00000000E+00
  0.00000000E+00  0.00000000E+00  0.00000000E+00
  0.00000000E+00  0.00000000E+00  0.00000000E+00
  0.00000000E+00  0.00000000E+00  0.00000000E+00
  0.00000000E+00  0.00000000E+00  0.00000000E+00
  0.00000000E+00  0.00000000E+00  0.00000000E+00
  0.00000000E+00  0.00000000E+00  0.00000000E+00
  0.00000000E+00  0.00000000E+00  0.00000000E+00
  0.00000000E+00  0.00000000E+00  0.00000000E+00
  0.00000000E+00  0.00000000E+00  0.00000000E+00
  0.00000000E+00  0.00000000E+00  0.00000000E+00
  0.00000000E+00  0.00000000E+00  0.00000000E+00
  0.00000000E+00  0.00000000E+00  0.00000000E+00
  0.00000000E+00  0.00000000E+00  0.00000000E+00
  0.00000000E+00  0.00000000E+00  0.00000000E+00
  0.00000000E+00  0.00000000E+00  0.00000000E+00
  0.00000000E+00  0.00000000E+00  0.00000000E+00
  0.00000000E+00  0.00000000E+00  0.00000000E+00
  0.00000000E+00  0.00000000E+00  0.00000000E+00
  0.00000000E+00  0.00000000E+00  0.00000000E+00
  0.00000000E+00  0.00000000E+00  0.00000000E+00
  0.00000000E+00  0.00000000E+00  0.00000000E+00
  0.00000000E+00  0.00000000E+00  0.00000000E+00
  0.00000000E+00  0.00000000E+00  0.00000000E+00
  0.00000000E+00  0.00000000E+00  0.00000000E+00
  0.00000000E+00  0.00000000E+00  0.00000000E+00
  0.00000000E+00  0.00000000E+00  0.00000000E+00
  0.00000000E+00  0.00000000E+00  0.00000000E+00
  0.00000000E+00  0.00000000E+00  0.00000000E+00
  0.00000000E+00  0.00000000E+00  0.00000000E+00
  0.00000000E+00  0.00000000E+00  0.00000000E+00
  0.00000000E+00  0.00000000E+00  0.00000000E+00
  0.00000000E+00  0.00000000E+00  0.00000000E+00
  0.00000000E+00  0.00000000E+00  0.00000000E+00
  0.00000000E+00  0.00000000E+00  0.00000000E+00
  0.00000000E+00  0.00000000E+00  0.00000000E+00
  0.00000000E+00  0.00000000E+00  0.00000000E+00
  0.00000000E+00  0.00000000E+00  0.00000000E+00
  0.00000000E+00  0.00000000E+00  0.00000000E+00
  0.00000000E+00  0.00000000E+00  0.00000000E+00
  0.00000000E+00  0.00000000E+00  0.00000000E+00
  0.00000000E+00  0.00000000E+00  0.00000000E+00
  0.00000000E+00  0.00000000E+00  0.00000000E+00
  0.00000000E+00  0.00000000E+00  0.00000000E+00
  0.00000000E+00  0.00000000E+00  0.00000000E+00
  0.00000000E+00  0.00000000E+00  0.00000000E+00
  0.00000000E+00  0.00000000E+00  0.00000000E+00
  0.00000000E+00  0.00000000E+00  0.00000000E+00
  0.00000000E+00  0.00000000E+00  0.00000000E+00
  0.00000000E+00  0.00000000E+00  0.00000000E+00
  0.00000000E+00  0.00000000E+00  0.00000000E+00
  0.00000000E+00  0.00000000E+00  0.00000000E+00
  0.00000000E+00  0.00000000E+00  0.00000000E+00
  0.00000000E+00  0.00000000E+00  0.00000000E+00
  0.00000000E+00  0.00000000E+00  0.00000000E+00
  0.00000000E+00  0.00000000E+00  0.00000000E+00
  0.00000000E+00  0.00000000E+00  0.00000000E+00
  0.00000000E+00  0.00000000E+00  0.00000000E+00
  0.00000000E+00  0.00000000E+00  0.00000000E+00
  0.00000000E+00  0.00000000E+00  0.00000000E+00
  0.00000000E+00  0.00000000E+00  0.00000000E+00
  0.00000000E+00  0.00000000E+00  0.00000000E+00
  0.00000000E+00  0.00000000E+00  0.00000000E+00
  0.00000000E+00  0.00000000E+00  0.00000000E+00
  0.00000000E+00  0.00000000E+00  0.00000000E+00
  0.00000000E+00  0.00000000E+00  0.00000000E+00
  0.00000000E+00  0.00000000E+00  0.00000000E+00
  0.00000000E+00  0.00000000E+00  0.00000000E+00
  0.00000000E+00  0.00000000E+00  0.00000000E+00
  0.00000000E+00  0.00000000E+00  0.00000000E+00