FeMn_288_15                             
    1.000000000000000     
     9.7266779999999997    0.0000000000000000    0.0000000000000000
     0.0000000000000000    8.4235500000000005    0.0000000000000000
     0.0000000000000000    0.0000000000000000   45.0000000000000000
   Fe   Mn
   273    15
Direct
  0.3124302972115728  0.3661735059835944  0.1681757305401677
  0.1866630381927055  0.2831059325565536  0.1259374127538080
  0.1873861899513236  0.1177317847286175  0.3015681778414747
  0.5623826619907291  0.0358352770600344  0.3899981333188884
  0.9383610062024538  0.1265249563183544  0.7869195695153486
  0.5628812249182705  0.3722384594368928  0.5215543130860347
  0.4374135587303305  0.2838393191366000  0.2572748138729774
  0.9375535482965874  0.6164741462835236  0.1681867859197936
  0.5630057797822647  0.7051898995489101  0.4785502415673914
  0.3118634453565953  0.7054737595729642  0.4786210651288960
  0.1878626636670198  0.6225907661609711  0.5214028837106959
  0.0624326041626822  0.7103518686927522  0.6983808366837856
  0.1873694210153366  0.6174904743022682  0.3014113919182723
  0.8119134064540154  0.3660656942241339  0.1681951149163926
  0.6879733413106660  0.4572459329713973  0.5651354611744162
  0.0620338404114001  0.5464640071299781  0.8741895153742444
  0.4371049882779928  0.6149434039742009  0.1681988017430898
  0.9371919455381795  0.4614268946943554  0.8319742584163049
  0.1872141026262124  0.4518491857822192  0.3461136244939452
  0.5623938501687851  0.3679385297940165  0.3015323756054061
  0.4379926492936765  0.1158947197274465  0.1681521856840116
  0.4374350291497504  0.7939016930912643  0.8742268934712134
  0.0623639288904393  0.8764730494503880  0.7868618041531595
  0.6878221526985041  0.2940687616073643  0.7427703035181439
  0.8125120198772734  0.7071677336536560  0.5652962207222072
  0.5623561544658021  0.2075017349883597  0.5653333662583345
  0.9371521905760456  0.1208035815013771  0.4348232208162476
  0.8121920547343650  0.2007707032473215  0.2130449447262470
  0.8122518411743209  0.8771438490266256  0.7869476085975526
  0.4376525780467291  0.9601144972170322  0.6984773221753905
  0.6878475910549651  0.7938440819833680  0.7428330293972972
  0.5621982517269364  0.5342986413156402  0.2572945239573706
  0.9370370180770394  0.9559460263144849  0.4786127849148354
  0.9372935886462773  0.6176135661377952  0.3015328525515775
  0.1868563431611748  0.1157355872329293  0.1682427893848772
  0.9377948744002295  0.9505585757969094  0.2130314019769244
  0.8129480137981822  0.7124835999415008  0.8316448179207544
  0.9366155031180574  0.7837462505664159  0.2572792044715167
  0.0623154394325589  0.0338150344603275  0.2571724295287998
  0.4377868112371011  0.2919809922902107  0.6099060822881711
  0.1882276743724175  0.9618630914194306  0.8318651534904571
  0.1877020533497271  0.6263221462375190  0.6538933295566661
  0.6870420835416112  0.4516420292736070  0.3460049790089862
  0.3125694692023492  0.7071683986978231  0.5651782405382864
  0.3128251636828348  0.8773203467611022  0.7869080781200353
  0.4378078500778593  0.9506731857386810  0.2129697066677290
  0.4375496493126707  0.1223692681621663  0.5214639997215005
  0.5619273529010008  0.5464676189956090  0.8740418074502563
  0.1873919519966112  0.9552539555360677  0.4785681675457407
  0.3120668943771984  0.3709862095092086  0.4349215954759170
  0.5633246103485432  0.7121238698275068  0.8317362670986668
  0.8125490932182693  0.2102354233691696  0.6983487018129886
  0.5620965812482811  0.7014540925798711  0.3459939979452045
  0.0621584842458685  0.2014733725168890  0.3460223370572724
  0.4375412961628456  0.2852211250603073  0.3900832011107588
  0.4375371182056942  0.4598613383953539  0.6984308243910746
  0.0621536416915907  0.5359498778700942  0.3900452426797791
  0.5627411969388093  0.8679586638097188  0.3014488809727270
  0.4374746127344548  0.9570313647615539  0.5652478344971865
  0.3125626419397178  0.8722076305641803  0.5214356239559620
  0.6873883639340073  0.9601340843876888  0.6983862101120200
  0.3130145639846440  0.0444502460197165  0.7426967452339792
  0.4374369642962434  0.4515433319269643  0.3460907893082213
  0.4372938852188575  0.1180014570048074  0.3014909388635243
  0.6887882953216998  0.7946312428011481  0.8740997298963157
  0.8123888071602107  0.8656084241044801  0.1682486580798477
  0.9372410546365895  0.2861951988911299  0.3900747418907944
  0.8117908367562573  0.3721456883357596  0.5215617931406461
  0.0629435024349479  0.8764330209799996  0.6540067841736839
  0.3129056902274252  0.8763555839808891  0.6538781651423521
  0.0627673912727523  0.7078358292855289  0.5650651462708803
  0.0624647564642467  0.0438835876146300  0.7428692828758576
  0.5626021537065133  0.0417075469714154  0.6099824881420730
  0.1881407871948502  0.7941086638056812  0.7427435170916098
  0.4375158831507504  0.6181834532544888  0.3015198500585354
  0.6875781295822608  0.6181149126516375  0.3015607137439316
  0.8125278509155777  0.3765573913911783  0.6538942775990907
  0.4375078715698713  0.4571637637632401  0.5651550346687639
  0.9375298534902846  0.7923245301104267  0.6098914490049605
  0.5623146497744239  0.2053785533933246  0.4786900792157576
  0.6873994829912333  0.9516643304146053  0.3460161815408046
  0.5626005368760183  0.5315394304759903  0.1258314454549012
  0.5627942378232508  0.8762829701951673  0.6538684381587918
  0.9372658184798395  0.7938438231336250  0.7427195781337856
  0.1873670666482152  0.2935541702362980  0.8743362953681661
  0.1874278342694574  0.6205751458123190  0.4348318365505475
  0.4376339331272571  0.6223630008090248  0.5214749219178847
  0.3125771622016078  0.0418265391174129  0.6099019276180736
  0.4368949354368750  0.7857426431013800  0.3898949944631420
  0.3129254593410116  0.0455300608516705  0.8740264999396181
  0.3126473806697012  0.8677892755724073  0.3016008779877044
  0.1872571738010801  0.7835158322552098  0.2571881052535203
  0.0622645998016443  0.0356608338704307  0.3900708297004672
  0.6871040644878935  0.2838657621015182  0.2572674108737277
  0.6873491108075001  0.7921704735208448  0.6100365617218033
  0.5622171566079750  0.0337896626201334  0.2572865677000492
  0.3125278615436320  0.8706996944457936  0.4348303070802766
  0.8122641052806568  0.0445615501150389  0.8740732851147752
  0.4380803028502772  0.2833264654650274  0.1257518909151538
  0.5626332630231793  0.7005067063334649  0.2130644410309848
  0.6877679262318327  0.1261532848707221  0.6539711177291810
  0.6875281341853260  0.1179508404213091  0.3014887244546166
  0.5626075393841836  0.2096787837986693  0.6983647785777191
  0.9384789047563232  0.2832610052606777  0.1259429559417873
  0.8125247021760458  0.5363014695460961  0.3899708018149297
  0.6865788960070117  0.1161554175524627  0.1681981510447350
  0.3120138289455350  0.8658522621314432  0.1682297024228016
  0.5628641964270188  0.3763220510471015  0.6539492143783230
  0.5626273443699085  0.7069403505221131  0.5653122566794784
  0.0626403125577787  0.7113160737772460  0.8317500329857075
  0.1872453787838426  0.2855073064024746  0.3900895320076460
  0.4370695261624622  0.9624031353950319  0.8317423006007493
  0.0631938115796542  0.5435124105559044  0.7427953288179457
  0.3125554347629920  0.3777138157372855  0.7868442551923954
  0.3129018307802306  0.2072102144538766  0.5651280777183357
  0.0620290839851436  0.8725826511790064  0.5214749262285266
  0.5627540268775469  0.5358527122720884  0.3899083321532669
  0.3129140780635528  0.5442258647938146  0.7426440015300028
  0.9373411473697909  0.9511584192599400  0.3458920920947509
  0.8129750775521972  0.5420204540004943  0.6099577648010955
  0.6872776076491131  0.2915936895869256  0.6099389765181656
  0.6879829246542823  0.7834024147921164  0.1260441989513734
  0.4372466198221726  0.4504118974002029  0.2130718337114628
  0.8124311869764553  0.8706143551269402  0.4347011001034779
  0.6871809794214064  0.6220784701509241  0.5214181773097807
  0.8124176851559466  0.2013001916511417  0.3460134231339475
  0.4367158702299321  0.6206851547884471  0.4348313990044764
  0.1870621184098963  0.9511490533160722  0.3460322916095101
  0.5621755879740097  0.8773802030959402  0.7868868221087972
  0.3130697064136717  0.5463482992352088  0.8742295380379668
  0.3120530850931810  0.2015066401373892  0.3461018445462446
  0.6876226278766771  0.4560507095996905  0.4786138559704296
  0.4380955968386659  0.2941150636491721  0.7427340233530811
  0.6873915819571190  0.6286584979074566  0.7869416288146137
  0.0622970730609089  0.3670948606698562  0.3016529763891388
  0.1875886635771688  0.9511131566314108  0.2130868577200866
  0.5618159491127499  0.8718447271414851  0.5214167986078417
  0.1868249641655087  0.1267976716437308  0.7868615015726450
  0.5629985394392834  0.5441235976627643  0.7426956650428503
  0.4376803111065455  0.7919653772379468  0.6100278279864251
  0.6880637508274114  0.9626292130645214  0.8317310468106401
  0.8131344932573813  0.5436504583968510  0.7426445773530531
  0.1878142425204227  0.1226343482536092  0.5214035329680679
  0.5625991217104813  0.5421850121777528  0.6099922819492389
  0.8122402193180105  0.0359002986735107  0.3899876978986715
  0.3124304964207749  0.0318530869198438  0.1260187277847731
  0.6882241514324241  0.4609386787406917  0.8318924315084671
  0.1878818457194706  0.4601457341676249  0.6984450073872672
  0.8123507783387593  0.7012925940077840  0.3460022044937473
  0.4373948472061951  0.1205267308000851  0.4348568422795042
  0.5621055002541282  0.8655984877749607  0.1683149038004376
  0.3121061237746774  0.7015110784386613  0.3461664081368907
  0.0626689950319130  0.2070041676118807  0.5651519968777896
  0.9369079095848303  0.4516882803669999  0.3461290985975445
  0.6873793838859216  0.2860626690250411  0.3901231278006509
  0.8125591251479427  0.3711397584533457  0.4347645895212962
  0.4374479879708865  0.7839328418759178  0.2572342943596895
  0.5627886146741329  0.2003748687713506  0.2130896769076496
  0.6871740809326593  0.7859263597376228  0.3900786601228494
  0.8122123559257283  0.2127307176049184  0.8318441147212131
  0.4376360904466629  0.6264156659952124  0.6540009317097988
  0.8123157961342652  0.0417273643647046  0.6099819849997626
  0.9371395726672950  0.2948942140736011  0.8742287299875645
  0.9376963857009117  0.4504292850523083  0.2129699256570230
  0.8127014038774618  0.7003100880249568  0.2130498406883292
  0.8119863702733058  0.3773992181030172  0.7869890980512058
  0.9376549232409104  0.2938900026305393  0.7427807548075555
  0.8123465376760959  0.3677543900753605  0.3014927569432233
  0.1879041655781147  0.4504206083368529  0.2129493231711173
  0.0622459677328657  0.3709013477377460  0.4348061344281575
  0.3124941194253359  0.7104655400557039  0.6984835864993467
  0.6878178714651807  0.9505139639221544  0.2129952707522944
  0.9375380347253228  0.4569368184899414  0.5651567429473239
  0.9371662217164837  0.1153683506891895  0.1681899223962713
  0.5638705023997220  0.2121837955349422  0.8317675324346111
  0.8124397340509998  0.8765402036639278  0.6539311264893402
  0.6875727878302309  0.1273135791707684  0.7869917025682206
  0.1868405273063331  0.6168844003277346  0.1681132968367666
  0.6871631721505220  0.6209173943617063  0.4348244528630946
  0.3125996319353561  0.3717244901708782  0.5214647440381711
  0.3123725442123685  0.5421184843059711  0.6099638593305076
  0.4383364600221182  0.4620276918576025  0.8320208718268652
  0.1874133095505811  0.2921747666547452  0.6099397983520846
  0.1877351677755267  0.9572251478588149  0.5651475833689266
  0.3125756283014112  0.3679766950600921  0.3014840237840682
  0.3129261163155083  0.3764850456369519  0.6538777854436560
  0.3133071277315150  0.2011223448649721  0.2130154045914287
  0.0621805381857371  0.8710803441974186  0.4346513968300339
  0.4369820104729151  0.4560808468266659  0.4786603744869080
  0.8122629155085495  0.5322333425557811  0.1259329151308281
  0.5631409042984787  0.0436104916134212  0.7426421256091333
  0.9373456011046678  0.1218835531935116  0.5214376183933851
  0.3125335466701470  0.2098770339895458  0.6983514878829041
  0.1871540244900983  0.1207249773992104  0.4349064442638044
  0.6871266648491158  0.6149271916018797  0.1682091946664024
  0.4375463490875055  0.9558274973609994  0.4785985663888311
  0.1873725015890058  0.7858260363882332  0.3899570667661989
  0.9377413938983091  0.9570569137475824  0.5652571169375212
  0.4379528283674761  0.1259024463072381  0.6538910049906073
  0.0619580682212802  0.2101804017136132  0.6983410064428515
  0.3117631610400369  0.5339633413892138  0.2573438450257640
  0.9377398751937641  0.6263648575683166  0.6539552710991878
  0.1873579263817340  0.7939168790151746  0.8741461813744327
  0.0620889960324465  0.3655539627330995  0.1682716407174177
  0.5625579423488426  0.3773304993152733  0.7868988649213676
  0.0628106894770174  0.3717763551527535  0.5214681157349443
  0.3129283269031548  0.7005788198670836  0.2130338822218445
  0.0626800516019755  0.0420758230597014  0.6099461569921927
  0.3130687531036979  0.5322926854575859  0.1258680456140176
  0.5625483400943735  0.7105492035924084  0.6984629392332511
  0.0631131120351262  0.7054916528602382  0.4786274140314443
  0.9368609148768554  0.7940277406973536  0.8741849668254147
  0.3118587639668795  0.0339504503352865  0.2572561006468529
  0.4369032896420568  0.9515965061901394  0.3458462195613941
  0.0623252184156775  0.5339414680829887  0.2573274370450478
  0.4380211999745834  0.7943286777519951  0.7427150820317288
  0.0624614407045804  0.0331492238730154  0.1258923843877579
  0.9371494492076009  0.9601879403419761  0.6984366441362977
  0.0631532183527975  0.2119578278364359  0.8319047514788187
  0.8122377706031516  0.5342984622025063  0.2573005851129865
  0.3121473336020775  0.2056098574752383  0.4786585342994183
  0.6872891635401236  0.4600735737401304  0.6984708465388455
  0.1879416500765998  0.9602396423242514  0.6983336684433558
  0.4371156318068075  0.1267246156164967  0.7867677428852604
  0.4371044706598146  0.2940845451169407  0.8741512719589214
  0.0623288560314654  0.2058056547082911  0.4786250841247471
  0.6871255208817674  0.7839914201351558  0.2572486658847010
  0.8123001334953427  0.8676543864364701  0.3015401708384315
  0.8128684423242759  0.0433582378463975  0.7425863006022830
  0.9372849375049587  0.2919403168212535  0.6099420003147977
  0.9376057671792670  0.1177577408359806  0.3015529944869799
  0.0619216191130986  0.0450684980876435  0.8740384767581583
  0.5620815019590255  0.8703964482553552  0.4349142442546120
  0.4370936163170273  0.7836815599696646  0.1260177921420348
  0.8126953896047245  0.2053970220520952  0.4786340556239268
  0.8114654498223606  0.7052752352829184  0.4786138094028067
  0.1877325700284664  0.1266486095146492  0.6539574785988310
  0.0623051444552504  0.5421097443178062  0.6099244806871403
  0.5623960707917592  0.0327144041057564  0.1260120927656898
  0.0624113686794214  0.5327467919123459  0.1258435157367266
  0.6878274561354397  0.6265331196357629  0.6540486038914778
  0.5621524035406136  0.3711678073901284  0.4348699970083234
  0.1873521803769983  0.6263188724090373  0.7870055728028029
  0.6882186522826561  0.4506013514050434  0.2130938187884015
  0.9377324862080376  0.1267809340680126  0.6538797671541201
  0.1870399167315163  0.4555222855123089  0.4785562774236209
  0.9383719792333340  0.9618339035550997  0.8315624907416178
  0.3120100252222528  0.5356173435842635  0.3900753514790992
  0.6870879436969249  0.2832557099928216  0.1257881645205547
  0.8122474459644839  0.0336953457526242  0.2572509377691539
  0.8126886341847013  0.2071262681676457  0.5651986988928908
  0.9370907884750442  0.6273518133538556  0.7870816533128676
  0.6874988724026924  0.9566365656156302  0.5650197091795939
  0.0625419798256979  0.2009999904511035  0.2130440173281875
  0.8125524273769180  0.7102938172039228  0.6984486537947092
  0.8136373988990648  0.8725325958030067  0.5214542426400660
  0.9378296955748908  0.4554362017206658  0.4786350263645197
  0.9376913628764295  0.7856384345719456  0.3899261397801340
  0.1874870320847331  0.4572917517888663  0.5652088346905769
  0.8130203769219740  0.0319722161598187  0.1260933850329570
  0.9371509327984051  0.2838332929870894  0.2572577588875580
  0.0617906988088479  0.7013373311173310  0.3461055856683588
  0.9379491391395307  0.7831853462492669  0.1258283857872881
  0.5632375118805880  0.0455717533826338  0.8739410875021725
  0.4379834075749740  0.6275149437974571  0.7869949450553950
  0.9375943013391358  0.6211138408967045  0.4350011278847618
  0.6872544114715742  0.1235545240863924  0.5212589630412824
  0.1876435651933080  0.7923950501868290  0.6101046324465067
  0.1884908511999850  0.4617090582303171  0.8321320975074484
  0.0621591434606308  0.8673610202465710  0.3014746279095538
  0.1870457095349210  0.7828325670067983  0.1258470738830495
  0.8132318745238375  0.5456598666178990  0.8741753727606570
  0.0619695970089611  0.8653967677957928  0.1682341677504383
  0.3125851580968124  0.0360947273028436  0.3898594634904867
  0.3132444701623356  0.7119519140792240  0.8323801508406605
  0.5621476263744773  0.3655323750178036  0.1674589093582191
  0.9375108592436133  0.6226645520340721  0.5213888155592371
  0.0628319018534324  0.7012701968125616  0.2132567235803949
  0.1878885207649867  0.2945079583563879  0.7427617823234747
  0.0634306723315501  0.3761300735903618  0.6537221997976009
  0.5617188231628706  0.2012329662576651  0.3461319827136755
  0.3126503258607351  0.2126201465058949  0.8324571472965766
  0.6885224911217842  0.2939756725641871  0.8737658558182427
  0.6873803160770282  0.9555220377769575  0.4786587046458479
  0.6872646795042477  0.1214043739453848  0.4346615068894676
  0.1871497944557217  0.2837093548367517  0.2571773486306928
  0.9372288542414851  0.4599094077102286  0.6985989495459982
  0.0624226816232606  0.3768795892984097  0.7867396693573583
 
  0.00000000E+00  0.00000000E+00  0.00000000E+00
  0.00000000E+00  0.00000000E+00  0.00000000E+00
  0.00000000E+00  0.00000000E+00  0.00000000E+00
  0.00000000E+00  0.00000000E+00  0.00000000E+00
  0.00000000E+00  0.00000000E+00  0.00000000E+00
  0.00000000E+00  0.00000000E+00  0.00000000E+00
  0.00000000E+00  0.00000000E+00  0.00000000E+00
  0.00000000E+00  0.00000000E+00  0.00000000E+00
  0.00000000E+00  0.00000000E+00  0.00000000E+00
  0.00000000E+00  0.00000000E+00  0.00000000E+00
  0.00000000E+00  0.00000000E+00  0.00000000E+00
  0.00000000E+00  0.00000000E+00  0.00000000E+00
  0.00000000E+00  0.00000000E+00  0.00000000E+00
  0.00000000E+00  0.00000000E+00  0.00000000E+00
  0.00000000E+00  0.00000000E+00  0.00000000E+00
  0.00000000E+00  0.00000000E+00  0.00000000E+00
  0.00000000E+00  0.00000000E+00  0.00000000E+00
  0.00000000E+00  0.00000000E+00  0.00000000E+00
  0.00000000E+00  0.00000000E+00  0.00000000E+00
  0.00000000E+00  0.00000000E+00  0.00000000E+00
  0.00000000E+00  0.00000000E+00  0.00000000E+00
  0.00000000E+00  0.00000000E+00  0.00000000E+00
  0.00000000E+00  0.00000000E+00  0.00000000E+00
  0.00000000E+00  0.00000000E+00  0.00000000E+00
  0.00000000E+00  0.00000000E+00  0.00000000E+00
  0.00000000E+00  0.00000000E+00  0.00000000E+00
  0.00000000E+00  0.00000000E+00  0.00000000E+00
  0.00000000E+00  0.00000000E+00  0.00000000E+00
  0.00000000E+00  0.00000000E+00  0.00000000E+00
  0.00000000E+00  0.00000000E+00  0.00000000E+00
  0.00000000E+00  0.00000000E+00  0.00000000E+00
  0.00000000E+00  0.00000000E+00  0.00000000E+00
  0.00000000E+00  0.00000000E+00  0.00000000E+00
  0.00000000E+00  0.00000000E+00  0.00000000E+00
  0.00000000E+00  0.00000000E+00  0.00000000E+00
  0.00000000E+00  0.00000000E+00  0.00000000E+00
  0.00000000E+00  0.00000000E+00  0.00000000E+00
  0.00000000E+00  0.00000000E+00  0.00000000E+00
  0.00000000E+00  0.00000000E+00  0.00000000E+00
  0.00000000E+00  0.00000000E+00  0.00000000E+00
  0.00000000E+00  0.00000000E+00  0.00000000E+00
  0.00000000E+00  0.00000000E+00  0.00000000E+00
  0.00000000E+00  0.00000000E+00  0.00000000E+00
  0.00000000E+00  0.00000000E+00  0.00000000E+00
  0.00000000E+00  0.00000000E+00  0.00000000E+00
  0.00000000E+00  0.00000000E+00  0.00000000E+00
  0.00000000E+00  0.00000000E+00  0.00000000E+00
  0.00000000E+00  0.00000000E+00  0.00000000E+00
  0.00000000E+00  0.00000000E+00  0.00000000E+00
  0.00000000E+00  0.00000000E+00  0.00000000E+00
  0.00000000E+00  0.00000000E+00  0.00000000E+00
  0.00000000E+00  0.00000000E+00  0.00000000E+00
  0.00000000E+00  0.00000000E+00  0.00000000E+00
  0.00000000E+00  0.00000000E+00  0.00000000E+00
  0.00000000E+00  0.00000000E+00  0.00000000E+00
  0.00000000E+00  0.00000000E+00  0.00000000E+00
  0.00000000E+00  0.00000000E+00  0.00000000E+00
  0.00000000E+00  0.00000000E+00  0.00000000E+00
  0.00000000E+00  0.00000000E+00  0.00000000E+00
  0.00000000E+00  0.00000000E+00  0.00000000E+00
  0.00000000E+00  0.00000000E+00  0.00000000E+00
  0.00000000E+00  0.00000000E+00  0.00000000E+00
  0.00000000E+00  0.00000000E+00  0.00000000E+00
  0.00000000E+00  0.00000000E+00  0.00000000E+00
  0.00000000E+00  0.00000000E+00  0.00000000E+00
  0.00000000E+00  0.00000000E+00  0.00000000E+00
  0.00000000E+00  0.00000000E+00  0.00000000E+00
  0.00000000E+00  0.00000000E+00  0.00000000E+00
  0.00000000E+00  0.00000000E+00  0.00000000E+00
  0.00000000E+00  0.00000000E+00  0.00000000E+00
  0.00000000E+00  0.00000000E+00  0.00000000E+00
  0.00000000E+00  0.00000000E+00  0.00000000E+00
  0.00000000E+00  0.00000000E+00  0.00000000E+00
  0.00000000E+00  0.00000000E+00  0.00000000E+00
  0.00000000E+00  0.00000000E+00  0.00000000E+00
  0.00000000E+00  0.00000000E+00  0.00000000E+00
  0.00000000E+00  0.00000000E+00  0.00000000E+00
  0.00000000E+00  0.00000000E+00  0.00000000E+00
  0.00000000E+00  0.00000000E+00  0.00000000E+00
  0.00000000E+00  0.00000000E+00  0.00000000E+00
  0.00000000E+00  0.00000000E+00  0.00000000E+00
  0.00000000E+00  0.00000000E+00  0.00000000E+00
  0.00000000E+00  0.00000000E+00  0.00000000E+00
  0.00000000E+00  0.00000000E+00  0.00000000E+00
  0.00000000E+00  0.00000000E+00  0.00000000E+00
  0.00000000E+00  0.00000000E+00  0.00000000E+00
  0.00000000E+00  0.00000000E+00  0.00000000E+00
  0.00000000E+00  0.00000000E+00  0.00000000E+00
  0.00000000E+00  0.00000000E+00  0.00000000E+00
  0.00000000E+00  0.00000000E+00  0.00000000E+00
  0.00000000E+00  0.00000000E+00  0.00000000E+00
  0.00000000E+00  0.00000000E+00  0.00000000E+00
  0.00000000E+00  0.00000000E+00  0.00000000E+00
  0.00000000E+00  0.00000000E+00  0.00000000E+00
  0.00000000E+00  0.00000000E+00  0.00000000E+00
  0.00000000E+00  0.00000000E+00  0.00000000E+00
  0.00000000E+00  0.00000000E+00  0.00000000E+00
  0.00000000E+00  0.00000000E+00  0.00000000E+00
  0.00000000E+00  0.00000000E+00  0.00000000E+00
  0.00000000E+00  0.00000000E+00  0.00000000E+00
  0.00000000E+00  0.00000000E+00  0.00000000E+00
  0.00000000E+00  0.00000000E+00  0.00000000E+00
  0.00000000E+00  0.00000000E+00  0.00000000E+00
  0.00000000E+00  0.00000000E+00  0.00000000E+00
  0.00000000E+00  0.00000000E+00  0.00000000E+00
  0.00000000E+00  0.00000000E+00  0.00000000E+00
  0.00000000E+00  0.00000000E+00  0.00000000E+00
  0.00000000E+00  0.00000000E+00  0.00000000E+00
  0.00000000E+00  0.00000000E+00  0.00000000E+00
  0.00000000E+00  0.00000000E+00  0.00000000E+00
  0.00000000E+00  0.00000000E+00  0.00000000E+00
  0.00000000E+00  0.00000000E+00  0.00000000E+00
  0.00000000E+00  0.00000000E+00  0.00000000E+00
  0.00000000E+00  0.00000000E+00  0.00000000E+00
  0.00000000E+00  0.00000000E+00  0.00000000E+00
  0.00000000E+00  0.00000000E+00  0.00000000E+00
  0.00000000E+00  0.00000000E+00  0.00000000E+00
  0.00000000E+00  0.00000000E+00  0.00000000E+00
  0.00000000E+00  0.00000000E+00  0.00000000E+00
  0.00000000E+00  0.00000000E+00  0.00000000E+00
  0.00000000E+00  0.00000000E+00  0.00000000E+00
  0.00000000E+00  0.00000000E+00  0.00000000E+00
  0.00000000E+00  0.00000000E+00  0.00000000E+00
  0.00000000E+00  0.00000000E+00  0.00000000E+00
  0.00000000E+00  0.00000000E+00  0.00000000E+00
  0.00000000E+00  0.00000000E+00  0.00000000E+00
  0.00000000E+00  0.00000000E+00  0.00000000E+00
  0.00000000E+00  0.00000000E+00  0.00000000E+00
  0.00000000E+00  0.00000000E+00  0.00000000E+00
  0.00000000E+00  0.00000000E+00  0.00000000E+00
  0.00000000E+00  0.00000000E+00  0.00000000E+00
  0.00000000E+00  0.00000000E+00  0.00000000E+00
  0.00000000E+00  0.00000000E+00  0.00000000E+00
  0.00000000E+00  0.00000000E+00  0.00000000E+00
  0.00000000E+00  0.00000000E+00  0.00000000E+00
  0.00000000E+00  0.00000000E+00  0.00000000E+00
  0.00000000E+00  0.00000000E+00  0.00000000E+00
  0.00000000E+00  0.00000000E+00  0.00000000E+00
  0.00000000E+00  0.00000000E+00  0.00000000E+00
  0.00000000E+00  0.00000000E+00  0.00000000E+00
  0.00000000E+00  0.00000000E+00  0.00000000E+00
  0.00000000E+00  0.00000000E+00  0.00000000E+00
  0.00000000E+00  0.00000000E+00  0.00000000E+00
  0.00000000E+00  0.00000000E+00  0.00000000E+00
  0.00000000E+00  0.00000000E+00  0.00000000E+00
  0.00000000E+00  0.00000000E+00  0.00000000E+00
  0.00000000E+00  0.00000000E+00  0.00000000E+00
  0.00000000E+00  0.00000000E+00  0.00000000E+00
  0.00000000E+00  0.00000000E+00  0.00000000E+00
  0.00000000E+00  0.00000000E+00  0.00000000E+00
  0.00000000E+00  0.00000000E+00  0.00000000E+00
  0.00000000E+00  0.00000000E+00  0.00000000E+00
  0.00000000E+00  0.00000000E+00  0.00000000E+00
  0.00000000E+00  0.00000000E+00  0.00000000E+00
  0.00000000E+00  0.00000000E+00  0.00000000E+00
  0.00000000E+00  0.00000000E+00  0.00000000E+00
  0.00000000E+00  0.00000000E+00  0.00000000E+00
  0.00000000E+00  0.00000000E+00  0.00000000E+00
  0.00000000E+00  0.00000000E+00  0.00000000E+00
  0.00000000E+00  0.00000000E+00  0.00000000E+00
  0.00000000E+00  0.00000000E+00  0.00000000E+00
  0.00000000E+00  0.00000000E+00  0.00000000E+00
  0.00000000E+00  0.00000000E+00  0.00000000E+00
  0.00000000E+00  0.00000000E+00  0.00000000E+00
  0.00000000E+00  0.00000000E+00  0.00000000E+00
  0.00000000E+00  0.00000000E+00  0.00000000E+00
  0.00000000E+00  0.00000000E+00  0.00000000E+00
  0.00000000E+00  0.00000000E+00  0.00000000E+00
  0.00000000E+00  0.00000000E+00  0.00000000E+00
  0.00000000E+00  0.00000000E+00  0.00000000E+00
  0.00000000E+00  0.00000000E+00  0.00000000E+00
  0.00000000E+00  0.00000000E+00  0.00000000E+00
  0.00000000E+00  0.00000000E+00  0.00000000E+00
  0.00000000E+00  0.00000000E+00  0.00000000E+00
  0.00000000E+00  0.00000000E+00  0.00000000E+00
  0.00000000E+00  0.00000000E+00  0.00000000E+00
  0.00000000E+00  0.00000000E+00  0.00000000E+00
  0.00000000E+00  0.00000000E+00  0.00000000E+00
  0.00000000E+00  0.00000000E+00  0.00000000E+00
  0.00000000E+00  0.00000000E+00  0.00000000E+00
  0.00000000E+00  0.00000000E+00  0.00000000E+00
  0.00000000E+00  0.00000000E+00  0.00000000E+00
  0.00000000E+00  0.00000000E+00  0.00000000E+00
  0.00000000E+00  0.00000000E+00  0.00000000E+00
  0.00000000E+00  0.00000000E+00  0.00000000E+00
  0.00000000E+00  0.00000000E+00  0.00000000E+00
  0.00000000E+00  0.00000000E+00  0.00000000E+00
  0.00000000E+00  0.00000000E+00  0.00000000E+00
  0.00000000E+00  0.00000000E+00  0.00000000E+00
  0.00000000E+00  0.00000000E+00  0.00000000E+00
  0.00000000E+00  0.00000000E+00  0.00000000E+00
  0.00000000E+00  0.00000000E+00  0.00000000E+00
  0.00000000E+00  0.00000000E+00  0.00000000E+00
  0.00000000E+00  0.00000000E+00  0.00000000E+00
  0.00000000E+00  0.00000000E+00  0.00000000E+00
  0.00000000E+00  0.00000000E+00  0.00000000E+00
  0.00000000E+00  0.00000000E+00  0.00000000E+00
  0.00000000E+00  0.00000000E+00  0.00000000E+00
  0.00000000E+00  0.00000000E+00  0.00000000E+00
  0.00000000E+00  0.00000000E+00  0.00000000E+00
  0.00000000E+00  0.00000000E+00  0.00000000E+00
  0.00000000E+00  0.00000000E+00  0.00000000E+00
  0.00000000E+00  0.00000000E+00  0.00000000E+00
  0.00000000E+00  0.00000000E+00  0.00000000E+00
  0.00000000E+00  0.00000000E+00  0.00000000E+00
  0.00000000E+00  0.00000000E+00  0.00000000E+00
  0.00000000E+00  0.00000000E+00  0.00000000E+00
  0.00000000E+00  0.00000000E+00  0.00000000E+00
  0.00000000E+00  0.00000000E+00  0.00000000E+00
  0.00000000E+00  0.00000000E+00  0.00000000E+00
  0.00000000E+00  0.00000000E+00  0.00000000E+00
  0.00000000E+00  0.00000000E+00  0.00000000E+00
  0.00000000E+00  0.00000000E+00  0.00000000E+00
  0.00000000E+00  0.00000000E+00  0.00000000E+00
  0.00000000E+00  0.00000000E+00  0.00000000E+00
  0.00000000E+00  0.00000000E+00  0.00000000E+00
  0.00000000E+00  0.00000000E+00  0.00000000E+00
  0.00000000E+00  0.00000000E+00  0.00000000E+00
  0.00000000E+00  0.00000000E+00  0.00000000E+00
  0.00000000E+00  0.00000000E+00  0.00000000E+00
  0.00000000E+00  0.00000000E+00  0.00000000E+00
  0.00000000E+00  0.00000000E+00  0.00000000E+00
  0.00000000E+00  0.00000000E+00  0.00000000E+00
  0.00000000E+00  0.00000000E+00  0.00000000E+00
  0.00000000E+00  0.00000000E+00  0.00000000E+00
  0.00000000E+00  0.00000000E+00  0.00000000E+00
  0.00000000E+00  0.00000000E+00  0.00000000E+00
  0.00000000E+00  0.00000000E+00  0.00000000E+00
  0.00000000E+00  0.00000000E+00  0.00000000E+00
  0.00000000E+00  0.00000000E+00  0.00000000E+00
  0.00000000E+00  0.00000000E+00  0.00000000E+00
  0.00000000E+00  0.00000000E+00  0.00000000E+00
  0.00000000E+00  0.00000000E+00  0.00000000E+00
  0.00000000E+00  0.00000000E+00  0.00000000E+00
  0.00000000E+00  0.00000000E+00  0.00000000E+00
  0.00000000E+00  0.00000000E+00  0.00000000E+00
  0.00000000E+00  0.00000000E+00  0.00000000E+00
  0.00000000E+00  0.00000000E+00  0.00000000E+00
  0.00000000E+00  0.00000000E+00  0.00000000E+00
  0.00000000E+00  0.00000000E+00  0.00000000E+00
  0.00000000E+00  0.00000000E+00  0.00000000E+00
  0.00000000E+00  0.00000000E+00  0.00000000E+00
  0.00000000E+00  0.00000000E+00  0.00000000E+00
  0.00000000E+00  0.00000000E+00  0.00000000E+00
  0.00000000E+00  0.00000000E+00  0.00000000E+00
  0.00000000E+00  0.00000000E+00  0.00000000E+00
  0.00000000E+00  0.00000000E+00  0.00000000E+00