FeMn_288_15                             
    1.000000000000000     
     9.7266779999999997    0.0000000000000000    0.0000000000000000
     0.0000000000000000    8.4235500000000005    0.0000000000000000
     0.0000000000000000    0.0000000000000000   45.0000000000000000
   Fe   Mn
   273    15
Direct
  0.3126894794551011  0.3652286102757937  0.1672228841249840
  0.1862053451966316  0.2809316770196483  0.1251411850280120
  0.1872111148274426  0.1169710785800439  0.3006887175048340
  0.5625212678480898  0.0362389937068023  0.3894666560894136
  0.9388787667434310  0.1293972492020415  0.7877770027968305
  0.5624957535899238  0.3727246272407771  0.5215323265427386
  0.4380457865780664  0.2826337397417861  0.2563849479261913
  0.9380463600358243  0.6154721844011020  0.1672653628619795
  0.5625973883307834  0.7049191691803919  0.4784620063412218
  0.3123951964151384  0.7052453191222096  0.4785513881450286
  0.1877151852928598  0.6224895293183239  0.5215196882723927
  0.0626249826559159  0.7111029204522551  0.6992435734281858
  0.1872405174338344  0.6167879351638209  0.3005709310244380
  0.8124773389602418  0.3651388788927889  0.1672502891007550
  0.6875464406925168  0.4572816875867644  0.5655666660346853
  0.0629416372402418  0.5481930114800880  0.8749975481465512
  0.4373352231589666  0.6142151182925006  0.1672767011665702
  0.9371308710397319  0.4624940461595491  0.8329457442788997
  0.1877939504968137  0.4526447495415157  0.3453959785184757
  0.5622431999957483  0.3673846111448784  0.3006613817028116
  0.4382046181844830  0.1148319292755744  0.1672210952167508
  0.4381322469707812  0.7968188800891298  0.8750349546065315
  0.0633495911887128  0.8793488354172276  0.7877709052943644
  0.6872682920102186  0.2951511110221312  0.7436049285213824
  0.8120846660069269  0.7072907047570195  0.5656956552185773
  0.5620262817083950  0.2074751203891210  0.5657297899767837
  0.9375127613005384  0.1208107273564422  0.4344139380764432
  0.8114213319928864  0.1978213303617735  0.2121770028595449
  0.8130424282008873  0.8800984969247203  0.7878521689956387
  0.4378586738685092  0.9607131215066329  0.6993551801780162
  0.6873593829042751  0.7950081481943045  0.7436631208509769
  0.5627014176593953  0.5329874624999903  0.2563944349133329
  0.9374804654651261  0.9554285622983484  0.4784883910765605
  0.9370897050350425  0.6168883297653109  0.3006753225415698
  0.1873842517333243  0.1147706596781379  0.1672664425539449
  0.9369023844956001  0.9477782588874571  0.2121735822332755
  0.8125398000080686  0.7135413477536674  0.8327241647672492
  0.9373141606423729  0.7825495619998505  0.2564371020794937
  0.0627583313507588  0.0324321094310603  0.2563194022851681
  0.4376932805591462  0.2913489796776661  0.6104607340272948
  0.1879135528719750  0.9627660461841300  0.8327513924934276
  0.1871178013011446  0.6255361964240324  0.6546290088141102
  0.6877776215090435  0.4526890714849248  0.3452600965903485
  0.3121250841971232  0.7073251984708127  0.5655895392242182
  0.3135032887545329  0.8803135024835772  0.7877806527210379
  0.4368557903499609  0.9479435735186141  0.2121028313241670
  0.4374293878979659  0.1225184904504556  0.5215428573669542
  0.5621464913752878  0.5484030573387640  0.8748818122370088
  0.1874204900423887  0.9550776265930444  0.4785067348091435
  0.3124408151166925  0.3709401806577961  0.4345544006138209
  0.5631821842592312  0.7130915899418925  0.8327704405495715
  0.8125831028934510  0.2106654827891007  0.6992283062388721
  0.5627020788713080  0.7023973846842066  0.3452565806198828
  0.0628037574601102  0.2023275347072022  0.3453137216200888
  0.4375982537726127  0.2860146547926173  0.3895300939282971
  0.4378385351054916  0.4606330040657533  0.6993172398250327
  0.0621599436357261  0.5364250840693850  0.3895114429090776
  0.5624994443858711  0.8674040634941479  0.3005529635848556
  0.4372111769030718  0.9572478984064812  0.5656441447361082
  0.3123760535938498  0.8726827357502375  0.5214899685874654
  0.6875585691261279  0.9607166511898576  0.6992784908381675
  0.3126556701055167  0.0454782216558407  0.7435945993038909
  0.4379605640354893  0.4525619730397981  0.3453881070377919
  0.4371285913585826  0.1173266296736651  0.3005901889805187
  0.6889815946718310  0.7972563170425053  0.8749331081363607
  0.8128467507398222  0.8647919798510160  0.1672643308267760
  0.9374408735210341  0.2867339426182888  0.3895303284360986
  0.8120358850519731  0.3727140025570891  0.5215487363876630
  0.0622156911776285  0.8755427105007342  0.6547489341969944
  0.3122909977745034  0.8754757817385601  0.6546317220239768
  0.0623790751224330  0.7076848328653014  0.5655093816793230
  0.0621472292632363  0.0451454838910524  0.7437551553393881
  0.5624980761097681  0.0412371527137023  0.6104800017853581
  0.1876443256101179  0.7953217159581590  0.7436160408700018
  0.4372481674827061  0.6175429053590746  0.3006832689300977
  0.6873909380155963  0.6173858101968343  0.3006846605263375
  0.8117832362080617  0.3756574406292227  0.6546293817165103
  0.4371602784611990  0.4571857679765625  0.5655807183204243
  0.9374348649419394  0.7916553643754592  0.6104539555027996
  0.5620247917405110  0.2054284918500961  0.4785301926481851
  0.6879788712036131  0.9525025937725994  0.3452724497990179
  0.5620283073422978  0.5297320772001565  0.1249013843844874
  0.5621475037931492  0.8753179229277556  0.6546260931101558
  0.9368336604851148  0.7950285862064639  0.7435752340077545
  0.1879985909088025  0.2961164314050321  0.8751254886666775
  0.1876605656793708  0.6204710837611388  0.4343688831441321
  0.4373322602627917  0.6228032435897431  0.5215065997533408
  0.3125517987154565  0.0411900464890207  0.6104654353333099
  0.4371265066968237  0.7863270876789595  0.3893659231506898
  0.3134034566149415  0.0472593918385849  0.8749036043765752
  0.3124073293938684  0.8671941562120183  0.3007409898435086
  0.1877553347276364  0.7823491527713373  0.2563520648234816
  0.0622357888028499  0.0362615320475457  0.3895276665501624
  0.6875953446275260  0.2826666246946631  0.2564006982777294
  0.6873157889859113  0.7916078437950331  0.6105722720417285
  0.5626563528396988  0.0326249986230195  0.2563624661023827
  0.3128088594560290  0.8704073949813629  0.4344486481597780
  0.8130700178376087  0.0466805252571199  0.8748766496593530
  0.4372849318787023  0.2808719333113577  0.1249140118056948
  0.5618106521939067  0.6975606329745045  0.2121857804060925
  0.6871043223959770  0.1253494804474871  0.6546623517554486
  0.6873014719378493  0.1172582362710471  0.3005970941218203
  0.5627703112904153  0.2103033304539548  0.6992363030011205
  0.9378703126615986  0.2810239158143846  0.1251382750153415
  0.8126113395666377  0.5367286549707835  0.3894536596088871
  0.6871222304548835  0.1149393591199883  0.1673069340105797
  0.3123882508012013  0.8650885651868372  0.1672603229783061
  0.5620587406110475  0.3754480997709268  0.6546778412810810
  0.5622466025793035  0.7071172123970171  0.5656931424146261
  0.0622014447019001  0.7122113091306848  0.8328031394385735
  0.1872868510103004  0.2861051278124065  0.3895486108578262
  0.4374769822413807  0.9631777059443255  0.8326456912587210
  0.0625820297946459  0.5451244849517267  0.7437060392906157
  0.3135390203905511  0.3807842749163201  0.7877290626147885
  0.3124655562727304  0.2072059071246653  0.5655275905569974
  0.0621697056151808  0.8729809938937040  0.5215156269146239
  0.5627638435530276  0.5364251967813392  0.3893745299245884
  0.3124358396999419  0.5455806680654394  0.7436101057519864
  0.9379493520046648  0.9518534796792562  0.3451868197670433
  0.8128448404550481  0.5414139376855056  0.6104750075058351
  0.6872303395815232  0.2911651880802301  0.6104475716177740
  0.6873311391143015  0.7810359156849952  0.1251996288384000
  0.4364730816095522  0.4476271546154024  0.2121894233674855
  0.8127579078563448  0.8705857428044581  0.4342571260266016
  0.6870501282580844  0.6226326993706223  0.5214754542921127
  0.8130665755529172  0.2022327118929572  0.3452722163147592
  0.4370612911683050  0.6207031515016783  0.4344063215755760
  0.1877300649757313  0.9519031340526819  0.3453289160808431
  0.5628477890084441  0.8802596212451994  0.7877823326824026
  0.3138798911083256  0.5481696381489229  0.8751157468878005
  0.3126033175721590  0.2023755844143036  0.3453129137243728
  0.6875850354843408  0.4553794166353559  0.4784975044043691
  0.4375603633560617  0.2953558881286138  0.7435803579135850
  0.6880718132282112  0.6313567510062338  0.7878191773572285
  0.0621622603304879  0.3665801761277735  0.3008282075644755
  0.1869382096943323  0.9481441455256642  0.2122103276097625
  0.5619878588334561  0.8724504272819590  0.5214807826585576
  0.1876640424969679  0.1293667012137013  0.7877472214974874
  0.5622980010441780  0.5453820413655471  0.7436297190570283
  0.4375386163571153  0.7913136096460902  0.6105491805446879
  0.6879583884947957  0.9634592204477416  0.8328437008433576
  0.8126280070450140  0.5450848780494032  0.7436028486435086
  0.1876209377651443  0.1225820646082608  0.5214924031111530
  0.5624554198443775  0.5414783402081091  0.6105396178915857
  0.8123024872743759  0.0363648178552118  0.3894374312381201
  0.3119881149466600  0.0299158100807026  0.1251653683158315
  0.6879674282587722  0.4622498684601887  0.8328701980764269
  0.1881035718339042  0.4609400786971500  0.6993418302013699
  0.8130003845534922  0.7023714791496054  0.3452914715195454
  0.4375531719133024  0.1206589984910648  0.4344727182692821
  0.5625822923660797  0.8644900501744390  0.1673439240355293
  0.3126466146734602  0.7023037752801611  0.3454220354665996
  0.0622391758934576  0.2070751881986074  0.5655545951254776
  0.9375859916362734  0.4526172281004566  0.3454037448052590
  0.6874493284641213  0.2867777576232873  0.3895441184793117
  0.8127352634253231  0.3711352366751295  0.4344177242779033
  0.4380232500671322  0.7827401676679678  0.2563830327470284
  0.5620023428901099  0.1973474558838704  0.2122016117008076
  0.6872869470239333  0.7864273184159736  0.3895050568284288
  0.8120725643361463  0.2135633591452935  0.8328141347235795
  0.4370671947021434  0.6255273474591098  0.6547254537724650
  0.8122906975846308  0.0411760345813455  0.6105064051777491
  0.9379332396870732  0.2972339597925037  0.8749716532726488
  0.9368962867684197  0.4476513402976773  0.2121340479720421
  0.8116146431057819  0.6975450409441439  0.2121264497502237
  0.8127204032496533  0.3800818216632338  0.7878843495519399
  0.9369569066789515  0.2950812551818697  0.7436300652790375
  0.8121699489041506  0.3670945743044959  0.3006436264584050
  0.1872268243260105  0.4476847191589960  0.2121108304852838
  0.0625565338076708  0.3707586125173498  0.4343891275367374
  0.3126420152288348  0.7111334411394131  0.6993602977294507
  0.6871939706586558  0.9478477048914321  0.2121147583892832
  0.9372239713166612  0.4569964720469510  0.5655725954803945
  0.9375531221318902  0.1144905569355028  0.1672124350230949
  0.5636593693683100  0.2129297848624693  0.8327082403597739
  0.8118321728428184  0.8754423243803282  0.6546622870193264
  0.6882971579707394  0.1298929543237060  0.7878197432492957
  0.1872176091935427  0.6157908521248745  0.1671684694914726
  0.6874600779887361  0.6208966264834364  0.4343604992325660
  0.3122903248005510  0.3723943078523185  0.5215141725349541
  0.3123459825699003  0.5413782491771915  0.6105246140413878
  0.4382336685757170  0.4631024648400801  0.8329297928583055
  0.1873959936897339  0.2914645277597236  0.6104769915038710
  0.1873546529404715  0.9572923362373512  0.5655483904517129
  0.3123531771897506  0.3674410370890041  0.3006265925677900
  0.3123095140808030  0.3755730416004205  0.6546558486333904
  0.3124427130053119  0.1979714739913102  0.2121348608880666
  0.0624115836805094  0.8708377482592889  0.4343007370123222
  0.4372815024254151  0.4553695520490942  0.4785941767698575
  0.8115844510572339  0.5301645926138324  0.1250955051559834
  0.5625092968723473  0.0449157865859601  0.7435112447842990
  0.9372895340812863  0.1224467923706663  0.5214968140334730
  0.3125527317501047  0.2103322964665742  0.6992288199593790
  0.1874222851485494  0.1207941102266176  0.4345050530450937
  0.6876250821202179  0.6141659123580026  0.1672654772286409
  0.4373404089735251  0.9554793048213178  0.4784827454928830
  0.1873582092246094  0.7861852272669029  0.3894442570729948
  0.9373352203129059  0.9571953853673901  0.5656796799766706
  0.4371541034206117  0.1251001025906340  0.6545941746254418
  0.0624030968587505  0.2106024219115423  0.6992218589861195
  0.3125227566474567  0.5325994573520495  0.2564515887542757
  0.9370298351961571  0.6254393700683814  0.6546795995125727
  0.1878867971115707  0.7965141259686978  0.8749611658395617
  0.0626300103061933  0.3645890458543032  0.1672855180527972
  0.5631620741675958  0.3801144252708875  0.7878100599240878
  0.0626721243372770  0.3724891298460523  0.5215425483176971
  0.3121982757699088  0.6978605483729192  0.2121314833106774
  0.0625793304457063  0.0414803573396453  0.6104957522954816
  0.3124102073982766  0.5302601700162840  0.1250773459904995
  0.5627690921958028  0.7110647165649233  0.6993436398993419
  0.0627217129380683  0.7054067046510544  0.4785624099541043
  0.9376362285772902  0.7968874517069721  0.8749670301155187
  0.3125261143465635  0.0325913201298752  0.2563749171994429
  0.4375098387789976  0.9523031134920176  0.3451313862962567
  0.0626720053202653  0.5326221524593898  0.2564764126852712
  0.4375246154535746  0.7954509710627673  0.7436237331535857
  0.0619588157489918  0.0309738939489653  0.1250462246110491
  0.9375360613220601  0.9607190439413170  0.6993439455523262
  0.0628012334742697  0.2124518905770316  0.8328574694478305
  0.8126704845873272  0.5328987452501294  0.2564157034954757
  0.3125471338845104  0.2053717167951850  0.4785698786704809
  0.6874012045086499  0.4607590045989770  0.6993433306427721
  0.1881166047824353  0.9608807504681162  0.6992507572166204
  0.4379035429546960  0.1295151957485087  0.7876200732876335
  0.4377012970842257  0.2967634671012425  0.8749782511119908
  0.0623126795776536  0.2053449895752564  0.4785725377320525
  0.6876044114441126  0.7828136234225450  0.2564061016216364
  0.8120709821912586  0.8672255455604470  0.3007105885291363
  0.8123218917000846  0.0447206637212887  0.7434824382529217
  0.9372944138184901  0.2913810532358811  0.6104671649520305
  0.9374637716632813  0.1169321247294433  0.3006463412112284
  0.0630820431100839  0.0471709577083802  0.8748405397935896
  0.5622891564715484  0.8704422652735729  0.4344790825845541
  0.4367654317306016  0.7812414999853401  0.1251784550960751
  0.8127718718808331  0.2053630552701862  0.4785133328034817
  0.8119854287953590  0.7051491220309321  0.4785114695126881
  0.1871714176186386  0.1256063044008353  0.6546679524472423
  0.0622595480021166  0.5414006245357493  0.6104429212183403
  0.5618127163483635  0.0307200831185438  0.1251777380669496
  0.0619604843200470  0.5308253095704190  0.1250696207221564
  0.6871728183695519  0.6256503101436852  0.6547479286363039
  0.5624659815513834  0.3709907070979463  0.4344921151270731
  0.1880830810989232  0.6294368540843016  0.7878789984624854
  0.6873077295652616  0.4476754875740925  0.2122150594935043
  0.9370443865870519  0.1257026943518975  0.6545981491440725
  0.1872753620264541  0.4552283879756843  0.4785327281197743
  0.9379985432808577  0.9627812214658439  0.8326081647543576
  0.3121813312935366  0.5361889115831060  0.3895575716316871
  0.6866945273888688  0.2809375168867447  0.1249096788467665
  0.8127692973428738  0.0324599997920915  0.2563515149991292
  0.8122290500246153  0.2071083401267662  0.5655682625556110
  0.9377043236883976  0.6301704192793280  0.7879181474948788
  0.6870838819611359  0.9569674051477358  0.5653312771966944
  0.0617997134679160  0.1980555173772920  0.2121281864714193
  0.8126330140997983  0.7108866805329260  0.6993309663787421
  0.8129489643242668  0.8727793643056772  0.5215258485880249
  0.9376487982643288  0.4550320122362301  0.4786034118452930
  0.9377634794445220  0.7860272070492635  0.3893827832607301
  0.1870343517865390  0.4573614336178159  0.5656154628823874
  0.8123075674339455  0.0299978306410812  0.1252106255179196
  0.9376239818133831  0.2824245333864090  0.2563992605472528
  0.0625471095066826  0.7021137368485354  0.3453422349161332
  0.9373623997905560  0.7807455425430961  0.1250281700913379
  0.5635478338001404  0.0477167649952747  0.8748087089185956
  0.4386141203494199  0.6302344983570036  0.7878425611600089
  0.9378959119641749  0.6210631400775772  0.4346376526808546
  0.6871193869925053  0.1230706109777248  0.5213641031090391
  0.1875595392058623  0.7916351438745159  0.6106427920159322
  0.1879028453164049  0.4627463897202586  0.8329643586508119
  0.0620234096598897  0.8666895414014137  0.3006081302503945
  0.1867022602845101  0.7804815737320275  0.1250477378766917
  0.8140873688183820  0.5480486953567751  0.8749668173254679
  0.0624927503546403  0.8647432095583797  0.1672458480879430
  0.3126736289470599  0.0364409900900959  0.3892811460527807
  0.3128462252953392  0.7124662008168378  0.8332717012720905
  0.5626139913176231  0.3648357934375839  0.1666043769286836
  0.9374681740803291  0.6227165561529184  0.5214280885977852
  0.0618622457604004  0.6979386024319485  0.2123905067387347
  0.1872135143204780  0.2956446156116759  0.7436177087746250
  0.0626056255397874  0.3751114445890108  0.6544726231180077
  0.5624708194791157  0.2023465631057111  0.3454214399403063
  0.3121827023833474  0.2130099338904001  0.8332560414438958
  0.6890349555825445  0.2971955046216613  0.8746404198187659
  0.6874369768421751  0.9553238254353835  0.4786099811796942
  0.6875462283907489  0.1215634317445581  0.4342036023762244
  0.1877224300698449  0.2824265651214271  0.2563261196843636
  0.9376863237007523  0.4608203024768915  0.6995313879191334
  0.0632454312214928  0.3801335454378823  0.7876639310139186
 
  0.00000000E+00  0.00000000E+00  0.00000000E+00
  0.00000000E+00  0.00000000E+00  0.00000000E+00
  0.00000000E+00  0.00000000E+00  0.00000000E+00
  0.00000000E+00  0.00000000E+00  0.00000000E+00
  0.00000000E+00  0.00000000E+00  0.00000000E+00
  0.00000000E+00  0.00000000E+00  0.00000000E+00
  0.00000000E+00  0.00000000E+00  0.00000000E+00
  0.00000000E+00  0.00000000E+00  0.00000000E+00
  0.00000000E+00  0.00000000E+00  0.00000000E+00
  0.00000000E+00  0.00000000E+00  0.00000000E+00
  0.00000000E+00  0.00000000E+00  0.00000000E+00
  0.00000000E+00  0.00000000E+00  0.00000000E+00
  0.00000000E+00  0.00000000E+00  0.00000000E+00
  0.00000000E+00  0.00000000E+00  0.00000000E+00
  0.00000000E+00  0.00000000E+00  0.00000000E+00
  0.00000000E+00  0.00000000E+00  0.00000000E+00
  0.00000000E+00  0.00000000E+00  0.00000000E+00
  0.00000000E+00  0.00000000E+00  0.00000000E+00
  0.00000000E+00  0.00000000E+00  0.00000000E+00
  0.00000000E+00  0.00000000E+00  0.00000000E+00
  0.00000000E+00  0.00000000E+00  0.00000000E+00
  0.00000000E+00  0.00000000E+00  0.00000000E+00
  0.00000000E+00  0.00000000E+00  0.00000000E+00
  0.00000000E+00  0.00000000E+00  0.00000000E+00
  0.00000000E+00  0.00000000E+00  0.00000000E+00
  0.00000000E+00  0.00000000E+00  0.00000000E+00
  0.00000000E+00  0.00000000E+00  0.00000000E+00
  0.00000000E+00  0.00000000E+00  0.00000000E+00
  0.00000000E+00  0.00000000E+00  0.00000000E+00
  0.00000000E+00  0.00000000E+00  0.00000000E+00
  0.00000000E+00  0.00000000E+00  0.00000000E+00
  0.00000000E+00  0.00000000E+00  0.00000000E+00
  0.00000000E+00  0.00000000E+00  0.00000000E+00
  0.00000000E+00  0.00000000E+00  0.00000000E+00
  0.00000000E+00  0.00000000E+00  0.00000000E+00
  0.00000000E+00  0.00000000E+00  0.00000000E+00
  0.00000000E+00  0.00000000E+00  0.00000000E+00
  0.00000000E+00  0.00000000E+00  0.00000000E+00
  0.00000000E+00  0.00000000E+00  0.00000000E+00
  0.00000000E+00  0.00000000E+00  0.00000000E+00
  0.00000000E+00  0.00000000E+00  0.00000000E+00
  0.00000000E+00  0.00000000E+00  0.00000000E+00
  0.00000000E+00  0.00000000E+00  0.00000000E+00
  0.00000000E+00  0.00000000E+00  0.00000000E+00
  0.00000000E+00  0.00000000E+00  0.00000000E+00
  0.00000000E+00  0.00000000E+00  0.00000000E+00
  0.00000000E+00  0.00000000E+00  0.00000000E+00
  0.00000000E+00  0.00000000E+00  0.00000000E+00
  0.00000000E+00  0.00000000E+00  0.00000000E+00
  0.00000000E+00  0.00000000E+00  0.00000000E+00
  0.00000000E+00  0.00000000E+00  0.00000000E+00
  0.00000000E+00  0.00000000E+00  0.00000000E+00
  0.00000000E+00  0.00000000E+00  0.00000000E+00
  0.00000000E+00  0.00000000E+00  0.00000000E+00
  0.00000000E+00  0.00000000E+00  0.00000000E+00
  0.00000000E+00  0.00000000E+00  0.00000000E+00
  0.00000000E+00  0.00000000E+00  0.00000000E+00
  0.00000000E+00  0.00000000E+00  0.00000000E+00
  0.00000000E+00  0.00000000E+00  0.00000000E+00
  0.00000000E+00  0.00000000E+00  0.00000000E+00
  0.00000000E+00  0.00000000E+00  0.00000000E+00
  0.00000000E+00  0.00000000E+00  0.00000000E+00
  0.00000000E+00  0.00000000E+00  0.00000000E+00
  0.00000000E+00  0.00000000E+00  0.00000000E+00
  0.00000000E+00  0.00000000E+00  0.00000000E+00
  0.00000000E+00  0.00000000E+00  0.00000000E+00
  0.00000000E+00  0.00000000E+00  0.00000000E+00
  0.00000000E+00  0.00000000E+00  0.00000000E+00
  0.00000000E+00  0.00000000E+00  0.00000000E+00
  0.00000000E+00  0.00000000E+00  0.00000000E+00
  0.00000000E+00  0.00000000E+00  0.00000000E+00
  0.00000000E+00  0.00000000E+00  0.00000000E+00
  0.00000000E+00  0.00000000E+00  0.00000000E+00
  0.00000000E+00  0.00000000E+00  0.00000000E+00
  0.00000000E+00  0.00000000E+00  0.00000000E+00
  0.00000000E+00  0.00000000E+00  0.00000000E+00
  0.00000000E+00  0.00000000E+00  0.00000000E+00
  0.00000000E+00  0.00000000E+00  0.00000000E+00
  0.00000000E+00  0.00000000E+00  0.00000000E+00
  0.00000000E+00  0.00000000E+00  0.00000000E+00
  0.00000000E+00  0.00000000E+00  0.00000000E+00
  0.00000000E+00  0.00000000E+00  0.00000000E+00
  0.00000000E+00  0.00000000E+00  0.00000000E+00
  0.00000000E+00  0.00000000E+00  0.00000000E+00
  0.00000000E+00  0.00000000E+00  0.00000000E+00
  0.00000000E+00  0.00000000E+00  0.00000000E+00
  0.00000000E+00  0.00000000E+00  0.00000000E+00
  0.00000000E+00  0.00000000E+00  0.00000000E+00
  0.00000000E+00  0.00000000E+00  0.00000000E+00
  0.00000000E+00  0.00000000E+00  0.00000000E+00
  0.00000000E+00  0.00000000E+00  0.00000000E+00
  0.00000000E+00  0.00000000E+00  0.00000000E+00
  0.00000000E+00  0.00000000E+00  0.00000000E+00
  0.00000000E+00  0.00000000E+00  0.00000000E+00
  0.00000000E+00  0.00000000E+00  0.00000000E+00
  0.00000000E+00  0.00000000E+00  0.00000000E+00
  0.00000000E+00  0.00000000E+00  0.00000000E+00
  0.00000000E+00  0.00000000E+00  0.00000000E+00
  0.00000000E+00  0.00000000E+00  0.00000000E+00
  0.00000000E+00  0.00000000E+00  0.00000000E+00
  0.00000000E+00  0.00000000E+00  0.00000000E+00
  0.00000000E+00  0.00000000E+00  0.00000000E+00
  0.00000000E+00  0.00000000E+00  0.00000000E+00
  0.00000000E+00  0.00000000E+00  0.00000000E+00
  0.00000000E+00  0.00000000E+00  0.00000000E+00
  0.00000000E+00  0.00000000E+00  0.00000000E+00
  0.00000000E+00  0.00000000E+00  0.00000000E+00
  0.00000000E+00  0.00000000E+00  0.00000000E+00
  0.00000000E+00  0.00000000E+00  0.00000000E+00
  0.00000000E+00  0.00000000E+00  0.00000000E+00
  0.00000000E+00  0.00000000E+00  0.00000000E+00
  0.00000000E+00  0.00000000E+00  0.00000000E+00
  0.00000000E+00  0.00000000E+00  0.00000000E+00
  0.00000000E+00  0.00000000E+00  0.00000000E+00
  0.00000000E+00  0.00000000E+00  0.00000000E+00
  0.00000000E+00  0.00000000E+00  0.00000000E+00
  0.00000000E+00  0.00000000E+00  0.00000000E+00
  0.00000000E+00  0.00000000E+00  0.00000000E+00
  0.00000000E+00  0.00000000E+00  0.00000000E+00
  0.00000000E+00  0.00000000E+00  0.00000000E+00
  0.00000000E+00  0.00000000E+00  0.00000000E+00
  0.00000000E+00  0.00000000E+00  0.00000000E+00
  0.00000000E+00  0.00000000E+00  0.00000000E+00
  0.00000000E+00  0.00000000E+00  0.00000000E+00
  0.00000000E+00  0.00000000E+00  0.00000000E+00
  0.00000000E+00  0.00000000E+00  0.00000000E+00
  0.00000000E+00  0.00000000E+00  0.00000000E+00
  0.00000000E+00  0.00000000E+00  0.00000000E+00
  0.00000000E+00  0.00000000E+00  0.00000000E+00
  0.00000000E+00  0.00000000E+00  0.00000000E+00
  0.00000000E+00  0.00000000E+00  0.00000000E+00
  0.00000000E+00  0.00000000E+00  0.00000000E+00
  0.00000000E+00  0.00000000E+00  0.00000000E+00
  0.00000000E+00  0.00000000E+00  0.00000000E+00
  0.00000000E+00  0.00000000E+00  0.00000000E+00
  0.00000000E+00  0.00000000E+00  0.00000000E+00
  0.00000000E+00  0.00000000E+00  0.00000000E+00
  0.00000000E+00  0.00000000E+00  0.00000000E+00
  0.00000000E+00  0.00000000E+00  0.00000000E+00
  0.00000000E+00  0.00000000E+00  0.00000000E+00
  0.00000000E+00  0.00000000E+00  0.00000000E+00
  0.00000000E+00  0.00000000E+00  0.00000000E+00
  0.00000000E+00  0.00000000E+00  0.00000000E+00
  0.00000000E+00  0.00000000E+00  0.00000000E+00
  0.00000000E+00  0.00000000E+00  0.00000000E+00
  0.00000000E+00  0.00000000E+00  0.00000000E+00
  0.00000000E+00  0.00000000E+00  0.00000000E+00
  0.00000000E+00  0.00000000E+00  0.00000000E+00
  0.00000000E+00  0.00000000E+00  0.00000000E+00
  0.00000000E+00  0.00000000E+00  0.00000000E+00
  0.00000000E+00  0.00000000E+00  0.00000000E+00
  0.00000000E+00  0.00000000E+00  0.00000000E+00
  0.00000000E+00  0.00000000E+00  0.00000000E+00
  0.00000000E+00  0.00000000E+00  0.00000000E+00
  0.00000000E+00  0.00000000E+00  0.00000000E+00
  0.00000000E+00  0.00000000E+00  0.00000000E+00
  0.00000000E+00  0.00000000E+00  0.00000000E+00
  0.00000000E+00  0.00000000E+00  0.00000000E+00
  0.00000000E+00  0.00000000E+00  0.00000000E+00
  0.00000000E+00  0.00000000E+00  0.00000000E+00
  0.00000000E+00  0.00000000E+00  0.00000000E+00
  0.00000000E+00  0.00000000E+00  0.00000000E+00
  0.00000000E+00  0.00000000E+00  0.00000000E+00
  0.00000000E+00  0.00000000E+00  0.00000000E+00
  0.00000000E+00  0.00000000E+00  0.00000000E+00
  0.00000000E+00  0.00000000E+00  0.00000000E+00
  0.00000000E+00  0.00000000E+00  0.00000000E+00
  0.00000000E+00  0.00000000E+00  0.00000000E+00
  0.00000000E+00  0.00000000E+00  0.00000000E+00
  0.00000000E+00  0.00000000E+00  0.00000000E+00
  0.00000000E+00  0.00000000E+00  0.00000000E+00
  0.00000000E+00  0.00000000E+00  0.00000000E+00
  0.00000000E+00  0.00000000E+00  0.00000000E+00
  0.00000000E+00  0.00000000E+00  0.00000000E+00
  0.00000000E+00  0.00000000E+00  0.00000000E+00
  0.00000000E+00  0.00000000E+00  0.00000000E+00
  0.00000000E+00  0.00000000E+00  0.00000000E+00
  0.00000000E+00  0.00000000E+00  0.00000000E+00
  0.00000000E+00  0.00000000E+00  0.00000000E+00
  0.00000000E+00  0.00000000E+00  0.00000000E+00
  0.00000000E+00  0.00000000E+00  0.00000000E+00
  0.00000000E+00  0.00000000E+00  0.00000000E+00
  0.00000000E+00  0.00000000E+00  0.00000000E+00
  0.00000000E+00  0.00000000E+00  0.00000000E+00
  0.00000000E+00  0.00000000E+00  0.00000000E+00
  0.00000000E+00  0.00000000E+00  0.00000000E+00
  0.00000000E+00  0.00000000E+00  0.00000000E+00
  0.00000000E+00  0.00000000E+00  0.00000000E+00
  0.00000000E+00  0.00000000E+00  0.00000000E+00
  0.00000000E+00  0.00000000E+00  0.00000000E+00
  0.00000000E+00  0.00000000E+00  0.00000000E+00
  0.00000000E+00  0.00000000E+00  0.00000000E+00
  0.00000000E+00  0.00000000E+00  0.00000000E+00
  0.00000000E+00  0.00000000E+00  0.00000000E+00
  0.00000000E+00  0.00000000E+00  0.00000000E+00
  0.00000000E+00  0.00000000E+00  0.00000000E+00
  0.00000000E+00  0.00000000E+00  0.00000000E+00
  0.00000000E+00  0.00000000E+00  0.00000000E+00
  0.00000000E+00  0.00000000E+00  0.00000000E+00
  0.00000000E+00  0.00000000E+00  0.00000000E+00
  0.00000000E+00  0.00000000E+00  0.00000000E+00
  0.00000000E+00  0.00000000E+00  0.00000000E+00
  0.00000000E+00  0.00000000E+00  0.00000000E+00
  0.00000000E+00  0.00000000E+00  0.00000000E+00
  0.00000000E+00  0.00000000E+00  0.00000000E+00
  0.00000000E+00  0.00000000E+00  0.00000000E+00
  0.00000000E+00  0.00000000E+00  0.00000000E+00
  0.00000000E+00  0.00000000E+00  0.00000000E+00
  0.00000000E+00  0.00000000E+00  0.00000000E+00
  0.00000000E+00  0.00000000E+00  0.00000000E+00
  0.00000000E+00  0.00000000E+00  0.00000000E+00
  0.00000000E+00  0.00000000E+00  0.00000000E+00
  0.00000000E+00  0.00000000E+00  0.00000000E+00
  0.00000000E+00  0.00000000E+00  0.00000000E+00
  0.00000000E+00  0.00000000E+00  0.00000000E+00
  0.00000000E+00  0.00000000E+00  0.00000000E+00
  0.00000000E+00  0.00000000E+00  0.00000000E+00
  0.00000000E+00  0.00000000E+00  0.00000000E+00
  0.00000000E+00  0.00000000E+00  0.00000000E+00
  0.00000000E+00  0.00000000E+00  0.00000000E+00
  0.00000000E+00  0.00000000E+00  0.00000000E+00
  0.00000000E+00  0.00000000E+00  0.00000000E+00
  0.00000000E+00  0.00000000E+00  0.00000000E+00
  0.00000000E+00  0.00000000E+00  0.00000000E+00
  0.00000000E+00  0.00000000E+00  0.00000000E+00
  0.00000000E+00  0.00000000E+00  0.00000000E+00
  0.00000000E+00  0.00000000E+00  0.00000000E+00
  0.00000000E+00  0.00000000E+00  0.00000000E+00
  0.00000000E+00  0.00000000E+00  0.00000000E+00
  0.00000000E+00  0.00000000E+00  0.00000000E+00
  0.00000000E+00  0.00000000E+00  0.00000000E+00
  0.00000000E+00  0.00000000E+00  0.00000000E+00
  0.00000000E+00  0.00000000E+00  0.00000000E+00
  0.00000000E+00  0.00000000E+00  0.00000000E+00
  0.00000000E+00  0.00000000E+00  0.00000000E+00
  0.00000000E+00  0.00000000E+00  0.00000000E+00
  0.00000000E+00  0.00000000E+00  0.00000000E+00
  0.00000000E+00  0.00000000E+00  0.00000000E+00
  0.00000000E+00  0.00000000E+00  0.00000000E+00
  0.00000000E+00  0.00000000E+00  0.00000000E+00
  0.00000000E+00  0.00000000E+00  0.00000000E+00
  0.00000000E+00  0.00000000E+00  0.00000000E+00
  0.00000000E+00  0.00000000E+00  0.00000000E+00
  0.00000000E+00  0.00000000E+00  0.00000000E+00
  0.00000000E+00  0.00000000E+00  0.00000000E+00
  0.00000000E+00  0.00000000E+00  0.00000000E+00
  0.00000000E+00  0.00000000E+00  0.00000000E+00