CuInSe2gb                               
   1.00000000000000     
     9.7266780392896699    0.0000000000000000    0.0000000000000000
     0.0000000000000000    8.4235502764570693    0.0000000000000000
     0.0000000000000000    0.0000000000000000   45.0000000000000000
   Fe   Mn
   281     7
Direct
  0.0614202875286300  0.0325758365732195  0.1246470548633039
  0.8140179893322288  0.0421809029383295  0.8754372085035516
  0.1944610543781028  0.1254644669284860  0.7883008439798942
  0.4343364985113311  0.2871816446029519  0.3890141284129726
  0.3155288438806790  0.3611009096202064  0.1668394792777852
  0.8103071329792226  0.2120372963580066  0.8330417884841268
  0.1843525779052812  0.7871956887136520  0.3890646249721986
  0.5635496798373434  0.2076837583981788  0.5655626107794030
  0.0622028022109322  0.0416098526604562  0.7439276009597534
  0.8134331969427901  0.8723791742347985  0.5215814219181930
  0.1874481538331300  0.2915023874525343  0.7438945941676952
  0.9398545082284780  0.4527565453946173  0.3447454747742030
  0.9347412991772583  0.2874476411935287  0.3890291492909936
  0.4381476853284109  0.6224428051396423  0.5215840725782042
  0.1871883859125200  0.7913747590242823  0.6107549225576043
  0.5597051127462080  0.0367446354939372  0.3889948397596771
  0.9349583616310563  0.9624909324986671  0.8332350069572303
  0.3138504598776296  0.5451807596073327  0.8754998314981863
  0.6861539963655873  0.2911002083310267  0.7438578204367222
  0.9398910547345952  0.9525741459832259  0.3447594633373512
  0.8129300816621747  0.2055491540977253  0.4787101455327225
  0.8124433759892435  0.5419946126345710  0.6106540750997954
  0.3124898316334861  0.8703734956372656  0.4345408915949142
  0.8143086800237381  0.0354125009518180  0.2559949975448200
  0.6901488462414325  0.9520627316318585  0.3448718464750088
  0.9419537522286093  0.1145069208038242  0.1669306077652881
  0.9384271036320913  0.1225474230169333  0.5215862612291318
  0.5631641374946295  0.5353838087764158  0.2559001327547260
  0.6913390537286316  0.7958098571095590  0.8755389750882147
  0.5657176702176210  0.3629148045574940  0.1668625904658067
  0.4360802981229421  0.7927287414503238  0.7438699319663091
  0.8134429293762734  0.7073411085441299  0.5656895727518173
  0.5686133682922397  0.8755695720283239  0.7882644221233027
  0.6882776341079370  0.1225828186355250  0.5215995827417570
  0.1885264095197597  0.2855203314891944  0.2560060775638150
  0.9351122137363376  0.4627812115655984  0.8331163192285546
  0.0656020955900878  0.2078825449756004  0.6995435976092259
  0.8093542115724486  0.0369265202448347  0.3889340591118687
  0.3104636802715414  0.2128160905057525  0.8329909356409122
  0.4345999533553297  0.6257073667962867  0.6549898509603839
  0.3125887884504138  0.5420215942787422  0.6106419440065073
  0.9384538868511945  0.4575048745707315  0.5656133613822348
  0.6869318747258402  0.7927415421019278  0.7439531337336048
  0.3093823762063728  0.8756115450110842  0.6551073730247899
  0.6844890725816229  0.7877526348485641  0.3889858487636416
  0.9375483724071962  0.7925586069147807  0.7438943110462748
  0.0644193732621751  0.2023138392321211  0.3447779324593973
  0.4379821098558525  0.7819315584402345  0.1243120578653455
  0.4431837559281429  0.1254978897917142  0.7883665703684456
  0.0566448946959514  0.2024441579846850  0.2119566602342574
  0.0659498948694283  0.3614583108459055  0.1670144479210675
  0.9391929968251728  0.7854693573159472  0.2559720627451129
  0.5640040884794977  0.2079689983780551  0.6996154847476279
  0.6895945286292170  0.9588241979560020  0.6996204527166038
  0.6847631400494023  0.2872239212707121  0.3889707381101076
  0.4387429497723860  0.9571098299566982  0.5655039330547915
  0.8186875473204147  0.3745918415224762  0.7881734616758794
  0.6887559716949468  0.2852727193006991  0.2559986967782573
  0.1886855174250461  0.4576413707792439  0.5655321518702415
  0.0660984966192527  0.8630540814752881  0.1669505501274371
  0.1871691849174004  0.2919421025597243  0.6107324980153966
  0.5649846517665242  0.7026478080367693  0.3448763473365007
  0.3147240092442885  0.2081035840381050  0.6996457721270876
  0.5639549090890292  0.5448452063231078  0.8753124486511493
  0.0635420280882902  0.7073644275414837  0.5656172694864324
  0.6935467410929094  0.6256339024573648  0.7884041672976743
  0.3090564123601472  0.5382241195286764  0.3891147370879311
  0.1884505496733520  0.6224079073008819  0.5215359193296223
  0.5627106204225975  0.8703387896708114  0.4345229939082125
  0.4387120833756368  0.4578161449972114  0.5655752550618821
  0.4362871232982498  0.2912472386639247  0.7439214375930455
  0.8061821656528968  0.8715250506782712  0.3004055626014763
  0.8149052431767541  0.7028263648446188  0.3448133694070897
  0.4345498945699344  0.4632283625941401  0.8331432858980286
  0.6878325236874551  0.9552842336221574  0.4787395162003318
  0.6896113172241206  0.4581598675899888  0.6995546745264785
  0.5631777328961981  0.8723455882192354  0.5216004898543000
  0.5595856904469438  0.3751622679420092  0.6549421399303277
  0.8100682255970555  0.8756640680751498  0.6548885621162620
  0.8134573811823946  0.3711733681127235  0.4346487867297166
  0.8144090017043827  0.5351446365541119  0.2559713077503608
  0.6843369737311038  0.4628095394131524  0.8330662135833909
  0.1880481136328666  0.7829347783740448  0.1243923894115412
  0.0643996558833124  0.0429609908046747  0.8753863073512067
  0.3095324394954698  0.3752476063246493  0.6550881616669318
  0.3141692132561001  0.2020632560749194  0.3446890619416326
  0.8119976997356655  0.5427945915414653  0.7438915531004985
  0.6848198059119548  0.9628254459842417  0.8331915149009030
  0.5599519050563320  0.8758749551024867  0.6549171280313887
  0.3137801998982079  0.7073099621936944  0.5655792256358874
  0.3136824524638462  0.5335466361898467  0.1243535110990865
  0.6816364446423814  0.9526084387959733  0.2118997737218182
  0.3137092231303940  0.2078256450562170  0.5654843244437403
  0.3112175790924161  0.5421746804486036  0.7438955890665931
  0.6884651794999133  0.9571379267373461  0.5656451982177414
  0.4379877112710537  0.7913844032064875  0.6106605811063870
  0.6908657276203657  0.6128527501459130  0.1668779591143174
  0.3052512835241633  0.8715497682606484  0.3003036516262640
  0.3127212908922744  0.7052740701179789  0.4787057825069426
  0.9373281462079361  0.2919508525101280  0.6107230171302338
  0.4300799187884321  0.6217135413383281  0.3002782164372411
  0.8163232134957896  0.8630500139243260  0.1668838817021842
  0.5565746698986225  0.2024450567338126  0.2118717507041702
  0.9408683432093783  0.6134065753850053  0.1670236213393506
  0.9403958788618679  0.7956609019789375  0.8754938153649409
  0.5682404721673115  0.3741038366495280  0.7881962999209554
  0.0635430840025772  0.3729379854703985  0.5215817900306914
  0.5631229941371722  0.3728370217904086  0.5215927160360878
  0.6808732886237731  0.1213177914554898  0.3003401290540790
  0.4340713936497875  0.9626244601790717  0.8332008613317052
  0.1879971951258854  0.9550827294473879  0.4786468009540741
  0.8193190518926392  0.8750374187898057  0.7881767234062904
  0.3121706981868173  0.3712433128679722  0.4347059111736900
  0.9373264638936444  0.7914710840848285  0.6108050640681781
  0.4379826147910356  0.2922061904159959  0.6107085346595836
  0.1892984404009150  0.4526890528757229  0.3446921726426911
  0.4392071343956929  0.2801635053166514  0.1246827508531884
  0.6886954079433798  0.7852783698737603  0.2560182809915946
  0.1900991683430539  0.9585585290869393  0.6996163934878608
  0.1908881292256034  0.2948989781096721  0.8754684685244972
  0.1847570182407987  0.1251344484888889  0.6550869243151631
  0.9351655603903203  0.1253530616373665  0.6549377815838558
  0.3066857488216767  0.2024713061805062  0.2119182072538848
  0.0596515549005248  0.0367513328719970  0.3889749438708999
  0.4390964141103457  0.9590140967404768  0.6995910274951975
  0.0621453416354630  0.5419277808144300  0.6107235471617710
  0.9394446899515875  0.2854143904972259  0.2560140798859578
  0.5630397167881602  0.5419970296748480  0.6105886678177805
  0.9385351722940780  0.9572771303756298  0.5656270411841755
  0.6809502538628254  0.6215189649545990  0.3004254065657964
  0.9385338243064897  0.6204284884442852  0.4345753579422964
  0.9441507570528846  0.6260182192972743  0.7883025899673667
  0.5643502109240903  0.7088658146470249  0.6995184797879286
  0.0607722264396104  0.7130486651752008  0.8332880585283248
  0.9309281012917978  0.1216722277836616  0.3003598265557141
  0.9404854059942689  0.4588935292190259  0.6995289364709689
  0.4377891350383426  0.7858397718593437  0.2559694560913074
  0.3191643647376761  0.3739284960192893  0.7882392747377851
  0.4316318374233326  0.4518763117088676  0.2118758709436230
  0.1884751506462771  0.1225424100801093  0.5215394247864721
  0.8153287277999232  0.7094364031152532  0.6995542829603616
  0.0620612175995188  0.0414981840174364  0.6108084475908332
  0.5599232525517926  0.2124010033471651  0.8330784999223432
  0.3133600401377936  0.8722369147050776  0.5215353874032680
  0.6881709403337650  0.2811416281227146  0.1242725479869175
  0.1809940189185043  0.9513190859532404  0.2120821886067453
  0.6877885615416324  0.2921752002392176  0.6106566839585367
  0.3124661805695010  0.0415192868012703  0.6108187110799280
  0.9444815623643431  0.1245136592834204  0.7882371625282442
  0.4402436410780815  0.7962579007374317  0.8756581621313756
  0.8120198235143076  0.0417979601010525  0.7438881407801560
  0.4382343655813101  0.1225616612018484  0.5215871077007083
  0.1844742235251849  0.6258359471243228  0.6550154892330967
  0.3141376689671405  0.7085278499660496  0.6995884493056744
  0.9350682775002008  0.2798706489956154  0.1247640602805219
  0.4375097104494605  0.4557654540117668  0.4787564569375510
  0.0631503397847824  0.7052506160178911  0.4786705410201257
  0.9383043408484113  0.1206441496262106  0.4345805716012868
  0.4301356854234818  0.1214350250246702  0.3002590048238512
  0.1876114617421182  0.1204617246660421  0.4345776109119006
  0.5642439590046116  0.0428258973526667  0.8753646048768199
  0.1884767934961903  0.9571272135566153  0.5655585271223202
  0.6883597835458164  0.7824413495420969  0.1243985655657107
  0.5644739856151820  0.5323327027885516  0.1246427385547785
  0.3093540411484057  0.0366252183830984  0.3890306946591515
  0.6914277241737906  0.1138011863633692  0.1670140858195046
  0.8075128177224580  0.2028505741640509  0.2120246231604061
  0.0643926870541920  0.5353912613973998  0.2559805886582422
  0.5624638821351451  0.7052210280064879  0.4787451360537170
  0.0634538286167580  0.2076876518655882  0.5655600146835730
  0.5554302698620850  0.3715271301819955  0.3002884884029222
  0.4395262497391055  0.9521497087208303  0.3448602320160239
  0.1856438053704809  0.9629043398569969  0.8332026783901108
  0.4408833165729604  0.6133266992522075  0.1668781020733712
  0.9319537819461733  0.4521839821478680  0.2120384502375996
  0.0617996961820749  0.5322736724617073  0.1246036319173710
  0.8134640605894957  0.3727876884942555  0.5215980323623104
  0.9310326720198084  0.6217416059160900  0.3003493540243296
  0.3130531786927833  0.0357139153467900  0.2560425908042329
  0.0635126482954716  0.8722002463368272  0.5215256394099752
  0.1857054857506407  0.4637943866548666  0.8332907916614924
  0.4404250163831524  0.1128809433974217  0.1665982580557799
  0.3133150550146974  0.3729197689220316  0.5215571705794884
  0.4440602684482453  0.6251479921210696  0.7883190359069348
  0.0640397885613759  0.0357427091138377  0.2560349759983353
  0.5634363823529976  0.7073329265546539  0.5656729997695588
  0.1807032946477400  0.6216425514368690  0.3002931774111334
  0.6935431012747132  0.1248580516504124  0.7882321161686190
  0.1820855478084782  0.4507490765389098  0.2118036422103334
  0.9347128446331215  0.7869477178787734  0.3889883607440219
  0.6917853350838177  0.2952553397625479  0.8754657619493160
  0.6876841748285091  0.7913622372511567  0.6106541634155019
  0.4389623129391393  0.4576567145370472  0.6995947679194294
  0.8102067660841313  0.3754422937065314  0.6547487033501113
  0.6881948589731804  0.6224509436068703  0.5216006468384279
  0.0599440623273439  0.8756638843269461  0.6550175777865000
  0.0693811733083821  0.8753252236580255  0.7881393851496721
  0.0599117702400116  0.3753081749392300  0.6549312540865049
  0.6878424826367584  0.4554545827049010  0.4787656912957337
  0.1886744998893624  0.7857030641047134  0.2560210791149846
  0.4374225656398260  0.1202830224827662  0.4345995691339545
  0.8120450698385340  0.0326850282230723  0.1244426600718724
  0.9386111456931130  0.6223527847053097  0.5215724387488558
  0.0632574607964591  0.8704012725765482  0.4345478048367871
  0.8115669431142144  0.5326398268279953  0.1245341144227867
  0.4397369815974574  0.4527641449129780  0.3447792706539535
  0.8148501748675212  0.2020553733571385  0.3447597925384385
  0.3141253476887405  0.7027784015050997  0.3448294681742264
  0.6847033378106965  0.1253201348264916  0.6549215414930063
  0.5554856808687962  0.8714086050720414  0.3003670225897053
  0.0621511575820039  0.5426574825191577  0.7438845409061233
  0.9360211765425538  0.7813679063617879  0.1247059744483508
  0.8075362811734071  0.7022460043291069  0.2120360958881111
  0.0560862882887759  0.8719094101272818  0.3002687407634155
  0.1807590174827283  0.1221658344928458  0.3002476258556591
  0.0645467818127667  0.7026658839373016  0.3448165075130865
  0.8126147473996862  0.0414864249895709  0.6107300417964638
  0.0629728966925458  0.3713834216233238  0.4346179694846122
  0.5649867120456751  0.2021956859452205  0.3447646300467791
  0.8058472719741722  0.3715074519915757  0.3003531948489108
  0.4375072189184863  0.9550759035729219  0.4787388142272599
  0.5594972323923263  0.5382381522884480  0.3890118916379348
  0.0630991017060943  0.2055918379241914  0.4787144731108440
  0.3186887383082878  0.8762963184096487  0.7882147105906233
  0.9402128788928703  0.9583698618761164  0.6996533655136035
  0.0559380274380620  0.3716694397218362  0.3003020180494727
  0.6853099782913028  0.6261124181459907  0.6547805187632856
  0.6884052453412203  0.4576796282795896  0.5656767670915537
  0.4314746353048108  0.9525561080872283  0.2119551833139322
  0.3126216466204260  0.2056401973003018  0.4787378362144345
  0.4346026012311507  0.1255474858581665  0.6551302508365136
  0.6880765377036934  0.6208853639148841  0.4345608936961129
  0.8145873057943868  0.2077427895690833  0.6995094552728773
  0.8130614524055144  0.7052482936071846  0.4787480556217575
  0.5628785749118365  0.3711363019379880  0.4346634649685517
  0.9381232011780212  0.9551357743975657  0.4786968062594992
  0.5627574726042982  0.2055307934740433  0.4788018044024985
  0.1876029754197922  0.6207057626255612  0.4346193274981563
  0.3113916767672186  0.0422770446809249  0.7438566353214270
  0.9351627298792587  0.6263096290353211  0.6548141441768096
  0.5600764035235126  0.7132623913374813  0.8332919325126941
  0.3053942022164605  0.3716716797338119  0.3001482369507221
  0.5563856208241217  0.7024349414364354  0.2119565384729278
  0.1879348240718741  0.4556682873465621  0.4787144280509156
  0.3146003458150102  0.0420711528617594  0.8754203691451760
  0.1899516897802408  0.4581493127840805  0.6995830145290334
  0.8143731635323186  0.5451896598324558  0.8753893995013678
  0.1839767766567471  0.2875992217145997  0.3891103410835308
  0.4374234266463754  0.6210566159692802  0.4345645271814520
  0.0567398257440697  0.7026990294733652  0.2120341605586331
  0.5639376208496572  0.0326000527747765  0.1244765112557367
  0.8160287172412959  0.3630868472841743  0.1669733822131889
  0.8095398882170416  0.7136843251185481  0.8331987451713105
  0.0701415312254491  0.3745897440149192  0.7881893864454033
  0.4413045771066850  0.2951176339656847  0.8753743028609501
  0.3144986468751652  0.0323766209523724  0.1242464128563661
  0.6883187781562019  0.1205241854943240  0.4345645400102227
  0.1891941329564363  0.9524782117189958  0.3448348245723363
  0.0603212349436492  0.2125375640956722  0.8332185369844413
  0.5629686397551249  0.0415867476384215  0.6107549527083211
  0.6820063656723122  0.4522964429283355  0.2119042601593118
  0.1869067600298807  0.7924730537857555  0.7438503690671727
  0.8131527855247382  0.8704923754406845  0.4345361530282229
  0.4344276284328275  0.7876694154994994  0.3890999892931273
  0.4380459796902288  0.2854539234572362  0.2560070146760555
  0.0651056715239235  0.5447827189719583  0.8754516930794847
  0.5611785730721844  0.0422837621549393  0.7439409387073570
  0.1928648411445595  0.7960119485256955  0.8758276199694927
  0.9380998144276398  0.4554910386922829  0.4786962833784866
  0.8097781207074586  0.5381790081444124  0.3890295642011477
  0.8134768885804129  0.2077012702117370  0.5656296032013377
  0.1938379268946302  0.6255325796120180  0.7882694419451486
  0.9327666314326395  0.9526490925652958  0.2119926378741967
  0.0650668473185143  0.7091870271378934  0.6996104069424250
  0.3131466438717181  0.5354081682053922  0.2560694388513343
  0.3071346042030943  0.7019864596834451  0.2120602841162263
  0.5653051965587252  0.8638311488002977  0.1668133775672047
  0.5613511814413968  0.5419582942912324  0.7438830796623872
  0.6899231345049042  0.4527951802145884  0.3448152174007966
  0.9412756361260955  0.2954266353219245  0.8755355455820266
  0.5632073168046943  0.0356215051584237  0.2559899473564504
  0.1914686234438391  0.1130807362015313  0.1666966919526858
  0.3094841995932824  0.7144565236922000  0.8339980830143109
  0.3171523874314737  0.8616890077132366  0.1663223729369220
  0.9373345875450979  0.2911165929090486  0.7438893007592708
  0.0591508321648644  0.5385108549001697  0.3890147797366622
  0.1913844667269283  0.6100907690800608  0.1663913218426390
  0.1876999706923323  0.2801710701267737  0.1247242212990023
 
  0.00000000E+00  0.00000000E+00  0.00000000E+00
  0.00000000E+00  0.00000000E+00  0.00000000E+00
  0.00000000E+00  0.00000000E+00  0.00000000E+00
  0.00000000E+00  0.00000000E+00  0.00000000E+00
  0.00000000E+00  0.00000000E+00  0.00000000E+00
  0.00000000E+00  0.00000000E+00  0.00000000E+00
  0.00000000E+00  0.00000000E+00  0.00000000E+00
  0.00000000E+00  0.00000000E+00  0.00000000E+00
  0.00000000E+00  0.00000000E+00  0.00000000E+00
  0.00000000E+00  0.00000000E+00  0.00000000E+00
  0.00000000E+00  0.00000000E+00  0.00000000E+00
  0.00000000E+00  0.00000000E+00  0.00000000E+00
  0.00000000E+00  0.00000000E+00  0.00000000E+00
  0.00000000E+00  0.00000000E+00  0.00000000E+00
  0.00000000E+00  0.00000000E+00  0.00000000E+00
  0.00000000E+00  0.00000000E+00  0.00000000E+00
  0.00000000E+00  0.00000000E+00  0.00000000E+00
  0.00000000E+00  0.00000000E+00  0.00000000E+00
  0.00000000E+00  0.00000000E+00  0.00000000E+00
  0.00000000E+00  0.00000000E+00  0.00000000E+00
  0.00000000E+00  0.00000000E+00  0.00000000E+00
  0.00000000E+00  0.00000000E+00  0.00000000E+00
  0.00000000E+00  0.00000000E+00  0.00000000E+00
  0.00000000E+00  0.00000000E+00  0.00000000E+00
  0.00000000E+00  0.00000000E+00  0.00000000E+00
  0.00000000E+00  0.00000000E+00  0.00000000E+00
  0.00000000E+00  0.00000000E+00  0.00000000E+00
  0.00000000E+00  0.00000000E+00  0.00000000E+00
  0.00000000E+00  0.00000000E+00  0.00000000E+00
  0.00000000E+00  0.00000000E+00  0.00000000E+00
  0.00000000E+00  0.00000000E+00  0.00000000E+00
  0.00000000E+00  0.00000000E+00  0.00000000E+00
  0.00000000E+00  0.00000000E+00  0.00000000E+00
  0.00000000E+00  0.00000000E+00  0.00000000E+00
  0.00000000E+00  0.00000000E+00  0.00000000E+00
  0.00000000E+00  0.00000000E+00  0.00000000E+00
  0.00000000E+00  0.00000000E+00  0.00000000E+00
  0.00000000E+00  0.00000000E+00  0.00000000E+00
  0.00000000E+00  0.00000000E+00  0.00000000E+00
  0.00000000E+00  0.00000000E+00  0.00000000E+00
  0.00000000E+00  0.00000000E+00  0.00000000E+00
  0.00000000E+00  0.00000000E+00  0.00000000E+00
  0.00000000E+00  0.00000000E+00  0.00000000E+00
  0.00000000E+00  0.00000000E+00  0.00000000E+00
  0.00000000E+00  0.00000000E+00  0.00000000E+00
  0.00000000E+00  0.00000000E+00  0.00000000E+00
  0.00000000E+00  0.00000000E+00  0.00000000E+00
  0.00000000E+00  0.00000000E+00  0.00000000E+00
  0.00000000E+00  0.00000000E+00  0.00000000E+00
  0.00000000E+00  0.00000000E+00  0.00000000E+00
  0.00000000E+00  0.00000000E+00  0.00000000E+00
  0.00000000E+00  0.00000000E+00  0.00000000E+00
  0.00000000E+00  0.00000000E+00  0.00000000E+00
  0.00000000E+00  0.00000000E+00  0.00000000E+00
  0.00000000E+00  0.00000000E+00  0.00000000E+00
  0.00000000E+00  0.00000000E+00  0.00000000E+00
  0.00000000E+00  0.00000000E+00  0.00000000E+00
  0.00000000E+00  0.00000000E+00  0.00000000E+00
  0.00000000E+00  0.00000000E+00  0.00000000E+00
  0.00000000E+00  0.00000000E+00  0.00000000E+00
  0.00000000E+00  0.00000000E+00  0.00000000E+00
  0.00000000E+00  0.00000000E+00  0.00000000E+00
  0.00000000E+00  0.00000000E+00  0.00000000E+00
  0.00000000E+00  0.00000000E+00  0.00000000E+00
  0.00000000E+00  0.00000000E+00  0.00000000E+00
  0.00000000E+00  0.00000000E+00  0.00000000E+00
  0.00000000E+00  0.00000000E+00  0.00000000E+00
  0.00000000E+00  0.00000000E+00  0.00000000E+00
  0.00000000E+00  0.00000000E+00  0.00000000E+00
  0.00000000E+00  0.00000000E+00  0.00000000E+00
  0.00000000E+00  0.00000000E+00  0.00000000E+00
  0.00000000E+00  0.00000000E+00  0.00000000E+00
  0.00000000E+00  0.00000000E+00  0.00000000E+00
  0.00000000E+00  0.00000000E+00  0.00000000E+00
  0.00000000E+00  0.00000000E+00  0.00000000E+00
  0.00000000E+00  0.00000000E+00  0.00000000E+00
  0.00000000E+00  0.00000000E+00  0.00000000E+00
  0.00000000E+00  0.00000000E+00  0.00000000E+00
  0.00000000E+00  0.00000000E+00  0.00000000E+00
  0.00000000E+00  0.00000000E+00  0.00000000E+00
  0.00000000E+00  0.00000000E+00  0.00000000E+00
  0.00000000E+00  0.00000000E+00  0.00000000E+00
  0.00000000E+00  0.00000000E+00  0.00000000E+00
  0.00000000E+00  0.00000000E+00  0.00000000E+00
  0.00000000E+00  0.00000000E+00  0.00000000E+00
  0.00000000E+00  0.00000000E+00  0.00000000E+00
  0.00000000E+00  0.00000000E+00  0.00000000E+00
  0.00000000E+00  0.00000000E+00  0.00000000E+00
  0.00000000E+00  0.00000000E+00  0.00000000E+00
  0.00000000E+00  0.00000000E+00  0.00000000E+00
  0.00000000E+00  0.00000000E+00  0.00000000E+00
  0.00000000E+00  0.00000000E+00  0.00000000E+00
  0.00000000E+00  0.00000000E+00  0.00000000E+00
  0.00000000E+00  0.00000000E+00  0.00000000E+00
  0.00000000E+00  0.00000000E+00  0.00000000E+00
  0.00000000E+00  0.00000000E+00  0.00000000E+00
  0.00000000E+00  0.00000000E+00  0.00000000E+00
  0.00000000E+00  0.00000000E+00  0.00000000E+00
  0.00000000E+00  0.00000000E+00  0.00000000E+00
  0.00000000E+00  0.00000000E+00  0.00000000E+00
  0.00000000E+00  0.00000000E+00  0.00000000E+00
  0.00000000E+00  0.00000000E+00  0.00000000E+00
  0.00000000E+00  0.00000000E+00  0.00000000E+00
  0.00000000E+00  0.00000000E+00  0.00000000E+00
  0.00000000E+00  0.00000000E+00  0.00000000E+00
  0.00000000E+00  0.00000000E+00  0.00000000E+00
  0.00000000E+00  0.00000000E+00  0.00000000E+00
  0.00000000E+00  0.00000000E+00  0.00000000E+00
  0.00000000E+00  0.00000000E+00  0.00000000E+00
  0.00000000E+00  0.00000000E+00  0.00000000E+00
  0.00000000E+00  0.00000000E+00  0.00000000E+00
  0.00000000E+00  0.00000000E+00  0.00000000E+00
  0.00000000E+00  0.00000000E+00  0.00000000E+00
  0.00000000E+00  0.00000000E+00  0.00000000E+00
  0.00000000E+00  0.00000000E+00  0.00000000E+00
  0.00000000E+00  0.00000000E+00  0.00000000E+00
  0.00000000E+00  0.00000000E+00  0.00000000E+00
  0.00000000E+00  0.00000000E+00  0.00000000E+00
  0.00000000E+00  0.00000000E+00  0.00000000E+00
  0.00000000E+00  0.00000000E+00  0.00000000E+00
  0.00000000E+00  0.00000000E+00  0.00000000E+00
  0.00000000E+00  0.00000000E+00  0.00000000E+00
  0.00000000E+00  0.00000000E+00  0.00000000E+00
  0.00000000E+00  0.00000000E+00  0.00000000E+00
  0.00000000E+00  0.00000000E+00  0.00000000E+00
  0.00000000E+00  0.00000000E+00  0.00000000E+00
  0.00000000E+00  0.00000000E+00  0.00000000E+00
  0.00000000E+00  0.00000000E+00  0.00000000E+00
  0.00000000E+00  0.00000000E+00  0.00000000E+00
  0.00000000E+00  0.00000000E+00  0.00000000E+00
  0.00000000E+00  0.00000000E+00  0.00000000E+00
  0.00000000E+00  0.00000000E+00  0.00000000E+00
  0.00000000E+00  0.00000000E+00  0.00000000E+00
  0.00000000E+00  0.00000000E+00  0.00000000E+00
  0.00000000E+00  0.00000000E+00  0.00000000E+00
  0.00000000E+00  0.00000000E+00  0.00000000E+00
  0.00000000E+00  0.00000000E+00  0.00000000E+00
  0.00000000E+00  0.00000000E+00  0.00000000E+00
  0.00000000E+00  0.00000000E+00  0.00000000E+00
  0.00000000E+00  0.00000000E+00  0.00000000E+00
  0.00000000E+00  0.00000000E+00  0.00000000E+00
  0.00000000E+00  0.00000000E+00  0.00000000E+00
  0.00000000E+00  0.00000000E+00  0.00000000E+00
  0.00000000E+00  0.00000000E+00  0.00000000E+00
  0.00000000E+00  0.00000000E+00  0.00000000E+00
  0.00000000E+00  0.00000000E+00  0.00000000E+00
  0.00000000E+00  0.00000000E+00  0.00000000E+00
  0.00000000E+00  0.00000000E+00  0.00000000E+00
  0.00000000E+00  0.00000000E+00  0.00000000E+00
  0.00000000E+00  0.00000000E+00  0.00000000E+00
  0.00000000E+00  0.00000000E+00  0.00000000E+00
  0.00000000E+00  0.00000000E+00  0.00000000E+00
  0.00000000E+00  0.00000000E+00  0.00000000E+00
  0.00000000E+00  0.00000000E+00  0.00000000E+00
  0.00000000E+00  0.00000000E+00  0.00000000E+00
  0.00000000E+00  0.00000000E+00  0.00000000E+00
  0.00000000E+00  0.00000000E+00  0.00000000E+00
  0.00000000E+00  0.00000000E+00  0.00000000E+00
  0.00000000E+00  0.00000000E+00  0.00000000E+00
  0.00000000E+00  0.00000000E+00  0.00000000E+00
  0.00000000E+00  0.00000000E+00  0.00000000E+00
  0.00000000E+00  0.00000000E+00  0.00000000E+00
  0.00000000E+00  0.00000000E+00  0.00000000E+00
  0.00000000E+00  0.00000000E+00  0.00000000E+00
  0.00000000E+00  0.00000000E+00  0.00000000E+00
  0.00000000E+00  0.00000000E+00  0.00000000E+00
  0.00000000E+00  0.00000000E+00  0.00000000E+00
  0.00000000E+00  0.00000000E+00  0.00000000E+00
  0.00000000E+00  0.00000000E+00  0.00000000E+00
  0.00000000E+00  0.00000000E+00  0.00000000E+00
  0.00000000E+00  0.00000000E+00  0.00000000E+00
  0.00000000E+00  0.00000000E+00  0.00000000E+00
  0.00000000E+00  0.00000000E+00  0.00000000E+00
  0.00000000E+00  0.00000000E+00  0.00000000E+00
  0.00000000E+00  0.00000000E+00  0.00000000E+00
  0.00000000E+00  0.00000000E+00  0.00000000E+00
  0.00000000E+00  0.00000000E+00  0.00000000E+00
  0.00000000E+00  0.00000000E+00  0.00000000E+00
  0.00000000E+00  0.00000000E+00  0.00000000E+00
  0.00000000E+00  0.00000000E+00  0.00000000E+00
  0.00000000E+00  0.00000000E+00  0.00000000E+00
  0.00000000E+00  0.00000000E+00  0.00000000E+00
  0.00000000E+00  0.00000000E+00  0.00000000E+00
  0.00000000E+00  0.00000000E+00  0.00000000E+00
  0.00000000E+00  0.00000000E+00  0.00000000E+00
  0.00000000E+00  0.00000000E+00  0.00000000E+00
  0.00000000E+00  0.00000000E+00  0.00000000E+00
  0.00000000E+00  0.00000000E+00  0.00000000E+00
  0.00000000E+00  0.00000000E+00  0.00000000E+00
  0.00000000E+00  0.00000000E+00  0.00000000E+00
  0.00000000E+00  0.00000000E+00  0.00000000E+00
  0.00000000E+00  0.00000000E+00  0.00000000E+00
  0.00000000E+00  0.00000000E+00  0.00000000E+00
  0.00000000E+00  0.00000000E+00  0.00000000E+00
  0.00000000E+00  0.00000000E+00  0.00000000E+00
  0.00000000E+00  0.00000000E+00  0.00000000E+00
  0.00000000E+00  0.00000000E+00  0.00000000E+00
  0.00000000E+00  0.00000000E+00  0.00000000E+00
  0.00000000E+00  0.00000000E+00  0.00000000E+00
  0.00000000E+00  0.00000000E+00  0.00000000E+00
  0.00000000E+00  0.00000000E+00  0.00000000E+00
  0.00000000E+00  0.00000000E+00  0.00000000E+00
  0.00000000E+00  0.00000000E+00  0.00000000E+00
  0.00000000E+00  0.00000000E+00  0.00000000E+00
  0.00000000E+00  0.00000000E+00  0.00000000E+00
  0.00000000E+00  0.00000000E+00  0.00000000E+00
  0.00000000E+00  0.00000000E+00  0.00000000E+00
  0.00000000E+00  0.00000000E+00  0.00000000E+00
  0.00000000E+00  0.00000000E+00  0.00000000E+00
  0.00000000E+00  0.00000000E+00  0.00000000E+00
  0.00000000E+00  0.00000000E+00  0.00000000E+00
  0.00000000E+00  0.00000000E+00  0.00000000E+00
  0.00000000E+00  0.00000000E+00  0.00000000E+00
  0.00000000E+00  0.00000000E+00  0.00000000E+00
  0.00000000E+00  0.00000000E+00  0.00000000E+00
  0.00000000E+00  0.00000000E+00  0.00000000E+00
  0.00000000E+00  0.00000000E+00  0.00000000E+00
  0.00000000E+00  0.00000000E+00  0.00000000E+00
  0.00000000E+00  0.00000000E+00  0.00000000E+00
  0.00000000E+00  0.00000000E+00  0.00000000E+00
  0.00000000E+00  0.00000000E+00  0.00000000E+00
  0.00000000E+00  0.00000000E+00  0.00000000E+00
  0.00000000E+00  0.00000000E+00  0.00000000E+00
  0.00000000E+00  0.00000000E+00  0.00000000E+00
  0.00000000E+00  0.00000000E+00  0.00000000E+00
  0.00000000E+00  0.00000000E+00  0.00000000E+00
  0.00000000E+00  0.00000000E+00  0.00000000E+00
  0.00000000E+00  0.00000000E+00  0.00000000E+00
  0.00000000E+00  0.00000000E+00  0.00000000E+00
  0.00000000E+00  0.00000000E+00  0.00000000E+00
  0.00000000E+00  0.00000000E+00  0.00000000E+00
  0.00000000E+00  0.00000000E+00  0.00000000E+00
  0.00000000E+00  0.00000000E+00  0.00000000E+00
  0.00000000E+00  0.00000000E+00  0.00000000E+00
  0.00000000E+00  0.00000000E+00  0.00000000E+00
  0.00000000E+00  0.00000000E+00  0.00000000E+00
  0.00000000E+00  0.00000000E+00  0.00000000E+00
  0.00000000E+00  0.00000000E+00  0.00000000E+00
  0.00000000E+00  0.00000000E+00  0.00000000E+00
  0.00000000E+00  0.00000000E+00  0.00000000E+00
  0.00000000E+00  0.00000000E+00  0.00000000E+00
  0.00000000E+00  0.00000000E+00  0.00000000E+00
  0.00000000E+00  0.00000000E+00  0.00000000E+00
  0.00000000E+00  0.00000000E+00  0.00000000E+00
  0.00000000E+00  0.00000000E+00  0.00000000E+00
  0.00000000E+00  0.00000000E+00  0.00000000E+00
  0.00000000E+00  0.00000000E+00  0.00000000E+00