CuInSe2gb                               
   1.00000000000000     
     9.7266780392896699    0.0000000000000000    0.0000000000000000
     0.0000000000000000    8.4235502764570693    0.0000000000000000
     0.0000000000000000    0.0000000000000000   45.0000000000000000
   Fe   Mn
   274    14
Direct
  0.0605415280705230  0.0328828993663739  0.1243190029085119
  0.3139337315494645  0.8744012000383093  0.6548462341927103
  0.1868578135142250  0.1229203843481590  0.7880259028577021
  0.4402180448674433  0.2877829335988541  0.3895836427109650
  0.3147704381923614  0.7106287077540738  0.8328599992739959
  0.8170436136313640  0.2109944089680404  0.8334003526246112
  0.1895004177993535  0.9613905745915770  0.8331166303860953
  0.5622687093883195  0.2063917972221194  0.5657100804029637
  0.0638687187351754  0.0406766706200512  0.7437664287688378
  0.8112187843798323  0.8723567689973363  0.5217881363791652
  0.1888149293755001  0.2905315059739669  0.7438542596378620
  0.9371153817344364  0.4536308477095094  0.3451525730303730
  0.9392648544981188  0.2879220669138093  0.3895049833212647
  0.8147143073203547  0.0428421734980988  0.8753600603015457
  0.1850953528896381  0.7889370548455018  0.6105274471527276
  0.5650620195396828  0.0373707020989730  0.3895759844684069
  0.9419113819871026  0.9619391464363128  0.8334472423278879
  0.3132807415765795  0.5424105738579915  0.8753889407512280
  0.6891655406829172  0.2904561401154272  0.7439194845016543
  0.1836147566365828  0.6164150345311118  0.1664582785374595
  0.8117028370217582  0.2053468600149514  0.4785615157925462
  0.8104334038467113  0.5384685760086474  0.6105663199727762
  0.3125368128276656  0.8709507638348111  0.4346600851648212
  0.8109058946596871  0.0383865705374103  0.2562948988571705
  0.6871827395712609  0.9543825981439893  0.3451112015029282
  0.9329102939999361  0.1159033649863660  0.1666717863437278
  0.0620365959498165  0.8724287107491326  0.5217994912037108
  0.5617115397083410  0.5395269468077072  0.2562414188703193
  0.6881476947701507  0.7914415418901730  0.8753717632273630
  0.5585599849441856  0.3673023224469436  0.1663441727599595
  0.4386764069668192  0.7904575038706472  0.7438084927508595
  0.8114601825906602  0.7062444454851876  0.5656885268409310
  0.5618340834658639  0.8728999535702047  0.7878920501214606
  0.6863926182436727  0.1219717501636236  0.5217231970841920
  0.8140255028949220  0.3746182429993852  0.6548691526547271
  0.9412143579362512  0.4599472254773672  0.8333727277602487
  0.0615999362092594  0.2074887174782973  0.6994156844062643
  0.4358554478041589  0.9569241122415341  0.6993368796920443
  0.3142691037520380  0.2099366557914208  0.8333160882832114
  0.4390095865877555  0.6241551850556144  0.6547929385585558
  0.3106374840613168  0.5390215867571270  0.6105951635073932
  0.9364626508829672  0.4555889624418410  0.5657611002573439
  0.6888043582023737  0.7908353108601964  0.7438329802492940
  0.9336897120965635  0.7846960522607609  0.1245053482789208
  0.6900354724918044  0.7873043825218924  0.3896325470971946
  0.9393682955654644  0.7905479277315941  0.7437228902837676
  0.0618185682044863  0.2038559807724583  0.3451712956395402
  0.8148459465389531  0.0378554868987491  0.3895649215398432
  0.4363597026212452  0.1232487938767697  0.7879846383157243
  0.0624724179684510  0.2048193306011084  0.2121136308352134
  0.0572490115505110  0.3668491673077052  0.1664429620936267
  0.9355946269560690  0.7888695761893475  0.2562072055754521
  0.5615886914449838  0.2074267343720394  0.6994592141990399
  0.6865663104947893  0.9570712599653565  0.6994600166988348
  0.8114781459439353  0.8730573767229508  0.7878556043274252
  0.4367954941428395  0.9561584842653796  0.5656655829657314
  0.8121252405565313  0.3725252340352468  0.7878105665466982
  0.6863173675747727  0.2888418511607903  0.2562412173147071
  0.1868167704463159  0.4559789838575992  0.5656669046347909
  0.0573240868343092  0.8664909316060020  0.1663744619825445
  0.1855858435357784  0.2885634825940323  0.6105594433049947
  0.1896193096615826  0.7876803836528184  0.3896284781385158
  0.3112010159707947  0.2073633489072603  0.6995629653027204
  0.5643769139394637  0.5431704741327047  0.8752850164485424
  0.0614062530321657  0.7061133602105099  0.5656611494177183
  0.6867375589349335  0.6230072771007801  0.7879318308015467
  0.3149483094117194  0.5379596219063280  0.3896225194761985
  0.1869127703411957  0.6222065630244353  0.5216222672295904
  0.5624407172373889  0.8707055450031007  0.4346011010903205
  0.4367769509397937  0.4567110904847641  0.5656432917050842
  0.4390940758031149  0.2907171531932002  0.7438797029763676
  0.8156753675076639  0.8737181023788794  0.3004295646577449
  0.8123590773603417  0.7037103428417620  0.3452305082969684
  0.4399282316754933  0.4602685609489811  0.8331925334913960
  0.6871693902060648  0.9549954485204178  0.4784737870719750
  0.6867610667067320  0.4580094351135330  0.6993507607419842
  0.5619796561499165  0.8722957497445856  0.5216861143651356
  0.5645218536895361  0.3740024492980260  0.6546282830790278
  0.8142632573559048  0.8735844543943135  0.6548063135176835
  0.8121200907764119  0.3715182951132930  0.4344803605470192
  0.8110304560810602  0.5388983843661762  0.2561995880350704
  0.6914186071363659  0.4603177869416226  0.8332222930815495
  0.1853552050995796  0.7845105183224365  0.1238306671212302
  0.6898756370091207  0.2874499650973443  0.3895891088785666
  0.3139285189109595  0.3741716838718547  0.6548729961901389
  0.3116953114037709  0.2041071894006498  0.3452153546864252
  0.8140711255061586  0.5402857687570518  0.7437080797884597
  0.6905843859916888  0.9613252612439280  0.8331410441819586
  0.5641273488627216  0.8737317506529816  0.6548161648437272
  0.3120659208725974  0.7065050301022449  0.5657214809300632
  0.3112057376118946  0.5354367449330230  0.1241413647903466
  0.6879934378634402  0.9547670450219188  0.2121902819923306
  0.3119487801350508  0.2064076614071003  0.5656156436709254
  0.1870396676101990  0.9546339934952882  0.4784608446513716
  0.6878658463221919  0.9560314614567357  0.5656424833285069
  0.4354933750907304  0.7892190009905549  0.6105627104254724
  0.6834171172481160  0.6162416860826936  0.1666432799561590
  0.3160309729728937  0.8726927133954050  0.3004436725967882
  0.3123816654648913  0.7046671863640320  0.4784572664694458
  0.9352205469029781  0.2883701101340283  0.6105361309920607
  0.4416000569287865  0.6234556944958375  0.3005464433206603
  0.8075971022071378  0.8656805120181771  0.1665815736076473
  0.5644319217606264  0.2043221001329466  0.2121859380708227
  0.9334070542623798  0.6160659448500482  0.1666496098523043
  0.4372956076695451  0.9547600346093252  0.4785146946098852
  0.5615494893026158  0.3725973459498776  0.7878706358792449
  0.0615395936345705  0.3725867903082039  0.5217328454216288
  0.3077707157793101  0.3656804661838282  0.1665120861598298
  0.6915464804906608  0.1236974916522733  0.3005490978303447
  0.4404823112497368  0.9601289357892335  0.8330934857547648
  0.1851553260433721  0.2849155162953059  0.1243720159548232
  0.1864402438088918  0.2884164092579651  0.2562421856972525
  0.3127920051912168  0.3713500147958382  0.4345981175305266
  0.5613433495342598  0.0330665572522882  0.1243800000294184
  0.4353817784677376  0.2890221415376493  0.6105177381278327
  0.1867212841196112  0.4538307791917993  0.3452255866167012
  0.4344583657953410  0.2847381613277203  0.1243692068467627
  0.6864341579004806  0.7891929604950729  0.2561805593391814
  0.4368051598588212  0.1224346504875301  0.5216548041819355
  0.1880747476804541  0.2914535291436969  0.8754806773377674
  0.1886299023541374  0.1240928918489750  0.6548864738993398
  0.9395342138038855  0.1238292661725704  0.6547539183960024
  0.8144558065681570  0.5380393602351021  0.3896437106511174
  0.0645185836409903  0.0379544224161878  0.3895390624703252
  0.1826916346533494  0.1155431227174666  0.1662687540932802
  0.0603113697887908  0.5385811640972806  0.6105627448494501
  0.9358213556092544  0.2886578728107618  0.2561681481374700
  0.5604985063821886  0.5391028396446487  0.6105037072831847
  0.9364949440402135  0.9562316618775567  0.5657119916443274
  0.6914472028767902  0.6244635170067490  0.3003615889936649
  0.9373018228473874  0.6211591115112071  0.4345436477536544
  0.9365905154553522  0.6238626934060856  0.7878635459161012
  0.5612705911811821  0.7071093437588264  0.6993796123322512
  0.0650516610515637  0.7120513958144857  0.8333082964355050
  0.9405719932287490  0.1236285677915178  0.3005718679776672
  0.9353426692916952  0.7888839236315276  0.6106175827759368
  0.4366206500136707  0.7886672803593031  0.2562260902277318
  0.3119845008360027  0.3725632695748924  0.7879367404423416
  0.4395572131752573  0.4557680182384326  0.2122513106600392
  0.1870658098538470  0.1218120042643974  0.5216967271465212
  0.8117831280629856  0.7075823694428878  0.6994279135880868
  0.0599472796191751  0.0387107748740578  0.6105392350411009
  0.5649491219267251  0.2100592731296657  0.8329954889356889
  0.3115394689022544  0.8722812536770876  0.5216310571193146
  0.6852077578830447  0.2850305424424782  0.1241451183595661
  0.1875695725395734  0.9554696783811063  0.2123993676004835
  0.6855456832910538  0.2890306221631531  0.6105480396806133
  0.3101686375339187  0.0388038181159423  0.6105897766598268
  0.9372188917879101  0.1235433276998340  0.7881487448168862
  0.4374578272209588  0.7915656603739640  0.8752945851995763
  0.8141351725383897  0.0411138128298431  0.7438015190569810
  0.9365953653014844  0.4575439393546752  0.6994996133875561
  0.1887764022611023  0.6241854798717363  0.6548550124115053
  0.3113453809233512  0.7074045376221187  0.6994083536810509
  0.9340954274924921  0.2845266168631886  0.1242819033654946
  0.4373074530082705  0.4546513946488217  0.4784668229346999
  0.0621163825811694  0.7045618290410016  0.4785049861285158
  0.9370569919779809  0.1211232151979778  0.4347169789705428
  0.4413657582345575  0.1236704495568224  0.3005298741179724
  0.1878238735691950  0.1209053982265784  0.4344588637205584
  0.5648073070723552  0.0412250842919855  0.8753667881343774
  0.1861164682091477  0.9562694358883710  0.5656676456527413
  0.6853367527183546  0.7848416210050118  0.1245743281361137
  0.5617873045144871  0.5338150828360534  0.1243927037429161
  0.3146373726495394  0.0378690885810417  0.3896116750336127
  0.6841081360273079  0.1159388530521928  0.1667478670211090
  0.8135247766551615  0.2038227954538023  0.2122266977931074
  0.0609871645269717  0.5393206871724305  0.2562403345605284
  0.5621534451164372  0.7048870881209636  0.4784520746205761
  0.4346741319305937  0.7845863541632910  0.1239615498574758
  0.5661302542331643  0.3740088870695653  0.3005468211917531
  0.4369063374748797  0.9542424695809449  0.3452086139878059
  0.1866328272237487  0.9575629845647062  0.6994863788891722
  0.4337619113273953  0.6170869538262327  0.1665411680853957
  0.9384000310119426  0.4558283822653796  0.2123778592532984
  0.0599724701875386  0.5336219463733445  0.1243561201455097
  0.8118005443125833  0.3724165640729081  0.5217779704423557
  0.9406026851357160  0.6237756310900835  0.3005696332776359
  0.3118639384802469  0.0381399535769109  0.2562286772806273
  0.6858117022436282  0.7892166911660564  0.6104903162056686
  0.1897089172631752  0.4601727191652506  0.8333978612711974
  0.4345379984262778  0.1154986825370107  0.1664741948311180
  0.3114079541698103  0.3721904386706380  0.5216900368997962
  0.4365116638162138  0.6229558788766812  0.7879473582781098
  0.0606168422260365  0.0382671890402994  0.2562278473080418
  0.5621067790414169  0.7065666959624032  0.5657131637002750
  0.9391169610853757  0.2902124313480156  0.7437760789730891
  0.9387192570602959  0.7912481369451522  0.8754356047052545
  0.1871580969662960  0.4558829211317317  0.2123267225938827
  0.9396641855274939  0.7877418434260135  0.3894959177801935
  0.6883795689987805  0.2919136277232595  0.8755283795136573
  0.5583259791466206  0.8664527221857433  0.1665600078662011
  0.4364713686870684  0.4574530921025333  0.6994386716195867
  0.9370252087989295  0.9539853710102240  0.3451353473790486
  0.6864999979349364  0.6222501648582037  0.5216838302695186
  0.0640564330077650  0.8736100266083645  0.6549714567765687
  0.0621700408764976  0.8732714024957439  0.7879835258393367
  0.0640417109257319  0.3740236208825516  0.6548337070219868
  0.6869355357464217  0.4547988997005017  0.4784590340281136
  0.1864050725089654  0.7885074477046601  0.2562750203694599
  0.4376972649313197  0.1208442689842260  0.4346050629069709
  0.8108531034146876  0.0339511750647541  0.1244652214738077
  0.9365512585297303  0.6220789949123258  0.5216948258450609
  0.0625685616888393  0.8708683211594923  0.4344744123398837
  0.8107408379267192  0.5346781463202966  0.1240817003295809
  0.4363290749483225  0.4539722176674537  0.3453007403318885
  0.8123149944222025  0.2042844434677178  0.3451807382194129
  0.3113315871718088  0.7040983207046935  0.3452557803457428
  0.6897100882797732  0.1240076543415147  0.6547462334462781
  0.5667695331508534  0.8739117737799900  0.3004023923276469
  0.0638405158147958  0.5399692870134220  0.7437369553064922
  0.9380803275764618  0.9548130887783915  0.2120962964159727
  0.8134405644916296  0.7044669439975773  0.2120058343303280
  0.0654568252097100  0.8732271663030291  0.3005897323064111
  0.1907789508192047  0.1234949065482639  0.3005660544938469
  0.0614040500693719  0.7041797162864408  0.3452613337109530
  0.8110932901871147  0.0389486868282927  0.6104559937141906
  0.0623946326429736  0.3715820093977037  0.4344380024768980
  0.5619066526190506  0.2037754929910302  0.3452767218705429
  0.8162157027205897  0.3737702657230899  0.3003839408936461
  0.5618606124056937  0.0390532335744467  0.2561339848698245
  0.5649807029286434  0.5375866248945522  0.3897014696015993
  0.0624614759694226  0.2049408888097567  0.4786773744645157
  0.3123561745744043  0.8725725029162387  0.7878089988884954
  0.9368728939894777  0.9571888161253486  0.6992931162847033
  0.0658290104529232  0.3735884659605823  0.3006527703327722
  0.6896404620137822  0.6242268731147883  0.6549101868303622
  0.6870542798007699  0.4562238484112378  0.5657274444960264
  0.4397803671854596  0.9555513330023612  0.2124416671253779
  0.3122707933950695  0.2049460850993637  0.4784668507073984
  0.8141858626763598  0.5418698246122253  0.8754183012677931
  0.6873308803371221  0.6210373318253875  0.4345016533540660
  0.8120470879992304  0.2074550882682084  0.6994778002825836
  0.8119738273801757  0.7047641818859164  0.4784862554103070
  0.8120293575801164  0.8709307683748924  0.4344940129682038
  0.9371326240707506  0.9542366746459054  0.4785505276644395
  0.5622515463336267  0.2050919723780019  0.4784483726604233
  0.1876086344948686  0.6210409111573119  0.4345448181341893
  0.3137051149994539  0.0410451869110787  0.7437938246167013
  0.9391116289697451  0.6243995902315846  0.6548411404625455
  0.5653646253902510  0.7108207207764411  0.8331185433687462
  0.3158380790168354  0.3731057453179761  0.3005145466271926
  0.5642351640157800  0.7052771066318497  0.2120605822515479
  0.1873386448576935  0.4546009295398308  0.4784824165266268
  0.3140758806727925  0.0431090283132750  0.8751662627036918
  0.1861834020498195  0.4574713841730162  0.6994650536316870
  0.5619310090823089  0.3722566016702091  0.5217103485903831
  0.1896029946844104  0.2878164122138754  0.3896015243474783
  0.4375896262443027  0.6210792181095020  0.4346429821684681
  0.0633850171131354  0.7047069898396446  0.2121024058553142
  0.5624026379822047  0.3710954538195634  0.4346270492400700
  0.4367993798562473  0.6222476717292186  0.5216794384725985
  0.8153630493198429  0.7106955097956750  0.8329437420826737
  0.0622622063550991  0.3732798055540565  0.7879892976800759
  0.4368179848278432  0.2923192505631090  0.8754793814036897
  0.3110400078108156  0.0338968671417604  0.1237506791111859
  0.6871977950847514  0.1204105032265100  0.4344861901695395
  0.1865294149955161  0.9541290977757108  0.3452501314761796
  0.0647668683935026  0.2103331089290402  0.8333006824362382
  0.5607257662989228  0.0390076185837533  0.6104696625456256
  0.6879330707043002  0.4556018349558066  0.2123618002823878
  0.1890286800518810  0.7905923872232364  0.7437227029258374
  0.1907697529349623  0.6233297507981378  0.3005509232355587
  0.4397605325353170  0.7875948840001237  0.3897458716924430
  0.4361347593020954  0.2885867020222401  0.2561079837950865
  0.0649922013938563  0.5426079601915955  0.8753556405987952
  0.5643986984281959  0.0408780132813337  0.7439429848352074
  0.1873489308389089  0.7922780076287538  0.8753855925171605
  0.9369735169931330  0.4546223895676182  0.4785118979790139
  0.5643798895183766  0.5405874298736281  0.7437218119251088
  0.8113645419437528  0.2059568617062167  0.5656896757879188
  0.1867407237170851  0.6233755298044584  0.7880201298794384
  0.0647719587485956  0.5379106960955803  0.3895392443903019
  0.0616751469724470  0.7075089619037688  0.6993793446233553
  0.3110425558156694  0.5383080113543098  0.2560233258424726
  0.3143213143433253  0.7050740258278729  0.2126246892742631
  0.3077395120098977  0.8662476993958796  0.1657380473270001
  0.3145727448452801  0.2050712112976836  0.2126866468065206
  0.6870295748713998  0.4532772219266782  0.3451706352231238
  0.9378561235729657  0.2921651833313788  0.8753520160281821
  0.6855159286151679  0.1227966770999010  0.7875541571073031
  0.0645372696750409  0.0404913609109069  0.8751928948124948
  0.5614895155648708  0.7048454114661262  0.3452101978028851
  0.8073818346650652  0.3671220054533790  0.1661134170635497
  0.4394643540675212  0.1241528979633821  0.6545688561767050
  0.9366035642373907  0.1222832857516239  0.5216040492307966
  0.0620889851752629  0.2063354422873981  0.5658576124029434
  0.3145013829440077  0.5401412938717708  0.7437645598718738
 
  0.00000000E+00  0.00000000E+00  0.00000000E+00
  0.00000000E+00  0.00000000E+00  0.00000000E+00
  0.00000000E+00  0.00000000E+00  0.00000000E+00
  0.00000000E+00  0.00000000E+00  0.00000000E+00
  0.00000000E+00  0.00000000E+00  0.00000000E+00
  0.00000000E+00  0.00000000E+00  0.00000000E+00
  0.00000000E+00  0.00000000E+00  0.00000000E+00
  0.00000000E+00  0.00000000E+00  0.00000000E+00
  0.00000000E+00  0.00000000E+00  0.00000000E+00
  0.00000000E+00  0.00000000E+00  0.00000000E+00
  0.00000000E+00  0.00000000E+00  0.00000000E+00
  0.00000000E+00  0.00000000E+00  0.00000000E+00
  0.00000000E+00  0.00000000E+00  0.00000000E+00
  0.00000000E+00  0.00000000E+00  0.00000000E+00
  0.00000000E+00  0.00000000E+00  0.00000000E+00
  0.00000000E+00  0.00000000E+00  0.00000000E+00
  0.00000000E+00  0.00000000E+00  0.00000000E+00
  0.00000000E+00  0.00000000E+00  0.00000000E+00
  0.00000000E+00  0.00000000E+00  0.00000000E+00
  0.00000000E+00  0.00000000E+00  0.00000000E+00
  0.00000000E+00  0.00000000E+00  0.00000000E+00
  0.00000000E+00  0.00000000E+00  0.00000000E+00
  0.00000000E+00  0.00000000E+00  0.00000000E+00
  0.00000000E+00  0.00000000E+00  0.00000000E+00
  0.00000000E+00  0.00000000E+00  0.00000000E+00
  0.00000000E+00  0.00000000E+00  0.00000000E+00
  0.00000000E+00  0.00000000E+00  0.00000000E+00
  0.00000000E+00  0.00000000E+00  0.00000000E+00
  0.00000000E+00  0.00000000E+00  0.00000000E+00
  0.00000000E+00  0.00000000E+00  0.00000000E+00
  0.00000000E+00  0.00000000E+00  0.00000000E+00
  0.00000000E+00  0.00000000E+00  0.00000000E+00
  0.00000000E+00  0.00000000E+00  0.00000000E+00
  0.00000000E+00  0.00000000E+00  0.00000000E+00
  0.00000000E+00  0.00000000E+00  0.00000000E+00
  0.00000000E+00  0.00000000E+00  0.00000000E+00
  0.00000000E+00  0.00000000E+00  0.00000000E+00
  0.00000000E+00  0.00000000E+00  0.00000000E+00
  0.00000000E+00  0.00000000E+00  0.00000000E+00
  0.00000000E+00  0.00000000E+00  0.00000000E+00
  0.00000000E+00  0.00000000E+00  0.00000000E+00
  0.00000000E+00  0.00000000E+00  0.00000000E+00
  0.00000000E+00  0.00000000E+00  0.00000000E+00
  0.00000000E+00  0.00000000E+00  0.00000000E+00
  0.00000000E+00  0.00000000E+00  0.00000000E+00
  0.00000000E+00  0.00000000E+00  0.00000000E+00
  0.00000000E+00  0.00000000E+00  0.00000000E+00
  0.00000000E+00  0.00000000E+00  0.00000000E+00
  0.00000000E+00  0.00000000E+00  0.00000000E+00
  0.00000000E+00  0.00000000E+00  0.00000000E+00
  0.00000000E+00  0.00000000E+00  0.00000000E+00
  0.00000000E+00  0.00000000E+00  0.00000000E+00
  0.00000000E+00  0.00000000E+00  0.00000000E+00
  0.00000000E+00  0.00000000E+00  0.00000000E+00
  0.00000000E+00  0.00000000E+00  0.00000000E+00
  0.00000000E+00  0.00000000E+00  0.00000000E+00
  0.00000000E+00  0.00000000E+00  0.00000000E+00
  0.00000000E+00  0.00000000E+00  0.00000000E+00
  0.00000000E+00  0.00000000E+00  0.00000000E+00
  0.00000000E+00  0.00000000E+00  0.00000000E+00
  0.00000000E+00  0.00000000E+00  0.00000000E+00
  0.00000000E+00  0.00000000E+00  0.00000000E+00
  0.00000000E+00  0.00000000E+00  0.00000000E+00
  0.00000000E+00  0.00000000E+00  0.00000000E+00
  0.00000000E+00  0.00000000E+00  0.00000000E+00
  0.00000000E+00  0.00000000E+00  0.00000000E+00
  0.00000000E+00  0.00000000E+00  0.00000000E+00
  0.00000000E+00  0.00000000E+00  0.00000000E+00
  0.00000000E+00  0.00000000E+00  0.00000000E+00
  0.00000000E+00  0.00000000E+00  0.00000000E+00
  0.00000000E+00  0.00000000E+00  0.00000000E+00
  0.00000000E+00  0.00000000E+00  0.00000000E+00
  0.00000000E+00  0.00000000E+00  0.00000000E+00
  0.00000000E+00  0.00000000E+00  0.00000000E+00
  0.00000000E+00  0.00000000E+00  0.00000000E+00
  0.00000000E+00  0.00000000E+00  0.00000000E+00
  0.00000000E+00  0.00000000E+00  0.00000000E+00
  0.00000000E+00  0.00000000E+00  0.00000000E+00
  0.00000000E+00  0.00000000E+00  0.00000000E+00
  0.00000000E+00  0.00000000E+00  0.00000000E+00
  0.00000000E+00  0.00000000E+00  0.00000000E+00
  0.00000000E+00  0.00000000E+00  0.00000000E+00
  0.00000000E+00  0.00000000E+00  0.00000000E+00
  0.00000000E+00  0.00000000E+00  0.00000000E+00
  0.00000000E+00  0.00000000E+00  0.00000000E+00
  0.00000000E+00  0.00000000E+00  0.00000000E+00
  0.00000000E+00  0.00000000E+00  0.00000000E+00
  0.00000000E+00  0.00000000E+00  0.00000000E+00
  0.00000000E+00  0.00000000E+00  0.00000000E+00
  0.00000000E+00  0.00000000E+00  0.00000000E+00
  0.00000000E+00  0.00000000E+00  0.00000000E+00
  0.00000000E+00  0.00000000E+00  0.00000000E+00
  0.00000000E+00  0.00000000E+00  0.00000000E+00
  0.00000000E+00  0.00000000E+00  0.00000000E+00
  0.00000000E+00  0.00000000E+00  0.00000000E+00
  0.00000000E+00  0.00000000E+00  0.00000000E+00
  0.00000000E+00  0.00000000E+00  0.00000000E+00
  0.00000000E+00  0.00000000E+00  0.00000000E+00
  0.00000000E+00  0.00000000E+00  0.00000000E+00
  0.00000000E+00  0.00000000E+00  0.00000000E+00
  0.00000000E+00  0.00000000E+00  0.00000000E+00
  0.00000000E+00  0.00000000E+00  0.00000000E+00
  0.00000000E+00  0.00000000E+00  0.00000000E+00
  0.00000000E+00  0.00000000E+00  0.00000000E+00
  0.00000000E+00  0.00000000E+00  0.00000000E+00
  0.00000000E+00  0.00000000E+00  0.00000000E+00
  0.00000000E+00  0.00000000E+00  0.00000000E+00
  0.00000000E+00  0.00000000E+00  0.00000000E+00
  0.00000000E+00  0.00000000E+00  0.00000000E+00
  0.00000000E+00  0.00000000E+00  0.00000000E+00
  0.00000000E+00  0.00000000E+00  0.00000000E+00
  0.00000000E+00  0.00000000E+00  0.00000000E+00
  0.00000000E+00  0.00000000E+00  0.00000000E+00
  0.00000000E+00  0.00000000E+00  0.00000000E+00
  0.00000000E+00  0.00000000E+00  0.00000000E+00
  0.00000000E+00  0.00000000E+00  0.00000000E+00
  0.00000000E+00  0.00000000E+00  0.00000000E+00
  0.00000000E+00  0.00000000E+00  0.00000000E+00
  0.00000000E+00  0.00000000E+00  0.00000000E+00
  0.00000000E+00  0.00000000E+00  0.00000000E+00
  0.00000000E+00  0.00000000E+00  0.00000000E+00
  0.00000000E+00  0.00000000E+00  0.00000000E+00
  0.00000000E+00  0.00000000E+00  0.00000000E+00
  0.00000000E+00  0.00000000E+00  0.00000000E+00
  0.00000000E+00  0.00000000E+00  0.00000000E+00
  0.00000000E+00  0.00000000E+00  0.00000000E+00
  0.00000000E+00  0.00000000E+00  0.00000000E+00
  0.00000000E+00  0.00000000E+00  0.00000000E+00
  0.00000000E+00  0.00000000E+00  0.00000000E+00
  0.00000000E+00  0.00000000E+00  0.00000000E+00
  0.00000000E+00  0.00000000E+00  0.00000000E+00
  0.00000000E+00  0.00000000E+00  0.00000000E+00
  0.00000000E+00  0.00000000E+00  0.00000000E+00
  0.00000000E+00  0.00000000E+00  0.00000000E+00
  0.00000000E+00  0.00000000E+00  0.00000000E+00
  0.00000000E+00  0.00000000E+00  0.00000000E+00
  0.00000000E+00  0.00000000E+00  0.00000000E+00
  0.00000000E+00  0.00000000E+00  0.00000000E+00
  0.00000000E+00  0.00000000E+00  0.00000000E+00
  0.00000000E+00  0.00000000E+00  0.00000000E+00
  0.00000000E+00  0.00000000E+00  0.00000000E+00
  0.00000000E+00  0.00000000E+00  0.00000000E+00
  0.00000000E+00  0.00000000E+00  0.00000000E+00
  0.00000000E+00  0.00000000E+00  0.00000000E+00
  0.00000000E+00  0.00000000E+00  0.00000000E+00
  0.00000000E+00  0.00000000E+00  0.00000000E+00
  0.00000000E+00  0.00000000E+00  0.00000000E+00
  0.00000000E+00  0.00000000E+00  0.00000000E+00
  0.00000000E+00  0.00000000E+00  0.00000000E+00
  0.00000000E+00  0.00000000E+00  0.00000000E+00
  0.00000000E+00  0.00000000E+00  0.00000000E+00
  0.00000000E+00  0.00000000E+00  0.00000000E+00
  0.00000000E+00  0.00000000E+00  0.00000000E+00
  0.00000000E+00  0.00000000E+00  0.00000000E+00
  0.00000000E+00  0.00000000E+00  0.00000000E+00
  0.00000000E+00  0.00000000E+00  0.00000000E+00
  0.00000000E+00  0.00000000E+00  0.00000000E+00
  0.00000000E+00  0.00000000E+00  0.00000000E+00
  0.00000000E+00  0.00000000E+00  0.00000000E+00
  0.00000000E+00  0.00000000E+00  0.00000000E+00
  0.00000000E+00  0.00000000E+00  0.00000000E+00
  0.00000000E+00  0.00000000E+00  0.00000000E+00
  0.00000000E+00  0.00000000E+00  0.00000000E+00
  0.00000000E+00  0.00000000E+00  0.00000000E+00
  0.00000000E+00  0.00000000E+00  0.00000000E+00
  0.00000000E+00  0.00000000E+00  0.00000000E+00
  0.00000000E+00  0.00000000E+00  0.00000000E+00
  0.00000000E+00  0.00000000E+00  0.00000000E+00
  0.00000000E+00  0.00000000E+00  0.00000000E+00
  0.00000000E+00  0.00000000E+00  0.00000000E+00
  0.00000000E+00  0.00000000E+00  0.00000000E+00
  0.00000000E+00  0.00000000E+00  0.00000000E+00
  0.00000000E+00  0.00000000E+00  0.00000000E+00
  0.00000000E+00  0.00000000E+00  0.00000000E+00
  0.00000000E+00  0.00000000E+00  0.00000000E+00
  0.00000000E+00  0.00000000E+00  0.00000000E+00
  0.00000000E+00  0.00000000E+00  0.00000000E+00
  0.00000000E+00  0.00000000E+00  0.00000000E+00
  0.00000000E+00  0.00000000E+00  0.00000000E+00
  0.00000000E+00  0.00000000E+00  0.00000000E+00
  0.00000000E+00  0.00000000E+00  0.00000000E+00
  0.00000000E+00  0.00000000E+00  0.00000000E+00
  0.00000000E+00  0.00000000E+00  0.00000000E+00
  0.00000000E+00  0.00000000E+00  0.00000000E+00
  0.00000000E+00  0.00000000E+00  0.00000000E+00
  0.00000000E+00  0.00000000E+00  0.00000000E+00
  0.00000000E+00  0.00000000E+00  0.00000000E+00
  0.00000000E+00  0.00000000E+00  0.00000000E+00
  0.00000000E+00  0.00000000E+00  0.00000000E+00
  0.00000000E+00  0.00000000E+00  0.00000000E+00
  0.00000000E+00  0.00000000E+00  0.00000000E+00
  0.00000000E+00  0.00000000E+00  0.00000000E+00
  0.00000000E+00  0.00000000E+00  0.00000000E+00
  0.00000000E+00  0.00000000E+00  0.00000000E+00
  0.00000000E+00  0.00000000E+00  0.00000000E+00
  0.00000000E+00  0.00000000E+00  0.00000000E+00
  0.00000000E+00  0.00000000E+00  0.00000000E+00
  0.00000000E+00  0.00000000E+00  0.00000000E+00
  0.00000000E+00  0.00000000E+00  0.00000000E+00
  0.00000000E+00  0.00000000E+00  0.00000000E+00
  0.00000000E+00  0.00000000E+00  0.00000000E+00
  0.00000000E+00  0.00000000E+00  0.00000000E+00
  0.00000000E+00  0.00000000E+00  0.00000000E+00
  0.00000000E+00  0.00000000E+00  0.00000000E+00
  0.00000000E+00  0.00000000E+00  0.00000000E+00
  0.00000000E+00  0.00000000E+00  0.00000000E+00
  0.00000000E+00  0.00000000E+00  0.00000000E+00
  0.00000000E+00  0.00000000E+00  0.00000000E+00
  0.00000000E+00  0.00000000E+00  0.00000000E+00
  0.00000000E+00  0.00000000E+00  0.00000000E+00
  0.00000000E+00  0.00000000E+00  0.00000000E+00
  0.00000000E+00  0.00000000E+00  0.00000000E+00
  0.00000000E+00  0.00000000E+00  0.00000000E+00
  0.00000000E+00  0.00000000E+00  0.00000000E+00
  0.00000000E+00  0.00000000E+00  0.00000000E+00
  0.00000000E+00  0.00000000E+00  0.00000000E+00
  0.00000000E+00  0.00000000E+00  0.00000000E+00
  0.00000000E+00  0.00000000E+00  0.00000000E+00
  0.00000000E+00  0.00000000E+00  0.00000000E+00
  0.00000000E+00  0.00000000E+00  0.00000000E+00
  0.00000000E+00  0.00000000E+00  0.00000000E+00
  0.00000000E+00  0.00000000E+00  0.00000000E+00
  0.00000000E+00  0.00000000E+00  0.00000000E+00
  0.00000000E+00  0.00000000E+00  0.00000000E+00
  0.00000000E+00  0.00000000E+00  0.00000000E+00
  0.00000000E+00  0.00000000E+00  0.00000000E+00
  0.00000000E+00  0.00000000E+00  0.00000000E+00
  0.00000000E+00  0.00000000E+00  0.00000000E+00
  0.00000000E+00  0.00000000E+00  0.00000000E+00
  0.00000000E+00  0.00000000E+00  0.00000000E+00
  0.00000000E+00  0.00000000E+00  0.00000000E+00
  0.00000000E+00  0.00000000E+00  0.00000000E+00
  0.00000000E+00  0.00000000E+00  0.00000000E+00
  0.00000000E+00  0.00000000E+00  0.00000000E+00
  0.00000000E+00  0.00000000E+00  0.00000000E+00
  0.00000000E+00  0.00000000E+00  0.00000000E+00
  0.00000000E+00  0.00000000E+00  0.00000000E+00
  0.00000000E+00  0.00000000E+00  0.00000000E+00
  0.00000000E+00  0.00000000E+00  0.00000000E+00
  0.00000000E+00  0.00000000E+00  0.00000000E+00
  0.00000000E+00  0.00000000E+00  0.00000000E+00
  0.00000000E+00  0.00000000E+00  0.00000000E+00
  0.00000000E+00  0.00000000E+00  0.00000000E+00
  0.00000000E+00  0.00000000E+00  0.00000000E+00
  0.00000000E+00  0.00000000E+00  0.00000000E+00
  0.00000000E+00  0.00000000E+00  0.00000000E+00
  0.00000000E+00  0.00000000E+00  0.00000000E+00