CuInSe2gb                               
   1.00000000000000     
     9.7266780392896699    0.0000000000000000    0.0000000000000000
     0.0000000000000000    8.4235502764570693    0.0000000000000000
     0.0000000000000000    0.0000000000000000   45.0000000000000000
   Fe   Mn
   274    14
Direct
  0.0612795096911531  0.0331391850948908  0.1244417068462214
  0.3136823327102913  0.8739917811182141  0.6550232891931320
  0.1867238284224726  0.1247279581201374  0.7884109322728818
  0.4400692474899131  0.2879703359624981  0.3892926744149503
  0.3147180333678781  0.7110057124146170  0.8335093065123921
  0.8159382155162344  0.2125314231312933  0.8338356040478418
  0.1893340723496908  0.9616860312450000  0.8339709104950810
  0.5618221752759166  0.2062232317414000  0.5657019487006867
  0.0633793435955364  0.0411835145814258  0.7441527359530059
  0.8117125276566562  0.8723043047715263  0.5216174786736250
  0.1882845305831131  0.2911956004916594  0.7442714679091504
  0.9370338517192134  0.4540274788362290  0.3448793954587199
  0.9393268998281585  0.2876785978373295  0.3892053605413626
  0.8124091666558315  0.0448958764311266  0.8759494761685560
  0.1861065535285946  0.7893237232180635  0.6105568812460540
  0.5642291608005595  0.0380283396911762  0.3892761303701416
  0.9368459934610659  0.1225430422002218  0.5215423028391757
  0.3139322767600000  0.5442650490137311  0.8757477818502651
  0.6885017190776869  0.2912635999421364  0.7442518363189723
  0.1848563432892586  0.6164865197436307  0.1664502533383701
  0.8122275360295151  0.2047838306308178  0.4783032588823336
  0.8110293597306801  0.5393667703137919  0.6106082927341210
  0.3127838520042214  0.8713626619490541  0.4342081011377424
  0.8118413639744327  0.0373317497877879  0.2558873079850111
  0.6870582075006915  0.9539051954756195  0.3449038999115894
  0.9336344059961096  0.1162202852944803  0.1666301684798872
  0.0617833562929846  0.8724123971128146  0.5214913821133326
  0.5615263092607111  0.5376396515832121  0.2557763134381354
  0.6872057811754759  0.7943402896936559  0.8756279196093595
  0.5589097416203480  0.3667935133509463  0.1662672100926588
  0.4384519092988997  0.7916569972659673  0.7442364622788271
  0.8117711679622149  0.7062592029390289  0.5656754446838564
  0.5616011730966630  0.8743278093212905  0.7883453070574549
  0.6867808220178060  0.1223762886326969  0.5215408467031465
  0.8135484549917396  0.3739878977553820  0.6550306008703606
  0.9402914339812296  0.4621287160938086  0.8339335383024717
  0.0618421563635411  0.2074056475871462  0.6997935405915607
  0.4369112644151014  0.9570848154923701  0.6997472319125745
  0.3142223950227092  0.2113535382959983  0.8338545924908005
  0.4386091991130079  0.6241072155530895  0.6549682549010759
  0.3110935401836674  0.5394798488993987  0.6105982461601706
  0.9368514802795852  0.4561794127044977  0.5656894009165986
  0.6885566739593314  0.7913417889404958  0.7441916395571975
  0.9341886530817456  0.7835937845032758  0.1246995696459155
  0.6897996644551537  0.7876801533157197  0.3892048070187241
  0.9385710035007635  0.7910312949318559  0.7442108205691169
  0.0622287821535289  0.2042249436733935  0.3448546125073118
  0.6874184904589934  0.4537123985356026  0.3448638422762450
  0.4364441788487706  0.1247723419778105  0.7885221268304871
  0.0629891774672259  0.2031213431059413  0.2115260538957353
  0.0577767952415590  0.3665612254701837  0.1662587906212850
  0.9365101612097004  0.7876703149306667  0.2557401523662879
  0.5618652948546684  0.2072668569645287  0.6998078619951289
  0.6869724203348140  0.9573594983498839  0.6998190142609214
  0.8112957079863633  0.8745659799981761  0.7883810696813892
  0.4367368897664777  0.9561794305875951  0.5656975682579214
  0.8114983726638731  0.3746404572080898  0.7884429713770305
  0.6867376115295137  0.2871857807954454  0.2559073204284461
  0.1866578543408676  0.4562337746328987  0.5656794341200314
  0.0589367503643584  0.8668152341777082  0.1664090465880738
  0.1860093560296349  0.2893268041976220  0.6105845557990163
  0.0616584839467852  0.2061747146289624  0.5656736321835075
  0.3119872488057255  0.2073318846472558  0.6997947028737947
  0.5640286240447543  0.5451650261312482  0.8756747323551879
  0.0616635504101155  0.7061300178175129  0.5656760676950718
  0.6862895066401723  0.6247085348836172  0.7883150286097773
  0.3144663560269118  0.5375018179249897  0.3892697836996783
  0.1868014933294530  0.6223407645517418  0.5216194286559944
  0.5625041169321777  0.8714254905683562  0.4341417947874749
  0.4368299083728539  0.4562406538930003  0.5657098105589725
  0.4384065870043007  0.2918058766957632  0.7441984424151984
  0.8157111353469367  0.8725712251248363  0.3002444797650959
  0.8120783257183993  0.7034588391969294  0.3449358781382811
  0.4400690335315687  0.4607745506594325  0.8337165315866663
  0.6871308435386163  0.9546343703176839  0.4783202189935616
  0.6869494629296825  0.4573785778644670  0.6998123044100897
  0.5616024407162178  0.8724556691899813  0.5215669174219761
  0.5636392868402317  0.3740149440086145  0.6550426705774279
  0.8136675523528825  0.8739918732772488  0.6549908734297903
  0.8118860215214465  0.3706563576253539  0.4341290145291485
  0.8116942656641480  0.5370074245692370  0.2559224072874968
  0.6898997606348923  0.4616120969076493  0.8337252685688459
  0.1855708531399530  0.7835511132364421  0.1242654978328777
  0.6891927988359982  0.2877289945811962  0.3892061754392336
  0.3136055049103141  0.3741441556175120  0.6549934193508602
  0.3121688575237750  0.2038747406637763  0.3449658073660894
  0.8134647629601607  0.5411668500758601  0.7441568106449518
  0.6901586619287389  0.9610421503782719  0.8338174429016868
  0.5636521019310357  0.8742005031130635  0.6550101588596940
  0.3118426991628643  0.7062232405883124  0.5656571730919425
  0.3101472034630621  0.5337074743067971  0.1242488381566215
  0.6882529071100101  0.9539269924245257  0.2116976757064342
  0.3118418823745729  0.2062352636795680  0.5657149816621673
  0.1874018262682013  0.9548094298534247  0.4783348235219789
  0.6868065035630248  0.9561255343095323  0.5657112207206366
  0.4360050544446485  0.7894006915841710  0.6105716361524852
  0.6829815984238011  0.6148006621596089  0.1664140894291524
  0.3154898757760012  0.8721201361697098  0.3002354273155028
  0.3119165194500311  0.7048979143163810  0.4782431772972549
  0.9360087724385284  0.2894420683254038  0.6105610853387928
  0.4407697993360674  0.6217842745260036  0.3002594363801762
  0.8087974156730738  0.8657389917124445  0.1665929000329808
  0.5639602341496829  0.2027634942754745  0.2117884210249078
  0.9344699013724048  0.6150869741225840  0.1666089451812495
  0.4371825702945881  0.9546306253068744  0.4782841467362445
  0.5614466702608560  0.3741009699898954  0.7883859881776409
  0.0616999140692189  0.3724162577115253  0.5215177984392854
  0.3086796960146438  0.3661157291078606  0.1662073916011673
  0.6909393512305394  0.1217892821552055  0.3003222365521259
  0.4404304071404427  0.9610398129106875  0.8336390563723894
  0.1850932896100621  0.2832715938048869  0.1245434242852100
  0.1866678915671601  0.2867090272241402  0.2558578956052492
  0.3126157964309754  0.3710940969515884  0.4341628040305827
  0.5607302412120493  0.0335620115003107  0.1244538576212315
  0.4360497616001607  0.2894059714022082  0.6105644742226293
  0.1870340442949977  0.4539321979153217  0.3448785444469519
  0.4338047639449218  0.2830255277695953  0.1245707241718054
  0.6866927529430705  0.7876900889367237  0.2559666447299960
  0.4368699334494753  0.1225273475810973  0.5215230133643952
  0.1896885186906817  0.2939087503302578  0.8759677358081138
  0.1886724973917147  0.1240451781580641  0.6550361061033161
  0.9386467118080012  0.1239111078473585  0.6550395733282792
  0.8144088126301170  0.5376083919867226  0.3892002475515589
  0.0647492890848927  0.0380452561478592  0.3892780731966726
  0.1838777803634910  0.1151648205581072  0.1665494184746437
  0.0610021195157344  0.5394412739683314  0.6105929076615054
  0.9366652395789291  0.2871679197917515  0.2558220047402024
  0.5610285094855775  0.5394260233478478  0.6105879282831235
  0.9369394973872857  0.9562886535855152  0.5656539701635354
  0.6906350959609066  0.6222335803211366  0.3003671681910369
  0.9374704611418530  0.6209605538421621  0.4340767937996507
  0.9363373471295350  0.6259898097084673  0.7883921091444337
  0.5619024367795885  0.7072352359585450  0.6997637454288861
  0.0643257360180753  0.7132659157447198  0.8338190808745708
  0.9407779291997599  0.1224748889050979  0.3002437060850968
  0.9360014603375774  0.7894298927886881  0.6105693064167437
  0.4369162355593968  0.7874854365740095  0.2559876973514416
  0.3116661536789865  0.3740396344786453  0.7883658500778495
  0.4384432730245200  0.4539965831505031  0.2116304053251317
  0.1866168388669512  0.1225443798412613  0.5215438251171363
  0.8119981361356501  0.7073179814300785  0.6998066165831412
  0.0610705628090598  0.0395290179676298  0.6105741827778198
  0.5645121172413147  0.2113472840203533  0.8335269472141389
  0.3118761500360182  0.8724261622933617  0.5216376072533632
  0.6858766621278459  0.2830110205425966  0.1243309068343594
  0.1882384065489458  0.9547133192182952  0.2116907080893788
  0.6861090435071538  0.2894762790426814  0.6105888593663573
  0.3109879477846158  0.0393603963489473  0.6105770833932397
  0.9366760334852550  0.1259548668425522  0.7885848745435191
  0.4380838256708052  0.7932332740992455  0.8756836843049517
  0.8137300162176743  0.0413017836461701  0.7441020258360985
  0.9369442987895460  0.4572410174469569  0.6998048531023705
  0.1885941572270937  0.6239163172699589  0.6550230881840496
  0.3119198269985516  0.7072902308632866  0.6998369246723871
  0.9343910520029205  0.2830792180414984  0.1243467117831303
  0.4372354442066975  0.4543884572433531  0.4782920307602223
  0.0622286125154942  0.7042900890551766  0.4783621836613405
  0.9373713128829116  0.1209668996320803  0.4341707803997222
  0.4409596444428794  0.1213663710921112  0.3002498103893123
  0.1871235651366216  0.1209931590343634  0.4341349192905745
  0.5640401988561401  0.0445078881618154  0.8756821431234011
  0.1866836724016602  0.9562501876070160  0.5656890302621455
  0.6850603290270165  0.7841742456566423  0.1246344195356914
  0.5623752823886293  0.7037207700871831  0.3449614164368577
  0.3147027278123185  0.0377102143775080  0.3892237314465514
  0.6847742684073317  0.1160496853472768  0.1667100207616598
  0.8139561943508643  0.2029611372274438  0.2116352800298466
  0.0613350337757550  0.5375249985700840  0.2556708095025161
  0.5623744986335478  0.7048597917967960  0.4782896634314976
  0.4346348674950197  0.7838698918622148  0.1242113581325200
  0.5654688459970005  0.3716856829672906  0.3003409015435913
  0.4370270156020490  0.9539514720795930  0.3448782179616341
  0.1869361032552735  0.9572782334879345  0.6998035204000971
  0.4338740253922589  0.6159196583159283  0.1663402193823477
  0.9384264114465991  0.4533134075306832  0.2117654451730875
  0.0606097966586869  0.5326604672077537  0.1243725150687412
  0.8117948057029407  0.3724588849213635  0.5215125439030951
  0.9408247979147909  0.6226068641844000  0.3001275097593794
  0.3117314645719003  0.0371682242434328  0.2558223716099586
  0.6859682042661268  0.7893226008335523  0.6105858414643413
  0.1901540150430755  0.4618369609159040  0.8339078363117344
  0.4344981788603788  0.1147646757151773  0.1666543930812817
  0.3117741823010239  0.3724331128196322  0.5215768818823431
  0.4363390530775956  0.6245362279219032  0.7885326765394508
  0.0614040956021906  0.0374486869990963  0.2558008787687226
  0.5616685008212634  0.7062090815874741  0.5656804922669509
  0.9385498326967331  0.2910579268577183  0.7442176107635614
  0.6862028294725185  0.1250054366958480  0.7883179236343401
  0.1875345535404730  0.4535097807086160  0.2115637248054939
  0.9390553959951849  0.7873118762062766  0.3892381347194181
  0.6871105793421440  0.2947655802830434  0.8757839192286292
  0.5573877884027222  0.8657169199496111  0.1663995067381080
  0.4368888770622248  0.4571588674907910  0.6997615425080330
  0.9375202755234577  0.9536619682922810  0.3448655660028190
  0.6868231580117388  0.6222360649775641  0.5215254570191995
  0.0636533310557783  0.8739691795473971  0.6550025123326174
  0.0620296606313645  0.8746369152942582  0.7885108877089867
  0.0637394962548738  0.3740546517254656  0.6550267198430009
  0.6870651596109256  0.4546783922820209  0.4782060348707458
  0.1864794128331393  0.7878203474144910  0.2559365836355426
  0.4373532407081488  0.1211625853601144  0.4342212388832765
  0.8110598848699784  0.0338374077110671  0.1245118848723737
  0.9366486288068420  0.6222549150949009  0.5215295594501388
  0.4386742792902359  0.1241251108438186  0.6550390749142967
  0.8122698394690120  0.5331511079670809  0.1241283338461032
  0.4374102353518599  0.4539083387104575  0.3449319429849523
  0.8122881489301138  0.2036162604860168  0.3449290392885698
  0.3124639627072677  0.7036747614898742  0.3448618234808555
  0.6885846841813014  0.1241869519083563  0.6550144982591548
  0.5656883760886132  0.8719064627982861  0.3002821745559652
  0.0634251207470556  0.5408938585888357  0.7441673644576012
  0.9384247841221282  0.9541088523487899  0.2116329473335496
  0.8136712722517622  0.7031315449781196  0.2116951006632266
  0.0655266437699269  0.8721620116160638  0.3003211958997458
  0.1905066431936528  0.1223412661030518  0.3001240000244451
  0.0621449317863174  0.7037324186736607  0.3448955129182021
  0.8111020051128555  0.0394077040411251  0.6105819572111776
  0.0625449412844972  0.3706400257672263  0.4341525919709148
  0.5624484940852906  0.2038178344947572  0.3449476753875467
  0.8156352515853368  0.3725253719684446  0.3002249535252655
  0.5622555883520630  0.0377328590326404  0.2558843688372541
  0.5642054621020544  0.5372625655491398  0.3892542171353063
  0.0621870689107980  0.2045431718299889  0.4783063672990890
  0.3118982778258820  0.8740563313080094  0.7882865940229488
  0.9369948832423556  0.9573761387979185  0.6997327624143713
  0.0659318320474268  0.3722695530573488  0.3002666847159483
  0.6885940345984007  0.6240634784493491  0.6550349930803060
  0.6867601941156898  0.4561179528081333  0.5656718027550606
  0.4383865354055722  0.9542602988797206  0.2118047537820176
  0.3121474177931614  0.2046142137430228  0.4783094620883956
  0.8126127125674876  0.5444654910818484  0.8756864308758999
  0.6878123182352043  0.6206279769922136  0.4341012017365475
  0.8119844041477170  0.2074368736903776  0.6998043151145156
  0.8122459682168052  0.7046434333819594  0.4783234660811477
  0.8118326858867181  0.8713588961568446  0.4342651220889561
  0.9371023152438692  0.9546299713401573  0.4783523751824624
  0.5622858866891619  0.2046149532833422  0.4783407550178448
  0.1870928367053889  0.6207106523653797  0.4341952543830516
  0.3133665518270898  0.0415767846730635  0.7442466001696886
  0.9387215812392171  0.6240858363719610  0.6550062726125578
  0.5643647738523747  0.7108023342823028  0.8334590813918807
  0.3157016805202866  0.3719420704297073  0.3003423054821475
  0.3133639809193183  0.5411491712524393  0.7442413142948784
  0.1874203247391258  0.4547150363052616  0.4782723060821391
  0.3153846236703086  0.0453132210723452  0.8756973042996202
  0.1868435144557411  0.4573329587397820  0.6998329911440475
  0.5618460267676142  0.3723660634801167  0.5215579286145734
  0.1892577917373809  0.2878030801845466  0.3892597462644999
  0.3132475539720893  0.2031772902578390  0.2115462606502061
  0.0641435573078733  0.7030991938984231  0.2115208503922971
  0.5625047638781498  0.3709289552507249  0.4341897407204410
  0.4367889542182599  0.6224212745126946  0.5214510750457737
  0.8148646843917094  0.7130625246642814  0.8335495329777948
  0.0618089864287008  0.3750545260770643  0.7885305977747872
  0.4377959090332375  0.2937989619389434  0.8758490887346900
  0.3110166398529796  0.0334519052519373  0.1241378372599741
  0.6878221245816928  0.1215185209819619  0.4342337916129526
  0.1871582726243278  0.9536458972274782  0.3448926446049715
  0.0640662711342393  0.2119188069324018  0.8338698921196838
  0.5610905083280996  0.0394582644317726  0.6105816977792170
  0.6881488757079740  0.4530728365866517  0.2117194339669808
  0.1884310210810574  0.7911000929230281  0.7441698366940106
  0.1906869820793028  0.6220758308260186  0.3002163532429086
  0.4398661579433409  0.7874549394930054  0.3892615345977050
  0.4367577476712677  0.2872486782797027  0.2558016609151342
  0.0655351338292361  0.5441688342943353  0.8758095906898972
  0.5636712489376888  0.0417719961856566  0.7442183961843952
  0.1888337607692953  0.7932367173339410  0.8758301663472515
  0.9371134357172032  0.4546646289214566  0.4782528291326902
  0.5634793722731859  0.5415415773509298  0.7441398595528872
  0.8118741469621286  0.2062398878350619  0.5656923464596442
  0.1866304721667461  0.6248383060547480  0.7883818320973993
  0.0648853243083409  0.5381077517476769  0.3893096595356810
  0.0620118685720152  0.7074098125760204  0.6997606551431971
  0.3115357800468565  0.5371763972718883  0.2556901694007833
  0.3125815321228707  0.7028163981200722  0.2118440169956051
  0.3081321788663698  0.8661141580999226  0.1658798316502303
  0.4368592041535601  0.6208751281859898  0.4341234141394699
  0.8152496231721503  0.0377690621500738  0.3892271284634604
  0.9367274134340666  0.2944297450419402  0.8757942159515480
  0.9375573726936139  0.7920164530743975  0.8760038827550771
  0.0655237819779214  0.0431191537386708  0.8759907538268337
  0.5614765615349431  0.5329847890147206  0.1246025513694996
  0.8078310838351582  0.3664013944242545  0.1658246102015246
  0.0618283677468032  0.8717957546934143  0.4342696798622501
  0.9411434364833628  0.9626182974836979  0.8342468698495373
  0.1901694055795251  0.7868483377559066  0.3890058926520086
  0.5647408119855761  0.7032120189184573  0.2118522940952988
 
  0.00000000E+00  0.00000000E+00  0.00000000E+00
  0.00000000E+00  0.00000000E+00  0.00000000E+00
  0.00000000E+00  0.00000000E+00  0.00000000E+00
  0.00000000E+00  0.00000000E+00  0.00000000E+00
  0.00000000E+00  0.00000000E+00  0.00000000E+00
  0.00000000E+00  0.00000000E+00  0.00000000E+00
  0.00000000E+00  0.00000000E+00  0.00000000E+00
  0.00000000E+00  0.00000000E+00  0.00000000E+00
  0.00000000E+00  0.00000000E+00  0.00000000E+00
  0.00000000E+00  0.00000000E+00  0.00000000E+00
  0.00000000E+00  0.00000000E+00  0.00000000E+00
  0.00000000E+00  0.00000000E+00  0.00000000E+00
  0.00000000E+00  0.00000000E+00  0.00000000E+00
  0.00000000E+00  0.00000000E+00  0.00000000E+00
  0.00000000E+00  0.00000000E+00  0.00000000E+00
  0.00000000E+00  0.00000000E+00  0.00000000E+00
  0.00000000E+00  0.00000000E+00  0.00000000E+00
  0.00000000E+00  0.00000000E+00  0.00000000E+00
  0.00000000E+00  0.00000000E+00  0.00000000E+00
  0.00000000E+00  0.00000000E+00  0.00000000E+00
  0.00000000E+00  0.00000000E+00  0.00000000E+00
  0.00000000E+00  0.00000000E+00  0.00000000E+00
  0.00000000E+00  0.00000000E+00  0.00000000E+00
  0.00000000E+00  0.00000000E+00  0.00000000E+00
  0.00000000E+00  0.00000000E+00  0.00000000E+00
  0.00000000E+00  0.00000000E+00  0.00000000E+00
  0.00000000E+00  0.00000000E+00  0.00000000E+00
  0.00000000E+00  0.00000000E+00  0.00000000E+00
  0.00000000E+00  0.00000000E+00  0.00000000E+00
  0.00000000E+00  0.00000000E+00  0.00000000E+00
  0.00000000E+00  0.00000000E+00  0.00000000E+00
  0.00000000E+00  0.00000000E+00  0.00000000E+00
  0.00000000E+00  0.00000000E+00  0.00000000E+00
  0.00000000E+00  0.00000000E+00  0.00000000E+00
  0.00000000E+00  0.00000000E+00  0.00000000E+00
  0.00000000E+00  0.00000000E+00  0.00000000E+00
  0.00000000E+00  0.00000000E+00  0.00000000E+00
  0.00000000E+00  0.00000000E+00  0.00000000E+00
  0.00000000E+00  0.00000000E+00  0.00000000E+00
  0.00000000E+00  0.00000000E+00  0.00000000E+00
  0.00000000E+00  0.00000000E+00  0.00000000E+00
  0.00000000E+00  0.00000000E+00  0.00000000E+00
  0.00000000E+00  0.00000000E+00  0.00000000E+00
  0.00000000E+00  0.00000000E+00  0.00000000E+00
  0.00000000E+00  0.00000000E+00  0.00000000E+00
  0.00000000E+00  0.00000000E+00  0.00000000E+00
  0.00000000E+00  0.00000000E+00  0.00000000E+00
  0.00000000E+00  0.00000000E+00  0.00000000E+00
  0.00000000E+00  0.00000000E+00  0.00000000E+00
  0.00000000E+00  0.00000000E+00  0.00000000E+00
  0.00000000E+00  0.00000000E+00  0.00000000E+00
  0.00000000E+00  0.00000000E+00  0.00000000E+00
  0.00000000E+00  0.00000000E+00  0.00000000E+00
  0.00000000E+00  0.00000000E+00  0.00000000E+00
  0.00000000E+00  0.00000000E+00  0.00000000E+00
  0.00000000E+00  0.00000000E+00  0.00000000E+00
  0.00000000E+00  0.00000000E+00  0.00000000E+00
  0.00000000E+00  0.00000000E+00  0.00000000E+00
  0.00000000E+00  0.00000000E+00  0.00000000E+00
  0.00000000E+00  0.00000000E+00  0.00000000E+00
  0.00000000E+00  0.00000000E+00  0.00000000E+00
  0.00000000E+00  0.00000000E+00  0.00000000E+00
  0.00000000E+00  0.00000000E+00  0.00000000E+00
  0.00000000E+00  0.00000000E+00  0.00000000E+00
  0.00000000E+00  0.00000000E+00  0.00000000E+00
  0.00000000E+00  0.00000000E+00  0.00000000E+00
  0.00000000E+00  0.00000000E+00  0.00000000E+00
  0.00000000E+00  0.00000000E+00  0.00000000E+00
  0.00000000E+00  0.00000000E+00  0.00000000E+00
  0.00000000E+00  0.00000000E+00  0.00000000E+00
  0.00000000E+00  0.00000000E+00  0.00000000E+00
  0.00000000E+00  0.00000000E+00  0.00000000E+00
  0.00000000E+00  0.00000000E+00  0.00000000E+00
  0.00000000E+00  0.00000000E+00  0.00000000E+00
  0.00000000E+00  0.00000000E+00  0.00000000E+00
  0.00000000E+00  0.00000000E+00  0.00000000E+00
  0.00000000E+00  0.00000000E+00  0.00000000E+00
  0.00000000E+00  0.00000000E+00  0.00000000E+00
  0.00000000E+00  0.00000000E+00  0.00000000E+00
  0.00000000E+00  0.00000000E+00  0.00000000E+00
  0.00000000E+00  0.00000000E+00  0.00000000E+00
  0.00000000E+00  0.00000000E+00  0.00000000E+00
  0.00000000E+00  0.00000000E+00  0.00000000E+00
  0.00000000E+00  0.00000000E+00  0.00000000E+00
  0.00000000E+00  0.00000000E+00  0.00000000E+00
  0.00000000E+00  0.00000000E+00  0.00000000E+00
  0.00000000E+00  0.00000000E+00  0.00000000E+00
  0.00000000E+00  0.00000000E+00  0.00000000E+00
  0.00000000E+00  0.00000000E+00  0.00000000E+00
  0.00000000E+00  0.00000000E+00  0.00000000E+00
  0.00000000E+00  0.00000000E+00  0.00000000E+00
  0.00000000E+00  0.00000000E+00  0.00000000E+00
  0.00000000E+00  0.00000000E+00  0.00000000E+00
  0.00000000E+00  0.00000000E+00  0.00000000E+00
  0.00000000E+00  0.00000000E+00  0.00000000E+00
  0.00000000E+00  0.00000000E+00  0.00000000E+00
  0.00000000E+00  0.00000000E+00  0.00000000E+00
  0.00000000E+00  0.00000000E+00  0.00000000E+00
  0.00000000E+00  0.00000000E+00  0.00000000E+00
  0.00000000E+00  0.00000000E+00  0.00000000E+00
  0.00000000E+00  0.00000000E+00  0.00000000E+00
  0.00000000E+00  0.00000000E+00  0.00000000E+00
  0.00000000E+00  0.00000000E+00  0.00000000E+00
  0.00000000E+00  0.00000000E+00  0.00000000E+00
  0.00000000E+00  0.00000000E+00  0.00000000E+00
  0.00000000E+00  0.00000000E+00  0.00000000E+00
  0.00000000E+00  0.00000000E+00  0.00000000E+00
  0.00000000E+00  0.00000000E+00  0.00000000E+00
  0.00000000E+00  0.00000000E+00  0.00000000E+00
  0.00000000E+00  0.00000000E+00  0.00000000E+00
  0.00000000E+00  0.00000000E+00  0.00000000E+00
  0.00000000E+00  0.00000000E+00  0.00000000E+00
  0.00000000E+00  0.00000000E+00  0.00000000E+00
  0.00000000E+00  0.00000000E+00  0.00000000E+00
  0.00000000E+00  0.00000000E+00  0.00000000E+00
  0.00000000E+00  0.00000000E+00  0.00000000E+00
  0.00000000E+00  0.00000000E+00  0.00000000E+00
  0.00000000E+00  0.00000000E+00  0.00000000E+00
  0.00000000E+00  0.00000000E+00  0.00000000E+00
  0.00000000E+00  0.00000000E+00  0.00000000E+00
  0.00000000E+00  0.00000000E+00  0.00000000E+00
  0.00000000E+00  0.00000000E+00  0.00000000E+00
  0.00000000E+00  0.00000000E+00  0.00000000E+00
  0.00000000E+00  0.00000000E+00  0.00000000E+00
  0.00000000E+00  0.00000000E+00  0.00000000E+00
  0.00000000E+00  0.00000000E+00  0.00000000E+00
  0.00000000E+00  0.00000000E+00  0.00000000E+00
  0.00000000E+00  0.00000000E+00  0.00000000E+00
  0.00000000E+00  0.00000000E+00  0.00000000E+00
  0.00000000E+00  0.00000000E+00  0.00000000E+00
  0.00000000E+00  0.00000000E+00  0.00000000E+00
  0.00000000E+00  0.00000000E+00  0.00000000E+00
  0.00000000E+00  0.00000000E+00  0.00000000E+00
  0.00000000E+00  0.00000000E+00  0.00000000E+00
  0.00000000E+00  0.00000000E+00  0.00000000E+00
  0.00000000E+00  0.00000000E+00  0.00000000E+00
  0.00000000E+00  0.00000000E+00  0.00000000E+00
  0.00000000E+00  0.00000000E+00  0.00000000E+00
  0.00000000E+00  0.00000000E+00  0.00000000E+00
  0.00000000E+00  0.00000000E+00  0.00000000E+00
  0.00000000E+00  0.00000000E+00  0.00000000E+00
  0.00000000E+00  0.00000000E+00  0.00000000E+00
  0.00000000E+00  0.00000000E+00  0.00000000E+00
  0.00000000E+00  0.00000000E+00  0.00000000E+00
  0.00000000E+00  0.00000000E+00  0.00000000E+00
  0.00000000E+00  0.00000000E+00  0.00000000E+00
  0.00000000E+00  0.00000000E+00  0.00000000E+00
  0.00000000E+00  0.00000000E+00  0.00000000E+00
  0.00000000E+00  0.00000000E+00  0.00000000E+00
  0.00000000E+00  0.00000000E+00  0.00000000E+00
  0.00000000E+00  0.00000000E+00  0.00000000E+00
  0.00000000E+00  0.00000000E+00  0.00000000E+00
  0.00000000E+00  0.00000000E+00  0.00000000E+00
  0.00000000E+00  0.00000000E+00  0.00000000E+00
  0.00000000E+00  0.00000000E+00  0.00000000E+00
  0.00000000E+00  0.00000000E+00  0.00000000E+00
  0.00000000E+00  0.00000000E+00  0.00000000E+00
  0.00000000E+00  0.00000000E+00  0.00000000E+00
  0.00000000E+00  0.00000000E+00  0.00000000E+00
  0.00000000E+00  0.00000000E+00  0.00000000E+00
  0.00000000E+00  0.00000000E+00  0.00000000E+00
  0.00000000E+00  0.00000000E+00  0.00000000E+00
  0.00000000E+00  0.00000000E+00  0.00000000E+00
  0.00000000E+00  0.00000000E+00  0.00000000E+00
  0.00000000E+00  0.00000000E+00  0.00000000E+00
  0.00000000E+00  0.00000000E+00  0.00000000E+00
  0.00000000E+00  0.00000000E+00  0.00000000E+00
  0.00000000E+00  0.00000000E+00  0.00000000E+00
  0.00000000E+00  0.00000000E+00  0.00000000E+00
  0.00000000E+00  0.00000000E+00  0.00000000E+00
  0.00000000E+00  0.00000000E+00  0.00000000E+00
  0.00000000E+00  0.00000000E+00  0.00000000E+00
  0.00000000E+00  0.00000000E+00  0.00000000E+00
  0.00000000E+00  0.00000000E+00  0.00000000E+00
  0.00000000E+00  0.00000000E+00  0.00000000E+00
  0.00000000E+00  0.00000000E+00  0.00000000E+00
  0.00000000E+00  0.00000000E+00  0.00000000E+00
  0.00000000E+00  0.00000000E+00  0.00000000E+00
  0.00000000E+00  0.00000000E+00  0.00000000E+00
  0.00000000E+00  0.00000000E+00  0.00000000E+00
  0.00000000E+00  0.00000000E+00  0.00000000E+00
  0.00000000E+00  0.00000000E+00  0.00000000E+00
  0.00000000E+00  0.00000000E+00  0.00000000E+00
  0.00000000E+00  0.00000000E+00  0.00000000E+00
  0.00000000E+00  0.00000000E+00  0.00000000E+00
  0.00000000E+00  0.00000000E+00  0.00000000E+00
  0.00000000E+00  0.00000000E+00  0.00000000E+00
  0.00000000E+00  0.00000000E+00  0.00000000E+00
  0.00000000E+00  0.00000000E+00  0.00000000E+00
  0.00000000E+00  0.00000000E+00  0.00000000E+00
  0.00000000E+00  0.00000000E+00  0.00000000E+00
  0.00000000E+00  0.00000000E+00  0.00000000E+00
  0.00000000E+00  0.00000000E+00  0.00000000E+00
  0.00000000E+00  0.00000000E+00  0.00000000E+00
  0.00000000E+00  0.00000000E+00  0.00000000E+00
  0.00000000E+00  0.00000000E+00  0.00000000E+00
  0.00000000E+00  0.00000000E+00  0.00000000E+00
  0.00000000E+00  0.00000000E+00  0.00000000E+00
  0.00000000E+00  0.00000000E+00  0.00000000E+00
  0.00000000E+00  0.00000000E+00  0.00000000E+00
  0.00000000E+00  0.00000000E+00  0.00000000E+00
  0.00000000E+00  0.00000000E+00  0.00000000E+00
  0.00000000E+00  0.00000000E+00  0.00000000E+00
  0.00000000E+00  0.00000000E+00  0.00000000E+00
  0.00000000E+00  0.00000000E+00  0.00000000E+00
  0.00000000E+00  0.00000000E+00  0.00000000E+00
  0.00000000E+00  0.00000000E+00  0.00000000E+00
  0.00000000E+00  0.00000000E+00  0.00000000E+00
  0.00000000E+00  0.00000000E+00  0.00000000E+00
  0.00000000E+00  0.00000000E+00  0.00000000E+00
  0.00000000E+00  0.00000000E+00  0.00000000E+00
  0.00000000E+00  0.00000000E+00  0.00000000E+00
  0.00000000E+00  0.00000000E+00  0.00000000E+00
  0.00000000E+00  0.00000000E+00  0.00000000E+00
  0.00000000E+00  0.00000000E+00  0.00000000E+00
  0.00000000E+00  0.00000000E+00  0.00000000E+00
  0.00000000E+00  0.00000000E+00  0.00000000E+00
  0.00000000E+00  0.00000000E+00  0.00000000E+00
  0.00000000E+00  0.00000000E+00  0.00000000E+00
  0.00000000E+00  0.00000000E+00  0.00000000E+00
  0.00000000E+00  0.00000000E+00  0.00000000E+00
  0.00000000E+00  0.00000000E+00  0.00000000E+00
  0.00000000E+00  0.00000000E+00  0.00000000E+00
  0.00000000E+00  0.00000000E+00  0.00000000E+00
  0.00000000E+00  0.00000000E+00  0.00000000E+00
  0.00000000E+00  0.00000000E+00  0.00000000E+00
  0.00000000E+00  0.00000000E+00  0.00000000E+00
  0.00000000E+00  0.00000000E+00  0.00000000E+00
  0.00000000E+00  0.00000000E+00  0.00000000E+00
  0.00000000E+00  0.00000000E+00  0.00000000E+00
  0.00000000E+00  0.00000000E+00  0.00000000E+00
  0.00000000E+00  0.00000000E+00  0.00000000E+00
  0.00000000E+00  0.00000000E+00  0.00000000E+00
  0.00000000E+00  0.00000000E+00  0.00000000E+00
  0.00000000E+00  0.00000000E+00  0.00000000E+00
  0.00000000E+00  0.00000000E+00  0.00000000E+00
  0.00000000E+00  0.00000000E+00  0.00000000E+00
  0.00000000E+00  0.00000000E+00  0.00000000E+00
  0.00000000E+00  0.00000000E+00  0.00000000E+00
  0.00000000E+00  0.00000000E+00  0.00000000E+00
  0.00000000E+00  0.00000000E+00  0.00000000E+00
  0.00000000E+00  0.00000000E+00  0.00000000E+00
  0.00000000E+00  0.00000000E+00  0.00000000E+00
  0.00000000E+00  0.00000000E+00  0.00000000E+00
  0.00000000E+00  0.00000000E+00  0.00000000E+00
  0.00000000E+00  0.00000000E+00  0.00000000E+00
  0.00000000E+00  0.00000000E+00  0.00000000E+00