CuInSe2gb                               
   1.00000000000000     
     9.7266780392896699    0.0000000000000000    0.0000000000000000
     0.0000000000000000    8.4235502764570693    0.0000000000000000
     0.0000000000000000    0.0000000000000000   45.0000000000000000
   Fe   Mn
   274    14
Direct
  0.0611787842571859  0.0314963778612838  0.1244832794382384
  0.3161919792475874  0.8749920249009501  0.6549458183414769
  0.1849022884972974  0.1217933552416179  0.7881963664420588
  0.4415138405505395  0.2878889666111114  0.3892510876205286
  0.3169313955177333  0.7126518180994668  0.8328033677284626
  0.8181635467960635  0.2134618622390458  0.8333416783963887
  0.1906061911124679  0.9626264910355516  0.8333060781212791
  0.5616655497848688  0.2068256180439054  0.5656298568994910
  0.0657587259578960  0.0400117971574103  0.7439902048732472
  0.8116067414730089  0.8716781096508999  0.5214244163263934
  0.1908679824063705  0.2904943779254190  0.7439588007530006
  0.9337824892049001  0.4525891599209169  0.3449595693358120
  0.9409392050274208  0.2869385076263528  0.3891521872226202
  0.8133826411335339  0.0405276805581429  0.8754832564303783
  0.1841125958176779  0.7882090375719851  0.6108866601118442
  0.5661365550819990  0.0378543660532523  0.3892029137389928
  0.9419579555111809  0.9633116574818227  0.8335396832200086
  0.3139148952945633  0.5391883545323783  0.8758460193819476
  0.6903063839033992  0.2902834131168154  0.7440404580690801
  0.1825285333627047  0.6141966358692658  0.1665359807569285
  0.8124247442969796  0.2055743347191340  0.4787638823896648
  0.8092977404747997  0.5380129684781839  0.6109504820420044
  0.3123525410110898  0.8704374971800655  0.4345828758853619
  0.8090691004328766  0.0382679684777446  0.2560381320487647
  0.6836534238828361  0.9521244347305315  0.3449873351425276
  0.9314880342880929  0.1146295054608988  0.1667462470677558
  0.0615926198822340  0.8716811681978089  0.5214272226747068
  0.5589398365527182  0.5387317284927715  0.2559402772661430
  0.6850306352230120  0.7953557175891424  0.8755598875460338
  0.5565308559687742  0.3657906746173799  0.1664902092476169
  0.4391817272767030  0.7908311816417679  0.7441237250033778
  0.8115275691008231  0.7067548727438095  0.5655131696501351
  0.5598930001021780  0.8724019799512012  0.7881997438485219
  0.6867971221020628  0.1216429632910044  0.5214641476991541
  0.8168350946257119  0.3744620695234489  0.6550138774429236
  0.9417795752530848  0.4627718562204417  0.8334813482468184
  0.0606938750188525  0.2082327864864108  0.6996882553844244
  0.4347612780847062  0.9580783203027147  0.6996973626982951
  0.3162656941109549  0.2117990456500281  0.8333336977682519
  0.4408480089074985  0.6246269087857120  0.6549840920009816
  0.3087802028595741  0.5378463912292897  0.6109746774395776
  0.9367219777560620  0.4561327946141430  0.5656676339286072
  0.6899009280795609  0.7911247281624006  0.7441466569107956
  0.9336269510342473  0.7873814496451310  0.1246903461706926
  0.6912687303462349  0.7878679053512683  0.3892334825488332
  0.9410548109828890  0.7900504239521646  0.7441215852292153
  0.0590978227957472  0.2027590862581639  0.3450804571187699
  0.6837887790990719  0.4525459007904779  0.3451164898982010
  0.4347306398388707  0.1215869687386779  0.7884922333823848
  0.0649114982409524  0.2052999784706481  0.2112207002851077
  0.0555618743430617  0.3658224591243949  0.1664428836970742
  0.9336428823233127  0.7888926520173981  0.2558435837763092
  0.5601989881710278  0.2078966425473308  0.6997033046459148
  0.6851658181492992  0.9582199393996799  0.6997196369046571
  0.8105048784857587  0.8726250643635597  0.7882060345770452
  0.4368518472320781  0.9572025317178202  0.5655101318624393
  0.8107591405490711  0.3730206482143011  0.7881798596605581
  0.6842828292621713  0.2892204975483598  0.2559279364267411
  0.1872564178792322  0.4569147360039578  0.5654964850803148
  0.0563717882789486  0.8653110379976768  0.1665212614854841
  0.1839513042709552  0.2880101760730722  0.6109829748219628
  0.0626484728888781  0.2071628660865387  0.5654362765796593
  0.3100831734616687  0.2080614340739018  0.6997889473555725
  0.5637598426109088  0.5396074968777287  0.8757879469388180
  0.0619038285871528  0.7064483552042756  0.5655960171951395
  0.6849849075553488  0.6217377907545952  0.7880919814718086
  0.3162500472470868  0.5378638300423961  0.3891717868767622
  0.1868156056758208  0.6214775489030395  0.5215549787955306
  0.5622800146707180  0.8704880481585299  0.4345200678803895
  0.4367664915729498  0.4568308994592537  0.5655653092240286
  0.4391910707627816  0.2910607297965728  0.7440665447775811
  0.8187226551936718  0.8747289579171839  0.3003688170135921
  0.8089060034396258  0.7029128612050757  0.3451067774942976
  0.4413507114437971  0.4620270120626872  0.8331532490053314
  0.6875726131967550  0.9556461952904808  0.4787402521427426
  0.6850155529139900  0.4578370317723282  0.6997575987541873
  0.5617395087132325  0.8717438874049034  0.5215336815586648
  0.5660312755122859  0.3744314377872194  0.6549570365422092
  0.8165066444325592  0.8751266660448478  0.6550426735028244
  0.8114808599458294  0.3709976628847801  0.4343511382881113
  0.8088368862529904  0.5384490793071339  0.2560522035933879
  0.6920875830076221  0.4614039569283901  0.8331606402246812
  0.1856427197345113  0.7875227176000806  0.1243642268373248
  0.6910710063934949  0.2874795094691633  0.3892128738995721
  0.3160931421181999  0.3747100743372621  0.6549684553460925
  0.3091671401822420  0.2024548913579171  0.3450037192574019
  0.8159837295566127  0.5397631906930491  0.7439751876116555
  0.6919117998669450  0.9619472496026173  0.8332354420420565
  0.5658541228310788  0.8749318712295000  0.6549949385155995
  0.3115609073214571  0.7073852936108560  0.5655131926191564
  0.3118740937099444  0.5320585693588066  0.1244628538141890
  0.6900624464217499  0.9552901079289419  0.2114847246916677
  0.3115296282766916  0.2064565022138522  0.5656395713060444
  0.1872049905718915  0.9556282777680087  0.4788245821212875
  0.6870257669253047  0.9569553252858467  0.5655009269935157
  0.4337011023457965  0.7881412867744276  0.6108572611818633
  0.6826221227892960  0.6122305044252078  0.1663135142295954
  0.3187597726268406  0.8740797938602082  0.3002958379684057
  0.3122497343713446  0.7056592494581445  0.4787003891871198
  0.3152697541936033  0.7048987220133687  0.2113914695439419
  0.4445559056955763  0.6240248530696955  0.3003466858296993
  0.8070176296984760  0.8640398947469372  0.1667661580446421
  0.5660475536796401  0.2041430231958227  0.2114498600215280
  0.9329732857396524  0.6133281775509308  0.1664329124220515
  0.4372259379708760  0.9555423144037988  0.4787103920707077
  0.5600784391725954  0.3719409377785472  0.7882355120587812
  0.0613517029008952  0.3718097720559029  0.5214247994639610
  0.3070179118067696  0.3646812432496951  0.1665980356359047
  0.6945265492728020  0.1236507182597677  0.3003838305409841
  0.4421604464582035  0.9619366434140801  0.8330813861814836
  0.1842017128364750  0.2875921910101660  0.1247024097445163
  0.1844353155418453  0.2895105742244734  0.2560001698366531
  0.3126400720077092  0.3703311748282299  0.4345416763408123
  0.5625736976162095  0.0326996231518927  0.1246058049808086
  0.4335901424103968  0.2881009793407544  0.6108683450304453
  0.1841229188134949  0.4529297479824971  0.3450895644210299
  0.4347831154644752  0.2873682423616783  0.1247565053702404
  0.6835881094455478  0.7889905308861052  0.2559918384933615
  0.4365808440262729  0.1217091120521525  0.5215017350493497
  0.1882350248485139  0.2940704567797732  0.8758304461381977
  0.1910064411394600  0.1253905520811240  0.6550790903547941
  0.9416808915097926  0.1253400531088113  0.6549956264792293
  0.8158983793081682  0.5374699432361951  0.3892253252533771
  0.0662971347032633  0.0376840293568684  0.3892444538452750
  0.1827617896446735  0.1128852378067365  0.1664143397301230
  0.0589060108204085  0.5374611636780650  0.6109806592015596
  0.9342851419932376  0.2892065925471621  0.2559074650542043
  0.5584941241304801  0.5380621887167627  0.6109005101488673
  0.9369895929996308  0.9572902166548471  0.5655321406497520
  0.6935344636048650  0.6245693716402578  0.3002306907717830
  0.9373035254207450  0.6202186686644161  0.4345614954995363
  0.9343862049626994  0.6232022203360925  0.7880205214689049
  0.5600719711467305  0.7074956248681097  0.6997132574768382
  0.0656807930585233  0.7149033678723867  0.8335999833323100
  0.9444486253300279  0.1236766028425423  0.3003255688693653
  0.9341201838985858  0.7880394897099557  0.6109243703408873
  0.4338314662217173  0.7888157533922124  0.2559032242606786
  0.3106052387227241  0.3721526367050476  0.7880687864521468
  0.4399912834357433  0.4555858373855188  0.2114162451280450
  0.1864849287842404  0.1215570212858147  0.5214763667145916
  0.8107030452585544  0.7077613160150048  0.6997759857234501
  0.0590700676492191  0.0387213592837259  0.6108293177761276
  0.5658875495309940  0.2128470588706885  0.8330122839504692
  0.3116214279004966  0.8715186206908385  0.5215318063033044
  0.6865101855561236  0.2869528826522614  0.1244652353100338
  0.1898379404516917  0.9560025342577335  0.2116070780490602
  0.6837315310098159  0.2878961315110527  0.6109328458822876
  0.3088888698878418  0.0381260158872024  0.6109338862257645
  0.9355974584805044  0.1228882786921781  0.7883378037621636
  0.4368065740698769  0.7948442221200465  0.8758083891518743
  0.8157916645076880  0.0406318505771439  0.7439437492188716
  0.9357553673514176  0.4575650945862479  0.6997220150082275
  0.1912149289567835  0.6245782183325184  0.6550802082446521
  0.3097996913137230  0.7075286554595910  0.6997577308051777
  0.9341953291953495  0.2869785207776872  0.1245620933455959
  0.4373802608183099  0.4557316124438677  0.4786754604738043
  0.0623003545777179  0.7057341629165717  0.4786754961167324
  0.9368228619006823  0.1199808187082163  0.4347563704560405
  0.4437783038217890  0.1242005671195487  0.3004102066084992
  0.1876887442852933  0.1200303969212605  0.4344998977685416
  0.5637541627829205  0.0398731379468442  0.8758693036368076
  0.1869987821940935  0.9570799923313879  0.5655533314598277
  0.6843567994575260  0.7874421419243063  0.1247846595330087
  0.5589477624681219  0.7026311250056486  0.3450810752873660
  0.3162875023162699  0.0370673969445110  0.3891452014652846
  0.6827634245623047  0.1145477302775535  0.1667278615583674
  0.8147668330895687  0.2049256184353626  0.2112853882323778
  0.0599183658686886  0.5381773921360260  0.2557985416345188
  0.5623220288337439  0.7054289718454503  0.4786881725976775
  0.4350779361924433  0.7872712436497222  0.1246447284797306
  0.5686787435360142  0.3741083150003102  0.3003997410713906
  0.4338962599539623  0.9526724047778564  0.3451159506390744
  0.1852467056550768  0.9582255810839969  0.6998624687471000
  0.4323420337129037  0.6137107230155100  0.1663662359419997
  0.9399233072875034  0.4560266591788796  0.2115761605570438
  0.0612203110807621  0.5317128546101764  0.1243359932870875
  0.8117649765871291  0.3717160122222629  0.5214062111626316
  0.9439102384188846  0.6244302487388728  0.3001213700475558
  0.3095293164433673  0.0385883763996451  0.2558887268823030
  0.6835147580205588  0.7884209704344338  0.6108227563710987
  0.1912493740482557  0.4622130848212309  0.8331777289685441
  0.4327924006106912  0.1129249157463641  0.1664663591383307
  0.3115730389084437  0.3715072667371501  0.5215193427814359
  0.4337400541923916  0.6217962982160945  0.7883935174074378
  0.0590312995456374  0.0382866397203601  0.2558901133044991
  0.5619671560679741  0.7071526871463791  0.5655735500302269
  0.9404427517610686  0.2898125759326564  0.7440410596822926
  0.6837384935523303  0.1222822400413654  0.7882707918649782
  0.1899781718889357  0.4554815401559739  0.2113196726395062
  0.9411152446611659  0.7875567180539114  0.3891784268391006
  0.6862840043224420  0.2968452015276825  0.8758507431475542
  0.5559739582214537  0.8650481812847014  0.1664559161339029
  0.4348841900508967  0.4576779757012789  0.6996681321566530
  0.9343381696042684  0.9518939697328354  0.3450065205332530
  0.6863839914975193  0.6213826757006122  0.5213825678795002
  0.0665218931821584  0.8749179842691731  0.6550042553756883
  0.0604567870113330  0.8732134157013411  0.7881662266031032
  0.0662882060327301  0.3745796169108467  0.6550928095672182
  0.6870924023085668  0.4555051837775230  0.4786365403061498
  0.1847879603378450  0.7891839712465609  0.2558732564519131
  0.4371378511197389  0.1208474933391729  0.4344417043507913
  0.8126026960072629  0.0321361279741556  0.1243686120798250
  0.9365351798645494  0.6217781295560273  0.5214405755541972
  0.4409581303306863  0.1251275878864236  0.6549533341147362
  0.8124385376605440  0.5313064758726576  0.1245173346704244
  0.4339950734051590  0.4528170934968060  0.3451503949745801
  0.8088445152138463  0.2024764609045999  0.3450712702817799
  0.3092589855966895  0.7018893011920811  0.3449668409705352
  0.6913010586337243  0.1251244114722150  0.6550090857201619
  0.5685851297337857  0.8743429079635041  0.3003951677604723
  0.0657283446623778  0.5399576688258255  0.7439750072853509
  0.9400905917384809  0.9550958699488008  0.2112218642327144
  0.8161825265415416  0.7054237578904847  0.2113979569131983
  0.0695246749038199  0.8739819636308714  0.3004072038606714
  0.1944280029420289  0.1241195785490948  0.3003908360074376
  0.0589855200056179  0.7026318571568804  0.3449970002393452
  0.8095318557074076  0.0392043950634411  0.6108436688595305
  0.0628054731862634  0.3712194250330449  0.4344954837563787
  0.5588936662201426  0.2025529571118170  0.3449869244158958
  0.8188074895137072  0.3744140890633733  0.3003928871172162
  0.5594924529327544  0.0386714692477574  0.2558092238827094
  0.5659883660051779  0.5376285868339147  0.3892224677058221
  0.0622042203438970  0.2054560532609499  0.4787741218778205
  0.3109957110038221  0.8717721675198140  0.7879444105630289
  0.9357265665727752  0.9582572571505720  0.6997342277592858
  0.0688214052216858  0.3744803721261569  0.3004086061725990
  0.6910743801434344  0.6248408184381603  0.6550236138835489
  0.6865848512131036  0.4567307663758992  0.5654219577723720
  0.4404875926252194  0.9558283800066179  0.2117688783779838
  0.3123464317511928  0.2056330778173624  0.4787382258223452
  0.8135383463314234  0.5394160403508342  0.8756696100763077
  0.6874578660856602  0.6199884110094739  0.4345576802312196
  0.8111953586325922  0.2078864326819809  0.6997420202217079
  0.8122738276134318  0.7057383127618909  0.4786860602943196
  0.8114577500884033  0.8709150705945806  0.4343768914065585
  0.9372799033738950  0.9553858530520773  0.4788665337605040
  0.5623302364236221  0.2056810402603010  0.4786801768145219
  0.1872137726569710  0.6198316971859785  0.4345677082531277
  0.3147636058398373  0.0409724347744788  0.7439372974887279
  0.9416815909329199  0.6245252827529835  0.6549425440519351
  0.5663521136138316  0.7126330610304139  0.8331351351834043
  0.3197835798612786  0.3736999299719312  0.3002699823417115
  0.5654538882396682  0.7049711507514053  0.2113247193105694
  0.1875113776920243  0.4554656711763944  0.4787186720397283
  0.3141622654609669  0.0410039108016945  0.8756263972418147
  0.1851331791363547  0.4577522827511631  0.6997436027048919
  0.5615461796602794  0.3715931961093664  0.5214697630156943
  0.1912837475046290  0.2876678841986969  0.3891894386060146
  0.3156996783008917  0.2053572547874444  0.2111923540059016
  0.0663802283986817  0.7053664434033811  0.2112883474558737
  0.5621132405514678  0.3708279433330378  0.4345233451574659
  0.4365987873669399  0.6218615781015271  0.5214091176208357
  0.8170329977120655  0.7140154857495957  0.8330862623489894
  0.0610569693632000  0.3729876057013494  0.7880627443165248
  0.4365735376140754  0.2959024647985075  0.8761092288520477
  0.3112184037911800  0.0314083520620404  0.1244749445788570
  0.6875560937954220  0.1200060284618591  0.4344986750800296
  0.1841407737697194  0.9525396605255008  0.3451144571211496
  0.0662352262120094  0.2131187827017782  0.8335725443338756
  0.5587462026765289  0.0382443699001071  0.6109049949813730
  0.6896666006921589  0.4560129897685873  0.2116298952053096
  0.1903301478116398  0.7902376855323708  0.7440131357043468
  0.1942468625045171  0.6241721850668731  0.3003869962493093
  0.4412043480994947  0.7875654301737118  0.3891922414713244
  0.4341455029221094  0.2896426726428425  0.2559050064844449
  0.0646679198116105  0.5392388394791008  0.8756109305754871
  0.5654859008738220  0.0405174618639709  0.7439841463616076
  0.1872962605949895  0.7949512813626718  0.8758019301079436
  0.9372210324880870  0.4553236758562509  0.4787217712580445
  0.5649059836908569  0.5403991918423022  0.7439014429760326
  0.8111620332316989  0.2069767513333587  0.5654461529500368
  0.1853579851614574  0.6210877643446476  0.7879324097203337
  0.0669455887254308  0.5384345904983879  0.3893503557305850
  0.0611520479553033  0.7073595323327287  0.6997670581963612
  0.3084247706486147  0.5381264597972873  0.2558520101852853
  0.9338191833354594  0.2884353297684116  0.6109784892318892
  0.3055540237258377  0.8651364269718679  0.1659170172009735
  0.4369531050480555  0.6205637659143730  0.4344443561435296
  0.8176626056659494  0.0384922881311683  0.3892692966386922
  0.9356555919690305  0.2956663621960851  0.8753789731701090
  0.9377120471034422  0.7934706125623078  0.8753257046595131
  0.0656049903079816  0.0383603321848381  0.8753932674685215
  0.5627468271379049  0.5306441134761172  0.1251752847968409
  0.8052392953052137  0.3663726836223209  0.1659712487789712
  0.0621099591523105  0.8711066266931000  0.4345523335267215
  0.9365731848599304  0.1215316074452360  0.5214701180761492
  0.1929667593562652  0.7874817436458875  0.3890660482735381
  0.3149763774512050  0.5398368333983571  0.7441696821939362
 
  0.00000000E+00  0.00000000E+00  0.00000000E+00
  0.00000000E+00  0.00000000E+00  0.00000000E+00
  0.00000000E+00  0.00000000E+00  0.00000000E+00
  0.00000000E+00  0.00000000E+00  0.00000000E+00
  0.00000000E+00  0.00000000E+00  0.00000000E+00
  0.00000000E+00  0.00000000E+00  0.00000000E+00
  0.00000000E+00  0.00000000E+00  0.00000000E+00
  0.00000000E+00  0.00000000E+00  0.00000000E+00
  0.00000000E+00  0.00000000E+00  0.00000000E+00
  0.00000000E+00  0.00000000E+00  0.00000000E+00
  0.00000000E+00  0.00000000E+00  0.00000000E+00
  0.00000000E+00  0.00000000E+00  0.00000000E+00
  0.00000000E+00  0.00000000E+00  0.00000000E+00
  0.00000000E+00  0.00000000E+00  0.00000000E+00
  0.00000000E+00  0.00000000E+00  0.00000000E+00
  0.00000000E+00  0.00000000E+00  0.00000000E+00
  0.00000000E+00  0.00000000E+00  0.00000000E+00
  0.00000000E+00  0.00000000E+00  0.00000000E+00
  0.00000000E+00  0.00000000E+00  0.00000000E+00
  0.00000000E+00  0.00000000E+00  0.00000000E+00
  0.00000000E+00  0.00000000E+00  0.00000000E+00
  0.00000000E+00  0.00000000E+00  0.00000000E+00
  0.00000000E+00  0.00000000E+00  0.00000000E+00
  0.00000000E+00  0.00000000E+00  0.00000000E+00
  0.00000000E+00  0.00000000E+00  0.00000000E+00
  0.00000000E+00  0.00000000E+00  0.00000000E+00
  0.00000000E+00  0.00000000E+00  0.00000000E+00
  0.00000000E+00  0.00000000E+00  0.00000000E+00
  0.00000000E+00  0.00000000E+00  0.00000000E+00
  0.00000000E+00  0.00000000E+00  0.00000000E+00
  0.00000000E+00  0.00000000E+00  0.00000000E+00
  0.00000000E+00  0.00000000E+00  0.00000000E+00
  0.00000000E+00  0.00000000E+00  0.00000000E+00
  0.00000000E+00  0.00000000E+00  0.00000000E+00
  0.00000000E+00  0.00000000E+00  0.00000000E+00
  0.00000000E+00  0.00000000E+00  0.00000000E+00
  0.00000000E+00  0.00000000E+00  0.00000000E+00
  0.00000000E+00  0.00000000E+00  0.00000000E+00
  0.00000000E+00  0.00000000E+00  0.00000000E+00
  0.00000000E+00  0.00000000E+00  0.00000000E+00
  0.00000000E+00  0.00000000E+00  0.00000000E+00
  0.00000000E+00  0.00000000E+00  0.00000000E+00
  0.00000000E+00  0.00000000E+00  0.00000000E+00
  0.00000000E+00  0.00000000E+00  0.00000000E+00
  0.00000000E+00  0.00000000E+00  0.00000000E+00
  0.00000000E+00  0.00000000E+00  0.00000000E+00
  0.00000000E+00  0.00000000E+00  0.00000000E+00
  0.00000000E+00  0.00000000E+00  0.00000000E+00
  0.00000000E+00  0.00000000E+00  0.00000000E+00
  0.00000000E+00  0.00000000E+00  0.00000000E+00
  0.00000000E+00  0.00000000E+00  0.00000000E+00
  0.00000000E+00  0.00000000E+00  0.00000000E+00
  0.00000000E+00  0.00000000E+00  0.00000000E+00
  0.00000000E+00  0.00000000E+00  0.00000000E+00
  0.00000000E+00  0.00000000E+00  0.00000000E+00
  0.00000000E+00  0.00000000E+00  0.00000000E+00
  0.00000000E+00  0.00000000E+00  0.00000000E+00
  0.00000000E+00  0.00000000E+00  0.00000000E+00
  0.00000000E+00  0.00000000E+00  0.00000000E+00
  0.00000000E+00  0.00000000E+00  0.00000000E+00
  0.00000000E+00  0.00000000E+00  0.00000000E+00
  0.00000000E+00  0.00000000E+00  0.00000000E+00
  0.00000000E+00  0.00000000E+00  0.00000000E+00
  0.00000000E+00  0.00000000E+00  0.00000000E+00
  0.00000000E+00  0.00000000E+00  0.00000000E+00
  0.00000000E+00  0.00000000E+00  0.00000000E+00
  0.00000000E+00  0.00000000E+00  0.00000000E+00
  0.00000000E+00  0.00000000E+00  0.00000000E+00
  0.00000000E+00  0.00000000E+00  0.00000000E+00
  0.00000000E+00  0.00000000E+00  0.00000000E+00
  0.00000000E+00  0.00000000E+00  0.00000000E+00
  0.00000000E+00  0.00000000E+00  0.00000000E+00
  0.00000000E+00  0.00000000E+00  0.00000000E+00
  0.00000000E+00  0.00000000E+00  0.00000000E+00
  0.00000000E+00  0.00000000E+00  0.00000000E+00
  0.00000000E+00  0.00000000E+00  0.00000000E+00
  0.00000000E+00  0.00000000E+00  0.00000000E+00
  0.00000000E+00  0.00000000E+00  0.00000000E+00
  0.00000000E+00  0.00000000E+00  0.00000000E+00
  0.00000000E+00  0.00000000E+00  0.00000000E+00
  0.00000000E+00  0.00000000E+00  0.00000000E+00
  0.00000000E+00  0.00000000E+00  0.00000000E+00
  0.00000000E+00  0.00000000E+00  0.00000000E+00
  0.00000000E+00  0.00000000E+00  0.00000000E+00
  0.00000000E+00  0.00000000E+00  0.00000000E+00
  0.00000000E+00  0.00000000E+00  0.00000000E+00
  0.00000000E+00  0.00000000E+00  0.00000000E+00
  0.00000000E+00  0.00000000E+00  0.00000000E+00
  0.00000000E+00  0.00000000E+00  0.00000000E+00
  0.00000000E+00  0.00000000E+00  0.00000000E+00
  0.00000000E+00  0.00000000E+00  0.00000000E+00
  0.00000000E+00  0.00000000E+00  0.00000000E+00
  0.00000000E+00  0.00000000E+00  0.00000000E+00
  0.00000000E+00  0.00000000E+00  0.00000000E+00
  0.00000000E+00  0.00000000E+00  0.00000000E+00
  0.00000000E+00  0.00000000E+00  0.00000000E+00
  0.00000000E+00  0.00000000E+00  0.00000000E+00
  0.00000000E+00  0.00000000E+00  0.00000000E+00
  0.00000000E+00  0.00000000E+00  0.00000000E+00
  0.00000000E+00  0.00000000E+00  0.00000000E+00
  0.00000000E+00  0.00000000E+00  0.00000000E+00
  0.00000000E+00  0.00000000E+00  0.00000000E+00
  0.00000000E+00  0.00000000E+00  0.00000000E+00
  0.00000000E+00  0.00000000E+00  0.00000000E+00
  0.00000000E+00  0.00000000E+00  0.00000000E+00
  0.00000000E+00  0.00000000E+00  0.00000000E+00
  0.00000000E+00  0.00000000E+00  0.00000000E+00
  0.00000000E+00  0.00000000E+00  0.00000000E+00
  0.00000000E+00  0.00000000E+00  0.00000000E+00
  0.00000000E+00  0.00000000E+00  0.00000000E+00
  0.00000000E+00  0.00000000E+00  0.00000000E+00
  0.00000000E+00  0.00000000E+00  0.00000000E+00
  0.00000000E+00  0.00000000E+00  0.00000000E+00
  0.00000000E+00  0.00000000E+00  0.00000000E+00
  0.00000000E+00  0.00000000E+00  0.00000000E+00
  0.00000000E+00  0.00000000E+00  0.00000000E+00
  0.00000000E+00  0.00000000E+00  0.00000000E+00
  0.00000000E+00  0.00000000E+00  0.00000000E+00
  0.00000000E+00  0.00000000E+00  0.00000000E+00
  0.00000000E+00  0.00000000E+00  0.00000000E+00
  0.00000000E+00  0.00000000E+00  0.00000000E+00
  0.00000000E+00  0.00000000E+00  0.00000000E+00
  0.00000000E+00  0.00000000E+00  0.00000000E+00
  0.00000000E+00  0.00000000E+00  0.00000000E+00
  0.00000000E+00  0.00000000E+00  0.00000000E+00
  0.00000000E+00  0.00000000E+00  0.00000000E+00
  0.00000000E+00  0.00000000E+00  0.00000000E+00
  0.00000000E+00  0.00000000E+00  0.00000000E+00
  0.00000000E+00  0.00000000E+00  0.00000000E+00
  0.00000000E+00  0.00000000E+00  0.00000000E+00
  0.00000000E+00  0.00000000E+00  0.00000000E+00
  0.00000000E+00  0.00000000E+00  0.00000000E+00
  0.00000000E+00  0.00000000E+00  0.00000000E+00
  0.00000000E+00  0.00000000E+00  0.00000000E+00
  0.00000000E+00  0.00000000E+00  0.00000000E+00
  0.00000000E+00  0.00000000E+00  0.00000000E+00
  0.00000000E+00  0.00000000E+00  0.00000000E+00
  0.00000000E+00  0.00000000E+00  0.00000000E+00
  0.00000000E+00  0.00000000E+00  0.00000000E+00
  0.00000000E+00  0.00000000E+00  0.00000000E+00
  0.00000000E+00  0.00000000E+00  0.00000000E+00
  0.00000000E+00  0.00000000E+00  0.00000000E+00
  0.00000000E+00  0.00000000E+00  0.00000000E+00
  0.00000000E+00  0.00000000E+00  0.00000000E+00
  0.00000000E+00  0.00000000E+00  0.00000000E+00
  0.00000000E+00  0.00000000E+00  0.00000000E+00
  0.00000000E+00  0.00000000E+00  0.00000000E+00
  0.00000000E+00  0.00000000E+00  0.00000000E+00
  0.00000000E+00  0.00000000E+00  0.00000000E+00
  0.00000000E+00  0.00000000E+00  0.00000000E+00
  0.00000000E+00  0.00000000E+00  0.00000000E+00
  0.00000000E+00  0.00000000E+00  0.00000000E+00
  0.00000000E+00  0.00000000E+00  0.00000000E+00
  0.00000000E+00  0.00000000E+00  0.00000000E+00
  0.00000000E+00  0.00000000E+00  0.00000000E+00
  0.00000000E+00  0.00000000E+00  0.00000000E+00
  0.00000000E+00  0.00000000E+00  0.00000000E+00
  0.00000000E+00  0.00000000E+00  0.00000000E+00
  0.00000000E+00  0.00000000E+00  0.00000000E+00
  0.00000000E+00  0.00000000E+00  0.00000000E+00
  0.00000000E+00  0.00000000E+00  0.00000000E+00
  0.00000000E+00  0.00000000E+00  0.00000000E+00
  0.00000000E+00  0.00000000E+00  0.00000000E+00
  0.00000000E+00  0.00000000E+00  0.00000000E+00
  0.00000000E+00  0.00000000E+00  0.00000000E+00
  0.00000000E+00  0.00000000E+00  0.00000000E+00
  0.00000000E+00  0.00000000E+00  0.00000000E+00
  0.00000000E+00  0.00000000E+00  0.00000000E+00
  0.00000000E+00  0.00000000E+00  0.00000000E+00
  0.00000000E+00  0.00000000E+00  0.00000000E+00
  0.00000000E+00  0.00000000E+00  0.00000000E+00
  0.00000000E+00  0.00000000E+00  0.00000000E+00
  0.00000000E+00  0.00000000E+00  0.00000000E+00
  0.00000000E+00  0.00000000E+00  0.00000000E+00
  0.00000000E+00  0.00000000E+00  0.00000000E+00
  0.00000000E+00  0.00000000E+00  0.00000000E+00
  0.00000000E+00  0.00000000E+00  0.00000000E+00
  0.00000000E+00  0.00000000E+00  0.00000000E+00
  0.00000000E+00  0.00000000E+00  0.00000000E+00
  0.00000000E+00  0.00000000E+00  0.00000000E+00
  0.00000000E+00  0.00000000E+00  0.00000000E+00
  0.00000000E+00  0.00000000E+00  0.00000000E+00
  0.00000000E+00  0.00000000E+00  0.00000000E+00
  0.00000000E+00  0.00000000E+00  0.00000000E+00
  0.00000000E+00  0.00000000E+00  0.00000000E+00
  0.00000000E+00  0.00000000E+00  0.00000000E+00
  0.00000000E+00  0.00000000E+00  0.00000000E+00
  0.00000000E+00  0.00000000E+00  0.00000000E+00
  0.00000000E+00  0.00000000E+00  0.00000000E+00
  0.00000000E+00  0.00000000E+00  0.00000000E+00
  0.00000000E+00  0.00000000E+00  0.00000000E+00
  0.00000000E+00  0.00000000E+00  0.00000000E+00
  0.00000000E+00  0.00000000E+00  0.00000000E+00
  0.00000000E+00  0.00000000E+00  0.00000000E+00
  0.00000000E+00  0.00000000E+00  0.00000000E+00
  0.00000000E+00  0.00000000E+00  0.00000000E+00
  0.00000000E+00  0.00000000E+00  0.00000000E+00
  0.00000000E+00  0.00000000E+00  0.00000000E+00
  0.00000000E+00  0.00000000E+00  0.00000000E+00
  0.00000000E+00  0.00000000E+00  0.00000000E+00
  0.00000000E+00  0.00000000E+00  0.00000000E+00
  0.00000000E+00  0.00000000E+00  0.00000000E+00
  0.00000000E+00  0.00000000E+00  0.00000000E+00
  0.00000000E+00  0.00000000E+00  0.00000000E+00
  0.00000000E+00  0.00000000E+00  0.00000000E+00
  0.00000000E+00  0.00000000E+00  0.00000000E+00
  0.00000000E+00  0.00000000E+00  0.00000000E+00
  0.00000000E+00  0.00000000E+00  0.00000000E+00
  0.00000000E+00  0.00000000E+00  0.00000000E+00
  0.00000000E+00  0.00000000E+00  0.00000000E+00
  0.00000000E+00  0.00000000E+00  0.00000000E+00
  0.00000000E+00  0.00000000E+00  0.00000000E+00
  0.00000000E+00  0.00000000E+00  0.00000000E+00
  0.00000000E+00  0.00000000E+00  0.00000000E+00
  0.00000000E+00  0.00000000E+00  0.00000000E+00
  0.00000000E+00  0.00000000E+00  0.00000000E+00
  0.00000000E+00  0.00000000E+00  0.00000000E+00
  0.00000000E+00  0.00000000E+00  0.00000000E+00
  0.00000000E+00  0.00000000E+00  0.00000000E+00
  0.00000000E+00  0.00000000E+00  0.00000000E+00
  0.00000000E+00  0.00000000E+00  0.00000000E+00
  0.00000000E+00  0.00000000E+00  0.00000000E+00
  0.00000000E+00  0.00000000E+00  0.00000000E+00
  0.00000000E+00  0.00000000E+00  0.00000000E+00
  0.00000000E+00  0.00000000E+00  0.00000000E+00
  0.00000000E+00  0.00000000E+00  0.00000000E+00
  0.00000000E+00  0.00000000E+00  0.00000000E+00
  0.00000000E+00  0.00000000E+00  0.00000000E+00
  0.00000000E+00  0.00000000E+00  0.00000000E+00
  0.00000000E+00  0.00000000E+00  0.00000000E+00
  0.00000000E+00  0.00000000E+00  0.00000000E+00
  0.00000000E+00  0.00000000E+00  0.00000000E+00
  0.00000000E+00  0.00000000E+00  0.00000000E+00
  0.00000000E+00  0.00000000E+00  0.00000000E+00
  0.00000000E+00  0.00000000E+00  0.00000000E+00
  0.00000000E+00  0.00000000E+00  0.00000000E+00
  0.00000000E+00  0.00000000E+00  0.00000000E+00
  0.00000000E+00  0.00000000E+00  0.00000000E+00
  0.00000000E+00  0.00000000E+00  0.00000000E+00
  0.00000000E+00  0.00000000E+00  0.00000000E+00
  0.00000000E+00  0.00000000E+00  0.00000000E+00
  0.00000000E+00  0.00000000E+00  0.00000000E+00
  0.00000000E+00  0.00000000E+00  0.00000000E+00
  0.00000000E+00  0.00000000E+00  0.00000000E+00
  0.00000000E+00  0.00000000E+00  0.00000000E+00
  0.00000000E+00  0.00000000E+00  0.00000000E+00
  0.00000000E+00  0.00000000E+00  0.00000000E+00