FeMn_288_20                             
    1.000000000000000     
     9.7266779999999997    0.0000000000000000    0.0000000000000000
     0.0000000000000000    8.4235500000000005    0.0000000000000000
     0.0000000000000000    0.0000000000000000   45.0000000000000000
   Fe   Mn
   268    20
Direct
  0.4373861381622407  0.9571546591701396  0.6982848386331202
  0.0633591529915697  0.0411404178125121  0.8735319989082652
  0.6876791816466841  0.2895192039407372  0.6097728868640010
  0.9375310382464340  0.6225299802426845  0.5212796009706218
  0.5618649799413897  0.5407494088911896  0.8733970780058863
  0.9373548597961555  0.6229286857832542  0.6537524288942347
  0.3124326496917897  0.3734311248257339  0.6537932134975120
  0.8123062725933088  0.7082309102851949  0.8314460435991188
  0.5620438105856784  0.5363593882724860  0.1264581733931866
  0.6875053518707688  0.4557324836694464  0.4785846601952848
  0.5634550349151679  0.3710745091758274  0.1686932125779159
  0.3129875297510528  0.3705094915424487  0.3017298574718241
  0.3124131553627161  0.7044425819496880  0.3462737330359638
  0.1880271943879202  0.7880578511905127  0.3901385514080851
  0.8122720481637359  0.0405425341501894  0.7423896273568104
  0.3126008470960130  0.7027107709973144  0.2135206546939581
  0.1876100370029583  0.1218121290958177  0.4348507130570239
  0.8120018771702210  0.5404747423918701  0.7423881063841027
  0.1879673279950922  0.2874756529127224  0.2576296733361777
  0.8124469043468182  0.2071792313824889  0.6982093453968791
  0.6875700064804540  0.7899070504067024  0.6098428051542341
  0.4372923828388725  0.9570937280145498  0.8314503465075580
  0.0620069520502114  0.3705910780426742  0.1686572845343969
  0.8123493558622598  0.7055143940543975  0.5651418959811683
  0.5628207930143443  0.3703532425461369  0.3017822401565321
  0.8118039076738848  0.2060244804290328  0.5651731657323141
  0.3118403108385883  0.7068460409022176  0.8313820144473211
  0.1873945491871699  0.7874484840651539  0.2575352040302961
  0.4374200245916856  0.1205478435740042  0.3018839807340325
  0.1872881068687384  0.7907138481697562  0.8735415853172348
  0.6878087035696178  0.7872740080509284  0.2575791691854807
  0.4373054881627714  0.6237360542746111  0.6537674328851923
  0.3127858502417055  0.0372053334821281  0.2576189830041496
  0.1875378273081196  0.2902972805683285  0.8735823118316608
  0.5631724534480774  0.2039007447296003  0.2136149476735082
  0.1879710905719751  0.6208893792291656  0.3017410992686672
  0.3122246494814124  0.5394817670436368  0.6097245002159836
  0.5627315790211651  0.5369987487872504  0.2576405962888506
  0.0622770991680804  0.8731534256760829  0.6538144407114972
  0.4377522962392656  0.6240640873322889  0.7865436663115060
  0.0625845667084786  0.3740521222072322  0.7864895113749328
  0.3120826922671432  0.7070630619244577  0.6981647767647872
  0.8122281351469443  0.2057311326532005  0.4784447771708896
  0.3126420276610596  0.8718297643765177  0.4347712132878905
  0.9380937883935372  0.7871037004564806  0.1263314221876828
  0.0626076107928403  0.0398678702687180  0.6099217225556957
  0.8128403351730621  0.7035520448572833  0.2133758924705858
  0.1878977757619334  0.9539778283611001  0.2134476304250875
  0.8127298833233363  0.3718133860611386  0.4348205475780346
  0.5625293205894376  0.2054340909740400  0.4785335625775589
  0.6876983191883187  0.4538933539735776  0.2133851817894599
  0.6876067369278989  0.1224518654709707  0.5212803309430020
  0.0626588273181255  0.7055479582889281  0.4785598826279084
  0.3125528585752558  0.8723796085086839  0.5212954460260569
  0.4374856626619610  0.1237105419388665  0.6537982638974278
  0.6874398645917312  0.4569528379871771  0.6982101382488000
  0.4375800023042512  0.6209512269520656  0.3018811630342007
  0.1873732905018580  0.7904835585074274  0.7423393416452674
  0.0625699082819544  0.7071895774585275  0.6981561052516594
  0.6879718327341098  0.4546761086491623  0.3461535557008418
  0.0625655772962025  0.8723374908881933  0.4347565396366090
  0.8127118271052716  0.7068363244920255  0.6982760187120758
  0.1873991410639706  0.4566198090656768  0.6982792176267191
  0.9373506037418706  0.1218575929859798  0.4348252515681418
  0.6866102658010137  0.2878003928954633  0.1265493981204383
  0.3128650342822239  0.2045886826486233  0.3461594871250900
  0.9368657129863915  0.1239983793716367  0.7865881842943383
  0.3122275054478091  0.3721587710607979  0.5213608975767837
  0.6870597229374615  0.1234580575131678  0.6538436592142171
  0.4366250910813039  0.4572563394543677  0.8313557317288700
  0.9374892711539949  0.6221819610060980  0.4348483371363095
  0.9372071874094565  0.4565578829883901  0.6982199425390744
  0.9381104518578064  0.4540187407279046  0.2134149505202544
  0.5627223379853186  0.2053427764690564  0.5651347004829960
  0.6879290086888807  0.9544118485516777  0.3462665930866191
  0.3128516976801017  0.7055504838885591  0.4786262125048572
  0.3122321394133499  0.3740861532001304  0.7865922163480283
  0.9374312844129393  0.1227142122504509  0.6538083735463248
  0.3129471565527173  0.2039942083759065  0.2133868105412733
  0.1880680974469764  0.4556428683830969  0.4785506054420794
  0.4373426393326936  0.6206067210677554  0.1687443371605405
  0.3130016297180155  0.0380171097805239  0.3900939811398350
  0.4373469381528540  0.7895167006958111  0.6097951809818005
  0.8122345645453296  0.5392890989469509  0.6097623560443602
  0.1875345047268762  0.6220439602599411  0.5212924196008457
  0.8123339530247977  0.8723550593952188  0.5212716300080545
  0.4374519072062092  0.2906370090105317  0.7423353204872158
  0.4383748143779491  0.7872024618062360  0.1264344807587300
  0.0628091481778834  0.8713096985321268  0.3016649724879207
  0.9372317679169422  0.7906150004658999  0.7425147161794823
  0.5625733045703156  0.5378009689784045  0.3901203878517117
  0.6872317880396888  0.9570548135117066  0.6982825076981520
  0.5625748177964056  0.0380857252676885  0.3901466954793215
  0.0631675672156625  0.7037016531990237  0.2135307262343568
  0.0623096909004073  0.2045180591735540  0.2136017749999810
  0.4370230477997030  0.2915793431479952  0.8734471831415568
  0.0626231026141256  0.3721620905358816  0.4348191280542677
  0.8117287422571944  0.2074918221680020  0.8314848891932567
  0.5622430332698088  0.7039364144460174  0.2136580547796825
  0.8126695870755845  0.3722274886053333  0.5212971663636047
  0.1881715642048262  0.1200427455391360  0.1686257839203794
  0.8124393553897644  0.3730869030367249  0.6538872412560669
  0.8126576954170587  0.7040784232268774  0.3462861799507190
  0.6880012425442245  0.1201620779008868  0.1687532938807680
  0.1862904404199460  0.7868296517108937  0.1264341244511304
  0.6883259757919152  0.6203054184976649  0.1685581732183684
  0.0631417515035608  0.5362363312061246  0.1264026953306960
  0.6872986690971346  0.7883777291904843  0.3902154655555931
  0.8123130404149712  0.3735254235914697  0.7866311489574324
  0.5623229171383145  0.2072396275428614  0.6982697475151658
  0.8125977037694810  0.8702868992091877  0.3018510273174924
  0.8121137947731280  0.7055808643956755  0.4785795008700038
  0.3129207735057708  0.2059299168771213  0.4785224974818112
  0.9376621441892745  0.9541721035076841  0.3461832751154063
  0.4374561288456333  0.6214416639274581  0.4348093175304081
  0.9370431263301296  0.2914101686197220  0.8734592524240073
  0.5628160308715634  0.8709358563637172  0.3017489678022298
  0.4372142481955169  0.9555859444821271  0.5651213970655058
  0.3129164206918652  0.8711723427772798  0.1684459952809994
  0.5621895227660521  0.7077647657331086  0.8314681852297826
  0.4377111460517195  0.4547071967711552  0.3461627899580554
  0.8122897184538145  0.0379359965138162  0.3900467285475155
  0.3113862577467142  0.0408554457815303  0.8735438991453383
  0.6875668641123964  0.2871441612544315  0.2575953807190982
  0.9377025064952748  0.7875640679637134  0.2575945807259131
  0.1873560570484910  0.4573973970812120  0.8312904600827972
  0.9377896722563425  0.1210791671320290  0.3018864697939115
  0.4376729637040944  0.1244114855280425  0.7866082019490542
  0.9371926509313995  0.2911076018391874  0.7424130623270665
  0.1876258403163444  0.6219489917281961  0.4348882566532779
  0.8124157207802657  0.8701638909943124  0.1683803884527545
  0.8124106188024729  0.3707441284228793  0.3017623098094144
  0.3120584403937680  0.0405883351122455  0.7424066444357070
  0.8127155424627208  0.3714788292242164  0.1685470078937577
  0.0625924806880524  0.5412762255960487  0.8735164526902084
  0.6881039860451181  0.7875040835136601  0.1263256288174193
  0.0623665429315492  0.2072600221185128  0.8314226382636313
  0.5625668244664618  0.7060185998344933  0.5650875230195200
  0.3128689982812080  0.2059028598223197  0.5651918373800090
  0.9373543978895633  0.2897812773091009  0.6098630846004728
  0.4373981304245529  0.1223934429533984  0.5213367329585449
  0.6874190782016086  0.6204952081793815  0.3018898959246297
  0.6874258899637500  0.6221411200824799  0.5212843307019364
  0.9387491515004005  0.2871485640501709  0.1265422693714065
  0.6872572022957700  0.9561036467534687  0.5650796742980304
  0.6876093545169978  0.2907098703562623  0.8734805432987665
  0.4377296442580857  0.2881303158103763  0.1264152927418693
  0.5627269616769660  0.0368594721467392  0.2575644714491176
  0.4376138175442227  0.2872643918194765  0.2576125382312139
  0.1875775975523554  0.2898161658285427  0.6098305709031696
  0.8126320508020127  0.0369925422054883  0.1264062193569466
  0.1874625638469191  0.9548802715726726  0.4785148319837393
  0.0625411970386446  0.3731381314680861  0.6537399762428514
  0.3128697560875894  0.8710171545462695  0.3018555268274293
  0.3127591837375862  0.7056793020625844  0.5651030743219032
  0.4378358735130748  0.2902595716625678  0.6098430526912317
  0.0628030512263430  0.5399167509966816  0.6098512870464929
  0.1872471510185958  0.2881133309890342  0.3902366433462344
  0.4375274202310803  0.1216828952977550  0.4347910913722045
  0.6874203617623666  0.6237159993678416  0.6537977542544471
  0.8126137727782186  0.0374562701834245  0.2575703471400589
  0.0627412515150994  0.0374560435654278  0.2576895575471354
  0.4373353151502468  0.1200619117764245  0.1685423509675692
  0.6874696551992611  0.4576739255271161  0.8313088796683127
  0.5625421924417834  0.2046129257819767  0.3462578184037671
  0.9370417922355444  0.4555583645223673  0.4786333657650185
  0.1872351337369250  0.2910874700541282  0.7423738419468202
  0.9368083566796894  0.9567312261503166  0.8314602593496544
  0.3128828497196432  0.5368775242900504  0.1263948511737310
  0.6876786502147203  0.1220126828715313  0.4348368328895285
  0.9375443331687282  0.9540861362047246  0.2134726259049930
  0.1879783720344061  0.6206102913048325  0.1686579173581579
  0.3119744416568070  0.5410252561972426  0.8735652450928247
  0.3121409812009129  0.2069933955008643  0.6983098809614572
  0.5626341400152043  0.2071388584157183  0.8313019568358517
  0.5626908268884998  0.7046245248756319  0.3462676936704972
  0.5618414708190334  0.3735125770048549  0.7866298193343411
  0.9379895670658095  0.2876016653962349  0.2576622107396632
  0.8122426471448977  0.8730567569779104  0.6537227297176964
  0.1877073254013589  0.1214199916160482  0.3018792771978364
  0.5615726042683339  0.8740811536903973  0.7865016171497247
  0.9371660657439523  0.9572119739825019  0.6982938847629330
  0.4373233632529031  0.4568955167675471  0.6980851811019491
  0.8128540424081748  0.5370354679674959  0.2576155046914432
  0.0623168813363813  0.5407108221206985  0.7423891619320475
  0.3129260582620745  0.5380164935699165  0.3901492553326125
  0.1873738511036722  0.1230370829762997  0.6537900758114387
  0.4373631238066452  0.9555067387343951  0.4785965220148056
  0.4375649188996202  0.2876284725635466  0.3900561930341638
  0.6874008948224017  0.7915207538908441  0.8738156125107346
  0.1873329035234364  0.9577397449514479  0.8312864695618903
  0.4376590673934653  0.4535958067924976  0.2135688666939897
  0.8118795392741338  0.0405306459498382  0.8738166809519532
  0.9374704297531226  0.4571409483137264  0.8313493021605124
  0.1881060555972325  0.1221162081779976  0.5211861440639102
  0.9371376455413509  0.1221605616918401  0.5212717658346310
  0.5631506786829009  0.0362052191515916  0.1263542974892709
  0.6871266646316684  0.6241412517001760  0.7866065582810041
  0.9367058664133102  0.7913837563402584  0.8736052722432761
  0.4375705994210154  0.7881754786833937  0.3901916949424160
  0.1873979695329477  0.6234033351124243  0.6539122962108708
  0.6872034338077678  0.4559638626888845  0.5651218044590384
  0.1876221922654510  0.2874874497902971  0.1264796074351188
  0.5621220219983040  0.0403760958085168  0.6097983518125889
  0.9368719323676917  0.6240029425007515  0.7865641773066767
  0.0625911624372108  0.8727291100731476  0.5212713461655979
  0.0626168819096500  0.7063368583929783  0.8314399245840141
  0.0627424495835214  0.5373212351574913  0.2575968663140345
  0.3126850003554899  0.3703999400467908  0.1685454863300560
  0.0623240661267155  0.8741468160138794  0.7866200187471656
  0.9378179658462397  0.2878979682890688  0.3902836156868938
  0.6872724709784579  0.1245505280036063  0.7865722808346866
  0.1873664111108133  0.4535327735124898  0.2134291373238500
  0.3123383133407311  0.8742600479132943  0.7866394995585774
  0.4370383580029167  0.7901667792771258  0.7424345264093937
  0.6872674059127338  0.7905371698016145  0.7424220687790951
  0.8125231496508565  0.2045547703927000  0.3461504882901977
  0.0633904355350802  0.8705096902510289  0.1686463265743258
  0.3121571710362731  0.3716740546696447  0.4347787989558495
  0.0625708848688166  0.2045629098507388  0.3462420716507377
  0.1874338993450808  0.4546294182544846  0.3461787582362114
  0.3124132190910267  0.5404503205363340  0.7423197250781369
  0.5625942833869531  0.8717905985966667  0.4347758542819901
  0.4373524125455652  0.4562549961112938  0.5651300163306222
  0.4374597684627167  0.4555819314095428  0.4785552578321539
  0.5625191276476862  0.8739729887457878  0.6536731571657136
  0.5624539940023902  0.8723932298537089  0.5213070833689772
  0.4375661478721153  0.7912052694497347  0.8735659482203764
  0.3126591407745943  0.5371291172864293  0.2575726503603968
  0.9376301671061533  0.1203086940105319  0.1688198061579725
  0.3122624785173412  0.0404479753584112  0.6098396869973146
  0.6871876295815622  0.2908238687430859  0.7424029081972847
  0.0624586337386199  0.3728777288330700  0.5213162600570000
  0.1872129682150003  0.1244085370064704  0.7865854824230405
  0.0627261822517191  0.7063633802006263  0.5649660509569648
  0.5626233184922760  0.3717218531118495  0.4347613736541034
  0.3126292088235060  0.8735329886418081  0.6536819532655481
  0.5619291712126233  0.8713511750413606  0.1684495405465627
  0.1881372687461366  0.4563404306250422  0.5653277435662113
  0.6877875863167650  0.2877601618424517  0.3901425095167928
  0.0625596023188783  0.0379584972652689  0.3901892158563054
  0.0628336592140171  0.7040522509781467  0.3461861355629155
  0.8123687313670529  0.2033180289346729  0.2135741402141761
  0.9372547829806952  0.6202960138059800  0.1684970354120400
  0.9373553519287222  0.4542865669416120  0.3461810452888767
  0.9373412026631583  0.9555508273391840  0.5652162370521990
  0.4381978352870218  0.7874620692804783  0.2575634352319251
  0.9374763260097618  0.7878312523519371  0.3901044962720231
  0.8123325623797262  0.8719566924022251  0.4347875993802170
  0.8125711517774882  0.5399595156588974  0.8734543624695223
  0.5621793698055222  0.5406313052003531  0.7423562785990022
  0.1875273256143556  0.9575042211669188  0.6982398655945520
  0.5624931026329024  0.3721867373927900  0.5212989889130611
  0.5624787277544129  0.7054313825631696  0.4786248835921421
  0.5622650721787360  0.3740063795258341  0.6538374872946806
  0.6876180839982998  0.9554716838336886  0.4785580407848124
  0.3121228042152916  0.2077451187189749  0.8315193617044802
  0.0624960563954102  0.2071111622833991  0.6983452996992399
  0.6874903479994033  0.1206417674778830  0.3018703923018876
  0.5622628654532806  0.5397155313379103  0.6098317657056058
  0.4376435658486560  0.6221612576496879  0.5212927802249157
  0.0620730975711456  0.0365117709733695  0.1265037342915988
  0.1874906098691085  0.9542666442307378  0.3462220099225437
  0.5624650955375781  0.0408518452272492  0.8737500378287544
  0.6875021534926057  0.6217887663310422  0.4347762176656476
  0.9376068600255648  0.9548659545638953  0.4785036490984087
  0.8124444925385873  0.5381976402110570  0.3902185236503252
  0.1875506926850440  0.9562184089478526  0.5652308271162317
  0.1884398010484789  0.7895688030119091  0.6098853637011126
  0.0624648229155055  0.2053372048595601  0.4787509032467330
  0.3127159524587034  0.0368351348858451  0.1266762125267145
  0.5621658465525162  0.7069467055008818  0.6981487247450783
  0.0621421960438231  0.0406141670687815  0.7426116364962937
  0.5624579466866991  0.0395440160229482  0.7423437197108336
  0.9370231463688867  0.7887767294974691  0.6098090102094953
  0.6886719110461941  0.9535515111130354  0.2137871294416208
  0.9367280362895574  0.4575463833654260  0.5653720729435696
  0.9372816408226032  0.6212581452190565  0.3017481792448570
  0.4375978441393949  0.9545823723110244  0.3463276814895507
  0.0627292033052362  0.2051440967103826  0.5649466591521014
  0.6869971178076263  0.9574931704589184  0.8322646934481212
  0.0624334606245644  0.5380191263421986  0.3900643776342927
  0.4367340712846927  0.9536912125128669  0.2136847987826049
  0.0629275631814463  0.3705872069842410  0.3017244877851366
  0.8127617539905739  0.0410655427081609  0.6098521322437565
  0.8125177492595517  0.5366776574895766  0.1266607751263351
  0.8129684062978390  0.8745529614138025  0.7862168531649472
  0.1870912551139930  0.6236843013164715  0.7864037979608189
 
  0.00000000E+00  0.00000000E+00  0.00000000E+00
  0.00000000E+00  0.00000000E+00  0.00000000E+00
  0.00000000E+00  0.00000000E+00  0.00000000E+00
  0.00000000E+00  0.00000000E+00  0.00000000E+00
  0.00000000E+00  0.00000000E+00  0.00000000E+00
  0.00000000E+00  0.00000000E+00  0.00000000E+00
  0.00000000E+00  0.00000000E+00  0.00000000E+00
  0.00000000E+00  0.00000000E+00  0.00000000E+00
  0.00000000E+00  0.00000000E+00  0.00000000E+00
  0.00000000E+00  0.00000000E+00  0.00000000E+00
  0.00000000E+00  0.00000000E+00  0.00000000E+00
  0.00000000E+00  0.00000000E+00  0.00000000E+00
  0.00000000E+00  0.00000000E+00  0.00000000E+00
  0.00000000E+00  0.00000000E+00  0.00000000E+00
  0.00000000E+00  0.00000000E+00  0.00000000E+00
  0.00000000E+00  0.00000000E+00  0.00000000E+00
  0.00000000E+00  0.00000000E+00  0.00000000E+00
  0.00000000E+00  0.00000000E+00  0.00000000E+00
  0.00000000E+00  0.00000000E+00  0.00000000E+00
  0.00000000E+00  0.00000000E+00  0.00000000E+00
  0.00000000E+00  0.00000000E+00  0.00000000E+00
  0.00000000E+00  0.00000000E+00  0.00000000E+00
  0.00000000E+00  0.00000000E+00  0.00000000E+00
  0.00000000E+00  0.00000000E+00  0.00000000E+00
  0.00000000E+00  0.00000000E+00  0.00000000E+00
  0.00000000E+00  0.00000000E+00  0.00000000E+00
  0.00000000E+00  0.00000000E+00  0.00000000E+00
  0.00000000E+00  0.00000000E+00  0.00000000E+00
  0.00000000E+00  0.00000000E+00  0.00000000E+00
  0.00000000E+00  0.00000000E+00  0.00000000E+00
  0.00000000E+00  0.00000000E+00  0.00000000E+00
  0.00000000E+00  0.00000000E+00  0.00000000E+00
  0.00000000E+00  0.00000000E+00  0.00000000E+00
  0.00000000E+00  0.00000000E+00  0.00000000E+00
  0.00000000E+00  0.00000000E+00  0.00000000E+00
  0.00000000E+00  0.00000000E+00  0.00000000E+00
  0.00000000E+00  0.00000000E+00  0.00000000E+00
  0.00000000E+00  0.00000000E+00  0.00000000E+00
  0.00000000E+00  0.00000000E+00  0.00000000E+00
  0.00000000E+00  0.00000000E+00  0.00000000E+00
  0.00000000E+00  0.00000000E+00  0.00000000E+00
  0.00000000E+00  0.00000000E+00  0.00000000E+00
  0.00000000E+00  0.00000000E+00  0.00000000E+00
  0.00000000E+00  0.00000000E+00  0.00000000E+00
  0.00000000E+00  0.00000000E+00  0.00000000E+00
  0.00000000E+00  0.00000000E+00  0.00000000E+00
  0.00000000E+00  0.00000000E+00  0.00000000E+00
  0.00000000E+00  0.00000000E+00  0.00000000E+00
  0.00000000E+00  0.00000000E+00  0.00000000E+00
  0.00000000E+00  0.00000000E+00  0.00000000E+00
  0.00000000E+00  0.00000000E+00  0.00000000E+00
  0.00000000E+00  0.00000000E+00  0.00000000E+00
  0.00000000E+00  0.00000000E+00  0.00000000E+00
  0.00000000E+00  0.00000000E+00  0.00000000E+00
  0.00000000E+00  0.00000000E+00  0.00000000E+00
  0.00000000E+00  0.00000000E+00  0.00000000E+00
  0.00000000E+00  0.00000000E+00  0.00000000E+00
  0.00000000E+00  0.00000000E+00  0.00000000E+00
  0.00000000E+00  0.00000000E+00  0.00000000E+00
  0.00000000E+00  0.00000000E+00  0.00000000E+00
  0.00000000E+00  0.00000000E+00  0.00000000E+00
  0.00000000E+00  0.00000000E+00  0.00000000E+00
  0.00000000E+00  0.00000000E+00  0.00000000E+00
  0.00000000E+00  0.00000000E+00  0.00000000E+00
  0.00000000E+00  0.00000000E+00  0.00000000E+00
  0.00000000E+00  0.00000000E+00  0.00000000E+00
  0.00000000E+00  0.00000000E+00  0.00000000E+00
  0.00000000E+00  0.00000000E+00  0.00000000E+00
  0.00000000E+00  0.00000000E+00  0.00000000E+00
  0.00000000E+00  0.00000000E+00  0.00000000E+00
  0.00000000E+00  0.00000000E+00  0.00000000E+00
  0.00000000E+00  0.00000000E+00  0.00000000E+00
  0.00000000E+00  0.00000000E+00  0.00000000E+00
  0.00000000E+00  0.00000000E+00  0.00000000E+00
  0.00000000E+00  0.00000000E+00  0.00000000E+00
  0.00000000E+00  0.00000000E+00  0.00000000E+00
  0.00000000E+00  0.00000000E+00  0.00000000E+00
  0.00000000E+00  0.00000000E+00  0.00000000E+00
  0.00000000E+00  0.00000000E+00  0.00000000E+00
  0.00000000E+00  0.00000000E+00  0.00000000E+00
  0.00000000E+00  0.00000000E+00  0.00000000E+00
  0.00000000E+00  0.00000000E+00  0.00000000E+00
  0.00000000E+00  0.00000000E+00  0.00000000E+00
  0.00000000E+00  0.00000000E+00  0.00000000E+00
  0.00000000E+00  0.00000000E+00  0.00000000E+00
  0.00000000E+00  0.00000000E+00  0.00000000E+00
  0.00000000E+00  0.00000000E+00  0.00000000E+00
  0.00000000E+00  0.00000000E+00  0.00000000E+00
  0.00000000E+00  0.00000000E+00  0.00000000E+00
  0.00000000E+00  0.00000000E+00  0.00000000E+00
  0.00000000E+00  0.00000000E+00  0.00000000E+00
  0.00000000E+00  0.00000000E+00  0.00000000E+00
  0.00000000E+00  0.00000000E+00  0.00000000E+00
  0.00000000E+00  0.00000000E+00  0.00000000E+00
  0.00000000E+00  0.00000000E+00  0.00000000E+00
  0.00000000E+00  0.00000000E+00  0.00000000E+00
  0.00000000E+00  0.00000000E+00  0.00000000E+00
  0.00000000E+00  0.00000000E+00  0.00000000E+00
  0.00000000E+00  0.00000000E+00  0.00000000E+00
  0.00000000E+00  0.00000000E+00  0.00000000E+00
  0.00000000E+00  0.00000000E+00  0.00000000E+00
  0.00000000E+00  0.00000000E+00  0.00000000E+00
  0.00000000E+00  0.00000000E+00  0.00000000E+00
  0.00000000E+00  0.00000000E+00  0.00000000E+00
  0.00000000E+00  0.00000000E+00  0.00000000E+00
  0.00000000E+00  0.00000000E+00  0.00000000E+00
  0.00000000E+00  0.00000000E+00  0.00000000E+00
  0.00000000E+00  0.00000000E+00  0.00000000E+00
  0.00000000E+00  0.00000000E+00  0.00000000E+00
  0.00000000E+00  0.00000000E+00  0.00000000E+00
  0.00000000E+00  0.00000000E+00  0.00000000E+00
  0.00000000E+00  0.00000000E+00  0.00000000E+00
  0.00000000E+00  0.00000000E+00  0.00000000E+00
  0.00000000E+00  0.00000000E+00  0.00000000E+00
  0.00000000E+00  0.00000000E+00  0.00000000E+00
  0.00000000E+00  0.00000000E+00  0.00000000E+00
  0.00000000E+00  0.00000000E+00  0.00000000E+00
  0.00000000E+00  0.00000000E+00  0.00000000E+00
  0.00000000E+00  0.00000000E+00  0.00000000E+00
  0.00000000E+00  0.00000000E+00  0.00000000E+00
  0.00000000E+00  0.00000000E+00  0.00000000E+00
  0.00000000E+00  0.00000000E+00  0.00000000E+00
  0.00000000E+00  0.00000000E+00  0.00000000E+00
  0.00000000E+00  0.00000000E+00  0.00000000E+00
  0.00000000E+00  0.00000000E+00  0.00000000E+00
  0.00000000E+00  0.00000000E+00  0.00000000E+00
  0.00000000E+00  0.00000000E+00  0.00000000E+00
  0.00000000E+00  0.00000000E+00  0.00000000E+00
  0.00000000E+00  0.00000000E+00  0.00000000E+00
  0.00000000E+00  0.00000000E+00  0.00000000E+00
  0.00000000E+00  0.00000000E+00  0.00000000E+00
  0.00000000E+00  0.00000000E+00  0.00000000E+00
  0.00000000E+00  0.00000000E+00  0.00000000E+00
  0.00000000E+00  0.00000000E+00  0.00000000E+00
  0.00000000E+00  0.00000000E+00  0.00000000E+00
  0.00000000E+00  0.00000000E+00  0.00000000E+00
  0.00000000E+00  0.00000000E+00  0.00000000E+00
  0.00000000E+00  0.00000000E+00  0.00000000E+00
  0.00000000E+00  0.00000000E+00  0.00000000E+00
  0.00000000E+00  0.00000000E+00  0.00000000E+00
  0.00000000E+00  0.00000000E+00  0.00000000E+00
  0.00000000E+00  0.00000000E+00  0.00000000E+00
  0.00000000E+00  0.00000000E+00  0.00000000E+00
  0.00000000E+00  0.00000000E+00  0.00000000E+00
  0.00000000E+00  0.00000000E+00  0.00000000E+00
  0.00000000E+00  0.00000000E+00  0.00000000E+00
  0.00000000E+00  0.00000000E+00  0.00000000E+00
  0.00000000E+00  0.00000000E+00  0.00000000E+00
  0.00000000E+00  0.00000000E+00  0.00000000E+00
  0.00000000E+00  0.00000000E+00  0.00000000E+00
  0.00000000E+00  0.00000000E+00  0.00000000E+00
  0.00000000E+00  0.00000000E+00  0.00000000E+00
  0.00000000E+00  0.00000000E+00  0.00000000E+00
  0.00000000E+00  0.00000000E+00  0.00000000E+00
  0.00000000E+00  0.00000000E+00  0.00000000E+00
  0.00000000E+00  0.00000000E+00  0.00000000E+00
  0.00000000E+00  0.00000000E+00  0.00000000E+00
  0.00000000E+00  0.00000000E+00  0.00000000E+00
  0.00000000E+00  0.00000000E+00  0.00000000E+00
  0.00000000E+00  0.00000000E+00  0.00000000E+00
  0.00000000E+00  0.00000000E+00  0.00000000E+00
  0.00000000E+00  0.00000000E+00  0.00000000E+00
  0.00000000E+00  0.00000000E+00  0.00000000E+00
  0.00000000E+00  0.00000000E+00  0.00000000E+00
  0.00000000E+00  0.00000000E+00  0.00000000E+00
  0.00000000E+00  0.00000000E+00  0.00000000E+00
  0.00000000E+00  0.00000000E+00  0.00000000E+00
  0.00000000E+00  0.00000000E+00  0.00000000E+00
  0.00000000E+00  0.00000000E+00  0.00000000E+00
  0.00000000E+00  0.00000000E+00  0.00000000E+00
  0.00000000E+00  0.00000000E+00  0.00000000E+00
  0.00000000E+00  0.00000000E+00  0.00000000E+00
  0.00000000E+00  0.00000000E+00  0.00000000E+00
  0.00000000E+00  0.00000000E+00  0.00000000E+00
  0.00000000E+00  0.00000000E+00  0.00000000E+00
  0.00000000E+00  0.00000000E+00  0.00000000E+00
  0.00000000E+00  0.00000000E+00  0.00000000E+00
  0.00000000E+00  0.00000000E+00  0.00000000E+00
  0.00000000E+00  0.00000000E+00  0.00000000E+00
  0.00000000E+00  0.00000000E+00  0.00000000E+00
  0.00000000E+00  0.00000000E+00  0.00000000E+00
  0.00000000E+00  0.00000000E+00  0.00000000E+00
  0.00000000E+00  0.00000000E+00  0.00000000E+00
  0.00000000E+00  0.00000000E+00  0.00000000E+00
  0.00000000E+00  0.00000000E+00  0.00000000E+00
  0.00000000E+00  0.00000000E+00  0.00000000E+00
  0.00000000E+00  0.00000000E+00  0.00000000E+00
  0.00000000E+00  0.00000000E+00  0.00000000E+00
  0.00000000E+00  0.00000000E+00  0.00000000E+00
  0.00000000E+00  0.00000000E+00  0.00000000E+00
  0.00000000E+00  0.00000000E+00  0.00000000E+00
  0.00000000E+00  0.00000000E+00  0.00000000E+00
  0.00000000E+00  0.00000000E+00  0.00000000E+00
  0.00000000E+00  0.00000000E+00  0.00000000E+00
  0.00000000E+00  0.00000000E+00  0.00000000E+00
  0.00000000E+00  0.00000000E+00  0.00000000E+00
  0.00000000E+00  0.00000000E+00  0.00000000E+00
  0.00000000E+00  0.00000000E+00  0.00000000E+00
  0.00000000E+00  0.00000000E+00  0.00000000E+00
  0.00000000E+00  0.00000000E+00  0.00000000E+00
  0.00000000E+00  0.00000000E+00  0.00000000E+00
  0.00000000E+00  0.00000000E+00  0.00000000E+00
  0.00000000E+00  0.00000000E+00  0.00000000E+00
  0.00000000E+00  0.00000000E+00  0.00000000E+00
  0.00000000E+00  0.00000000E+00  0.00000000E+00
  0.00000000E+00  0.00000000E+00  0.00000000E+00
  0.00000000E+00  0.00000000E+00  0.00000000E+00
  0.00000000E+00  0.00000000E+00  0.00000000E+00
  0.00000000E+00  0.00000000E+00  0.00000000E+00
  0.00000000E+00  0.00000000E+00  0.00000000E+00
  0.00000000E+00  0.00000000E+00  0.00000000E+00
  0.00000000E+00  0.00000000E+00  0.00000000E+00
  0.00000000E+00  0.00000000E+00  0.00000000E+00
  0.00000000E+00  0.00000000E+00  0.00000000E+00
  0.00000000E+00  0.00000000E+00  0.00000000E+00
  0.00000000E+00  0.00000000E+00  0.00000000E+00
  0.00000000E+00  0.00000000E+00  0.00000000E+00
  0.00000000E+00  0.00000000E+00  0.00000000E+00
  0.00000000E+00  0.00000000E+00  0.00000000E+00
  0.00000000E+00  0.00000000E+00  0.00000000E+00
  0.00000000E+00  0.00000000E+00  0.00000000E+00
  0.00000000E+00  0.00000000E+00  0.00000000E+00
  0.00000000E+00  0.00000000E+00  0.00000000E+00
  0.00000000E+00  0.00000000E+00  0.00000000E+00
  0.00000000E+00  0.00000000E+00  0.00000000E+00
  0.00000000E+00  0.00000000E+00  0.00000000E+00
  0.00000000E+00  0.00000000E+00  0.00000000E+00
  0.00000000E+00  0.00000000E+00  0.00000000E+00
  0.00000000E+00  0.00000000E+00  0.00000000E+00
  0.00000000E+00  0.00000000E+00  0.00000000E+00
  0.00000000E+00  0.00000000E+00  0.00000000E+00
  0.00000000E+00  0.00000000E+00  0.00000000E+00
  0.00000000E+00  0.00000000E+00  0.00000000E+00
  0.00000000E+00  0.00000000E+00  0.00000000E+00
  0.00000000E+00  0.00000000E+00  0.00000000E+00
  0.00000000E+00  0.00000000E+00  0.00000000E+00
  0.00000000E+00  0.00000000E+00  0.00000000E+00
  0.00000000E+00  0.00000000E+00  0.00000000E+00
  0.00000000E+00  0.00000000E+00  0.00000000E+00
  0.00000000E+00  0.00000000E+00  0.00000000E+00
  0.00000000E+00  0.00000000E+00  0.00000000E+00
  0.00000000E+00  0.00000000E+00  0.00000000E+00
  0.00000000E+00  0.00000000E+00  0.00000000E+00
  0.00000000E+00  0.00000000E+00  0.00000000E+00
  0.00000000E+00  0.00000000E+00  0.00000000E+00
  0.00000000E+00  0.00000000E+00  0.00000000E+00
  0.00000000E+00  0.00000000E+00  0.00000000E+00