CuInSe2gb                               
   1.00000000000000     
     9.7266780392896699    0.0000000000000000    0.0000000000000000
     0.0000000000000000    8.4235502764570693    0.0000000000000000
     0.0000000000000000    0.0000000000000000   45.0000000000000000
   Fe   Mn
   281     7
Direct
  0.0578653041784079  0.7009857991676504  0.2110874915494763
  0.3166448246172071  0.7200952369442806  0.8758410251382220
  0.6883080279517750  0.9579363596432831  0.6114397876971653
  0.4383537632936797  0.4580995348578778  0.6114609695299563
  0.4367068951968700  0.2868778496962610  0.2555472118475620
  0.0606412047470216  0.3874362125233690  0.8342077511424065
  0.3106235426711195  0.8871364164197607  0.8342700521817531
  0.4423661781456126  0.6266056750414316  0.7003757888368547
  0.0638347570337699  0.2127824513895747  0.7445581269701868
  0.1826235758266977  0.4513727257580980  0.2112742679646089
  0.5639155806508863  0.2090859969954995  0.4778304419698015
  0.0641668077071502  0.8748582756615219  0.5668650115219965
  0.5654653602217101  0.2197271598308112  0.8757224181946104
  0.8101886554101511  0.5302642404266598  0.1245185851994209
  0.4329312323794684  0.9510693252315311  0.2111869543364741
  0.5642882829160054  0.3746592682516356  0.5667606118040829
  0.8118934685150916  0.0419167041258263  0.3883823771031952
  0.6859883912114633  0.7909112046744196  0.5221529365656074
  0.4389021793738251  0.4590182832356431  0.4777855463696176
  0.4379723237407167  0.9629361434562876  0.7445571626908973
  0.4391549845779013  0.6246009242230929  0.5668254999291069
  0.5674766393494061  0.8762994280834523  0.7003204625194652
  0.3100537106323211  0.0308096748292919  0.1244913976422264
  0.6867457524828261  0.9578070064924570  0.3440269434431382
  0.6868082776969396  0.7792326548293705  0.1245428592035861
  0.0576751007798211  0.3732269012392455  0.2996062631277850
  0.6888193805309708  0.4716566720605267  0.8754543873326945
  0.4330218922711813  0.4514015561946411  0.2111431103736583
  0.8108437096401560  0.3753448915532656  0.4330290691105300
  0.5632673258012335  0.7080656277462177  0.6114776232540542
  0.5629199887513846  0.5413214893599179  0.6557693310335949
  0.8141957043185405  0.8638894186124014  0.1659998491943168
  0.5611315904024997  0.5370741751597794  0.2555460483737205
  0.6866626138059373  0.4579320965363705  0.3441186136510677
  0.1883719066844966  0.6126806586067247  0.1662444171783804
  0.1918871827720567  0.7990876292686608  0.7886948980922261
  0.4426916249612249  0.1265213685603764  0.7004086145995450
  0.9328975692864999  0.6232057637827417  0.2996802327326475
  0.3149116079368972  0.2198374543395390  0.8757647346117945
  0.3140640976923381  0.8746670329654270  0.5667630795290950
  0.8152198259053812  0.2196660973655279  0.8757345857217114
  0.8129326836408646  0.5416832393550585  0.6557886904717991
  0.5598282468432395  0.5301971076916019  0.1244102459919311
  0.5670081637084486  0.0497148988708018  0.7889035138483537
  0.1865798750391217  0.2869968708834716  0.2555141753113743
  0.8107585089310250  0.8753355249461074  0.4330574912980568
  0.5673257570647843  0.3764059643470062  0.7004321993191127
  0.0603257632666601  0.0297660547176047  0.1244198582192713
  0.3130082240807415  0.5412471290177214  0.6557334002501486
  0.5618614989379759  0.2080115804586388  0.3441788355692966
  0.1884789893312779  0.9579479499984409  0.6114273744519456
  0.3077167049893019  0.3735426628850593  0.2996356456896843
  0.4378897755704921  0.7915930727969175  0.6558055758276699
  0.1918882109961242  0.2984170679479021  0.7888794818520360
  0.0643990698581701  0.3636379236856715  0.1660321713898354
  0.6921752522461533  0.6265923371273526  0.7003478949570320
  0.3117251123425603  0.5415708374373904  0.3884066072185168
  0.3141940846293213  0.8634071607539727  0.1659396244233124
  0.9362373863681290  0.6368702042524507  0.8342723779729169
  0.3174832891577130  0.5495169247395442  0.7888404817020627
  0.3074478098551357  0.2006400186717334  0.2111709278902842
  0.0639633626443989  0.7088860412715586  0.4778909110110212
  0.5576880617022547  0.2010705057674257  0.2110745385549160
  0.3136572363049744  0.2133569107225174  0.7444411595399173
  0.0672128374262294  0.3770362421214295  0.7003514661890011
  0.1858954633148681  0.6371166959201123  0.8339885556785110
  0.0667488368877796  0.0500859270778366  0.7887760015832195
  0.4390137690102449  0.1246996308918749  0.5668138594197516
  0.9381993986511400  0.2916622555540846  0.6557151730426711
  0.8076792170914661  0.2015654990092754  0.2110757603314190
  0.9327899855528113  0.9515859725642083  0.2112244589228451
  0.9390261726781518  0.6248802689556031  0.5667766308588340
  0.8108382972534619  0.3868086615203837  0.8342125509349553
  0.1921988483152565  0.6267422021333551  0.7003421661808106
  0.8116472376685484  0.8865314717879047  0.8345003976114557
  0.6880577960368642  0.2912194767006432  0.6557778996079557
  0.3135882848383182  0.2080901047091866  0.6115061049755213
  0.4380746328387267  0.4627921377686642  0.7444277612359523
  0.4366397800841356  0.7915978827109122  0.3884180391615658
  0.6876560931255304  0.9628001566452081  0.7445635188133616
  0.8076258331543712  0.7010571399093803  0.2111331398327302
  0.8131397489824143  0.7080466889840661  0.6114261645382336
  0.4370352760637989  0.7793547512342811  0.1246864299586759
  0.3130966515553570  0.7129856513099716  0.7444520687298865
  0.3171231192866833  0.0495755558710209  0.7888518496926126
  0.8117058515712907  0.5416062825667626  0.3884390101973728
  0.6861700415811486  0.2911329272841234  0.5221461818941985
  0.6918749367348688  0.7991946512051454  0.7888477600364932
  0.1866331792009132  0.7877997195271110  0.2555040649409075
  0.6888289094927225  0.1128379223803400  0.1661584219298255
  0.6888328873681145  0.9592349088729240  0.4778968437794643
  0.9367683509014488  0.9582491947957619  0.3440923980777368
  0.8109905332228615  0.0403743699717600  0.5221162298456314
  0.6850203138824000  0.6250513578774753  0.4330737213881097
  0.4368585905081277  0.4583340018455926  0.3441912619768960
  0.8133545277944018  0.2132410168957155  0.7445400515638151
  0.4388379862040764  0.9720184424299179  0.8755181273815142
  0.5642601920640880  0.8744549900930885  0.5667557037309956
  0.8102185420733797  0.0298642210083796  0.1243908654676733
  0.4323768818127959  0.6234148265146496  0.2996873523526105
  0.8141524357379866  0.7200592896551601  0.8760173866711675
  0.6881516765832245  0.4578533729379570  0.6114007096358113
  0.5610990073032840  0.3868539724350251  0.8340994372466665
  0.8075692206444045  0.3731403518534646  0.2996301634205800
  0.1864183940688424  0.2916321581344575  0.3883911726653198
  0.8164330124976292  0.5492339507000108  0.7889719074168735
  0.1862790122702155  0.7906699948889601  0.5221884724694936
  0.3076325348334796  0.8734798399911166  0.2996826271980409
  0.1826359860248527  0.9513288403400723  0.2112079337781342
  0.1884580065052705  0.4630146831967421  0.7444176309158677
  0.4359937059353082  0.2908125813384701  0.5220708560743030
  0.0621445028553982  0.7085198424065335  0.3442024853488580
  0.1882255007757047  0.7910979515378336  0.6556693796526736
  0.4417423466949323  0.7993716850713883  0.7886976033261339
  0.6850184939997380  0.1250734395112225  0.4330733544157954
  0.9361927628809910  0.7902707535776402  0.5221716891533420
  0.6887512868237637  0.6137476215167224  0.1661296629571722
  0.8118571713753489  0.7087329340540915  0.3442687276360051
  0.9385334106228397  0.4629161591318438  0.7444117776128055
  0.1868336576971292  0.4582163423586907  0.3441383943166481
  0.5674073371301468  0.5496252411732653  0.7889775031014260
  0.5645886071429701  0.3638093301860251  0.1658214602090485
  0.5614851791490096  0.7084298936949891  0.3443028438335344
  0.5579715212053268  0.3732872411701078  0.2996001500462467
  0.1888296948138796  0.4707919315354765  0.8756717597832619
  0.1890486814229986  0.1131126778995716  0.1660580621948363
  0.4418823886439652  0.2983131327391615  0.7888013008795477
  0.6862740065798154  0.7873414465279299  0.2555214293992548
  0.9366542431405898  0.1372339279652247  0.8341103692465587
  0.4389450474377378  0.9590584686400309  0.4778040101295540
  0.5652645303755792  0.7197763636439707  0.8757052685730218
  0.1886407882982309  0.4589802722603851  0.4777973627488439
  0.9361307608338429  0.2795826637986516  0.1245509246196587
  0.3115822490999524  0.0415673678347798  0.3884580934466349
  0.0628659725421225  0.0411920889608287  0.6557551063009235
  0.5610788416690897  0.3751798377063449  0.4330497962224732
  0.6878175066867545  0.4626766773803356  0.7445386322446154
  0.5633469344909369  0.2134113873889601  0.7444391406996128
  0.9425372318525725  0.1268674218734133  0.7004074524940511
  0.5632254333388070  0.0411905695014793  0.6557708081514559
  0.5611217998720562  0.5408651828792603  0.5220779267931289
  0.1827444653749110  0.1232426719722236  0.2995832556772476
  0.4382742304760829  0.1126641788645907  0.1661300205873054
  0.6824174990310553  0.6233632967345620  0.2996536868596486
  0.9325205988002615  0.1229292409097054  0.2996709629329630
  0.8141208453060792  0.3747932707013648  0.5668498536913559
  0.0578413007119508  0.8732644464675239  0.2996082811307462
  0.1890471114904940  0.6247417378854958  0.5668631211843718
  0.9409630588106109  0.7989000246520638  0.7889657872079837
  0.3113914323440103  0.3868405239727801  0.8340305755706332
  0.9386609433113322  0.4708241517211958  0.8756610301792693
  0.4370541940180038  0.6365336712292067  0.8339126369908973
  0.0616414712905556  0.2084988512705704  0.3441923245122991
  0.1896600416167946  0.9718082412325869  0.8754760036210187
  0.9365567701492112  0.7794170880065271  0.1245472140995396
  0.6864046452928686  0.7917566915172110  0.3883945318349813
  0.9379215702509155  0.7915053755162542  0.6557741496206173
  0.9388449824539455  0.1129129287596931  0.1661105383815929
  0.4377555576050702  0.2916333105366650  0.6557850467401517
  0.0581413815624840  0.2011235962486390  0.2110507450066201
  0.6828836818994165  0.9514422528633274  0.2112992556722348
  0.1825009490846418  0.6235374639375408  0.2996959299820594
  0.8170913316391298  0.8764238102877777  0.7003443172036911
  0.9424596863297642  0.6267174873264874  0.7003972965537422
  0.1923547496489696  0.1269051707195034  0.7003981958853298
  0.9391599811646355  0.4587273981354109  0.4778333226704500
  0.8131993291908266  0.2079864786326042  0.6114388825945227
  0.1867701879023591  0.6250240873157102  0.4330398929183945
  0.4326948955394940  0.1234886791075490  0.2996988862054794
  0.6824228279912687  0.1229740223703378  0.2996632613062691
  0.5612332494207415  0.5415679933586756  0.3884195348897661
  0.8119640714984364  0.2080743789140477  0.3442323870995188
  0.4386928486804580  0.4714431666716469  0.8754528407684380
  0.5610682270683522  0.8863418247393294  0.8343234520155659
  0.3140289460039651  0.2092470239162454  0.4778120708701385
  0.1885692425238554  0.9591204684510130  0.4778355680069078
  0.0607516500127357  0.8867373439797864  0.8342053268343146
  0.0611377771927694  0.5403803180051500  0.5220244221364339
  0.9391177629434244  0.9587934386177538  0.4778388260821250
  0.0633217234368744  0.7079133361011337  0.6114137232185290
  0.5610313569516359  0.0406782371362276  0.5220763681713607
  0.6919519344852327  0.2982652143545731  0.7888313164860554
  0.8144760448234939  0.3634638976624436  0.1659745380001110
  0.4357711876687176  0.1249024156591361  0.4330327463743364
  0.0640657232751929  0.2090722624547183  0.4778818208034186
  0.3130841004836252  0.0413683333383981  0.6557569384223801
  0.4361261607135574  0.7907654592993152  0.5220773888584548
  0.1865280525736253  0.1372429130861164  0.8339852263092160
  0.1867317491493593  0.2789860501685017  0.1244231102545313
  0.9367296922437253  0.4584110849842686  0.3441087283185479
  0.5650565446937807  0.8637058780900025  0.1659872257142760
  0.3075773336721829  0.7007375702838023  0.2111060029815924
  0.9383537060417914  0.6137435395636129  0.1662065908153303
  0.1884607934224685  0.4581485624374734  0.6114354908497868
  0.0673364845659307  0.8766825545640139  0.7002793689351218
  0.0630222976311066  0.5414404574032476  0.6558484652472951
  0.3106176743425385  0.5303859464661785  0.1241062488709701
  0.9363792232134041  0.7921026474334385  0.3884323981554648
  0.9413905213948949  0.2986787725079101  0.7888637742260888
  0.1880499357185722  0.2914390992707568  0.6557908007098736
  0.9384218398957991  0.9580152426627351  0.6115094810468247
  0.8135186755101377  0.7129756896160525  0.7445722588350433
  0.6864126906153143  0.2873520432097423  0.2554510804513164
  0.0638471043963091  0.7129208444673868  0.7444759679581012
  0.6826489758198351  0.4510437950896702  0.2112317782783601
  0.8138226052815457  0.2089830590382050  0.4778195793024516
  0.5638765180394159  0.7091059013907698  0.4778345630898513
  0.0638469714742581  0.8635873059579526  0.1660128515824281
  0.9361087122070442  0.2907167532334147  0.5221959177948696
  0.6877052035545285  0.7914742311169172  0.6557917708151321
  0.0613686809967474  0.8747515076409755  0.4329729454975900
  0.0653135145803735  0.2188639731032196  0.8758989946409218
  0.8130197143545957  0.0411756685411349  0.6557333691397199
  0.5599591656615758  0.0297968411194193  0.1244402363709653
  0.3107017483688251  0.3750546915742821  0.4331136471153972
  0.3140446195953959  0.3747017968207684  0.5667531090285923
  0.3140377869034118  0.7091589799563907  0.4778112306853584
  0.0612946316421309  0.0404840123989945  0.5220347751527028
  0.3171519491460481  0.8764454520023646  0.7003126119490973
  0.0618301043584288  0.5368462137394608  0.2555280103430707
  0.6865700384460597  0.1373494008327481  0.8340858561522133
  0.8115195722480392  0.0367505019025708  0.2555659531179794
  0.1868945544983208  0.1250198881178736  0.4330176126461390
  0.6921481393915619  0.1264248009762177  0.7003499054344741
  0.1863371701520252  0.2907790142857865  0.5221934487211531
  0.4367242625975853  0.7874162429938966  0.2554898823700019
  0.4388741528769424  0.6125834397960409  0.1660476625535069
  0.0632178383436115  0.2079917949094442  0.6113964266658902
  0.1864166497025233  0.7916979281082642  0.3883995529606434
  0.3111790776643460  0.5408119645270121  0.5220965638805858
  0.8172386283018597  0.3768360353615743  0.7003357863980274
  0.6864687003329494  0.2920349424559680  0.3884186494654027
  0.1892803985279775  0.1247526369963976  0.5668010074083429
  0.6886945536392384  0.9721327740850999  0.8755667579683027
  0.6889531508182668  0.1248058539891879  0.5668432882459044
  0.4368956036910264  0.9584787063476563  0.3441619370739408
  0.1883819081624241  0.9628060155441986  0.7444565079763873
  0.9368846972341884  0.7877594400641724  0.2555273430216697
  0.5611082081383691  0.8752277328094257  0.4330172363511204
  0.3108820977728826  0.8750220748886770  0.4330393627192895
  0.8111058676635419  0.5404446611422671  0.5221280991295133
  0.9328453462628451  0.4512949681630591  0.2113496642876960
  0.3117268737156658  0.5366881414464295  0.2556444436128372
  0.5612142352465288  0.0416652072323457  0.3884221606866833
  0.9383634267294754  0.4578821744024899  0.6114841015259118
  0.0616008945846015  0.0418095118637191  0.3884402463419329
  0.0613928039250510  0.5416785355964193  0.3884310454549175
  0.4365786139017553  0.2916729709131688  0.3884189314006368
  0.6888339849878496  0.4591019350658337  0.4778769948568605
  0.0641912557815451  0.3748688710710973  0.5668836735864414
  0.5577594946104421  0.7010132173758310  0.2111539053785244
  0.9367433606387324  0.2869806736725738  0.2555145066359545
  0.8166262675980444  0.0493596384738458  0.7889255728037639
  0.1869746607239061  0.9581667795333771  0.3441106437814514
  0.5578397020339491  0.8734334801049779  0.2996804585949723
  0.0613348121997964  0.3749411049072455  0.4330167848300511
  0.3119230131288911  0.7079351946921051  0.3441865780555953
  0.3118557645331610  0.2080698484998272  0.3441635083457595
  0.9390398145355304  0.1249401209400176  0.5667774355922056
  0.4381543917031627  0.9580389974021839  0.6114684615961125
  0.5609169117086393  0.0370739501324381  0.2555565670747771
  0.1860827527826215  0.7792067827034163  0.1246038675025611
  0.0620475383140727  0.0369565141681324  0.2555405529288473
  0.6889648625100347  0.6247062215024729  0.5668648036298655
  0.0605862866593476  0.5300966582346035  0.1244198766211085
  0.3111097387452960  0.0410922113868896  0.5220801148519250
  0.6873674241267052  0.2799879742244562  0.1245792446147587
  0.8138760873446995  0.7090005330169639  0.4778629360579212
  0.4365565716979345  0.1369603499440752  0.8339220054654849
  0.3175788219645612  0.3763877320195826  0.7003635029006271
  0.6865680958792189  0.6370667297112634  0.8341486335828864
  0.5633757107164147  0.7128500346490055  0.7445453052253178
  0.9363562196121774  0.2921774796646225  0.3884358870761410
  0.9379858716645617  0.9721850357719820  0.8755553135390592
  0.5635280440554659  0.2082343633524184  0.6114678812429560
  0.8140418091897133  0.8748766445509391  0.5668928676761378
  0.8075714970428569  0.8734033056763131  0.2995954190513137
  0.3111981102867446  0.0369597215278624  0.2555161229667934
  0.4367081170808936  0.2796196433498346  0.1242103614245998
  0.3133405972920910  0.7079174436660565  0.6114605463339133
  0.4356017712092137  0.6249314319890795  0.4330640865601755
  0.9358338872539980  0.6250438487314514  0.4330915174304587
  0.0656607622029763  0.7197452748819705  0.8759433460794989
  0.0670584064864849  0.5493846789149478  0.7888014092703229
  0.9357453277009088  0.1250876976720662  0.4330895228315423
  0.3149717694891724  0.3633907167856051  0.1656074982915312
  0.9376591633031240  0.9630498247384368  0.7446570919924091
  0.8119631124370883  0.5368161655161066  0.2554013869015197
 
  0.00000000E+00  0.00000000E+00  0.00000000E+00
  0.00000000E+00  0.00000000E+00  0.00000000E+00
  0.00000000E+00  0.00000000E+00  0.00000000E+00
  0.00000000E+00  0.00000000E+00  0.00000000E+00
  0.00000000E+00  0.00000000E+00  0.00000000E+00
  0.00000000E+00  0.00000000E+00  0.00000000E+00
  0.00000000E+00  0.00000000E+00  0.00000000E+00
  0.00000000E+00  0.00000000E+00  0.00000000E+00
  0.00000000E+00  0.00000000E+00  0.00000000E+00
  0.00000000E+00  0.00000000E+00  0.00000000E+00
  0.00000000E+00  0.00000000E+00  0.00000000E+00
  0.00000000E+00  0.00000000E+00  0.00000000E+00
  0.00000000E+00  0.00000000E+00  0.00000000E+00
  0.00000000E+00  0.00000000E+00  0.00000000E+00
  0.00000000E+00  0.00000000E+00  0.00000000E+00
  0.00000000E+00  0.00000000E+00  0.00000000E+00
  0.00000000E+00  0.00000000E+00  0.00000000E+00
  0.00000000E+00  0.00000000E+00  0.00000000E+00
  0.00000000E+00  0.00000000E+00  0.00000000E+00
  0.00000000E+00  0.00000000E+00  0.00000000E+00
  0.00000000E+00  0.00000000E+00  0.00000000E+00
  0.00000000E+00  0.00000000E+00  0.00000000E+00
  0.00000000E+00  0.00000000E+00  0.00000000E+00
  0.00000000E+00  0.00000000E+00  0.00000000E+00
  0.00000000E+00  0.00000000E+00  0.00000000E+00
  0.00000000E+00  0.00000000E+00  0.00000000E+00
  0.00000000E+00  0.00000000E+00  0.00000000E+00
  0.00000000E+00  0.00000000E+00  0.00000000E+00
  0.00000000E+00  0.00000000E+00  0.00000000E+00
  0.00000000E+00  0.00000000E+00  0.00000000E+00
  0.00000000E+00  0.00000000E+00  0.00000000E+00
  0.00000000E+00  0.00000000E+00  0.00000000E+00
  0.00000000E+00  0.00000000E+00  0.00000000E+00
  0.00000000E+00  0.00000000E+00  0.00000000E+00
  0.00000000E+00  0.00000000E+00  0.00000000E+00
  0.00000000E+00  0.00000000E+00  0.00000000E+00
  0.00000000E+00  0.00000000E+00  0.00000000E+00
  0.00000000E+00  0.00000000E+00  0.00000000E+00
  0.00000000E+00  0.00000000E+00  0.00000000E+00
  0.00000000E+00  0.00000000E+00  0.00000000E+00
  0.00000000E+00  0.00000000E+00  0.00000000E+00
  0.00000000E+00  0.00000000E+00  0.00000000E+00
  0.00000000E+00  0.00000000E+00  0.00000000E+00
  0.00000000E+00  0.00000000E+00  0.00000000E+00
  0.00000000E+00  0.00000000E+00  0.00000000E+00
  0.00000000E+00  0.00000000E+00  0.00000000E+00
  0.00000000E+00  0.00000000E+00  0.00000000E+00
  0.00000000E+00  0.00000000E+00  0.00000000E+00
  0.00000000E+00  0.00000000E+00  0.00000000E+00
  0.00000000E+00  0.00000000E+00  0.00000000E+00
  0.00000000E+00  0.00000000E+00  0.00000000E+00
  0.00000000E+00  0.00000000E+00  0.00000000E+00
  0.00000000E+00  0.00000000E+00  0.00000000E+00
  0.00000000E+00  0.00000000E+00  0.00000000E+00
  0.00000000E+00  0.00000000E+00  0.00000000E+00
  0.00000000E+00  0.00000000E+00  0.00000000E+00
  0.00000000E+00  0.00000000E+00  0.00000000E+00
  0.00000000E+00  0.00000000E+00  0.00000000E+00
  0.00000000E+00  0.00000000E+00  0.00000000E+00
  0.00000000E+00  0.00000000E+00  0.00000000E+00
  0.00000000E+00  0.00000000E+00  0.00000000E+00
  0.00000000E+00  0.00000000E+00  0.00000000E+00
  0.00000000E+00  0.00000000E+00  0.00000000E+00
  0.00000000E+00  0.00000000E+00  0.00000000E+00
  0.00000000E+00  0.00000000E+00  0.00000000E+00
  0.00000000E+00  0.00000000E+00  0.00000000E+00
  0.00000000E+00  0.00000000E+00  0.00000000E+00
  0.00000000E+00  0.00000000E+00  0.00000000E+00
  0.00000000E+00  0.00000000E+00  0.00000000E+00
  0.00000000E+00  0.00000000E+00  0.00000000E+00
  0.00000000E+00  0.00000000E+00  0.00000000E+00
  0.00000000E+00  0.00000000E+00  0.00000000E+00
  0.00000000E+00  0.00000000E+00  0.00000000E+00
  0.00000000E+00  0.00000000E+00  0.00000000E+00
  0.00000000E+00  0.00000000E+00  0.00000000E+00
  0.00000000E+00  0.00000000E+00  0.00000000E+00
  0.00000000E+00  0.00000000E+00  0.00000000E+00
  0.00000000E+00  0.00000000E+00  0.00000000E+00
  0.00000000E+00  0.00000000E+00  0.00000000E+00
  0.00000000E+00  0.00000000E+00  0.00000000E+00
  0.00000000E+00  0.00000000E+00  0.00000000E+00
  0.00000000E+00  0.00000000E+00  0.00000000E+00
  0.00000000E+00  0.00000000E+00  0.00000000E+00
  0.00000000E+00  0.00000000E+00  0.00000000E+00
  0.00000000E+00  0.00000000E+00  0.00000000E+00
  0.00000000E+00  0.00000000E+00  0.00000000E+00
  0.00000000E+00  0.00000000E+00  0.00000000E+00
  0.00000000E+00  0.00000000E+00  0.00000000E+00
  0.00000000E+00  0.00000000E+00  0.00000000E+00
  0.00000000E+00  0.00000000E+00  0.00000000E+00
  0.00000000E+00  0.00000000E+00  0.00000000E+00
  0.00000000E+00  0.00000000E+00  0.00000000E+00
  0.00000000E+00  0.00000000E+00  0.00000000E+00
  0.00000000E+00  0.00000000E+00  0.00000000E+00
  0.00000000E+00  0.00000000E+00  0.00000000E+00
  0.00000000E+00  0.00000000E+00  0.00000000E+00
  0.00000000E+00  0.00000000E+00  0.00000000E+00
  0.00000000E+00  0.00000000E+00  0.00000000E+00
  0.00000000E+00  0.00000000E+00  0.00000000E+00
  0.00000000E+00  0.00000000E+00  0.00000000E+00
  0.00000000E+00  0.00000000E+00  0.00000000E+00
  0.00000000E+00  0.00000000E+00  0.00000000E+00
  0.00000000E+00  0.00000000E+00  0.00000000E+00
  0.00000000E+00  0.00000000E+00  0.00000000E+00
  0.00000000E+00  0.00000000E+00  0.00000000E+00
  0.00000000E+00  0.00000000E+00  0.00000000E+00
  0.00000000E+00  0.00000000E+00  0.00000000E+00
  0.00000000E+00  0.00000000E+00  0.00000000E+00
  0.00000000E+00  0.00000000E+00  0.00000000E+00
  0.00000000E+00  0.00000000E+00  0.00000000E+00
  0.00000000E+00  0.00000000E+00  0.00000000E+00
  0.00000000E+00  0.00000000E+00  0.00000000E+00
  0.00000000E+00  0.00000000E+00  0.00000000E+00
  0.00000000E+00  0.00000000E+00  0.00000000E+00
  0.00000000E+00  0.00000000E+00  0.00000000E+00
  0.00000000E+00  0.00000000E+00  0.00000000E+00
  0.00000000E+00  0.00000000E+00  0.00000000E+00
  0.00000000E+00  0.00000000E+00  0.00000000E+00
  0.00000000E+00  0.00000000E+00  0.00000000E+00
  0.00000000E+00  0.00000000E+00  0.00000000E+00
  0.00000000E+00  0.00000000E+00  0.00000000E+00
  0.00000000E+00  0.00000000E+00  0.00000000E+00
  0.00000000E+00  0.00000000E+00  0.00000000E+00
  0.00000000E+00  0.00000000E+00  0.00000000E+00
  0.00000000E+00  0.00000000E+00  0.00000000E+00
  0.00000000E+00  0.00000000E+00  0.00000000E+00
  0.00000000E+00  0.00000000E+00  0.00000000E+00
  0.00000000E+00  0.00000000E+00  0.00000000E+00
  0.00000000E+00  0.00000000E+00  0.00000000E+00
  0.00000000E+00  0.00000000E+00  0.00000000E+00
  0.00000000E+00  0.00000000E+00  0.00000000E+00
  0.00000000E+00  0.00000000E+00  0.00000000E+00
  0.00000000E+00  0.00000000E+00  0.00000000E+00
  0.00000000E+00  0.00000000E+00  0.00000000E+00
  0.00000000E+00  0.00000000E+00  0.00000000E+00
  0.00000000E+00  0.00000000E+00  0.00000000E+00
  0.00000000E+00  0.00000000E+00  0.00000000E+00
  0.00000000E+00  0.00000000E+00  0.00000000E+00
  0.00000000E+00  0.00000000E+00  0.00000000E+00
  0.00000000E+00  0.00000000E+00  0.00000000E+00
  0.00000000E+00  0.00000000E+00  0.00000000E+00
  0.00000000E+00  0.00000000E+00  0.00000000E+00
  0.00000000E+00  0.00000000E+00  0.00000000E+00
  0.00000000E+00  0.00000000E+00  0.00000000E+00
  0.00000000E+00  0.00000000E+00  0.00000000E+00
  0.00000000E+00  0.00000000E+00  0.00000000E+00
  0.00000000E+00  0.00000000E+00  0.00000000E+00
  0.00000000E+00  0.00000000E+00  0.00000000E+00
  0.00000000E+00  0.00000000E+00  0.00000000E+00
  0.00000000E+00  0.00000000E+00  0.00000000E+00
  0.00000000E+00  0.00000000E+00  0.00000000E+00
  0.00000000E+00  0.00000000E+00  0.00000000E+00
  0.00000000E+00  0.00000000E+00  0.00000000E+00
  0.00000000E+00  0.00000000E+00  0.00000000E+00
  0.00000000E+00  0.00000000E+00  0.00000000E+00
  0.00000000E+00  0.00000000E+00  0.00000000E+00
  0.00000000E+00  0.00000000E+00  0.00000000E+00
  0.00000000E+00  0.00000000E+00  0.00000000E+00
  0.00000000E+00  0.00000000E+00  0.00000000E+00
  0.00000000E+00  0.00000000E+00  0.00000000E+00
  0.00000000E+00  0.00000000E+00  0.00000000E+00
  0.00000000E+00  0.00000000E+00  0.00000000E+00
  0.00000000E+00  0.00000000E+00  0.00000000E+00
  0.00000000E+00  0.00000000E+00  0.00000000E+00
  0.00000000E+00  0.00000000E+00  0.00000000E+00
  0.00000000E+00  0.00000000E+00  0.00000000E+00
  0.00000000E+00  0.00000000E+00  0.00000000E+00
  0.00000000E+00  0.00000000E+00  0.00000000E+00
  0.00000000E+00  0.00000000E+00  0.00000000E+00
  0.00000000E+00  0.00000000E+00  0.00000000E+00
  0.00000000E+00  0.00000000E+00  0.00000000E+00
  0.00000000E+00  0.00000000E+00  0.00000000E+00
  0.00000000E+00  0.00000000E+00  0.00000000E+00
  0.00000000E+00  0.00000000E+00  0.00000000E+00
  0.00000000E+00  0.00000000E+00  0.00000000E+00
  0.00000000E+00  0.00000000E+00  0.00000000E+00
  0.00000000E+00  0.00000000E+00  0.00000000E+00
  0.00000000E+00  0.00000000E+00  0.00000000E+00
  0.00000000E+00  0.00000000E+00  0.00000000E+00
  0.00000000E+00  0.00000000E+00  0.00000000E+00
  0.00000000E+00  0.00000000E+00  0.00000000E+00
  0.00000000E+00  0.00000000E+00  0.00000000E+00
  0.00000000E+00  0.00000000E+00  0.00000000E+00
  0.00000000E+00  0.00000000E+00  0.00000000E+00
  0.00000000E+00  0.00000000E+00  0.00000000E+00
  0.00000000E+00  0.00000000E+00  0.00000000E+00
  0.00000000E+00  0.00000000E+00  0.00000000E+00
  0.00000000E+00  0.00000000E+00  0.00000000E+00
  0.00000000E+00  0.00000000E+00  0.00000000E+00
  0.00000000E+00  0.00000000E+00  0.00000000E+00
  0.00000000E+00  0.00000000E+00  0.00000000E+00
  0.00000000E+00  0.00000000E+00  0.00000000E+00
  0.00000000E+00  0.00000000E+00  0.00000000E+00
  0.00000000E+00  0.00000000E+00  0.00000000E+00
  0.00000000E+00  0.00000000E+00  0.00000000E+00
  0.00000000E+00  0.00000000E+00  0.00000000E+00
  0.00000000E+00  0.00000000E+00  0.00000000E+00
  0.00000000E+00  0.00000000E+00  0.00000000E+00
  0.00000000E+00  0.00000000E+00  0.00000000E+00
  0.00000000E+00  0.00000000E+00  0.00000000E+00
  0.00000000E+00  0.00000000E+00  0.00000000E+00
  0.00000000E+00  0.00000000E+00  0.00000000E+00
  0.00000000E+00  0.00000000E+00  0.00000000E+00
  0.00000000E+00  0.00000000E+00  0.00000000E+00
  0.00000000E+00  0.00000000E+00  0.00000000E+00
  0.00000000E+00  0.00000000E+00  0.00000000E+00
  0.00000000E+00  0.00000000E+00  0.00000000E+00
  0.00000000E+00  0.00000000E+00  0.00000000E+00
  0.00000000E+00  0.00000000E+00  0.00000000E+00
  0.00000000E+00  0.00000000E+00  0.00000000E+00
  0.00000000E+00  0.00000000E+00  0.00000000E+00
  0.00000000E+00  0.00000000E+00  0.00000000E+00
  0.00000000E+00  0.00000000E+00  0.00000000E+00
  0.00000000E+00  0.00000000E+00  0.00000000E+00
  0.00000000E+00  0.00000000E+00  0.00000000E+00
  0.00000000E+00  0.00000000E+00  0.00000000E+00
  0.00000000E+00  0.00000000E+00  0.00000000E+00
  0.00000000E+00  0.00000000E+00  0.00000000E+00
  0.00000000E+00  0.00000000E+00  0.00000000E+00
  0.00000000E+00  0.00000000E+00  0.00000000E+00
  0.00000000E+00  0.00000000E+00  0.00000000E+00
  0.00000000E+00  0.00000000E+00  0.00000000E+00
  0.00000000E+00  0.00000000E+00  0.00000000E+00
  0.00000000E+00  0.00000000E+00  0.00000000E+00
  0.00000000E+00  0.00000000E+00  0.00000000E+00
  0.00000000E+00  0.00000000E+00  0.00000000E+00
  0.00000000E+00  0.00000000E+00  0.00000000E+00
  0.00000000E+00  0.00000000E+00  0.00000000E+00
  0.00000000E+00  0.00000000E+00  0.00000000E+00
  0.00000000E+00  0.00000000E+00  0.00000000E+00
  0.00000000E+00  0.00000000E+00  0.00000000E+00
  0.00000000E+00  0.00000000E+00  0.00000000E+00
  0.00000000E+00  0.00000000E+00  0.00000000E+00
  0.00000000E+00  0.00000000E+00  0.00000000E+00
  0.00000000E+00  0.00000000E+00  0.00000000E+00
  0.00000000E+00  0.00000000E+00  0.00000000E+00
  0.00000000E+00  0.00000000E+00  0.00000000E+00
  0.00000000E+00  0.00000000E+00  0.00000000E+00
  0.00000000E+00  0.00000000E+00  0.00000000E+00
  0.00000000E+00  0.00000000E+00  0.00000000E+00
  0.00000000E+00  0.00000000E+00  0.00000000E+00
  0.00000000E+00  0.00000000E+00  0.00000000E+00
  0.00000000E+00  0.00000000E+00  0.00000000E+00
  0.00000000E+00  0.00000000E+00  0.00000000E+00
  0.00000000E+00  0.00000000E+00  0.00000000E+00
  0.00000000E+00  0.00000000E+00  0.00000000E+00
  0.00000000E+00  0.00000000E+00  0.00000000E+00