CuInSe2gb                               
   1.00000000000000     
     9.7266780392896699    0.0000000000000000    0.0000000000000000
     0.0000000000000000    8.4235502764570693    0.0000000000000000
     0.0000000000000000    0.0000000000000000   45.0000000000000000
   Fe   Mn
   281     7
Direct
  0.0538981244001336  0.7009360914559685  0.2112500075400105
  0.3185718850881593  0.7249159164349537  0.8759615496615818
  0.6883788432624696  0.9587942275974971  0.6114818456084532
  0.4384280717991308  0.4584211444958787  0.6115794780916399
  0.4407322492001248  0.2873207760300996  0.2550571285665882
  0.0588849054907729  0.3894405309486484  0.8337520531494012
  0.3083560021825806  0.8871502901817927  0.8334949538352860
  0.4470991439888155  0.6259641516596601  0.7004470015301122
  0.0594856092469880  0.2125193048287678  0.7449538296950743
  0.1788260935000214  0.4515573588036542  0.2113938989953143
  0.5677940863159039  0.2104928955488925  0.4774308923071010
  0.0665753504747881  0.8750245150839079  0.5668706831990133
  0.5679631752276870  0.2244558319302041  0.8761184986897549
  0.8086900363881823  0.5278079428691158  0.1239628299993545
  0.4287770105818078  0.9515566237185425  0.2113631521418565
  0.5665924322440811  0.3750961736017369  0.5668072159926080
  0.8111237839023655  0.0418355094350269  0.3882815683004389
  0.6820723519038918  0.7889127881026011  0.5224026916535074
  0.4427523572315997  0.4607435627307946  0.4774770686461935
  0.4337325409634060  0.9625019504012410  0.7445661781813020
  0.4414435426899822  0.6251039383267343  0.5668361505564694
  0.5714927872949780  0.8765144660390517  0.7005774551847015
  0.3075384978520065  0.0266178485467659  0.1238683271073367
  0.6896663874765979  0.9589097291583550  0.3439719376971199
  0.6861460439111016  0.7827024061769042  0.1241710362058819
  0.0528300341470491  0.3737971601660793  0.2995691515284652
  0.6897408895679021  0.4668404889917039  0.8761260631810036
  0.4293152843362593  0.4515141969153905  0.2115145756689418
  0.8086371490702094  0.3751161787661791  0.4330624079825464
  0.5633584845705150  0.7084488709217105  0.6115640901950631
  0.5598006937937862  0.5406991818409496  0.6559156747823049
  0.8170277373725500  0.8626416607047533  0.1665910976934863
  0.5656595900964871  0.5374439934245466  0.2551745831985409
  0.6895684725041028  0.4589297818002767  0.3439001241148805
  0.1914551239689321  0.6115165631809552  0.1664761831309680
  0.1941177163090859  0.7995727910502797  0.7888537538515245
  0.4471949251492440  0.1262686664340855  0.7003634895992559
  0.9279614579128832  0.6236347560333172  0.2996152506638531
  0.3180879468560419  0.2235132673582364  0.8761152091678457
  0.3165187645167569  0.8748404527907012  0.5668467563119780
  0.8159761599018377  0.2238543889537954  0.8762869466719508
  0.8098059337087945  0.5406579636644755  0.6558721701147701
  0.5588333053478161  0.5276542096014410  0.1238369678194668
  0.5690750700404766  0.0490356995829926  0.7890878698414016
  0.1909684321421396  0.2873498127126835  0.2552580349745595
  0.8087029099671099  0.8752008363925414  0.4330416822811949
  0.5723169229611135  0.3761815434101028  0.7002759717316400
  0.0576753296751854  0.0264301588516616  0.1239790217968977
  0.3099093529195494  0.5408869664740108  0.6559821520426329
  0.5649460599005585  0.2089345288348319  0.3439986683713612
  0.1881388043602376  0.9585864393841600  0.6114460135465090
  0.3028496840043090  0.3739564340979412  0.2996029981305431
  0.4347467587797804  0.7905565125247155  0.6559136910941763
  0.1949813052467989  0.2992600283430260  0.7886939686166318
  0.0674218848348805  0.3625484502118315  0.1665731088846437
  0.6970606779400550  0.6261820890574399  0.7004913610210454
  0.3113142591660070  0.5413429996730739  0.3884522515580032
  0.3167765577653072  0.8618921931279456  0.1666264019444741
  0.9337150834597736  0.6390860698476621  0.8343902793483148
  0.3206250871132364  0.5491393299837530  0.7887440030214655
  0.3047531643613969  0.2006544368727061  0.2111992053736035
  0.0679294652460068  0.7105424641510972  0.4774566855929655
  0.5543258436370807  0.2008633001602657  0.2111127902654969
  0.3096909691069985  0.2123399316078689  0.7449307433850921
  0.0721076736103054  0.3763156389380810  0.7004326281192251
  0.1831645857394970  0.6391344812098612  0.8339167645198338
  0.0696934491133319  0.0497279914523211  0.7888351564695796
  0.4416345735549201  0.1249825993855375  0.5669133429309259
  0.9347935937950402  0.2906278697909581  0.6558207657717243
  0.8042311950069511  0.2010815233808912  0.2112281624594890
  0.9288767797513106  0.9515565672610655  0.2112775342421617
  0.9415873231368074  0.6252124369930987  0.5667962547716664
  0.8081609898450735  0.3877179538678939  0.8334796011938453
  0.1971489924745079  0.6263097817893196  0.7003273118065808
  0.8088630819003207  0.8874432441899265  0.8336596916462281
  0.6850408600272794  0.2908582625512566  0.6560543679683880
  0.3129939642243595  0.2083291336555144  0.6114664381826409
  0.4346712634471069  0.4627487778787366  0.7448679338166383
  0.4362943882346358  0.7912082446011234  0.3884038336120705
  0.6845319552970289  0.9626666841175473  0.7448024443708564
  0.8040146043448565  0.7009340518717970  0.2112920426288560
  0.8134308285772885  0.7084142659445694  0.6116199277766415
  0.4368585341425716  0.7832760813489444  0.1242001657569027
  0.3095517885838243  0.7122866241223527  0.7447993728856037
  0.3201210439402493  0.0495350431281431  0.7888430059340349
  0.8111721762227152  0.5421739947883325  0.3883127302548162
  0.6821911914537468  0.2887118450658948  0.5223686917423184
  0.6948685138444337  0.7992072105882176  0.7888700097599767
  0.1907406843458717  0.7874747588860855  0.2552975328940672
  0.6915831122440717  0.1121714138320127  0.1664353280389914
  0.6928130501551985  0.9606342414774159  0.4774181045104638
  0.9405360952734201  0.9591790764346146  0.3441110686044569
  0.8073114406024109  0.0394277252801802  0.5225578822307336
  0.6838578906315346  0.6247913971764769  0.4329186941539753
  0.4397017051468491  0.4586016743062298  0.3440263181843872
  0.8102886294139097  0.2116317878290342  0.7447522850499627
  0.4397574712051704  0.9681994753146167  0.8761456879273071
  0.5665250279309570  0.8748992555269828  0.5668589092717919
  0.8077420426323390  0.0269087040093321  0.1238965283786525
  0.4284908393578056  0.6235488907518763  0.2994216738905848
  0.8160897003772710  0.7247491098463889  0.8764611519101939
  0.6883839605728622  0.4586109500903880  0.6115174312030021
  0.5584467629991210  0.3876071700498517  0.8334820259794380
  0.8029763368106393  0.3734792084510638  0.2994809016871070
  0.1861519719495437  0.2911520448351776  0.3883802364858503
  0.8197932568912423  0.5490410377378354  0.7888643399069184
  0.1822774387880187  0.7893394178582770  0.5225253461390148
  0.3029736657227779  0.8737405986593799  0.2995605153628076
  0.1790922076577572  0.9511947407418730  0.2112144467417153
  0.1843635672218820  0.4623844003423453  0.7449230551981495
  0.4324278991424457  0.2887394741993584  0.5223121114048214
  0.0648621443502527  0.7085833134413881  0.3438688289022217
  0.1847137768342830  0.7905510916722871  0.6558699518025652
  0.4448928210931608  0.7993876307254353  0.7888083241374197
  0.6838050755198044  0.1248404486313927  0.4328820875908492
  0.9321876072934736  0.7888780237834042  0.5224956259377277
  0.6917693989544398  0.6124549956696664  0.1666937218785569
  0.8146028187594063  0.7082272703300078  0.3438329705804792
  0.9344378176045045  0.4624907123914659  0.7449491655515671
  0.1899685906804133  0.4588347037519112  0.3440108805908243
  0.5701138212435289  0.5493544985439871  0.7890555293511048
  0.5664890209244122  0.3624213844641792  0.1664477464100572
  0.5647572776173015  0.7087907702781031  0.3439647332170487
  0.5530882956467748  0.3737107680074140  0.2996046860173187
  0.1886540221677464  0.4667314948176134  0.8759438788247299
  0.1924967772943266  0.1121733080140630  0.1665572919307550
  0.4444417821237787  0.2992693429918456  0.7888221979129564
  0.6909638708636379  0.7873850930727467  0.2553943240317724
  0.9339500553375250  0.1388222912391886  0.8336594686085432
  0.4427349549379790  0.9607472746531255  0.4774566944403516
  0.5672090856479572  0.7247789789734668  0.8764241029157769
  0.1927209152682737  0.4607669842097045  0.4774710104336374
  0.9356641913344197  0.2824567130722082  0.1242329458938377
  0.3114015908437157  0.0414001642507960  0.3883944228626798
  0.0602246796791200  0.0404973875731396  0.6560672791223816
  0.5586049194317623  0.3748860224868561  0.4330866094671568
  0.6842122638468214  0.4627744504704925  0.7449973963036675
  0.5601270317941081  0.2128685525913279  0.7448486511587338
  0.9471938759178474  0.1263564465570305  0.7003692414228727
  0.5596826789785437  0.0407004053195004  0.6558575725636374
  0.5572261723797249  0.5391551221964330  0.5224766298541780
  0.1778730402146911  0.1236780198528848  0.2995498395045392
  0.4414584162817773  0.1121046100008826  0.1665244490143498
  0.6777276500201054  0.6236402933382936  0.2996421841823639
  0.9281022702922814  0.1234216108523787  0.2996232452529795
  0.8166006602633746  0.3751042794786755  0.5669072430901126
  0.0528790287107774  0.8737485809540602  0.2995200278087258
  0.1916523155649732  0.6250031455329245  0.5668603080201650
  0.9449319676564326  0.7995488147995811  0.7888673681415893
  0.3085030377818733  0.3875166179847608  0.8335077485691011
  0.9396918189140903  0.4670542677305773  0.8761719371856268
  0.4338442824170912  0.6379278536264487  0.8334562972610304
  0.0647376605017924  0.2083474740214797  0.3438573804035788
  0.1904074832386002  0.9669519809938367  0.8761691079031875
  0.9356835786121966  0.7822667330686305  0.1241715381475796
  0.6866939375880199  0.7915017126610426  0.3884400261997140
  0.9348918574511594  0.7906478711361618  0.6559281180441948
  0.9416510378779754  0.1120906654225479  0.1664290813562531
  0.4351401670513269  0.2907738826203096  0.6560914462369396
  0.0547882219388466  0.2008710015059976  0.2112050123291383
  0.6789467937166160  0.9516458081595529  0.2113250711253467
  0.1784417048788157  0.6236461717505067  0.2994091227080961
  0.8220179713082633  0.8763860285277922  0.7004264660585517
  0.9468051260996729  0.6265035339666269  0.7005162299711342
  0.1971065501622642  0.1262300197074098  0.7003004964581616
  0.9426180875219252  0.4606865692706394  0.4771871927582015
  0.8133898033271673  0.2083912726775436  0.6115357708892417
  0.1834922128015986  0.6250104389807333  0.4330931639627735
  0.4280243173813905  0.1236266689435502  0.2994936472616625
  0.6782127185205624  0.1237007537813372  0.2994364844794166
  0.5617900471732040  0.5414789376946217  0.3884948375701853
  0.8144723745560624  0.2084203518254237  0.3439724707846333
  0.4393482675876410  0.4669296476803946  0.8758887396747984
  0.5586245542374645  0.8874673661705341  0.8334592618665778
  0.3177486568517487  0.2105039994524030  0.4772920560130474
  0.1927699059358497  0.9606579436743758  0.4774212882106928
  0.0582398209461978  0.8874140636055645  0.8335719756369085
  0.0572041865474884  0.5393312737961479  0.5225314996670243
  0.9425828870959317  0.9605820948248073  0.4772500355114519
  0.0633146312810380  0.7084530522391721  0.6115508862899721
  0.5572779999457103  0.0392149099885762  0.5224920753297617
  0.6950634483377638  0.2990513857265097  0.7887746098040365
  0.8174879745722794  0.3618271078274095  0.1666314867302680
  0.4336743955527070  0.1247633023793387  0.4329861381937365
  0.0678883540944634  0.2105062717476038  0.4774480951587095
  0.3099423720610706  0.0407236199846266  0.6559330779103372
  0.4322397907844082  0.7888017853956366  0.5223021273910478
  0.1832709635481301  0.1385512730905568  0.8335913089625737
  0.1861577641440890  0.2828128790874208  0.1242378783999883
  0.9399359368497813  0.4592182190818774  0.3440129961544790
  0.5673290368531992  0.8620162669111648  0.1665825399672393
  0.3042130699560541  0.7009230642648870  0.2112044138007957
  0.9414493846344903  0.6123721817579298  0.1666143049752033
  0.1881942252128272  0.4585120441065088  0.6115118546441556
  0.0721433942496963  0.8764203090211361  0.7002225382554970
  0.0598439441661384  0.5406329094276607  0.6559441234892858
  0.3083296260761876  0.5262486872369019  0.1239676264277407
  0.9365982989138159  0.7912075774261307  0.3884701204661139
  0.9448345349735743  0.2988603574528055  0.7886925827990269
  0.1846578531919894  0.2907765534761981  0.6558915259932179
  0.9381581305217153  0.9583929748319602  0.6115129441217396
  0.8100557355584656  0.7122441048482993  0.7448084328091834
  0.6912071336208127  0.2874377012851393  0.2552633776090505
  0.0593028219105497  0.7122977183681478  0.7449687071979575
  0.6790105083086891  0.4516663734792840  0.2112172524526258
  0.8178384124307583  0.2106185127078442  0.4774483987234708
  0.5677105333848254  0.7106709963509377  0.4774422119538739
  0.0668371519407860  0.8624056351390296  0.1665789071915858
  0.9324714444933593  0.2884668119613287  0.5223756602035002
  0.6845290765159898  0.7902562198744300  0.6558742090024766
  0.0584779094854263  0.8748719659838529  0.4330692262197072
  0.0676005493738438  0.2224413154871820  0.8761794027417096
  0.8098402998777826  0.0405797313785700  0.6559509204156881
  0.5590329954213995  0.0266376313488740  0.1239912739526293
  0.3088258376888485  0.3749302378486401  0.4328993799339635
  0.3166307189368543  0.3748742844903226  0.5668492918018549
  0.3176374797420430  0.7103202879451621  0.4773045406278805
  0.0571043218916231  0.0394317534484344  0.5225235107146748
  0.3219965858296753  0.8763554035219742  0.7005259805136330
  0.0653188793372473  0.5378744894810771  0.2551759515363880
  0.6832875561879844  0.1376821408003518  0.8334888547909386
  0.8151227107988964  0.0378546700547186  0.2551546019458896
  0.1834798063483984  0.1249288606001792  0.4331248719880009
  0.6974688670569182  0.1264295774665340  0.7004541178817295
  0.1824081769356007  0.2892725970546690  0.5225141142933614
  0.4409570335551420  0.7875025997259381  0.2553285807111723
  0.4416215568558624  0.6112456121069454  0.1664956572819333
  0.0634390430985576  0.2084898352249514  0.6115387341106967
  0.1863186631467345  0.7908189066125776  0.3882666926269406
  0.3071479854194786  0.5389236458270998  0.5224314608914088
  0.8218621988080222  0.3758668399749664  0.7002755926565915
  0.6864210306919855  0.2910652494793698  0.3884113407062990
  0.1915992267966415  0.1249380782661199  0.5668956115038607
  0.6897282788755809  0.9678524821906097  0.8762244846306694
  0.6917318692184896  0.1251059522447220  0.5669244372744391
  0.4400806918396016  0.9589439557916606  0.3440389721038469
  0.1841824643701904  0.9623111623815047  0.7447333172839246
  0.9405990639591891  0.7876440920426837  0.2551367094546217
  0.5586747038186893  0.8748323548116508  0.4330476463983738
  0.3085279394193376  0.8749466692093864  0.4330408006815225
  0.8072610518333516  0.5393335045456837  0.5225338155257910
  0.9293132417343927  0.4513632887231259  0.2112320848141269
  0.3154540008338165  0.5377284933447152  0.2551306637960339
  0.5616814890849182  0.0414788457150678  0.3884109963063724
  0.9382995014293336  0.4583596104795273  0.6116017766339140
  0.0615663095256175  0.0413690352499848  0.3884327434157179
  0.0615622747083575  0.5415520354567542  0.3884220599782715
  0.4363236624072833  0.2910500851569122  0.3884078517230619
  0.6928102577026725  0.4607156047514969  0.4774155081512948
  0.0666395631155256  0.3748497737066916  0.5668786433612137
  0.5543996884137670  0.7008180434779023  0.2111663617183020
  0.9406252079336578  0.2874191839074787  0.2552304849858466
  0.8193510680839023  0.0496113331925424  0.7890484046412304
  0.1898258325926479  0.9588045421681448  0.3439752562968796
  0.5528324027261888  0.8737669079316102  0.2996204007945593
  0.0586369748166446  0.3747173896315541  0.4329396567149026
  0.3148581788968558  0.7087599821788990  0.3439712140636136
  0.3146371870904849  0.2088803475385609  0.3439053399479295
  0.9415568210862975  0.1252074845986664  0.5668166918674908
  0.4385293410279036  0.9587095270035074  0.6115808378112259
  0.5652096253644157  0.0376667996218900  0.2551291496221373
  0.1860383217986799  0.7830340897181398  0.1242377655501469
  0.0655572686057229  0.0377259414264461  0.2551120155788950
  0.6917904722999504  0.6250074604865903  0.5669118974878259
  0.0573812867617883  0.5269447388049556  0.1240862570061348
  0.3072001697557560  0.0385496925882858  0.5223172775972619
  0.6873065289541790  0.2821766253320006  0.1242310719365978
  0.8177387543516551  0.7107675038547222  0.4774643081849785
  0.4335977236247179  0.1379569959517954  0.8334622408184229
  0.3222481231988257  0.3762953473885871  0.7003915693838887
  0.6834392928955368  0.6377570959812910  0.8334988021940294
  0.5597686290268740  0.7123264310840194  0.7448770413559431
  0.9364852049503315  0.2912869792937339  0.3884843604090196
  0.9390482427275679  0.9677193351590646  0.8761761583327934
  0.5628829320059711  0.2079919884058749  0.6113309741016730
  0.8166830792308585  0.8750331421957684  0.5668849713969731
  0.8032235768692444  0.8733777728746034  0.2994658998023150
  0.3156524601803081  0.0377197736144075  0.2553181032749248
  0.4361279738820517  0.2830674095407408  0.1240281493338589
  0.3133385393290031  0.7085537590140650  0.6115231120510997
  0.4336367430489121  0.6249824129991588  0.4329240411744115
  0.9329535185118645  0.6249497608441307  0.4331574104648698
  0.0672471335907255  0.7245978196632656  0.8757866548368476
  0.0705076552239822  0.5492226862105647  0.7886374314623525
  0.9334951135931806  0.1249994768640407  0.4331042181660485
  0.3185311124704712  0.3626795123067769  0.1658443968604154
  0.9329725487633022  0.9617316434949008  0.7447789151042646
  0.8162270559557228  0.5377979594264498  0.2553258000953764
 
  0.00000000E+00  0.00000000E+00  0.00000000E+00
  0.00000000E+00  0.00000000E+00  0.00000000E+00
  0.00000000E+00  0.00000000E+00  0.00000000E+00
  0.00000000E+00  0.00000000E+00  0.00000000E+00
  0.00000000E+00  0.00000000E+00  0.00000000E+00
  0.00000000E+00  0.00000000E+00  0.00000000E+00
  0.00000000E+00  0.00000000E+00  0.00000000E+00
  0.00000000E+00  0.00000000E+00  0.00000000E+00
  0.00000000E+00  0.00000000E+00  0.00000000E+00
  0.00000000E+00  0.00000000E+00  0.00000000E+00
  0.00000000E+00  0.00000000E+00  0.00000000E+00
  0.00000000E+00  0.00000000E+00  0.00000000E+00
  0.00000000E+00  0.00000000E+00  0.00000000E+00
  0.00000000E+00  0.00000000E+00  0.00000000E+00
  0.00000000E+00  0.00000000E+00  0.00000000E+00
  0.00000000E+00  0.00000000E+00  0.00000000E+00
  0.00000000E+00  0.00000000E+00  0.00000000E+00
  0.00000000E+00  0.00000000E+00  0.00000000E+00
  0.00000000E+00  0.00000000E+00  0.00000000E+00
  0.00000000E+00  0.00000000E+00  0.00000000E+00
  0.00000000E+00  0.00000000E+00  0.00000000E+00
  0.00000000E+00  0.00000000E+00  0.00000000E+00
  0.00000000E+00  0.00000000E+00  0.00000000E+00
  0.00000000E+00  0.00000000E+00  0.00000000E+00
  0.00000000E+00  0.00000000E+00  0.00000000E+00
  0.00000000E+00  0.00000000E+00  0.00000000E+00
  0.00000000E+00  0.00000000E+00  0.00000000E+00
  0.00000000E+00  0.00000000E+00  0.00000000E+00
  0.00000000E+00  0.00000000E+00  0.00000000E+00
  0.00000000E+00  0.00000000E+00  0.00000000E+00
  0.00000000E+00  0.00000000E+00  0.00000000E+00
  0.00000000E+00  0.00000000E+00  0.00000000E+00
  0.00000000E+00  0.00000000E+00  0.00000000E+00
  0.00000000E+00  0.00000000E+00  0.00000000E+00
  0.00000000E+00  0.00000000E+00  0.00000000E+00
  0.00000000E+00  0.00000000E+00  0.00000000E+00
  0.00000000E+00  0.00000000E+00  0.00000000E+00
  0.00000000E+00  0.00000000E+00  0.00000000E+00
  0.00000000E+00  0.00000000E+00  0.00000000E+00
  0.00000000E+00  0.00000000E+00  0.00000000E+00
  0.00000000E+00  0.00000000E+00  0.00000000E+00
  0.00000000E+00  0.00000000E+00  0.00000000E+00
  0.00000000E+00  0.00000000E+00  0.00000000E+00
  0.00000000E+00  0.00000000E+00  0.00000000E+00
  0.00000000E+00  0.00000000E+00  0.00000000E+00
  0.00000000E+00  0.00000000E+00  0.00000000E+00
  0.00000000E+00  0.00000000E+00  0.00000000E+00
  0.00000000E+00  0.00000000E+00  0.00000000E+00
  0.00000000E+00  0.00000000E+00  0.00000000E+00
  0.00000000E+00  0.00000000E+00  0.00000000E+00
  0.00000000E+00  0.00000000E+00  0.00000000E+00
  0.00000000E+00  0.00000000E+00  0.00000000E+00
  0.00000000E+00  0.00000000E+00  0.00000000E+00
  0.00000000E+00  0.00000000E+00  0.00000000E+00
  0.00000000E+00  0.00000000E+00  0.00000000E+00
  0.00000000E+00  0.00000000E+00  0.00000000E+00
  0.00000000E+00  0.00000000E+00  0.00000000E+00
  0.00000000E+00  0.00000000E+00  0.00000000E+00
  0.00000000E+00  0.00000000E+00  0.00000000E+00
  0.00000000E+00  0.00000000E+00  0.00000000E+00
  0.00000000E+00  0.00000000E+00  0.00000000E+00
  0.00000000E+00  0.00000000E+00  0.00000000E+00
  0.00000000E+00  0.00000000E+00  0.00000000E+00
  0.00000000E+00  0.00000000E+00  0.00000000E+00
  0.00000000E+00  0.00000000E+00  0.00000000E+00
  0.00000000E+00  0.00000000E+00  0.00000000E+00
  0.00000000E+00  0.00000000E+00  0.00000000E+00
  0.00000000E+00  0.00000000E+00  0.00000000E+00
  0.00000000E+00  0.00000000E+00  0.00000000E+00
  0.00000000E+00  0.00000000E+00  0.00000000E+00
  0.00000000E+00  0.00000000E+00  0.00000000E+00
  0.00000000E+00  0.00000000E+00  0.00000000E+00
  0.00000000E+00  0.00000000E+00  0.00000000E+00
  0.00000000E+00  0.00000000E+00  0.00000000E+00
  0.00000000E+00  0.00000000E+00  0.00000000E+00
  0.00000000E+00  0.00000000E+00  0.00000000E+00
  0.00000000E+00  0.00000000E+00  0.00000000E+00
  0.00000000E+00  0.00000000E+00  0.00000000E+00
  0.00000000E+00  0.00000000E+00  0.00000000E+00
  0.00000000E+00  0.00000000E+00  0.00000000E+00
  0.00000000E+00  0.00000000E+00  0.00000000E+00
  0.00000000E+00  0.00000000E+00  0.00000000E+00
  0.00000000E+00  0.00000000E+00  0.00000000E+00
  0.00000000E+00  0.00000000E+00  0.00000000E+00
  0.00000000E+00  0.00000000E+00  0.00000000E+00
  0.00000000E+00  0.00000000E+00  0.00000000E+00
  0.00000000E+00  0.00000000E+00  0.00000000E+00
  0.00000000E+00  0.00000000E+00  0.00000000E+00
  0.00000000E+00  0.00000000E+00  0.00000000E+00
  0.00000000E+00  0.00000000E+00  0.00000000E+00
  0.00000000E+00  0.00000000E+00  0.00000000E+00
  0.00000000E+00  0.00000000E+00  0.00000000E+00
  0.00000000E+00  0.00000000E+00  0.00000000E+00
  0.00000000E+00  0.00000000E+00  0.00000000E+00
  0.00000000E+00  0.00000000E+00  0.00000000E+00
  0.00000000E+00  0.00000000E+00  0.00000000E+00
  0.00000000E+00  0.00000000E+00  0.00000000E+00
  0.00000000E+00  0.00000000E+00  0.00000000E+00
  0.00000000E+00  0.00000000E+00  0.00000000E+00
  0.00000000E+00  0.00000000E+00  0.00000000E+00
  0.00000000E+00  0.00000000E+00  0.00000000E+00
  0.00000000E+00  0.00000000E+00  0.00000000E+00
  0.00000000E+00  0.00000000E+00  0.00000000E+00
  0.00000000E+00  0.00000000E+00  0.00000000E+00
  0.00000000E+00  0.00000000E+00  0.00000000E+00
  0.00000000E+00  0.00000000E+00  0.00000000E+00
  0.00000000E+00  0.00000000E+00  0.00000000E+00
  0.00000000E+00  0.00000000E+00  0.00000000E+00
  0.00000000E+00  0.00000000E+00  0.00000000E+00
  0.00000000E+00  0.00000000E+00  0.00000000E+00
  0.00000000E+00  0.00000000E+00  0.00000000E+00
  0.00000000E+00  0.00000000E+00  0.00000000E+00
  0.00000000E+00  0.00000000E+00  0.00000000E+00
  0.00000000E+00  0.00000000E+00  0.00000000E+00
  0.00000000E+00  0.00000000E+00  0.00000000E+00
  0.00000000E+00  0.00000000E+00  0.00000000E+00
  0.00000000E+00  0.00000000E+00  0.00000000E+00
  0.00000000E+00  0.00000000E+00  0.00000000E+00
  0.00000000E+00  0.00000000E+00  0.00000000E+00
  0.00000000E+00  0.00000000E+00  0.00000000E+00
  0.00000000E+00  0.00000000E+00  0.00000000E+00
  0.00000000E+00  0.00000000E+00  0.00000000E+00
  0.00000000E+00  0.00000000E+00  0.00000000E+00
  0.00000000E+00  0.00000000E+00  0.00000000E+00
  0.00000000E+00  0.00000000E+00  0.00000000E+00
  0.00000000E+00  0.00000000E+00  0.00000000E+00
  0.00000000E+00  0.00000000E+00  0.00000000E+00
  0.00000000E+00  0.00000000E+00  0.00000000E+00
  0.00000000E+00  0.00000000E+00  0.00000000E+00
  0.00000000E+00  0.00000000E+00  0.00000000E+00
  0.00000000E+00  0.00000000E+00  0.00000000E+00
  0.00000000E+00  0.00000000E+00  0.00000000E+00
  0.00000000E+00  0.00000000E+00  0.00000000E+00
  0.00000000E+00  0.00000000E+00  0.00000000E+00
  0.00000000E+00  0.00000000E+00  0.00000000E+00
  0.00000000E+00  0.00000000E+00  0.00000000E+00
  0.00000000E+00  0.00000000E+00  0.00000000E+00
  0.00000000E+00  0.00000000E+00  0.00000000E+00
  0.00000000E+00  0.00000000E+00  0.00000000E+00
  0.00000000E+00  0.00000000E+00  0.00000000E+00
  0.00000000E+00  0.00000000E+00  0.00000000E+00
  0.00000000E+00  0.00000000E+00  0.00000000E+00
  0.00000000E+00  0.00000000E+00  0.00000000E+00
  0.00000000E+00  0.00000000E+00  0.00000000E+00
  0.00000000E+00  0.00000000E+00  0.00000000E+00
  0.00000000E+00  0.00000000E+00  0.00000000E+00
  0.00000000E+00  0.00000000E+00  0.00000000E+00
  0.00000000E+00  0.00000000E+00  0.00000000E+00
  0.00000000E+00  0.00000000E+00  0.00000000E+00
  0.00000000E+00  0.00000000E+00  0.00000000E+00
  0.00000000E+00  0.00000000E+00  0.00000000E+00
  0.00000000E+00  0.00000000E+00  0.00000000E+00
  0.00000000E+00  0.00000000E+00  0.00000000E+00
  0.00000000E+00  0.00000000E+00  0.00000000E+00
  0.00000000E+00  0.00000000E+00  0.00000000E+00
  0.00000000E+00  0.00000000E+00  0.00000000E+00
  0.00000000E+00  0.00000000E+00  0.00000000E+00
  0.00000000E+00  0.00000000E+00  0.00000000E+00
  0.00000000E+00  0.00000000E+00  0.00000000E+00
  0.00000000E+00  0.00000000E+00  0.00000000E+00
  0.00000000E+00  0.00000000E+00  0.00000000E+00
  0.00000000E+00  0.00000000E+00  0.00000000E+00
  0.00000000E+00  0.00000000E+00  0.00000000E+00
  0.00000000E+00  0.00000000E+00  0.00000000E+00
  0.00000000E+00  0.00000000E+00  0.00000000E+00
  0.00000000E+00  0.00000000E+00  0.00000000E+00
  0.00000000E+00  0.00000000E+00  0.00000000E+00
  0.00000000E+00  0.00000000E+00  0.00000000E+00
  0.00000000E+00  0.00000000E+00  0.00000000E+00
  0.00000000E+00  0.00000000E+00  0.00000000E+00
  0.00000000E+00  0.00000000E+00  0.00000000E+00
  0.00000000E+00  0.00000000E+00  0.00000000E+00
  0.00000000E+00  0.00000000E+00  0.00000000E+00
  0.00000000E+00  0.00000000E+00  0.00000000E+00
  0.00000000E+00  0.00000000E+00  0.00000000E+00
  0.00000000E+00  0.00000000E+00  0.00000000E+00
  0.00000000E+00  0.00000000E+00  0.00000000E+00
  0.00000000E+00  0.00000000E+00  0.00000000E+00
  0.00000000E+00  0.00000000E+00  0.00000000E+00
  0.00000000E+00  0.00000000E+00  0.00000000E+00
  0.00000000E+00  0.00000000E+00  0.00000000E+00
  0.00000000E+00  0.00000000E+00  0.00000000E+00
  0.00000000E+00  0.00000000E+00  0.00000000E+00
  0.00000000E+00  0.00000000E+00  0.00000000E+00
  0.00000000E+00  0.00000000E+00  0.00000000E+00
  0.00000000E+00  0.00000000E+00  0.00000000E+00
  0.00000000E+00  0.00000000E+00  0.00000000E+00
  0.00000000E+00  0.00000000E+00  0.00000000E+00
  0.00000000E+00  0.00000000E+00  0.00000000E+00
  0.00000000E+00  0.00000000E+00  0.00000000E+00
  0.00000000E+00  0.00000000E+00  0.00000000E+00
  0.00000000E+00  0.00000000E+00  0.00000000E+00
  0.00000000E+00  0.00000000E+00  0.00000000E+00
  0.00000000E+00  0.00000000E+00  0.00000000E+00
  0.00000000E+00  0.00000000E+00  0.00000000E+00
  0.00000000E+00  0.00000000E+00  0.00000000E+00
  0.00000000E+00  0.00000000E+00  0.00000000E+00
  0.00000000E+00  0.00000000E+00  0.00000000E+00
  0.00000000E+00  0.00000000E+00  0.00000000E+00
  0.00000000E+00  0.00000000E+00  0.00000000E+00
  0.00000000E+00  0.00000000E+00  0.00000000E+00
  0.00000000E+00  0.00000000E+00  0.00000000E+00
  0.00000000E+00  0.00000000E+00  0.00000000E+00
  0.00000000E+00  0.00000000E+00  0.00000000E+00
  0.00000000E+00  0.00000000E+00  0.00000000E+00
  0.00000000E+00  0.00000000E+00  0.00000000E+00
  0.00000000E+00  0.00000000E+00  0.00000000E+00
  0.00000000E+00  0.00000000E+00  0.00000000E+00
  0.00000000E+00  0.00000000E+00  0.00000000E+00
  0.00000000E+00  0.00000000E+00  0.00000000E+00
  0.00000000E+00  0.00000000E+00  0.00000000E+00
  0.00000000E+00  0.00000000E+00  0.00000000E+00
  0.00000000E+00  0.00000000E+00  0.00000000E+00
  0.00000000E+00  0.00000000E+00  0.00000000E+00
  0.00000000E+00  0.00000000E+00  0.00000000E+00
  0.00000000E+00  0.00000000E+00  0.00000000E+00
  0.00000000E+00  0.00000000E+00  0.00000000E+00
  0.00000000E+00  0.00000000E+00  0.00000000E+00
  0.00000000E+00  0.00000000E+00  0.00000000E+00
  0.00000000E+00  0.00000000E+00  0.00000000E+00
  0.00000000E+00  0.00000000E+00  0.00000000E+00
  0.00000000E+00  0.00000000E+00  0.00000000E+00
  0.00000000E+00  0.00000000E+00  0.00000000E+00
  0.00000000E+00  0.00000000E+00  0.00000000E+00
  0.00000000E+00  0.00000000E+00  0.00000000E+00
  0.00000000E+00  0.00000000E+00  0.00000000E+00
  0.00000000E+00  0.00000000E+00  0.00000000E+00
  0.00000000E+00  0.00000000E+00  0.00000000E+00
  0.00000000E+00  0.00000000E+00  0.00000000E+00
  0.00000000E+00  0.00000000E+00  0.00000000E+00
  0.00000000E+00  0.00000000E+00  0.00000000E+00
  0.00000000E+00  0.00000000E+00  0.00000000E+00
  0.00000000E+00  0.00000000E+00  0.00000000E+00
  0.00000000E+00  0.00000000E+00  0.00000000E+00
  0.00000000E+00  0.00000000E+00  0.00000000E+00
  0.00000000E+00  0.00000000E+00  0.00000000E+00
  0.00000000E+00  0.00000000E+00  0.00000000E+00
  0.00000000E+00  0.00000000E+00  0.00000000E+00
  0.00000000E+00  0.00000000E+00  0.00000000E+00
  0.00000000E+00  0.00000000E+00  0.00000000E+00
  0.00000000E+00  0.00000000E+00  0.00000000E+00
  0.00000000E+00  0.00000000E+00  0.00000000E+00
  0.00000000E+00  0.00000000E+00  0.00000000E+00
  0.00000000E+00  0.00000000E+00  0.00000000E+00
  0.00000000E+00  0.00000000E+00  0.00000000E+00
  0.00000000E+00  0.00000000E+00  0.00000000E+00
  0.00000000E+00  0.00000000E+00  0.00000000E+00