FeMn_288_25                             
    1.000000000000000     
     9.7266779999999997    0.0000000000000000    0.0000000000000000
     0.0000000000000000    8.4235500000000005    0.0000000000000000
     0.0000000000000000    0.0000000000000000   45.0000000000000000
   Fe   Mn
   263    25
Direct
  0.3128191540441824  0.0365062249499952  0.1262832460949621
  0.3123039737186097  0.7066795592371181  0.6982653899209890
  0.4376863498415895  0.1197169907658600  0.1687193911022526
  0.5619410566460066  0.2056157632538469  0.4785073556234273
  0.8128853358103306  0.5373729596105253  0.2576559665253448
  0.3126723829343129  0.7044635864757365  0.3461433600181408
  0.1877224907539298  0.9544814747814027  0.3461880645745999
  0.4373874576369813  0.7874888893853675  0.1261578901478242
  0.0624494471482517  0.5411539457053688  0.8735855227556435
  0.4375464311734636  0.6233550157223139  0.6539390106287420
  0.0631614468737594  0.7036185785819616  0.2133602337646166
  0.4370058174308422  0.1248369648870614  0.7867728094492566
  0.0624503111245331  0.2065342329623392  0.6982811184237208
  0.6880182724588002  0.2878216187138490  0.2575681924694279
  0.9372452408068552  0.6216538055204768  0.4349737037928060
  0.0622949469809704  0.7076139553186827  0.8315165813140165
  0.9375536396958899  0.7917079768800321  0.8737617538407768
  0.0632117539885479  0.7060578139462884  0.5652281516122212
  0.9378934943030690  0.4530129053339509  0.2136317515159751
  0.9372938479109628  0.4575370768588139  0.8314396619274538
  0.9378417224583162  0.4551788836625202  0.4784352389255777
  0.9376160015845036  0.4570195389719500  0.6982793680416817
  0.0629510152972308  0.0377443894193397  0.3900752128432416
  0.1870680385998582  0.1249898749724792  0.7867582977470632
  0.3124700885515779  0.2051958323564096  0.4785629232073710
  0.9374702364536932  0.1236562925071191  0.6537940774035300
  0.6874690676785126  0.1229987706160103  0.6538189541932582
  0.3123434733528790  0.3744698970924081  0.7866456743192285
  0.4373559227784820  0.9577570122969713  0.8314292151169667
  0.3123698176237063  0.2068904330061527  0.6983487111252629
  0.8122948881337619  0.3729481308494667  0.5213068706559622
  0.8121271092652964  0.3733231979192096  0.7867439549754698
  0.1876096089409918  0.4536285367052539  0.2134454001453494
  0.8121644430568217  0.5358016589062380  0.1263995089318464
  0.6869659092758877  0.1242311739356400  0.7866678392198757
  0.5623921327583137  0.3706556114962625  0.3016608479365089
  0.1874515116320490  0.7915171513628283  0.8736441524103640
  0.6873859071949810  0.2907779267277413  0.8736895464431450
  0.4378918701469851  0.4539180536861462  0.2133138733028546
  0.1879416780490727  0.6220094601141610  0.5213697499316985
  0.4378554970388605  0.6204631510795232  0.1686703899735960
  0.5620655047467534  0.0407215307917648  0.7424606847543949
  0.0624582471886495  0.3715749394125219  0.4347099211542996
  0.5620151005559161  0.7055206389416622  0.4786234710027381
  0.4376031485076559  0.6223199047107217  0.5214188985420181
  0.5624470859160812  0.3732221326732317  0.6538077881671940
  0.3120298175829405  0.2077386806708170  0.8314043345787807
  0.3125767052936784  0.7033522552170209  0.2135819206934465
  0.5617478554952545  0.7062020391147386  0.6981553529391873
  0.1870653360487160  0.6239188293200006  0.7867520347709863
  0.5611546031102879  0.0364420065530212  0.1264484358444095
  0.0627424991119412  0.7041408130028263  0.3462282844426355
  0.1876340574484979  0.4543557380090553  0.3461368308524586
  0.0628470376212627  0.0417309261048089  0.8737567333016988
  0.8138060121204056  0.8700354927728915  0.1683864707056501
  0.1879183497060792  0.1203418811638835  0.1686645294357472
  0.4370423403835543  0.7907103974367589  0.7424076041922248
  0.3129137179100167  0.5367937011914261  0.2576693792586999
  0.6873791656356376  0.7910524928038648  0.8737557656807813
  0.9371981777023005  0.9549294820152451  0.4785450472890023
  0.6874118176748415  0.9541656151196259  0.3461021666585720
  0.9375820965610306  0.7878966803860686  0.3900357701178443
  0.3119909200200742  0.5361409057262619  0.1264171269360934
  0.3128636404211924  0.0367402598058987  0.2575005475192546
  0.3120934437490407  0.7080569149891253  0.8313639424875692
  0.4373265462844064  0.4564126984206123  0.6982839750461896
  0.6875356400418280  0.6206105542402317  0.3017256209309847
  0.3119740226951081  0.0406063275625001  0.7424778274261956
  0.1872381163868900  0.2913147346442943  0.8736115545911013
  0.0628686413456481  0.5370627058585515  0.2575115921525069
  0.5624569685663555  0.7076537638686180  0.8315314074889385
  0.6871632038374177  0.7873003125458393  0.1264795922627483
  0.0626628312179580  0.3740413466453733  0.7867006391202580
  0.8123904595557370  0.2078009494680687  0.6983192273624895
  0.6867158042964129  0.7912097825530858  0.7424814327988202
  0.4372664374594812  0.9571046533663145  0.6983071351503216
  0.5629427068788369  0.5372840734073540  0.2575305885733558
  0.1888787785658482  0.7861147091810011  0.1263005823557361
  0.4379183345913972  0.1209118984877795  0.3017766040027258
  0.9370619559951960  0.9573082443932232  0.8317680221493624
  0.6868244555926842  0.6224862553273978  0.5213206222806139
  0.6877344779036559  0.4544356350685780  0.3461555471690215
  0.5620044763432684  0.2073965138953610  0.6984063680710780
  0.1872354191257280  0.1221625884321344  0.4345485581296934
  0.5627947111203425  0.2043091688880188  0.3461573904856098
  0.8120748196354963  0.3692983256799210  0.1684668441193593
  0.5625337803266767  0.3717577167418826  0.4350641249613754
  0.4370013753833877  0.1228027503398996  0.5212890684374365
  0.3125064567314942  0.8716246505598348  0.4348589578394599
  0.3121573025842957  0.7058908076796676  0.5651970526605333
  0.8125862993996973  0.2042751553387014  0.3463020606895126
  0.4381669815192520  0.9560785155766722  0.5650910732207288
  0.6876894494001070  0.9539394958852696  0.2135506427525710
  0.3124240181565854  0.3736194293633009  0.6539018985277465
  0.8125673082186253  0.5379590689997972  0.3900646792413821
  0.0633462596563537  0.3706387954049711  0.3016978758856310
  0.1873748832114815  0.2898707460182101  0.6098592960964520
  0.6873454112851234  0.9561921148156480  0.5651888966486632
  0.8126583768781932  0.8729111195783850  0.5214089636085077
  0.9376680830297590  0.6207629720629625  0.1684479021356611
  0.0625899631781283  0.3737391220348669  0.6538791593546401
  0.5625396305195425  0.7037268185877130  0.2133981492455674
  0.3126252169188272  0.5381278735171885  0.3900959481908868
  0.4366611041074877  0.7918407462984718  0.8735891425757903
  0.1876741078382919  0.9539867760132464  0.2136748108538719
  0.5625207394867773  0.5412197836787005  0.8736104110776037
  0.6874431059040653  0.7899177882690436  0.6098377980724241
  0.9373428649631851  0.6239337553013695  0.6538313558149491
  0.1873586190017451  0.2904541954651693  0.7424456665243383
  0.1873077397196758  0.7905134936956663  0.7424324464212868
  0.8125242146534966  0.3720964064417555  0.4344897546461151
  0.4379230594564613  0.7868417103370992  0.2576028919299407
  0.1875592227479894  0.2881674011206578  0.3901185476216484
  0.4373551281863936  0.2914510951513714  0.8735632993650712
  0.1880746239135368  0.7867414565437684  0.2575835864734379
  0.3129497455496784  0.8708614714355882  0.3016147539656256
  0.5624159550717566  0.8727744097997275  0.6536767198408464
  0.3124032573400091  0.7051365601715723  0.4785594954586206
  0.5621386749585287  0.8704675683204816  0.3017220742169847
  0.1876966377649597  0.1208855653108297  0.3017588399602053
  0.5621145242233743  0.0381045218950856  0.3900802780208950
  0.6872797713922002  0.4575681124753171  0.6983051428852419
  0.8130969983485294  0.7037060374466797  0.2134713113053924
  0.8122223150690927  0.8722287272134968  0.4345422155242591
  0.1873776577908019  0.4567101946962134  0.6982388217733587
  0.4375941504960016  0.6216187507530433  0.4345292014325353
  0.0629072730810008  0.7053529953667136  0.4785841394170144
  0.1878499082364405  0.7899083599146209  0.6098222681472169
  0.5626682806424519  0.8723400902394538  0.5213511241120936
  0.0625960549177641  0.5398008218964598  0.6099230304732547
  0.4371934570399864  0.2873096532550083  0.1265625772704943
  0.4373646573314706  0.7878250784479488  0.3900257062526947
  0.8120806979402034  0.5408513235540034  0.8737181207301985
  0.8119921414672779  0.0410392853525462  0.8737737119315870
  0.4373295341658210  0.2898771104579560  0.6098947550114149
  0.3120707238790031  0.5405536191438571  0.7424246959967512
  0.3125655851946685  0.0394678391492809  0.6099250332994771
  0.4374742554190623  0.1218511692024775  0.4345228852837031
  0.0627628235702579  0.2053427594226676  0.5652168101800923
  0.0628792290252637  0.5382591307573815  0.3900895180331548
  0.5622746123456364  0.5395696747971438  0.6098149232396665
  0.0634580836650660  0.8705294476867871  0.3017114004921206
  0.6879661286704335  0.4565809596609969  0.5653531202065203
  0.9376714612121113  0.7896518006155415  0.6097862703186889
  0.6875362328755853  0.9548647133542414  0.4785176359219359
  0.8123608916252757  0.2036906797210822  0.2134119255106548
  0.4379235220632825  0.6204552663204297  0.3017287264640122
  0.9379003165535967  0.1226045300408246  0.5212631936822182
  0.6870061570573011  0.1213899013150051  0.4347036536725727
  0.0623823737420622  0.8720255884461992  0.4347945531382927
  0.0622927493160663  0.3722695683072926  0.5213992223672188
  0.1874417759423078  0.4582627036256765  0.8314004360733747
  0.1875328990059842  0.7878410862985363  0.3900266944406801
  0.3120180255762989  0.5413711671481248  0.8735041271801721
  0.4366864708122335  0.6246038121885664  0.7865963239538725
  0.0620944033686024  0.5398922962442970  0.7423500685694230
  0.9372438761993742  0.4557803378052959  0.5653530418903560
  0.6875523495471429  0.2877137748648980  0.3900982819676447
  0.1874421838389528  0.6234912721012196  0.6539426124008900
  0.8123232970094053  0.0403911263302199  0.6098867548711200
  0.5629611549475053  0.3720056659969976  0.1685058519387373
  0.5618571816224649  0.0417785969038741  0.8736508636201270
  0.0629819817349313  0.0365600814593255  0.1263516869220093
  0.3127695309163619  0.2032649561852530  0.2134246868091638
  0.5615748374993734  0.8745864434382759  0.7867092648948266
  0.3123843966289637  0.3718240137379278  0.4346920867046669
  0.6870783531206218  0.4579621978411276  0.8315622420387653
  0.8125336799096942  0.3734822807284524  0.6538689944363290
  0.4379685406897723  0.9534095004209864  0.2135286557094918
  0.9373258451656112  0.7907781939365680  0.7424636402751121
  0.9377082050037532  0.7869736442884522  0.2574754164735267
  0.4376602493549177  0.9544571782203277  0.3461997310449371
  0.1875999350709727  0.9557335771406951  0.5651759902722524
  0.0636504990915418  0.5361635737293856  0.1265190477834603
  0.3123082006026983  0.8748750791955650  0.7867134665692932
  0.3122696201758695  0.0417705088882403  0.8736776221783250
  0.9377635538579333  0.2876601776384162  0.2575631394042581
  0.4371903305486057  0.4577951518732845  0.8313870522935658
  0.8127787507260641  0.7061966871721186  0.5651620351159825
  0.4371717172782098  0.7896754352797436  0.6099061166662045
  0.9374823573818927  0.9558995826361065  0.5652608283909454
  0.6874064638306443  0.9569008975992496  0.6982069402961582
  0.0625773116533565  0.2042213993342099  0.3461617923737037
  0.1872840514089357  0.4556704377366610  0.4786405416734595
  0.1873892230806404  0.9556940696654758  0.4785816802919984
  0.1879914514279064  0.2871111935205521  0.2575605256913799
  0.8120442859196912  0.5411067541845062  0.7425929283947530
  0.9373447084075658  0.2868076653215620  0.1261683574899200
  0.4373537140270156  0.1232180816833521  0.6538393058114785
  0.0627305201683242  0.3701254958131328  0.1686431551263812
  0.9371218268639970  0.2912734949868109  0.8736435744699833
  0.1873757947499163  0.2868596596790499  0.1265049181896598
  0.6875298886906228  0.6195842548162358  0.1682963929681206
  0.9374048243931585  0.2877687235641028  0.3901352492852568
  0.5620844112074993  0.3748546021020461  0.7867051775032362
  0.0614088117994884  0.8706255239917983  0.1684037731070576
  0.3123310395299334  0.3718346765086037  0.5213112583039986
  0.1870433513373033  0.9578342205032465  0.8314548749889830
  0.6879156689345430  0.7871654011368563  0.2575427069662871
  0.0629814423074621  0.2056010101268834  0.4785420559263681
  0.6871668580490674  0.6231521238873204  0.6537894844610778
  0.1877186818443497  0.6204881693765800  0.3017359475400717
  0.9378279731892086  0.2898647979885701  0.6099004716558677
  0.0627950731835651  0.7070280185314530  0.6983007886762492
  0.9379235932832852  0.9540664653255821  0.3461225950615682
  0.6869248168318700  0.1222614644229845  0.5212453767315837
  0.4373726190051231  0.4559244099784954  0.4786073994210489
  0.0622861807379730  0.0403523956834895  0.7425929380258296
  0.5620319586434164  0.2077471602782762  0.8314632079769901
  0.8127439270169102  0.7041699566206521  0.3461923570765427
  0.5626385081989225  0.8719372128316090  0.4346672530279195
  0.4380045855869337  0.4561054689530652  0.5652196938193855
  0.6887482619567544  0.2874926117155900  0.1263959405790341
  0.9371873537112023  0.6236150233223191  0.7866767921879531
  0.6874028944109710  0.4558634887244692  0.4785122346450081
  0.6875718215331990  0.9575647949270454  0.8315597522120454
  0.1876382208436181  0.6213129423713600  0.4344303692055957
  0.9378770989291516  0.1206072240500746  0.3018061093182121
  0.0622114755229769  0.8746674167340041  0.7867619945439125
  0.0622724378686492  0.0394276916544585  0.6098449565898451
  0.8122912376858463  0.2077293970624549  0.8314445513321941
  0.3129710599807515  0.2056783101433933  0.5652378807511381
  0.9378851774659491  0.9532214441037227  0.2134398081147081
  0.6876829653156833  0.7878842248308061  0.3900771233713073
  0.4378026804374087  0.2870748341483629  0.2575857729427235
  0.0622804956606229  0.8733115559131166  0.6538594293919721
  0.5629198230473761  0.0401904751568115  0.6100449314386974
  0.0634871481379605  0.2038106303419935  0.2135181651327344
  0.6877531813903374  0.1206767982114264  0.3017586966797701
  0.9379793267922556  0.1219185192363593  0.4347404672151788
  0.9377079057875788  0.4543192572214197  0.3461399263953694
  0.3125586412524158  0.8731546808756937  0.6537905896589870
  0.4376153191754633  0.4543530417740513  0.3461353916675863
  0.8128152228289085  0.5400553316807444  0.6098421233067823
  0.5620327969893635  0.7063499600911559  0.5652572593434765
  0.9381792885337686  0.6208032812339367  0.3016995029384388
  0.0624219656057099  0.2078737367669918  0.8315926946126113
  0.5625404336215152  0.7040861024906863  0.3462050223426327
  0.5618175769998317  0.5412637066492677  0.7424549739568643
  0.3125404068311896  0.5399587999799388  0.6100495027023365
  0.8118541185309863  0.7076376570895428  0.8316369383857485
  0.5623022702384824  0.2031775254836152  0.2136461501573049
  0.1876258511339164  0.1233114049625918  0.6538127589761494
  0.4376407667529305  0.2883030176494313  0.3900592718073612
  0.1875592890220918  0.1227268425467721  0.5213851044601872
  0.3127796660913074  0.2046022244130079  0.3463131343759949
  0.5628703166480957  0.8706852395328776  0.1681760198367011
  0.6878820792798942  0.4536966897824347  0.2134809647534572
  0.1880463660505196  0.6213639169135214  0.1686213403105329
  0.8130351162670638  0.0376314772687672  0.2576194487073984
  0.8123700584559326  0.7056317502031185  0.4787266036290589
  0.6868524590880728  0.2911510126090489  0.7425093933547595
  0.4377805703733283  0.9556818353839791  0.4785110902485830
  0.5618693127538426  0.2053800729676411  0.5652420170413930
  0.8123315644952568  0.8730726573902586  0.6538300214028263
  0.3127767221503444  0.3707263850774044  0.3018067142293609
  0.6873223941664897  0.6219249999229401  0.4346285283019736
  0.4372071823174009  0.2910827393048718  0.7424877451369692
  0.5621242944983199  0.5380881510664649  0.3900910975982568
  0.6882667771442339  0.1199033773518337  0.1684951233189773
  0.9374321569167333  0.1236543323329219  0.7867803373709454
  0.3132703634688757  0.3710919855767655  0.1685468372642078
  0.3125189543401128  0.0377362313104187  0.3900672072116802
  0.8121350285423510  0.2056764085192514  0.4787330717273138
  0.9372414777159543  0.6219804176832716  0.5212886771544332
  0.8120961931054672  0.7067695160988338  0.6982863766519594
  0.0618495046578960  0.8726154730320030  0.5212474468465966
  0.5626663183279411  0.5357285354845512  0.1265826923823022
  0.3128418168759299  0.8704945974124763  0.1679483683886152
  0.6867864844508688  0.6235891900388585  0.7865085700185250
  0.8110347849443386  0.0401226277165698  0.7425573417894136
  0.9371938759673749  0.9579085754016053  0.6981846033240304
  0.8127552431850521  0.3707724150160718  0.3017491398077655
  0.1872747101733675  0.4562029214305611  0.5652153368365765
  0.5630526186769073  0.3719720102678133  0.5212671739914304
  0.8125607248493038  0.2056728445780368  0.5646947151243142
  0.9374758153948327  0.2904409988692237  0.7425120456083916
  0.0627276130656619  0.0370234615523485  0.2575893956163743
  0.8128066887777115  0.8740486352789114  0.7866465572986765
  0.8127881049575956  0.8712671854698485  0.3015806714368581
  0.3128587243193663  0.8719373594726184  0.5212462112059031
  0.8121073034717106  0.0389468442034001  0.1262936091357346
  0.5630311952867731  0.0371845104727061  0.2573982110591708
  0.8125488200600269  0.0376483174937481  0.3901847808883260
  0.9369771371074368  0.1196352786035447  0.1679284635968211
  0.9382078973366175  0.7865829955244069  0.1267902614798509
  0.1884054967343438  0.9569859102905013  0.6983295302512972
  0.6869963410539456  0.2902839898590717  0.6100520029453544
 
  0.00000000E+00  0.00000000E+00  0.00000000E+00
  0.00000000E+00  0.00000000E+00  0.00000000E+00
  0.00000000E+00  0.00000000E+00  0.00000000E+00
  0.00000000E+00  0.00000000E+00  0.00000000E+00
  0.00000000E+00  0.00000000E+00  0.00000000E+00
  0.00000000E+00  0.00000000E+00  0.00000000E+00
  0.00000000E+00  0.00000000E+00  0.00000000E+00
  0.00000000E+00  0.00000000E+00  0.00000000E+00
  0.00000000E+00  0.00000000E+00  0.00000000E+00
  0.00000000E+00  0.00000000E+00  0.00000000E+00
  0.00000000E+00  0.00000000E+00  0.00000000E+00
  0.00000000E+00  0.00000000E+00  0.00000000E+00
  0.00000000E+00  0.00000000E+00  0.00000000E+00
  0.00000000E+00  0.00000000E+00  0.00000000E+00
  0.00000000E+00  0.00000000E+00  0.00000000E+00
  0.00000000E+00  0.00000000E+00  0.00000000E+00
  0.00000000E+00  0.00000000E+00  0.00000000E+00
  0.00000000E+00  0.00000000E+00  0.00000000E+00
  0.00000000E+00  0.00000000E+00  0.00000000E+00
  0.00000000E+00  0.00000000E+00  0.00000000E+00
  0.00000000E+00  0.00000000E+00  0.00000000E+00
  0.00000000E+00  0.00000000E+00  0.00000000E+00
  0.00000000E+00  0.00000000E+00  0.00000000E+00
  0.00000000E+00  0.00000000E+00  0.00000000E+00
  0.00000000E+00  0.00000000E+00  0.00000000E+00
  0.00000000E+00  0.00000000E+00  0.00000000E+00
  0.00000000E+00  0.00000000E+00  0.00000000E+00
  0.00000000E+00  0.00000000E+00  0.00000000E+00
  0.00000000E+00  0.00000000E+00  0.00000000E+00
  0.00000000E+00  0.00000000E+00  0.00000000E+00
  0.00000000E+00  0.00000000E+00  0.00000000E+00
  0.00000000E+00  0.00000000E+00  0.00000000E+00
  0.00000000E+00  0.00000000E+00  0.00000000E+00
  0.00000000E+00  0.00000000E+00  0.00000000E+00
  0.00000000E+00  0.00000000E+00  0.00000000E+00
  0.00000000E+00  0.00000000E+00  0.00000000E+00
  0.00000000E+00  0.00000000E+00  0.00000000E+00
  0.00000000E+00  0.00000000E+00  0.00000000E+00
  0.00000000E+00  0.00000000E+00  0.00000000E+00
  0.00000000E+00  0.00000000E+00  0.00000000E+00
  0.00000000E+00  0.00000000E+00  0.00000000E+00
  0.00000000E+00  0.00000000E+00  0.00000000E+00
  0.00000000E+00  0.00000000E+00  0.00000000E+00
  0.00000000E+00  0.00000000E+00  0.00000000E+00
  0.00000000E+00  0.00000000E+00  0.00000000E+00
  0.00000000E+00  0.00000000E+00  0.00000000E+00
  0.00000000E+00  0.00000000E+00  0.00000000E+00
  0.00000000E+00  0.00000000E+00  0.00000000E+00
  0.00000000E+00  0.00000000E+00  0.00000000E+00
  0.00000000E+00  0.00000000E+00  0.00000000E+00
  0.00000000E+00  0.00000000E+00  0.00000000E+00
  0.00000000E+00  0.00000000E+00  0.00000000E+00
  0.00000000E+00  0.00000000E+00  0.00000000E+00
  0.00000000E+00  0.00000000E+00  0.00000000E+00
  0.00000000E+00  0.00000000E+00  0.00000000E+00
  0.00000000E+00  0.00000000E+00  0.00000000E+00
  0.00000000E+00  0.00000000E+00  0.00000000E+00
  0.00000000E+00  0.00000000E+00  0.00000000E+00
  0.00000000E+00  0.00000000E+00  0.00000000E+00
  0.00000000E+00  0.00000000E+00  0.00000000E+00
  0.00000000E+00  0.00000000E+00  0.00000000E+00
  0.00000000E+00  0.00000000E+00  0.00000000E+00
  0.00000000E+00  0.00000000E+00  0.00000000E+00
  0.00000000E+00  0.00000000E+00  0.00000000E+00
  0.00000000E+00  0.00000000E+00  0.00000000E+00
  0.00000000E+00  0.00000000E+00  0.00000000E+00
  0.00000000E+00  0.00000000E+00  0.00000000E+00
  0.00000000E+00  0.00000000E+00  0.00000000E+00
  0.00000000E+00  0.00000000E+00  0.00000000E+00
  0.00000000E+00  0.00000000E+00  0.00000000E+00
  0.00000000E+00  0.00000000E+00  0.00000000E+00
  0.00000000E+00  0.00000000E+00  0.00000000E+00
  0.00000000E+00  0.00000000E+00  0.00000000E+00
  0.00000000E+00  0.00000000E+00  0.00000000E+00
  0.00000000E+00  0.00000000E+00  0.00000000E+00
  0.00000000E+00  0.00000000E+00  0.00000000E+00
  0.00000000E+00  0.00000000E+00  0.00000000E+00
  0.00000000E+00  0.00000000E+00  0.00000000E+00
  0.00000000E+00  0.00000000E+00  0.00000000E+00
  0.00000000E+00  0.00000000E+00  0.00000000E+00
  0.00000000E+00  0.00000000E+00  0.00000000E+00
  0.00000000E+00  0.00000000E+00  0.00000000E+00
  0.00000000E+00  0.00000000E+00  0.00000000E+00
  0.00000000E+00  0.00000000E+00  0.00000000E+00
  0.00000000E+00  0.00000000E+00  0.00000000E+00
  0.00000000E+00  0.00000000E+00  0.00000000E+00
  0.00000000E+00  0.00000000E+00  0.00000000E+00
  0.00000000E+00  0.00000000E+00  0.00000000E+00
  0.00000000E+00  0.00000000E+00  0.00000000E+00
  0.00000000E+00  0.00000000E+00  0.00000000E+00
  0.00000000E+00  0.00000000E+00  0.00000000E+00
  0.00000000E+00  0.00000000E+00  0.00000000E+00
  0.00000000E+00  0.00000000E+00  0.00000000E+00
  0.00000000E+00  0.00000000E+00  0.00000000E+00
  0.00000000E+00  0.00000000E+00  0.00000000E+00
  0.00000000E+00  0.00000000E+00  0.00000000E+00
  0.00000000E+00  0.00000000E+00  0.00000000E+00
  0.00000000E+00  0.00000000E+00  0.00000000E+00
  0.00000000E+00  0.00000000E+00  0.00000000E+00
  0.00000000E+00  0.00000000E+00  0.00000000E+00
  0.00000000E+00  0.00000000E+00  0.00000000E+00
  0.00000000E+00  0.00000000E+00  0.00000000E+00
  0.00000000E+00  0.00000000E+00  0.00000000E+00
  0.00000000E+00  0.00000000E+00  0.00000000E+00
  0.00000000E+00  0.00000000E+00  0.00000000E+00
  0.00000000E+00  0.00000000E+00  0.00000000E+00
  0.00000000E+00  0.00000000E+00  0.00000000E+00
  0.00000000E+00  0.00000000E+00  0.00000000E+00
  0.00000000E+00  0.00000000E+00  0.00000000E+00
  0.00000000E+00  0.00000000E+00  0.00000000E+00
  0.00000000E+00  0.00000000E+00  0.00000000E+00
  0.00000000E+00  0.00000000E+00  0.00000000E+00
  0.00000000E+00  0.00000000E+00  0.00000000E+00
  0.00000000E+00  0.00000000E+00  0.00000000E+00
  0.00000000E+00  0.00000000E+00  0.00000000E+00
  0.00000000E+00  0.00000000E+00  0.00000000E+00
  0.00000000E+00  0.00000000E+00  0.00000000E+00
  0.00000000E+00  0.00000000E+00  0.00000000E+00
  0.00000000E+00  0.00000000E+00  0.00000000E+00
  0.00000000E+00  0.00000000E+00  0.00000000E+00
  0.00000000E+00  0.00000000E+00  0.00000000E+00
  0.00000000E+00  0.00000000E+00  0.00000000E+00
  0.00000000E+00  0.00000000E+00  0.00000000E+00
  0.00000000E+00  0.00000000E+00  0.00000000E+00
  0.00000000E+00  0.00000000E+00  0.00000000E+00
  0.00000000E+00  0.00000000E+00  0.00000000E+00
  0.00000000E+00  0.00000000E+00  0.00000000E+00
  0.00000000E+00  0.00000000E+00  0.00000000E+00
  0.00000000E+00  0.00000000E+00  0.00000000E+00
  0.00000000E+00  0.00000000E+00  0.00000000E+00
  0.00000000E+00  0.00000000E+00  0.00000000E+00
  0.00000000E+00  0.00000000E+00  0.00000000E+00
  0.00000000E+00  0.00000000E+00  0.00000000E+00
  0.00000000E+00  0.00000000E+00  0.00000000E+00
  0.00000000E+00  0.00000000E+00  0.00000000E+00
  0.00000000E+00  0.00000000E+00  0.00000000E+00
  0.00000000E+00  0.00000000E+00  0.00000000E+00
  0.00000000E+00  0.00000000E+00  0.00000000E+00
  0.00000000E+00  0.00000000E+00  0.00000000E+00
  0.00000000E+00  0.00000000E+00  0.00000000E+00
  0.00000000E+00  0.00000000E+00  0.00000000E+00
  0.00000000E+00  0.00000000E+00  0.00000000E+00
  0.00000000E+00  0.00000000E+00  0.00000000E+00
  0.00000000E+00  0.00000000E+00  0.00000000E+00
  0.00000000E+00  0.00000000E+00  0.00000000E+00
  0.00000000E+00  0.00000000E+00  0.00000000E+00
  0.00000000E+00  0.00000000E+00  0.00000000E+00
  0.00000000E+00  0.00000000E+00  0.00000000E+00
  0.00000000E+00  0.00000000E+00  0.00000000E+00
  0.00000000E+00  0.00000000E+00  0.00000000E+00
  0.00000000E+00  0.00000000E+00  0.00000000E+00
  0.00000000E+00  0.00000000E+00  0.00000000E+00
  0.00000000E+00  0.00000000E+00  0.00000000E+00
  0.00000000E+00  0.00000000E+00  0.00000000E+00
  0.00000000E+00  0.00000000E+00  0.00000000E+00
  0.00000000E+00  0.00000000E+00  0.00000000E+00
  0.00000000E+00  0.00000000E+00  0.00000000E+00
  0.00000000E+00  0.00000000E+00  0.00000000E+00
  0.00000000E+00  0.00000000E+00  0.00000000E+00
  0.00000000E+00  0.00000000E+00  0.00000000E+00
  0.00000000E+00  0.00000000E+00  0.00000000E+00
  0.00000000E+00  0.00000000E+00  0.00000000E+00
  0.00000000E+00  0.00000000E+00  0.00000000E+00
  0.00000000E+00  0.00000000E+00  0.00000000E+00
  0.00000000E+00  0.00000000E+00  0.00000000E+00
  0.00000000E+00  0.00000000E+00  0.00000000E+00
  0.00000000E+00  0.00000000E+00  0.00000000E+00
  0.00000000E+00  0.00000000E+00  0.00000000E+00
  0.00000000E+00  0.00000000E+00  0.00000000E+00
  0.00000000E+00  0.00000000E+00  0.00000000E+00
  0.00000000E+00  0.00000000E+00  0.00000000E+00
  0.00000000E+00  0.00000000E+00  0.00000000E+00
  0.00000000E+00  0.00000000E+00  0.00000000E+00
  0.00000000E+00  0.00000000E+00  0.00000000E+00
  0.00000000E+00  0.00000000E+00  0.00000000E+00
  0.00000000E+00  0.00000000E+00  0.00000000E+00
  0.00000000E+00  0.00000000E+00  0.00000000E+00
  0.00000000E+00  0.00000000E+00  0.00000000E+00
  0.00000000E+00  0.00000000E+00  0.00000000E+00
  0.00000000E+00  0.00000000E+00  0.00000000E+00
  0.00000000E+00  0.00000000E+00  0.00000000E+00
  0.00000000E+00  0.00000000E+00  0.00000000E+00
  0.00000000E+00  0.00000000E+00  0.00000000E+00
  0.00000000E+00  0.00000000E+00  0.00000000E+00
  0.00000000E+00  0.00000000E+00  0.00000000E+00
  0.00000000E+00  0.00000000E+00  0.00000000E+00
  0.00000000E+00  0.00000000E+00  0.00000000E+00
  0.00000000E+00  0.00000000E+00  0.00000000E+00
  0.00000000E+00  0.00000000E+00  0.00000000E+00
  0.00000000E+00  0.00000000E+00  0.00000000E+00
  0.00000000E+00  0.00000000E+00  0.00000000E+00
  0.00000000E+00  0.00000000E+00  0.00000000E+00
  0.00000000E+00  0.00000000E+00  0.00000000E+00
  0.00000000E+00  0.00000000E+00  0.00000000E+00
  0.00000000E+00  0.00000000E+00  0.00000000E+00
  0.00000000E+00  0.00000000E+00  0.00000000E+00
  0.00000000E+00  0.00000000E+00  0.00000000E+00
  0.00000000E+00  0.00000000E+00  0.00000000E+00
  0.00000000E+00  0.00000000E+00  0.00000000E+00
  0.00000000E+00  0.00000000E+00  0.00000000E+00
  0.00000000E+00  0.00000000E+00  0.00000000E+00
  0.00000000E+00  0.00000000E+00  0.00000000E+00
  0.00000000E+00  0.00000000E+00  0.00000000E+00
  0.00000000E+00  0.00000000E+00  0.00000000E+00
  0.00000000E+00  0.00000000E+00  0.00000000E+00
  0.00000000E+00  0.00000000E+00  0.00000000E+00
  0.00000000E+00  0.00000000E+00  0.00000000E+00
  0.00000000E+00  0.00000000E+00  0.00000000E+00
  0.00000000E+00  0.00000000E+00  0.00000000E+00
  0.00000000E+00  0.00000000E+00  0.00000000E+00
  0.00000000E+00  0.00000000E+00  0.00000000E+00
  0.00000000E+00  0.00000000E+00  0.00000000E+00
  0.00000000E+00  0.00000000E+00  0.00000000E+00
  0.00000000E+00  0.00000000E+00  0.00000000E+00
  0.00000000E+00  0.00000000E+00  0.00000000E+00
  0.00000000E+00  0.00000000E+00  0.00000000E+00
  0.00000000E+00  0.00000000E+00  0.00000000E+00
  0.00000000E+00  0.00000000E+00  0.00000000E+00
  0.00000000E+00  0.00000000E+00  0.00000000E+00
  0.00000000E+00  0.00000000E+00  0.00000000E+00
  0.00000000E+00  0.00000000E+00  0.00000000E+00
  0.00000000E+00  0.00000000E+00  0.00000000E+00
  0.00000000E+00  0.00000000E+00  0.00000000E+00
  0.00000000E+00  0.00000000E+00  0.00000000E+00
  0.00000000E+00  0.00000000E+00  0.00000000E+00
  0.00000000E+00  0.00000000E+00  0.00000000E+00
  0.00000000E+00  0.00000000E+00  0.00000000E+00
  0.00000000E+00  0.00000000E+00  0.00000000E+00
  0.00000000E+00  0.00000000E+00  0.00000000E+00
  0.00000000E+00  0.00000000E+00  0.00000000E+00
  0.00000000E+00  0.00000000E+00  0.00000000E+00
  0.00000000E+00  0.00000000E+00  0.00000000E+00
  0.00000000E+00  0.00000000E+00  0.00000000E+00
  0.00000000E+00  0.00000000E+00  0.00000000E+00
  0.00000000E+00  0.00000000E+00  0.00000000E+00
  0.00000000E+00  0.00000000E+00  0.00000000E+00
  0.00000000E+00  0.00000000E+00  0.00000000E+00
  0.00000000E+00  0.00000000E+00  0.00000000E+00
  0.00000000E+00  0.00000000E+00  0.00000000E+00
  0.00000000E+00  0.00000000E+00  0.00000000E+00
  0.00000000E+00  0.00000000E+00  0.00000000E+00
  0.00000000E+00  0.00000000E+00  0.00000000E+00
  0.00000000E+00  0.00000000E+00  0.00000000E+00
  0.00000000E+00  0.00000000E+00  0.00000000E+00
  0.00000000E+00  0.00000000E+00  0.00000000E+00
  0.00000000E+00  0.00000000E+00  0.00000000E+00
  0.00000000E+00  0.00000000E+00  0.00000000E+00