FeMn_288_15                             
    1.000000000000000     
     9.7266779999999997    0.0000000000000000    0.0000000000000000
     0.0000000000000000    8.4235500000000005    0.0000000000000000
     0.0000000000000000    0.0000000000000000   45.0000000000000000
   Fe   Mn
   273    15
Direct
  0.0623385086225293  0.0426135653450168  0.6104956658115692
  0.6879154343813464  0.6306234148446246  0.7875524834009839
  0.8125066555201552  0.0311947034218783  0.2565395072392823
  0.0627477969750046  0.2076437772892095  0.5655362929313155
  0.1872717175203218  0.7857823974407143  0.3894823403006117
  0.0623610105893022  0.3637483544496665  0.1675298185367780
  0.9374715791941757  0.6310512462821398  0.7877532769172692
  0.8123661383596952  0.3636256172654910  0.1675365840749771
  0.3124264929392764  0.2046595619836535  0.4786001706107031
  0.3124024203039555  0.8726484318366792  0.5215060891886935
  0.0623872325568871  0.0308841232510531  0.2565351952109568
  0.0622392517829966  0.7012888394749605  0.3454630110381856
  0.5622687030721899  0.3731099548281102  0.5214510585804580
  0.5625847812571126  0.0312623716276339  0.2565087880155438
  0.9373227719322849  0.4510983187460172  0.3453959127464119
  0.6876322772728872  0.7855755722198140  0.3895524331150869
  0.8122896732289865  0.0482246718441037  0.8748691188273791
  0.8131245292885664  0.6963067734777525  0.2122923600307325
  0.5624296623265618  0.8768286796944273  0.6547188455232383
  0.8120568281750464  0.3701708169883208  0.4344399123572525
  0.8123992365292336  0.5307467397749125  0.2565873822625844
  0.0621448496313557  0.7139499689498821  0.8324333837293439
  0.0629105238858728  0.0298607185322773  0.1252924843726191
  0.0627839852753186  0.5296849836143512  0.1252299503054409
  0.8124283910981209  0.3732614921419724  0.5215029532004334
  0.9375925390148631  0.1310158060169855  0.7877228977200580
  0.0626279951105670  0.5313566243514578  0.2565869652415594
  0.4377304938671123  0.6157215795452904  0.3008018193301481
  0.9376473747566756  0.4620031876744956  0.6991857921357223
  0.4372917772048510  0.1135426775270216  0.1674891290088697
  0.3127713125975261  0.3702849508422984  0.4344455315896351
  0.9375318807020417  0.9614502925502416  0.6993410910949255
  0.1873380692884901  0.1231761241019673  0.5215112788614341
  0.8125423886204659  0.8729841229597035  0.5215474656720310
  0.4373183046391094  0.4576028269641942  0.5655746478203569
  0.6876364278893939  0.1157394640608769  0.3008533514618791
  0.4368800281845329  0.9639045132355862  0.8326451687907712
  0.1868400142083696  0.2978323020400691  0.8746847194981293
  0.5617693533955650  0.2143375388419155  0.8325857830333458
  0.3125336300307369  0.8814364517068257  0.7877347213165138
  0.9376698263793682  0.7977423495728244  0.8747154358240141
  0.6874972876524017  0.2808656299261290  0.2565112622316058
  0.9378255826229778  0.2797783016079546  0.1253153754251177
  0.6873141716419444  0.1135322518449881  0.1674801561185149
  0.4374448211303380  0.7795866826376348  0.1252068656297812
  0.6875216877879726  0.4638617682738593  0.8324113758642305
  0.6873501223222390  0.2964327534007933  0.7435330183353449
  0.3122049876791489  0.8767853307615135  0.6545692587261377
  0.4377642144557455  0.7812756072549257  0.2565216396737758
  0.6871770019233390  0.9510691770487472  0.3454237617387404
  0.4375900410396049  0.6135508907883889  0.1673645211345728
  0.4371875608843294  0.1202869395749521  0.4345081200609593
  0.1878072131929920  0.7794648939271488  0.1252117293019525
  0.5627867521899932  0.0351088996591296  0.3895230935646929
  0.4375767380974297  0.1319168127885555  0.7875909409021177
  0.3123824042842688  0.3770532507272105  0.6546172187427588
  0.1874672787362525  0.9510112747211402  0.3454425076417516
  0.1877889898579219  0.2795145304939401  0.1253260547161996
  0.5622476850859458  0.2045622987974557  0.4784661244881869
  0.4373633413888545  0.2920858902767335  0.6104645309253970
  0.9374044122813537  0.4640998311351210  0.8324662811226146
  0.5629869603529587  0.0297386415881536  0.1252332577074989
  0.5622849632245945  0.2015109471821543  0.3454090789986113
  0.4377304849810450  0.2799105895074596  0.1252773085969813
  0.5622676994008055  0.5477600964645477  0.8747062221408609
  0.0622189251367594  0.8810314270008008  0.7875733730840686
  0.3126726301809444  0.0299618193438099  0.1252629351241824
  0.3126539713157588  0.2075870189547794  0.5655487583732836
  0.6871638458946797  0.9636870015033464  0.8326005977121282
  0.0626490070921965  0.7072435132181438  0.5654332846621130
  0.6874313054435018  0.7813503564402584  0.2564441651722965
  0.1877490505358177  0.2926164574175630  0.6104841760497525
  0.4376027209031250  0.1165851823771693  0.3008182724287554
  0.9372161783618791  0.7922316908868312  0.6104448518883774
  0.5628179827277352  0.8812710560780952  0.7876509409983111
  0.9371649476546627  0.9637930006300468  0.8324455097821034
  0.5626638309781569  0.5423665226471809  0.6104347767225758
  0.8122665135451943  0.5479216104773974  0.8746945604214035
  0.1878454199240747  0.7921680630560244  0.6104734833738058
  0.8123836267268720  0.5355584211223574  0.3894866087561746
  0.9381815991798037  0.7795640302139550  0.1252277756739217
  0.0625246773953565  0.8768619470735334  0.6546516531909542
  0.1874227149108251  0.1315864558052371  0.7876957686884559
  0.1873208039234505  0.2863885272577236  0.3895470154681928
  0.0625339703410855  0.3654673752948631  0.3007315530513562
  0.3120389350743329  0.0467101149836517  0.7434904370130028
  0.0624852550850813  0.2049050524082309  0.4784525341484760
  0.5630250111158860  0.8660511775914205  0.3008245996421464
  0.8125689594865451  0.3807224107712510  0.7878593083741732
  0.3125627092183100  0.5310915156411369  0.2565034984845877
  0.4376718873751501  0.2809704338701534  0.2564824781169939
  0.4377360337567384  0.2858649444201911  0.3895322700706204
  0.0624442582222968  0.3812356930072894  0.7877475889012612
  0.5621602329155999  0.7119508437443021  0.6993758286994066
  0.1873825822852777  0.6157014395661151  0.3007374099764140
  0.1871970461922945  0.1270440937340389  0.6546055818234943
  0.1876197287840709  0.7966488698525157  0.7433281482740879
  0.8129922495871946  0.1962917860648808  0.2122095880828686
  0.8123968278620447  0.7138187721895924  0.8324337740923933
  0.1880462493116738  0.4467932406449177  0.2122792583277514
  0.0624586819148334  0.5480441656739329  0.8746812247857279
  0.8126293187476330  0.2050412490474208  0.4784586089431704
  0.1870154293776433  0.4510034953353853  0.3454069671445303
  0.3124101430457820  0.3636194505620536  0.1675424716900511
  0.1869759944241300  0.4573503194077007  0.5655439404989154
  0.4376610850705372  0.7925343840884720  0.6104593923093750
  0.5624445787888942  0.3636081719046516  0.1674699520731110
  0.9373298358626231  0.2808939708449159  0.2565366329926676
  0.9375809902021095  0.9576709137152908  0.5655977566915845
  0.6879789141202870  0.4464446585210273  0.2122792285275285
  0.5622079602474033  0.7010779617006587  0.3454182579894037
  0.0623659372615625  0.7050111162438969  0.4784383199813035
  0.0623856219347668  0.8634889519340163  0.1674775708931018
  0.5632398211058887  0.3657133657023149  0.3006943543496358
  0.3131484012049537  0.1969795604988251  0.2122738737256090
  0.9374942600868633  0.9551052075854832  0.4784559809139658
  0.5629679677910198  0.5356907625469648  0.3896572154574555
  0.0623874760867744  0.5468724349787640  0.7435316708263715
  0.8124043511282026  0.2012565643081858  0.3453996065863328
  0.4374950349962327  0.1228543392660217  0.5215378455988668
  0.9372380918913231  0.6135648847880203  0.1674130910597910
  0.5624810685310364  0.3812501925205995  0.7876474923707082
  0.8122213040878898  0.8705377336381462  0.4344809930500629
  0.3125853030598730  0.7072991448462838  0.5655038740662102
  0.4372434572606678  0.6266656763187433  0.6546114643307597
  0.9375793322565016  0.7861448202073384  0.3896253440040460
  0.0625144308508472  0.5420998753493942  0.6103705825141299
  0.3124168135307618  0.5470435120245030  0.8747192961215393
  0.6876675187856515  0.9619738294524846  0.6991881313171729
  0.4374862278244994  0.6229001694988263  0.5215042900277342
  0.1876862605663769  0.6230955025887673  0.5215274729104799
  0.3122045874073959  0.0421426631262946  0.6104397089637109
  0.1875111441294593  0.2811178681808891  0.2565229078000771
  0.3119291818419618  0.5424907189999443  0.6104605471713865
  0.3124750998214073  0.7009815388264397  0.3453171697297671
  0.0623525560872041  0.0361162957528560  0.3895762066692134
  0.5627745232393908  0.6964876340708699  0.2122204465974325
  0.3123720378245674  0.2136754454289134  0.8326740367507086
  0.8126054084269374  0.2141140167862376  0.8325528735106738
  0.9371935635743833  0.7811264028607939  0.2565378309067891
  0.3128126793250548  0.8661145598302739  0.3007299527567814
  0.0625634841686600  0.0468211282776128  0.7434479355442593
  0.4375383808008827  0.6312995597865394  0.7876977652570393
  0.9372130001250092  0.2968685247007261  0.7433992516391181
  0.0621798562802115  0.8729032588704582  0.5214345474395850
  0.3122061479964212  0.7049944339609888  0.4784837521085768
  0.6876398468300571  0.1204096377682779  0.4345924612883759
  0.6877848480103498  0.2854757043331679  0.3895277998005209
  0.6872397355429570  0.4574130047623576  0.5655917923438664
  0.8125775384768262  0.7048441122641258  0.4785508906950678
  0.4384784216577414  0.2983899703700737  0.8747346681852450
  0.1884052766056542  0.9645836244300318  0.8326790939052509
  0.1877357884845721  0.1156888666209862  0.3007246915246077
  0.1874665835952019  0.1137469283565080  0.1674245736185185
  0.5622266442768182  0.2121789639787697  0.6992285407351173
  0.4372373275956256  0.1269907812583041  0.6546279695558646
  0.3123456111046963  0.3823885633390514  0.7875055160456964
  0.8124417063089718  0.0465587045485464  0.7435229472346945
  0.6871935587003142  0.6230318683639423  0.5215326308885122
  0.3130439752510062  0.7150393142396366  0.8327123310197898
  0.4376064541223419  0.9464351945990694  0.2122746183843891
  0.6877947685594491  0.7800911356860596  0.1252439222954018
  0.8123598481381686  0.8811538198332015  0.7876910922963137
  0.1869422700483331  0.6312042904739859  0.7875086217063473
  0.5619553548944676  0.7076878053973295  0.5655390728781433
  0.1874149065344993  0.9577549657990552  0.5655666348465589
  0.6874236950332833  0.6135843112262716  0.1675310670837956
  0.0628019358884585  0.2120294921709012  0.6992022395829656
  0.6874870018656778  0.1232850814854394  0.5214677827152610
  0.4373914414395082  0.9621972088652632  0.6991823289160174
  0.1876052458039868  0.9548893759988480  0.4785650543290097
  0.5618787307766484  0.7142935294388224  0.8326214572636514
  0.1868976674346386  0.7980409319434920  0.8746806325087035
  0.3124737247199201  0.0310890373237621  0.2565926571710887
  0.1874316502939559  0.4546704546825228  0.4785129163642045
  0.9374532147243357  0.9511807976021395  0.3455027277347364
  0.5624621703059387  0.5467863458544510  0.7433619804629749
  0.3121705276083848  0.0353762005908682  0.3895974430546459
  0.8126692330488778  0.5469934648392025  0.7435156532472487
  0.5623605949157539  0.5306348899000422  0.2564590324828714
  0.6874923914090824  0.2983272728384783  0.8748074651407889
  0.6875749960201960  0.4546891803137280  0.4784381809855486
  0.9372080985041907  0.4547121847774314  0.4784258318094771
  0.8125748575238093  0.2121341808561034  0.6993280808638673
  0.1875940682424275  0.4620455810113288  0.6992787181677415
  0.8122588592910902  0.8765546259955986  0.6545471959619867
  0.6873217221943886  0.6265001805386651  0.6547041272680941
  0.0629623753032076  0.2137014860199402  0.8325806649383736
  0.6871039110218210  0.7922358054798634  0.6104788611080265
  0.3126424661810480  0.8705509033279880  0.4344713083749961
  0.8122266364581329  0.8637653328694903  0.1674812422865176
  0.8127963214394015  0.3655863148257362  0.3008107697986480
  0.9377821883813144  0.4579621382665728  0.5654944732082983
  0.8126201576637992  0.0357166973621363  0.3895241982857968
  0.4377963655846914  0.4465510902618206  0.2121647635227900
  0.9374157755308710  0.6265155811258786  0.6545893153353095
  0.6872388774676552  0.6201134799068875  0.4344269870666470
  0.6878377122589254  0.2801706449821054  0.1252679405465778
  0.8122790711988751  0.7009475003655021  0.3454021824621730
  0.3123998387640759  0.8634133547812918  0.1675181761557696
  0.8128620185119381  0.5300150301641020  0.1253006748102092
  0.5631636641587309  0.1962345219799888  0.2121824770482294
  0.8125673598425480  0.5420759765638332  0.6104742050748859
  0.3125213658554254  0.7122171103000903  0.6991278086634971
  0.6881314567785125  0.7985049907609149  0.8746852819947615
  0.4373671980843972  0.2964412446563520  0.7434414980218387
  0.1872926422431404  0.4645997623305481  0.8323308702473144
  0.9379153186114267  0.1155761536880673  0.3008743430827027
  0.6875763752943269  0.1267213160830126  0.6546358889323958
  0.1873840325214504  0.6136644320379478  0.1674291053835097
  0.9375305017402872  0.2858075038024038  0.3894652854822636
  0.4374358264872550  0.9551360554993934  0.4785247465038969
  0.3128108122107875  0.5296777459135231  0.1252040495782588
  0.6874803946594801  0.1311451485938706  0.7876721291984786
  0.9375109563963322  0.1230445654970681  0.5215707090113657
  0.6872272133668276  0.9550290445610047  0.4786057522382766
  0.1880020066050322  0.9465567533545063  0.2122893405396531
  0.0628940365458394  0.7117948454312565  0.6992149720871658
  0.1874985145190938  0.1203565487434747  0.4344714350120414
  0.3124583662760759  0.2012954406514132  0.3453550702147074
  0.5626520925525117  0.7048198661835825  0.4784849303977094
  0.9375592774128169  0.1135959929023574  0.1675664602306447
  0.6873735041276667  0.2920419292521803  0.6104268796324264
  0.0629002237936380  0.6962053793046239  0.2122516540313236
  0.6874213777512047  0.7967784984178082  0.7435474699865415
  0.1873847590513587  0.9620994508152173  0.6991597119597280
  0.1875286540594996  0.6204181293968170  0.4345315418184990
  0.5628238816316015  0.5300410358483065  0.1252770886746229
  0.9375235268491559  0.2983515908962027  0.8747645418746121
  0.4371102366414501  0.6203872224170627  0.4345520520988876
  0.0623775083741898  0.5360284551186096  0.3896256942611352
  0.9374984732432813  0.6232354838058581  0.5214335846451724
  0.9381568624956107  0.4463109277450405  0.2122061535545830
  0.3124318589665753  0.2121294648905337  0.6992853993648124
  0.9371862671168997  0.1203781498666884  0.4344271975038401
  0.5622929453152380  0.2068636172095994  0.5655530411478736
  0.0623277062847325  0.8657979210532264  0.3008408763162692
  0.8124338357063072  0.3765822757043949  0.6547578970865252
  0.6871550009387521  0.4622008943910381  0.6993399582342692
  0.9377510279737463  0.6205725226351430  0.4344979071113458
  0.0622170806606462  0.2009535166329337  0.3452654789461102
  0.0625903119048321  0.3730017729366001  0.5214729741620252
  0.9376390551622257  0.1269213864332850  0.6546801760539738
  0.1875432904664193  0.2968537974755916  0.7434889833625714
  0.5623146907682004  0.3701780586264762  0.4344387682402246
  0.8126503367397242  0.0296071867686101  0.1252210172250487
  0.9375179291584469  0.7968055210760363  0.7435308707795775
  0.0619641015912413  0.0486780206674683  0.8747836667830302
  0.8122971779403578  0.2075150127624131  0.5655263571665045
  0.3131309887564672  0.6965562296795615  0.2121403178389279
  0.4373087321594362  0.4513515565283830  0.3454490825287014
  0.5624051001322902  0.8727737091584145  0.5215304047259547
  0.4374742621088715  0.4620306211170314  0.6991696942898331
  0.0625037406641427  0.3705771716526255  0.4344607674721731
  0.9377757959010833  0.6158973459390966  0.3007886459995331
  0.8126922901394756  0.8659292113668903  0.3008329468078892
  0.4371173262090964  0.4650786317880070  0.8325731636866881
  0.4371656688051132  0.7968695261905029  0.7434264997574178
  0.4370597493329172  0.9513258362586976  0.3454941010881303
  0.0627019525917468  0.1967461773355368  0.2122572852638165
  0.3124335085365672  0.3731838383587270  0.5215208563736032
  0.5622245681640101  0.3768203751278398  0.6544819889265663
  0.3119612104147189  0.5466105019504981  0.7433683780142176
  0.1874906756373930  0.6268726256093524  0.6546079315540516
  0.6878703668771774  0.6154965781189570  0.3008441646735409
  0.5623812576074473  0.8700786040970835  0.4345224616561709
  0.4370332217769786  0.9575810535721976  0.5655445671415917
  0.4375906306071118  0.4547137387363178  0.4785761831591105
  0.5637956573132917  0.0484957447002677  0.8746880292273665
  0.0624760943783234  0.3768863980735451  0.6546359534577928
  0.9384028516924817  0.9462321863390125  0.2122978207790398
  0.8126914932580089  0.0420738213815046  0.6103740883282923
  0.5625493950973824  0.8637619005618631  0.1674573042067774
  0.4378474402784924  0.7860483616093513  0.3894957304848731
  0.3113584457235079  0.0488794123448639  0.8745008517266301
  0.6880465596252563  0.9462120431963303  0.2125458955262482
  0.1873769133812792  0.7812301276842847  0.2564149348490892
  0.3123794051894787  0.5352955144748001  0.3894501171940133
  0.5620030001304384  0.0420958192263830  0.6107104289565493
  0.8126960833491856  0.7115793566677889  0.6991771248335195
  0.0622932539836832  0.8704941735006648  0.4344985302208009
  0.6874863972681023  0.4513086764760012  0.3454326433017252
  0.4376771624085975  0.7968522990606662  0.8744419536253227
  0.9374478173214199  0.2923858301865825  0.6106675207238884
  0.8130686877036679  0.7067645085658648  0.5655707381451798
  0.3126411099526409  0.3659704554361130  0.3007519659998776
  0.6873482270193562  0.9581908090522007  0.5653984111921758
  0.5623616927194699  0.0467805452259121  0.7435294932727086
 
  0.00000000E+00  0.00000000E+00  0.00000000E+00
  0.00000000E+00  0.00000000E+00  0.00000000E+00
  0.00000000E+00  0.00000000E+00  0.00000000E+00
  0.00000000E+00  0.00000000E+00  0.00000000E+00
  0.00000000E+00  0.00000000E+00  0.00000000E+00
  0.00000000E+00  0.00000000E+00  0.00000000E+00
  0.00000000E+00  0.00000000E+00  0.00000000E+00
  0.00000000E+00  0.00000000E+00  0.00000000E+00
  0.00000000E+00  0.00000000E+00  0.00000000E+00
  0.00000000E+00  0.00000000E+00  0.00000000E+00
  0.00000000E+00  0.00000000E+00  0.00000000E+00
  0.00000000E+00  0.00000000E+00  0.00000000E+00
  0.00000000E+00  0.00000000E+00  0.00000000E+00
  0.00000000E+00  0.00000000E+00  0.00000000E+00
  0.00000000E+00  0.00000000E+00  0.00000000E+00
  0.00000000E+00  0.00000000E+00  0.00000000E+00
  0.00000000E+00  0.00000000E+00  0.00000000E+00
  0.00000000E+00  0.00000000E+00  0.00000000E+00
  0.00000000E+00  0.00000000E+00  0.00000000E+00
  0.00000000E+00  0.00000000E+00  0.00000000E+00
  0.00000000E+00  0.00000000E+00  0.00000000E+00
  0.00000000E+00  0.00000000E+00  0.00000000E+00
  0.00000000E+00  0.00000000E+00  0.00000000E+00
  0.00000000E+00  0.00000000E+00  0.00000000E+00
  0.00000000E+00  0.00000000E+00  0.00000000E+00
  0.00000000E+00  0.00000000E+00  0.00000000E+00
  0.00000000E+00  0.00000000E+00  0.00000000E+00
  0.00000000E+00  0.00000000E+00  0.00000000E+00
  0.00000000E+00  0.00000000E+00  0.00000000E+00
  0.00000000E+00  0.00000000E+00  0.00000000E+00
  0.00000000E+00  0.00000000E+00  0.00000000E+00
  0.00000000E+00  0.00000000E+00  0.00000000E+00
  0.00000000E+00  0.00000000E+00  0.00000000E+00
  0.00000000E+00  0.00000000E+00  0.00000000E+00
  0.00000000E+00  0.00000000E+00  0.00000000E+00
  0.00000000E+00  0.00000000E+00  0.00000000E+00
  0.00000000E+00  0.00000000E+00  0.00000000E+00
  0.00000000E+00  0.00000000E+00  0.00000000E+00
  0.00000000E+00  0.00000000E+00  0.00000000E+00
  0.00000000E+00  0.00000000E+00  0.00000000E+00
  0.00000000E+00  0.00000000E+00  0.00000000E+00
  0.00000000E+00  0.00000000E+00  0.00000000E+00
  0.00000000E+00  0.00000000E+00  0.00000000E+00
  0.00000000E+00  0.00000000E+00  0.00000000E+00
  0.00000000E+00  0.00000000E+00  0.00000000E+00
  0.00000000E+00  0.00000000E+00  0.00000000E+00
  0.00000000E+00  0.00000000E+00  0.00000000E+00
  0.00000000E+00  0.00000000E+00  0.00000000E+00
  0.00000000E+00  0.00000000E+00  0.00000000E+00
  0.00000000E+00  0.00000000E+00  0.00000000E+00
  0.00000000E+00  0.00000000E+00  0.00000000E+00
  0.00000000E+00  0.00000000E+00  0.00000000E+00
  0.00000000E+00  0.00000000E+00  0.00000000E+00
  0.00000000E+00  0.00000000E+00  0.00000000E+00
  0.00000000E+00  0.00000000E+00  0.00000000E+00
  0.00000000E+00  0.00000000E+00  0.00000000E+00
  0.00000000E+00  0.00000000E+00  0.00000000E+00
  0.00000000E+00  0.00000000E+00  0.00000000E+00
  0.00000000E+00  0.00000000E+00  0.00000000E+00
  0.00000000E+00  0.00000000E+00  0.00000000E+00
  0.00000000E+00  0.00000000E+00  0.00000000E+00
  0.00000000E+00  0.00000000E+00  0.00000000E+00
  0.00000000E+00  0.00000000E+00  0.00000000E+00
  0.00000000E+00  0.00000000E+00  0.00000000E+00
  0.00000000E+00  0.00000000E+00  0.00000000E+00
  0.00000000E+00  0.00000000E+00  0.00000000E+00
  0.00000000E+00  0.00000000E+00  0.00000000E+00
  0.00000000E+00  0.00000000E+00  0.00000000E+00
  0.00000000E+00  0.00000000E+00  0.00000000E+00
  0.00000000E+00  0.00000000E+00  0.00000000E+00
  0.00000000E+00  0.00000000E+00  0.00000000E+00
  0.00000000E+00  0.00000000E+00  0.00000000E+00
  0.00000000E+00  0.00000000E+00  0.00000000E+00
  0.00000000E+00  0.00000000E+00  0.00000000E+00
  0.00000000E+00  0.00000000E+00  0.00000000E+00
  0.00000000E+00  0.00000000E+00  0.00000000E+00
  0.00000000E+00  0.00000000E+00  0.00000000E+00
  0.00000000E+00  0.00000000E+00  0.00000000E+00
  0.00000000E+00  0.00000000E+00  0.00000000E+00
  0.00000000E+00  0.00000000E+00  0.00000000E+00
  0.00000000E+00  0.00000000E+00  0.00000000E+00
  0.00000000E+00  0.00000000E+00  0.00000000E+00
  0.00000000E+00  0.00000000E+00  0.00000000E+00
  0.00000000E+00  0.00000000E+00  0.00000000E+00
  0.00000000E+00  0.00000000E+00  0.00000000E+00
  0.00000000E+00  0.00000000E+00  0.00000000E+00
  0.00000000E+00  0.00000000E+00  0.00000000E+00
  0.00000000E+00  0.00000000E+00  0.00000000E+00
  0.00000000E+00  0.00000000E+00  0.00000000E+00
  0.00000000E+00  0.00000000E+00  0.00000000E+00
  0.00000000E+00  0.00000000E+00  0.00000000E+00
  0.00000000E+00  0.00000000E+00  0.00000000E+00
  0.00000000E+00  0.00000000E+00  0.00000000E+00
  0.00000000E+00  0.00000000E+00  0.00000000E+00
  0.00000000E+00  0.00000000E+00  0.00000000E+00
  0.00000000E+00  0.00000000E+00  0.00000000E+00
  0.00000000E+00  0.00000000E+00  0.00000000E+00
  0.00000000E+00  0.00000000E+00  0.00000000E+00
  0.00000000E+00  0.00000000E+00  0.00000000E+00
  0.00000000E+00  0.00000000E+00  0.00000000E+00
  0.00000000E+00  0.00000000E+00  0.00000000E+00
  0.00000000E+00  0.00000000E+00  0.00000000E+00
  0.00000000E+00  0.00000000E+00  0.00000000E+00
  0.00000000E+00  0.00000000E+00  0.00000000E+00
  0.00000000E+00  0.00000000E+00  0.00000000E+00
  0.00000000E+00  0.00000000E+00  0.00000000E+00
  0.00000000E+00  0.00000000E+00  0.00000000E+00
  0.00000000E+00  0.00000000E+00  0.00000000E+00
  0.00000000E+00  0.00000000E+00  0.00000000E+00
  0.00000000E+00  0.00000000E+00  0.00000000E+00
  0.00000000E+00  0.00000000E+00  0.00000000E+00
  0.00000000E+00  0.00000000E+00  0.00000000E+00
  0.00000000E+00  0.00000000E+00  0.00000000E+00
  0.00000000E+00  0.00000000E+00  0.00000000E+00
  0.00000000E+00  0.00000000E+00  0.00000000E+00
  0.00000000E+00  0.00000000E+00  0.00000000E+00
  0.00000000E+00  0.00000000E+00  0.00000000E+00
  0.00000000E+00  0.00000000E+00  0.00000000E+00
  0.00000000E+00  0.00000000E+00  0.00000000E+00
  0.00000000E+00  0.00000000E+00  0.00000000E+00
  0.00000000E+00  0.00000000E+00  0.00000000E+00
  0.00000000E+00  0.00000000E+00  0.00000000E+00
  0.00000000E+00  0.00000000E+00  0.00000000E+00
  0.00000000E+00  0.00000000E+00  0.00000000E+00
  0.00000000E+00  0.00000000E+00  0.00000000E+00
  0.00000000E+00  0.00000000E+00  0.00000000E+00
  0.00000000E+00  0.00000000E+00  0.00000000E+00
  0.00000000E+00  0.00000000E+00  0.00000000E+00
  0.00000000E+00  0.00000000E+00  0.00000000E+00
  0.00000000E+00  0.00000000E+00  0.00000000E+00
  0.00000000E+00  0.00000000E+00  0.00000000E+00
  0.00000000E+00  0.00000000E+00  0.00000000E+00
  0.00000000E+00  0.00000000E+00  0.00000000E+00
  0.00000000E+00  0.00000000E+00  0.00000000E+00
  0.00000000E+00  0.00000000E+00  0.00000000E+00
  0.00000000E+00  0.00000000E+00  0.00000000E+00
  0.00000000E+00  0.00000000E+00  0.00000000E+00
  0.00000000E+00  0.00000000E+00  0.00000000E+00
  0.00000000E+00  0.00000000E+00  0.00000000E+00
  0.00000000E+00  0.00000000E+00  0.00000000E+00
  0.00000000E+00  0.00000000E+00  0.00000000E+00
  0.00000000E+00  0.00000000E+00  0.00000000E+00
  0.00000000E+00  0.00000000E+00  0.00000000E+00
  0.00000000E+00  0.00000000E+00  0.00000000E+00
  0.00000000E+00  0.00000000E+00  0.00000000E+00
  0.00000000E+00  0.00000000E+00  0.00000000E+00
  0.00000000E+00  0.00000000E+00  0.00000000E+00
  0.00000000E+00  0.00000000E+00  0.00000000E+00
  0.00000000E+00  0.00000000E+00  0.00000000E+00
  0.00000000E+00  0.00000000E+00  0.00000000E+00
  0.00000000E+00  0.00000000E+00  0.00000000E+00
  0.00000000E+00  0.00000000E+00  0.00000000E+00
  0.00000000E+00  0.00000000E+00  0.00000000E+00
  0.00000000E+00  0.00000000E+00  0.00000000E+00
  0.00000000E+00  0.00000000E+00  0.00000000E+00
  0.00000000E+00  0.00000000E+00  0.00000000E+00
  0.00000000E+00  0.00000000E+00  0.00000000E+00
  0.00000000E+00  0.00000000E+00  0.00000000E+00
  0.00000000E+00  0.00000000E+00  0.00000000E+00
  0.00000000E+00  0.00000000E+00  0.00000000E+00
  0.00000000E+00  0.00000000E+00  0.00000000E+00
  0.00000000E+00  0.00000000E+00  0.00000000E+00
  0.00000000E+00  0.00000000E+00  0.00000000E+00
  0.00000000E+00  0.00000000E+00  0.00000000E+00
  0.00000000E+00  0.00000000E+00  0.00000000E+00
  0.00000000E+00  0.00000000E+00  0.00000000E+00
  0.00000000E+00  0.00000000E+00  0.00000000E+00
  0.00000000E+00  0.00000000E+00  0.00000000E+00
  0.00000000E+00  0.00000000E+00  0.00000000E+00
  0.00000000E+00  0.00000000E+00  0.00000000E+00
  0.00000000E+00  0.00000000E+00  0.00000000E+00
  0.00000000E+00  0.00000000E+00  0.00000000E+00
  0.00000000E+00  0.00000000E+00  0.00000000E+00
  0.00000000E+00  0.00000000E+00  0.00000000E+00
  0.00000000E+00  0.00000000E+00  0.00000000E+00
  0.00000000E+00  0.00000000E+00  0.00000000E+00
  0.00000000E+00  0.00000000E+00  0.00000000E+00
  0.00000000E+00  0.00000000E+00  0.00000000E+00
  0.00000000E+00  0.00000000E+00  0.00000000E+00
  0.00000000E+00  0.00000000E+00  0.00000000E+00
  0.00000000E+00  0.00000000E+00  0.00000000E+00
  0.00000000E+00  0.00000000E+00  0.00000000E+00
  0.00000000E+00  0.00000000E+00  0.00000000E+00
  0.00000000E+00  0.00000000E+00  0.00000000E+00
  0.00000000E+00  0.00000000E+00  0.00000000E+00
  0.00000000E+00  0.00000000E+00  0.00000000E+00
  0.00000000E+00  0.00000000E+00  0.00000000E+00
  0.00000000E+00  0.00000000E+00  0.00000000E+00
  0.00000000E+00  0.00000000E+00  0.00000000E+00
  0.00000000E+00  0.00000000E+00  0.00000000E+00
  0.00000000E+00  0.00000000E+00  0.00000000E+00
  0.00000000E+00  0.00000000E+00  0.00000000E+00
  0.00000000E+00  0.00000000E+00  0.00000000E+00
  0.00000000E+00  0.00000000E+00  0.00000000E+00
  0.00000000E+00  0.00000000E+00  0.00000000E+00
  0.00000000E+00  0.00000000E+00  0.00000000E+00
  0.00000000E+00  0.00000000E+00  0.00000000E+00
  0.00000000E+00  0.00000000E+00  0.00000000E+00
  0.00000000E+00  0.00000000E+00  0.00000000E+00
  0.00000000E+00  0.00000000E+00  0.00000000E+00
  0.00000000E+00  0.00000000E+00  0.00000000E+00
  0.00000000E+00  0.00000000E+00  0.00000000E+00
  0.00000000E+00  0.00000000E+00  0.00000000E+00
  0.00000000E+00  0.00000000E+00  0.00000000E+00
  0.00000000E+00  0.00000000E+00  0.00000000E+00
  0.00000000E+00  0.00000000E+00  0.00000000E+00
  0.00000000E+00  0.00000000E+00  0.00000000E+00
  0.00000000E+00  0.00000000E+00  0.00000000E+00
  0.00000000E+00  0.00000000E+00  0.00000000E+00
  0.00000000E+00  0.00000000E+00  0.00000000E+00
  0.00000000E+00  0.00000000E+00  0.00000000E+00
  0.00000000E+00  0.00000000E+00  0.00000000E+00
  0.00000000E+00  0.00000000E+00  0.00000000E+00
  0.00000000E+00  0.00000000E+00  0.00000000E+00
  0.00000000E+00  0.00000000E+00  0.00000000E+00
  0.00000000E+00  0.00000000E+00  0.00000000E+00
  0.00000000E+00  0.00000000E+00  0.00000000E+00
  0.00000000E+00  0.00000000E+00  0.00000000E+00
  0.00000000E+00  0.00000000E+00  0.00000000E+00
  0.00000000E+00  0.00000000E+00  0.00000000E+00
  0.00000000E+00  0.00000000E+00  0.00000000E+00
  0.00000000E+00  0.00000000E+00  0.00000000E+00
  0.00000000E+00  0.00000000E+00  0.00000000E+00
  0.00000000E+00  0.00000000E+00  0.00000000E+00
  0.00000000E+00  0.00000000E+00  0.00000000E+00
  0.00000000E+00  0.00000000E+00  0.00000000E+00
  0.00000000E+00  0.00000000E+00  0.00000000E+00
  0.00000000E+00  0.00000000E+00  0.00000000E+00
  0.00000000E+00  0.00000000E+00  0.00000000E+00
  0.00000000E+00  0.00000000E+00  0.00000000E+00
  0.00000000E+00  0.00000000E+00  0.00000000E+00
  0.00000000E+00  0.00000000E+00  0.00000000E+00
  0.00000000E+00  0.00000000E+00  0.00000000E+00
  0.00000000E+00  0.00000000E+00  0.00000000E+00
  0.00000000E+00  0.00000000E+00  0.00000000E+00
  0.00000000E+00  0.00000000E+00  0.00000000E+00
  0.00000000E+00  0.00000000E+00  0.00000000E+00
  0.00000000E+00  0.00000000E+00  0.00000000E+00
  0.00000000E+00  0.00000000E+00  0.00000000E+00
  0.00000000E+00  0.00000000E+00  0.00000000E+00
  0.00000000E+00  0.00000000E+00  0.00000000E+00
  0.00000000E+00  0.00000000E+00  0.00000000E+00
  0.00000000E+00  0.00000000E+00  0.00000000E+00
  0.00000000E+00  0.00000000E+00  0.00000000E+00
  0.00000000E+00  0.00000000E+00  0.00000000E+00
  0.00000000E+00  0.00000000E+00  0.00000000E+00
  0.00000000E+00  0.00000000E+00  0.00000000E+00