FeMn_288_15                             
    1.000000000000000     
     9.7266779999999997    0.0000000000000000    0.0000000000000000
     0.0000000000000000    8.4235500000000005    0.0000000000000000
     0.0000000000000000    0.0000000000000000   45.0000000000000000
   Fe   Mn
   273    15
Direct
  0.0624998544425478  0.0425605189194798  0.6105533258217735
  0.6881030986336276  0.6313381149930694  0.7876112820494620
  0.8123824893103864  0.0308974411665605  0.2565221122912864
  0.0627455822095171  0.2080541490773991  0.5655366190322245
  0.1876441740815978  0.7860400130040639  0.3893917132872566
  0.0618859152056397  0.3644177749543424  0.1673918528762536
  0.9374471149131803  0.6320853135522656  0.7878341674332208
  0.8118746828845919  0.3642532836010077  0.1673850399835116
  0.3127666454046019  0.2050456149708149  0.4787353129064185
  0.3117992334396581  0.8717623394211029  0.5213766146482999
  0.0623343047449784  0.0309300195493064  0.2564916011844514
  0.0619726498944244  0.7018287320102382  0.3454004761047497
  0.5620772381860376  0.3733124726532733  0.5212742929255559
  0.5621910779540958  0.0310628224644450  0.2564902414226957
  0.9372100958267826  0.4512792549522987  0.3452054846687247
  0.6876587074913769  0.7858485782293663  0.3895073117585400
  0.8126098421506617  0.0494552841787117  0.8747700599308421
  0.8134471219763677  0.6951412352460806  0.2123565574123880
  0.5621831368322410  0.8767074012237984  0.6548278842039692
  0.8123745821370193  0.3698545697992057  0.4344093586465744
  0.8121154413058385  0.5304471245670433  0.2565202063937682
  0.0618032543752593  0.7133180671838077  0.8325525682813367
  0.0632458408825010  0.0294614752840486  0.1253725144874088
  0.0629942010789315  0.5291867668221166  0.1253030794513105
  0.8121346832147911  0.3729319223139981  0.5213621688978359
  0.9376567658011101  0.1319855738731721  0.7877787743026498
  0.0622783854710789  0.5310338460100706  0.2564955193804269
  0.4378640569703791  0.6160851658369518  0.3006114848580363
  0.9376445259986309  0.4619551132669543  0.6993495780453034
  0.4366608809776840  0.1140817690515750  0.1672915932661086
  0.3127691183476068  0.3695532359040473  0.4343343697897313
  0.9373967891379299  0.9616434016971672  0.6995688120855823
  0.1874754172010648  0.1228583148941215  0.5213654758018677
  0.8127601115731727  0.8721274475652723  0.5214936339710914
  0.4373290162195125  0.4581017088066706  0.5655784625621481
  0.6879236029444593  0.1156539808592288  0.3006578695311598
  0.4374219994299281  0.9629815295341790  0.8326255563349948
  0.1866476123616583  0.2974649215579930  0.8746674391125880
  0.5618578228914851  0.2141479477672775  0.8326334762993584
  0.3127252955480126  0.8821258652986574  0.7875750408974911
  0.9372617702642239  0.7973656741211059  0.8746197585177341
  0.6872941536273243  0.2807240792713629  0.2564755597983502
  0.9380147320314544  0.2795925364494325  0.1253908326992480
  0.6868953122982193  0.1141422545552378  0.1672488514749235
  0.4376112131197793  0.7794423053032935  0.1252743978343121
  0.6876690205767865  0.4626619224853088  0.8326190229588536
  0.6873722472754458  0.2965632626116650  0.7435869099871211
  0.3121676195343099  0.8764366205104931  0.6547100983625949
  0.4373568099331155  0.7806838614830788  0.2565191272329096
  0.6868113897332812  0.9515838552043958  0.3452494016799326
  0.4368993865277235  0.6140892069588616  0.1671744959834945
  0.4371908043865160  0.1199774636664423  0.4345022309164984
  0.1880442771898078  0.7792141217681873  0.1252525478243596
  0.5628676081099798  0.0348804485183853  0.3894872052127353
  0.4375196191703282  0.1327935632593853  0.7875632094674053
  0.3124690059848977  0.3766160630812531  0.6547391534299201
  0.1871597418337475  0.9512091981897202  0.3452955764862786
  0.1880294706025424  0.2792057103638336  0.1253404584051750
  0.5615630556014160  0.2048156053557004  0.4785607721709686
  0.4378048139832998  0.2921566490711532  0.6105528172307071
  0.9373408050512894  0.4630163052549682  0.8326638414484294
  0.5630748448115651  0.0292586766780414  0.1253038918913935
  0.5620900656765149  0.2016782375352032  0.3452774288461891
  0.4379677107761285  0.2796252495436904  0.1253437797804730
  0.5623957977758957  0.5489411283171417  0.8746736807970582
  0.0622351324514501  0.8820971498656970  0.7875001178535959
  0.3128635938354279  0.0296182097108625  0.1253429436446190
  0.3123680033494853  0.2079261192507743  0.5656071374982248
  0.6873956545739406  0.9629828280612738  0.8327728128545807
  0.0624867718753229  0.7077561538195616  0.5655437010914031
  0.6869733863081550  0.7811536273342345  0.2564411528848793
  0.1878119132049827  0.2927999313358820  0.6105609416762116
  0.4376917343717954  0.1160861160059398  0.3005779713502190
  0.9375206769863293  0.7923822658090789  0.6105085848016627
  0.5627710745781738  0.8816775877708140  0.7875433627645836
  0.9368450933756738  0.9630438115978996  0.8327187582773795
  0.5628419870821193  0.5424692742796449  0.6106048609004073
  0.8121581488115326  0.5491141785848201  0.8746024355800103
  0.1876956403058263  0.7923122302226203  0.6104698120390043
  0.8125169427808585  0.5354228818909714  0.3895058874406617
  0.9385622795174893  0.7794517495920877  0.1253128159018389
  0.0623534221932213  0.8763886032254325  0.6547734944166376
  0.1874676464150657  0.1324848505096392  0.7877227913770167
  0.1877434205553223  0.2864296094596074  0.3894469054881410
  0.0628951778011706  0.3652817054781157  0.3006255320978825
  0.3119240673658105  0.0471302823917935  0.7435899048202870
  0.0629071842741207  0.2058003832642795  0.4785611306946785
  0.5631722897111556  0.8661932214783068  0.3006314351999113
  0.8125429886674354  0.3813991433735520  0.7878318567404244
  0.3122773084517177  0.5308906007377658  0.2564436180949096
  0.4373124205155227  0.2809164311505731  0.2564599705117969
  0.4376682776768597  0.2857482263467894  0.3894427424930320
  0.0625131868697128  0.3819220319769968  0.7876623233705562
  0.5626023141019270  0.7119609132977585  0.6994935608330906
  0.1876688441853128  0.6159251503574360  0.3005835311500453
  0.1870443489055999  0.1267525755073209  0.6547356757631652
  0.1876595550737278  0.7970675689800454  0.7434004751873114
  0.8133816307571491  0.1956805776749834  0.2123090096739444
  0.8122139772473832  0.7134082993395793  0.8326233187303785
  0.1884816412855099  0.4457991487272706  0.2122877187907146
  0.0624180117157273  0.5490429865668681  0.8745696501138842
  0.8127537396379187  0.2061069556312884  0.4786105645410764
  0.1864329065086753  0.4515417239215822  0.3452808551848175
  0.3120622945981332  0.3643000869405548  0.1674265883549345
  0.1870500465751378  0.4576396453006243  0.5655900869220070
  0.4377862195609402  0.7926423918398905  0.6105391200563007
  0.5621026945344821  0.3641729782065740  0.1673154707858632
  0.9370232005089809  0.2807630802374668  0.2564787153898954
  0.9374199262036956  0.9581122442274782  0.5657299474028930
  0.6882825436245577  0.4454142728551069  0.2123571839282337
  0.5618896933318559  0.7017636321253606  0.3452455668743232
  0.0619363349174766  0.7062176351524058  0.4785528449549731
  0.0621229569799961  0.8639036003949857  0.1673090314778156
  0.5633288552048527  0.3656600072852480  0.3004535444968979
  0.3135420158587223  0.1964322530125517  0.2123220387375620
  0.9379301326587759  0.9552088923702047  0.4786467033352270
  0.5629591672640747  0.5354150877803061  0.3896305690885090
  0.0622348064266838  0.5471276774300814  0.7435822166949132
  0.8121403287680209  0.2011936486391254  0.3452548479070765
  0.4371373988387299  0.1222591355389503  0.5212627975227812
  0.9370310229868672  0.6140774768351527  0.1672396541615564
  0.5625822551843110  0.3820940059927904  0.7875215639845980
  0.8122642108648884  0.8697714861033634  0.4343836064858970
  0.3125020497800096  0.7075140345971861  0.5655362194499584
  0.4369722814073436  0.6263393535273162  0.6547152377546813
  0.9377700019295812  0.7863208391798662  0.3895971325254577
  0.0624083913337897  0.5422024161339497  0.6104753784150263
  0.3125988436143826  0.5479166146861090  0.8746934332746554
  0.6881917623253281  0.9621530911677995  0.6993537352800433
  0.4375013449251167  0.6216187901006964  0.5214562850289753
  0.1884234581610555  0.6225087662029495  0.5214615150943797
  0.3123163760130883  0.0420709059361184  0.6105026641386354
  0.1871196166122417  0.2809023435672273  0.2564118066639967
  0.3121848797597643  0.5427180482001495  0.6105471604114001
  0.3119092187209442  0.7014736916082550  0.3451796321898386
  0.0626436925304059  0.0362305115004673  0.3894816946708629
  0.5631880261616312  0.6954896572825078  0.2123077936753119
  0.3124574250852012  0.2137042347465928  0.8327288804183786
  0.8126421203714280  0.2136333309494941  0.8327289200041764
  0.9370027943272832  0.7806358418028881  0.2565430923085064
  0.3132703544147072  0.8660570340686818  0.3006457156022450
  0.0625291115111852  0.0472785487389613  0.7434790996310829
  0.4376369924274744  0.6324310758276572  0.7877271531653927
  0.9370622019357970  0.2970232608579051  0.7434971195948208
  0.0619932488905761  0.8725634151193269  0.5212749926272371
  0.3118750696867004  0.7060411487638206  0.4785804998262442
  0.6876377316430793  0.1202025805956453  0.4345003446054195
  0.6876877117411684  0.2853375814572358  0.3894982662494386
  0.6872341625937016  0.4576707257137546  0.5656671759957973
  0.8129709675852705  0.7053333067486955  0.4787268080893411
  0.4385904998743452  0.2979995565431303  0.8747089326462155
  0.1881531803049731  0.9634475489521476  0.8327414120701633
  0.1881222557448584  0.1151442888528636  0.3005224633442872
  0.1870297719531161  0.1143426164580912  0.1672596744089235
  0.5625350888489413  0.2119900814850481  0.6993425285448515
  0.4371074760042946  0.1265251749054226  0.6548166084700532
  0.3123787506981124  0.3831533765530868  0.7873957783447076
  0.8122786549029937  0.0469905636614911  0.7435063950180143
  0.6870652593955632  0.6225145510728257  0.5214291876637482
  0.3125328157149144  0.7146452517393450  0.8327311901154575
  0.4380177551338870  0.9456503099248664  0.2122589717495260
  0.6879981667067807  0.7801099865289730  0.1253120607298698
  0.8125240979372867  0.8819346137080650  0.7876164206463746
  0.1868547391561900  0.6320779412480690  0.7874958009362347
  0.5619764216442149  0.7077829095071679  0.5656101199045305
  0.1873154845354633  0.9581585927020029  0.5656742627431174
  0.6870459918419516  0.6140545050886926  0.1673771225595394
  0.0628422517360966  0.2120040345056149  0.6994068580207409
  0.6877761985616978  0.1224136710057375  0.5213572294203421
  0.4376058228694139  0.9624377294346111  0.6993658946939522
  0.1878646151071640  0.9553941738109503  0.4786670299604354
  0.5622054078225983  0.7135247212250081  0.8326189770148635
  0.1867698365535065  0.7973360455667511  0.8747149470765629
  0.3118385034804520  0.0312513993466634  0.2566104307547704
  0.1871707580245587  0.4542140868051847  0.4786373616204159
  0.9370680746227530  0.9515743559145874  0.3453154551400729
  0.5623489003218577  0.5472235954699146  0.7434766436514226
  0.3123137062121326  0.0352522798273393  0.3895039743742449
  0.8123148049669098  0.5472972124312517  0.7435382930073386
  0.5618960316326709  0.5302875837014938  0.2564066455526862
  0.6877503208565598  0.2982371675266038  0.8747822330848749
  0.6876867155449855  0.4553337997936206  0.4785846987530126
  0.9369173293954819  0.4550409868370704  0.4785027032034057
  0.8126430019478941  0.2120846531365387  0.6994346036450938
  0.1876484007837468  0.4620429127477868  0.6994156418548970
  0.8120465390349377  0.8759818707816645  0.6546561398326953
  0.6870257936173514  0.6260604822312225  0.6547737227680916
  0.0627329774930810  0.2132034053791071  0.8326896195146092
  0.6870451863749336  0.7922378819799266  0.6105826298473316
  0.3124069561620045  0.8700358220199130  0.4343867904958733
  0.8118959616445068  0.8646204969487603  0.1673355573649829
  0.8133568237717891  0.3653407694098615  0.3005601904229863
  0.9374278313538715  0.4582257207991646  0.5656421191431251
  0.8128287848506117  0.0356753832341638  0.3895073838786128
  0.4383390895020722  0.4455172913120181  0.2121800535190349
  0.9372812970092820  0.6260940577951305  0.6546527429188259
  0.6873989624145052  0.6196570296578063  0.4343516959981844
  0.6881058735581466  0.2799872136279071  0.1253314014303459
  0.8119943372623751  0.7018125208425905  0.3452537634345323
  0.3117647889937161  0.8638008593352476  0.1673666559671317
  0.8131298827309038  0.5294086152357491  0.1253743097235643
  0.5635003106102647  0.1954683512480633  0.2122778868662277
  0.8129333275025277  0.5421910980235725  0.6106022508092085
  0.3127200233818889  0.7122181810143824  0.6992312509396728
  0.6883118442394727  0.7979922677542817  0.8746707568597908
  0.4374448445363547  0.2965436515363460  0.7435755892682580
  0.1869837656838571  0.4637846623019064  0.8324845468384504
  0.9381944208895494  0.1152667756577832  0.3006692989043455
  0.6873379750134782  0.1261700028684345  0.6547984023770439
  0.1869918253191505  0.6143216790927772  0.1672182940636322
  0.9376663552339141  0.2857281179900683  0.3893721681747167
  0.4377122545249045  0.9563765711228035  0.4785414199860229
  0.3131266268480211  0.5291464923120217  0.1252934350851244
  0.6877919197564524  0.1323910161088550  0.7878622826108143
  0.9374645549945100  0.1224738063337347  0.5214668577464319
  0.6864988166882379  0.9555868612215001  0.4787222307026155
  0.1884740474261126  0.9455310830415457  0.2122481567379147
  0.0627431193158816  0.7114408114774130  0.6993729405611366
  0.1873372167772087  0.1202500380393524  0.4344535990186064
  0.3121128437469136  0.2018474453430317  0.3453027587301520
  0.5630769885415078  0.7056364910547261  0.4786167114513948
  0.9372921374565627  0.1141141674568601  0.1673698345128845
  0.6873888334555653  0.2921324458055987  0.6105089925262855
  0.0630971124345032  0.6953777341429347  0.2122593865787966
  0.6868961722587758  0.7967730505771836  0.7436060496353961
  0.1873880473689900  0.9622064622883858  0.6993679894599202
  0.1872350658398462  0.6200776505965042  0.4343990628607753
  0.5631113431992947  0.5295477180463468  0.1253289380705545
  0.9374935333359607  0.2981340948407841  0.8747644157016405
  0.4372748354363360  0.6198991740444388  0.4344583955900230
  0.0627482145042457  0.5362320802531095  0.3895723622344385
  0.9367372656272401  0.6232545715189574  0.5212480905589938
  0.9384631124692523  0.4452886697701611  0.2122306214952631
  0.3125483150604698  0.2123052753545142  0.6993705670461005
  0.9372434715155128  0.1202591159781478  0.4343247506230744
  0.5622975718471868  0.2076254386943647  0.5657223499059334
  0.0626055753644716  0.8657728312022177  0.3007171861350205
  0.8121061725795662  0.3760955901480357  0.6549320389214723
  0.6875628124210107  0.4622019968270193  0.6994768636026526
  0.9375861320873410  0.6200703138887171  0.4344049816784393
  0.0618744866713893  0.2012075054552835  0.3451720301314483
  0.0632476781307849  0.3719976606448974  0.5213031133436968
  0.9374262492825665  0.1265556901470865  0.6547635528019577
  0.1871851376022992  0.2968580509189166  0.7435684275840498
  0.5622880640660862  0.3697160423331670  0.4343960497539049
  0.8130212476544799  0.0290891855359334  0.1253149626500170
  0.9377048693969317  0.7972248745132641  0.7435435730190921
  0.0616564200771677  0.0502872034375248  0.8747109247096898
  0.8121517103671391  0.2078212029986652  0.5656213577117994
  0.3137250004673515  0.6956870628939991  0.2121489431237668
  0.4370513826958778  0.4518669434875566  0.3453351799238037
  0.5631612288277992  0.8720172469611651  0.5213905888383359
  0.4376590985589367  0.4621117281775315  0.6992897104424329
  0.0622586777055674  0.3700467131552194  0.4343773775282542
  0.9379661019089005  0.6160973393741519  0.3006039303990991
  0.8129771115267688  0.8659725752147794  0.3006290871655394
  0.4370003559720720  0.4640643163724403  0.8326957583762987
  0.4371368211496814  0.7971144456581313  0.7435283913738472
  0.4367172088877698  0.9516769134572757  0.3453473518817054
  0.0631746772108935  0.1961539106353254  0.2123232754149754
  0.3122970720056873  0.3726470559529897  0.5213679305126616
  0.5618590854691599  0.3763928635169966  0.6545791737209889
  0.3120349082863355  0.5465738065333932  0.7435245621772921
  0.1874309679114415  0.6266040124233703  0.6547473025118183
  0.6882159399523705  0.6157228706013086  0.3006518929864353
  0.5624969448477769  0.8695512588269221  0.4345194852428761
  0.4368679551197687  0.9579740978951121  0.5656795508043055
  0.4382447738816431  0.4546132188919897  0.4787438633922935
  0.5643903039274771  0.0500259772720500  0.8745829021971059
  0.0623535375784828  0.3766841596864026  0.6547518489757469
  0.9389761176241522  0.9454571159581743  0.2123491122234189
  0.8131605814416112  0.0420592981354407  0.6104550993038044
  0.5619961774609982  0.8645597724545079  0.1672992627608866
  0.4379370681139227  0.7861067190243816  0.3894201403275146
  0.3114975857615275  0.0501398441472767  0.8745138476179172
  0.6884894905070141  0.9451685927640642  0.2125736001496287
  0.1869248034720555  0.7810007882929946  0.2564672226786772
  0.3126569745474336  0.5354217439836954  0.3893027175122021
  0.5619341575287937  0.0420562712456572  0.6108428501810933
  0.8128609732504192  0.7115228803683206  0.6993173487488424
  0.0619795074523264  0.8699649156791749  0.4344437009087798
  0.6872651123441874  0.4518785560651933  0.3452926597884993
  0.4375233778810678  0.7966508769757030  0.8745203222877577
  0.9375540904205867  0.2926199973842054  0.6107294712280954
  0.8129682144471361  0.7071306050105013  0.5655934628201688
  0.3129612598771808  0.3657557248316474  0.3005774001028924
  0.6875481697048953  0.9584731711556053  0.5654715519542317
  0.5622073600892222  0.0468741064683454  0.7435048889944476
 
  0.00000000E+00  0.00000000E+00  0.00000000E+00
  0.00000000E+00  0.00000000E+00  0.00000000E+00
  0.00000000E+00  0.00000000E+00  0.00000000E+00
  0.00000000E+00  0.00000000E+00  0.00000000E+00
  0.00000000E+00  0.00000000E+00  0.00000000E+00
  0.00000000E+00  0.00000000E+00  0.00000000E+00
  0.00000000E+00  0.00000000E+00  0.00000000E+00
  0.00000000E+00  0.00000000E+00  0.00000000E+00
  0.00000000E+00  0.00000000E+00  0.00000000E+00
  0.00000000E+00  0.00000000E+00  0.00000000E+00
  0.00000000E+00  0.00000000E+00  0.00000000E+00
  0.00000000E+00  0.00000000E+00  0.00000000E+00
  0.00000000E+00  0.00000000E+00  0.00000000E+00
  0.00000000E+00  0.00000000E+00  0.00000000E+00
  0.00000000E+00  0.00000000E+00  0.00000000E+00
  0.00000000E+00  0.00000000E+00  0.00000000E+00
  0.00000000E+00  0.00000000E+00  0.00000000E+00
  0.00000000E+00  0.00000000E+00  0.00000000E+00
  0.00000000E+00  0.00000000E+00  0.00000000E+00
  0.00000000E+00  0.00000000E+00  0.00000000E+00
  0.00000000E+00  0.00000000E+00  0.00000000E+00
  0.00000000E+00  0.00000000E+00  0.00000000E+00
  0.00000000E+00  0.00000000E+00  0.00000000E+00
  0.00000000E+00  0.00000000E+00  0.00000000E+00
  0.00000000E+00  0.00000000E+00  0.00000000E+00
  0.00000000E+00  0.00000000E+00  0.00000000E+00
  0.00000000E+00  0.00000000E+00  0.00000000E+00
  0.00000000E+00  0.00000000E+00  0.00000000E+00
  0.00000000E+00  0.00000000E+00  0.00000000E+00
  0.00000000E+00  0.00000000E+00  0.00000000E+00
  0.00000000E+00  0.00000000E+00  0.00000000E+00
  0.00000000E+00  0.00000000E+00  0.00000000E+00
  0.00000000E+00  0.00000000E+00  0.00000000E+00
  0.00000000E+00  0.00000000E+00  0.00000000E+00
  0.00000000E+00  0.00000000E+00  0.00000000E+00
  0.00000000E+00  0.00000000E+00  0.00000000E+00
  0.00000000E+00  0.00000000E+00  0.00000000E+00
  0.00000000E+00  0.00000000E+00  0.00000000E+00
  0.00000000E+00  0.00000000E+00  0.00000000E+00
  0.00000000E+00  0.00000000E+00  0.00000000E+00
  0.00000000E+00  0.00000000E+00  0.00000000E+00
  0.00000000E+00  0.00000000E+00  0.00000000E+00
  0.00000000E+00  0.00000000E+00  0.00000000E+00
  0.00000000E+00  0.00000000E+00  0.00000000E+00
  0.00000000E+00  0.00000000E+00  0.00000000E+00
  0.00000000E+00  0.00000000E+00  0.00000000E+00
  0.00000000E+00  0.00000000E+00  0.00000000E+00
  0.00000000E+00  0.00000000E+00  0.00000000E+00
  0.00000000E+00  0.00000000E+00  0.00000000E+00
  0.00000000E+00  0.00000000E+00  0.00000000E+00
  0.00000000E+00  0.00000000E+00  0.00000000E+00
  0.00000000E+00  0.00000000E+00  0.00000000E+00
  0.00000000E+00  0.00000000E+00  0.00000000E+00
  0.00000000E+00  0.00000000E+00  0.00000000E+00
  0.00000000E+00  0.00000000E+00  0.00000000E+00
  0.00000000E+00  0.00000000E+00  0.00000000E+00
  0.00000000E+00  0.00000000E+00  0.00000000E+00
  0.00000000E+00  0.00000000E+00  0.00000000E+00
  0.00000000E+00  0.00000000E+00  0.00000000E+00
  0.00000000E+00  0.00000000E+00  0.00000000E+00
  0.00000000E+00  0.00000000E+00  0.00000000E+00
  0.00000000E+00  0.00000000E+00  0.00000000E+00
  0.00000000E+00  0.00000000E+00  0.00000000E+00
  0.00000000E+00  0.00000000E+00  0.00000000E+00
  0.00000000E+00  0.00000000E+00  0.00000000E+00
  0.00000000E+00  0.00000000E+00  0.00000000E+00
  0.00000000E+00  0.00000000E+00  0.00000000E+00
  0.00000000E+00  0.00000000E+00  0.00000000E+00
  0.00000000E+00  0.00000000E+00  0.00000000E+00
  0.00000000E+00  0.00000000E+00  0.00000000E+00
  0.00000000E+00  0.00000000E+00  0.00000000E+00
  0.00000000E+00  0.00000000E+00  0.00000000E+00
  0.00000000E+00  0.00000000E+00  0.00000000E+00
  0.00000000E+00  0.00000000E+00  0.00000000E+00
  0.00000000E+00  0.00000000E+00  0.00000000E+00
  0.00000000E+00  0.00000000E+00  0.00000000E+00
  0.00000000E+00  0.00000000E+00  0.00000000E+00
  0.00000000E+00  0.00000000E+00  0.00000000E+00
  0.00000000E+00  0.00000000E+00  0.00000000E+00
  0.00000000E+00  0.00000000E+00  0.00000000E+00
  0.00000000E+00  0.00000000E+00  0.00000000E+00
  0.00000000E+00  0.00000000E+00  0.00000000E+00
  0.00000000E+00  0.00000000E+00  0.00000000E+00
  0.00000000E+00  0.00000000E+00  0.00000000E+00
  0.00000000E+00  0.00000000E+00  0.00000000E+00
  0.00000000E+00  0.00000000E+00  0.00000000E+00
  0.00000000E+00  0.00000000E+00  0.00000000E+00
  0.00000000E+00  0.00000000E+00  0.00000000E+00
  0.00000000E+00  0.00000000E+00  0.00000000E+00
  0.00000000E+00  0.00000000E+00  0.00000000E+00
  0.00000000E+00  0.00000000E+00  0.00000000E+00
  0.00000000E+00  0.00000000E+00  0.00000000E+00
  0.00000000E+00  0.00000000E+00  0.00000000E+00
  0.00000000E+00  0.00000000E+00  0.00000000E+00
  0.00000000E+00  0.00000000E+00  0.00000000E+00
  0.00000000E+00  0.00000000E+00  0.00000000E+00
  0.00000000E+00  0.00000000E+00  0.00000000E+00
  0.00000000E+00  0.00000000E+00  0.00000000E+00
  0.00000000E+00  0.00000000E+00  0.00000000E+00
  0.00000000E+00  0.00000000E+00  0.00000000E+00
  0.00000000E+00  0.00000000E+00  0.00000000E+00
  0.00000000E+00  0.00000000E+00  0.00000000E+00
  0.00000000E+00  0.00000000E+00  0.00000000E+00
  0.00000000E+00  0.00000000E+00  0.00000000E+00
  0.00000000E+00  0.00000000E+00  0.00000000E+00
  0.00000000E+00  0.00000000E+00  0.00000000E+00
  0.00000000E+00  0.00000000E+00  0.00000000E+00
  0.00000000E+00  0.00000000E+00  0.00000000E+00
  0.00000000E+00  0.00000000E+00  0.00000000E+00
  0.00000000E+00  0.00000000E+00  0.00000000E+00
  0.00000000E+00  0.00000000E+00  0.00000000E+00
  0.00000000E+00  0.00000000E+00  0.00000000E+00
  0.00000000E+00  0.00000000E+00  0.00000000E+00
  0.00000000E+00  0.00000000E+00  0.00000000E+00
  0.00000000E+00  0.00000000E+00  0.00000000E+00
  0.00000000E+00  0.00000000E+00  0.00000000E+00
  0.00000000E+00  0.00000000E+00  0.00000000E+00
  0.00000000E+00  0.00000000E+00  0.00000000E+00
  0.00000000E+00  0.00000000E+00  0.00000000E+00
  0.00000000E+00  0.00000000E+00  0.00000000E+00
  0.00000000E+00  0.00000000E+00  0.00000000E+00
  0.00000000E+00  0.00000000E+00  0.00000000E+00
  0.00000000E+00  0.00000000E+00  0.00000000E+00
  0.00000000E+00  0.00000000E+00  0.00000000E+00
  0.00000000E+00  0.00000000E+00  0.00000000E+00
  0.00000000E+00  0.00000000E+00  0.00000000E+00
  0.00000000E+00  0.00000000E+00  0.00000000E+00
  0.00000000E+00  0.00000000E+00  0.00000000E+00
  0.00000000E+00  0.00000000E+00  0.00000000E+00
  0.00000000E+00  0.00000000E+00  0.00000000E+00
  0.00000000E+00  0.00000000E+00  0.00000000E+00
  0.00000000E+00  0.00000000E+00  0.00000000E+00
  0.00000000E+00  0.00000000E+00  0.00000000E+00
  0.00000000E+00  0.00000000E+00  0.00000000E+00
  0.00000000E+00  0.00000000E+00  0.00000000E+00
  0.00000000E+00  0.00000000E+00  0.00000000E+00
  0.00000000E+00  0.00000000E+00  0.00000000E+00
  0.00000000E+00  0.00000000E+00  0.00000000E+00
  0.00000000E+00  0.00000000E+00  0.00000000E+00
  0.00000000E+00  0.00000000E+00  0.00000000E+00
  0.00000000E+00  0.00000000E+00  0.00000000E+00
  0.00000000E+00  0.00000000E+00  0.00000000E+00
  0.00000000E+00  0.00000000E+00  0.00000000E+00
  0.00000000E+00  0.00000000E+00  0.00000000E+00
  0.00000000E+00  0.00000000E+00  0.00000000E+00
  0.00000000E+00  0.00000000E+00  0.00000000E+00
  0.00000000E+00  0.00000000E+00  0.00000000E+00
  0.00000000E+00  0.00000000E+00  0.00000000E+00
  0.00000000E+00  0.00000000E+00  0.00000000E+00
  0.00000000E+00  0.00000000E+00  0.00000000E+00
  0.00000000E+00  0.00000000E+00  0.00000000E+00
  0.00000000E+00  0.00000000E+00  0.00000000E+00
  0.00000000E+00  0.00000000E+00  0.00000000E+00
  0.00000000E+00  0.00000000E+00  0.00000000E+00
  0.00000000E+00  0.00000000E+00  0.00000000E+00
  0.00000000E+00  0.00000000E+00  0.00000000E+00
  0.00000000E+00  0.00000000E+00  0.00000000E+00
  0.00000000E+00  0.00000000E+00  0.00000000E+00
  0.00000000E+00  0.00000000E+00  0.00000000E+00
  0.00000000E+00  0.00000000E+00  0.00000000E+00
  0.00000000E+00  0.00000000E+00  0.00000000E+00
  0.00000000E+00  0.00000000E+00  0.00000000E+00
  0.00000000E+00  0.00000000E+00  0.00000000E+00
  0.00000000E+00  0.00000000E+00  0.00000000E+00
  0.00000000E+00  0.00000000E+00  0.00000000E+00
  0.00000000E+00  0.00000000E+00  0.00000000E+00
  0.00000000E+00  0.00000000E+00  0.00000000E+00
  0.00000000E+00  0.00000000E+00  0.00000000E+00
  0.00000000E+00  0.00000000E+00  0.00000000E+00
  0.00000000E+00  0.00000000E+00  0.00000000E+00
  0.00000000E+00  0.00000000E+00  0.00000000E+00
  0.00000000E+00  0.00000000E+00  0.00000000E+00
  0.00000000E+00  0.00000000E+00  0.00000000E+00
  0.00000000E+00  0.00000000E+00  0.00000000E+00
  0.00000000E+00  0.00000000E+00  0.00000000E+00
  0.00000000E+00  0.00000000E+00  0.00000000E+00
  0.00000000E+00  0.00000000E+00  0.00000000E+00
  0.00000000E+00  0.00000000E+00  0.00000000E+00
  0.00000000E+00  0.00000000E+00  0.00000000E+00
  0.00000000E+00  0.00000000E+00  0.00000000E+00
  0.00000000E+00  0.00000000E+00  0.00000000E+00
  0.00000000E+00  0.00000000E+00  0.00000000E+00
  0.00000000E+00  0.00000000E+00  0.00000000E+00
  0.00000000E+00  0.00000000E+00  0.00000000E+00
  0.00000000E+00  0.00000000E+00  0.00000000E+00
  0.00000000E+00  0.00000000E+00  0.00000000E+00
  0.00000000E+00  0.00000000E+00  0.00000000E+00
  0.00000000E+00  0.00000000E+00  0.00000000E+00
  0.00000000E+00  0.00000000E+00  0.00000000E+00
  0.00000000E+00  0.00000000E+00  0.00000000E+00
  0.00000000E+00  0.00000000E+00  0.00000000E+00
  0.00000000E+00  0.00000000E+00  0.00000000E+00
  0.00000000E+00  0.00000000E+00  0.00000000E+00
  0.00000000E+00  0.00000000E+00  0.00000000E+00
  0.00000000E+00  0.00000000E+00  0.00000000E+00
  0.00000000E+00  0.00000000E+00  0.00000000E+00
  0.00000000E+00  0.00000000E+00  0.00000000E+00
  0.00000000E+00  0.00000000E+00  0.00000000E+00
  0.00000000E+00  0.00000000E+00  0.00000000E+00
  0.00000000E+00  0.00000000E+00  0.00000000E+00
  0.00000000E+00  0.00000000E+00  0.00000000E+00
  0.00000000E+00  0.00000000E+00  0.00000000E+00
  0.00000000E+00  0.00000000E+00  0.00000000E+00
  0.00000000E+00  0.00000000E+00  0.00000000E+00
  0.00000000E+00  0.00000000E+00  0.00000000E+00
  0.00000000E+00  0.00000000E+00  0.00000000E+00
  0.00000000E+00  0.00000000E+00  0.00000000E+00
  0.00000000E+00  0.00000000E+00  0.00000000E+00
  0.00000000E+00  0.00000000E+00  0.00000000E+00
  0.00000000E+00  0.00000000E+00  0.00000000E+00
  0.00000000E+00  0.00000000E+00  0.00000000E+00
  0.00000000E+00  0.00000000E+00  0.00000000E+00
  0.00000000E+00  0.00000000E+00  0.00000000E+00
  0.00000000E+00  0.00000000E+00  0.00000000E+00
  0.00000000E+00  0.00000000E+00  0.00000000E+00
  0.00000000E+00  0.00000000E+00  0.00000000E+00
  0.00000000E+00  0.00000000E+00  0.00000000E+00
  0.00000000E+00  0.00000000E+00  0.00000000E+00
  0.00000000E+00  0.00000000E+00  0.00000000E+00
  0.00000000E+00  0.00000000E+00  0.00000000E+00
  0.00000000E+00  0.00000000E+00  0.00000000E+00
  0.00000000E+00  0.00000000E+00  0.00000000E+00
  0.00000000E+00  0.00000000E+00  0.00000000E+00
  0.00000000E+00  0.00000000E+00  0.00000000E+00
  0.00000000E+00  0.00000000E+00  0.00000000E+00
  0.00000000E+00  0.00000000E+00  0.00000000E+00
  0.00000000E+00  0.00000000E+00  0.00000000E+00
  0.00000000E+00  0.00000000E+00  0.00000000E+00
  0.00000000E+00  0.00000000E+00  0.00000000E+00
  0.00000000E+00  0.00000000E+00  0.00000000E+00
  0.00000000E+00  0.00000000E+00  0.00000000E+00
  0.00000000E+00  0.00000000E+00  0.00000000E+00
  0.00000000E+00  0.00000000E+00  0.00000000E+00
  0.00000000E+00  0.00000000E+00  0.00000000E+00
  0.00000000E+00  0.00000000E+00  0.00000000E+00
  0.00000000E+00  0.00000000E+00  0.00000000E+00
  0.00000000E+00  0.00000000E+00  0.00000000E+00
  0.00000000E+00  0.00000000E+00  0.00000000E+00
  0.00000000E+00  0.00000000E+00  0.00000000E+00
  0.00000000E+00  0.00000000E+00  0.00000000E+00
  0.00000000E+00  0.00000000E+00  0.00000000E+00
  0.00000000E+00  0.00000000E+00  0.00000000E+00
  0.00000000E+00  0.00000000E+00  0.00000000E+00
  0.00000000E+00  0.00000000E+00  0.00000000E+00
  0.00000000E+00  0.00000000E+00  0.00000000E+00
  0.00000000E+00  0.00000000E+00  0.00000000E+00
  0.00000000E+00  0.00000000E+00  0.00000000E+00