CuInSe2gb                               
   1.00000000000000     
     9.7266780392896699    0.0000000000000000    0.0000000000000000
     0.0000000000000000    8.4235502764570693    0.0000000000000000
     0.0000000000000000    0.0000000000000000   45.0000000000000000
   Fe   Mn
   274    14
Direct
  0.0619015022827882  0.0301514714534983  0.1240900027134648
  0.3162819593006564  0.8747980705498104  0.6551274043045365
  0.1837316113053656  0.1232260159198663  0.7886132103138502
  0.4414888552519246  0.2875914133547260  0.3890934702823957
  0.3180962567982543  0.7139032175236264  0.8332181504094145
  0.8179746627437616  0.2149082331452570  0.8337016327369330
  0.1916222966287454  0.9632694227396452  0.8335978934196840
  0.5621949199502229  0.2070979038437051  0.5654884568981550
  0.0656979870283435  0.0404420141744789  0.7442355864328126
  0.8115638897439555  0.8715993819042561  0.5213369857308571
  0.1903213894476245  0.2909677296986232  0.7443542501510357
  0.9335990485369743  0.4523474678630047  0.3448591073673857
  0.9410544905427857  0.2865633742387706  0.3889397827686435
  0.8128370176635704  0.0407483173021082  0.8757885280839439
  0.1840000247537303  0.7881733067422982  0.6109688270509440
  0.5664764311029534  0.0378380154361611  0.3890496701773736
  0.9426085406220744  0.9647366949585932  0.8339406260517835
  0.3127095523239225  0.5408361637802045  0.8760823034110848
  0.6901853253268542  0.2914898849678451  0.7442560217107561
  0.1818739880128899  0.6135430499316586  0.1665599284660775
  0.8121414108581748  0.2059340325798173  0.4786776373874337
  0.8090135931235372  0.5385276576961809  0.6110814901590024
  0.3119040977375374  0.8707531319968124  0.4344365048963711
  0.8096828158113725  0.0372523811060595  0.2559965344730472
  0.6831625611556813  0.9516341102819441  0.3446571567245766
  0.9321147101272877  0.1135627787700681  0.1669649233262613
  0.0618610406740028  0.8719481942085724  0.5213621904978863
  0.5579567189268213  0.5377267302199384  0.2556077969991226
  0.6842620178632309  0.7979032801333352  0.8759270750787382
  0.5558903751315518  0.3651930309549515  0.1666115272911249
  0.4395056098644151  0.7917889055867315  0.7444677645184831
  0.8114337840416997  0.7066074329097359  0.5654863053285867
  0.5592476483404472  0.8737055966918380  0.7887186713970917
  0.6867996927602878  0.1218988645568930  0.5213542567217503
  0.8161528179910384  0.3746044706252861  0.6549723677996646
  0.9421244687317746  0.4643832768907630  0.8337834427396618
  0.0610219209889036  0.2076414188876035  0.6997697383675685
  0.4352252130846448  0.9576416848352537  0.6996735792027710
  0.3171553616458209  0.2131409213315542  0.8334730893744429
  0.4409476004299687  0.6245370211057736  0.6549334516535182
  0.3090424227757063  0.5382998714190416  0.6109670140085623
  0.9365166234257095  0.4568545679776104  0.5655407694886062
  0.6898690409784599  0.7915872539385624  0.7444136135413263
  0.9339549970818488  0.7878430973936908  0.1244200356413600
  0.6920341373551843  0.7879564258406174  0.3890376247627009
  0.9396762435783008  0.7913750466016347  0.7446764412690829
  0.0588617438223232  0.2029077380900806  0.3449762324470316
  0.6837994181795091  0.4523860510560725  0.3449838769274242
  0.4338053803297718  0.1225692939586714  0.7889434212874443
  0.0655118384783930  0.2036243496697288  0.2109779936165999
  0.0556429226523167  0.3652764774238301  0.1666734910626191
  0.9332838760115274  0.7869844712427865  0.2556260367398092
  0.5608900078992970  0.2072763753866141  0.6998421853188879
  0.6852827074828823  0.9572702725399861  0.6998284167985163
  0.8087652737137625  0.8739405996714001  0.7884672056547573
  0.4371374281954985  0.9573789942443441  0.5653850332167765
  0.8086441689587581  0.3749457715508971  0.7885168148569602
  0.6836317651644901  0.2875109808081586  0.2558329931027341
  0.1872027877699224  0.4570640168215233  0.5655054599071114
  0.0559286957492283  0.8645762079487519  0.1666375527383599
  0.1840024273600148  0.2886048964389425  0.6110215555178911
  0.0621720135308206  0.2073797731891863  0.5653573171775156
  0.3108644450615428  0.2073842210851276  0.6998736856918663
  0.5623014030805538  0.5407646935860622  0.8759876983834354
  0.0626744309094471  0.7071270382887644  0.5655218845202126
  0.6825697963022477  0.6226099323481570  0.7886589592411564
  0.3158079782874517  0.5381841351141720  0.3889198345114651
  0.1868712055935121  0.6214637354180703  0.5214991470842087
  0.5623185233669576  0.8705716390277862  0.4344409289112533
  0.4367588312877197  0.4569021207989749  0.5655630647167683
  0.4399321216016661  0.2916221282125459  0.7442952666739731
  0.8209525584663462  0.8739123936032864  0.3002340817713381
  0.8084527106248283  0.7024534859765647  0.3449106032738716
  0.4421236200776797  0.4627474125337668  0.8333889681154162
  0.6874903290551895  0.9559451616754641  0.4786551881391237
  0.6854228427043690  0.4574579934046017  0.6997581638516833
  0.5622326428535610  0.8721586698748444  0.5213905473916194
  0.5658468564439911  0.3741581728915545  0.6550340181653541
  0.8058202192467949  0.3654178311094203  0.1668331506428436
  0.8117876492848674  0.3717270454094960  0.4342173880856878
  0.8086959903542082  0.5370958682549337  0.2559057046630192
  0.6918930099116465  0.4621129160372081  0.8333426012378470
  0.1858396187264264  0.7884020099910172  0.1240327476621627
  0.6911606112874696  0.2873316947407906  0.3890628126642651
  0.3160934011234187  0.3743774495856803  0.6549472679025338
  0.3088335188955133  0.2027086128857382  0.3446766029099605
  0.8155147152557469  0.5405452954986467  0.7443801384384234
  0.6916879227193273  0.9622084591402684  0.8334997399265257
  0.5663316522625698  0.8748040371576243  0.6549600965854664
  0.3116233298934584  0.7071936066896070  0.5655029866879693
  0.3125766408756699  0.5296080093533142  0.1238523981187464
  0.6893445221635083  0.9545470477309560  0.2117660101828635
  0.3114648079995049  0.2065979802237735  0.5655445165716646
  0.1875246294041994  0.9558273288587416  0.4786475113090101
  0.6872269558113604  0.9570259851242642  0.5655109974491793
  0.4336488673040315  0.7882141936464373  0.6109772860314377
  0.6821878291813236  0.6131036078311120  0.1664691391737834
  0.3190912099636997  0.8736854376968026  0.3001223872508963
  0.3121472175938572  0.7059663780643302  0.4786160318161746
  0.9336859370516225  0.2883196825877015  0.6108342754625085
  0.4462326309006767  0.6235898074053735  0.3001180245698652
  0.8071493304004971  0.8636061613863261  0.1667973799119176
  0.5664124871932333  0.2028424592369026  0.2114376481102307
  0.9323239781457541  0.6133459594258404  0.1667288044389663
  0.4372962410882024  0.9558467197184425  0.4786665553609699
  0.5584930675420147  0.3735145810770886  0.7887982730153970
  0.0614718821567005  0.3724137673580463  0.5213766408797905
  0.3072126436331603  0.3646669945231572  0.1665665856646682
  0.6953688693790708  0.1231489134949805  0.3003050197373985
  0.4428275428209567  0.9632727156094648  0.8333522773298103
  0.1838544338099733  0.2867076532758456  0.1239972324579758
  0.1837280025474428  0.2872645289304481  0.2557974851615987
  0.3124371348899221  0.3705068982307468  0.4344514443415896
  0.5634422310932664  0.0328137631323007  0.1242771392023164
  0.4340990332130034  0.2882706894856642  0.6110027062574209
  0.1837004616688533  0.4525000876888847  0.3449090670418894
  0.4358146021722584  0.2870327903999393  0.1240043026355634
  0.6838163880522049  0.7874360248693322  0.2558407005933522
  0.4367012986330153  0.1218511932011884  0.5214066914223944
  0.1882650371111305  0.2969021373432523  0.8761464502822557
  0.1910386337678691  0.1249890144633504  0.6550476590656558
  0.9412020166585549  0.1242310488990756  0.6549383163452323
  0.8160863652052137  0.5377367079392644  0.3889053311800247
  0.0667376682429529  0.0381692718570153  0.3891679469343970
  0.1828177327600058  0.1119203989309857  0.1665012461053365
  0.0589413690664017  0.5380189749090734  0.6109767672214302
  0.9339525267428774  0.2871356304269631  0.2558529645076700
  0.5586028399317423  0.5380627105698746  0.6108950373783263
  0.9368513753885676  0.9571957187458090  0.5655068601272446
  0.6949187519710001  0.6232282937340096  0.3001283073270883
  0.9374538876331308  0.6206633774162983  0.4344757911895601
  0.9332917448775229  0.6242919134991555  0.7884785898947453
  0.5609575538557383  0.7074618247183094  0.6997698534298580
  0.0658860608744507  0.7167520475406143  0.8339816553576104
  0.9453004682783089  0.1224139804722582  0.3000823271243406
  0.9336911679115202  0.7877868070827257  0.6109564807749984
  0.4327092757795903  0.7876214222240675  0.2556199484991197
  0.3087989761428113  0.3740970151814181  0.7887631660752343
  0.4397177208655478  0.4537859538739107  0.2113471817939866
  0.1868631477592081  0.1220145512689308  0.5213665696651619
  0.8105128190608883  0.7078491477134828  0.6997421525300471
  0.0586564614429428  0.0381081156605969  0.6108986974397945
  0.5661062195285220  0.2136133202591642  0.8332307534471424
  0.3117636763570782  0.8718765867964537  0.5213922564784723
  0.6868006873895021  0.2853772806401963  0.1241574846111249
  0.1903961857073433  0.9543686578537366  0.2116340182201027
  0.6840060374953940  0.2886914096235509  0.6110533244161487
  0.3087631023876843  0.0383462361029792  0.6110220028202475
  0.9338040446719935  0.1246255224307521  0.7886173454658287
  0.4363811472300723  0.7978597130880245  0.8761771727306790
  0.8155223405605003  0.0407678361149683  0.7442082048711688
  0.9356132557318176  0.4579717550679936  0.6997205827986696
  0.1910244741277786  0.6249238245162457  0.6550856279383019
  0.3108535586787632  0.7069623912158112  0.6997920147995501
  0.9357945265589536  0.2865955707229431  0.1239346261284694
  0.4373642946362348  0.4560033928646143  0.4785675599416139
  0.0622992762268351  0.7059351395566807  0.4784994879152795
  0.9369598326512986  0.1199913673171327  0.4345246905102765
  0.4445082165719082  0.1230521777602417  0.3004737690433255
  0.1874716964047722  0.1204504891035023  0.4342192353441025
  0.5625928070468027  0.0405976728859513  0.8760260386931659
  0.1869796005668813  0.9570446696869359  0.5654528881513465
  0.6848582389765978  0.7880570934180651  0.1243312959669982
  0.5588339752751826  0.7021919293218540  0.3449022471001174
  0.3165346684990587  0.0371358905818278  0.3889087221001531
  0.6820570972848371  0.1137735392087843  0.1669177202393146
  0.8159002482049085  0.2034888461401396  0.2111093541641389
  0.0593832932681678  0.5371847987269704  0.2557106198073328
  0.5624629150573909  0.7058878285043880  0.4786530878144897
  0.4356291408970824  0.7873887265364925  0.1241396666244558
  0.5697179273080755  0.3717067838046747  0.3000577467159420
  0.4335772402217865  0.9524568363481368  0.3448892092536021
  0.1857246778745220  0.9573513210351574  0.6997624826394310
  0.4312330611899530  0.6122566667270619  0.1658318764523266
  0.9399620533335346  0.4534130576095384  0.2114848061503451
  0.0615931455168107  0.5290795509005199  0.1240178478461247
  0.8118779306674306  0.3720419298819463  0.5213717381563828
  0.9450179488549530  0.6228136478163464  0.2998711576073019
  0.3089178299948595  0.0370818244516408  0.2554493996079404
  0.6838429249571290  0.7881737058608418  0.6109032026521702
  0.1916547068667699  0.4632910624490854  0.8335200026764715
  0.4328753100580454  0.1120102702372443  0.1664980629953201
  0.3117192336426605  0.3719868466938751  0.5213693355982049
  0.4332699772264331  0.6228075062379906  0.7888959981232305
  0.0589425619819577  0.0372114203767148  0.2558211907146920
  0.5618725645041703  0.7071567133419562  0.5655134538255255
  0.9398614333676452  0.2908029967056258  0.7445438976031621
  0.6824055005136199  0.1227379937321614  0.7885513983940171
  0.1906122033882213  0.4529426902539344  0.2110700599182599
  0.9411833413816185  0.7874261528723457  0.3889514713119773
  0.6855046363600485  0.2986861066268230  0.8760467522509414
  0.5566756966773525  0.8623222982582517  0.1665040981069934
  0.4357777248285027  0.4576333658038221  0.6997766436477166
  0.9338173091163006  0.9511637825349161  0.3447300035470768
  0.6867185716898419  0.6214776721113729  0.5213437381469008
  0.0662723218473318  0.8747433734815420  0.6549572792941616
  0.0589783077859592  0.8741918777273467  0.7884872818249289
  0.0662213877795013  0.3746075737004320  0.6550888094551065
  0.6871016198292494  0.4559432575016617  0.4786323297599784
  0.1837519260468773  0.7871272400052848  0.2554822038288438
  0.4368879621726252  0.1209452016218149  0.4342905667979986
  0.8132335035517234  0.0309982709393277  0.1241840801575269
  0.9367902927906936  0.6219517060950559  0.5213856547319247
  0.4412704760205404  0.1246321616534839  0.6549279621383496
  0.8135071298729998  0.5294366553874877  0.1240453868874347
  0.4336541163078210  0.4524618554305507  0.3449421529778959
  0.8091040819804156  0.2026190258662163  0.3450316893848430
  0.3088767815766719  0.7019120098098736  0.3448659128457991
  0.6911474860844312  0.1248749198249215  0.6550068561005999
  0.5704223347573789  0.8730700911849909  0.3002918388574982
  0.0653408375557551  0.5410739683281515  0.7443406402673955
  0.9410651504773041  0.9538781905579002  0.2113456342785604
  0.8163671082632512  0.7036243356121968  0.2115015977597874
  0.0701066053206600  0.8733580780916745  0.3003217183764108
  0.1949536472498526  0.1236378511814018  0.3001892938558549
  0.0585107574321518  0.7020299423850713  0.3449114717854700
  0.8089882575040047  0.0382399578589326  0.6110412640454207
  0.0627973925289013  0.3719343400205303  0.4343051810340715
  0.5589609355562060  0.2025897871810938  0.3447804147641394
  0.8200429587312190  0.3727651435856523  0.2999867079492705
  0.5600794640437226  0.0374324130415034  0.2554747308660593
  0.5664659557775740  0.5375597185803551  0.3890431096486203
  0.0625627657132509  0.2058122253302714  0.4786603380935902
  0.3101752492033801  0.8731803309770729  0.7884303916955553
  0.9354717546722369  0.9577707538181518  0.6997057658467505
  0.0695372657798647  0.3741763338637195  0.2999855017032320
  0.6915167607403753  0.6250951178189817  0.6552397102907449
  0.6867989001317851  0.4571726545322617  0.5653384878482449
  0.4416817928061768  0.9555753199276514  0.2120292266682736
  0.3124382164103187  0.2057941573646023  0.4787368605538447
  0.8121404167689992  0.5404717124082388  0.8758774026657676
  0.6878774375488970  0.6206143101171471  0.4344335982413243
  0.8108574262686149  0.2073787818866914  0.6998099302154721
  0.8123721846940439  0.7059483245840970  0.4786159174361689
  0.8116794293722089  0.8714532367263205  0.4342305423369048
  0.9373443658342155  0.9554863995137198  0.4786983712998731
  0.5622390787442532  0.2055993011864782  0.4786576288742243
  0.1873165418876803  0.6200362300000540  0.4344605558563685
  0.3150086807050970  0.0418722459177527  0.7441139694757898
  0.9410176135082413  0.6252779465474375  0.6550297548664981
  0.5661535942155975  0.7137085642568520  0.8333457455805036
  0.3201341425904319  0.3721367338684133  0.3001115815563922
  0.3151925896822077  0.5414532239911612  0.7442724408029822
  0.1872036630286714  0.4557295466347556  0.4786704943255235
  0.3141798688598964  0.0411603610444684  0.8758954794554158
  0.1851815625931336  0.4578336692577555  0.6997022110537225
  0.5617554501379012  0.3719335975858207  0.5213732492724663
  0.1911828427757388  0.2875023789015381  0.3888870519273844
  0.3153796923898208  0.2039116242630750  0.2111065686183144
  0.0672610451561359  0.7036293644378158  0.2112553316608621
  0.5618008505192991  0.3710591357504575  0.4343281945811744
  0.4367200171424573  0.6220906952206903  0.5213559858038241
  0.8171133583042944  0.7153223209044713  0.8333592158716173
  0.0585951151783172  0.3752615908164653  0.7884772610786349
  0.4363716357106903  0.2984167778649218  0.8763319790254985
  0.3111497834759805  0.0309626795066386  0.1242409936853613
  0.6881976358770273  0.1201411573993541  0.4342384808173402
  0.1836444179601620  0.9523259825457485  0.3449202081380440
  0.0667544314377705  0.2150370027227566  0.8340148383845211
  0.5590429911612230  0.0386833942498635  0.6110655998957223
  0.6907026384657682  0.4537836105536480  0.2115683967099051
  0.1896104013415297  0.7917551429879913  0.7444710187029276
  0.1945339412120933  0.6231212720645045  0.3002442130784499
  0.4414486229967746  0.7876073323455434  0.3890530250201599
  0.4334045861594009  0.2878336686261718  0.2557034522410320
  0.0629642643504945  0.5409161005359995  0.8759198069376792
  0.5654524560889677  0.0413338345555042  0.7442890495255519
  0.1877461570774367  0.7974526450894640  0.8760707317725059
  0.9373101639799485  0.4556456995925863  0.4786689942901489
  0.5651201392088376  0.5417091739715781  0.7441217173540799
  0.8114967848412090  0.2076177646985599  0.5653985850542214
  0.1840506966776067  0.6223544666356928  0.7885017836272041
  0.0672635206799058  0.5384238977403525  0.3890367893260788
  0.0609017281710051  0.7077285958083435  0.6996973730931281
  0.3083868580712867  0.5379202025852085  0.2554719626497666
  0.3146767574618414  0.7023557561095224  0.2122281394573892
  0.3056382609971914  0.8645729282582022  0.1657462742861288
  0.4366634904784655  0.6212271219740689  0.4343670121028489
  0.8179049846368180  0.0394262942903476  0.3891920844022602
  0.9349770351855073  0.2978282098842430  0.8755817525088527
  0.9369905826193892  0.7953945822697450  0.8756250611982314
  0.0652946003919707  0.0390383232062408  0.8757520245205523
  0.5629525920647299  0.5288557009675710  0.1245506165554143
  0.8166645643193817  0.8743363850913685  0.6548638777070031
  0.0617878703797377  0.8712935403356014  0.4343668133699727
  0.9366249381097926  0.1217348538351580  0.5214521219698707
  0.1934431379030902  0.7874952341821251  0.3888719937232936
  0.5671032469381091  0.7043038742010481  0.2119737844552258
 
  0.00000000E+00  0.00000000E+00  0.00000000E+00
  0.00000000E+00  0.00000000E+00  0.00000000E+00
  0.00000000E+00  0.00000000E+00  0.00000000E+00
  0.00000000E+00  0.00000000E+00  0.00000000E+00
  0.00000000E+00  0.00000000E+00  0.00000000E+00
  0.00000000E+00  0.00000000E+00  0.00000000E+00
  0.00000000E+00  0.00000000E+00  0.00000000E+00
  0.00000000E+00  0.00000000E+00  0.00000000E+00
  0.00000000E+00  0.00000000E+00  0.00000000E+00
  0.00000000E+00  0.00000000E+00  0.00000000E+00
  0.00000000E+00  0.00000000E+00  0.00000000E+00
  0.00000000E+00  0.00000000E+00  0.00000000E+00
  0.00000000E+00  0.00000000E+00  0.00000000E+00
  0.00000000E+00  0.00000000E+00  0.00000000E+00
  0.00000000E+00  0.00000000E+00  0.00000000E+00
  0.00000000E+00  0.00000000E+00  0.00000000E+00
  0.00000000E+00  0.00000000E+00  0.00000000E+00
  0.00000000E+00  0.00000000E+00  0.00000000E+00
  0.00000000E+00  0.00000000E+00  0.00000000E+00
  0.00000000E+00  0.00000000E+00  0.00000000E+00
  0.00000000E+00  0.00000000E+00  0.00000000E+00
  0.00000000E+00  0.00000000E+00  0.00000000E+00
  0.00000000E+00  0.00000000E+00  0.00000000E+00
  0.00000000E+00  0.00000000E+00  0.00000000E+00
  0.00000000E+00  0.00000000E+00  0.00000000E+00
  0.00000000E+00  0.00000000E+00  0.00000000E+00
  0.00000000E+00  0.00000000E+00  0.00000000E+00
  0.00000000E+00  0.00000000E+00  0.00000000E+00
  0.00000000E+00  0.00000000E+00  0.00000000E+00
  0.00000000E+00  0.00000000E+00  0.00000000E+00
  0.00000000E+00  0.00000000E+00  0.00000000E+00
  0.00000000E+00  0.00000000E+00  0.00000000E+00
  0.00000000E+00  0.00000000E+00  0.00000000E+00
  0.00000000E+00  0.00000000E+00  0.00000000E+00
  0.00000000E+00  0.00000000E+00  0.00000000E+00
  0.00000000E+00  0.00000000E+00  0.00000000E+00
  0.00000000E+00  0.00000000E+00  0.00000000E+00
  0.00000000E+00  0.00000000E+00  0.00000000E+00
  0.00000000E+00  0.00000000E+00  0.00000000E+00
  0.00000000E+00  0.00000000E+00  0.00000000E+00
  0.00000000E+00  0.00000000E+00  0.00000000E+00
  0.00000000E+00  0.00000000E+00  0.00000000E+00
  0.00000000E+00  0.00000000E+00  0.00000000E+00
  0.00000000E+00  0.00000000E+00  0.00000000E+00
  0.00000000E+00  0.00000000E+00  0.00000000E+00
  0.00000000E+00  0.00000000E+00  0.00000000E+00
  0.00000000E+00  0.00000000E+00  0.00000000E+00
  0.00000000E+00  0.00000000E+00  0.00000000E+00
  0.00000000E+00  0.00000000E+00  0.00000000E+00
  0.00000000E+00  0.00000000E+00  0.00000000E+00
  0.00000000E+00  0.00000000E+00  0.00000000E+00
  0.00000000E+00  0.00000000E+00  0.00000000E+00
  0.00000000E+00  0.00000000E+00  0.00000000E+00
  0.00000000E+00  0.00000000E+00  0.00000000E+00
  0.00000000E+00  0.00000000E+00  0.00000000E+00
  0.00000000E+00  0.00000000E+00  0.00000000E+00
  0.00000000E+00  0.00000000E+00  0.00000000E+00
  0.00000000E+00  0.00000000E+00  0.00000000E+00
  0.00000000E+00  0.00000000E+00  0.00000000E+00
  0.00000000E+00  0.00000000E+00  0.00000000E+00
  0.00000000E+00  0.00000000E+00  0.00000000E+00
  0.00000000E+00  0.00000000E+00  0.00000000E+00
  0.00000000E+00  0.00000000E+00  0.00000000E+00
  0.00000000E+00  0.00000000E+00  0.00000000E+00
  0.00000000E+00  0.00000000E+00  0.00000000E+00
  0.00000000E+00  0.00000000E+00  0.00000000E+00
  0.00000000E+00  0.00000000E+00  0.00000000E+00
  0.00000000E+00  0.00000000E+00  0.00000000E+00
  0.00000000E+00  0.00000000E+00  0.00000000E+00
  0.00000000E+00  0.00000000E+00  0.00000000E+00
  0.00000000E+00  0.00000000E+00  0.00000000E+00
  0.00000000E+00  0.00000000E+00  0.00000000E+00
  0.00000000E+00  0.00000000E+00  0.00000000E+00
  0.00000000E+00  0.00000000E+00  0.00000000E+00
  0.00000000E+00  0.00000000E+00  0.00000000E+00
  0.00000000E+00  0.00000000E+00  0.00000000E+00
  0.00000000E+00  0.00000000E+00  0.00000000E+00
  0.00000000E+00  0.00000000E+00  0.00000000E+00
  0.00000000E+00  0.00000000E+00  0.00000000E+00
  0.00000000E+00  0.00000000E+00  0.00000000E+00
  0.00000000E+00  0.00000000E+00  0.00000000E+00
  0.00000000E+00  0.00000000E+00  0.00000000E+00
  0.00000000E+00  0.00000000E+00  0.00000000E+00
  0.00000000E+00  0.00000000E+00  0.00000000E+00
  0.00000000E+00  0.00000000E+00  0.00000000E+00
  0.00000000E+00  0.00000000E+00  0.00000000E+00
  0.00000000E+00  0.00000000E+00  0.00000000E+00
  0.00000000E+00  0.00000000E+00  0.00000000E+00
  0.00000000E+00  0.00000000E+00  0.00000000E+00
  0.00000000E+00  0.00000000E+00  0.00000000E+00
  0.00000000E+00  0.00000000E+00  0.00000000E+00
  0.00000000E+00  0.00000000E+00  0.00000000E+00
  0.00000000E+00  0.00000000E+00  0.00000000E+00
  0.00000000E+00  0.00000000E+00  0.00000000E+00
  0.00000000E+00  0.00000000E+00  0.00000000E+00
  0.00000000E+00  0.00000000E+00  0.00000000E+00
  0.00000000E+00  0.00000000E+00  0.00000000E+00
  0.00000000E+00  0.00000000E+00  0.00000000E+00
  0.00000000E+00  0.00000000E+00  0.00000000E+00
  0.00000000E+00  0.00000000E+00  0.00000000E+00
  0.00000000E+00  0.00000000E+00  0.00000000E+00
  0.00000000E+00  0.00000000E+00  0.00000000E+00
  0.00000000E+00  0.00000000E+00  0.00000000E+00
  0.00000000E+00  0.00000000E+00  0.00000000E+00
  0.00000000E+00  0.00000000E+00  0.00000000E+00
  0.00000000E+00  0.00000000E+00  0.00000000E+00
  0.00000000E+00  0.00000000E+00  0.00000000E+00
  0.00000000E+00  0.00000000E+00  0.00000000E+00
  0.00000000E+00  0.00000000E+00  0.00000000E+00
  0.00000000E+00  0.00000000E+00  0.00000000E+00
  0.00000000E+00  0.00000000E+00  0.00000000E+00
  0.00000000E+00  0.00000000E+00  0.00000000E+00
  0.00000000E+00  0.00000000E+00  0.00000000E+00
  0.00000000E+00  0.00000000E+00  0.00000000E+00
  0.00000000E+00  0.00000000E+00  0.00000000E+00
  0.00000000E+00  0.00000000E+00  0.00000000E+00
  0.00000000E+00  0.00000000E+00  0.00000000E+00
  0.00000000E+00  0.00000000E+00  0.00000000E+00
  0.00000000E+00  0.00000000E+00  0.00000000E+00
  0.00000000E+00  0.00000000E+00  0.00000000E+00
  0.00000000E+00  0.00000000E+00  0.00000000E+00
  0.00000000E+00  0.00000000E+00  0.00000000E+00
  0.00000000E+00  0.00000000E+00  0.00000000E+00
  0.00000000E+00  0.00000000E+00  0.00000000E+00
  0.00000000E+00  0.00000000E+00  0.00000000E+00
  0.00000000E+00  0.00000000E+00  0.00000000E+00
  0.00000000E+00  0.00000000E+00  0.00000000E+00
  0.00000000E+00  0.00000000E+00  0.00000000E+00
  0.00000000E+00  0.00000000E+00  0.00000000E+00
  0.00000000E+00  0.00000000E+00  0.00000000E+00
  0.00000000E+00  0.00000000E+00  0.00000000E+00
  0.00000000E+00  0.00000000E+00  0.00000000E+00
  0.00000000E+00  0.00000000E+00  0.00000000E+00
  0.00000000E+00  0.00000000E+00  0.00000000E+00
  0.00000000E+00  0.00000000E+00  0.00000000E+00
  0.00000000E+00  0.00000000E+00  0.00000000E+00
  0.00000000E+00  0.00000000E+00  0.00000000E+00
  0.00000000E+00  0.00000000E+00  0.00000000E+00
  0.00000000E+00  0.00000000E+00  0.00000000E+00
  0.00000000E+00  0.00000000E+00  0.00000000E+00
  0.00000000E+00  0.00000000E+00  0.00000000E+00
  0.00000000E+00  0.00000000E+00  0.00000000E+00
  0.00000000E+00  0.00000000E+00  0.00000000E+00
  0.00000000E+00  0.00000000E+00  0.00000000E+00
  0.00000000E+00  0.00000000E+00  0.00000000E+00
  0.00000000E+00  0.00000000E+00  0.00000000E+00
  0.00000000E+00  0.00000000E+00  0.00000000E+00
  0.00000000E+00  0.00000000E+00  0.00000000E+00
  0.00000000E+00  0.00000000E+00  0.00000000E+00
  0.00000000E+00  0.00000000E+00  0.00000000E+00
  0.00000000E+00  0.00000000E+00  0.00000000E+00
  0.00000000E+00  0.00000000E+00  0.00000000E+00
  0.00000000E+00  0.00000000E+00  0.00000000E+00
  0.00000000E+00  0.00000000E+00  0.00000000E+00
  0.00000000E+00  0.00000000E+00  0.00000000E+00
  0.00000000E+00  0.00000000E+00  0.00000000E+00
  0.00000000E+00  0.00000000E+00  0.00000000E+00
  0.00000000E+00  0.00000000E+00  0.00000000E+00
  0.00000000E+00  0.00000000E+00  0.00000000E+00
  0.00000000E+00  0.00000000E+00  0.00000000E+00
  0.00000000E+00  0.00000000E+00  0.00000000E+00
  0.00000000E+00  0.00000000E+00  0.00000000E+00
  0.00000000E+00  0.00000000E+00  0.00000000E+00
  0.00000000E+00  0.00000000E+00  0.00000000E+00
  0.00000000E+00  0.00000000E+00  0.00000000E+00
  0.00000000E+00  0.00000000E+00  0.00000000E+00
  0.00000000E+00  0.00000000E+00  0.00000000E+00
  0.00000000E+00  0.00000000E+00  0.00000000E+00
  0.00000000E+00  0.00000000E+00  0.00000000E+00
  0.00000000E+00  0.00000000E+00  0.00000000E+00
  0.00000000E+00  0.00000000E+00  0.00000000E+00
  0.00000000E+00  0.00000000E+00  0.00000000E+00
  0.00000000E+00  0.00000000E+00  0.00000000E+00
  0.00000000E+00  0.00000000E+00  0.00000000E+00
  0.00000000E+00  0.00000000E+00  0.00000000E+00
  0.00000000E+00  0.00000000E+00  0.00000000E+00
  0.00000000E+00  0.00000000E+00  0.00000000E+00
  0.00000000E+00  0.00000000E+00  0.00000000E+00
  0.00000000E+00  0.00000000E+00  0.00000000E+00
  0.00000000E+00  0.00000000E+00  0.00000000E+00
  0.00000000E+00  0.00000000E+00  0.00000000E+00
  0.00000000E+00  0.00000000E+00  0.00000000E+00
  0.00000000E+00  0.00000000E+00  0.00000000E+00
  0.00000000E+00  0.00000000E+00  0.00000000E+00
  0.00000000E+00  0.00000000E+00  0.00000000E+00
  0.00000000E+00  0.00000000E+00  0.00000000E+00
  0.00000000E+00  0.00000000E+00  0.00000000E+00
  0.00000000E+00  0.00000000E+00  0.00000000E+00
  0.00000000E+00  0.00000000E+00  0.00000000E+00
  0.00000000E+00  0.00000000E+00  0.00000000E+00
  0.00000000E+00  0.00000000E+00  0.00000000E+00
  0.00000000E+00  0.00000000E+00  0.00000000E+00
  0.00000000E+00  0.00000000E+00  0.00000000E+00
  0.00000000E+00  0.00000000E+00  0.00000000E+00
  0.00000000E+00  0.00000000E+00  0.00000000E+00
  0.00000000E+00  0.00000000E+00  0.00000000E+00
  0.00000000E+00  0.00000000E+00  0.00000000E+00
  0.00000000E+00  0.00000000E+00  0.00000000E+00
  0.00000000E+00  0.00000000E+00  0.00000000E+00
  0.00000000E+00  0.00000000E+00  0.00000000E+00
  0.00000000E+00  0.00000000E+00  0.00000000E+00
  0.00000000E+00  0.00000000E+00  0.00000000E+00
  0.00000000E+00  0.00000000E+00  0.00000000E+00
  0.00000000E+00  0.00000000E+00  0.00000000E+00
  0.00000000E+00  0.00000000E+00  0.00000000E+00
  0.00000000E+00  0.00000000E+00  0.00000000E+00
  0.00000000E+00  0.00000000E+00  0.00000000E+00
  0.00000000E+00  0.00000000E+00  0.00000000E+00
  0.00000000E+00  0.00000000E+00  0.00000000E+00
  0.00000000E+00  0.00000000E+00  0.00000000E+00
  0.00000000E+00  0.00000000E+00  0.00000000E+00
  0.00000000E+00  0.00000000E+00  0.00000000E+00
  0.00000000E+00  0.00000000E+00  0.00000000E+00
  0.00000000E+00  0.00000000E+00  0.00000000E+00
  0.00000000E+00  0.00000000E+00  0.00000000E+00
  0.00000000E+00  0.00000000E+00  0.00000000E+00
  0.00000000E+00  0.00000000E+00  0.00000000E+00
  0.00000000E+00  0.00000000E+00  0.00000000E+00
  0.00000000E+00  0.00000000E+00  0.00000000E+00
  0.00000000E+00  0.00000000E+00  0.00000000E+00
  0.00000000E+00  0.00000000E+00  0.00000000E+00
  0.00000000E+00  0.00000000E+00  0.00000000E+00
  0.00000000E+00  0.00000000E+00  0.00000000E+00
  0.00000000E+00  0.00000000E+00  0.00000000E+00
  0.00000000E+00  0.00000000E+00  0.00000000E+00
  0.00000000E+00  0.00000000E+00  0.00000000E+00
  0.00000000E+00  0.00000000E+00  0.00000000E+00
  0.00000000E+00  0.00000000E+00  0.00000000E+00
  0.00000000E+00  0.00000000E+00  0.00000000E+00
  0.00000000E+00  0.00000000E+00  0.00000000E+00
  0.00000000E+00  0.00000000E+00  0.00000000E+00
  0.00000000E+00  0.00000000E+00  0.00000000E+00
  0.00000000E+00  0.00000000E+00  0.00000000E+00
  0.00000000E+00  0.00000000E+00  0.00000000E+00
  0.00000000E+00  0.00000000E+00  0.00000000E+00
  0.00000000E+00  0.00000000E+00  0.00000000E+00
  0.00000000E+00  0.00000000E+00  0.00000000E+00
  0.00000000E+00  0.00000000E+00  0.00000000E+00
  0.00000000E+00  0.00000000E+00  0.00000000E+00
  0.00000000E+00  0.00000000E+00  0.00000000E+00
  0.00000000E+00  0.00000000E+00  0.00000000E+00
  0.00000000E+00  0.00000000E+00  0.00000000E+00
  0.00000000E+00  0.00000000E+00  0.00000000E+00
  0.00000000E+00  0.00000000E+00  0.00000000E+00
  0.00000000E+00  0.00000000E+00  0.00000000E+00
  0.00000000E+00  0.00000000E+00  0.00000000E+00
  0.00000000E+00  0.00000000E+00  0.00000000E+00