CuInSe2gb                               
   1.00000000000000     
     9.7266780392896699    0.0000000000000000    0.0000000000000000
     0.0000000000000000    8.4235502764570693    0.0000000000000000
     0.0000000000000000    0.0000000000000000   45.0000000000000000
   Fe   Mn
   281     7
Direct
  0.0579603520543638  0.7007412521056415  0.2110557390077114
  0.3159372550137406  0.7204388679504941  0.8757203815231411
  0.6883640420403093  0.9580044671674003  0.6114046243581195
  0.4384831750437454  0.4579908188285881  0.6114339453926813
  0.4363437379071917  0.2867105551792717  0.2555387809248356
  0.0609383246206719  0.3867162843398432  0.8341595142066381
  0.3112462887939256  0.8866967697036634  0.8342562841958008
  0.4422415449444662  0.6265092002516196  0.7004085598382243
  0.0636880933733509  0.2133353343484139  0.7445051737792574
  0.1822618610827758  0.4513751092527898  0.2112762611708947
  0.5638534015611586  0.2089225372853034  0.4778268011023004
  0.0642221638355782  0.8746785776840531  0.5668415005998283
  0.5657208808927546  0.2198630322130957  0.8756761813019825
  0.8100749676212613  0.5303315207162181  0.1245310154987313
  0.4331778112304108  0.9511803563657575  0.2111657160299060
  0.5641673089769204  0.3746476561679873  0.5667858890064186
  0.8117372491795408  0.0420679188650426  0.3884063229165483
  0.6861879687905877  0.7907474060201948  0.5221657436207777
  0.4388408633184551  0.4590289571574228  0.4778013430062339
  0.4380073362252133  0.9628003345971021  0.7444926532445438
  0.4389941751914277  0.6245873100434314  0.5668304425548385
  0.5674375517513494  0.8764905297389712  0.7003391633633138
  0.3106716806520831  0.0310516139205798  0.1241274919003670
  0.6864730761950425  0.9581704748423553  0.3441411628214011
  0.6877971350727725  0.7797121905545724  0.1246319898144689
  0.0577310065433217  0.3733241098774031  0.2996131468289033
  0.6888898362189492  0.4713323984735270  0.8754664135120857
  0.4330614912466799  0.4514846427114707  0.2111580986515061
  0.8110416471379382  0.3746752497358688  0.4331209062800392
  0.5633070503254577  0.7080551976814775  0.6114962029766657
  0.5629641004793735  0.5412124032589875  0.6557801915185941
  0.8144626228152878  0.8638179570523750  0.1660220249689148
  0.5608263586558688  0.5372644502463535  0.2554267724691949
  0.6862460583930672  0.4580581496405995  0.3440665573099623
  0.1883902954839494  0.6125823816854850  0.1661718883493947
  0.1917805688127434  0.7993065148553794  0.7887308035041342
  0.4425266201549590  0.1265544904015660  0.7004095670045565
  0.9329794036247625  0.6234681430585916  0.2996916001477029
  0.3153835648066866  0.2199667176381085  0.8756983560139984
  0.3139979152227665  0.8747999694927977  0.5667738357258930
  0.8153056859843240  0.2199828957830582  0.8756894260720971
  0.8128246604101897  0.5417019726135811  0.6557560288515443
  0.5600800462982294  0.5294681061154182  0.1244685927414346
  0.5668824595229955  0.0494904725044421  0.7889676064638428
  0.1867138011104038  0.2869778385154604  0.2554774746258557
  0.8107474323175305  0.8752946582239626  0.4330402793480849
  0.5671534906895492  0.3764931306052676  0.7004620247855720
  0.0612283491411801  0.0292430192001073  0.1243997423919442
  0.3130932493319206  0.5411334167704018  0.6557895221767177
  0.5614247999375925  0.2080961689609772  0.3441865946709471
  0.1883863233147712  0.9578889206772041  0.6114055788110462
  0.3076092853981895  0.3737566363298218  0.2995885267640122
  0.4379534205817818  0.7916256038653197  0.6557996676583822
  0.1916370088896245  0.2985676085822151  0.7888812438546735
  0.0640004519613955  0.3636873624284072  0.1661049377927490
  0.6921177390220048  0.6266493277142384  0.7003578132346594
  0.3115602441329257  0.5417373951289403  0.3884093860585955
  0.0653772761519631  0.7198729828756169  0.8758630143890026
  0.9363174491676882  0.6368347821443262  0.8343022225225840
  0.3173690639141629  0.5498175315708128  0.7889660573179196
  0.3072328197909648  0.2003705767239064  0.2110860178483011
  0.0640208160092429  0.7090771682427247  0.4779155682340268
  0.5576212661259674  0.2009571254698291  0.2110971624805395
  0.3136756383900565  0.2134803876483695  0.7443917054318919
  0.0672685717192688  0.3769664140339922  0.7003904884184194
  0.1862261130213810  0.6368187938853098  0.8340638215031976
  0.0667932029063619  0.0491802242598866  0.7889356332099557
  0.4390222094690307  0.1246348673206416  0.5667845850714731
  0.9381071951976880  0.2917266123079139  0.6557128993098045
  0.8075562581785182  0.2014178636156889  0.2111139852433448
  0.9325025223356921  0.9516072085257510  0.2112687819665223
  0.9391627755215790  0.6247819844655320  0.5667765413603468
  0.8109299859218614  0.3866917600427562  0.8342114036773546
  0.1920935809765939  0.6266265627398936  0.7003866346894092
  0.8111231236996364  0.8866336230679924  0.8342853315179033
  0.6880661226020054  0.2913864264824161  0.6558079888374466
  0.3135648232360969  0.2080645899126738  0.6114907195625648
  0.4381915977427654  0.4627462143861411  0.7443998187616612
  0.4365868420277003  0.7917775576914546  0.3884624919188826
  0.6876746274015743  0.9628230927436319  0.7445043326320530
  0.8073553609385236  0.7010113536314592  0.2111081614893721
  0.8132251158951095  0.7080151471814750  0.6114204984335150
  0.4371327860320193  0.7792759417116983  0.1242827755429163
  0.3131362738751187  0.7129871437527323  0.7444174853680060
  0.3171599079796090  0.0494630278888181  0.7889829193877022
  0.8116788367191706  0.5413847254043613  0.3884995329667506
  0.6862870833446623  0.2909768995052316  0.5221264389490323
  0.6919206005838302  0.7995287801535609  0.7889097239063141
  0.1867212461638703  0.7876573954258304  0.2555312186590736
  0.6890005360255490  0.1135373166265615  0.1661674123913426
  0.6886753907917416  0.9591770408558934  0.4778964180377172
  0.9369749654329070  0.9584782063173124  0.3441433064961484
  0.8108978039117561  0.0402368398508055  0.5221029113649774
  0.6854517644062683  0.6251393903827579  0.4330644452064230
  0.4370420456922737  0.4581995571753673  0.3441144493016888
  0.8132476526230425  0.2134372923779923  0.7444927783209622
  0.4390810989790167  0.9715218103516725  0.8754911679263496
  0.5641169986687899  0.8745355836386931  0.5667649498088679
  0.8104236902292573  0.0298318425559285  0.1245213934556162
  0.4326030061999018  0.6231512759990333  0.2997076380546490
  0.8152236231881942  0.7204581498448823  0.8758117722302778
  0.6883145124986092  0.4579680480465170  0.6114170408585586
  0.5611242229362524  0.3868968120365197  0.8340944368697619
  0.8073645436633585  0.3733223433365357  0.2997012244444537
  0.1865982598840583  0.2916989458677509  0.3883872772051675
  0.8165261404784154  0.5495381827526186  0.7890762273513685
  0.1862995597868647  0.7906290403825224  0.5222109863632490
  0.3076175505534797  0.8734811931764070  0.2996415073930544
  0.1825263937567313  0.9517568711754217  0.2112863456375628
  0.1885212651265022  0.4628404481640708  0.7444289595037932
  0.4359999508346846  0.2908869174962370  0.5221062360147439
  0.0624260008653710  0.7084183346956925  0.3442408405095226
  0.1881738824973904  0.7912192161038002  0.6557073635354479
  0.4417286179020972  0.7995033448730958  0.7887905788826413
  0.6854808526410164  0.1248733848420949  0.4330254830482580
  0.9362835924241740  0.7906220002154913  0.5221654558530574
  0.6889076948183596  0.6132963312019344  0.1660794159917331
  0.9361861111691021  0.1249523722856799  0.4330122860804702
  0.9383640985802877  0.4626382266774234  0.7444407522836750
  0.1868214147815341  0.4579033452888336  0.3441245813291475
  0.5671925650929598  0.5493091595468921  0.7889921050978406
  0.5651548880966022  0.3639290744673595  0.1658056612756450
  0.5611437709673045  0.7084006660629165  0.3442995589884147
  0.5579377931488877  0.3735161631704826  0.2995826653712486
  0.1888944980358076  0.4713883789158830  0.8755756068466730
  0.1887717156201477  0.1126780280615031  0.1661606389390338
  0.4417665836205086  0.2989447994364034  0.7888427036013974
  0.6859073334526353  0.7870780685119967  0.2554650830992374
  0.9367415314708053  0.1366798787537833  0.8341221953206640
  0.4388700811839316  0.9588770009148329  0.4778225430518215
  0.5653699389022190  0.7202569764086235  0.8757027458359808
  0.1887146139175459  0.4590546400466430  0.4778309581067096
  0.9362605848698099  0.2796461244874264  0.1245544634859380
  0.3113313209471311  0.0417344334688431  0.3884386364372958
  0.0628975501118695  0.0410966311138819  0.6557740590991881
  0.5610386729334987  0.3748658743163718  0.4330065656297042
  0.6876617221292621  0.4625493354905118  0.7444676266255553
  0.5636069712534914  0.2135428820116022  0.7444128223700655
  0.9424482550499272  0.1270087232818213  0.7003806955513461
  0.5630663712301124  0.0412975061377499  0.6558013276654937
  0.5613213178904672  0.5406555686711343  0.5220827386932545
  0.1825206671675236  0.1232802547081846  0.2996170597355235
  0.4384590342267746  0.1123743231513988  0.1660102537899872
  0.6818616298175968  0.6232071324722153  0.2996606459605056
  0.9325951120326167  0.1231454385351172  0.2996593840092469
  0.8140575155733648  0.3747654670855126  0.5668303548676289
  0.0576587197235448  0.8733341618920394  0.2996321865518020
  0.1890234238325040  0.6246861272004084  0.5668793704681937
  0.9411192108010005  0.7991679748792545  0.7889202465432672
  0.3113168622086845  0.3868304336231799  0.8342041750601338
  0.9392401573742531  0.4716008258360287  0.8755518714746635
  0.4365655390014720  0.6371170836388793  0.8341280702941074
  0.0620874079406120  0.2082475240219151  0.3442306183115544
  0.1888668009267123  0.9711193187140043  0.8754968350615540
  0.9363758375022085  0.7796874669679743  0.1245713860269543
  0.6865522735860472  0.7917289764887079  0.3884687290198569
  0.9380191668366836  0.7915049837813971  0.6557821337864681
  0.9386556982895746  0.1137346727000157  0.1662297945600534
  0.4377903726604353  0.2914879297876496  0.6558317422746417
  0.0581055171746807  0.2012685543331820  0.2110975102670238
  0.6827101829663668  0.9514308586400902  0.2112672250567439
  0.1825967694336419  0.6232408311948017  0.2996757789992674
  0.8170337493229677  0.8766361340290204  0.7003475652272267
  0.9424473625954951  0.6267707169796419  0.7004098326239051
  0.1922617530426216  0.1269644518028027  0.7004028916992190
  0.9389183298109719  0.4589067019544927  0.4778528594322056
  0.8132128639915374  0.2079921003299096  0.6114256679716813
  0.1864158183059259  0.6252649153590691  0.4330375773127103
  0.4325724506502510  0.1233560144863214  0.2996619415783651
  0.6824120197358412  0.1232425286985015  0.2996367289947879
  0.5615977109656011  0.5416692552773422  0.3884301612562533
  0.8116871003252911  0.2079646125111022  0.3443283198674497
  0.4391580658685853  0.4714943797637866  0.8754804451476185
  0.5612157528915109  0.8866388735107341  0.8342506007610916
  0.3138178798889301  0.2091621780022981  0.4778186886056909
  0.1887593704987378  0.9589351792501776  0.4778243004725753
  0.0609725821198959  0.8867712802036587  0.8342071537009972
  0.0611797332058620  0.5407391702682574  0.5221384596032134
  0.9389130407878497  0.9589071616350745  0.4778516142640076
  0.0634008004754660  0.7080328134267553  0.6114051582856507
  0.5610017906449235  0.0408838631367863  0.5220789068649078
  0.6919807719538830  0.2988439369674888  0.7887743020184924
  0.8144900119337982  0.3639107885415752  0.1660660679814893
  0.4356317552873120  0.1249609146600263  0.4330292426099325
  0.0638716316416006  0.2088801156632435  0.4778339127977225
  0.3131818250622292  0.0413087850020709  0.6557737849773421
  0.4359244747405299  0.7906309836214700  0.5220895202163220
  0.1867002377577785  0.1367821201125471  0.8341192202131036
  0.1861624777391503  0.2788346039944363  0.1244289683784485
  0.9368574232827825  0.4579035586401981  0.3441898440932996
  0.5655069076785536  0.8638066739114268  0.1658725253218816
  0.3076145102797992  0.7001918939670589  0.2111367797760380
  0.9381655945286005  0.6133384781712202  0.1662140054833478
  0.1883594434067341  0.4578846636663116  0.6114123396122355
  0.0672406885974476  0.8767500848203007  0.7002580108170319
  0.0629604132111306  0.5414379272777320  0.6558818870592085
  0.3107586746235952  0.5308371547212772  0.1241247779500577
  0.9365681890039548  0.7921340042628991  0.3884976831765394
  0.9415494296675082  0.2987937356168006  0.7888191246241042
  0.1879801083172412  0.2915307928873041  0.6558235203144163
  0.9384525435525458  0.9579705246819361  0.6114784224665124
  0.8134944111794865  0.7130405015302828  0.7445439525025564
  0.6861710048134387  0.2872291675073534  0.2555182975207421
  0.0639105020207899  0.7130887761862662  0.7444287759605331
  0.6826716209220371  0.4513787827648345  0.2112729259890619
  0.8137842825290176  0.2089682150032777  0.4778074289466728
  0.5637547112829063  0.7090926983455996  0.4778847667761090
  0.0635788471103042  0.8637247732892733  0.1660433844689867
  0.9360818365498642  0.2907157680823210  0.5221725565771089
  0.6877579386157944  0.7914308761828123  0.6557898352510501
  0.0612073443217410  0.8752348753915901  0.4330955481048832
  0.0655619528287217  0.2194819559659844  0.8757939116962493
  0.8130086847164916  0.0412273113741059  0.6557719135857699
  0.5601823180443920  0.0295275621945342  0.1244152989322535
  0.3107831375412499  0.3746333549213440  0.4330741927119072
  0.3141506460762873  0.3747186930415905  0.5667920312459007
  0.3139783329215592  0.7091031615079938  0.4778322263997458
  0.0612874995234817  0.0403761256961292  0.5220303582876517
  0.3171329460576734  0.8765545934691460  0.7004006678369372
  0.0616922547185985  0.5369745673388080  0.2554829922426665
  0.6865614283809267  0.1372125266651157  0.8341085300250690
  0.8113808146153819  0.0370002287769255  0.2554833960721899
  0.1862757505894895  0.1250640730673819  0.4329982098565225
  0.6921525301920941  0.1265657194982950  0.7003377819487252
  0.1862516352530567  0.2906354999083342  0.5221015330606156
  0.4364612346253938  0.7873663378749529  0.2555559046027193
  0.4385920690686687  0.6124000777727490  0.1660688657720832
  0.0632471431869920  0.2080719360647797  0.6113748146642783
  0.1862281939181667  0.7919540420172267  0.3884400700672759
  0.3111059466641741  0.5406209945852378  0.5220976941819276
  0.8171492646701800  0.3766674798956129  0.7003387209827606
  0.6862824516215347  0.2917111248984253  0.3884050658894467
  0.1892041654940647  0.1246789493732994  0.5668043488028097
  0.6888871001512407  0.9717731675331382  0.8754931607964083
  0.6890157453114717  0.1248249937151365  0.5668155900031049
  0.4367835683063881  0.9588843465722534  0.3441589754922801
  0.1884148887229499  0.9628703429842277  0.7445093126147548
  0.9364259925950639  0.7874487214380224  0.2555363389637184
  0.5609766495619611  0.8755703397588970  0.4330684658538522
  0.3109035073638725  0.8752584728728283  0.4330665409968408
  0.8111909851419018  0.5404325939719161  0.5221562986266393
  0.9327718741281037  0.4513456319979786  0.2113682995925656
  0.3113620757611301  0.5367885727703250  0.2556021710081672
  0.5613482780749032  0.0418053734065061  0.3884616033562862
  0.9382803802601739  0.4578460405820808  0.6114384623569225
  0.0615910076611064  0.0417337992974549  0.3884834863526730
  0.0612089816862163  0.5416985451447139  0.3884545000959125
  0.4367776136335209  0.2917792104932205  0.3883744896338950
  0.6888917859967892  0.4590187117059523  0.4778879023447216
  0.0641738546357311  0.3747380602574749  0.5668466999121469
  0.5576639424539006  0.7007857105428402  0.2111365349299566
  0.9367338541393456  0.2870836792262096  0.2555506144292944
  0.8165358197959214  0.0493933227991087  0.7889093417288559
  0.1866479873961467  0.9587378015975803  0.3442270006575742
  0.5577352879988259  0.8733995873463292  0.2996813646214238
  0.0609987893873010  0.3749734325661037  0.4330317635183454
  0.3117606277193739  0.7080246666143644  0.3441817095908823
  0.3116984028439257  0.2079693195515460  0.3441926363630218
  0.9390509097586824  0.1249907765364372  0.5668106502485637
  0.4381464334517567  0.9580849404954798  0.6114799833386497
  0.5607529280190603  0.0371691776332240  0.2555264342271650
  0.1861227071891408  0.7788250023102212  0.1243687938627847
  0.0617404317460971  0.0370823043850867  0.2555377423340160
  0.6891220703351694  0.6245767531294144  0.5668523894744257
  0.0609949519116126  0.5294518749503716  0.1244464342809608
  0.3112314719028032  0.0408946551081597  0.5221421021544190
  0.6874468309348973  0.2800456866117159  0.1246468900149277
  0.8137021149963204  0.7091848614991808  0.4778753740798488
  0.4367840367561229  0.1367226085821197  0.8340029475781747
  0.3174133946735016  0.3763537322137189  0.7003655173078946
  0.6868519023393135  0.6370772150259751  0.8341143276882735
  0.5632678376703628  0.7128365094271463  0.7444703948043133
  0.9361345039273842  0.2915998909926170  0.3884722468507297
  0.9392337081022767  0.9713263384362955  0.8755161035521983
  0.5635324873060046  0.2080765875404023  0.6114550633536605
  0.8140899155041093  0.8747684995728719  0.5668351432136276
  0.8074385776853029  0.8733459791552340  0.2996016164724171
  0.3111493331172572  0.0367063846461758  0.2556061054511615
  0.4370790404150547  0.2797417278513650  0.1243013952867580
  0.3132933582319421  0.7080715041851999  0.6114402298651024
  0.4355578344173076  0.6252121855900520  0.4330549493903486
  0.9358389501216320  0.6249346234771376  0.4331255864216079
  0.3150839118938007  0.8633209269131591  0.1656204147289363
  0.0671466218442030  0.5493474888344956  0.7888017904279024
  0.8121108439892427  0.7083204095397497  0.3442183092419298
  0.3149870371147221  0.3633673628159100  0.1655676050597721
  0.9376095543824334  0.9631693517871546  0.7446244984551477
  0.8117735653634174  0.5370083065379576  0.2552950141611778
 
  0.00000000E+00  0.00000000E+00  0.00000000E+00
  0.00000000E+00  0.00000000E+00  0.00000000E+00
  0.00000000E+00  0.00000000E+00  0.00000000E+00
  0.00000000E+00  0.00000000E+00  0.00000000E+00
  0.00000000E+00  0.00000000E+00  0.00000000E+00
  0.00000000E+00  0.00000000E+00  0.00000000E+00
  0.00000000E+00  0.00000000E+00  0.00000000E+00
  0.00000000E+00  0.00000000E+00  0.00000000E+00
  0.00000000E+00  0.00000000E+00  0.00000000E+00
  0.00000000E+00  0.00000000E+00  0.00000000E+00
  0.00000000E+00  0.00000000E+00  0.00000000E+00
  0.00000000E+00  0.00000000E+00  0.00000000E+00
  0.00000000E+00  0.00000000E+00  0.00000000E+00
  0.00000000E+00  0.00000000E+00  0.00000000E+00
  0.00000000E+00  0.00000000E+00  0.00000000E+00
  0.00000000E+00  0.00000000E+00  0.00000000E+00
  0.00000000E+00  0.00000000E+00  0.00000000E+00
  0.00000000E+00  0.00000000E+00  0.00000000E+00
  0.00000000E+00  0.00000000E+00  0.00000000E+00
  0.00000000E+00  0.00000000E+00  0.00000000E+00
  0.00000000E+00  0.00000000E+00  0.00000000E+00
  0.00000000E+00  0.00000000E+00  0.00000000E+00
  0.00000000E+00  0.00000000E+00  0.00000000E+00
  0.00000000E+00  0.00000000E+00  0.00000000E+00
  0.00000000E+00  0.00000000E+00  0.00000000E+00
  0.00000000E+00  0.00000000E+00  0.00000000E+00
  0.00000000E+00  0.00000000E+00  0.00000000E+00
  0.00000000E+00  0.00000000E+00  0.00000000E+00
  0.00000000E+00  0.00000000E+00  0.00000000E+00
  0.00000000E+00  0.00000000E+00  0.00000000E+00
  0.00000000E+00  0.00000000E+00  0.00000000E+00
  0.00000000E+00  0.00000000E+00  0.00000000E+00
  0.00000000E+00  0.00000000E+00  0.00000000E+00
  0.00000000E+00  0.00000000E+00  0.00000000E+00
  0.00000000E+00  0.00000000E+00  0.00000000E+00
  0.00000000E+00  0.00000000E+00  0.00000000E+00
  0.00000000E+00  0.00000000E+00  0.00000000E+00
  0.00000000E+00  0.00000000E+00  0.00000000E+00
  0.00000000E+00  0.00000000E+00  0.00000000E+00
  0.00000000E+00  0.00000000E+00  0.00000000E+00
  0.00000000E+00  0.00000000E+00  0.00000000E+00
  0.00000000E+00  0.00000000E+00  0.00000000E+00
  0.00000000E+00  0.00000000E+00  0.00000000E+00
  0.00000000E+00  0.00000000E+00  0.00000000E+00
  0.00000000E+00  0.00000000E+00  0.00000000E+00
  0.00000000E+00  0.00000000E+00  0.00000000E+00
  0.00000000E+00  0.00000000E+00  0.00000000E+00
  0.00000000E+00  0.00000000E+00  0.00000000E+00
  0.00000000E+00  0.00000000E+00  0.00000000E+00
  0.00000000E+00  0.00000000E+00  0.00000000E+00
  0.00000000E+00  0.00000000E+00  0.00000000E+00
  0.00000000E+00  0.00000000E+00  0.00000000E+00
  0.00000000E+00  0.00000000E+00  0.00000000E+00
  0.00000000E+00  0.00000000E+00  0.00000000E+00
  0.00000000E+00  0.00000000E+00  0.00000000E+00
  0.00000000E+00  0.00000000E+00  0.00000000E+00
  0.00000000E+00  0.00000000E+00  0.00000000E+00
  0.00000000E+00  0.00000000E+00  0.00000000E+00
  0.00000000E+00  0.00000000E+00  0.00000000E+00
  0.00000000E+00  0.00000000E+00  0.00000000E+00
  0.00000000E+00  0.00000000E+00  0.00000000E+00
  0.00000000E+00  0.00000000E+00  0.00000000E+00
  0.00000000E+00  0.00000000E+00  0.00000000E+00
  0.00000000E+00  0.00000000E+00  0.00000000E+00
  0.00000000E+00  0.00000000E+00  0.00000000E+00
  0.00000000E+00  0.00000000E+00  0.00000000E+00
  0.00000000E+00  0.00000000E+00  0.00000000E+00
  0.00000000E+00  0.00000000E+00  0.00000000E+00
  0.00000000E+00  0.00000000E+00  0.00000000E+00
  0.00000000E+00  0.00000000E+00  0.00000000E+00
  0.00000000E+00  0.00000000E+00  0.00000000E+00
  0.00000000E+00  0.00000000E+00  0.00000000E+00
  0.00000000E+00  0.00000000E+00  0.00000000E+00
  0.00000000E+00  0.00000000E+00  0.00000000E+00
  0.00000000E+00  0.00000000E+00  0.00000000E+00
  0.00000000E+00  0.00000000E+00  0.00000000E+00
  0.00000000E+00  0.00000000E+00  0.00000000E+00
  0.00000000E+00  0.00000000E+00  0.00000000E+00
  0.00000000E+00  0.00000000E+00  0.00000000E+00
  0.00000000E+00  0.00000000E+00  0.00000000E+00
  0.00000000E+00  0.00000000E+00  0.00000000E+00
  0.00000000E+00  0.00000000E+00  0.00000000E+00
  0.00000000E+00  0.00000000E+00  0.00000000E+00
  0.00000000E+00  0.00000000E+00  0.00000000E+00
  0.00000000E+00  0.00000000E+00  0.00000000E+00
  0.00000000E+00  0.00000000E+00  0.00000000E+00
  0.00000000E+00  0.00000000E+00  0.00000000E+00
  0.00000000E+00  0.00000000E+00  0.00000000E+00
  0.00000000E+00  0.00000000E+00  0.00000000E+00
  0.00000000E+00  0.00000000E+00  0.00000000E+00
  0.00000000E+00  0.00000000E+00  0.00000000E+00
  0.00000000E+00  0.00000000E+00  0.00000000E+00
  0.00000000E+00  0.00000000E+00  0.00000000E+00
  0.00000000E+00  0.00000000E+00  0.00000000E+00
  0.00000000E+00  0.00000000E+00  0.00000000E+00
  0.00000000E+00  0.00000000E+00  0.00000000E+00
  0.00000000E+00  0.00000000E+00  0.00000000E+00
  0.00000000E+00  0.00000000E+00  0.00000000E+00
  0.00000000E+00  0.00000000E+00  0.00000000E+00
  0.00000000E+00  0.00000000E+00  0.00000000E+00
  0.00000000E+00  0.00000000E+00  0.00000000E+00
  0.00000000E+00  0.00000000E+00  0.00000000E+00
  0.00000000E+00  0.00000000E+00  0.00000000E+00
  0.00000000E+00  0.00000000E+00  0.00000000E+00
  0.00000000E+00  0.00000000E+00  0.00000000E+00
  0.00000000E+00  0.00000000E+00  0.00000000E+00
  0.00000000E+00  0.00000000E+00  0.00000000E+00
  0.00000000E+00  0.00000000E+00  0.00000000E+00
  0.00000000E+00  0.00000000E+00  0.00000000E+00
  0.00000000E+00  0.00000000E+00  0.00000000E+00
  0.00000000E+00  0.00000000E+00  0.00000000E+00
  0.00000000E+00  0.00000000E+00  0.00000000E+00
  0.00000000E+00  0.00000000E+00  0.00000000E+00
  0.00000000E+00  0.00000000E+00  0.00000000E+00
  0.00000000E+00  0.00000000E+00  0.00000000E+00
  0.00000000E+00  0.00000000E+00  0.00000000E+00
  0.00000000E+00  0.00000000E+00  0.00000000E+00
  0.00000000E+00  0.00000000E+00  0.00000000E+00
  0.00000000E+00  0.00000000E+00  0.00000000E+00
  0.00000000E+00  0.00000000E+00  0.00000000E+00
  0.00000000E+00  0.00000000E+00  0.00000000E+00
  0.00000000E+00  0.00000000E+00  0.00000000E+00
  0.00000000E+00  0.00000000E+00  0.00000000E+00
  0.00000000E+00  0.00000000E+00  0.00000000E+00
  0.00000000E+00  0.00000000E+00  0.00000000E+00
  0.00000000E+00  0.00000000E+00  0.00000000E+00
  0.00000000E+00  0.00000000E+00  0.00000000E+00
  0.00000000E+00  0.00000000E+00  0.00000000E+00
  0.00000000E+00  0.00000000E+00  0.00000000E+00
  0.00000000E+00  0.00000000E+00  0.00000000E+00
  0.00000000E+00  0.00000000E+00  0.00000000E+00
  0.00000000E+00  0.00000000E+00  0.00000000E+00
  0.00000000E+00  0.00000000E+00  0.00000000E+00
  0.00000000E+00  0.00000000E+00  0.00000000E+00
  0.00000000E+00  0.00000000E+00  0.00000000E+00
  0.00000000E+00  0.00000000E+00  0.00000000E+00
  0.00000000E+00  0.00000000E+00  0.00000000E+00
  0.00000000E+00  0.00000000E+00  0.00000000E+00
  0.00000000E+00  0.00000000E+00  0.00000000E+00
  0.00000000E+00  0.00000000E+00  0.00000000E+00
  0.00000000E+00  0.00000000E+00  0.00000000E+00
  0.00000000E+00  0.00000000E+00  0.00000000E+00
  0.00000000E+00  0.00000000E+00  0.00000000E+00
  0.00000000E+00  0.00000000E+00  0.00000000E+00
  0.00000000E+00  0.00000000E+00  0.00000000E+00
  0.00000000E+00  0.00000000E+00  0.00000000E+00
  0.00000000E+00  0.00000000E+00  0.00000000E+00
  0.00000000E+00  0.00000000E+00  0.00000000E+00
  0.00000000E+00  0.00000000E+00  0.00000000E+00
  0.00000000E+00  0.00000000E+00  0.00000000E+00
  0.00000000E+00  0.00000000E+00  0.00000000E+00
  0.00000000E+00  0.00000000E+00  0.00000000E+00
  0.00000000E+00  0.00000000E+00  0.00000000E+00
  0.00000000E+00  0.00000000E+00  0.00000000E+00
  0.00000000E+00  0.00000000E+00  0.00000000E+00
  0.00000000E+00  0.00000000E+00  0.00000000E+00
  0.00000000E+00  0.00000000E+00  0.00000000E+00
  0.00000000E+00  0.00000000E+00  0.00000000E+00
  0.00000000E+00  0.00000000E+00  0.00000000E+00
  0.00000000E+00  0.00000000E+00  0.00000000E+00
  0.00000000E+00  0.00000000E+00  0.00000000E+00
  0.00000000E+00  0.00000000E+00  0.00000000E+00
  0.00000000E+00  0.00000000E+00  0.00000000E+00
  0.00000000E+00  0.00000000E+00  0.00000000E+00
  0.00000000E+00  0.00000000E+00  0.00000000E+00
  0.00000000E+00  0.00000000E+00  0.00000000E+00
  0.00000000E+00  0.00000000E+00  0.00000000E+00
  0.00000000E+00  0.00000000E+00  0.00000000E+00
  0.00000000E+00  0.00000000E+00  0.00000000E+00
  0.00000000E+00  0.00000000E+00  0.00000000E+00
  0.00000000E+00  0.00000000E+00  0.00000000E+00
  0.00000000E+00  0.00000000E+00  0.00000000E+00
  0.00000000E+00  0.00000000E+00  0.00000000E+00
  0.00000000E+00  0.00000000E+00  0.00000000E+00
  0.00000000E+00  0.00000000E+00  0.00000000E+00
  0.00000000E+00  0.00000000E+00  0.00000000E+00
  0.00000000E+00  0.00000000E+00  0.00000000E+00
  0.00000000E+00  0.00000000E+00  0.00000000E+00
  0.00000000E+00  0.00000000E+00  0.00000000E+00
  0.00000000E+00  0.00000000E+00  0.00000000E+00
  0.00000000E+00  0.00000000E+00  0.00000000E+00
  0.00000000E+00  0.00000000E+00  0.00000000E+00
  0.00000000E+00  0.00000000E+00  0.00000000E+00
  0.00000000E+00  0.00000000E+00  0.00000000E+00
  0.00000000E+00  0.00000000E+00  0.00000000E+00
  0.00000000E+00  0.00000000E+00  0.00000000E+00
  0.00000000E+00  0.00000000E+00  0.00000000E+00
  0.00000000E+00  0.00000000E+00  0.00000000E+00
  0.00000000E+00  0.00000000E+00  0.00000000E+00
  0.00000000E+00  0.00000000E+00  0.00000000E+00
  0.00000000E+00  0.00000000E+00  0.00000000E+00
  0.00000000E+00  0.00000000E+00  0.00000000E+00
  0.00000000E+00  0.00000000E+00  0.00000000E+00
  0.00000000E+00  0.00000000E+00  0.00000000E+00
  0.00000000E+00  0.00000000E+00  0.00000000E+00
  0.00000000E+00  0.00000000E+00  0.00000000E+00
  0.00000000E+00  0.00000000E+00  0.00000000E+00
  0.00000000E+00  0.00000000E+00  0.00000000E+00
  0.00000000E+00  0.00000000E+00  0.00000000E+00
  0.00000000E+00  0.00000000E+00  0.00000000E+00
  0.00000000E+00  0.00000000E+00  0.00000000E+00
  0.00000000E+00  0.00000000E+00  0.00000000E+00
  0.00000000E+00  0.00000000E+00  0.00000000E+00
  0.00000000E+00  0.00000000E+00  0.00000000E+00
  0.00000000E+00  0.00000000E+00  0.00000000E+00
  0.00000000E+00  0.00000000E+00  0.00000000E+00
  0.00000000E+00  0.00000000E+00  0.00000000E+00
  0.00000000E+00  0.00000000E+00  0.00000000E+00
  0.00000000E+00  0.00000000E+00  0.00000000E+00
  0.00000000E+00  0.00000000E+00  0.00000000E+00
  0.00000000E+00  0.00000000E+00  0.00000000E+00
  0.00000000E+00  0.00000000E+00  0.00000000E+00
  0.00000000E+00  0.00000000E+00  0.00000000E+00
  0.00000000E+00  0.00000000E+00  0.00000000E+00
  0.00000000E+00  0.00000000E+00  0.00000000E+00
  0.00000000E+00  0.00000000E+00  0.00000000E+00
  0.00000000E+00  0.00000000E+00  0.00000000E+00
  0.00000000E+00  0.00000000E+00  0.00000000E+00
  0.00000000E+00  0.00000000E+00  0.00000000E+00
  0.00000000E+00  0.00000000E+00  0.00000000E+00
  0.00000000E+00  0.00000000E+00  0.00000000E+00
  0.00000000E+00  0.00000000E+00  0.00000000E+00
  0.00000000E+00  0.00000000E+00  0.00000000E+00
  0.00000000E+00  0.00000000E+00  0.00000000E+00
  0.00000000E+00  0.00000000E+00  0.00000000E+00
  0.00000000E+00  0.00000000E+00  0.00000000E+00
  0.00000000E+00  0.00000000E+00  0.00000000E+00
  0.00000000E+00  0.00000000E+00  0.00000000E+00
  0.00000000E+00  0.00000000E+00  0.00000000E+00
  0.00000000E+00  0.00000000E+00  0.00000000E+00
  0.00000000E+00  0.00000000E+00  0.00000000E+00
  0.00000000E+00  0.00000000E+00  0.00000000E+00
  0.00000000E+00  0.00000000E+00  0.00000000E+00
  0.00000000E+00  0.00000000E+00  0.00000000E+00
  0.00000000E+00  0.00000000E+00  0.00000000E+00
  0.00000000E+00  0.00000000E+00  0.00000000E+00
  0.00000000E+00  0.00000000E+00  0.00000000E+00
  0.00000000E+00  0.00000000E+00  0.00000000E+00
  0.00000000E+00  0.00000000E+00  0.00000000E+00
  0.00000000E+00  0.00000000E+00  0.00000000E+00
  0.00000000E+00  0.00000000E+00  0.00000000E+00
  0.00000000E+00  0.00000000E+00  0.00000000E+00
  0.00000000E+00  0.00000000E+00  0.00000000E+00
  0.00000000E+00  0.00000000E+00  0.00000000E+00
  0.00000000E+00  0.00000000E+00  0.00000000E+00
  0.00000000E+00  0.00000000E+00  0.00000000E+00
  0.00000000E+00  0.00000000E+00  0.00000000E+00