CuInSe2gb                               
   1.00000000000000     
     9.7266780392896699    0.0000000000000000    0.0000000000000000
     0.0000000000000000    8.4235502764570693    0.0000000000000000
     0.0000000000000000    0.0000000000000000   45.0000000000000000
   Fe   Mn
   281     7
Direct
  0.0537595231924823  0.7011820708388011  0.2112358166087356
  0.3181847476896085  0.7237560578524469  0.8762528904046679
  0.6883830050434090  0.9587646046138083  0.6115082707684060
  0.4383608749381381  0.4583584408529928  0.6115794013424851
  0.4409633177484978  0.2873733433684537  0.2551011512744207
  0.0586073247890269  0.3885526280260880  0.8335419134078789
  0.3085591408697571  0.8876913397979439  0.8334853132768986
  0.4470138873182501  0.6263000705156572  0.7004010747761713
  0.0597084087970548  0.2126266491113085  0.7449021039068674
  0.1788422365475396  0.4513655753812645  0.2113500581866489
  0.5678323015520153  0.2107393109164471  0.4774657496464455
  0.0665356443281539  0.8750834541724357  0.5668847106067945
  0.5681834551702587  0.2238821898768022  0.8761376336992488
  0.8091615751235932  0.5280581142782169  0.1239333295112225
  0.4289532184742042  0.9514180792053131  0.2113775110649656
  0.5666554039296187  0.3749857711050461  0.5668455662802357
  0.8112186857058115  0.0414104816129179  0.3882975913012996
  0.6817216563739743  0.7889097284581341  0.5224481275538125
  0.4428589093192027  0.4606947173953431  0.4774337360895360
  0.4338497933081636  0.9625596783447438  0.7447699597080569
  0.4416689509329931  0.6250166981733484  0.5668597360303050
  0.5715538984300557  0.8765125627533623  0.7005513226274923
  0.3091574136722854  0.0257167396875867  0.1239860475306519
  0.6899845615087556  0.9588990010531551  0.3441012992452648
  0.6875575308006923  0.7821016666291528  0.1242161880032732
  0.0529580545132445  0.3737480099727235  0.2995532344306193
  0.6898798027114205  0.4679650688578937  0.8761052636328799
  0.4287472284500667  0.4512627519267907  0.2114952826494357
  0.8084656044954123  0.3749707329891595  0.4330863634901316
  0.5635174381997693  0.7085748746030233  0.6115625847756370
  0.5597712806098373  0.5407596684161262  0.6559341403823733
  0.8177106405284778  0.8618218662190020  0.1666367901200553
  0.5653872933408288  0.5371753008128963  0.2551260108056836
  0.6899593904269075  0.4592523345400815  0.3439862011270909
  0.1919841554809220  0.6117041059165500  0.1664383521333166
  0.1945796839452056  0.7994667407071855  0.7888523988629225
  0.4471720242417597  0.1260996397359871  0.7004402498912656
  0.9280155636983886  0.6235619701019529  0.2995850713687303
  0.3173941869410174  0.2236655265956683  0.8761386279974122
  0.3165443052060460  0.8746994592377559  0.5668458625264846
  0.8175750722400981  0.2240008882238406  0.8761861320880753
  0.8096983924706537  0.5407585679851989  0.6558266174437571
  0.5592358365164125  0.5270753592996423  0.1239066959239763
  0.5692674578959536  0.0499595667796723  0.7889629015059232
  0.1905346361520437  0.2871877436499263  0.2551832414048213
  0.8087750158349619  0.8749560788495963  0.4330162408829283
  0.5722100637398259  0.3763132195210407  0.7003951050418701
  0.0572618325924100  0.0266256198355284  0.1241334034074194
  0.3095961939816044  0.5407501745130919  0.6559200937865212
  0.5643879628501786  0.2086050986352455  0.3439234362364223
  0.1882326033031127  0.9585537622254747  0.6114999608842426
  0.3029267194012936  0.3738844063193747  0.2996148063407180
  0.4347565240330961  0.7905201927683330  0.6559747322308336
  0.1949443804091277  0.2988266344786583  0.7888152271838967
  0.0674239304480192  0.3629656235545077  0.1665881595679268
  0.6970098271247617  0.6263190726018490  0.7004369267147998
  0.3116517711318124  0.5412569496574137  0.3884720762271042
  0.0675077467311464  0.7234068980757257  0.8762025497409748
  0.9336660917785072  0.6376149123382991  0.8339228409762145
  0.3196421259275161  0.5496692398063311  0.7889144859102993
  0.3047111408674314  0.2003212851448915  0.2111752381227344
  0.0679227265683373  0.7106767904720325  0.4774711149178684
  0.5538447479031086  0.2006501411531886  0.2111172369189518
  0.3096961763579809  0.2124052980005438  0.7449369691988614
  0.0719168533759715  0.3763647044992435  0.7005210620501724
  0.1832337443555291  0.6375435742330064  0.8335621731839222
  0.0695127323588308  0.0496314991118659  0.7889929919899784
  0.4416727598563009  0.1250113332850509  0.5669154483991607
  0.9348385681440762  0.2906765008714919  0.6558474549316037
  0.8041158857074165  0.2011392345399251  0.2112336022566717
  0.9292285844683591  0.9515700101423820  0.2112382635547298
  0.9415917091024196  0.6250324260484817  0.5668687245324825
  0.8083700487644070  0.3875235859889430  0.8335242630544986
  0.1971464042292810  0.6261505283264670  0.7003335056355676
  0.8085970256220603  0.8876815171634940  0.8335408961109320
  0.6849378382952703  0.2907052732181641  0.6560319786622991
  0.3131001400490633  0.2082189008689063  0.6114905864412065
  0.4345438537259421  0.4627346147217459  0.7448750496523011
  0.4361658836635231  0.7912989589281282  0.3883765787086428
  0.6844951756748159  0.9626498673887012  0.7448760185405224
  0.8037407682751055  0.7009891262821054  0.2112939283294443
  0.8135845206493620  0.7086451117435195  0.6115694451491440
  0.4369751083949914  0.7838475472094909  0.1240307902206665
  0.3096843440387451  0.7121174466386063  0.7448166938686136
  0.3201671437157582  0.0496029871036711  0.7888469320085221
  0.8112744814027325  0.5415022949839775  0.3882709226001828
  0.6822791164344053  0.2883892842718436  0.5223066340277351
  0.6950133531780112  0.7993283481602943  0.7888869644746448
  0.1903376725531846  0.7875558390532321  0.2551877397885268
  0.6916873121205003  0.1125506590938203  0.1666462348859643
  0.6926623030251153  0.9606554664061810  0.4774238358314090
  0.9396740774796529  0.9586027992744576  0.3439796145030495
  0.8073714737898283  0.0391384175307398  0.5225487683455801
  0.6838097104928865  0.6247655215077036  0.4330793778154811
  0.4395708580753249  0.4584687412935277  0.3439728367553770
  0.8104150685885243  0.2118244147362913  0.7446029396165806
  0.4396210315776665  0.9680405058769835  0.8760903670454604
  0.5666452275693270  0.8749058457002640  0.5668477223774869
  0.8092151316218379  0.0280993441951862  0.1239686854648644
  0.4277991135854863  0.6242321872093175  0.2994830633251805
  0.8166546397834754  0.7239318011141826  0.8763633541372192
  0.6880932278523736  0.4583897553127242  0.6114953516312980
  0.5585421089654570  0.3876846830604489  0.8334864368273478
  0.8031233369143790  0.3736522320648232  0.2994846303344693
  0.1862356032840473  0.2911714809179329  0.3883806968000288
  0.8199150524840282  0.5496123435357189  0.7889333345404032
  0.1823521639582255  0.7892411220203425  0.5225097532485636
  0.3029479008743692  0.8737913701628539  0.2995202207770787
  0.1783136162286151  0.9511406663262163  0.2112846103773279
  0.1845240400586239  0.4626228294270693  0.7449838738574233
  0.4325071432531589  0.2884356636429096  0.5222640211017869
  0.0646790395872875  0.7087782430730502  0.3439996419009974
  0.1848553680787914  0.7904356074693043  0.6559140973477361
  0.4446780974813813  0.7992751032492229  0.7888471763117010
  0.6833969433769889  0.1250738806189731  0.4330276494400521
  0.9320799467410765  0.7886996542704496  0.5223708032583122
  0.6917852524061532  0.6127058008288002  0.1667135787817675
  0.9334096187440254  0.1249754169011982  0.4331272436236374
  0.9341620845151126  0.4628080414430182  0.7449368109448747
  0.1899491444173797  0.4586907889652478  0.3440319529622884
  0.5699473511306076  0.5499411077044503  0.7890128182490258
  0.5667525436800912  0.3625236185283938  0.1664642955347906
  0.5646023065574094  0.7089022849587761  0.3439056802459600
  0.5529048628506414  0.3737891185538595  0.2995355793331552
  0.1895548998997597  0.4680200085214325  0.8760876848925745
  0.1917154935854454  0.1116429879998173  0.1664267828414831
  0.4446607822266336  0.2991864657343001  0.7888314612244625
  0.6910701851414581  0.7875707143733633  0.2553627723258418
  0.9337300347300297  0.1376570826943368  0.8335406280614688
  0.4425915090418339  0.9605410767990344  0.4773063134767106
  0.5675154693475380  0.7246669105153791  0.8762368967662341
  0.1926986047698076  0.4607148104979660  0.4774436070040310
  0.9344669148220787  0.2819684785954047  0.1242116723435281
  0.3114395588667705  0.0414357885083365  0.3884068056237627
  0.0601344288601546  0.0404327104773491  0.6560209443328329
  0.5585420984240322  0.3746401361807628  0.4330599194497534
  0.6840420640260603  0.4627539552646471  0.7449759373448772
  0.5598211834578471  0.2124938375917182  0.7448747142865636
  0.9471572483010708  0.1262765046025953  0.7003520284561435
  0.5596602841382892  0.0406112311247737  0.6558466846965556
  0.5569294218578235  0.5391369775895727  0.5224801403574694
  0.1779355292162720  0.1238360179388482  0.2995605989264345
  0.4416935378207048  0.1105767334605411  0.1664582868358253
  0.6775950088045064  0.6240384980409870  0.2995212113685684
  0.9276834226365107  0.1235500124551066  0.2995616661862302
  0.8166059368983424  0.3750190183849898  0.5668944359611676
  0.0529361399499513  0.8738197095101654  0.2995206029292216
  0.1916629988348799  0.6250122529168052  0.5669059362351475
  0.9446830418712371  0.7996072710606578  0.7888334241882771
  0.3084358738225128  0.3873763995505227  0.8335370250104782
  0.9397242635244109  0.4684894779155356  0.8761110021050159
  0.4336762583233565  0.6376901730879085  0.8335203113913907
  0.0647297224696059  0.2085852599486128  0.3439047874149943
  0.1897244914593537  0.9679769608356875  0.8761068588030774
  0.9346262313438690  0.7818809296838437  0.1241811702040851
  0.6865912652671017  0.7914753968066474  0.3884606735033546
  0.9347906129201359  0.7906886767495663  0.6559191167196710
  0.9414546645186179  0.1122558173677876  0.1664727290101862
  0.4350432336860436  0.2906498666208994  0.6560868788144690
  0.0546363128123930  0.2007850706831472  0.2112610311429473
  0.6788359559044789  0.9513563536740197  0.2112665611850590
  0.1782380191227013  0.6240745325807865  0.2995017936871500
  0.8220533986714761  0.8761607094710215  0.7004408718676877
  0.9468074526656157  0.6264389196208839  0.7005151872020529
  0.1971441335435845  0.1261949741732932  0.7003425172353044
  0.9430169643060784  0.4606126577024586  0.4774128028908953
  0.8133933446745770  0.2084643082897450  0.6115355108830515
  0.1834220642018731  0.6247291254512610  0.4331394270421688
  0.4279311047502165  0.1237589486480251  0.2994631774856482
  0.6780402419337268  0.1237892233872344  0.2995048519698794
  0.5617980717923216  0.5415341665229114  0.3884723966300337
  0.8143183105794420  0.2086092775619944  0.3439006100740745
  0.4397278270307460  0.4679427668328440  0.8759547999233327
  0.5584691043525198  0.8875324787037262  0.8334870088296725
  0.3177819528595454  0.2106091069622463  0.4774208083647603
  0.1927511178130471  0.9606086576599717  0.4774091323969927
  0.0585985292697767  0.8877102213317660  0.8335119398346367
  0.0571436732065991  0.5390704115403779  0.5223319671142154
  0.9426419828441012  0.9605909147471630  0.4773378278562553
  0.0632989251185691  0.7083093191485925  0.6115928698127669
  0.5573202951907582  0.0386625522911856  0.5223393276983790
  0.6949926221639910  0.2991319038880244  0.7887774757387402
  0.8175722927680029  0.3618582644670049  0.1666933255078427
  0.4335919124725374  0.1248285239958673  0.4330030900909846
  0.0678367928422396  0.2106839531306215  0.4773995837147020
  0.3097286607413672  0.0406533018336895  0.6559063521851151
  0.4323058955503046  0.7889572658816348  0.5224113062030215
  0.1836383775199111  0.1378024895725382  0.8336009615611297
  0.1855766248611461  0.2831223198869200  0.1243304670396119
  0.9398922216039072  0.4589708566648105  0.3440724065365263
  0.5669085635016786  0.8628253084167662  0.1664605898206651
  0.3037007304314873  0.7007028212769525  0.2112816659061759
  0.9412543819183669  0.6123596006674985  0.1665326542107431
  0.1883404477892126  0.4586962345974939  0.6115473481759794
  0.0722848159363482  0.8764715402407458  0.7003564036940164
  0.0597978769856460  0.5406414273566730  0.6558960950983084
  0.3082062141485732  0.5258657134897576  0.1239506145248672
  0.9363031266153909  0.7910955805988515  0.3884806644280578
  0.9449729251872760  0.2986799498079372  0.7887769897794598
  0.1846323393827584  0.2906228415655486  0.6559256811690275
  0.9382660573488324  0.9584535920997095  0.6115071256853926
  0.8099649959062951  0.7121210899502438  0.7448603386049041
  0.6908403073504596  0.2878265510336881  0.2551748208708874
  0.0593440722990484  0.7123033172803477  0.7449814908867721
  0.6788400976338975  0.4514226188816026  0.2112453889427596
  0.8178506339057223  0.2108927100845144  0.4774021593477972
  0.5676991292125785  0.7106945888183542  0.4774135202076432
  0.0678042734605527  0.8633121162258900  0.1666247284363798
  0.9324162764346171  0.2884726852817824  0.5224190800085402
  0.6844887109158914  0.7903983898166408  0.6558794839099872
  0.0585030374987603  0.8748161895475638  0.4331567790491810
  0.0682218101144648  0.2232254843682512  0.8761705904085471
  0.8097536013814320  0.0406263039852393  0.6559243731032136
  0.5597397377321797  0.0269062896888266  0.1239132556619823
  0.3086374022312047  0.3749482932398204  0.4328950312747047
  0.3166053437051597  0.3749633432992832  0.5668496400127054
  0.3176306571206326  0.7104622134714593  0.4773676018791065
  0.0570666268639331  0.0391770465348091  0.5224821060093661
  0.3220312996496013  0.8763467953890313  0.7005110196640606
  0.0655871092372043  0.5374482684558196  0.2551586488500009
  0.6834518814607510  0.1377216518078817  0.8334937084838221
  0.8149528726126194  0.0376898796461803  0.2551280385045619
  0.1837201455526667  0.1250472882010062  0.4330820919282409
  0.6973942771904943  0.1262485738779470  0.7004377380830963
  0.1822920875926829  0.2890268929724752  0.5225080750775435
  0.4404994629871238  0.7879152569321998  0.2552467578721729
  0.4414370106402372  0.6106489148625170  0.1664715309068078
  0.0635087285060098  0.2085774866249668  0.6115520954837875
  0.1864697472503965  0.7906536468200542  0.3882678296955259
  0.3073792350963141  0.5389050692606993  0.5224708091615087
  0.8218454572725481  0.3765380245222257  0.7002545490507180
  0.6864388464748922  0.2912609208105843  0.3884062197402463
  0.1916121647490342  0.1250275594123403  0.5668797783584338
  0.6898132448182761  0.9684379089180538  0.8760936241197450
  0.6915657189002399  0.1249480325775531  0.5668993709445729
  0.4400292667219755  0.9589369462000075  0.3440454278521393
  0.1839129505590284  0.9626765520183196  0.7447595908149023
  0.9404756758949364  0.7874416839140659  0.2550801975062288
  0.5585359322280042  0.8750344901721206  0.4331102424728633
  0.3084507173739474  0.8751970597427030  0.4330795957291156
  0.8072731311803543  0.5392475122873212  0.5224816450831882
  0.9288821779337257  0.4515236051066989  0.2113222039416026
  0.3154375557425905  0.5378326276661411  0.2551814849667209
  0.5613609719738056  0.0415240544046481  0.3884256186525477
  0.9383243584616862  0.4584630607488178  0.6115731123860689
  0.0614679808356384  0.0413994369434029  0.3884470258183626
  0.0614808445705300  0.5416801512834236  0.3884287296177132
  0.4362214728902367  0.2910670182685241  0.3884431397798702
  0.6928784873652950  0.4607188196694011  0.4774652039929309
  0.0665985839070877  0.3750470387553796  0.5668911178205711
  0.5537198306263714  0.7008297581545988  0.2111382565005434
  0.9407654614196589  0.2875509176454680  0.2552162913416383
  0.8193173562718850  0.0498209631463253  0.7890537057769058
  0.1895352346614751  0.9587697944066126  0.3439289554628873
  0.5532921020717353  0.8735176399827107  0.2995297562110680
  0.0585362929408876  0.3751042536303508  0.4329663540015942
  0.3151854255634475  0.7090818546170398  0.3440428592899699
  0.3145174235444180  0.2089633982962410  0.3438863184458750
  0.9416124238043456  0.1249507686274198  0.5667905015647542
  0.4385575607369386  0.9586735391600933  0.6115456698141738
  0.5652667949352361  0.0374698668938947  0.2550462435812981
  0.1861228472644484  0.7828585294814954  0.1242830704583116
  0.0656041764442483  0.0375472720207181  0.2551990758979268
  0.6916505743381467  0.6249841980132481  0.5669003648048573
  0.0570450024991461  0.5261426386447711  0.1241616938540167
  0.3070278029888150  0.0389674235639262  0.5223291668222459
  0.6875563947620902  0.2820869045721289  0.1242205469471153
  0.8177141943775380  0.7107969141933073  0.4774423410865546
  0.4334495759334443  0.1376652339895624  0.8335062993469076
  0.3223175782388884  0.3764102828605624  0.7003948384952776
  0.6836175206343305  0.6377221890269662  0.8335011495103045
  0.5598590035179081  0.7120923225305368  0.7448729423865568
  0.9369770727189619  0.2915143447145895  0.3884993084652008
  0.9397914340648966  0.9684059416565456  0.8761256010789382
  0.5630149320743687  0.2082324262865652  0.6113698809885401
  0.8166960089614749  0.8750008736001869  0.5668687274243445
  0.8031231699855522  0.8733724678279239  0.2994829229779459
  0.3151817882847986  0.0376092706750732  0.2551530855796217
  0.4368435116206713  0.2834702315650561  0.1240887308964147
  0.3135121103475751  0.7085214771316939  0.6115452003872942
  0.4336425729613072  0.6249067345922122  0.4329969537140715
  0.9326970832657210  0.6254004660989488  0.4332351290215776
  0.3182425802270217  0.8626090039011625  0.1657643980526345
  0.0706118749789420  0.5494398483237670  0.7887680614145195
  0.8151659375395576  0.7080201315541639  0.3439744473459041
  0.3185868679549828  0.3631127192021920  0.1658133447382113
  0.9333195599074395  0.9622213346894612  0.7446741586387881
  0.8158452170597530  0.5376746888119602  0.2555272700027951
 
  0.00000000E+00  0.00000000E+00  0.00000000E+00
  0.00000000E+00  0.00000000E+00  0.00000000E+00
  0.00000000E+00  0.00000000E+00  0.00000000E+00
  0.00000000E+00  0.00000000E+00  0.00000000E+00
  0.00000000E+00  0.00000000E+00  0.00000000E+00
  0.00000000E+00  0.00000000E+00  0.00000000E+00
  0.00000000E+00  0.00000000E+00  0.00000000E+00
  0.00000000E+00  0.00000000E+00  0.00000000E+00
  0.00000000E+00  0.00000000E+00  0.00000000E+00
  0.00000000E+00  0.00000000E+00  0.00000000E+00
  0.00000000E+00  0.00000000E+00  0.00000000E+00
  0.00000000E+00  0.00000000E+00  0.00000000E+00
  0.00000000E+00  0.00000000E+00  0.00000000E+00
  0.00000000E+00  0.00000000E+00  0.00000000E+00
  0.00000000E+00  0.00000000E+00  0.00000000E+00
  0.00000000E+00  0.00000000E+00  0.00000000E+00
  0.00000000E+00  0.00000000E+00  0.00000000E+00
  0.00000000E+00  0.00000000E+00  0.00000000E+00
  0.00000000E+00  0.00000000E+00  0.00000000E+00
  0.00000000E+00  0.00000000E+00  0.00000000E+00
  0.00000000E+00  0.00000000E+00  0.00000000E+00
  0.00000000E+00  0.00000000E+00  0.00000000E+00
  0.00000000E+00  0.00000000E+00  0.00000000E+00
  0.00000000E+00  0.00000000E+00  0.00000000E+00
  0.00000000E+00  0.00000000E+00  0.00000000E+00
  0.00000000E+00  0.00000000E+00  0.00000000E+00
  0.00000000E+00  0.00000000E+00  0.00000000E+00
  0.00000000E+00  0.00000000E+00  0.00000000E+00
  0.00000000E+00  0.00000000E+00  0.00000000E+00
  0.00000000E+00  0.00000000E+00  0.00000000E+00
  0.00000000E+00  0.00000000E+00  0.00000000E+00
  0.00000000E+00  0.00000000E+00  0.00000000E+00
  0.00000000E+00  0.00000000E+00  0.00000000E+00
  0.00000000E+00  0.00000000E+00  0.00000000E+00
  0.00000000E+00  0.00000000E+00  0.00000000E+00
  0.00000000E+00  0.00000000E+00  0.00000000E+00
  0.00000000E+00  0.00000000E+00  0.00000000E+00
  0.00000000E+00  0.00000000E+00  0.00000000E+00
  0.00000000E+00  0.00000000E+00  0.00000000E+00
  0.00000000E+00  0.00000000E+00  0.00000000E+00
  0.00000000E+00  0.00000000E+00  0.00000000E+00
  0.00000000E+00  0.00000000E+00  0.00000000E+00
  0.00000000E+00  0.00000000E+00  0.00000000E+00
  0.00000000E+00  0.00000000E+00  0.00000000E+00
  0.00000000E+00  0.00000000E+00  0.00000000E+00
  0.00000000E+00  0.00000000E+00  0.00000000E+00
  0.00000000E+00  0.00000000E+00  0.00000000E+00
  0.00000000E+00  0.00000000E+00  0.00000000E+00
  0.00000000E+00  0.00000000E+00  0.00000000E+00
  0.00000000E+00  0.00000000E+00  0.00000000E+00
  0.00000000E+00  0.00000000E+00  0.00000000E+00
  0.00000000E+00  0.00000000E+00  0.00000000E+00
  0.00000000E+00  0.00000000E+00  0.00000000E+00
  0.00000000E+00  0.00000000E+00  0.00000000E+00
  0.00000000E+00  0.00000000E+00  0.00000000E+00
  0.00000000E+00  0.00000000E+00  0.00000000E+00
  0.00000000E+00  0.00000000E+00  0.00000000E+00
  0.00000000E+00  0.00000000E+00  0.00000000E+00
  0.00000000E+00  0.00000000E+00  0.00000000E+00
  0.00000000E+00  0.00000000E+00  0.00000000E+00
  0.00000000E+00  0.00000000E+00  0.00000000E+00
  0.00000000E+00  0.00000000E+00  0.00000000E+00
  0.00000000E+00  0.00000000E+00  0.00000000E+00
  0.00000000E+00  0.00000000E+00  0.00000000E+00
  0.00000000E+00  0.00000000E+00  0.00000000E+00
  0.00000000E+00  0.00000000E+00  0.00000000E+00
  0.00000000E+00  0.00000000E+00  0.00000000E+00
  0.00000000E+00  0.00000000E+00  0.00000000E+00
  0.00000000E+00  0.00000000E+00  0.00000000E+00
  0.00000000E+00  0.00000000E+00  0.00000000E+00
  0.00000000E+00  0.00000000E+00  0.00000000E+00
  0.00000000E+00  0.00000000E+00  0.00000000E+00
  0.00000000E+00  0.00000000E+00  0.00000000E+00
  0.00000000E+00  0.00000000E+00  0.00000000E+00
  0.00000000E+00  0.00000000E+00  0.00000000E+00
  0.00000000E+00  0.00000000E+00  0.00000000E+00
  0.00000000E+00  0.00000000E+00  0.00000000E+00
  0.00000000E+00  0.00000000E+00  0.00000000E+00
  0.00000000E+00  0.00000000E+00  0.00000000E+00
  0.00000000E+00  0.00000000E+00  0.00000000E+00
  0.00000000E+00  0.00000000E+00  0.00000000E+00
  0.00000000E+00  0.00000000E+00  0.00000000E+00
  0.00000000E+00  0.00000000E+00  0.00000000E+00
  0.00000000E+00  0.00000000E+00  0.00000000E+00
  0.00000000E+00  0.00000000E+00  0.00000000E+00
  0.00000000E+00  0.00000000E+00  0.00000000E+00
  0.00000000E+00  0.00000000E+00  0.00000000E+00
  0.00000000E+00  0.00000000E+00  0.00000000E+00
  0.00000000E+00  0.00000000E+00  0.00000000E+00
  0.00000000E+00  0.00000000E+00  0.00000000E+00
  0.00000000E+00  0.00000000E+00  0.00000000E+00
  0.00000000E+00  0.00000000E+00  0.00000000E+00
  0.00000000E+00  0.00000000E+00  0.00000000E+00
  0.00000000E+00  0.00000000E+00  0.00000000E+00
  0.00000000E+00  0.00000000E+00  0.00000000E+00
  0.00000000E+00  0.00000000E+00  0.00000000E+00
  0.00000000E+00  0.00000000E+00  0.00000000E+00
  0.00000000E+00  0.00000000E+00  0.00000000E+00
  0.00000000E+00  0.00000000E+00  0.00000000E+00
  0.00000000E+00  0.00000000E+00  0.00000000E+00
  0.00000000E+00  0.00000000E+00  0.00000000E+00
  0.00000000E+00  0.00000000E+00  0.00000000E+00
  0.00000000E+00  0.00000000E+00  0.00000000E+00
  0.00000000E+00  0.00000000E+00  0.00000000E+00
  0.00000000E+00  0.00000000E+00  0.00000000E+00
  0.00000000E+00  0.00000000E+00  0.00000000E+00
  0.00000000E+00  0.00000000E+00  0.00000000E+00
  0.00000000E+00  0.00000000E+00  0.00000000E+00
  0.00000000E+00  0.00000000E+00  0.00000000E+00
  0.00000000E+00  0.00000000E+00  0.00000000E+00
  0.00000000E+00  0.00000000E+00  0.00000000E+00
  0.00000000E+00  0.00000000E+00  0.00000000E+00
  0.00000000E+00  0.00000000E+00  0.00000000E+00
  0.00000000E+00  0.00000000E+00  0.00000000E+00
  0.00000000E+00  0.00000000E+00  0.00000000E+00
  0.00000000E+00  0.00000000E+00  0.00000000E+00
  0.00000000E+00  0.00000000E+00  0.00000000E+00
  0.00000000E+00  0.00000000E+00  0.00000000E+00
  0.00000000E+00  0.00000000E+00  0.00000000E+00
  0.00000000E+00  0.00000000E+00  0.00000000E+00
  0.00000000E+00  0.00000000E+00  0.00000000E+00
  0.00000000E+00  0.00000000E+00  0.00000000E+00
  0.00000000E+00  0.00000000E+00  0.00000000E+00
  0.00000000E+00  0.00000000E+00  0.00000000E+00
  0.00000000E+00  0.00000000E+00  0.00000000E+00
  0.00000000E+00  0.00000000E+00  0.00000000E+00
  0.00000000E+00  0.00000000E+00  0.00000000E+00
  0.00000000E+00  0.00000000E+00  0.00000000E+00
  0.00000000E+00  0.00000000E+00  0.00000000E+00
  0.00000000E+00  0.00000000E+00  0.00000000E+00
  0.00000000E+00  0.00000000E+00  0.00000000E+00
  0.00000000E+00  0.00000000E+00  0.00000000E+00
  0.00000000E+00  0.00000000E+00  0.00000000E+00
  0.00000000E+00  0.00000000E+00  0.00000000E+00
  0.00000000E+00  0.00000000E+00  0.00000000E+00
  0.00000000E+00  0.00000000E+00  0.00000000E+00
  0.00000000E+00  0.00000000E+00  0.00000000E+00
  0.00000000E+00  0.00000000E+00  0.00000000E+00
  0.00000000E+00  0.00000000E+00  0.00000000E+00
  0.00000000E+00  0.00000000E+00  0.00000000E+00
  0.00000000E+00  0.00000000E+00  0.00000000E+00
  0.00000000E+00  0.00000000E+00  0.00000000E+00
  0.00000000E+00  0.00000000E+00  0.00000000E+00
  0.00000000E+00  0.00000000E+00  0.00000000E+00
  0.00000000E+00  0.00000000E+00  0.00000000E+00
  0.00000000E+00  0.00000000E+00  0.00000000E+00
  0.00000000E+00  0.00000000E+00  0.00000000E+00
  0.00000000E+00  0.00000000E+00  0.00000000E+00
  0.00000000E+00  0.00000000E+00  0.00000000E+00
  0.00000000E+00  0.00000000E+00  0.00000000E+00
  0.00000000E+00  0.00000000E+00  0.00000000E+00
  0.00000000E+00  0.00000000E+00  0.00000000E+00
  0.00000000E+00  0.00000000E+00  0.00000000E+00
  0.00000000E+00  0.00000000E+00  0.00000000E+00
  0.00000000E+00  0.00000000E+00  0.00000000E+00
  0.00000000E+00  0.00000000E+00  0.00000000E+00
  0.00000000E+00  0.00000000E+00  0.00000000E+00
  0.00000000E+00  0.00000000E+00  0.00000000E+00
  0.00000000E+00  0.00000000E+00  0.00000000E+00
  0.00000000E+00  0.00000000E+00  0.00000000E+00
  0.00000000E+00  0.00000000E+00  0.00000000E+00
  0.00000000E+00  0.00000000E+00  0.00000000E+00
  0.00000000E+00  0.00000000E+00  0.00000000E+00
  0.00000000E+00  0.00000000E+00  0.00000000E+00
  0.00000000E+00  0.00000000E+00  0.00000000E+00
  0.00000000E+00  0.00000000E+00  0.00000000E+00
  0.00000000E+00  0.00000000E+00  0.00000000E+00
  0.00000000E+00  0.00000000E+00  0.00000000E+00
  0.00000000E+00  0.00000000E+00  0.00000000E+00
  0.00000000E+00  0.00000000E+00  0.00000000E+00
  0.00000000E+00  0.00000000E+00  0.00000000E+00
  0.00000000E+00  0.00000000E+00  0.00000000E+00
  0.00000000E+00  0.00000000E+00  0.00000000E+00
  0.00000000E+00  0.00000000E+00  0.00000000E+00
  0.00000000E+00  0.00000000E+00  0.00000000E+00
  0.00000000E+00  0.00000000E+00  0.00000000E+00
  0.00000000E+00  0.00000000E+00  0.00000000E+00
  0.00000000E+00  0.00000000E+00  0.00000000E+00
  0.00000000E+00  0.00000000E+00  0.00000000E+00
  0.00000000E+00  0.00000000E+00  0.00000000E+00
  0.00000000E+00  0.00000000E+00  0.00000000E+00
  0.00000000E+00  0.00000000E+00  0.00000000E+00
  0.00000000E+00  0.00000000E+00  0.00000000E+00
  0.00000000E+00  0.00000000E+00  0.00000000E+00
  0.00000000E+00  0.00000000E+00  0.00000000E+00
  0.00000000E+00  0.00000000E+00  0.00000000E+00
  0.00000000E+00  0.00000000E+00  0.00000000E+00
  0.00000000E+00  0.00000000E+00  0.00000000E+00
  0.00000000E+00  0.00000000E+00  0.00000000E+00
  0.00000000E+00  0.00000000E+00  0.00000000E+00
  0.00000000E+00  0.00000000E+00  0.00000000E+00
  0.00000000E+00  0.00000000E+00  0.00000000E+00
  0.00000000E+00  0.00000000E+00  0.00000000E+00
  0.00000000E+00  0.00000000E+00  0.00000000E+00
  0.00000000E+00  0.00000000E+00  0.00000000E+00
  0.00000000E+00  0.00000000E+00  0.00000000E+00
  0.00000000E+00  0.00000000E+00  0.00000000E+00
  0.00000000E+00  0.00000000E+00  0.00000000E+00
  0.00000000E+00  0.00000000E+00  0.00000000E+00
  0.00000000E+00  0.00000000E+00  0.00000000E+00
  0.00000000E+00  0.00000000E+00  0.00000000E+00
  0.00000000E+00  0.00000000E+00  0.00000000E+00
  0.00000000E+00  0.00000000E+00  0.00000000E+00
  0.00000000E+00  0.00000000E+00  0.00000000E+00
  0.00000000E+00  0.00000000E+00  0.00000000E+00
  0.00000000E+00  0.00000000E+00  0.00000000E+00
  0.00000000E+00  0.00000000E+00  0.00000000E+00
  0.00000000E+00  0.00000000E+00  0.00000000E+00
  0.00000000E+00  0.00000000E+00  0.00000000E+00
  0.00000000E+00  0.00000000E+00  0.00000000E+00
  0.00000000E+00  0.00000000E+00  0.00000000E+00
  0.00000000E+00  0.00000000E+00  0.00000000E+00
  0.00000000E+00  0.00000000E+00  0.00000000E+00
  0.00000000E+00  0.00000000E+00  0.00000000E+00
  0.00000000E+00  0.00000000E+00  0.00000000E+00
  0.00000000E+00  0.00000000E+00  0.00000000E+00
  0.00000000E+00  0.00000000E+00  0.00000000E+00
  0.00000000E+00  0.00000000E+00  0.00000000E+00
  0.00000000E+00  0.00000000E+00  0.00000000E+00
  0.00000000E+00  0.00000000E+00  0.00000000E+00
  0.00000000E+00  0.00000000E+00  0.00000000E+00
  0.00000000E+00  0.00000000E+00  0.00000000E+00
  0.00000000E+00  0.00000000E+00  0.00000000E+00
  0.00000000E+00  0.00000000E+00  0.00000000E+00
  0.00000000E+00  0.00000000E+00  0.00000000E+00
  0.00000000E+00  0.00000000E+00  0.00000000E+00
  0.00000000E+00  0.00000000E+00  0.00000000E+00
  0.00000000E+00  0.00000000E+00  0.00000000E+00
  0.00000000E+00  0.00000000E+00  0.00000000E+00
  0.00000000E+00  0.00000000E+00  0.00000000E+00
  0.00000000E+00  0.00000000E+00  0.00000000E+00
  0.00000000E+00  0.00000000E+00  0.00000000E+00
  0.00000000E+00  0.00000000E+00  0.00000000E+00
  0.00000000E+00  0.00000000E+00  0.00000000E+00
  0.00000000E+00  0.00000000E+00  0.00000000E+00
  0.00000000E+00  0.00000000E+00  0.00000000E+00
  0.00000000E+00  0.00000000E+00  0.00000000E+00
  0.00000000E+00  0.00000000E+00  0.00000000E+00
  0.00000000E+00  0.00000000E+00  0.00000000E+00
  0.00000000E+00  0.00000000E+00  0.00000000E+00
  0.00000000E+00  0.00000000E+00  0.00000000E+00
  0.00000000E+00  0.00000000E+00  0.00000000E+00
  0.00000000E+00  0.00000000E+00  0.00000000E+00
  0.00000000E+00  0.00000000E+00  0.00000000E+00
  0.00000000E+00  0.00000000E+00  0.00000000E+00
  0.00000000E+00  0.00000000E+00  0.00000000E+00
  0.00000000E+00  0.00000000E+00  0.00000000E+00