FeMn_288_15                             
    1.000000000000000     
     9.7266779999999997    0.0000000000000000    0.0000000000000000
     0.0000000000000000    8.4235500000000005    0.0000000000000000
     0.0000000000000000    0.0000000000000000   45.0000000000000000
   Fe   Mn
   273    15
Direct
  0.5627714862651422  0.0305250916416453  0.1252263493794474
  0.5628824300961697  0.3621755497832065  0.1675869303248804
  0.4380153843456782  0.1130152484544427  0.1676074379709164
  0.5626951041284869  0.7121115590187600  0.6990184956616103
  0.3121501446303471  0.6980261463855940  0.2126226403796964
  0.0625581552668070  0.2072741948115915  0.5652730442521199
  0.8119101712419494  0.3772297614525416  0.6542214951080647
  0.5626154077684951  0.2074434243118247  0.5652975506842336
  0.0624158939209995  0.6977759680129386  0.2125826653433218
  0.1871248387864597  0.9556626782642378  0.4785880236157087
  0.0632811709277736  0.3791930466307416  0.7873272295728482
  0.9383831002192289  0.7813061960812455  0.2567696885056721
  0.4377221116890289  0.4548432717971432  0.4785028994198018
  0.8124510393642692  0.2120078605547815  0.6988465000420180
  0.9376202325376849  0.7792875895967155  0.1253836218122571
  0.3117058648970172  0.7149838979470891  0.8322882322338994
  0.8129850754613531  0.2006757729146275  0.3456744882297442
  0.1872141348631600  0.2856630901578205  0.3897451557877997
  0.8118968452824613  0.2154115143056121  0.8324646219543930
  0.8116588184260606  0.7143175354931380  0.8325069909673760
  0.1874974183542736  0.2798368588125303  0.1253777292222897
  0.5621882704953509  0.7150433206104857  0.8324953641310494
  0.4368924751813879  0.6277507661559191  0.6543036096188046
  0.3124601488295595  0.7118270109277478  0.6990064338691625
  0.4372271627289703  0.7793587641871923  0.1254495865340073
  0.4370003170152467  0.2853048215620378  0.3897728156614494
  0.0625255949973696  0.2119046834837633  0.6988809536183451
  0.6877503522244697  0.6299242668992505  0.7875154091066049
  0.1874638639918255  0.2925733552926623  0.6101907113835088
  0.5618396073004268  0.0453757170120439  0.7432180150282837
  0.9378635361998087  0.9615679652532567  0.6989137320439199
  0.5626038239321794  0.3707473523182634  0.4346196679882917
  0.0617689894672760  0.5457913825623587  0.7430876430080035
  0.0630389201267118  0.0306808382175785  0.1254555669223838
  0.1880608157684826  0.6294799124655563  0.7874411662352780
  0.3124338977460856  0.3712947875245360  0.4346295350682832
  0.5614701628493980  0.2151499799980133  0.8322706615832024
  0.6867046402014630  0.7975995692070862  0.8747146287349059
  0.8121243859466276  0.0351906416511576  0.3898396284243149
  0.3120382865088357  0.2071479147013294  0.5653032418891779
  0.1876632137387599  0.1295992737995597  0.7875450283892664
  0.8126526067424518  0.2076585565124575  0.5653244157732115
  0.9368287731641108  0.9649146652736933  0.8324169792492485
  0.0620501176588295  0.2149233390793887  0.8322553872293385
  0.1870344084258895  0.1275353677914274  0.6542655966079191
  0.8125513074526729  0.3797977021753874  0.7874951646311090
  0.3118944189477000  0.8777187989119258  0.6544241936677854
  0.3122960682892109  0.5298959037141545  0.1253291832381978
  0.9379078503651784  0.2923362096909881  0.6102038323419374
  0.6881057024527961  0.4616990228404190  0.6989639739479833
  0.1879348450554603  0.9621553412592404  0.6989166076215441
  0.4368652039290037  0.7960554099569127  0.7432237488488675
  0.8126234637991121  0.8707674310678388  0.4347460471844390
  0.4374330960386731  0.4479286527504436  0.2125456250571712
  0.5622726008667239  0.8773293728882622  0.6542215716770029
  0.3127605308442629  0.2001518092345754  0.3457423768830721
  0.6883096142964996  0.6127711648569822  0.1675117233304882
  0.6874970316434572  0.4510101622708390  0.3458371703452072
  0.8127645435582379  0.1984991960194830  0.2126598278315649
  0.4376762703750346  0.2969963586459659  0.8746973512483437
  0.8129677025668017  0.0315154167307083  0.2567006497858471
  0.0629567402115434  0.7005601124838342  0.3457060361123884
  0.8128268947053634  0.8802245703075405  0.7873404630083253
  0.0628093390942535  0.0478540574589014  0.8747191056175470
  0.4379846404430839  0.6128519612101874  0.1676831039242542
  0.8124114852290235  0.3658515149578120  0.3011268506138545
  0.3125389715263540  0.3730595782413546  0.5213974890829703
  0.3122077414393100  0.1980192855809854  0.2125676132474565
  0.1882847293496672  0.2815525016183272  0.2569178565991436
  0.8126462896322959  0.7074359528750118  0.5653372143992274
  0.6872735685745543  0.4549535090699812  0.4785657856376853
  0.4376887937654541  0.6206420500058398  0.4347110410060777
  0.9367517256198815  0.9484027317028276  0.2126381831780548
  0.9374943120657128  0.4570820184533150  0.5651882051094712
  0.9379318466266954  0.9560196651697455  0.4786006046387215
  0.5622789276053901  0.6979668865874189  0.2125480328263673
  0.4380966920090587  0.6293424459094722  0.7875921625378320
  0.3116828811138596  0.2149772441004977  0.8323828043763219
  0.5636827027785724  0.5317742830858034  0.2567739657428547
  0.1871665926099127  0.4479672781102056  0.2124736695351978
  0.4375016211020743  0.7820602596766498  0.2568082197615270
  0.1876941288611547  0.7923658430580032  0.6102425151579377
  0.4376103128987696  0.4615383051826981  0.6989672160473024
  0.8126807599708606  0.0424943271683483  0.6102589801624151
  0.1874854922129005  0.2973928599171911  0.8746559737454247
  0.0625795895464316  0.1980640540845562  0.2125716770313573
  0.1877491856184495  0.4506739890745696  0.3457130466372474
  0.1870980770022782  0.4648839221918095  0.8324123207612739
  0.1868977478010593  0.9484205761578212  0.2125808045085950
  0.3119928990441992  0.5459985789497501  0.7431714540860431
  0.8130741968160221  0.3621471565137402  0.1676368738181151
  0.9375923003076410  0.1223973889690124  0.5214062038929650
  0.9373597483187063  0.9578794678635059  0.5653087200094521
  0.4376673751224033  0.7977038711470975  0.8747589799985088
  0.9375354315892342  0.1206614237828983  0.4346725523496792
  0.4376951924653624  0.2817501345281916  0.2568656674038384
  0.5621170632036347  0.5464657332142289  0.7431976527098407
  0.4375672493322877  0.6225351743264778  0.5213099894150331
  0.3131499369431738  0.5320751753115949  0.2569044433295368
  0.6877361226668625  0.2966162570537321  0.8746949536205020
  0.3123860139319596  0.8726690537280253  0.5213835783436469
  0.8125752604033059  0.0479515308487746  0.8746759286678393
  0.9379324347427032  0.4620476397868452  0.6989888280714942
  0.1874804111372247  0.4553412084300702  0.4785031091936169
  0.9382040132702500  0.1299416646278493  0.7874042899227556
  0.9378625754872846  0.6298157212573482  0.7874662235460413
  0.3122739126634144  0.7069404705212465  0.5650908713804307
  0.1878321978103637  0.4611740053429038  0.6989316372211740
  0.6871145687071875  0.4478855300646046  0.2124508973522649
  0.6875804981823919  0.1164667964093897  0.3010049629994374
  0.5632018673400012  0.2057661041297621  0.4785962146243889
  0.9371660951228453  0.6276911350742663  0.6542339791820613
  0.3133651072617302  0.3794154389410479  0.7875658825426198
  0.3131367701817400  0.8624208734884398  0.1677011535147887
  0.0625860682373197  0.0423110391992550  0.6100900582976291
  0.0622795036884861  0.3769370198014657  0.6542151711081198
  0.6872796429293372  0.2852009071206552  0.3897537337007401
  0.8125632552262098  0.2054781050710777  0.4785296991778492
  0.8123657623491936  0.8773942567892830  0.6543721648258691
  0.6882868484643807  0.6225628339342298  0.5214259408606085
  0.3126315052391078  0.0423446568766080  0.6101712221109877
  0.6873712470055573  0.6161182125240314  0.3010043353284750
  0.0627393353029217  0.2006840410497729  0.3457133531873109
  0.1874659933672810  0.1206298360512408  0.4345786222027195
  0.6873075224691980  0.9557579785143265  0.4785528514698507
  0.3123325358493781  0.8663151314080063  0.3010986858703362
  0.0632804785327097  0.3630042145180439  0.1677162062124937
  0.5622799586944979  0.3771868571553704  0.6544150727515630
  0.9373072494209430  0.2967130155387752  0.8747049255115180
  0.3123601892925710  0.2058142557629907  0.4786027752697915
  0.8126205014995341  0.3708423921923431  0.4347418284536709
  0.8126420826970665  0.7116006831294512  0.6989726211159902
  0.4378469925323500  0.9552975235723383  0.4785871611840694
  0.6877748784126805  0.1220142847120677  0.5214533693051249
  0.8127693696234267  0.8624412532504557  0.1676188462783609
  0.9377788140655527  0.2854550006353533  0.3897638976759712
  0.0620206843597618  0.5352444214667286  0.3896675030259048
  0.5632486927081106  0.0318467841952444  0.2568389878848218
  0.0619647211292521  0.0466822015651445  0.7432175778206223
  0.6873256244476758  0.2959618265667713  0.7432449362140785
  0.3123298350171999  0.5355695320908426  0.3897408662621518
  0.3124123844284861  0.3659747520468166  0.3009748196165923
  0.4381641557768384  0.9505470783725725  0.3456431351554440
  0.3129131791230363  0.8788732198562220  0.7875714478683364
  0.9375701349695542  0.7922542295914566  0.6102324454420185
  0.0619726755126130  0.2052949084151638  0.4785251617419472
  0.3117374125438367  0.0459277805133556  0.7431536141106330
  0.0624040148578863  0.7057401671527185  0.4784881455292978
  0.3125488398449709  0.5476814455859537  0.8746728599004924
  0.0628649863626932  0.5422862747267213  0.6101874084826681
  0.4376132249560585  0.9573150585203042  0.5654237718462443
  0.4370769524214769  0.4565861717326869  0.5653739313350913
  0.9376765623111281  0.4552456005936000  0.4785233304042270
  0.8129079211930377  0.5316369177179288  0.2568205882223313
  0.4375944233171447  0.9485142203480520  0.2125727317394300
  0.9373942379424228  0.6224357999535705  0.5214060143349534
  0.5620844260037058  0.8663871475452684  0.3011879289524508
  0.5624391710814866  0.0477811123916142  0.8746862275833058
  0.3127194109032252  0.0479271857400115  0.8746656737815526
  0.4364567929017661  0.2960685622628100  0.7431539333418954
  0.5627230352941927  0.5351269127971371  0.3896951370399481
  0.0622779200894363  0.3660274335342710  0.3011004150750398
  0.5620766565100809  0.0355282918188222  0.3897919717896528
  0.5624053228335426  0.8700469455698078  0.4346586868277846
  0.9385393589118391  0.7976650260579330  0.8746947872356466
  0.3124694825395806  0.8707727214604269  0.4346098292128707
  0.0623801896738017  0.7074389613419820  0.5654697298821935
  0.5627609481684565  0.7004814968159129  0.3456511479611630
  0.4376249576199892  0.2924306080823350  0.6100328255075862
  0.8118969134521568  0.8718652455108536  0.5214556141067381
  0.6869767952975868  0.9579206067685796  0.5652601002968461
  0.6877849821940483  0.1203778190412212  0.4345384609138986
  0.8129520656003537  0.5305947870860569  0.1253116256985146
  0.8133560181033266  0.7007298952176387  0.3456279360875513
  0.4377285522304867  0.7921750897760661  0.6102878127096231
  0.0630155867296322  0.0313301156722367  0.2568232204905446
  0.9374963789094304  0.6207553147045184  0.4346484744500939
  0.4371402643446656  0.7854844231141350  0.3897783797334906
  0.0629323528426832  0.8722594852793943  0.5214314164297198
  0.6873485572626212  0.9483574874739717  0.2126627848782059
  0.8122161914963492  0.0455661693611988  0.7431792819230494
  0.5625791373530276  0.3730115926359054  0.5214456536563530
  0.9360850502075279  0.4656714351169540  0.8325868472446680
  0.9367562375973691  0.7963248105584998  0.7432127155520256
  0.4371795090369454  0.6159335968930157  0.3009894808340912
  0.3126467340709169  0.0363564748778260  0.3897484948694933
  0.0612742675938208  0.7143719249916959  0.8323959305669153
  0.1870845618102952  0.1160270952119840  0.3011332249430469
  0.5622403989928945  0.3664353873147386  0.3011409410552051
  0.0631311332967089  0.8621518027936192  0.1675113651653256
  0.4378522733244136  0.1295536115599303  0.7874717550499941
  0.3125387758984974  0.7002214747584056  0.3457410964443809
  0.6875699940219361  0.6203185415891838  0.4346922882853440
  0.1874145083429896  0.6208287410530187  0.4346517881055758
  0.1875854906300455  0.9578104117951619  0.5654305864548135
  0.8124411059055598  0.7056592381338559  0.4785674672763435
  0.0628951073799914  0.8708246597657283  0.4346325545058944
  0.8120151808808815  0.5464871843594837  0.7432381118678640
  0.1874906945353289  0.4569150301273994  0.5653124580564750
  0.3122411715063634  0.3775875984099339  0.6542503996529581
  0.6869517944617268  0.4655460906153502  0.8325666686717734
  0.1881268066730341  0.6129001586261826  0.1677703905786936
  0.4376256130058753  0.1163863056287118  0.3010729903375425
  0.6880051563557936  0.7921650402109957  0.6101768754443007
  0.0630859441352229  0.5299303007568559  0.1253114007013233
  0.9370309920993144  0.4480795193970328  0.2125477102455028
  0.5636556673876288  0.8630654641852531  0.1675142303239833
  0.9373307912157318  0.2797742868606465  0.1253384974708495
  0.0622940072089251  0.0358672130840436  0.3897941421770836
  0.0625195770617620  0.5320637445924139  0.2568991798552612
  0.6875992792216790  0.2794557200086659  0.1252223529560098
  0.4366504825905762  0.4650008390924193  0.8324112251324677
  0.6876438752748388  0.2927199983476683  0.6103016875348943
  0.6868136379050339  0.9652349227078700  0.8324087696031082
  0.9383938880683234  0.6128111521666104  0.1675390169782675
  0.0627523698799250  0.8791469085253580  0.7874208882671658
  0.3125337365861162  0.5428241686873921  0.6101633088532511
  0.1877870335949540  0.9502919922675563  0.3456203760674244
  0.1869302636413473  0.6277165403851774  0.6542289947732229
  0.9376263222717953  0.6158996600063202  0.3010159739148365
  0.5629367970612840  0.8797068790282321  0.7875059389228447
  0.0626569244365399  0.8663596093494039  0.3011699832788530
  0.6879684201226658  0.1301547876544742  0.7874641601031960
  0.4380052819481440  0.4504315973143330  0.3457089645615758
  0.6872890461961501  0.7798718911773771  0.1253495999026724
  0.0626162130679023  0.3730579985047495  0.5214193657809563
  0.5626360991951458  0.0424198705893329  0.6100802131022378
  0.5619202988443532  0.5482568847796873  0.8746201186830223
  0.5615045817302263  0.5302912226540996  0.1253229928873534
  0.0626002421420136  0.3708888926534721  0.4346561862904934
  0.5627747298463300  0.8724131834926070  0.5214150226074116
  0.6880218522454709  0.7813555131159293  0.2567857001878898
  0.3131899658078752  0.3633986819105088  0.1676416315368510
  0.1872763232282600  0.7962548384035504  0.7431391194542373
  0.5625384419057660  0.5422783671185408  0.6102273239024936
  0.0634095375034246  0.5486171198768240  0.8746580066248731
  0.9371791307565762  0.1162199758761889  0.3011036607314401
  0.9380451272123567  0.2819201999912856  0.2568881117957894
  0.1882159057773007  0.7819235596436767  0.2568505608456149
  0.4373978474938308  0.1207630545384514  0.4349248708117341
  0.1873911278118935  0.6160221095456541  0.3010525630691581
  0.9382653471582104  0.1130173511894512  0.1675996882659620
  0.5627278562828679  0.7058859204872444  0.4785705063209082
  0.8123494922352993  0.8659774797174485  0.3010794427755163
  0.0620221268666702  0.8777376105897470  0.6543007970943950
  0.4367481430679008  0.1273105765631702  0.6543381869275019
  0.5626890543263889  0.3793726076055232  0.7873936363097919
  0.1868198400550388  0.6223336700180608  0.5213174652607522
  0.9376019525543063  0.9502385926538004  0.3456631183844017
  0.0624402072550304  0.7118576119631217  0.6988992211483607
  0.6863230685960967  0.7959816331952875  0.7431821569758259
  0.1874314890117598  0.7854762023920528  0.3897597717355227
  0.9370793492117198  0.1273082166246082  0.6542671639846268
  0.9381347811474386  0.4509762144089195  0.3457949834969840
  0.6879759984132110  0.9502763914888305  0.3457633197597827
  0.6877699089237308  0.9610670058397208  0.6988685110308535
  0.8122542924776807  0.3728639045704086  0.5213683216008256
  0.1882586250599880  0.1125384079130332  0.1677189203891685
  0.8123896570704668  0.5424578162427395  0.6102029953084860
  0.1874786583512078  0.7797216161842223  0.1253891090219548
  0.1874124028751111  0.7977658261200533  0.8747509211726880
  0.8120835932710175  0.0313179737247349  0.1251614073160428
  0.4366406209231572  0.9648667941189417  0.8323792486125121
  0.1866012467183120  0.9645667574133501  0.8325503457012174
  0.1872327100810356  0.1222244113431508  0.5214416519863982
  0.3119223446451367  0.0304773518091735  0.1254573202768722
  0.9374341073395653  0.7855417486788211  0.3897526144196146
  0.5626458679162912  0.2115439998189916  0.6989745373351832
  0.6875714385718567  0.4573820988740682  0.5652868225862057
  0.4372492320376853  0.2798327263292113  0.1253190204947784
  0.6869979998859461  0.1269168178167343  0.6542753403867119
  0.8121915313507926  0.5357060197657938  0.3898010507963559
  0.5612069987749191  0.1982872307689573  0.2126555049785221
  0.6870408729528507  0.6272989340168925  0.6541824106863883
  0.9354769592811845  0.2963519618060647  0.7432127606942849
  0.4374127884103490  0.1223569983720623  0.5212544037967283
  0.6872390468688155  0.7853834443379005  0.3896150425698728
  0.3131179749534430  0.2119041679799850  0.6987138872616456
  0.8119861121813378  0.6983480030415704  0.2127620491445190
  0.6880439250536458  0.2815142562320994  0.2568301843777725
  0.4382496665877179  0.9609425378076205  0.6989718403297276
  0.8130889656381970  0.5476219383978050  0.8744186272271082
  0.1867911497938720  0.2966048421651744  0.7435361224542014
  0.3124412232195408  0.7058359166135278  0.4785961732705597
  0.5626848814019062  0.7072146610403514  0.5654246506687529
  0.5630420044057466  0.2008332926264878  0.3458568221073714
  0.3130002889652400  0.0313343960125539  0.2566992028774954
  0.6883535216933196  0.1123626740794612  0.1669699609691601
 
  0.00000000E+00  0.00000000E+00  0.00000000E+00
  0.00000000E+00  0.00000000E+00  0.00000000E+00
  0.00000000E+00  0.00000000E+00  0.00000000E+00
  0.00000000E+00  0.00000000E+00  0.00000000E+00
  0.00000000E+00  0.00000000E+00  0.00000000E+00
  0.00000000E+00  0.00000000E+00  0.00000000E+00
  0.00000000E+00  0.00000000E+00  0.00000000E+00
  0.00000000E+00  0.00000000E+00  0.00000000E+00
  0.00000000E+00  0.00000000E+00  0.00000000E+00
  0.00000000E+00  0.00000000E+00  0.00000000E+00
  0.00000000E+00  0.00000000E+00  0.00000000E+00
  0.00000000E+00  0.00000000E+00  0.00000000E+00
  0.00000000E+00  0.00000000E+00  0.00000000E+00
  0.00000000E+00  0.00000000E+00  0.00000000E+00
  0.00000000E+00  0.00000000E+00  0.00000000E+00
  0.00000000E+00  0.00000000E+00  0.00000000E+00
  0.00000000E+00  0.00000000E+00  0.00000000E+00
  0.00000000E+00  0.00000000E+00  0.00000000E+00
  0.00000000E+00  0.00000000E+00  0.00000000E+00
  0.00000000E+00  0.00000000E+00  0.00000000E+00
  0.00000000E+00  0.00000000E+00  0.00000000E+00
  0.00000000E+00  0.00000000E+00  0.00000000E+00
  0.00000000E+00  0.00000000E+00  0.00000000E+00
  0.00000000E+00  0.00000000E+00  0.00000000E+00
  0.00000000E+00  0.00000000E+00  0.00000000E+00
  0.00000000E+00  0.00000000E+00  0.00000000E+00
  0.00000000E+00  0.00000000E+00  0.00000000E+00
  0.00000000E+00  0.00000000E+00  0.00000000E+00
  0.00000000E+00  0.00000000E+00  0.00000000E+00
  0.00000000E+00  0.00000000E+00  0.00000000E+00
  0.00000000E+00  0.00000000E+00  0.00000000E+00
  0.00000000E+00  0.00000000E+00  0.00000000E+00
  0.00000000E+00  0.00000000E+00  0.00000000E+00
  0.00000000E+00  0.00000000E+00  0.00000000E+00
  0.00000000E+00  0.00000000E+00  0.00000000E+00
  0.00000000E+00  0.00000000E+00  0.00000000E+00
  0.00000000E+00  0.00000000E+00  0.00000000E+00
  0.00000000E+00  0.00000000E+00  0.00000000E+00
  0.00000000E+00  0.00000000E+00  0.00000000E+00
  0.00000000E+00  0.00000000E+00  0.00000000E+00
  0.00000000E+00  0.00000000E+00  0.00000000E+00
  0.00000000E+00  0.00000000E+00  0.00000000E+00
  0.00000000E+00  0.00000000E+00  0.00000000E+00
  0.00000000E+00  0.00000000E+00  0.00000000E+00
  0.00000000E+00  0.00000000E+00  0.00000000E+00
  0.00000000E+00  0.00000000E+00  0.00000000E+00
  0.00000000E+00  0.00000000E+00  0.00000000E+00
  0.00000000E+00  0.00000000E+00  0.00000000E+00
  0.00000000E+00  0.00000000E+00  0.00000000E+00
  0.00000000E+00  0.00000000E+00  0.00000000E+00
  0.00000000E+00  0.00000000E+00  0.00000000E+00
  0.00000000E+00  0.00000000E+00  0.00000000E+00
  0.00000000E+00  0.00000000E+00  0.00000000E+00
  0.00000000E+00  0.00000000E+00  0.00000000E+00
  0.00000000E+00  0.00000000E+00  0.00000000E+00
  0.00000000E+00  0.00000000E+00  0.00000000E+00
  0.00000000E+00  0.00000000E+00  0.00000000E+00
  0.00000000E+00  0.00000000E+00  0.00000000E+00
  0.00000000E+00  0.00000000E+00  0.00000000E+00
  0.00000000E+00  0.00000000E+00  0.00000000E+00
  0.00000000E+00  0.00000000E+00  0.00000000E+00
  0.00000000E+00  0.00000000E+00  0.00000000E+00
  0.00000000E+00  0.00000000E+00  0.00000000E+00
  0.00000000E+00  0.00000000E+00  0.00000000E+00
  0.00000000E+00  0.00000000E+00  0.00000000E+00
  0.00000000E+00  0.00000000E+00  0.00000000E+00
  0.00000000E+00  0.00000000E+00  0.00000000E+00
  0.00000000E+00  0.00000000E+00  0.00000000E+00
  0.00000000E+00  0.00000000E+00  0.00000000E+00
  0.00000000E+00  0.00000000E+00  0.00000000E+00
  0.00000000E+00  0.00000000E+00  0.00000000E+00
  0.00000000E+00  0.00000000E+00  0.00000000E+00
  0.00000000E+00  0.00000000E+00  0.00000000E+00
  0.00000000E+00  0.00000000E+00  0.00000000E+00
  0.00000000E+00  0.00000000E+00  0.00000000E+00
  0.00000000E+00  0.00000000E+00  0.00000000E+00
  0.00000000E+00  0.00000000E+00  0.00000000E+00
  0.00000000E+00  0.00000000E+00  0.00000000E+00
  0.00000000E+00  0.00000000E+00  0.00000000E+00
  0.00000000E+00  0.00000000E+00  0.00000000E+00
  0.00000000E+00  0.00000000E+00  0.00000000E+00
  0.00000000E+00  0.00000000E+00  0.00000000E+00
  0.00000000E+00  0.00000000E+00  0.00000000E+00
  0.00000000E+00  0.00000000E+00  0.00000000E+00
  0.00000000E+00  0.00000000E+00  0.00000000E+00
  0.00000000E+00  0.00000000E+00  0.00000000E+00
  0.00000000E+00  0.00000000E+00  0.00000000E+00
  0.00000000E+00  0.00000000E+00  0.00000000E+00
  0.00000000E+00  0.00000000E+00  0.00000000E+00
  0.00000000E+00  0.00000000E+00  0.00000000E+00
  0.00000000E+00  0.00000000E+00  0.00000000E+00
  0.00000000E+00  0.00000000E+00  0.00000000E+00
  0.00000000E+00  0.00000000E+00  0.00000000E+00
  0.00000000E+00  0.00000000E+00  0.00000000E+00
  0.00000000E+00  0.00000000E+00  0.00000000E+00
  0.00000000E+00  0.00000000E+00  0.00000000E+00
  0.00000000E+00  0.00000000E+00  0.00000000E+00
  0.00000000E+00  0.00000000E+00  0.00000000E+00
  0.00000000E+00  0.00000000E+00  0.00000000E+00
  0.00000000E+00  0.00000000E+00  0.00000000E+00
  0.00000000E+00  0.00000000E+00  0.00000000E+00
  0.00000000E+00  0.00000000E+00  0.00000000E+00
  0.00000000E+00  0.00000000E+00  0.00000000E+00
  0.00000000E+00  0.00000000E+00  0.00000000E+00
  0.00000000E+00  0.00000000E+00  0.00000000E+00
  0.00000000E+00  0.00000000E+00  0.00000000E+00
  0.00000000E+00  0.00000000E+00  0.00000000E+00
  0.00000000E+00  0.00000000E+00  0.00000000E+00
  0.00000000E+00  0.00000000E+00  0.00000000E+00
  0.00000000E+00  0.00000000E+00  0.00000000E+00
  0.00000000E+00  0.00000000E+00  0.00000000E+00
  0.00000000E+00  0.00000000E+00  0.00000000E+00
  0.00000000E+00  0.00000000E+00  0.00000000E+00
  0.00000000E+00  0.00000000E+00  0.00000000E+00
  0.00000000E+00  0.00000000E+00  0.00000000E+00
  0.00000000E+00  0.00000000E+00  0.00000000E+00
  0.00000000E+00  0.00000000E+00  0.00000000E+00
  0.00000000E+00  0.00000000E+00  0.00000000E+00
  0.00000000E+00  0.00000000E+00  0.00000000E+00
  0.00000000E+00  0.00000000E+00  0.00000000E+00
  0.00000000E+00  0.00000000E+00  0.00000000E+00
  0.00000000E+00  0.00000000E+00  0.00000000E+00
  0.00000000E+00  0.00000000E+00  0.00000000E+00
  0.00000000E+00  0.00000000E+00  0.00000000E+00
  0.00000000E+00  0.00000000E+00  0.00000000E+00
  0.00000000E+00  0.00000000E+00  0.00000000E+00
  0.00000000E+00  0.00000000E+00  0.00000000E+00
  0.00000000E+00  0.00000000E+00  0.00000000E+00
  0.00000000E+00  0.00000000E+00  0.00000000E+00
  0.00000000E+00  0.00000000E+00  0.00000000E+00
  0.00000000E+00  0.00000000E+00  0.00000000E+00
  0.00000000E+00  0.00000000E+00  0.00000000E+00
  0.00000000E+00  0.00000000E+00  0.00000000E+00
  0.00000000E+00  0.00000000E+00  0.00000000E+00
  0.00000000E+00  0.00000000E+00  0.00000000E+00
  0.00000000E+00  0.00000000E+00  0.00000000E+00
  0.00000000E+00  0.00000000E+00  0.00000000E+00
  0.00000000E+00  0.00000000E+00  0.00000000E+00
  0.00000000E+00  0.00000000E+00  0.00000000E+00
  0.00000000E+00  0.00000000E+00  0.00000000E+00
  0.00000000E+00  0.00000000E+00  0.00000000E+00
  0.00000000E+00  0.00000000E+00  0.00000000E+00
  0.00000000E+00  0.00000000E+00  0.00000000E+00
  0.00000000E+00  0.00000000E+00  0.00000000E+00
  0.00000000E+00  0.00000000E+00  0.00000000E+00
  0.00000000E+00  0.00000000E+00  0.00000000E+00
  0.00000000E+00  0.00000000E+00  0.00000000E+00
  0.00000000E+00  0.00000000E+00  0.00000000E+00
  0.00000000E+00  0.00000000E+00  0.00000000E+00
  0.00000000E+00  0.00000000E+00  0.00000000E+00
  0.00000000E+00  0.00000000E+00  0.00000000E+00
  0.00000000E+00  0.00000000E+00  0.00000000E+00
  0.00000000E+00  0.00000000E+00  0.00000000E+00
  0.00000000E+00  0.00000000E+00  0.00000000E+00
  0.00000000E+00  0.00000000E+00  0.00000000E+00
  0.00000000E+00  0.00000000E+00  0.00000000E+00
  0.00000000E+00  0.00000000E+00  0.00000000E+00
  0.00000000E+00  0.00000000E+00  0.00000000E+00
  0.00000000E+00  0.00000000E+00  0.00000000E+00
  0.00000000E+00  0.00000000E+00  0.00000000E+00
  0.00000000E+00  0.00000000E+00  0.00000000E+00
  0.00000000E+00  0.00000000E+00  0.00000000E+00
  0.00000000E+00  0.00000000E+00  0.00000000E+00
  0.00000000E+00  0.00000000E+00  0.00000000E+00
  0.00000000E+00  0.00000000E+00  0.00000000E+00
  0.00000000E+00  0.00000000E+00  0.00000000E+00
  0.00000000E+00  0.00000000E+00  0.00000000E+00
  0.00000000E+00  0.00000000E+00  0.00000000E+00
  0.00000000E+00  0.00000000E+00  0.00000000E+00
  0.00000000E+00  0.00000000E+00  0.00000000E+00
  0.00000000E+00  0.00000000E+00  0.00000000E+00
  0.00000000E+00  0.00000000E+00  0.00000000E+00
  0.00000000E+00  0.00000000E+00  0.00000000E+00
  0.00000000E+00  0.00000000E+00  0.00000000E+00
  0.00000000E+00  0.00000000E+00  0.00000000E+00
  0.00000000E+00  0.00000000E+00  0.00000000E+00
  0.00000000E+00  0.00000000E+00  0.00000000E+00
  0.00000000E+00  0.00000000E+00  0.00000000E+00
  0.00000000E+00  0.00000000E+00  0.00000000E+00
  0.00000000E+00  0.00000000E+00  0.00000000E+00
  0.00000000E+00  0.00000000E+00  0.00000000E+00
  0.00000000E+00  0.00000000E+00  0.00000000E+00
  0.00000000E+00  0.00000000E+00  0.00000000E+00
  0.00000000E+00  0.00000000E+00  0.00000000E+00
  0.00000000E+00  0.00000000E+00  0.00000000E+00
  0.00000000E+00  0.00000000E+00  0.00000000E+00
  0.00000000E+00  0.00000000E+00  0.00000000E+00
  0.00000000E+00  0.00000000E+00  0.00000000E+00
  0.00000000E+00  0.00000000E+00  0.00000000E+00
  0.00000000E+00  0.00000000E+00  0.00000000E+00
  0.00000000E+00  0.00000000E+00  0.00000000E+00
  0.00000000E+00  0.00000000E+00  0.00000000E+00
  0.00000000E+00  0.00000000E+00  0.00000000E+00
  0.00000000E+00  0.00000000E+00  0.00000000E+00
  0.00000000E+00  0.00000000E+00  0.00000000E+00
  0.00000000E+00  0.00000000E+00  0.00000000E+00
  0.00000000E+00  0.00000000E+00  0.00000000E+00
  0.00000000E+00  0.00000000E+00  0.00000000E+00
  0.00000000E+00  0.00000000E+00  0.00000000E+00
  0.00000000E+00  0.00000000E+00  0.00000000E+00
  0.00000000E+00  0.00000000E+00  0.00000000E+00
  0.00000000E+00  0.00000000E+00  0.00000000E+00
  0.00000000E+00  0.00000000E+00  0.00000000E+00
  0.00000000E+00  0.00000000E+00  0.00000000E+00
  0.00000000E+00  0.00000000E+00  0.00000000E+00
  0.00000000E+00  0.00000000E+00  0.00000000E+00
  0.00000000E+00  0.00000000E+00  0.00000000E+00
  0.00000000E+00  0.00000000E+00  0.00000000E+00
  0.00000000E+00  0.00000000E+00  0.00000000E+00
  0.00000000E+00  0.00000000E+00  0.00000000E+00
  0.00000000E+00  0.00000000E+00  0.00000000E+00
  0.00000000E+00  0.00000000E+00  0.00000000E+00
  0.00000000E+00  0.00000000E+00  0.00000000E+00
  0.00000000E+00  0.00000000E+00  0.00000000E+00
  0.00000000E+00  0.00000000E+00  0.00000000E+00
  0.00000000E+00  0.00000000E+00  0.00000000E+00
  0.00000000E+00  0.00000000E+00  0.00000000E+00
  0.00000000E+00  0.00000000E+00  0.00000000E+00
  0.00000000E+00  0.00000000E+00  0.00000000E+00
  0.00000000E+00  0.00000000E+00  0.00000000E+00
  0.00000000E+00  0.00000000E+00  0.00000000E+00
  0.00000000E+00  0.00000000E+00  0.00000000E+00
  0.00000000E+00  0.00000000E+00  0.00000000E+00
  0.00000000E+00  0.00000000E+00  0.00000000E+00
  0.00000000E+00  0.00000000E+00  0.00000000E+00
  0.00000000E+00  0.00000000E+00  0.00000000E+00
  0.00000000E+00  0.00000000E+00  0.00000000E+00
  0.00000000E+00  0.00000000E+00  0.00000000E+00
  0.00000000E+00  0.00000000E+00  0.00000000E+00
  0.00000000E+00  0.00000000E+00  0.00000000E+00
  0.00000000E+00  0.00000000E+00  0.00000000E+00
  0.00000000E+00  0.00000000E+00  0.00000000E+00
  0.00000000E+00  0.00000000E+00  0.00000000E+00
  0.00000000E+00  0.00000000E+00  0.00000000E+00
  0.00000000E+00  0.00000000E+00  0.00000000E+00
  0.00000000E+00  0.00000000E+00  0.00000000E+00
  0.00000000E+00  0.00000000E+00  0.00000000E+00
  0.00000000E+00  0.00000000E+00  0.00000000E+00
  0.00000000E+00  0.00000000E+00  0.00000000E+00
  0.00000000E+00  0.00000000E+00  0.00000000E+00
  0.00000000E+00  0.00000000E+00  0.00000000E+00
  0.00000000E+00  0.00000000E+00  0.00000000E+00
  0.00000000E+00  0.00000000E+00  0.00000000E+00
  0.00000000E+00  0.00000000E+00  0.00000000E+00
  0.00000000E+00  0.00000000E+00  0.00000000E+00
  0.00000000E+00  0.00000000E+00  0.00000000E+00
  0.00000000E+00  0.00000000E+00  0.00000000E+00