FeMn_288_15                             
    1.000000000000000     
     9.7266779999999997    0.0000000000000000    0.0000000000000000
     0.0000000000000000    8.4235500000000005    0.0000000000000000
     0.0000000000000000    0.0000000000000000   45.0000000000000000
   Fe   Mn
   273    15
Direct
  0.5634916469194647  0.0282572816581051  0.1246657469529019
  0.5620261138423517  0.3620345516971410  0.1669542750099836
  0.4370385808038291  0.1125935189885478  0.1669434664153031
  0.5622524765898592  0.7118710246508356  0.6995644949901458
  0.3132501951097967  0.6956010038562965  0.2119749307499877
  0.0626844618489541  0.2077299536335598  0.5655429336617188
  0.8128074417353633  0.3759921383716800  0.6547654927052559
  0.5627666717496331  0.2078293215214866  0.5656000408675390
  0.0635289017015878  0.6952490270276925  0.2119427129870322
  0.1873943785261025  0.9554404952272529  0.4785007626309490
  0.0620758909237113  0.3816407141101740  0.7879465497659880
  0.9375338282369828  0.7805495135578959  0.2561895681402724
  0.4375522096981346  0.4550200327858669  0.4784229417932880
  0.8118728200440128  0.2117852278006833  0.6994052632452481
  0.9382826765359390  0.7771741613266839  0.1249282898551633
  0.3128418796594665  0.7151258894525278  0.8329713992179975
  0.8122136009166846  0.2017853420022908  0.3451378367509428
  0.1875356658485659  0.2861502697351671  0.3893590820608325
  0.8129388039748846  0.2157829075487200  0.8331461376700977
  0.8127625211556766  0.7144624453875669  0.8330605281558741
  0.1881331274343493  0.2775592426565536  0.1248736166297383
  0.5632489616525086  0.7155284738916271  0.8331212368390836
  0.4378632268046627  0.6265829519745533  0.6548358605565326
  0.3120445674616694  0.7118443301893748  0.6995551107227981
  0.4379807063141409  0.7770755582161817  0.1249484962532031
  0.4373759585929217  0.2857433682656220  0.3893419347316909
  0.0619191118104343  0.2119355802719771  0.6994030664667125
  0.6863629486317802  0.6324288353552132  0.7881464324260229
  0.1872150252512127  0.2923455937455920  0.6106076423397713
  0.5628537030777169  0.0462555973069043  0.7438035144718377
  0.9370794599055631  0.9617571301404306  0.6995357861330564
  0.5624665299011700  0.3703536952790308  0.4342949247373722
  0.0626527047096469  0.5466783899305163  0.7436925154271216
  0.0635835158934044  0.0281590966545717  0.1249308855896314
  0.1867503955269693  0.6319385545096743  0.7881008243520328
  0.3122425621458750  0.3709838201249259  0.4343729567111981
  0.5624985758453438  0.2152089802418673  0.8329301828103747
  0.6858952261885447  0.7999167046563007  0.8751941339995859
  0.8123859208805929  0.0357179780553510  0.3894231102269261
  0.3122433201089677  0.2075188933170567  0.5655614586959146
  0.1862864230476000  0.1320870220611391  0.7882131247161132
  0.8128610147088876  0.2080417928847255  0.5655956386874856
  0.9378677955311466  0.9651466434381483  0.8330132211179136
  0.0630456102434761  0.2150235344517960  0.8329160136448150
  0.1880345342253899  0.1265370483447814  0.6547518239222090
  0.8113711745571115  0.3822762703039471  0.7880818941862605
  0.3127612490623991  0.8767770662543733  0.6549722807304111
  0.3130897165246243  0.5273447638957675  0.1247866685705674
  0.9375803098344653  0.2921067428471192  0.6106379524667458
  0.6874182241839260  0.4617523358499618  0.6996118673154160
  0.1871020009776926  0.9622277173153212  0.6995660555462073
  0.4381943794298751  0.7968282595735776  0.7437958544711801
  0.8124496166028877  0.8704370142751202  0.4344913859230025
  0.4383600809177776  0.4455429083424999  0.2119230942606595
  0.5631414880631205  0.8759471913478717  0.6547581850239323
  0.3118498788532919  0.2012294089373648  0.3451940492049878
  0.6874711675976819  0.6125395558109313  0.1669684075720500
  0.6867792832044204  0.4520131774132023  0.3453106913358286
  0.8137168780965159  0.1959130806325601  0.2119910390960017
  0.4368777087497784  0.2992524193430107  0.8752289821922419
  0.8120958782216635  0.0306196911210062  0.2561063267979985
  0.0620858755096202  0.7015769654544169  0.3451592284372309
  0.8116015327790881  0.8825751670692558  0.7879085762658824
  0.0618319957403536  0.0497390841588399  0.8751615408302702
  0.4368850882760150  0.6124007965785080  0.1670199754752908
  0.8129009694226854  0.3658508164064960  0.3005618746799978
  0.3127679030134919  0.3728249823788779  0.5214685805751074
  0.3131971308088441  0.1955272685382740  0.2118803809812213
  0.1872743927857114  0.2808745286337775  0.2563238606850852
  0.8128513998166821  0.7077564713956062  0.5656624866996760
  0.6873543994664971  0.4551251824651384  0.4784464227574000
  0.4375512306823998  0.6203085187940107  0.4344500420507419
  0.9378153321057411  0.9458945921358407  0.2119762009631063
  0.9377209714210040  0.4573355726852816  0.5654548898093328
  0.9376054342180427  0.9553914411972325  0.4785671067834698
  0.5631641572343662  0.6956569424186203  0.2119006466987089
  0.4367881428823965  0.6318813591656833  0.7882624022544831
  0.3128085173636556  0.2152352585222206  0.8330544490287071
  0.5626733545120681  0.5311025277306861  0.2561814736565559
  0.1882151022794998  0.4454780567072223  0.2118557199676438
  0.4366020457346882  0.7814474994840334  0.2562386922206831
  0.1873244397995380  0.7920666838090434  0.6106663624623641
  0.4369739594357605  0.4615541069360056  0.6996012013075658
  0.8124404360017119  0.0421142850132048  0.6106230267768066
  0.1867493048810995  0.2995877861544319  0.8751662175703943
  0.0635503047030202  0.1955711937527357  0.2118987652272985
  0.1869332368860520  0.4516930425837684  0.3451965294914628
  0.1881883923757942  0.4650150776353548  0.8331167435476150
  0.1879627137828821  0.9459359179498832  0.2119573392542178
  0.3129087486288119  0.5469810930381153  0.7437816914342839
  0.8123642051666985  0.3620329657981282  0.1670416727281247
  0.9375638712103255  0.1228520787686893  0.5215147337188422
  0.9375659583481224  0.9581306099276528  0.5655551550105385
  0.4369876060579342  0.8002001627704298  0.8752744952273719
  0.9373165724660574  0.1203467271511532  0.4343720880087284
  0.4369039716493716  0.2810399061341624  0.2562513070685615
  0.5630230718705552  0.5471808406061484  0.7438052345213502
  0.4379552012538809  0.6229438708297879  0.5213712179098119
  0.3122885605688190  0.5314301522281700  0.2562979449046555
  0.6870099310910990  0.2989417170788473  0.8752070879197031
  0.3125307336838468  0.8735571957550433  0.5214576636497948
  0.8117775650369579  0.0500614143783313  0.8751336799043256
  0.9372617991537917  0.4621055026144312  0.6996318012968956
  0.1876288161976090  0.4554190462258095  0.4783672252005236
  0.9368091034989271  0.1324999079371363  0.7880450726199671
  0.9365995786859403  0.6322950196457268  0.7881208123881804
  0.3124492051833976  0.7073392046803842  0.5654246751086356
  0.1870573568614948  0.4614560279329505  0.6995481893996028
  0.6880350755132754  0.4455137369859369  0.2118716637955410
  0.6881072995770983  0.1164253468597496  0.3003797550323177
  0.5634097300252475  0.2058644233428002  0.4785534841757859
  0.9383093448332485  0.6265706120207026  0.6547180264921768
  0.3120274395180072  0.3819792755478339  0.7881721884851574
  0.3122366886268148  0.8619047658498192  0.1669871515558547
  0.0622953263382203  0.0419710333178800  0.6104611568984168
  0.0630716468419986  0.3759199289823177  0.6547431060635401
  0.6875907784829585  0.2856542608384303  0.3893388108092934
  0.8123660849054496  0.2051986866978744  0.4784874102383721
  0.8132011438596941  0.8762400291379647  0.6548853353284251
  0.6879390761996075  0.6227958220176421  0.5215126699932173
  0.3123877596105289  0.0420270175570503  0.6105491378461070
  0.6877654243969183  0.6161126923020560  0.3004383846579558
  0.0618021888587081  0.2016721331738036  0.3452030854552902
  0.1873352224577381  0.1203607358709487  0.4343219289288983
  0.6876485128561991  0.9554928430417094  0.4784735771045666
  0.3127950117770585  0.8661748118940726  0.3005161885669693
  0.0625144180576683  0.3627868920907908  0.1670207434836599
  0.5630511761384540  0.3761335192936102  0.6549463854132578
  0.9366390196150653  0.2991353799526848  0.8752573742758407
  0.3119695859897679  0.2056060658823290  0.4785810662899973
  0.8124599247681891  0.3705008026013197  0.4344642795499803
  0.8121843651798587  0.7114815962800970  0.6995067242461781
  0.4374555955462113  0.9546180528017614  0.4785141162121216
  0.6876584617173479  0.1225724318325187  0.5215386011943555
  0.8118773015482816  0.8625525978783719  0.1669536982556189
  0.9381386664911883  0.2859511402250658  0.3893371153750597
  0.0623268919520281  0.5357446856655532  0.3892607770806890
  0.5624396944265104  0.0310660430976539  0.2562217411435425
  0.0628385751973766  0.0475405942187835  0.7438181550769890
  0.6887758110005684  0.2967113661033439  0.7438155930539880
  0.3126529484120876  0.5359483200136107  0.3893454662281422
  0.3128160625874070  0.3659384623857230  0.3003721703670890
  0.4373571525189109  0.9516772311437344  0.3451524721386691
  0.3117238203522257  0.8812308101026698  0.7881681426523719
  0.9372365898320134  0.7919101448211283  0.6106556756027488
  0.0621623117751962  0.2054028298542404  0.4784856725026864
  0.3127061983328700  0.0465932647101030  0.7437571808896499
  0.0623134840758190  0.7054877810601116  0.4784325638972008
  0.3115445990198050  0.5496543618024663  0.8751863079232123
  0.0626107289257582  0.5419419911715322  0.6105618570619264
  0.4377777086252035  0.9575683682818308  0.5657070193929882
  0.4372682753626046  0.4569340043962389  0.5656651253549977
  0.9375027072029529  0.4554031626946121  0.4784088223558284
  0.8120990156441924  0.5309388721852099  0.2562212003650974
  0.4385525758353105  0.9460728179866762  0.2119446976809720
  0.9376214021915492  0.6230214812476805  0.5214652362031098
  0.5625279221381767  0.8664443190507909  0.3005848375870847
  0.5615851121631488  0.0497427174974964  0.8751671382408804
  0.3117519972135868  0.0499650225737312  0.8751295089555049
  0.4379150995347534  0.2967397950102315  0.7437626272519859
  0.5630093918475954  0.5356544279838571  0.3892818820264535
  0.0627760594914811  0.3659111484388989  0.3005018078099466
  0.5624316839517599  0.0359154312240803  0.3894022549536895
  0.5621997754216729  0.8697100841883944  0.4343704053876918
  0.9377429152639672  0.7999115761078696  0.8751526339694163
  0.3123019068155278  0.8705149202583118  0.4343243217933943
  0.0626067314388064  0.7078360859562555  0.5657751948026465
  0.5619218061096279  0.7015929569362953  0.3451119557390752
  0.4373441475224663  0.2922661381371640  0.6104663623127913
  0.8122332768672393  0.8725775234045848  0.5214888446048777
  0.6871905099129969  0.9581319928874189  0.5655370620590398
  0.6876050053879368  0.1200229634930300  0.4342562016765659
  0.8135944362037578  0.5284909585957174  0.1248837438731164
  0.8124577871034685  0.7018327419844653  0.3451086448888457
  0.4373761990669494  0.7919020285371033  0.6107562091441910
  0.0621974259277843  0.0306099419636377  0.2561813674917187
  0.9372855399961060  0.6204401683279345  0.4343841802586572
  0.4374520093451178  0.7859472463683965  0.3893903483707494
  0.0626565403884029  0.8725733535383252  0.5215128247467180
  0.6882820633445538  0.9457508666039436  0.2120664237774970
  0.8130822920673554  0.0463550336965790  0.7437554046117631
  0.5624261975244012  0.3726765432862649  0.5215521660735905
  0.9373835282528624  0.4655366128075750  0.8331960042232340
  0.9379492899154606  0.7970814660114773  0.7437954118071658
  0.4375840955166331  0.6159839226160611  0.3003968644326983
  0.3129144597517753  0.0368644517324378  0.3893371730683385
  0.0624498443447878  0.7147112470974019  0.8330536028852151
  0.1876221559852055  0.1159643576855517  0.3005249021104817
  0.5627133795198940  0.3664081779082232  0.3005503431990417
  0.0622979256395145  0.8617267811902264  0.1668571998118168
  0.4365608984861895  0.1320003518602231  0.7881460365783562
  0.3116834198403028  0.7011774707115325  0.3452399222182598
  0.6874200408210145  0.6199201045628034  0.4344343441297450
  0.1872528239589824  0.6205668415697211  0.4343706639081594
  0.1878120653810154  0.9581724433459491  0.5657119212092934
  0.8124881168207856  0.7052122691806381  0.4784623835279998
  0.0627561591008414  0.8705103785166377  0.4343600623389372
  0.8128603208400820  0.5473734272018732  0.7438584670563548
  0.1876887867928571  0.4572359741720243  0.5655974496583099
  0.3130222613841058  0.3764593361728429  0.6547804042705748
  0.6879999065163545  0.4655584748393864  0.8331589022583648
  0.1872748309136366  0.6123512906070570  0.1670892944079928
  0.4380590120845885  0.1163558140567397  0.3004930546030494
  0.6875998756241029  0.7918800999850478  0.6106045725680043
  0.0636348361474606  0.5274460908885925  0.1248145323190944
  0.9380519869174763  0.4455037707546253  0.2119699931882182
  0.5627942149543221  0.8626867569207022  0.1668996399255991
  0.9380272876151848  0.2779179852325309  0.1248787438025024
  0.0626256762662232  0.0364310416356123  0.3893935848351588
  0.0616833159101036  0.5312461900811173  0.2563329633747066
  0.6883048302190702  0.2774758542989696  0.1247692178109767
  0.4378636839038957  0.4650948903448276  0.8330716622608307
  0.6873906652963792  0.2924600975913145  0.6107680313910748
  0.6880329753443244  0.9654171977699142  0.8330161877021206
  0.9373033934653831  0.6124863262814201  0.1669682269404934
  0.0615376307071117  0.8816510094701171  0.7879715320409257
  0.3123007857059195  0.5424212875296854  0.6105645863722770
  0.1869389240825443  0.9513675369025566  0.3451256377110027
  0.1880464757559475  0.6266262082611943  0.6547345265680562
  0.9380550957871092  0.6158660934533522  0.3004369041189844
  0.5617807202685560  0.8822626150152342  0.7880749818762343
  0.0631140550437332  0.8662622218407992  0.3005550646789765
  0.6866885735972040  0.1326626177001876  0.7881306849223367
  0.4371284492181640  0.4515304269107778  0.3451938001282847
  0.6881164769503562  0.7780534837121196  0.1248983819294486
  0.0624875324389618  0.3728055152185136  0.5214980520905351
  0.5623928945541558  0.0420794549187574  0.6104905643827561
  0.5609468780175754  0.5504135466407023  0.8750860005093987
  0.5623045433195740  0.5280753167188311  0.1248891612010763
  0.0624104405218416  0.3705780570813379  0.4343745032475215
  0.5625966152553701  0.8727209562306234  0.5215348573345551
  0.6871778996784320  0.7806673896803572  0.2562017971913611
  0.3122699626530609  0.3629621712558009  0.1669337970943872
  0.1883941512772745  0.7970206246369000  0.7437365397404601
  0.5622252360478704  0.5418996793811321  0.6106117104550907
  0.0624861869648845  0.5505760706971899  0.8751567861282243
  0.9376893425745453  0.1160878953507693  0.3005128859777398
  0.9370916665584785  0.2810676844755265  0.2562827509858474
  0.1873493427850442  0.7811907901826075  0.2562822657707575
  0.4372129416969044  0.1204589389451412  0.4346188605283939
  0.1878090104487449  0.6160194860404122  0.3004914446727979
  0.9374071373586378  0.1126484612191423  0.1669846829224564
  0.5626318576791434  0.7054008438440301  0.4785305620717489
  0.8128285430731736  0.8659491002450752  0.3004715382652380
  0.0629059441002064  0.8766670941254266  0.6548198394506459
  0.4378462103268370  0.1261500681246417  0.6548156288959299
  0.5614181530681626  0.3817035795442483  0.7879878720104263
  0.1865285227967957  0.6226450087442509  0.5214032213038327
  0.9368155765708450  0.9513289534337958  0.3451476180629011
  0.0619466936198274  0.7117701868885025  0.6994646363093611
  0.6874960811027839  0.7967255222094539  0.7437564406376881
  0.1878114150162697  0.7859960001824644  0.3893604013201592
  0.9381288236142733  0.1261445493844058  0.6547592322310913
  0.9373057035032516  0.4520809215289488  0.3452931512292703
  0.6871152737969753  0.9515500149050891  0.3452347269866640
  0.6870157657589417  0.9610077629721820  0.6994664135382446
  0.8123099213997926  0.3725466534274537  0.5214580444204949
  0.1872184678333222  0.1121047590015389  0.1670218607854901
  0.8121734437979768  0.5420266554155591  0.6106045108160841
  0.1882639190617692  0.7774522527503712  0.1248798461761982
  0.1864865210935678  0.8001342568813598  0.8752743535601177
  0.8127402136256791  0.0289203231266109  0.1246549332540958
  0.4377462527272730  0.9650308699080871  0.8330182453708276
  0.1877757143111418  0.9645250039159627  0.8331640971591647
  0.1873276915551792  0.1225258397138569  0.5215138970913697
  0.3125033220142924  0.0279351745458069  0.1249380752899312
  0.9377971331477910  0.7860780657424805  0.3893608370409076
  0.5621638851045584  0.2114291534638496  0.6995108050636155
  0.6877795092956225  0.4576864458018836  0.5655881418339590
  0.4382190388265542  0.2778047373875884  0.1248245037222596
  0.6879848095855391  0.1257351740576063  0.6547850910849622
  0.8125466527089245  0.5361841845040256  0.3893960306467700
  0.5622571811410747  0.1957815237022525  0.2120013145990120
  0.6883776910690731  0.6258843621161025  0.6547038665161805
  0.9371606460346096  0.2972470561163905  0.7438004393537255
  0.4374424606514015  0.1228082050498190  0.5214163088470682
  0.6877008579707645  0.7857913106372272  0.3891802362768877
  0.3123195445282000  0.2118352736087842  0.6992406163561427
  0.8133091800732175  0.6957339366607375  0.2121438104416078
  0.6869994802186946  0.2807531132450760  0.2562747588010893
  0.4373551400304583  0.9611394101538810  0.6995872592695923
  0.8118591238101549  0.5496007008309798  0.8749171478067996
  0.1885142768706171  0.2974361257736783  0.7441129982137508
  0.3124658529680023  0.7054507980803237  0.4784612396092107
  0.5628942574882907  0.7075461850039769  0.5657220154689804
  0.5619978482639045  0.2019341766248072  0.3453343111178901
  0.3119810358159409  0.0306220172362276  0.2561221072502770
  0.6870913279759013  0.1123605921882295  0.1663529099291438
 
  0.00000000E+00  0.00000000E+00  0.00000000E+00
  0.00000000E+00  0.00000000E+00  0.00000000E+00
  0.00000000E+00  0.00000000E+00  0.00000000E+00
  0.00000000E+00  0.00000000E+00  0.00000000E+00
  0.00000000E+00  0.00000000E+00  0.00000000E+00
  0.00000000E+00  0.00000000E+00  0.00000000E+00
  0.00000000E+00  0.00000000E+00  0.00000000E+00
  0.00000000E+00  0.00000000E+00  0.00000000E+00
  0.00000000E+00  0.00000000E+00  0.00000000E+00
  0.00000000E+00  0.00000000E+00  0.00000000E+00
  0.00000000E+00  0.00000000E+00  0.00000000E+00
  0.00000000E+00  0.00000000E+00  0.00000000E+00
  0.00000000E+00  0.00000000E+00  0.00000000E+00
  0.00000000E+00  0.00000000E+00  0.00000000E+00
  0.00000000E+00  0.00000000E+00  0.00000000E+00
  0.00000000E+00  0.00000000E+00  0.00000000E+00
  0.00000000E+00  0.00000000E+00  0.00000000E+00
  0.00000000E+00  0.00000000E+00  0.00000000E+00
  0.00000000E+00  0.00000000E+00  0.00000000E+00
  0.00000000E+00  0.00000000E+00  0.00000000E+00
  0.00000000E+00  0.00000000E+00  0.00000000E+00
  0.00000000E+00  0.00000000E+00  0.00000000E+00
  0.00000000E+00  0.00000000E+00  0.00000000E+00
  0.00000000E+00  0.00000000E+00  0.00000000E+00
  0.00000000E+00  0.00000000E+00  0.00000000E+00
  0.00000000E+00  0.00000000E+00  0.00000000E+00
  0.00000000E+00  0.00000000E+00  0.00000000E+00
  0.00000000E+00  0.00000000E+00  0.00000000E+00
  0.00000000E+00  0.00000000E+00  0.00000000E+00
  0.00000000E+00  0.00000000E+00  0.00000000E+00
  0.00000000E+00  0.00000000E+00  0.00000000E+00
  0.00000000E+00  0.00000000E+00  0.00000000E+00
  0.00000000E+00  0.00000000E+00  0.00000000E+00
  0.00000000E+00  0.00000000E+00  0.00000000E+00
  0.00000000E+00  0.00000000E+00  0.00000000E+00
  0.00000000E+00  0.00000000E+00  0.00000000E+00
  0.00000000E+00  0.00000000E+00  0.00000000E+00
  0.00000000E+00  0.00000000E+00  0.00000000E+00
  0.00000000E+00  0.00000000E+00  0.00000000E+00
  0.00000000E+00  0.00000000E+00  0.00000000E+00
  0.00000000E+00  0.00000000E+00  0.00000000E+00
  0.00000000E+00  0.00000000E+00  0.00000000E+00
  0.00000000E+00  0.00000000E+00  0.00000000E+00
  0.00000000E+00  0.00000000E+00  0.00000000E+00
  0.00000000E+00  0.00000000E+00  0.00000000E+00
  0.00000000E+00  0.00000000E+00  0.00000000E+00
  0.00000000E+00  0.00000000E+00  0.00000000E+00
  0.00000000E+00  0.00000000E+00  0.00000000E+00
  0.00000000E+00  0.00000000E+00  0.00000000E+00
  0.00000000E+00  0.00000000E+00  0.00000000E+00
  0.00000000E+00  0.00000000E+00  0.00000000E+00
  0.00000000E+00  0.00000000E+00  0.00000000E+00
  0.00000000E+00  0.00000000E+00  0.00000000E+00
  0.00000000E+00  0.00000000E+00  0.00000000E+00
  0.00000000E+00  0.00000000E+00  0.00000000E+00
  0.00000000E+00  0.00000000E+00  0.00000000E+00
  0.00000000E+00  0.00000000E+00  0.00000000E+00
  0.00000000E+00  0.00000000E+00  0.00000000E+00
  0.00000000E+00  0.00000000E+00  0.00000000E+00
  0.00000000E+00  0.00000000E+00  0.00000000E+00
  0.00000000E+00  0.00000000E+00  0.00000000E+00
  0.00000000E+00  0.00000000E+00  0.00000000E+00
  0.00000000E+00  0.00000000E+00  0.00000000E+00
  0.00000000E+00  0.00000000E+00  0.00000000E+00
  0.00000000E+00  0.00000000E+00  0.00000000E+00
  0.00000000E+00  0.00000000E+00  0.00000000E+00
  0.00000000E+00  0.00000000E+00  0.00000000E+00
  0.00000000E+00  0.00000000E+00  0.00000000E+00
  0.00000000E+00  0.00000000E+00  0.00000000E+00
  0.00000000E+00  0.00000000E+00  0.00000000E+00
  0.00000000E+00  0.00000000E+00  0.00000000E+00
  0.00000000E+00  0.00000000E+00  0.00000000E+00
  0.00000000E+00  0.00000000E+00  0.00000000E+00
  0.00000000E+00  0.00000000E+00  0.00000000E+00
  0.00000000E+00  0.00000000E+00  0.00000000E+00
  0.00000000E+00  0.00000000E+00  0.00000000E+00
  0.00000000E+00  0.00000000E+00  0.00000000E+00
  0.00000000E+00  0.00000000E+00  0.00000000E+00
  0.00000000E+00  0.00000000E+00  0.00000000E+00
  0.00000000E+00  0.00000000E+00  0.00000000E+00
  0.00000000E+00  0.00000000E+00  0.00000000E+00
  0.00000000E+00  0.00000000E+00  0.00000000E+00
  0.00000000E+00  0.00000000E+00  0.00000000E+00
  0.00000000E+00  0.00000000E+00  0.00000000E+00
  0.00000000E+00  0.00000000E+00  0.00000000E+00
  0.00000000E+00  0.00000000E+00  0.00000000E+00
  0.00000000E+00  0.00000000E+00  0.00000000E+00
  0.00000000E+00  0.00000000E+00  0.00000000E+00
  0.00000000E+00  0.00000000E+00  0.00000000E+00
  0.00000000E+00  0.00000000E+00  0.00000000E+00
  0.00000000E+00  0.00000000E+00  0.00000000E+00
  0.00000000E+00  0.00000000E+00  0.00000000E+00
  0.00000000E+00  0.00000000E+00  0.00000000E+00
  0.00000000E+00  0.00000000E+00  0.00000000E+00
  0.00000000E+00  0.00000000E+00  0.00000000E+00
  0.00000000E+00  0.00000000E+00  0.00000000E+00
  0.00000000E+00  0.00000000E+00  0.00000000E+00
  0.00000000E+00  0.00000000E+00  0.00000000E+00
  0.00000000E+00  0.00000000E+00  0.00000000E+00
  0.00000000E+00  0.00000000E+00  0.00000000E+00
  0.00000000E+00  0.00000000E+00  0.00000000E+00
  0.00000000E+00  0.00000000E+00  0.00000000E+00
  0.00000000E+00  0.00000000E+00  0.00000000E+00
  0.00000000E+00  0.00000000E+00  0.00000000E+00
  0.00000000E+00  0.00000000E+00  0.00000000E+00
  0.00000000E+00  0.00000000E+00  0.00000000E+00
  0.00000000E+00  0.00000000E+00  0.00000000E+00
  0.00000000E+00  0.00000000E+00  0.00000000E+00
  0.00000000E+00  0.00000000E+00  0.00000000E+00
  0.00000000E+00  0.00000000E+00  0.00000000E+00
  0.00000000E+00  0.00000000E+00  0.00000000E+00
  0.00000000E+00  0.00000000E+00  0.00000000E+00
  0.00000000E+00  0.00000000E+00  0.00000000E+00
  0.00000000E+00  0.00000000E+00  0.00000000E+00
  0.00000000E+00  0.00000000E+00  0.00000000E+00
  0.00000000E+00  0.00000000E+00  0.00000000E+00
  0.00000000E+00  0.00000000E+00  0.00000000E+00
  0.00000000E+00  0.00000000E+00  0.00000000E+00
  0.00000000E+00  0.00000000E+00  0.00000000E+00
  0.00000000E+00  0.00000000E+00  0.00000000E+00
  0.00000000E+00  0.00000000E+00  0.00000000E+00
  0.00000000E+00  0.00000000E+00  0.00000000E+00
  0.00000000E+00  0.00000000E+00  0.00000000E+00
  0.00000000E+00  0.00000000E+00  0.00000000E+00
  0.00000000E+00  0.00000000E+00  0.00000000E+00
  0.00000000E+00  0.00000000E+00  0.00000000E+00
  0.00000000E+00  0.00000000E+00  0.00000000E+00
  0.00000000E+00  0.00000000E+00  0.00000000E+00
  0.00000000E+00  0.00000000E+00  0.00000000E+00
  0.00000000E+00  0.00000000E+00  0.00000000E+00
  0.00000000E+00  0.00000000E+00  0.00000000E+00
  0.00000000E+00  0.00000000E+00  0.00000000E+00
  0.00000000E+00  0.00000000E+00  0.00000000E+00
  0.00000000E+00  0.00000000E+00  0.00000000E+00
  0.00000000E+00  0.00000000E+00  0.00000000E+00
  0.00000000E+00  0.00000000E+00  0.00000000E+00
  0.00000000E+00  0.00000000E+00  0.00000000E+00
  0.00000000E+00  0.00000000E+00  0.00000000E+00
  0.00000000E+00  0.00000000E+00  0.00000000E+00
  0.00000000E+00  0.00000000E+00  0.00000000E+00
  0.00000000E+00  0.00000000E+00  0.00000000E+00
  0.00000000E+00  0.00000000E+00  0.00000000E+00
  0.00000000E+00  0.00000000E+00  0.00000000E+00
  0.00000000E+00  0.00000000E+00  0.00000000E+00
  0.00000000E+00  0.00000000E+00  0.00000000E+00
  0.00000000E+00  0.00000000E+00  0.00000000E+00
  0.00000000E+00  0.00000000E+00  0.00000000E+00
  0.00000000E+00  0.00000000E+00  0.00000000E+00
  0.00000000E+00  0.00000000E+00  0.00000000E+00
  0.00000000E+00  0.00000000E+00  0.00000000E+00
  0.00000000E+00  0.00000000E+00  0.00000000E+00
  0.00000000E+00  0.00000000E+00  0.00000000E+00
  0.00000000E+00  0.00000000E+00  0.00000000E+00
  0.00000000E+00  0.00000000E+00  0.00000000E+00
  0.00000000E+00  0.00000000E+00  0.00000000E+00
  0.00000000E+00  0.00000000E+00  0.00000000E+00
  0.00000000E+00  0.00000000E+00  0.00000000E+00
  0.00000000E+00  0.00000000E+00  0.00000000E+00
  0.00000000E+00  0.00000000E+00  0.00000000E+00
  0.00000000E+00  0.00000000E+00  0.00000000E+00
  0.00000000E+00  0.00000000E+00  0.00000000E+00
  0.00000000E+00  0.00000000E+00  0.00000000E+00
  0.00000000E+00  0.00000000E+00  0.00000000E+00
  0.00000000E+00  0.00000000E+00  0.00000000E+00
  0.00000000E+00  0.00000000E+00  0.00000000E+00
  0.00000000E+00  0.00000000E+00  0.00000000E+00
  0.00000000E+00  0.00000000E+00  0.00000000E+00
  0.00000000E+00  0.00000000E+00  0.00000000E+00
  0.00000000E+00  0.00000000E+00  0.00000000E+00
  0.00000000E+00  0.00000000E+00  0.00000000E+00
  0.00000000E+00  0.00000000E+00  0.00000000E+00
  0.00000000E+00  0.00000000E+00  0.00000000E+00
  0.00000000E+00  0.00000000E+00  0.00000000E+00
  0.00000000E+00  0.00000000E+00  0.00000000E+00
  0.00000000E+00  0.00000000E+00  0.00000000E+00
  0.00000000E+00  0.00000000E+00  0.00000000E+00
  0.00000000E+00  0.00000000E+00  0.00000000E+00
  0.00000000E+00  0.00000000E+00  0.00000000E+00
  0.00000000E+00  0.00000000E+00  0.00000000E+00
  0.00000000E+00  0.00000000E+00  0.00000000E+00
  0.00000000E+00  0.00000000E+00  0.00000000E+00
  0.00000000E+00  0.00000000E+00  0.00000000E+00
  0.00000000E+00  0.00000000E+00  0.00000000E+00
  0.00000000E+00  0.00000000E+00  0.00000000E+00
  0.00000000E+00  0.00000000E+00  0.00000000E+00
  0.00000000E+00  0.00000000E+00  0.00000000E+00
  0.00000000E+00  0.00000000E+00  0.00000000E+00
  0.00000000E+00  0.00000000E+00  0.00000000E+00
  0.00000000E+00  0.00000000E+00  0.00000000E+00
  0.00000000E+00  0.00000000E+00  0.00000000E+00
  0.00000000E+00  0.00000000E+00  0.00000000E+00
  0.00000000E+00  0.00000000E+00  0.00000000E+00
  0.00000000E+00  0.00000000E+00  0.00000000E+00
  0.00000000E+00  0.00000000E+00  0.00000000E+00
  0.00000000E+00  0.00000000E+00  0.00000000E+00
  0.00000000E+00  0.00000000E+00  0.00000000E+00
  0.00000000E+00  0.00000000E+00  0.00000000E+00
  0.00000000E+00  0.00000000E+00  0.00000000E+00
  0.00000000E+00  0.00000000E+00  0.00000000E+00
  0.00000000E+00  0.00000000E+00  0.00000000E+00
  0.00000000E+00  0.00000000E+00  0.00000000E+00
  0.00000000E+00  0.00000000E+00  0.00000000E+00
  0.00000000E+00  0.00000000E+00  0.00000000E+00
  0.00000000E+00  0.00000000E+00  0.00000000E+00
  0.00000000E+00  0.00000000E+00  0.00000000E+00
  0.00000000E+00  0.00000000E+00  0.00000000E+00
  0.00000000E+00  0.00000000E+00  0.00000000E+00
  0.00000000E+00  0.00000000E+00  0.00000000E+00
  0.00000000E+00  0.00000000E+00  0.00000000E+00
  0.00000000E+00  0.00000000E+00  0.00000000E+00
  0.00000000E+00  0.00000000E+00  0.00000000E+00
  0.00000000E+00  0.00000000E+00  0.00000000E+00
  0.00000000E+00  0.00000000E+00  0.00000000E+00
  0.00000000E+00  0.00000000E+00  0.00000000E+00
  0.00000000E+00  0.00000000E+00  0.00000000E+00
  0.00000000E+00  0.00000000E+00  0.00000000E+00
  0.00000000E+00  0.00000000E+00  0.00000000E+00
  0.00000000E+00  0.00000000E+00  0.00000000E+00
  0.00000000E+00  0.00000000E+00  0.00000000E+00
  0.00000000E+00  0.00000000E+00  0.00000000E+00
  0.00000000E+00  0.00000000E+00  0.00000000E+00
  0.00000000E+00  0.00000000E+00  0.00000000E+00
  0.00000000E+00  0.00000000E+00  0.00000000E+00
  0.00000000E+00  0.00000000E+00  0.00000000E+00
  0.00000000E+00  0.00000000E+00  0.00000000E+00
  0.00000000E+00  0.00000000E+00  0.00000000E+00
  0.00000000E+00  0.00000000E+00  0.00000000E+00
  0.00000000E+00  0.00000000E+00  0.00000000E+00
  0.00000000E+00  0.00000000E+00  0.00000000E+00
  0.00000000E+00  0.00000000E+00  0.00000000E+00
  0.00000000E+00  0.00000000E+00  0.00000000E+00
  0.00000000E+00  0.00000000E+00  0.00000000E+00
  0.00000000E+00  0.00000000E+00  0.00000000E+00
  0.00000000E+00  0.00000000E+00  0.00000000E+00
  0.00000000E+00  0.00000000E+00  0.00000000E+00
  0.00000000E+00  0.00000000E+00  0.00000000E+00
  0.00000000E+00  0.00000000E+00  0.00000000E+00
  0.00000000E+00  0.00000000E+00  0.00000000E+00
  0.00000000E+00  0.00000000E+00  0.00000000E+00
  0.00000000E+00  0.00000000E+00  0.00000000E+00
  0.00000000E+00  0.00000000E+00  0.00000000E+00
  0.00000000E+00  0.00000000E+00  0.00000000E+00
  0.00000000E+00  0.00000000E+00  0.00000000E+00
  0.00000000E+00  0.00000000E+00  0.00000000E+00
  0.00000000E+00  0.00000000E+00  0.00000000E+00
  0.00000000E+00  0.00000000E+00  0.00000000E+00
  0.00000000E+00  0.00000000E+00  0.00000000E+00