CuInSe2gb                               
   1.00000000000000     
     9.7266780392896699    0.0000000000000000    0.0000000000000000
     0.0000000000000000    8.4235502764570693    0.0000000000000000
     0.0000000000000000    0.0000000000000000   45.0000000000000000
   Fe   Mn
   274    14
Direct
  0.0628885248810966  0.0314883533892874  0.1243353165188694
  0.3149414983763224  0.8738869103678447  0.6548944077919620
  0.1860320395583651  0.1247687647320611  0.7889755624882205
  0.4408408761692421  0.2879402791694090  0.3893338772727374
  0.3160032365779377  0.7121946046300365  0.8334579179846471
  0.8170220788395924  0.2138425472711296  0.8338448402735936
  0.1905642683694369  0.9631686820101191  0.8339749475426005
  0.5617207999493934  0.2059007262743146  0.5656504749747526
  0.0642316431705864  0.0411891361507504  0.7441692491043030
  0.8117401601926212  0.8727833366781002  0.5218330670796949
  0.1894362009837756  0.2914798839091119  0.7443958017938530
  0.9354561744991724  0.4531446036427113  0.3449388037786152
  0.9405108912569621  0.2877658139048734  0.3891503934094649
  0.8126798982406064  0.0436362335246755  0.8753153478574386
  0.1851042303597008  0.7897089019977331  0.6104933008294535
  0.5648914248805590  0.0381659002834697  0.3892332298431366
  0.9424382624665972  0.9633712600918185  0.8340813543014997
  0.3128193501259622  0.5431684745757690  0.8754624097850335
  0.6890490901190524  0.2913192462400101  0.7441895879394408
  0.1833245389602959  0.6152709953387983  0.1661355756598264
  0.8126206097503649  0.2056348693038221  0.4786585490918639
  0.8101239084614076  0.5389866905601258  0.6106729171803004
  0.3125357603227855  0.8713972068625139  0.4346489987322959
  0.8107979555303272  0.0378591363778028  0.2556563761213325
  0.6855150076868404  0.9531916177344124  0.3447368811460687
  0.9330693131773860  0.1139934409354960  0.1665636163123254
  0.0617930300882781  0.8729784189518509  0.5216859222813971
  0.5594821818477327  0.5377489363512339  0.2556312797860893
  0.6856287457516804  0.7957156791548261  0.8755923769739260
  0.5573025595431274  0.3646172305509095  0.1662477720609078
  0.4394220384866245  0.7914332238905110  0.7443513780775901
  0.8113698070168081  0.7064792101467879  0.5657966504493285
  0.5597569294392801  0.8741952669727145  0.7888262116710437
  0.6870644871710854  0.1220498609847279  0.5216798452869880
  0.8148858615034823  0.3743405418668655  0.6549805218078480
  0.9416829596898285  0.4629139916156996  0.8339357239627614
  0.0603107571223248  0.2080942500311983  0.6998261331933948
  0.4364052392146785  0.9567050755111650  0.6997863914852509
  0.3153425123481310  0.2121480859964029  0.8336525355478607
  0.4400742548508436  0.6247952692163925  0.6548714963095098
  0.3101613734701702  0.5392859509466060  0.6105816301237532
  0.9365338035657140  0.4559828645054303  0.5658503120578644
  0.6890264189358595  0.7911912039642441  0.7441850239417075
  0.9360108431250936  0.7843206669853838  0.1245235443945211
  0.6905934974801144  0.7874261154199479  0.3891655129120136
  0.9389082394696130  0.7908331196038062  0.7442155197420129
  0.0606726725933848  0.2034964185545258  0.3449641242352074
  0.6859087690939912  0.4528808938332592  0.3448796367450853
  0.4348328200700057  0.1246212083499757  0.7891322208722986
  0.0638414935017563  0.2034410391542463  0.2113669243042937
  0.0575763892865566  0.3649422858181771  0.1661561877082590
  0.9353986797643232  0.7873574787853003  0.2555307426928725
  0.5614896208827284  0.2075882623090772  0.6999481222766399
  0.6863979665973201  0.9570817545207624  0.6997942838542347
  0.8096259182200087  0.8744306577171501  0.7886665649948555
  0.4361503174488605  0.9563724976216825  0.5657802742993586
  0.8097718688989497  0.3747010149679091  0.7886953057272466
  0.6856123158014523  0.2874961519700230  0.2556385869447095
  0.1865285549960920  0.4560830060333912  0.5657592452561073
  0.0576143124592601  0.8665178013514165  0.1663155348204140
  0.1845757113514475  0.2880334693121613  0.6106518605833903
  0.0611702426664687  0.2059938768123190  0.5657286244381262
  0.3111159673772872  0.2077782892526515  0.6999460240886700
  0.5628707388050609  0.5438621800453413  0.8753967604786961
  0.3076911914317383  0.8653735528016163  0.1662662758900863
  0.6841932854372078  0.6240574400921648  0.7887073308847886
  0.3153853451127906  0.5367093875819413  0.3892316779044620
  0.1873906752022487  0.6219334786761318  0.5216781179478666
  0.5623219758371006  0.8713509596475146  0.4343911118360007
  0.4361328235904656  0.4563606456670423  0.5656817927288920
  0.4394311376813928  0.2921120422447501  0.7443785957659707
  0.8177290600502136  0.8731385396353171  0.3002093936900402
  0.8106525500069693  0.7033494895776670  0.3449866097794288
  0.4401781302242162  0.4619841425177419  0.8336483197027698
  0.6874462292055503  0.9552846169177386  0.4785868779425355
  0.6863316891387624  0.4577342977513233  0.6998749019475193
  0.5615835936933822  0.8723209124087088  0.5217720623181952
  0.5651603638878439  0.3746610699729931  0.6549564818837287
  0.8144608578404915  0.8742709070328890  0.6549807513377408
  0.8115621845043099  0.3708080556786880  0.4342818379827180
  0.8096525853950350  0.5369265994176694  0.2558071751578658
  0.6904927374305027  0.4623459226123656  0.8336358086236446
  0.1866666432055858  0.7844007955763778  0.1241958633280055
  0.6898727096337502  0.2881048080612070  0.3892238218309497
  0.3141751388671060  0.3743918434456606  0.6548506549206640
  0.3108624566228483  0.2035663958955201  0.3448896539369678
  0.8140648782658723  0.5409168929490459  0.7440045255308834
  0.6906954709279409  0.9622474544343441  0.8336570744688013
  0.5651714403678912  0.8734981087247463  0.6548248910890041
  0.3117235567117078  0.7067332845588626  0.5657708535429743
  0.3112239896343107  0.5333471106184179  0.1237627592128279
  0.6895180163245521  0.9548144522650971  0.2116154225682851
  0.3115771862971549  0.2058983989889751  0.5657110305869310
  0.1871144579268056  0.9552076706420990  0.4785055935376251
  0.6874421692939087  0.9561929914767580  0.5659005736367698
  0.4351212624938601  0.7889297616263852  0.6105667592096047
  0.6828920661498997  0.6142525594228651  0.1659417700484340
  0.3175110044398438  0.8713960590694450  0.3000214894807617
  0.3119922214620665  0.7052915514054340  0.4784336624249473
  0.9354057884864401  0.2876104306706456  0.6105392106681466
  0.4422465245849232  0.6225359278332619  0.3000302092858981
  0.8083739285659211  0.8653061564109888  0.1664708232015681
  0.5657320100449096  0.2030491199459400  0.2115286769293059
  0.9335527018786351  0.6151452027775071  0.1663077154739937
  0.4370699317971360  0.9550631178768100  0.4785890960608171
  0.5592401853910136  0.3737248637867395  0.7888650758738379
  0.0614639399856492  0.3722708776726502  0.5216940596767159
  0.3080482293057979  0.3648061561693186  0.1660945785932582
  0.6931285990361769  0.1223415815733568  0.3003476475337196
  0.4406470203519792  0.9622247419579553  0.8337250236817718
  0.1864692904761986  0.2831496128533899  0.1243352592983214
  0.1855293809264598  0.2876599073923816  0.2558131292213011
  0.3131153244593608  0.3712305291911490  0.4344739224458768
  0.5611278852713006  0.0328820058020240  0.1244182278802287
  0.4347976775018183  0.2887516079372671  0.6105711996823920
  0.1856142693807821  0.4536264729697160  0.3448485702789297
  0.4335828125251580  0.2835409112625327  0.1242701073524654
  0.6849782048751119  0.7876519713111980  0.2558305194987948
  0.4366296844511999  0.1225505751459750  0.5216551957277652
  0.1888152853597861  0.2948232208630235  0.8757726880133830
  0.1888669385288147  0.1239734010513562  0.6548463889524763
  0.9394087755257290  0.1236600708062059  0.6548091585647109
  0.8152824818032078  0.5374498765073551  0.3891840500716294
  0.0654434022217536  0.0388448387929886  0.3892978433093062
  0.1831946441430939  0.1140187902886308  0.1663373040721133
  0.0596809982293376  0.5378033947999958  0.6105480904830434
  0.9350293484977862  0.2869764490458187  0.2557057904296079
  0.5601942445173889  0.5401091721889479  0.6106692035923269
  0.9366838815101347  0.9566438541622573  0.5658320090719271
  0.6918967097781404  0.6227931341029486  0.3001415775895251
  0.9375742753086954  0.6212206786264807  0.4343695682769240
  0.9347967663356722  0.6252054928203863  0.7887151267406053
  0.5613585922788320  0.7068582520767633  0.6998155226484862
  0.0659397943607467  0.7141883569459408  0.8339688611706655
  0.9426387460170143  0.1226594705913389  0.3001746007934838
  0.9345005238966734  0.7895252368723832  0.6106453891080004
  0.4356685486510957  0.7862142838542253  0.2558450108823474
  0.3102610871854447  0.3737781364866444  0.7890587175191323
  0.4395170726197499  0.4533916144887986  0.2116864185479871
  0.1864671039005102  0.1221074569023502  0.5216043369851010
  0.8109243529001516  0.7074434467875701  0.6997828573875534
  0.0596429542611147  0.0389697828104511  0.6105002696057649
  0.5647104932002958  0.2120736593521537  0.8334295918182413
  0.3117564657696313  0.8722063236723777  0.5217987893971313
  0.6854687958254602  0.2835833627086726  0.1239555937818143
  0.1893069550210623  0.9551682939374525  0.2115949087327570
  0.6857323189727725  0.2886355955139504  0.6106894993267526
  0.3094437986895882  0.0382168289368293  0.6105653816223099
  0.9351872990622224  0.1253216093990288  0.7888508776298992
  0.4368863865474998  0.7958381715251180  0.8756045139302512
  0.8141681260258667  0.0414651646333038  0.7440586301824182
  0.9357315168957601  0.4578390921421213  0.6997828288548648
  0.1894202933085903  0.6245235547672747  0.6550337074714340
  0.3111467709893626  0.7069264109382325  0.6998973614631259
  0.9352839364057474  0.2831764988911680  0.1241126689066331
  0.4372444942345615  0.4551157781705226  0.4784928735113216
  0.0627068824717908  0.7051471924620759  0.4785091652998075
  0.9375607375800078  0.1208237361014589  0.4346604214032102
  0.4427334526732635  0.1223388923392750  0.3003444171550075
  0.1870020502036169  0.1205403404284543  0.4342573501275998
  0.5630843633042282  0.0428478658431858  0.8755492882326349
  0.1860716085724792  0.9563049924096030  0.5659280158815149
  0.6844040921445219  0.7842273685619845  0.1244005616050475
  0.5611739870863000  0.7030972741162990  0.3448691829021250
  0.3157428556900973  0.0385583809456983  0.3891331062758103
  0.6837198942928363  0.1139521866027134  0.1667704610234473
  0.8143239443304817  0.2023566108111399  0.2114830961423771
  0.0609635507706957  0.5375820378775902  0.2556908089967365
  0.5622681924027865  0.7050481885042492  0.4785311359025013
  0.4347337533664140  0.7838385345771024  0.1241040077138610
  0.5672274021810813  0.3724688579291871  0.3001848288600346
  0.4358824281183248  0.9532093727525012  0.3448491198322793
  0.1853926953296810  0.9573324944545495  0.6998329699625502
  0.4333795817275776  0.6141777758684404  0.1658573336909316
  0.9392501529260480  0.4533758512267770  0.2118090846388750
  0.0621200104594673  0.5334053430042424  0.1239820979695909
  0.8121248822199783  0.3721621735756936  0.5216099714410366
  0.9429389931963490  0.6229886328055382  0.3000492325556349
  0.3109537922036941  0.0364964694998754  0.2555812998610600
  0.6852842874321085  0.7888341496940724  0.6106120635356428
  0.1911016952191625  0.4628906493535223  0.8337125601684774
  0.4335128672909156  0.1140935722372518  0.1664845230047357
  0.3118199735037563  0.3725165304702731  0.5215686007838334
  0.4345953761642291  0.6237030382233258  0.7891046218983395
  0.0601034044853227  0.0369434122833538  0.2556745664932921
  0.5619516470129187  0.7070900184501048  0.5658472030492164
  0.9388715640139134  0.2911071002654598  0.7441897312788162
  0.6840589392073679  0.1242576888061575  0.7887073594837549
  0.1894997987380435  0.4542576732803296  0.2116692283263273
  0.9397919244437596  0.7871849260287744  0.3891609942616875
  0.6867659137104367  0.2962145009594980  0.8755967658337676
  0.5575044014949209  0.8640741198852020  0.1662739969840341
  0.4364458797879407  0.4576841678749060  0.6999167921427184
  0.9363262965344932  0.9527524711743443  0.3447743002416230
  0.6864313890033733  0.6221827803081501  0.5215966436066145
  0.0638269375353971  0.8743469298384449  0.6547873877658512
  0.0608550306124602  0.8746989117246505  0.7889217190533081
  0.0640618688660377  0.3735025189335129  0.6550035810734230
  0.6869561515931806  0.4548489969931905  0.4783921512814518
  0.1857700912682052  0.7864690930418530  0.2557061797851342
  0.4374489572567065  0.1213040800256149  0.4343822374077116
  0.8130903632189173  0.0322522459456641  0.1244092193313496
  0.9364163864385880  0.6219564502128316  0.5216663953615851
  0.4400582583344889  0.1236655638206286  0.6548861006885491
  0.8127134714326142  0.5331100001415472  0.1236537774520590
  0.4361214558976522  0.4533312069067382  0.3448457487305480
  0.8108400787871421  0.2033041603783686  0.3448735386097113
  0.3114843646252890  0.7026560768834353  0.3445346966715848
  0.6901109712728720  0.1237318029552139  0.6549413659329296
  0.5676347608522542  0.8718971795646133  0.3001007235068582
  0.0641208103711485  0.5406567448910464  0.7441609389614032
  0.9387300994795742  0.9548331186649851  0.2113670944024174
  0.8148149002364389  0.7039579678933281  0.2115086922517692
  0.0681277737738457  0.8721452167251031  0.3001685539433472
  0.1923524979075260  0.1227534798570100  0.3001444220194081
  0.0604720113785914  0.7031632939126453  0.3447820290884701
  0.8109172223141876  0.0381377407886996  0.6106488204695238
  0.0626001779150253  0.3708931045838886  0.4343301133979032
  0.5613958864184293  0.2033333589969758  0.3449480228189873
  0.8171900440047815  0.3727839258766293  0.3001134137296725
  0.5617039150821613  0.0371287436662804  0.2554922482190140
  0.5651435590626140  0.5371233511623797  0.3892578225399935
  0.0620463624431528  0.2050210924468149  0.4786790013411847
  0.3111541985115319  0.8736638178798145  0.7888060551462935
  0.9356372416157746  0.9576294902334106  0.6996776867713572
  0.0677842260725062  0.3732547395340607  0.3001591330024790
  0.6897730072038982  0.6248866453317018  0.6550073613957939
  0.6872640332154307  0.4565638405913960  0.5656583675174356
  0.4399317375085040  0.9551402134374946  0.2117247142960990
  0.3122433315897048  0.2056479931986014  0.4785777803782960
  0.8127325237313552  0.5424312945994957  0.8753672144999985
  0.6875672468958653  0.6201954302409588  0.4344184699460107
  0.8111786968066654  0.2078155719920376  0.6998704631737904
  0.8122372268125865  0.7051971490295741  0.4785325771355001
  0.8120864410128803  0.8712553685267901  0.4344840601296960
  0.9376965660847449  0.9552949882414037  0.4786541955967793
  0.5624466065120323  0.2057118476647596  0.4785011922018397
  0.1873258583346313  0.6203990376008683  0.4346000631820466
  0.3144516760859710  0.0416771241202944  0.7443098938415313
  0.9390644787503297  0.6248152730852092  0.6549921715818302
  0.5647505274414727  0.7121806880651925  0.8335509122998002
  0.3176918206661134  0.3733143782339603  0.3001174421059917
  0.3146123652934240  0.5410887773002376  0.7443575730265557
  0.1877651188009195  0.4548821398759427  0.4784903465076863
  0.3141164559228118  0.0444027752915857  0.8755012245176053
  0.1855256941438158  0.4577332079309655  0.6998754090940641
  0.5614831321370154  0.3726879376729600  0.5215626537530268
  0.1897531266927553  0.2877170725465792  0.3892055784374037
  0.3151431797587763  0.2044331020285198  0.2114016971663053
  0.0654884081389205  0.7037357239055821  0.2114830152283703
  0.5622735437652611  0.3711822936290952  0.4344455436232232
  0.4367499262387329  0.6222241609725474  0.5215028852839251
  0.8159998244471695  0.7139982732482634  0.8335479546462730
  0.0610385297110007  0.3752790263360216  0.7888826503566151
  0.4360496786615575  0.2958200803946555  0.8756156214260918
  0.3112431424614368  0.0328078405735500  0.1241434141735840
  0.6874450989155340  0.1217504783623358  0.4344156984631384
  0.1853681484215803  0.9534408194591161  0.3447719240180572
  0.0659845275127619  0.2134006572768633  0.8341658973124926
  0.5605402370952127  0.0378035703221408  0.6106091968193403
  0.6879956124869109  0.4519443532508172  0.2117914879359426
  0.1890916651723945  0.7912059777783172  0.7442900521879340
  0.1931016606316852  0.6227246886281113  0.3000196838859340
  0.4413870631660309  0.7876749842151610  0.3892947078090555
  0.4359705917999679  0.2886574511816624  0.2555753801845942
  0.0647360948251772  0.5424848199513079  0.8754361416964294
  0.5647873335230906  0.0416885989911363  0.7443306936987568
  0.1881868768100420  0.7961612634944824  0.8756372682520331
  0.9373383068439839  0.4545554588201593  0.4784886240078310
  0.5643457156468026  0.5414526934750234  0.7441293237133051
  0.8119730139679562  0.2059813155322549  0.5657094976355782
  0.1860909899894258  0.6236732547635960  0.7889603519399819
  0.0654279841537758  0.5377845065045164  0.3893000818513057
  0.0605034209893838  0.7074791024791716  0.6997156039510074
  0.3108947394598726  0.5372327559658426  0.2557129712936532
  0.3148972558186043  0.7039309425947836  0.2118758512885368
  0.0617758805665244  0.7061724392948694  0.5658037413545305
  0.4368153190951646  0.6206141701825939  0.4344869387623479
  0.8165589235427992  0.0384765873195019  0.3891424070321354
  0.9365380770599994  0.2961923338175881  0.8752959885960186
  0.9378666534052306  0.7939641988087481  0.8752243365057305
  0.0663589949069057  0.0421042123260543  0.8751032497379099
  0.5613321083675407  0.5327210437919675  0.1239580768933611
  0.8068306585163407  0.3645812564789865  0.1658193666427274
  0.0618157651591332  0.8720139545204906  0.4345665543596421
  0.9367783367039805  0.1222090457099635  0.5215370976999908
  0.1909847100786401  0.7874078639919097  0.3890609896136281
  0.5664732994557388  0.7028965771432195  0.2120851963237927
 
  0.00000000E+00  0.00000000E+00  0.00000000E+00
  0.00000000E+00  0.00000000E+00  0.00000000E+00
  0.00000000E+00  0.00000000E+00  0.00000000E+00
  0.00000000E+00  0.00000000E+00  0.00000000E+00
  0.00000000E+00  0.00000000E+00  0.00000000E+00
  0.00000000E+00  0.00000000E+00  0.00000000E+00
  0.00000000E+00  0.00000000E+00  0.00000000E+00
  0.00000000E+00  0.00000000E+00  0.00000000E+00
  0.00000000E+00  0.00000000E+00  0.00000000E+00
  0.00000000E+00  0.00000000E+00  0.00000000E+00
  0.00000000E+00  0.00000000E+00  0.00000000E+00
  0.00000000E+00  0.00000000E+00  0.00000000E+00
  0.00000000E+00  0.00000000E+00  0.00000000E+00
  0.00000000E+00  0.00000000E+00  0.00000000E+00
  0.00000000E+00  0.00000000E+00  0.00000000E+00
  0.00000000E+00  0.00000000E+00  0.00000000E+00
  0.00000000E+00  0.00000000E+00  0.00000000E+00
  0.00000000E+00  0.00000000E+00  0.00000000E+00
  0.00000000E+00  0.00000000E+00  0.00000000E+00
  0.00000000E+00  0.00000000E+00  0.00000000E+00
  0.00000000E+00  0.00000000E+00  0.00000000E+00
  0.00000000E+00  0.00000000E+00  0.00000000E+00
  0.00000000E+00  0.00000000E+00  0.00000000E+00
  0.00000000E+00  0.00000000E+00  0.00000000E+00
  0.00000000E+00  0.00000000E+00  0.00000000E+00
  0.00000000E+00  0.00000000E+00  0.00000000E+00
  0.00000000E+00  0.00000000E+00  0.00000000E+00
  0.00000000E+00  0.00000000E+00  0.00000000E+00
  0.00000000E+00  0.00000000E+00  0.00000000E+00
  0.00000000E+00  0.00000000E+00  0.00000000E+00
  0.00000000E+00  0.00000000E+00  0.00000000E+00
  0.00000000E+00  0.00000000E+00  0.00000000E+00
  0.00000000E+00  0.00000000E+00  0.00000000E+00
  0.00000000E+00  0.00000000E+00  0.00000000E+00
  0.00000000E+00  0.00000000E+00  0.00000000E+00
  0.00000000E+00  0.00000000E+00  0.00000000E+00
  0.00000000E+00  0.00000000E+00  0.00000000E+00
  0.00000000E+00  0.00000000E+00  0.00000000E+00
  0.00000000E+00  0.00000000E+00  0.00000000E+00
  0.00000000E+00  0.00000000E+00  0.00000000E+00
  0.00000000E+00  0.00000000E+00  0.00000000E+00
  0.00000000E+00  0.00000000E+00  0.00000000E+00
  0.00000000E+00  0.00000000E+00  0.00000000E+00
  0.00000000E+00  0.00000000E+00  0.00000000E+00
  0.00000000E+00  0.00000000E+00  0.00000000E+00
  0.00000000E+00  0.00000000E+00  0.00000000E+00
  0.00000000E+00  0.00000000E+00  0.00000000E+00
  0.00000000E+00  0.00000000E+00  0.00000000E+00
  0.00000000E+00  0.00000000E+00  0.00000000E+00
  0.00000000E+00  0.00000000E+00  0.00000000E+00
  0.00000000E+00  0.00000000E+00  0.00000000E+00
  0.00000000E+00  0.00000000E+00  0.00000000E+00
  0.00000000E+00  0.00000000E+00  0.00000000E+00
  0.00000000E+00  0.00000000E+00  0.00000000E+00
  0.00000000E+00  0.00000000E+00  0.00000000E+00
  0.00000000E+00  0.00000000E+00  0.00000000E+00
  0.00000000E+00  0.00000000E+00  0.00000000E+00
  0.00000000E+00  0.00000000E+00  0.00000000E+00
  0.00000000E+00  0.00000000E+00  0.00000000E+00
  0.00000000E+00  0.00000000E+00  0.00000000E+00
  0.00000000E+00  0.00000000E+00  0.00000000E+00
  0.00000000E+00  0.00000000E+00  0.00000000E+00
  0.00000000E+00  0.00000000E+00  0.00000000E+00
  0.00000000E+00  0.00000000E+00  0.00000000E+00
  0.00000000E+00  0.00000000E+00  0.00000000E+00
  0.00000000E+00  0.00000000E+00  0.00000000E+00
  0.00000000E+00  0.00000000E+00  0.00000000E+00
  0.00000000E+00  0.00000000E+00  0.00000000E+00
  0.00000000E+00  0.00000000E+00  0.00000000E+00
  0.00000000E+00  0.00000000E+00  0.00000000E+00
  0.00000000E+00  0.00000000E+00  0.00000000E+00
  0.00000000E+00  0.00000000E+00  0.00000000E+00
  0.00000000E+00  0.00000000E+00  0.00000000E+00
  0.00000000E+00  0.00000000E+00  0.00000000E+00
  0.00000000E+00  0.00000000E+00  0.00000000E+00
  0.00000000E+00  0.00000000E+00  0.00000000E+00
  0.00000000E+00  0.00000000E+00  0.00000000E+00
  0.00000000E+00  0.00000000E+00  0.00000000E+00
  0.00000000E+00  0.00000000E+00  0.00000000E+00
  0.00000000E+00  0.00000000E+00  0.00000000E+00
  0.00000000E+00  0.00000000E+00  0.00000000E+00
  0.00000000E+00  0.00000000E+00  0.00000000E+00
  0.00000000E+00  0.00000000E+00  0.00000000E+00
  0.00000000E+00  0.00000000E+00  0.00000000E+00
  0.00000000E+00  0.00000000E+00  0.00000000E+00
  0.00000000E+00  0.00000000E+00  0.00000000E+00
  0.00000000E+00  0.00000000E+00  0.00000000E+00
  0.00000000E+00  0.00000000E+00  0.00000000E+00
  0.00000000E+00  0.00000000E+00  0.00000000E+00
  0.00000000E+00  0.00000000E+00  0.00000000E+00
  0.00000000E+00  0.00000000E+00  0.00000000E+00
  0.00000000E+00  0.00000000E+00  0.00000000E+00
  0.00000000E+00  0.00000000E+00  0.00000000E+00
  0.00000000E+00  0.00000000E+00  0.00000000E+00
  0.00000000E+00  0.00000000E+00  0.00000000E+00
  0.00000000E+00  0.00000000E+00  0.00000000E+00
  0.00000000E+00  0.00000000E+00  0.00000000E+00
  0.00000000E+00  0.00000000E+00  0.00000000E+00
  0.00000000E+00  0.00000000E+00  0.00000000E+00
  0.00000000E+00  0.00000000E+00  0.00000000E+00
  0.00000000E+00  0.00000000E+00  0.00000000E+00
  0.00000000E+00  0.00000000E+00  0.00000000E+00
  0.00000000E+00  0.00000000E+00  0.00000000E+00
  0.00000000E+00  0.00000000E+00  0.00000000E+00
  0.00000000E+00  0.00000000E+00  0.00000000E+00
  0.00000000E+00  0.00000000E+00  0.00000000E+00
  0.00000000E+00  0.00000000E+00  0.00000000E+00
  0.00000000E+00  0.00000000E+00  0.00000000E+00
  0.00000000E+00  0.00000000E+00  0.00000000E+00
  0.00000000E+00  0.00000000E+00  0.00000000E+00
  0.00000000E+00  0.00000000E+00  0.00000000E+00
  0.00000000E+00  0.00000000E+00  0.00000000E+00
  0.00000000E+00  0.00000000E+00  0.00000000E+00
  0.00000000E+00  0.00000000E+00  0.00000000E+00
  0.00000000E+00  0.00000000E+00  0.00000000E+00
  0.00000000E+00  0.00000000E+00  0.00000000E+00
  0.00000000E+00  0.00000000E+00  0.00000000E+00
  0.00000000E+00  0.00000000E+00  0.00000000E+00
  0.00000000E+00  0.00000000E+00  0.00000000E+00
  0.00000000E+00  0.00000000E+00  0.00000000E+00
  0.00000000E+00  0.00000000E+00  0.00000000E+00
  0.00000000E+00  0.00000000E+00  0.00000000E+00
  0.00000000E+00  0.00000000E+00  0.00000000E+00
  0.00000000E+00  0.00000000E+00  0.00000000E+00
  0.00000000E+00  0.00000000E+00  0.00000000E+00
  0.00000000E+00  0.00000000E+00  0.00000000E+00
  0.00000000E+00  0.00000000E+00  0.00000000E+00
  0.00000000E+00  0.00000000E+00  0.00000000E+00
  0.00000000E+00  0.00000000E+00  0.00000000E+00
  0.00000000E+00  0.00000000E+00  0.00000000E+00
  0.00000000E+00  0.00000000E+00  0.00000000E+00
  0.00000000E+00  0.00000000E+00  0.00000000E+00
  0.00000000E+00  0.00000000E+00  0.00000000E+00
  0.00000000E+00  0.00000000E+00  0.00000000E+00
  0.00000000E+00  0.00000000E+00  0.00000000E+00
  0.00000000E+00  0.00000000E+00  0.00000000E+00
  0.00000000E+00  0.00000000E+00  0.00000000E+00
  0.00000000E+00  0.00000000E+00  0.00000000E+00
  0.00000000E+00  0.00000000E+00  0.00000000E+00
  0.00000000E+00  0.00000000E+00  0.00000000E+00
  0.00000000E+00  0.00000000E+00  0.00000000E+00
  0.00000000E+00  0.00000000E+00  0.00000000E+00
  0.00000000E+00  0.00000000E+00  0.00000000E+00
  0.00000000E+00  0.00000000E+00  0.00000000E+00
  0.00000000E+00  0.00000000E+00  0.00000000E+00
  0.00000000E+00  0.00000000E+00  0.00000000E+00
  0.00000000E+00  0.00000000E+00  0.00000000E+00
  0.00000000E+00  0.00000000E+00  0.00000000E+00
  0.00000000E+00  0.00000000E+00  0.00000000E+00
  0.00000000E+00  0.00000000E+00  0.00000000E+00
  0.00000000E+00  0.00000000E+00  0.00000000E+00
  0.00000000E+00  0.00000000E+00  0.00000000E+00
  0.00000000E+00  0.00000000E+00  0.00000000E+00
  0.00000000E+00  0.00000000E+00  0.00000000E+00
  0.00000000E+00  0.00000000E+00  0.00000000E+00
  0.00000000E+00  0.00000000E+00  0.00000000E+00
  0.00000000E+00  0.00000000E+00  0.00000000E+00
  0.00000000E+00  0.00000000E+00  0.00000000E+00
  0.00000000E+00  0.00000000E+00  0.00000000E+00
  0.00000000E+00  0.00000000E+00  0.00000000E+00
  0.00000000E+00  0.00000000E+00  0.00000000E+00
  0.00000000E+00  0.00000000E+00  0.00000000E+00
  0.00000000E+00  0.00000000E+00  0.00000000E+00
  0.00000000E+00  0.00000000E+00  0.00000000E+00
  0.00000000E+00  0.00000000E+00  0.00000000E+00
  0.00000000E+00  0.00000000E+00  0.00000000E+00
  0.00000000E+00  0.00000000E+00  0.00000000E+00
  0.00000000E+00  0.00000000E+00  0.00000000E+00
  0.00000000E+00  0.00000000E+00  0.00000000E+00
  0.00000000E+00  0.00000000E+00  0.00000000E+00
  0.00000000E+00  0.00000000E+00  0.00000000E+00
  0.00000000E+00  0.00000000E+00  0.00000000E+00
  0.00000000E+00  0.00000000E+00  0.00000000E+00
  0.00000000E+00  0.00000000E+00  0.00000000E+00
  0.00000000E+00  0.00000000E+00  0.00000000E+00
  0.00000000E+00  0.00000000E+00  0.00000000E+00
  0.00000000E+00  0.00000000E+00  0.00000000E+00
  0.00000000E+00  0.00000000E+00  0.00000000E+00
  0.00000000E+00  0.00000000E+00  0.00000000E+00
  0.00000000E+00  0.00000000E+00  0.00000000E+00
  0.00000000E+00  0.00000000E+00  0.00000000E+00
  0.00000000E+00  0.00000000E+00  0.00000000E+00
  0.00000000E+00  0.00000000E+00  0.00000000E+00
  0.00000000E+00  0.00000000E+00  0.00000000E+00
  0.00000000E+00  0.00000000E+00  0.00000000E+00
  0.00000000E+00  0.00000000E+00  0.00000000E+00
  0.00000000E+00  0.00000000E+00  0.00000000E+00
  0.00000000E+00  0.00000000E+00  0.00000000E+00
  0.00000000E+00  0.00000000E+00  0.00000000E+00
  0.00000000E+00  0.00000000E+00  0.00000000E+00
  0.00000000E+00  0.00000000E+00  0.00000000E+00
  0.00000000E+00  0.00000000E+00  0.00000000E+00
  0.00000000E+00  0.00000000E+00  0.00000000E+00
  0.00000000E+00  0.00000000E+00  0.00000000E+00
  0.00000000E+00  0.00000000E+00  0.00000000E+00
  0.00000000E+00  0.00000000E+00  0.00000000E+00
  0.00000000E+00  0.00000000E+00  0.00000000E+00
  0.00000000E+00  0.00000000E+00  0.00000000E+00
  0.00000000E+00  0.00000000E+00  0.00000000E+00
  0.00000000E+00  0.00000000E+00  0.00000000E+00
  0.00000000E+00  0.00000000E+00  0.00000000E+00
  0.00000000E+00  0.00000000E+00  0.00000000E+00
  0.00000000E+00  0.00000000E+00  0.00000000E+00
  0.00000000E+00  0.00000000E+00  0.00000000E+00
  0.00000000E+00  0.00000000E+00  0.00000000E+00
  0.00000000E+00  0.00000000E+00  0.00000000E+00
  0.00000000E+00  0.00000000E+00  0.00000000E+00
  0.00000000E+00  0.00000000E+00  0.00000000E+00
  0.00000000E+00  0.00000000E+00  0.00000000E+00
  0.00000000E+00  0.00000000E+00  0.00000000E+00
  0.00000000E+00  0.00000000E+00  0.00000000E+00
  0.00000000E+00  0.00000000E+00  0.00000000E+00
  0.00000000E+00  0.00000000E+00  0.00000000E+00
  0.00000000E+00  0.00000000E+00  0.00000000E+00
  0.00000000E+00  0.00000000E+00  0.00000000E+00
  0.00000000E+00  0.00000000E+00  0.00000000E+00
  0.00000000E+00  0.00000000E+00  0.00000000E+00
  0.00000000E+00  0.00000000E+00  0.00000000E+00
  0.00000000E+00  0.00000000E+00  0.00000000E+00
  0.00000000E+00  0.00000000E+00  0.00000000E+00
  0.00000000E+00  0.00000000E+00  0.00000000E+00
  0.00000000E+00  0.00000000E+00  0.00000000E+00
  0.00000000E+00  0.00000000E+00  0.00000000E+00
  0.00000000E+00  0.00000000E+00  0.00000000E+00
  0.00000000E+00  0.00000000E+00  0.00000000E+00
  0.00000000E+00  0.00000000E+00  0.00000000E+00
  0.00000000E+00  0.00000000E+00  0.00000000E+00
  0.00000000E+00  0.00000000E+00  0.00000000E+00
  0.00000000E+00  0.00000000E+00  0.00000000E+00
  0.00000000E+00  0.00000000E+00  0.00000000E+00
  0.00000000E+00  0.00000000E+00  0.00000000E+00
  0.00000000E+00  0.00000000E+00  0.00000000E+00
  0.00000000E+00  0.00000000E+00  0.00000000E+00
  0.00000000E+00  0.00000000E+00  0.00000000E+00
  0.00000000E+00  0.00000000E+00  0.00000000E+00
  0.00000000E+00  0.00000000E+00  0.00000000E+00
  0.00000000E+00  0.00000000E+00  0.00000000E+00
  0.00000000E+00  0.00000000E+00  0.00000000E+00
  0.00000000E+00  0.00000000E+00  0.00000000E+00
  0.00000000E+00  0.00000000E+00  0.00000000E+00
  0.00000000E+00  0.00000000E+00  0.00000000E+00
  0.00000000E+00  0.00000000E+00  0.00000000E+00
  0.00000000E+00  0.00000000E+00  0.00000000E+00
  0.00000000E+00  0.00000000E+00  0.00000000E+00
  0.00000000E+00  0.00000000E+00  0.00000000E+00
  0.00000000E+00  0.00000000E+00  0.00000000E+00
  0.00000000E+00  0.00000000E+00  0.00000000E+00