CuInSe2gb                               
   1.00000000000000     
     9.7266780392896699    0.0000000000000000    0.0000000000000000
     0.0000000000000000    8.4235502764570693    0.0000000000000000
     0.0000000000000000    0.0000000000000000   45.0000000000000000
   Fe   Mn
   281     7
Direct
  0.0610269542276408  0.0315657673401468  0.1245219602099959
  0.0632159782773189  0.8718229451099213  0.5212364993704419
  0.1939529285045892  0.1236022051771300  0.7884500364486210
  0.4334125775799206  0.2876816092583685  0.3890858206274345
  0.3084340049455752  0.7127323877604081  0.8331503119354066
  0.8084735310193659  0.2127718224236853  0.8331627436482134
  0.1834168247376670  0.7875706362007149  0.3890648623250299
  0.5632526305072830  0.2073502285252973  0.5654139864524871
  0.0600918269102884  0.0411267174743651  0.7440648100810565
  0.8132903740463212  0.8720767119824724  0.5213105200646966
  0.1851264303978693  0.2910568979863572  0.7440807892294491
  0.9412249251830986  0.4518449438313573  0.3449214483874767
  0.9336890386763246  0.2875720523082034  0.3890754443182594
  0.8138343653775679  0.0420253718681106  0.8755963695330478
  0.1881308636904584  0.7912833023752102  0.6107753976891626
  0.5586323022314890  0.0374457778890082  0.3890723243352218
  0.9334137572099467  0.9626625524111379  0.8331580041372106
  0.3135959084077381  0.5419579121769272  0.8755872142924587
  0.6852093951821117  0.2912227375754500  0.7440901390787490
  0.1928636428285251  0.6132176767883010  0.1666722948114444
  0.8128036019126504  0.2059085722789624  0.4786167798862305
  0.8127023789662425  0.5417857230790309  0.6108404013670791
  0.3130915833444331  0.8708625953490392  0.4343049663085346
  0.8153272359634789  0.0356146303817587  0.2559779565878026
  0.6912608558751966  0.9519743995647214  0.3449430449092675
  0.9418083721041933  0.1124735981119982  0.1668377636941525
  0.9385384379635197  0.1220086812792860  0.5212482184624018
  0.5661220452841195  0.5365760428833152  0.2560192675959361
  0.6890150159055447  0.7939613314989236  0.8756472519068141
  0.5677841316353037  0.3634121604089121  0.1667833581529845
  0.4351025735113765  0.7910474371744524  0.7440765196424127
  0.8134050378025850  0.7074760273765114  0.5653974704108413
  0.5690061685103610  0.8733185822983376  0.7884115202129158
  0.6885431092407331  0.1220038030118317  0.5212931871571678
  0.1910899598767141  0.2872471337655437  0.2559371039231637
  0.9333963495007804  0.4626532547504904  0.8331483409937636
  0.0646441439656874  0.2078422180851473  0.6996261541386015
  0.4398573898052776  0.9579633422099412  0.6996829317903903
  0.3085012226142632  0.2127562449383540  0.8331715458743594
  0.4336761008515515  0.6253924539296655  0.6549096691384595
  0.3132936040175704  0.5411351800323960  0.6107298029984929
  0.9387038163276368  0.4576449533063363  0.5654156369520037
  0.6852308967716365  0.7910633583498414  0.7440858150050667
  0.3086575328790017  0.8751560182688294  0.6548963443180582
  0.6836772452755312  0.7875812044217060  0.3890401982463482
  0.9351433142255459  0.7910857431926203  0.7440976323502927
  0.0660161359708384  0.2016447930373708  0.3449159839339725
  0.8087036682543701  0.0373550196129800  0.3889857177525902
  0.4440757239797827  0.1232565007352047  0.7884411035072243
  0.0585232072134244  0.2050163496890046  0.2119109679411266
  0.0680323325474108  0.3634860337361075  0.1669303603247605
  0.9407501245732254  0.7867120563191332  0.2561238323978659
  0.5646585448094755  0.2078517400029607  0.6996261829729280
  0.6897499566508524  0.9580569010710208  0.6996319398239706
  0.6836547536317354  0.2878152525407472  0.3890691329510473
  0.4385960073725823  0.9574860608093837  0.5654763761301256
  0.8190145791689735  0.3732882866736861  0.7884171784374384
  0.6906127144166719  0.2867699681260308  0.2560098187169652
  0.1888612859208643  0.4576756017716084  0.5654218767587152
  0.0666635373886993  0.8625952628118955  0.1668641555532986
  0.1883960513697742  0.2910283952095673  0.6107180724935939
  0.5662742391097105  0.7026378984564242  0.3449517580978010
  0.3147486704075506  0.2079401036715827  0.6996202848146985
  0.5635702170245762  0.5419470620217506  0.8755836266456092
  0.0636741763853639  0.7068319289826087  0.5655332718874218
  0.6942521999843320  0.6234230171953465  0.7884518293391443
  0.3088188763516663  0.5374839041215008  0.3889949926599859
  0.1881569633420749  0.6219157010686389  0.5213527049326814
  0.5629953453107481  0.8710244205641986  0.4343262083613807
  0.4381603056238140  0.4579457186407893  0.5653522695767614
  0.4352026481299928  0.2910640181927899  0.7440865439886634
  0.8044128276403176  0.8728815987856215  0.3003142276285133
  0.8165381535424425  0.7021498375608920  0.3450058046553124
  0.4334404246712941  0.4627367842087259  0.8331499514986599
  0.6877735930726702  0.9558852960514781  0.4786243649420200
  0.6899019495186978  0.4579117022070848  0.6996081697782111
  0.5630321186328644  0.8724190448401957  0.5213450861132702
  0.5587070745208089  0.3750634835101976  0.6549096369251440
  0.8084698079362289  0.8751422612926674  0.6548535979589539
  0.8125265750767093  0.3705511219596964  0.4344760965120223
  0.8149042950484950  0.5368001268685200  0.2561363895760024
  0.6834688386263962  0.4627483962125278  0.8331516848025137
  0.1889306399140992  0.7846524519181154  0.1248130378622138
  0.0637263750093602  0.0418861166756252  0.8756072734026953
  0.3086437957067333  0.3750771688125463  0.6549073933261398
  0.3163021793228967  0.2018787579320831  0.3448774566595633
  0.8101440888653798  0.5411269897069999  0.7440897721323236
  0.6834375309939624  0.9626836147374256  0.8331456630224507
  0.5586246303093263  0.8752343815448668  0.6549032403052251
  0.3130721157765807  0.7071550041178781  0.5654682371256251
  0.3121004134815863  0.5307658226400144  0.1243474699757194
  0.6829893703772578  0.9546894302673572  0.2121089054997181
  0.3139034469987106  0.2070469564428641  0.5654770545054577
  0.3101199694473478  0.5411200824357354  0.7440764502187114
  0.6888063669289588  0.9578012310655469  0.5654473053265466
  0.4382335126746172  0.7909305470404826  0.6106752132635530
  0.6931029251292865  0.6142102839393221  0.1668378255695964
  0.3044397125870326  0.8728812568846896  0.3002805365524417
  0.3122881449088289  0.7056079824681459  0.4786584044878763
  0.9383340038663531  0.2910981994016262  0.6106873538832830
  0.4294552987611834  0.6231209045518903  0.3003546762579504
  0.8184577575625315  0.8625645491230429  0.1668060604090015
  0.5584590215466860  0.2047660430594433  0.2118849657304854
  0.9429274786674486  0.6136361041021097  0.1668249070059871
  0.9390899166301705  0.7939825593693837  0.8756253402962131
  0.5690756302105600  0.3731383173840626  0.7884006036693550
  0.0633652457147166  0.3722370730749243  0.5213223953888169
  0.5634413796967541  0.3719912842937377  0.5212806431924796
  0.6794742145669507  0.1231724870745226  0.3002764936467109
  0.4334339130360046  0.9627253894155978  0.8331443232103521
  0.1899326379451621  0.2868596064960839  0.1244937914601198
  0.8190285604140228  0.8734204956324573  0.7884075286071349
  0.3119277409267582  0.3708690608518471  0.4342876939341276
  0.9378656315413657  0.7916239011712237  0.6108045450635788
  0.4383860063510955  0.2904834482763123  0.6106936860905390
  0.1914345076493068  0.4517696552611373  0.3449721779846008
  0.4396641372590600  0.2868752377774875  0.1245440504548430
  0.8086487543200600  0.3750306366026334  0.6549125242860702
  0.1897328031434041  0.9579719113206753  0.6996324150614370
  0.1889980424003896  0.2938959116132918  0.8756479124779744
  0.1835557745598711  0.1253235767226237  0.6548944202915918
  0.9336199901135244  0.1251172982588101  0.6549220115835652
  0.3068582490818169  0.2048966602470057  0.2119437406927074
  0.0586278704121885  0.0374057241247993  0.3890479940064442
  0.1929774665374185  0.1132984801874605  0.1674387920739466
  0.0627803921765155  0.5417558810226372  0.6108574900723538
  0.9411039900940952  0.2867750222096201  0.2559599022107233
  0.5630927578733301  0.5411718243505378  0.6107170059700702
  0.9383900245010861  0.9576845032180618  0.5654384656905623
  0.6793602267051932  0.6230022176948806  0.3001370999175875
  0.9375973251533740  0.6204827906914167  0.4344230144700292
  0.9442339899657873  0.6235319585871416  0.7884452887860758
  0.5646377841299456  0.7078746990860703  0.6996790904734073
  0.0584361641570409  0.7126907366239477  0.8331523812921464
  0.9293307584029104  0.1230814628919956  0.3004032826829857
  0.9397590557170169  0.4579384838726208  0.6996230551775251
  0.4409137675612383  0.7867919800187024  0.2561332619328484
  0.3190255290080077  0.3732583837035352  0.7884169469159386
  0.4332013338507422  0.4540688292675372  0.2120193397097281
  0.1882851970745019  0.1221162524835126  0.5212114398242703
  0.8145422833169632  0.7077503989231970  0.6996558283749461
  0.0633086307642249  0.0411111000387876  0.6107651369004798
  0.5584658793773701  0.2126510218219378  0.8331590918058703
  0.3136354606637618  0.8722847198051757  0.5213230324957385
  0.6904226618689375  0.2868653408662902  0.1245783182902036
  0.1824423748270319  0.9547102000427974  0.2120388430625080
  0.6881492338966708  0.2911997634191494  0.6107041619311283
  0.3131978284070350  0.0412490743759176  0.6108046010643293
  0.9439880731825198  0.1236114638344663  0.7884236505164094
  0.4390837771581522  0.7939192290403910  0.8756515663870994
  0.8101628001335277  0.0411856016059911  0.7440570708752912
  0.4381905236261938  0.1219247174261229  0.5213368887491731
  0.1837217199088369  0.6251729277457846  0.6549413734557087
  0.3146648828088283  0.7078873825585440  0.6996467024624681
  0.9391619974968760  0.2857178808390312  0.1246596292949505
  0.4378146168709284  0.4556344790163652  0.4786689668601021
  0.0631972407438233  0.7051521998073764  0.4785131326298976
  0.9380309295035205  0.1205059865929037  0.4343777251853934
  0.4294327309172890  0.1227654065373404  0.3004390052808230
  0.1881305756406216  0.1202767007107565  0.4344988500632170
  0.5637218646072084  0.0421791423583173  0.8756221618349873
  0.1886178506012142  0.9572087250429107  0.5652812467961256
  0.6906290806233657  0.7846810663172062  0.1247385680578233
  0.5633488075096161  0.5309176621553844  0.1243531064538754
  0.3086774765016193  0.0374750116680332  0.3890284381495257
  0.6926691366607175  0.1133572467380811  0.1671997800886539
  0.8071075980548884  0.2050649643886622  0.2118610825608967
  0.0657954109867150  0.5362273168147764  0.2561518050620519
  0.5628496932787188  0.7058737418122603  0.4786318943675385
  0.0633599489056014  0.2073969564600664  0.5655047106987618
  0.5542616201175240  0.3724853321974771  0.3003287692879166
  0.4413065437999801  0.9520594149907663  0.3449494475915575
  0.1834248827592838  0.9626818692353429  0.8331326506108414
  0.4422571425038365  0.6120077876255028  0.1667242868108146
  0.9335574910402730  0.4541960747855057  0.2118287692072208
  0.0628514776688432  0.5313691334283556  0.1244434000248595
  0.8132784551402418  0.3719836119297177  0.5213192864798126
  0.9293118984268911  0.6228994756087899  0.3003634924820663
  0.3156661387644894  0.0365014669301658  0.2560274586362105
  0.6881630561948980  0.7913406290203380  0.6108406146595515
  0.1834579472005765  0.4627122855822796  0.8331401084541592
  0.4422424446384421  0.1119980888384524  0.1667676377654378
  0.3132208404478322  0.3719254396635223  0.5213417166432072
  0.4441729016183424  0.6234492818565501  0.7884364755203628
  0.0658154829353042  0.0362292234264828  0.2559139330960151
  0.5635922963647411  0.7075387463247503  0.5653429320742200
  0.9352231546791591  0.2912692631025958  0.7440951613744096
  0.6938368751551086  0.1234997529100561  0.7884612932323376
  0.1823182582909706  0.4537452795924655  0.2119568215270559
  0.9335806003364184  0.7875278178020814  0.3890442414088904
  0.6890241519118508  0.2939309741906638  0.8756475853053935
  0.3187451263435181  0.8627021891025584  0.1667714535014222
  0.4398857083772053  0.4578953569361049  0.6996428624883074
  0.9416696035304467  0.9522663187032936  0.3450721886477641
  0.6884860647088946  0.6221628376044351  0.5213565893720654
  0.0586230006989615  0.8749872248628384  0.6548858097769653
  0.0690320704846355  0.8733621247945790  0.7884154600721738
  0.0585436199122310  0.3751968405947125  0.6548910972759709
  0.6877921526681154  0.4558413644674290  0.4786468548798281
  0.1910326171542351  0.7865185444648970  0.2561873687274174
  0.4379035470536380  0.1205500665580292  0.4343987975663631
  0.8144175513858768  0.0328282744662401  0.1245422202191416
  0.9382444481722482  0.6219038021849974  0.5213276139092108
  0.0627910233516332  0.8704299971588240  0.4344585305418019
  0.8115707969990662  0.5315082670577127  0.1242829130117988
  0.4413836697029382  0.4519128074932087  0.3449710257973966
  0.8165320550476382  0.2016122319299499  0.3449403340991611
  0.3164750094836505  0.7018753189498906  0.3449583360854777
  0.6836971414287022  0.1252725225036113  0.6549246417509268
  0.5539858949526278  0.8722434513324286  0.3004447696406903
  0.0600582480002974  0.5411161452006121  0.7440745441235185
  0.9333102440021039  0.9541803867680457  0.2119496111233317
  0.8086990210842827  0.7046686600217594  0.2117469318382398
  0.0544258447709919  0.8728749552469413  0.3002747195327631
  0.1794796960176637  0.1234006139910738  0.3002956851907440
  0.0663741867770871  0.7019374196529959  0.3449853090235347
  0.8132283614113982  0.0412217003157773  0.6107114575233317
  0.0631399059844688  0.3705120672575249  0.4344196416362298
  0.5662908297146095  0.2018811802780849  0.3449581681053855
  0.8042179269319918  0.3727292775630506  0.3003690611372200
  0.4379177435050581  0.9559630336340168  0.4786200273136657
  0.5585582488364373  0.5375038041592377  0.3890738633714469
  0.0627472878183639  0.2057826096201736  0.4785867184929888
  0.3189535081480299  0.8732668294371048  0.7884219860751205
  0.9397767837363618  0.9581260838377083  0.6996844652286572
  0.0542217069393613  0.3723174400620133  0.3004197922653994
  0.6836233431448219  0.6252903432694580  0.6549482399510314
  0.6883641437721317  0.4579693756047887  0.5654209642297365
  0.4333630550483448  0.9536065040520326  0.2118214936350250
  0.3128019367512873  0.2058985715127974  0.4786161626328511
  0.4335549646251939  0.1253114610167001  0.6548797018475131
  0.6882438829192955  0.6204602023102460  0.4343911479826090
  0.8147028591663584  0.2077298758281444  0.6996025765535309
  0.8127362129804372  0.7058389078531029  0.4786528130364815
  0.8129603946056343  0.8703787061374630  0.4344707831166406
  0.9377232524069834  0.9558946499370390  0.4785563677866880
  0.5627321745718616  0.2056464230648805  0.4784627977292389
  0.1881054338285190  0.6207901658901244  0.4343090824217663
  0.3101704177370209  0.0412055581351267  0.7440876413325107
  0.9336129408205081  0.6252588059268653  0.6549234916694336
  0.5584973326760119  0.7127568136696159  0.8331644987083935
  0.3042329881187064  0.3724581229712903  0.3003599976372978
  0.5568328814969002  0.7043706677341982  0.2117913307335234
  0.1879743855408687  0.4559688659057906  0.4786041883463747
  0.3138054952602549  0.0420502380478574  0.8756228402486000
  0.1898458993299486  0.4579922899737245  0.6996182764895826
  0.8135548351053332  0.5419076341843352  0.8755828356619879
  0.1836577141796302  0.2878584766061592  0.3890758080304390
  0.4378071344587246  0.6205210716948446  0.4345169523420854
  0.0573360293811802  0.7047820752696036  0.2118450474427343
  0.5617321811934924  0.0320531153142888  0.1245632373479641
  0.8184861945322283  0.3625311713067861  0.1671674369094265
  0.8084195756015533  0.7126860954369487  0.8331520398790763
  0.0689712244097715  0.3733490140382644  0.7884127121080376
  0.4389937174043626  0.2939132447677688  0.8756375807545150
  0.3130924964328700  0.0326635158323453  0.1246967463942793
  0.6875161492902294  0.1203373766778732  0.4344783739844616
  0.1913666922249443  0.9519196589885989  0.3449780953958921
  0.0584240653005683  0.2127135449514133  0.8331589179444633
  0.5632260574730419  0.0410482966505841  0.6107158462425901
  0.6834485266033080  0.4540681815658220  0.2117978390090201
  0.1851574328776880  0.7909264455771468  0.7440650662630693
  0.1793865117369514  0.6231702556467129  0.3002722713492700
  0.4339360715717370  0.7874659924316997  0.3890307420781561
  0.4409184230675885  0.2872299393191901  0.2559361407599124
  0.0635876946342021  0.5419021504145198  0.8755730553307041
  0.5601400758536353  0.0411452274578358  0.7440741577398542
  0.1890661588178908  0.7938938592175454  0.8756512948423611
  0.9376650312740514  0.4558624695888479  0.4786243133525670
  0.8085008762872188  0.5376018992203911  0.3890701672786092
  0.8136683717268866  0.2075060944455600  0.5653803752405872
  0.1942234484171919  0.6233709816437366  0.7884350650544418
  0.0586049852755165  0.5375677547022725  0.3890721282478422
  0.0647391133005198  0.7078986413335260  0.6996222415120364
  0.3151868505704704  0.5364211261229886  0.2560115083729874
  0.3084330198138754  0.7041530787181060  0.2118519599991322
  0.5672566751092082  0.8627384096488490  0.1667232222062406
  0.5600901488799144  0.5411254601520448  0.7440503406572285
  0.6914064369489279  0.4515513091914994  0.3450194646275623
  0.9390390499071801  0.2939602954770106  0.8756364421107835
  0.5660598482427881  0.0360808773574035  0.2558710397255119
  0.4393898560079211  0.7883761609225388  0.1247394883705780
  0.3193902112830989  0.3630355275162719  0.1663839087573085
  0.4382340480247387  0.6219658325489169  0.5213392125206543
  0.5636029296722425  0.3704581909448220  0.4341750335405498
  0.9380909653153877  0.7873478698172168  0.1245849013526939
  0.6913860184962654  0.7864675965277570  0.2561262484828490
  0.1878339095073043  0.9558591911946127  0.4785726328854913
 
  0.00000000E+00  0.00000000E+00  0.00000000E+00
  0.00000000E+00  0.00000000E+00  0.00000000E+00
  0.00000000E+00  0.00000000E+00  0.00000000E+00
  0.00000000E+00  0.00000000E+00  0.00000000E+00
  0.00000000E+00  0.00000000E+00  0.00000000E+00
  0.00000000E+00  0.00000000E+00  0.00000000E+00
  0.00000000E+00  0.00000000E+00  0.00000000E+00
  0.00000000E+00  0.00000000E+00  0.00000000E+00
  0.00000000E+00  0.00000000E+00  0.00000000E+00
  0.00000000E+00  0.00000000E+00  0.00000000E+00
  0.00000000E+00  0.00000000E+00  0.00000000E+00
  0.00000000E+00  0.00000000E+00  0.00000000E+00
  0.00000000E+00  0.00000000E+00  0.00000000E+00
  0.00000000E+00  0.00000000E+00  0.00000000E+00
  0.00000000E+00  0.00000000E+00  0.00000000E+00
  0.00000000E+00  0.00000000E+00  0.00000000E+00
  0.00000000E+00  0.00000000E+00  0.00000000E+00
  0.00000000E+00  0.00000000E+00  0.00000000E+00
  0.00000000E+00  0.00000000E+00  0.00000000E+00
  0.00000000E+00  0.00000000E+00  0.00000000E+00
  0.00000000E+00  0.00000000E+00  0.00000000E+00
  0.00000000E+00  0.00000000E+00  0.00000000E+00
  0.00000000E+00  0.00000000E+00  0.00000000E+00
  0.00000000E+00  0.00000000E+00  0.00000000E+00
  0.00000000E+00  0.00000000E+00  0.00000000E+00
  0.00000000E+00  0.00000000E+00  0.00000000E+00
  0.00000000E+00  0.00000000E+00  0.00000000E+00
  0.00000000E+00  0.00000000E+00  0.00000000E+00
  0.00000000E+00  0.00000000E+00  0.00000000E+00
  0.00000000E+00  0.00000000E+00  0.00000000E+00
  0.00000000E+00  0.00000000E+00  0.00000000E+00
  0.00000000E+00  0.00000000E+00  0.00000000E+00
  0.00000000E+00  0.00000000E+00  0.00000000E+00
  0.00000000E+00  0.00000000E+00  0.00000000E+00
  0.00000000E+00  0.00000000E+00  0.00000000E+00
  0.00000000E+00  0.00000000E+00  0.00000000E+00
  0.00000000E+00  0.00000000E+00  0.00000000E+00
  0.00000000E+00  0.00000000E+00  0.00000000E+00
  0.00000000E+00  0.00000000E+00  0.00000000E+00
  0.00000000E+00  0.00000000E+00  0.00000000E+00
  0.00000000E+00  0.00000000E+00  0.00000000E+00
  0.00000000E+00  0.00000000E+00  0.00000000E+00
  0.00000000E+00  0.00000000E+00  0.00000000E+00
  0.00000000E+00  0.00000000E+00  0.00000000E+00
  0.00000000E+00  0.00000000E+00  0.00000000E+00
  0.00000000E+00  0.00000000E+00  0.00000000E+00
  0.00000000E+00  0.00000000E+00  0.00000000E+00
  0.00000000E+00  0.00000000E+00  0.00000000E+00
  0.00000000E+00  0.00000000E+00  0.00000000E+00
  0.00000000E+00  0.00000000E+00  0.00000000E+00
  0.00000000E+00  0.00000000E+00  0.00000000E+00
  0.00000000E+00  0.00000000E+00  0.00000000E+00
  0.00000000E+00  0.00000000E+00  0.00000000E+00
  0.00000000E+00  0.00000000E+00  0.00000000E+00
  0.00000000E+00  0.00000000E+00  0.00000000E+00
  0.00000000E+00  0.00000000E+00  0.00000000E+00
  0.00000000E+00  0.00000000E+00  0.00000000E+00
  0.00000000E+00  0.00000000E+00  0.00000000E+00
  0.00000000E+00  0.00000000E+00  0.00000000E+00
  0.00000000E+00  0.00000000E+00  0.00000000E+00
  0.00000000E+00  0.00000000E+00  0.00000000E+00
  0.00000000E+00  0.00000000E+00  0.00000000E+00
  0.00000000E+00  0.00000000E+00  0.00000000E+00
  0.00000000E+00  0.00000000E+00  0.00000000E+00
  0.00000000E+00  0.00000000E+00  0.00000000E+00
  0.00000000E+00  0.00000000E+00  0.00000000E+00
  0.00000000E+00  0.00000000E+00  0.00000000E+00
  0.00000000E+00  0.00000000E+00  0.00000000E+00
  0.00000000E+00  0.00000000E+00  0.00000000E+00
  0.00000000E+00  0.00000000E+00  0.00000000E+00
  0.00000000E+00  0.00000000E+00  0.00000000E+00
  0.00000000E+00  0.00000000E+00  0.00000000E+00
  0.00000000E+00  0.00000000E+00  0.00000000E+00
  0.00000000E+00  0.00000000E+00  0.00000000E+00
  0.00000000E+00  0.00000000E+00  0.00000000E+00
  0.00000000E+00  0.00000000E+00  0.00000000E+00
  0.00000000E+00  0.00000000E+00  0.00000000E+00
  0.00000000E+00  0.00000000E+00  0.00000000E+00
  0.00000000E+00  0.00000000E+00  0.00000000E+00
  0.00000000E+00  0.00000000E+00  0.00000000E+00
  0.00000000E+00  0.00000000E+00  0.00000000E+00
  0.00000000E+00  0.00000000E+00  0.00000000E+00
  0.00000000E+00  0.00000000E+00  0.00000000E+00
  0.00000000E+00  0.00000000E+00  0.00000000E+00
  0.00000000E+00  0.00000000E+00  0.00000000E+00
  0.00000000E+00  0.00000000E+00  0.00000000E+00
  0.00000000E+00  0.00000000E+00  0.00000000E+00
  0.00000000E+00  0.00000000E+00  0.00000000E+00
  0.00000000E+00  0.00000000E+00  0.00000000E+00
  0.00000000E+00  0.00000000E+00  0.00000000E+00
  0.00000000E+00  0.00000000E+00  0.00000000E+00
  0.00000000E+00  0.00000000E+00  0.00000000E+00
  0.00000000E+00  0.00000000E+00  0.00000000E+00
  0.00000000E+00  0.00000000E+00  0.00000000E+00
  0.00000000E+00  0.00000000E+00  0.00000000E+00
  0.00000000E+00  0.00000000E+00  0.00000000E+00
  0.00000000E+00  0.00000000E+00  0.00000000E+00
  0.00000000E+00  0.00000000E+00  0.00000000E+00
  0.00000000E+00  0.00000000E+00  0.00000000E+00
  0.00000000E+00  0.00000000E+00  0.00000000E+00
  0.00000000E+00  0.00000000E+00  0.00000000E+00
  0.00000000E+00  0.00000000E+00  0.00000000E+00
  0.00000000E+00  0.00000000E+00  0.00000000E+00
  0.00000000E+00  0.00000000E+00  0.00000000E+00
  0.00000000E+00  0.00000000E+00  0.00000000E+00
  0.00000000E+00  0.00000000E+00  0.00000000E+00
  0.00000000E+00  0.00000000E+00  0.00000000E+00
  0.00000000E+00  0.00000000E+00  0.00000000E+00
  0.00000000E+00  0.00000000E+00  0.00000000E+00
  0.00000000E+00  0.00000000E+00  0.00000000E+00
  0.00000000E+00  0.00000000E+00  0.00000000E+00
  0.00000000E+00  0.00000000E+00  0.00000000E+00
  0.00000000E+00  0.00000000E+00  0.00000000E+00
  0.00000000E+00  0.00000000E+00  0.00000000E+00
  0.00000000E+00  0.00000000E+00  0.00000000E+00
  0.00000000E+00  0.00000000E+00  0.00000000E+00
  0.00000000E+00  0.00000000E+00  0.00000000E+00
  0.00000000E+00  0.00000000E+00  0.00000000E+00
  0.00000000E+00  0.00000000E+00  0.00000000E+00
  0.00000000E+00  0.00000000E+00  0.00000000E+00
  0.00000000E+00  0.00000000E+00  0.00000000E+00
  0.00000000E+00  0.00000000E+00  0.00000000E+00
  0.00000000E+00  0.00000000E+00  0.00000000E+00
  0.00000000E+00  0.00000000E+00  0.00000000E+00
  0.00000000E+00  0.00000000E+00  0.00000000E+00
  0.00000000E+00  0.00000000E+00  0.00000000E+00
  0.00000000E+00  0.00000000E+00  0.00000000E+00
  0.00000000E+00  0.00000000E+00  0.00000000E+00
  0.00000000E+00  0.00000000E+00  0.00000000E+00
  0.00000000E+00  0.00000000E+00  0.00000000E+00
  0.00000000E+00  0.00000000E+00  0.00000000E+00
  0.00000000E+00  0.00000000E+00  0.00000000E+00
  0.00000000E+00  0.00000000E+00  0.00000000E+00
  0.00000000E+00  0.00000000E+00  0.00000000E+00
  0.00000000E+00  0.00000000E+00  0.00000000E+00
  0.00000000E+00  0.00000000E+00  0.00000000E+00
  0.00000000E+00  0.00000000E+00  0.00000000E+00
  0.00000000E+00  0.00000000E+00  0.00000000E+00
  0.00000000E+00  0.00000000E+00  0.00000000E+00
  0.00000000E+00  0.00000000E+00  0.00000000E+00
  0.00000000E+00  0.00000000E+00  0.00000000E+00
  0.00000000E+00  0.00000000E+00  0.00000000E+00
  0.00000000E+00  0.00000000E+00  0.00000000E+00
  0.00000000E+00  0.00000000E+00  0.00000000E+00
  0.00000000E+00  0.00000000E+00  0.00000000E+00
  0.00000000E+00  0.00000000E+00  0.00000000E+00
  0.00000000E+00  0.00000000E+00  0.00000000E+00
  0.00000000E+00  0.00000000E+00  0.00000000E+00
  0.00000000E+00  0.00000000E+00  0.00000000E+00
  0.00000000E+00  0.00000000E+00  0.00000000E+00
  0.00000000E+00  0.00000000E+00  0.00000000E+00
  0.00000000E+00  0.00000000E+00  0.00000000E+00
  0.00000000E+00  0.00000000E+00  0.00000000E+00
  0.00000000E+00  0.00000000E+00  0.00000000E+00
  0.00000000E+00  0.00000000E+00  0.00000000E+00
  0.00000000E+00  0.00000000E+00  0.00000000E+00
  0.00000000E+00  0.00000000E+00  0.00000000E+00
  0.00000000E+00  0.00000000E+00  0.00000000E+00
  0.00000000E+00  0.00000000E+00  0.00000000E+00
  0.00000000E+00  0.00000000E+00  0.00000000E+00
  0.00000000E+00  0.00000000E+00  0.00000000E+00
  0.00000000E+00  0.00000000E+00  0.00000000E+00
  0.00000000E+00  0.00000000E+00  0.00000000E+00
  0.00000000E+00  0.00000000E+00  0.00000000E+00
  0.00000000E+00  0.00000000E+00  0.00000000E+00
  0.00000000E+00  0.00000000E+00  0.00000000E+00
  0.00000000E+00  0.00000000E+00  0.00000000E+00
  0.00000000E+00  0.00000000E+00  0.00000000E+00
  0.00000000E+00  0.00000000E+00  0.00000000E+00
  0.00000000E+00  0.00000000E+00  0.00000000E+00
  0.00000000E+00  0.00000000E+00  0.00000000E+00
  0.00000000E+00  0.00000000E+00  0.00000000E+00
  0.00000000E+00  0.00000000E+00  0.00000000E+00
  0.00000000E+00  0.00000000E+00  0.00000000E+00
  0.00000000E+00  0.00000000E+00  0.00000000E+00
  0.00000000E+00  0.00000000E+00  0.00000000E+00
  0.00000000E+00  0.00000000E+00  0.00000000E+00
  0.00000000E+00  0.00000000E+00  0.00000000E+00
  0.00000000E+00  0.00000000E+00  0.00000000E+00
  0.00000000E+00  0.00000000E+00  0.00000000E+00
  0.00000000E+00  0.00000000E+00  0.00000000E+00
  0.00000000E+00  0.00000000E+00  0.00000000E+00
  0.00000000E+00  0.00000000E+00  0.00000000E+00
  0.00000000E+00  0.00000000E+00  0.00000000E+00
  0.00000000E+00  0.00000000E+00  0.00000000E+00
  0.00000000E+00  0.00000000E+00  0.00000000E+00
  0.00000000E+00  0.00000000E+00  0.00000000E+00
  0.00000000E+00  0.00000000E+00  0.00000000E+00
  0.00000000E+00  0.00000000E+00  0.00000000E+00
  0.00000000E+00  0.00000000E+00  0.00000000E+00
  0.00000000E+00  0.00000000E+00  0.00000000E+00
  0.00000000E+00  0.00000000E+00  0.00000000E+00
  0.00000000E+00  0.00000000E+00  0.00000000E+00
  0.00000000E+00  0.00000000E+00  0.00000000E+00
  0.00000000E+00  0.00000000E+00  0.00000000E+00
  0.00000000E+00  0.00000000E+00  0.00000000E+00
  0.00000000E+00  0.00000000E+00  0.00000000E+00
  0.00000000E+00  0.00000000E+00  0.00000000E+00
  0.00000000E+00  0.00000000E+00  0.00000000E+00
  0.00000000E+00  0.00000000E+00  0.00000000E+00
  0.00000000E+00  0.00000000E+00  0.00000000E+00
  0.00000000E+00  0.00000000E+00  0.00000000E+00
  0.00000000E+00  0.00000000E+00  0.00000000E+00
  0.00000000E+00  0.00000000E+00  0.00000000E+00
  0.00000000E+00  0.00000000E+00  0.00000000E+00
  0.00000000E+00  0.00000000E+00  0.00000000E+00
  0.00000000E+00  0.00000000E+00  0.00000000E+00
  0.00000000E+00  0.00000000E+00  0.00000000E+00
  0.00000000E+00  0.00000000E+00  0.00000000E+00
  0.00000000E+00  0.00000000E+00  0.00000000E+00
  0.00000000E+00  0.00000000E+00  0.00000000E+00
  0.00000000E+00  0.00000000E+00  0.00000000E+00
  0.00000000E+00  0.00000000E+00  0.00000000E+00
  0.00000000E+00  0.00000000E+00  0.00000000E+00
  0.00000000E+00  0.00000000E+00  0.00000000E+00
  0.00000000E+00  0.00000000E+00  0.00000000E+00
  0.00000000E+00  0.00000000E+00  0.00000000E+00
  0.00000000E+00  0.00000000E+00  0.00000000E+00
  0.00000000E+00  0.00000000E+00  0.00000000E+00
  0.00000000E+00  0.00000000E+00  0.00000000E+00
  0.00000000E+00  0.00000000E+00  0.00000000E+00
  0.00000000E+00  0.00000000E+00  0.00000000E+00
  0.00000000E+00  0.00000000E+00  0.00000000E+00
  0.00000000E+00  0.00000000E+00  0.00000000E+00
  0.00000000E+00  0.00000000E+00  0.00000000E+00
  0.00000000E+00  0.00000000E+00  0.00000000E+00
  0.00000000E+00  0.00000000E+00  0.00000000E+00
  0.00000000E+00  0.00000000E+00  0.00000000E+00
  0.00000000E+00  0.00000000E+00  0.00000000E+00
  0.00000000E+00  0.00000000E+00  0.00000000E+00
  0.00000000E+00  0.00000000E+00  0.00000000E+00
  0.00000000E+00  0.00000000E+00  0.00000000E+00
  0.00000000E+00  0.00000000E+00  0.00000000E+00
  0.00000000E+00  0.00000000E+00  0.00000000E+00
  0.00000000E+00  0.00000000E+00  0.00000000E+00
  0.00000000E+00  0.00000000E+00  0.00000000E+00
  0.00000000E+00  0.00000000E+00  0.00000000E+00
  0.00000000E+00  0.00000000E+00  0.00000000E+00
  0.00000000E+00  0.00000000E+00  0.00000000E+00
  0.00000000E+00  0.00000000E+00  0.00000000E+00
  0.00000000E+00  0.00000000E+00  0.00000000E+00
  0.00000000E+00  0.00000000E+00  0.00000000E+00
  0.00000000E+00  0.00000000E+00  0.00000000E+00
  0.00000000E+00  0.00000000E+00  0.00000000E+00
  0.00000000E+00  0.00000000E+00  0.00000000E+00
  0.00000000E+00  0.00000000E+00  0.00000000E+00
  0.00000000E+00  0.00000000E+00  0.00000000E+00