CuInSe2gb                               
   1.00000000000000     
     9.7266780392896699    0.0000000000000000    0.0000000000000000
     0.0000000000000000    8.4235502764570693    0.0000000000000000
     0.0000000000000000    0.0000000000000000   45.0000000000000000
   Fe   Mn
   274    14
Direct
  0.0615675679860416  0.0329458575831438  0.1242423772408065
  0.3136650975591728  0.8740062207170851  0.6550929988528946
  0.1864987632024676  0.1249459846157909  0.7883548564758073
  0.4400603747762012  0.2880199420455240  0.3893094388373725
  0.3148918300926201  0.7115300084537087  0.8333721330012346
  0.8157618529466675  0.2127483581405131  0.8335920837457114
  0.1892987761792472  0.9622809546078103  0.8337446842264725
  0.5617743357878292  0.2062974743909269  0.5658782930387997
  0.0634806535622954  0.0414417032471587  0.7441872341856638
  0.8113894923987844  0.8724893085448412  0.5218056341931832
  0.1884626858200964  0.2914475257404880  0.7442371503596438
  0.9371162070638158  0.4538443363309058  0.3448869861983559
  0.9393831520640171  0.2876413221081360  0.3891738550226884
  0.8125464132172635  0.0451415835496330  0.8754824974072722
  0.1861463854086885  0.7892256419695952  0.6106853130840700
  0.5644997258681119  0.0379890206420787  0.3893141631151842
  0.9410950721954805  0.9622412827141116  0.8337586726324383
  0.3135129126999982  0.5448161217462970  0.8755936964744641
  0.6885279920644876  0.2913133586675923  0.7442632045631820
  0.1848583207398602  0.6163905770168493  0.1664709767561523
  0.8122395203799764  0.2053126958443571  0.4784803396757353
  0.8107305974788405  0.5390455445030627  0.6107411044517810
  0.3128335723656450  0.8712284942996413  0.4342825665209956
  0.8119505615577295  0.0371220683357464  0.2559506228423691
  0.6873253863273040  0.9537568379581223  0.3448873434843528
  0.9338286780351749  0.1164039742644954  0.1664747260208740
  0.0623477978943980  0.8724927821246959  0.5216621421284628
  0.5615480054179651  0.5372690568933364  0.2557835650425379
  0.6870306590935229  0.7945639988722016  0.8755829179116819
  0.5586944487510908  0.3664150243691940  0.1661912814614038
  0.4385880524161568  0.7917881258403550  0.7443090893600949
  0.8117037006391395  0.7061402037483409  0.5658445836843777
  0.5611635116039057  0.8744280720770898  0.7883694700755148
  0.6866203908258063  0.1221534756410216  0.5217393558185748
  0.8135108983429004  0.3738349529181253  0.6551289124373185
  0.9402883481511978  0.4621347334937112  0.8337064140233975
  0.0617002378662874  0.2074870618772867  0.6998804115696611
  0.4367779647060246  0.9571784677085617  0.6998167624533439
  0.3144815764588420  0.2115331465208083  0.8336483788666472
  0.4386106859926685  0.6239640117039402  0.6550723658780158
  0.3111289247542421  0.5392461221158411  0.6107051017525599
  0.9367711623333547  0.4559360436578542  0.5659005530094603
  0.6884981208640650  0.7914681299879794  0.7442756586818381
  0.9344065629891910  0.7834670639024833  0.1245254358915879
  0.6899948689674678  0.7876459041351899  0.3892353996821544
  0.9384158394425138  0.7912034903787217  0.7442121848762424
  0.0621711127962783  0.2041120995071752  0.3448419959090461
  0.6873127659317557  0.4537958393937206  0.3448950410513590
  0.4360611441898931  0.1247560192268231  0.7884850259199553
  0.0633139409345339  0.2031253102382762  0.2115289516138320
  0.0578431765085602  0.3664261841409196  0.1661160714765758
  0.9366344875184407  0.7875535059992974  0.2557458418801534
  0.5617109197014460  0.2071794694435156  0.6998849190609376
  0.6867841159642281  0.9573782036532356  0.6999122791346274
  0.8106597869042720  0.8749406326206436  0.7882933181500298
  0.4367852268372019  0.9561673844206519  0.5659125599735177
  0.8110050785582994  0.3748167602751147  0.7883286719163416
  0.6867342502071896  0.2868776199231727  0.2559166851140360
  0.1867110250849160  0.4560510998621948  0.5658788058342490
  0.0590996505179015  0.8667871359551520  0.1663730275270534
  0.1862853078253550  0.2892537255709959  0.6107921538150854
  0.0616898173687573  0.2062289069872593  0.5658107660444032
  0.3119527947057179  0.2073760923862818  0.6998787570306590
  0.5639715496936024  0.5452946129058643  0.8755142380301763
  0.0616826611778393  0.7060375417465387  0.5658503563885371
  0.6856913955535937  0.6248555820529477  0.7882825336956364
  0.3145426201614368  0.5374436500904954  0.3892874500824912
  0.1872339915302473  0.6226399904201793  0.5217729269359026
  0.5625550377488097  0.8712619121292765  0.4342261680967613
  0.4368754417094145  0.4562457036966268  0.5659339544933186
  0.4385368182985164  0.2918812975743024  0.7442632380914624
  0.8159127010530466  0.8721775939582546  0.3002349993180256
  0.8119295513273118  0.7032784207777421  0.3448886310905334
  0.4400637949676054  0.4613092284536884  0.8335847780891639
  0.6875229257780059  0.9549141365831968  0.4784204398831424
  0.6868608463791648  0.4572568717427902  0.6998835392152699
  0.5619069914731867  0.8724265774858371  0.5217329484920402
  0.5637038021232235  0.3737783300723086  0.6550633519908040
  0.8136418644571275  0.8739644062407671  0.6551225169304397
  0.8120099747593189  0.3709411198154000  0.4340907014579275
  0.8116545317506482  0.5367574079543066  0.2559217200605618
  0.6902338319736419  0.4616701900241244  0.8335467888828233
  0.1856188575103432  0.7838300608959329  0.1242013398533598
  0.6893051932222446  0.2876164273909528  0.3892215337592041
  0.3135603442249202  0.3740025170361192  0.6550311561073835
  0.3121028502942638  0.2035986283647614  0.3449639600095118
  0.8134790306012798  0.5411848080991666  0.7441510126456455
  0.6902719498007293  0.9615578442532930  0.8335566371045897
  0.5636617357382534  0.8740625017707636  0.6551090468871824
  0.3118956024384814  0.7063067394760322  0.5658658626131475
  0.3094218622570047  0.5330267341686856  0.1241596987951020
  0.6883751633245733  0.9531462418221165  0.2117315967172122
  0.3119102588995036  0.2063635808050628  0.5658896348762743
  0.1874615915066312  0.9552141634812585  0.4784310010893171
  0.6869384298649243  0.9562079123651939  0.5659273369484691
  0.4359321450824455  0.7892602529122833  0.6106832811311267
  0.6832197109682443  0.6149224809994802  0.1664009237579424
  0.3159071483223150  0.8720824564345125  0.3001833307968234
  0.3121607351044529  0.7052115624138611  0.4782928084903552
  0.9359349334646067  0.2890679186037083  0.6106651770148618
  0.4409581463196865  0.6215609838598825  0.3002394273296468
  0.8085565518870834  0.8654754299477235  0.1664251574635417
  0.5638352494998519  0.2023664467148807  0.2118290653108730
  0.9344253569790419  0.6152249574128239  0.1663778954458342
  0.4374140313378459  0.9547131772155300  0.4783818194453094
  0.5610877017126414  0.3743121171421863  0.7883952969853678
  0.0617869293998423  0.3728807012299790  0.5216752721154442
  0.3086391218332131  0.3658183806550883  0.1660551683035824
  0.6910398675795498  0.1215269288986322  0.3002631866203315
  0.4405976518847011  0.9611577491743741  0.8335578794075331
  0.1849160246064010  0.2832879019068578  0.1243190901674284
  0.1870404212080129  0.2864910266486508  0.2559384541460259
  0.3127286510030675  0.3712632083094501  0.4342193804829926
  0.5607285789560006  0.0332280790788213  0.1242657556495323
  0.4359593111582419  0.2892787705902007  0.6106746774948302
  0.1871042167462440  0.4537214080109315  0.3449213030877854
  0.4334493241219067  0.2825567551472969  0.1244196632916270
  0.6864075275171863  0.7873985028445364  0.2558842699009924
  0.4368461015510220  0.1227036429954285  0.5216680944820108
  0.1890362736524979  0.2940832414703518  0.8758031266880504
  0.1886527898880314  0.1238829470285084  0.6551527052871142
  0.9387076546064782  0.1238930699269259  0.6551445975490745
  0.8144189346993166  0.5374756633112622  0.3892378743231566
  0.0646608287224363  0.0379464517808284  0.3892866573813227
  0.1839708266120508  0.1149985701844360  0.1663062633770084
  0.0610685944377843  0.5390354371202632  0.6107007948169981
  0.3131181513971090  0.7026685165285964  0.2115453472856923
  0.5608652174306592  0.5393513931089605  0.6106660258321635
  0.9367830218413487  0.9560070008217624  0.5658406064772322
  0.6908642073425444  0.6219931720732724  0.3003327169168699
  0.9377395527470646  0.6213384239993164  0.4341678747493499
  0.9358077393995556  0.6258657392149465  0.7883173907973254
  0.5616778735047878  0.7071097144429725  0.6998390185570754
  0.0644197639510970  0.7132386961174639  0.8336726271456200
  0.9411023423481187  0.1220581990596072  0.3001996740357681
  0.9358622475927574  0.7889983780756427  0.6107623220554600
  0.4369278448675519  0.7870787528081911  0.2559015648539540
  0.3112787841197129  0.3743092400245799  0.7883472241202373
  0.4383516577686845  0.4540381110472841  0.2116005157523615
  0.1870199564445892  0.1222815637177399  0.5217092992974409
  0.8118538030100720  0.7075099275260220  0.6998795476130683
  0.0610158771606121  0.0394622192975246  0.6106795259318358
  0.5646923980646001  0.2115010113298436  0.8333600002113045
  0.3120363634044612  0.8724011806663645  0.5218130996535026
  0.6858785752818590  0.2824979549088036  0.1241461972554295
  0.1884464316828494  0.9540116451404879  0.2117010338132255
  0.6857344408370850  0.2893411455803680  0.6107652771450395
  0.3109947691405585  0.0392208883403469  0.6107274373583317
  0.9359555811077829  0.1257275723412242  0.7883951671184674
  0.4377162772588354  0.7938485528716104  0.8755852947396421
  0.8135064609798472  0.0416049220046580  0.7441325408618706
  0.9368367392129661  0.4572094970186569  0.6998718957356297
  0.1886705472370645  0.6239936974778932  0.6550925439380746
  0.3119016471680779  0.7072152490813428  0.6999006628088407
  0.9347416101596671  0.2832986428395407  0.1241234356838691
  0.4374283504468451  0.4547134466517830  0.4783627961522807
  0.0625082884671070  0.7046406666295411  0.4783790027143912
  0.9374897102305038  0.1211344915519484  0.4344842086246908
  0.4412169031140392  0.1214295570615723  0.3001048513533542
  0.1875278146083499  0.1210472803438561  0.4340902779169151
  0.5643218488113687  0.0450328682702883  0.8755910454523301
  0.1866080057344419  0.9563298496219467  0.5659219732213062
  0.6851685042155690  0.7847061721110898  0.1244229985116526
  0.5625699237114504  0.7037675680056150  0.3448860706156214
  0.3146051168139927  0.0378125918007593  0.3892274568657136
  0.6844710909925821  0.1155826635192784  0.1664519355703067
  0.8138339276151689  0.2026254657443647  0.2117117979672319
  0.0613917504206293  0.5372844516022406  0.2557689636290140
  0.5625667223251875  0.7052060201438858  0.4783470773975006
  0.4345470357673987  0.7843304463754261  0.1241945205114511
  0.5657186488852273  0.3716208032865148  0.3002817742379274
  0.4372462727701359  0.9537788157896484  0.3448279296954329
  0.1867718870045224  0.9574660777498627  0.6998794184578697
  0.4338745784742920  0.6157717948815996  0.1663131346367787
  0.9383610571546410  0.4534279160265812  0.2117916262296607
  0.0607098492949707  0.5323985437274296  0.1241689667929842
  0.8118757707356875  0.3728217026293382  0.5216999672566959
  0.9407859751728217  0.6221871797630273  0.3000838181837056
  0.3117918570858040  0.0369180380475811  0.2558877614342277
  0.6858191249645553  0.7890470866116699  0.6107083629840274
  0.1899669985380461  0.4623057331616847  0.8336933507376088
  0.4343407385835246  0.1146242926570614  0.1664657113302410
  0.3117033435748354  0.3727477459529182  0.5217353609943514
  0.4361683145748099  0.6245634046619375  0.7885230678060789
  0.0615361432281255  0.0371727368410940  0.2557907603564572
  0.5616556167512033  0.7062061707562362  0.5658938033226045
  0.9384343311208592  0.2912092959293736  0.7442091978663892
  0.6858607096499136  0.1249145764933910  0.7882905618119800
  0.1878739264676238  0.4534810458710700  0.2116703426761158
  0.9392193397795519  0.7873416661314966  0.3891965717096190
  0.6871065223788569  0.2946607676911675  0.8756772689897943
  0.5574501578005798  0.8651211599544431  0.1663535269631275
  0.4367180132575421  0.4570675117579049  0.6999172552144259
  0.9373143768570260  0.9533231419184074  0.3449029615727734
  0.6866664354491422  0.6224673185410069  0.5216898411869684
  0.0634952114072275  0.8739341989336835  0.6550978540877208
  0.0615247619464930  0.8751293796923888  0.7884509310721601
  0.0636219011036247  0.3739380301407310  0.6551387999070659
  0.6871907338992577  0.4549590753179787  0.4782549841213055
  0.1870678384667335  0.7872952491303769  0.2558052516433563
  0.4374072652385981  0.1211056867970492  0.4342553595199736
  0.8111608944647902  0.0336102078451469  0.1242761823324873
  0.9366751081900225  0.6223810764879505  0.5216946811352987
  0.4386604408268598  0.1238967284510348  0.6551178190068163
  0.8127098494293767  0.5331684386797718  0.1238994996454603
  0.4375305747661263  0.4535799821103252  0.3448775594310012
  0.8123336100175533  0.2035857154519404  0.3448906028756377
  0.3124625500136700  0.7037262219932157  0.3448408575209321
  0.6885963170931597  0.1240443329384136  0.6551626775131064
  0.5658808439076032  0.8716630648432271  0.3001792203682674
  0.0633839696365732  0.5409001223962360  0.7441381824750707
  0.9385401990745410  0.9537269483483140  0.2117070088813225
  0.8142307950436798  0.7029545838876651  0.2116839833563577
  0.0657288473054666  0.8717453511699881  0.3001094043562527
  0.1905503727256871  0.1221584392140523  0.3000733147108846
  0.0620600742606388  0.7035477255819306  0.3448203195507735
  0.8110815836223614  0.0392147841029693  0.6107090899630302
  0.0628867286712054  0.3710119002384361  0.4341183947343940
  0.5624631199817237  0.2035174778067838  0.3449067570962303
  0.8156821380024549  0.3722461761330633  0.3002085906346315
  0.5622903564658424  0.0374167425734693  0.2558948745459069
  0.5643653794603420  0.5371414081013833  0.3892030230200220
  0.0624866342819558  0.2049858739119864  0.4784160457991632
  0.3117479830476664  0.8742741466615377  0.7882321136932845
  0.9367403439329777  0.9575536345879265  0.6997943990484715
  0.0659619169185032  0.3720754261697840  0.3003066514298219
  0.6885464186420841  0.6240757356741650  0.6551113430112893
  0.6866558974273180  0.4561625841806485  0.5658578531465354
  0.4387033850143015  0.9534726252360226  0.2118272694477078
  0.3122615841390298  0.2049659037740905  0.4783739451069868
  0.8128406632860206  0.5445543381192465  0.8755045248849963
  0.6881732045534616  0.6209596654902247  0.4341572643940551
  0.8118311283002189  0.2074487661404809  0.6998833552763178
  0.8124155601751354  0.7050569362979210  0.4783627414916418
  0.8118397013989511  0.8711162260332017  0.4342173132908668
  0.9373442801455112  0.9545991427493681  0.4784707257766876
  0.5625680465508823  0.2049511161859887  0.4784132408758600
  0.1872555911758558  0.6211212702167100  0.4342285326063380
  0.3134083179789190  0.0417308735658350  0.7442524352607112
  0.9385583566708464  0.6242024130638946  0.6550806446246970
  0.5647059394696397  0.7114521225245268  0.8333583167742249
  0.3160606531294687  0.3722570813947298  0.3001465345323309
  0.3134326400430765  0.5411555760373116  0.7442994403949944
  0.1876878798001183  0.4550369388853960  0.4783171851141400
  0.3148972803082242  0.0459311642213090  0.8755987218678357
  0.1866484745784863  0.4572675372168601  0.6999019522437290
  0.5620726625972613  0.3726909132952142  0.5217311724314967
  0.1891749304789951  0.2877906859146082  0.3893107366318893
  0.3133735369833434  0.2027733737096034  0.2115953551693270
  0.0637197525826451  0.7033922082945118  0.2115594575586864
  0.5624961049938728  0.3711709439165709  0.4342301078746769
  0.4369514416755541  0.6226162396188776  0.5215949073558411
  0.8152264529348159  0.7128227974592579  0.8333609167919486
  0.0614931654340412  0.3753609993907595  0.7883665674002649
  0.4373729532654700  0.2944734129518440  0.8757267089715977
  0.3106524213429661  0.0331577355095926  0.1239642205738065
  0.6877717892022299  0.1215308423177335  0.4342103823570714
  0.1869266412304658  0.9534244453842788  0.3448385967605708
  0.0643151278562928  0.2120892248443782  0.8336718908302523
  0.5609272006576689  0.0392573261527036  0.6107149376350940
  0.6884856837100148  0.4533861423304076  0.2116920879308582
  0.1884900829601683  0.7913237880625086  0.7442115029159767
  0.1908425982697247  0.6215730833698443  0.3001285129700832
  0.4399408805207246  0.7873523100454266  0.3893234928393734
  0.4367445194969029  0.2871567215415596  0.2558340932464623
  0.0647955243505704  0.5445537643736545  0.8756421889167195
  0.5637316607982612  0.0417118701303453  0.7442766630245995
  0.1882778580258553  0.7939891068140169  0.8757577481566149
  0.9372688526081795  0.4547034469670752  0.4783445239063694
  0.5635937037682980  0.5415824229096263  0.7442047964264348
  0.8116452246741052  0.2064179564392406  0.5658592534884371
  0.1866140940288874  0.6249670537721701  0.7883536177016363
  0.0650392045835096  0.5382344246083643  0.3893827111449357
  0.0616357475285673  0.7074991899605266  0.6998123680797363
  0.3117465458422559  0.5371760748375304  0.2557453807834391
  0.9360808289792582  0.2867481407118366  0.2558305472035921
  0.3082222649854742  0.8657499070429687  0.1658427321671741
  0.4368343853342402  0.6210916654068995  0.4342294343154599
  0.8153477258502397  0.0377737596139606  0.3891515690969084
  0.9363286933816832  0.2952356235293509  0.8756257243073372
  0.9373172809781779  0.7923292038763802  0.8755935522368962
  0.0652639132007510  0.0438835478760987  0.8754634599979911
  0.5608296960825224  0.5329391906895563  0.1245725508963158
  0.8076034433650885  0.3665294951559034  0.1656918249801998
  0.0624157991599389  0.8711291865225593  0.4341696310572728
  0.9369746799987678  0.1227344239089232  0.5215960623119582
  0.1900742529485973  0.7869366478345522  0.3890843834590484
  0.5637956327479849  0.7028804732388411  0.2117253629610744
 
  0.00000000E+00  0.00000000E+00  0.00000000E+00
  0.00000000E+00  0.00000000E+00  0.00000000E+00
  0.00000000E+00  0.00000000E+00  0.00000000E+00
  0.00000000E+00  0.00000000E+00  0.00000000E+00
  0.00000000E+00  0.00000000E+00  0.00000000E+00
  0.00000000E+00  0.00000000E+00  0.00000000E+00
  0.00000000E+00  0.00000000E+00  0.00000000E+00
  0.00000000E+00  0.00000000E+00  0.00000000E+00
  0.00000000E+00  0.00000000E+00  0.00000000E+00
  0.00000000E+00  0.00000000E+00  0.00000000E+00
  0.00000000E+00  0.00000000E+00  0.00000000E+00
  0.00000000E+00  0.00000000E+00  0.00000000E+00
  0.00000000E+00  0.00000000E+00  0.00000000E+00
  0.00000000E+00  0.00000000E+00  0.00000000E+00
  0.00000000E+00  0.00000000E+00  0.00000000E+00
  0.00000000E+00  0.00000000E+00  0.00000000E+00
  0.00000000E+00  0.00000000E+00  0.00000000E+00
  0.00000000E+00  0.00000000E+00  0.00000000E+00
  0.00000000E+00  0.00000000E+00  0.00000000E+00
  0.00000000E+00  0.00000000E+00  0.00000000E+00
  0.00000000E+00  0.00000000E+00  0.00000000E+00
  0.00000000E+00  0.00000000E+00  0.00000000E+00
  0.00000000E+00  0.00000000E+00  0.00000000E+00
  0.00000000E+00  0.00000000E+00  0.00000000E+00
  0.00000000E+00  0.00000000E+00  0.00000000E+00
  0.00000000E+00  0.00000000E+00  0.00000000E+00
  0.00000000E+00  0.00000000E+00  0.00000000E+00
  0.00000000E+00  0.00000000E+00  0.00000000E+00
  0.00000000E+00  0.00000000E+00  0.00000000E+00
  0.00000000E+00  0.00000000E+00  0.00000000E+00
  0.00000000E+00  0.00000000E+00  0.00000000E+00
  0.00000000E+00  0.00000000E+00  0.00000000E+00
  0.00000000E+00  0.00000000E+00  0.00000000E+00
  0.00000000E+00  0.00000000E+00  0.00000000E+00
  0.00000000E+00  0.00000000E+00  0.00000000E+00
  0.00000000E+00  0.00000000E+00  0.00000000E+00
  0.00000000E+00  0.00000000E+00  0.00000000E+00
  0.00000000E+00  0.00000000E+00  0.00000000E+00
  0.00000000E+00  0.00000000E+00  0.00000000E+00
  0.00000000E+00  0.00000000E+00  0.00000000E+00
  0.00000000E+00  0.00000000E+00  0.00000000E+00
  0.00000000E+00  0.00000000E+00  0.00000000E+00
  0.00000000E+00  0.00000000E+00  0.00000000E+00
  0.00000000E+00  0.00000000E+00  0.00000000E+00
  0.00000000E+00  0.00000000E+00  0.00000000E+00
  0.00000000E+00  0.00000000E+00  0.00000000E+00
  0.00000000E+00  0.00000000E+00  0.00000000E+00
  0.00000000E+00  0.00000000E+00  0.00000000E+00
  0.00000000E+00  0.00000000E+00  0.00000000E+00
  0.00000000E+00  0.00000000E+00  0.00000000E+00
  0.00000000E+00  0.00000000E+00  0.00000000E+00
  0.00000000E+00  0.00000000E+00  0.00000000E+00
  0.00000000E+00  0.00000000E+00  0.00000000E+00
  0.00000000E+00  0.00000000E+00  0.00000000E+00
  0.00000000E+00  0.00000000E+00  0.00000000E+00
  0.00000000E+00  0.00000000E+00  0.00000000E+00
  0.00000000E+00  0.00000000E+00  0.00000000E+00
  0.00000000E+00  0.00000000E+00  0.00000000E+00
  0.00000000E+00  0.00000000E+00  0.00000000E+00
  0.00000000E+00  0.00000000E+00  0.00000000E+00
  0.00000000E+00  0.00000000E+00  0.00000000E+00
  0.00000000E+00  0.00000000E+00  0.00000000E+00
  0.00000000E+00  0.00000000E+00  0.00000000E+00
  0.00000000E+00  0.00000000E+00  0.00000000E+00
  0.00000000E+00  0.00000000E+00  0.00000000E+00
  0.00000000E+00  0.00000000E+00  0.00000000E+00
  0.00000000E+00  0.00000000E+00  0.00000000E+00
  0.00000000E+00  0.00000000E+00  0.00000000E+00
  0.00000000E+00  0.00000000E+00  0.00000000E+00
  0.00000000E+00  0.00000000E+00  0.00000000E+00
  0.00000000E+00  0.00000000E+00  0.00000000E+00
  0.00000000E+00  0.00000000E+00  0.00000000E+00
  0.00000000E+00  0.00000000E+00  0.00000000E+00
  0.00000000E+00  0.00000000E+00  0.00000000E+00
  0.00000000E+00  0.00000000E+00  0.00000000E+00
  0.00000000E+00  0.00000000E+00  0.00000000E+00
  0.00000000E+00  0.00000000E+00  0.00000000E+00
  0.00000000E+00  0.00000000E+00  0.00000000E+00
  0.00000000E+00  0.00000000E+00  0.00000000E+00
  0.00000000E+00  0.00000000E+00  0.00000000E+00
  0.00000000E+00  0.00000000E+00  0.00000000E+00
  0.00000000E+00  0.00000000E+00  0.00000000E+00
  0.00000000E+00  0.00000000E+00  0.00000000E+00
  0.00000000E+00  0.00000000E+00  0.00000000E+00
  0.00000000E+00  0.00000000E+00  0.00000000E+00
  0.00000000E+00  0.00000000E+00  0.00000000E+00
  0.00000000E+00  0.00000000E+00  0.00000000E+00
  0.00000000E+00  0.00000000E+00  0.00000000E+00
  0.00000000E+00  0.00000000E+00  0.00000000E+00
  0.00000000E+00  0.00000000E+00  0.00000000E+00
  0.00000000E+00  0.00000000E+00  0.00000000E+00
  0.00000000E+00  0.00000000E+00  0.00000000E+00
  0.00000000E+00  0.00000000E+00  0.00000000E+00
  0.00000000E+00  0.00000000E+00  0.00000000E+00
  0.00000000E+00  0.00000000E+00  0.00000000E+00
  0.00000000E+00  0.00000000E+00  0.00000000E+00
  0.00000000E+00  0.00000000E+00  0.00000000E+00
  0.00000000E+00  0.00000000E+00  0.00000000E+00
  0.00000000E+00  0.00000000E+00  0.00000000E+00
  0.00000000E+00  0.00000000E+00  0.00000000E+00
  0.00000000E+00  0.00000000E+00  0.00000000E+00
  0.00000000E+00  0.00000000E+00  0.00000000E+00
  0.00000000E+00  0.00000000E+00  0.00000000E+00
  0.00000000E+00  0.00000000E+00  0.00000000E+00
  0.00000000E+00  0.00000000E+00  0.00000000E+00
  0.00000000E+00  0.00000000E+00  0.00000000E+00
  0.00000000E+00  0.00000000E+00  0.00000000E+00
  0.00000000E+00  0.00000000E+00  0.00000000E+00
  0.00000000E+00  0.00000000E+00  0.00000000E+00
  0.00000000E+00  0.00000000E+00  0.00000000E+00
  0.00000000E+00  0.00000000E+00  0.00000000E+00
  0.00000000E+00  0.00000000E+00  0.00000000E+00
  0.00000000E+00  0.00000000E+00  0.00000000E+00
  0.00000000E+00  0.00000000E+00  0.00000000E+00
  0.00000000E+00  0.00000000E+00  0.00000000E+00
  0.00000000E+00  0.00000000E+00  0.00000000E+00
  0.00000000E+00  0.00000000E+00  0.00000000E+00
  0.00000000E+00  0.00000000E+00  0.00000000E+00
  0.00000000E+00  0.00000000E+00  0.00000000E+00
  0.00000000E+00  0.00000000E+00  0.00000000E+00
  0.00000000E+00  0.00000000E+00  0.00000000E+00
  0.00000000E+00  0.00000000E+00  0.00000000E+00
  0.00000000E+00  0.00000000E+00  0.00000000E+00
  0.00000000E+00  0.00000000E+00  0.00000000E+00
  0.00000000E+00  0.00000000E+00  0.00000000E+00
  0.00000000E+00  0.00000000E+00  0.00000000E+00
  0.00000000E+00  0.00000000E+00  0.00000000E+00
  0.00000000E+00  0.00000000E+00  0.00000000E+00
  0.00000000E+00  0.00000000E+00  0.00000000E+00
  0.00000000E+00  0.00000000E+00  0.00000000E+00
  0.00000000E+00  0.00000000E+00  0.00000000E+00
  0.00000000E+00  0.00000000E+00  0.00000000E+00
  0.00000000E+00  0.00000000E+00  0.00000000E+00
  0.00000000E+00  0.00000000E+00  0.00000000E+00
  0.00000000E+00  0.00000000E+00  0.00000000E+00
  0.00000000E+00  0.00000000E+00  0.00000000E+00
  0.00000000E+00  0.00000000E+00  0.00000000E+00
  0.00000000E+00  0.00000000E+00  0.00000000E+00
  0.00000000E+00  0.00000000E+00  0.00000000E+00
  0.00000000E+00  0.00000000E+00  0.00000000E+00
  0.00000000E+00  0.00000000E+00  0.00000000E+00
  0.00000000E+00  0.00000000E+00  0.00000000E+00
  0.00000000E+00  0.00000000E+00  0.00000000E+00
  0.00000000E+00  0.00000000E+00  0.00000000E+00
  0.00000000E+00  0.00000000E+00  0.00000000E+00
  0.00000000E+00  0.00000000E+00  0.00000000E+00
  0.00000000E+00  0.00000000E+00  0.00000000E+00
  0.00000000E+00  0.00000000E+00  0.00000000E+00
  0.00000000E+00  0.00000000E+00  0.00000000E+00
  0.00000000E+00  0.00000000E+00  0.00000000E+00
  0.00000000E+00  0.00000000E+00  0.00000000E+00
  0.00000000E+00  0.00000000E+00  0.00000000E+00
  0.00000000E+00  0.00000000E+00  0.00000000E+00
  0.00000000E+00  0.00000000E+00  0.00000000E+00
  0.00000000E+00  0.00000000E+00  0.00000000E+00
  0.00000000E+00  0.00000000E+00  0.00000000E+00
  0.00000000E+00  0.00000000E+00  0.00000000E+00
  0.00000000E+00  0.00000000E+00  0.00000000E+00
  0.00000000E+00  0.00000000E+00  0.00000000E+00
  0.00000000E+00  0.00000000E+00  0.00000000E+00
  0.00000000E+00  0.00000000E+00  0.00000000E+00
  0.00000000E+00  0.00000000E+00  0.00000000E+00
  0.00000000E+00  0.00000000E+00  0.00000000E+00
  0.00000000E+00  0.00000000E+00  0.00000000E+00
  0.00000000E+00  0.00000000E+00  0.00000000E+00
  0.00000000E+00  0.00000000E+00  0.00000000E+00
  0.00000000E+00  0.00000000E+00  0.00000000E+00
  0.00000000E+00  0.00000000E+00  0.00000000E+00
  0.00000000E+00  0.00000000E+00  0.00000000E+00
  0.00000000E+00  0.00000000E+00  0.00000000E+00
  0.00000000E+00  0.00000000E+00  0.00000000E+00
  0.00000000E+00  0.00000000E+00  0.00000000E+00
  0.00000000E+00  0.00000000E+00  0.00000000E+00
  0.00000000E+00  0.00000000E+00  0.00000000E+00
  0.00000000E+00  0.00000000E+00  0.00000000E+00
  0.00000000E+00  0.00000000E+00  0.00000000E+00
  0.00000000E+00  0.00000000E+00  0.00000000E+00
  0.00000000E+00  0.00000000E+00  0.00000000E+00
  0.00000000E+00  0.00000000E+00  0.00000000E+00
  0.00000000E+00  0.00000000E+00  0.00000000E+00
  0.00000000E+00  0.00000000E+00  0.00000000E+00
  0.00000000E+00  0.00000000E+00  0.00000000E+00
  0.00000000E+00  0.00000000E+00  0.00000000E+00
  0.00000000E+00  0.00000000E+00  0.00000000E+00
  0.00000000E+00  0.00000000E+00  0.00000000E+00
  0.00000000E+00  0.00000000E+00  0.00000000E+00
  0.00000000E+00  0.00000000E+00  0.00000000E+00
  0.00000000E+00  0.00000000E+00  0.00000000E+00
  0.00000000E+00  0.00000000E+00  0.00000000E+00
  0.00000000E+00  0.00000000E+00  0.00000000E+00
  0.00000000E+00  0.00000000E+00  0.00000000E+00
  0.00000000E+00  0.00000000E+00  0.00000000E+00
  0.00000000E+00  0.00000000E+00  0.00000000E+00
  0.00000000E+00  0.00000000E+00  0.00000000E+00
  0.00000000E+00  0.00000000E+00  0.00000000E+00
  0.00000000E+00  0.00000000E+00  0.00000000E+00
  0.00000000E+00  0.00000000E+00  0.00000000E+00
  0.00000000E+00  0.00000000E+00  0.00000000E+00
  0.00000000E+00  0.00000000E+00  0.00000000E+00
  0.00000000E+00  0.00000000E+00  0.00000000E+00
  0.00000000E+00  0.00000000E+00  0.00000000E+00
  0.00000000E+00  0.00000000E+00  0.00000000E+00
  0.00000000E+00  0.00000000E+00  0.00000000E+00
  0.00000000E+00  0.00000000E+00  0.00000000E+00
  0.00000000E+00  0.00000000E+00  0.00000000E+00
  0.00000000E+00  0.00000000E+00  0.00000000E+00
  0.00000000E+00  0.00000000E+00  0.00000000E+00
  0.00000000E+00  0.00000000E+00  0.00000000E+00
  0.00000000E+00  0.00000000E+00  0.00000000E+00
  0.00000000E+00  0.00000000E+00  0.00000000E+00
  0.00000000E+00  0.00000000E+00  0.00000000E+00
  0.00000000E+00  0.00000000E+00  0.00000000E+00
  0.00000000E+00  0.00000000E+00  0.00000000E+00
  0.00000000E+00  0.00000000E+00  0.00000000E+00
  0.00000000E+00  0.00000000E+00  0.00000000E+00
  0.00000000E+00  0.00000000E+00  0.00000000E+00
  0.00000000E+00  0.00000000E+00  0.00000000E+00
  0.00000000E+00  0.00000000E+00  0.00000000E+00
  0.00000000E+00  0.00000000E+00  0.00000000E+00
  0.00000000E+00  0.00000000E+00  0.00000000E+00
  0.00000000E+00  0.00000000E+00  0.00000000E+00
  0.00000000E+00  0.00000000E+00  0.00000000E+00
  0.00000000E+00  0.00000000E+00  0.00000000E+00
  0.00000000E+00  0.00000000E+00  0.00000000E+00
  0.00000000E+00  0.00000000E+00  0.00000000E+00
  0.00000000E+00  0.00000000E+00  0.00000000E+00
  0.00000000E+00  0.00000000E+00  0.00000000E+00
  0.00000000E+00  0.00000000E+00  0.00000000E+00
  0.00000000E+00  0.00000000E+00  0.00000000E+00
  0.00000000E+00  0.00000000E+00  0.00000000E+00
  0.00000000E+00  0.00000000E+00  0.00000000E+00
  0.00000000E+00  0.00000000E+00  0.00000000E+00
  0.00000000E+00  0.00000000E+00  0.00000000E+00
  0.00000000E+00  0.00000000E+00  0.00000000E+00
  0.00000000E+00  0.00000000E+00  0.00000000E+00
  0.00000000E+00  0.00000000E+00  0.00000000E+00
  0.00000000E+00  0.00000000E+00  0.00000000E+00
  0.00000000E+00  0.00000000E+00  0.00000000E+00
  0.00000000E+00  0.00000000E+00  0.00000000E+00
  0.00000000E+00  0.00000000E+00  0.00000000E+00
  0.00000000E+00  0.00000000E+00  0.00000000E+00
  0.00000000E+00  0.00000000E+00  0.00000000E+00
  0.00000000E+00  0.00000000E+00  0.00000000E+00
  0.00000000E+00  0.00000000E+00  0.00000000E+00
  0.00000000E+00  0.00000000E+00  0.00000000E+00
  0.00000000E+00  0.00000000E+00  0.00000000E+00
  0.00000000E+00  0.00000000E+00  0.00000000E+00