FeMn_288_15                             
    1.000000000000000     
     9.7266779999999997    0.0000000000000000    0.0000000000000000
     0.0000000000000000    8.4235500000000005    0.0000000000000000
     0.0000000000000000    0.0000000000000000   45.0000000000000000
   Fe   Mn
   273    15
Direct
  0.6876963619314650  0.6190131217828847  0.1689239512705795
  0.6875354017994576  0.7863797569437444  0.2576601829962730
  0.8125271444087967  0.3727671943506247  0.5212982042047312
  0.0625930462503317  0.8754921591120662  0.7864290161318801
  0.8126368829951394  0.3693397491687199  0.1689408619223294
  0.5627773911426728  0.3711425731387480  0.4347402246249035
  0.3126228364164763  0.2076751632152941  0.6980344566967044
  0.0626404378061524  0.7061308323502051  0.5650707784365638
  0.0624413574747363  0.3699374348603494  0.3018897496674928
  0.4374443830038455  0.2917497204362369  0.7422012654204985
  0.4373962651627026  0.7920308297512459  0.8734127015123589
  0.0624426873146535  0.7025845128789598  0.2136780762345174
  0.5624482240124073  0.3698630138899072  0.3019110995161345
  0.0626252707677468  0.5359913980974709  0.2577659654958067
  0.6869704968233110  0.1190044031771035  0.1686608468382340
  0.5626542528384592  0.5416520524765747  0.7422160453597679
  0.5623920705511795  0.7064937338710102  0.5650680065355013
  0.1867764872310302  0.2849892830069250  0.1267379805978833
  0.8126415477354885  0.3750288301748782  0.7864224428740023
  0.8124244206709551  0.5415133840614264  0.7423213993208204
  0.8123951742610720  0.5361152685601323  0.2577614451042075
  0.9376159653782719  0.2877992941557411  0.3902644378867608
  0.1877361348215831  0.1252636718685194  0.7863400391007813
  0.5623729201860819  0.5373746403816203  0.3901471008974489
  0.5626789033893685  0.5403778807410837  0.6098704125204673
  0.8125566442308494  0.0376206273840678  0.3902722015581182
  0.9375605109700295  0.6191222568671477  0.1688164653262702
  0.5624640568299409  0.5366741105601381  0.1266640117772032
  0.5626262083659269  0.8738300210599925  0.6535794264005200
  0.8126545994914036  0.8739435514141649  0.6537208117241654
  0.1879770278649570  0.1190417080132657  0.1688222052169331
  0.9371981849078924  0.9536436773185242  0.3463062647494494
  0.0624545683916299  0.7033333675551167  0.3462684138890918
  0.8125998982956645  0.2053770344249140  0.4786585032456202
  0.3125241290412138  0.8684748697419180  0.1689081067517096
  0.1875501619582057  0.9578348646022503  0.6980935115342176
  0.8124118226600436  0.8712942869016862  0.4348425511254524
  0.6873956819279285  0.7877897174836364  0.3901681113149577
  0.3125179654910574  0.5417361889813144  0.7423035024104047
  0.0626898475663323  0.7075630523605286  0.6979725801778911
  0.3125655113473571  0.5364281067804678  0.2578390141491010
  0.9371864606351193  0.9593980186776857  0.8312404281270848
  0.0624124665342600  0.2041429352554745  0.3463147424773628
  0.1873038606153467  0.6189655320861598  0.1688811512423698
  0.0621223153223465  0.3720499751622962  0.5213764947679923
  0.0623397457320203  0.3759567239755566  0.7863556110399069
  0.5624438416189285  0.8699885219907052  0.3018799875766218
  0.9378107893822409  0.4536822850051467  0.3463113866045799
  0.8124452855468608  0.2027097210311403  0.2136756895919874
  0.0624567157866293  0.0406305249788654  0.6097892761259744
  0.1871107968973608  0.4565764677428033  0.5651030519701605
  0.9376592308785944  0.1243250734300997  0.6538162465789404
  0.0627730648552492  0.0427594764279062  0.8735371733059536
  0.0623239185408234  0.5418725881343263  0.7422197681859741
  0.1874106783715649  0.6199290174879337  0.3018433630883579
  0.3125141751632854  0.7051919531866355  0.4785935239943789
  0.9374301996703445  0.6214785536825721  0.4347862631243700
  0.4372215043409416  0.9560198068401231  0.5649856640674915
  0.6874288676381349  0.2873326166429460  0.3902288240780653
  0.9375201784120623  0.6198885309179324  0.3019224505668721
  0.3126337232484589  0.5428114620527985  0.8733064505963355
  0.5629419276686366  0.0416210419360667  0.7422780259609926
  0.4377821631267163  0.7879164350186632  0.3902226742862329
  0.4377672352506849  0.4554519407156929  0.4785936282703469
  0.3124585483235608  0.7022302738689048  0.2136565627243304
  0.5622992733347417  0.2056841453526456  0.4785774837336921
  0.6875177707293451  0.6197576515595502  0.3019733050486244
  0.4375034470901433  0.2902718903920458  0.6097222572101665
  0.4375064879258334  0.9585921890891076  0.8311892466271991
  0.8126025372259901  0.7079375061162098  0.6981287888235704
  0.8125013358498656  0.3739122315213301  0.6537192379315536
  0.9378017709419336  0.2916847662139363  0.8735065489532340
  0.5625065232600245  0.7042362312973106  0.3463247865940325
  0.6879238490836070  0.1215878839109057  0.4349313622824407
  0.9376030216790640  0.6238769928851142  0.6535660676484485
  0.5622309986261292  0.3738176302642809  0.6537546740057579
  0.9376958263783296  0.4525619096838988  0.2136451932745873
  0.6875966365816644  0.2916385684345262  0.7422276386389337
  0.9374813137703902  0.9553357985651949  0.4784978274674601
  0.6879910214312843  0.7901543627559295  0.6097530962270929
  0.4380194574268107  0.2922073578122368  0.8734074389519003
  0.9380424078224325  0.4590312133045535  0.8311902792191349
  0.4374124295210824  0.1255752283257605  0.7865043083129676
  0.5624650165439309  0.2038168459150123  0.3463112604199928
  0.9375246111027488  0.1191314337067116  0.1688605575974595
  0.3126953399201268  0.7058388143061879  0.5650329334816102
  0.5627246869914708  0.0374514138906902  0.3902514603655305
  0.6872868150897666  0.1198677690238554  0.3019153705427382
  0.8124924757130312  0.8697504928276296  0.3018865595043651
  0.1877205101307897  0.4578259776964296  0.6980533532708078
  0.9377029165310492  0.6224498586164471  0.5212427097413314
  0.4372559556155172  0.2876082263308627  0.3901622396520023
  0.5626197929158051  0.7086256956934944  0.8311412925979114
  0.0627159476519746  0.3742984797081639  0.6537413207936819
  0.5627375709717554  0.2092712469193650  0.8313450788971248
  0.6878655773834597  0.4528921914841960  0.2138245812094571
  0.8124732093372127  0.0360436922554723  0.2577775313935258
  0.9373276514669530  0.7912502736638127  0.7421599184928411
  0.6877329574778676  0.4538964900631329  0.3462633802370154
  0.9376357177094711  0.4559343007641102  0.5650882969361829
  0.0623524997118837  0.0417133740295825  0.7421713223112639
  0.6869607122803849  0.2917145332838796  0.8733333875425977
  0.8122570603286575  0.5361239196089310  0.1267250166035601
  0.0624548621369477  0.5399040007109237  0.6097776930491312
  0.5624410879044975  0.7024447874849856  0.2136349713757499
  0.5625048050751439  0.8714107147915356  0.4347989222698436
  0.0625671956712049  0.7091303184982177  0.8312247642385868
  0.3125082290383020  0.8754327794361495  0.7863902640355253
  0.9375117312884764  0.2859965149067225  0.2578028808990264
  0.9376200503898511  0.9576054558227031  0.6980976813443255
  0.5625301815260846  0.2026225990414717  0.2136129168027111
  0.3123476838864834  0.3715108605112813  0.4350431724954331
  0.1873512247099029  0.7862118076671638  0.2576765850639044
  0.8124487703483958  0.2083539518200492  0.6980193486037263
  0.6874161258855040  0.4564993425978803  0.5650876270054337
  0.1877003151170090  0.9596038202389889  0.8312045855457419
  0.3124521609687370  0.2051282853388154  0.4786779530806797
  0.1875183941710681  0.6228312995007744  0.5212584264093402
  0.1877019439566418  0.2878169799838476  0.3902507615890344
  0.0621315872939620  0.5419564589793199  0.8734000171338490
  0.6873438272536537  0.1239978872291665  0.6537022718635335
  0.8121585185122274  0.0355389523906893  0.1265797729731595
  0.4374479582643706  0.4589748451599297  0.8312156480988300
  0.6875746453373993  0.7860519045765167  0.1265923677470116
  0.3123015172883514  0.8725655257858437  0.5212797540569942
  0.3126320617284338  0.2041898908441965  0.3462855479005184
  0.3128774696350065  0.7088644428999442  0.8311569889781553
  0.8126176182538565  0.3699084112845645  0.3018996408413726
  0.4375071540724262  0.6212661257991403  0.4347837681113103
  0.3125795759625165  0.2063155895146284  0.5651638490344575
  0.8124914555859245  0.7051912065546720  0.4785528668431623
  0.5626137105724790  0.3753054124663612  0.7864232833667033
  0.0622552357833158  0.8741719762949910  0.6535503002329551
  0.4370812732523809  0.7855800931396679  0.1266071059643428
  0.3130370772167868  0.3684796222394178  0.1688247768701886
  0.9378647172938162  0.7852849120105706  0.1266711672753864
  0.4374765590922004  0.7866276546408395  0.2576357693460148
  0.0625474135984559  0.5376749316968997  0.3902056528263259
  0.6873504967710259  0.7911212185111095  0.7422506626875702
  0.0623701620781706  0.2028140179946131  0.2137054582733892
  0.4372313391999622  0.4575006346664518  0.6981298320054026
  0.3120988249017763  0.0379368026743390  0.3902139033180237
  0.4373519474833664  0.9577358050000933  0.6980449847075934
  0.6874448687662719  0.6227238813445777  0.5212689352155569
  0.6874475782897500  0.4594194537615705  0.8312032221018266
  0.8125340739428231  0.5373064470553824  0.3901991245012984
  0.3125678458001524  0.5373456009309071  0.3901865321890448
  0.9374819583288631  0.7905821175098005  0.6096340401793304
  0.4375197464633544  0.1199980861024119  0.3019838952521364
  0.9368827227045291  0.7919200174879862  0.8734214424239297
  0.9375319954857859  0.7859907438406689  0.2577065521801088
  0.1875004903982231  0.7878389959523588  0.3901492258745501
  0.9377412830485823  0.4553016436305665  0.4785454749885620
  0.0625902188136947  0.0377397111386564  0.3901844731419344
  0.9377336716575337  0.2918197506876127  0.7422458157395914
  0.8126844420677625  0.8726150333055007  0.5213195634702060
  0.1871514800888853  0.1222048608972310  0.5213963117462769
  0.5627426451003799  0.8724771870415745  0.5212606356499193
  0.5626529447779516  0.2071898838399809  0.6980526411715257
  0.3124089825467311  0.0417408043108980  0.8734455140499349
  0.6876713158312172  0.7922416364198881  0.8734673505888765
  0.4372290570520274  0.4565548661453350  0.5651296964483616
  0.0625110666439061  0.3717933383791333  0.4347748252905503
  0.0621646071897058  0.8724992582738108  0.5212490326023731
  0.1875768643882787  0.2861251648648318  0.2578542253574521
  0.4373717599435923  0.1237714642926827  0.6536879193120121
  0.4380222766788595  0.1224258416629874  0.5212385316084801
  0.0625308578462136  0.0362391055658926  0.2578577804268498
  0.8121876110636799  0.7092008354094456  0.8313283940370663
  0.1872664797259873  0.9558409101176831  0.5650443154607444
  0.6874988432167778  0.9553096958062107  0.4785973477466408
  0.6873634191452962  0.6253511038908286  0.7865559567736221
  0.3125740331028474  0.5364231118781677  0.1266675937876457
  0.9374709937506870  0.2858033415907407  0.1266992512335304
  0.9373150851757960  0.7877534405823543  0.3901616205230363
  0.0625981375261214  0.5358570562675549  0.1267313970020230
  0.4374792673395124  0.2866147860538715  0.2577274978216648
  0.3123776377848864  0.5401221373123414  0.6097181566482995
  0.4378510508652360  0.6249674120482982  0.7863731396390801
  0.6874027928391552  0.1223355698143008  0.5213646262526145
  0.3124758201487331  0.7083441831524654  0.6980874409200301
  0.1871877453730772  0.4537863283813502  0.3463036068800345
  0.8125397107467309  0.7028027709014665  0.2136596099702920
  0.5622601489790039  0.7080916787373841  0.6980385771563251
  0.1870843668644194  0.4584982587333720  0.8312895559606768
  0.5621197327884568  0.2065424328639764  0.5651605044375559
  0.8125583413983749  0.0420407283032089  0.8734220048919732
  0.8124668623255352  0.2041839373170272  0.3463532827124634
  0.4375076425990929  0.9553003248695638  0.4785103078212989
  0.9377853302002549  0.1216308878631241  0.4349284567198805
  0.6872600758985165  0.4553170943195245  0.4785533145702032
  0.4372394606489244  0.4542044369818128  0.3462436451359202
  0.1873355210628282  0.6216673302182095  0.4346942089400791
  0.4375245841272330  0.6199524210600780  0.3019747607709282
  0.1872181731894837  0.2918986362986142  0.7422293760243293
  0.1872482784093313  0.4554776747037817  0.4786917626158752
  0.4371976948537578  0.4525822941086425  0.2136764002245316
  0.6874809428981309  0.1250821443251532  0.7864097792845862
  0.9377015303709445  0.1222906822259918  0.5213507646129517
  0.1868188502925623  0.1216954791923544  0.4347889440738963
  0.1872748494757628  0.6243314174315913  0.6536802305984756
  0.6870979160126285  0.4579994803444522  0.6980546937101996
  0.3123622491602144  0.8740221872744759  0.6536651299615053
  0.5622881642229839  0.8754924209891316  0.7864466296631222
  0.0623262576507606  0.2078299372649307  0.6980249509811485
  0.1873465404535932  0.7855214888543232  0.1266151584122575
  0.6877649770601416  0.6209905921489554  0.4348697811743752
  0.3127382845335153  0.2086708325299700  0.8312913059473591
  0.0625551854348434  0.8689391548199427  0.1689045577599422
  0.1873733447507363  0.7899568821988183  0.6097218805629799
  0.1870799243602137  0.4528233601649658  0.2137807029004952
  0.3124378583930223  0.3701096060626518  0.3018643274304081
  0.3124966323297475  0.3741378427785449  0.6535959251574324
  0.0625236213957126  0.8698765010579598  0.3019168458459516
  0.8127457329851060  0.7059971793902117  0.5650318907052344
  0.6874002447034306  0.2862791989863199  0.2577262040202345
  0.1875586635477323  0.9554479655748467  0.4785390242103219
  0.0627698412848503  0.0354948087767126  0.1266768620728860
  0.8124413328185642  0.3717001088047794  0.4348493752381182
  0.5622033967096113  0.0423152684201204  0.8734004688000627
  0.8124255401002618  0.5399559721354797  0.6096904544814009
  0.3124528020000064  0.0363970215498701  0.2577963233036979
  0.4371804220905564  0.9517735275580482  0.2137700173957054
  0.1875536527687495  0.9526802371696960  0.2136689713964983
  0.5626295132152097  0.7051958624889417  0.4785233689409017
  0.5626150486183761  0.8688377258177709  0.1688069360813509
  0.8124405239733203  0.0405265329416898  0.6097104101342348
  0.0630742928968706  0.2063814384150086  0.5651263404288056
  0.6875866049780651  0.9585620827333863  0.8312090143817003
  0.4375859494275446  0.7918634021008372  0.7421911709645139
  0.8125487078019077  0.0415154085018588  0.7422410128121266
  0.9374286856337808  0.6253564244921190  0.7864635663333387
  0.5635266103189949  0.0358365834761360  0.1265967939437517
  0.6881116589148900  0.2858737242822142  0.1266558591173420
  0.9375818862635432  0.1250306022841477  0.7864753900891195
  0.3125624732472189  0.0398434166913187  0.6097602234698685
  0.4374347157242167  0.6186074865030712  0.1686603794855173
  0.1874900106770833  0.1240653729658002  0.6536548841488469
  0.9377803457882579  0.9527758398402125  0.2136147588442832
  0.8125348176776612  0.2086759551409292  0.8311804332979951
  0.3123891942718754  0.7035712974489090  0.3462670100873535
  0.1872338529353165  0.2920799911034543  0.8736151512926479
  0.6876901585031248  0.2902914690870147  0.6096340130022769
  0.0624975100072775  0.7053748775914069  0.4785253655814234
  0.3125602270446718  0.2027514230466229  0.2136506211421262
  0.1876367872110795  0.9534909353547830  0.3462282157921435
  0.9376219765329722  0.1199814023603524  0.3020045089851574
  0.6873003501378726  0.6234882279766006  0.6537006097138701
  0.9379658388842790  0.9560860063465941  0.5651508276552031
  0.8121967709335002  0.8693120766211293  0.1688328367435288
  0.4375001418693582  0.6240686317240483  0.6537203644987617
  0.1881521960425012  0.7917364713925195  0.8732940924206659
  0.8124838362811633  0.5423748227517328  0.8733998392640218
  0.5628751446543386  0.5423814655391795  0.8734132951015182
  0.1875670108318380  0.1198955336579412  0.3019235933940271
  0.0626601371916402  0.8714535984050522  0.4347488605372050
  0.1874886881122663  0.6251711600147966  0.7864679196306503
  0.4375271375663274  0.6227945733151848  0.5212974193209066
  0.8126597441657781  0.7033558789890612  0.3462916570058073
  0.0623150162757235  0.3691568742800904  0.1689784164387783
  0.5619692338172020  0.3686533293341016  0.1688010566175559
  0.3113793868863144  0.0357466914733909  0.1266970696644624
  0.3124360498309008  0.8715181649716217  0.4348326255415764
  0.5625772565972833  0.0401535377225648  0.6097017574644154
  0.0628170357992936  0.2055333778333017  0.4785783377629810
  0.4375169140797706  0.1197054450651109  0.1686973456172857
  0.1874327834946671  0.2903698509628515  0.6096960540644856
  0.5628094399973378  0.3723659468358884  0.5214077825074063
  0.5624203352814223  0.5363826728938894  0.2578249968173620
  0.5625406695857688  0.0362912424742853  0.2577634695409071
  0.9376830982575827  0.2901953183609187  0.6098009998702365
  0.3124489654870612  0.8697460071473075  0.3018325300463346
  0.1875814418967679  0.7917209474150236  0.7422305651375068
  0.6886557340274032  0.9536435480459805  0.3463051571560286
  0.4374149411283588  0.2859091159789859  0.1269152128463353
  0.4376555977997588  0.1211885586785047  0.4347911002323372
  0.9376709558195204  0.4581705151584462  0.6980753178044484
  0.3125264152571562  0.3726435561346400  0.5212933645695035
  0.6874642348927865  0.9525498025691675  0.2138534406149276
  0.6866609382838292  0.9555290006417704  0.5651745750975725
  0.8129164375397198  0.2070281388649495  0.5651116473550026
  0.3123777771552595  0.0424116188352463  0.7424169718205396
  0.6874639566445574  0.9577350936294707  0.6981800412325665
  0.0624580432763340  0.2092493975062386  0.8318911671378157
  0.3122592408177670  0.3749527309730442  0.7861372414458774
  0.4375952571265854  0.7901707324379807  0.6098050419137204
  0.4364375309408031  0.9537758254823078  0.3463522487828234
  0.8125527915270386  0.8755069967059855  0.7861827796892410
 
  0.00000000E+00  0.00000000E+00  0.00000000E+00
  0.00000000E+00  0.00000000E+00  0.00000000E+00
  0.00000000E+00  0.00000000E+00  0.00000000E+00
  0.00000000E+00  0.00000000E+00  0.00000000E+00
  0.00000000E+00  0.00000000E+00  0.00000000E+00
  0.00000000E+00  0.00000000E+00  0.00000000E+00
  0.00000000E+00  0.00000000E+00  0.00000000E+00
  0.00000000E+00  0.00000000E+00  0.00000000E+00
  0.00000000E+00  0.00000000E+00  0.00000000E+00
  0.00000000E+00  0.00000000E+00  0.00000000E+00
  0.00000000E+00  0.00000000E+00  0.00000000E+00
  0.00000000E+00  0.00000000E+00  0.00000000E+00
  0.00000000E+00  0.00000000E+00  0.00000000E+00
  0.00000000E+00  0.00000000E+00  0.00000000E+00
  0.00000000E+00  0.00000000E+00  0.00000000E+00
  0.00000000E+00  0.00000000E+00  0.00000000E+00
  0.00000000E+00  0.00000000E+00  0.00000000E+00
  0.00000000E+00  0.00000000E+00  0.00000000E+00
  0.00000000E+00  0.00000000E+00  0.00000000E+00
  0.00000000E+00  0.00000000E+00  0.00000000E+00
  0.00000000E+00  0.00000000E+00  0.00000000E+00
  0.00000000E+00  0.00000000E+00  0.00000000E+00
  0.00000000E+00  0.00000000E+00  0.00000000E+00
  0.00000000E+00  0.00000000E+00  0.00000000E+00
  0.00000000E+00  0.00000000E+00  0.00000000E+00
  0.00000000E+00  0.00000000E+00  0.00000000E+00
  0.00000000E+00  0.00000000E+00  0.00000000E+00
  0.00000000E+00  0.00000000E+00  0.00000000E+00
  0.00000000E+00  0.00000000E+00  0.00000000E+00
  0.00000000E+00  0.00000000E+00  0.00000000E+00
  0.00000000E+00  0.00000000E+00  0.00000000E+00
  0.00000000E+00  0.00000000E+00  0.00000000E+00
  0.00000000E+00  0.00000000E+00  0.00000000E+00
  0.00000000E+00  0.00000000E+00  0.00000000E+00
  0.00000000E+00  0.00000000E+00  0.00000000E+00
  0.00000000E+00  0.00000000E+00  0.00000000E+00
  0.00000000E+00  0.00000000E+00  0.00000000E+00
  0.00000000E+00  0.00000000E+00  0.00000000E+00
  0.00000000E+00  0.00000000E+00  0.00000000E+00
  0.00000000E+00  0.00000000E+00  0.00000000E+00
  0.00000000E+00  0.00000000E+00  0.00000000E+00
  0.00000000E+00  0.00000000E+00  0.00000000E+00
  0.00000000E+00  0.00000000E+00  0.00000000E+00
  0.00000000E+00  0.00000000E+00  0.00000000E+00
  0.00000000E+00  0.00000000E+00  0.00000000E+00
  0.00000000E+00  0.00000000E+00  0.00000000E+00
  0.00000000E+00  0.00000000E+00  0.00000000E+00
  0.00000000E+00  0.00000000E+00  0.00000000E+00
  0.00000000E+00  0.00000000E+00  0.00000000E+00
  0.00000000E+00  0.00000000E+00  0.00000000E+00
  0.00000000E+00  0.00000000E+00  0.00000000E+00
  0.00000000E+00  0.00000000E+00  0.00000000E+00
  0.00000000E+00  0.00000000E+00  0.00000000E+00
  0.00000000E+00  0.00000000E+00  0.00000000E+00
  0.00000000E+00  0.00000000E+00  0.00000000E+00
  0.00000000E+00  0.00000000E+00  0.00000000E+00
  0.00000000E+00  0.00000000E+00  0.00000000E+00
  0.00000000E+00  0.00000000E+00  0.00000000E+00
  0.00000000E+00  0.00000000E+00  0.00000000E+00
  0.00000000E+00  0.00000000E+00  0.00000000E+00
  0.00000000E+00  0.00000000E+00  0.00000000E+00
  0.00000000E+00  0.00000000E+00  0.00000000E+00
  0.00000000E+00  0.00000000E+00  0.00000000E+00
  0.00000000E+00  0.00000000E+00  0.00000000E+00
  0.00000000E+00  0.00000000E+00  0.00000000E+00
  0.00000000E+00  0.00000000E+00  0.00000000E+00
  0.00000000E+00  0.00000000E+00  0.00000000E+00
  0.00000000E+00  0.00000000E+00  0.00000000E+00
  0.00000000E+00  0.00000000E+00  0.00000000E+00
  0.00000000E+00  0.00000000E+00  0.00000000E+00
  0.00000000E+00  0.00000000E+00  0.00000000E+00
  0.00000000E+00  0.00000000E+00  0.00000000E+00
  0.00000000E+00  0.00000000E+00  0.00000000E+00
  0.00000000E+00  0.00000000E+00  0.00000000E+00
  0.00000000E+00  0.00000000E+00  0.00000000E+00
  0.00000000E+00  0.00000000E+00  0.00000000E+00
  0.00000000E+00  0.00000000E+00  0.00000000E+00
  0.00000000E+00  0.00000000E+00  0.00000000E+00
  0.00000000E+00  0.00000000E+00  0.00000000E+00
  0.00000000E+00  0.00000000E+00  0.00000000E+00
  0.00000000E+00  0.00000000E+00  0.00000000E+00
  0.00000000E+00  0.00000000E+00  0.00000000E+00
  0.00000000E+00  0.00000000E+00  0.00000000E+00
  0.00000000E+00  0.00000000E+00  0.00000000E+00
  0.00000000E+00  0.00000000E+00  0.00000000E+00
  0.00000000E+00  0.00000000E+00  0.00000000E+00
  0.00000000E+00  0.00000000E+00  0.00000000E+00
  0.00000000E+00  0.00000000E+00  0.00000000E+00
  0.00000000E+00  0.00000000E+00  0.00000000E+00
  0.00000000E+00  0.00000000E+00  0.00000000E+00
  0.00000000E+00  0.00000000E+00  0.00000000E+00
  0.00000000E+00  0.00000000E+00  0.00000000E+00
  0.00000000E+00  0.00000000E+00  0.00000000E+00
  0.00000000E+00  0.00000000E+00  0.00000000E+00
  0.00000000E+00  0.00000000E+00  0.00000000E+00
  0.00000000E+00  0.00000000E+00  0.00000000E+00
  0.00000000E+00  0.00000000E+00  0.00000000E+00
  0.00000000E+00  0.00000000E+00  0.00000000E+00
  0.00000000E+00  0.00000000E+00  0.00000000E+00
  0.00000000E+00  0.00000000E+00  0.00000000E+00
  0.00000000E+00  0.00000000E+00  0.00000000E+00
  0.00000000E+00  0.00000000E+00  0.00000000E+00
  0.00000000E+00  0.00000000E+00  0.00000000E+00
  0.00000000E+00  0.00000000E+00  0.00000000E+00
  0.00000000E+00  0.00000000E+00  0.00000000E+00
  0.00000000E+00  0.00000000E+00  0.00000000E+00
  0.00000000E+00  0.00000000E+00  0.00000000E+00
  0.00000000E+00  0.00000000E+00  0.00000000E+00
  0.00000000E+00  0.00000000E+00  0.00000000E+00
  0.00000000E+00  0.00000000E+00  0.00000000E+00
  0.00000000E+00  0.00000000E+00  0.00000000E+00
  0.00000000E+00  0.00000000E+00  0.00000000E+00
  0.00000000E+00  0.00000000E+00  0.00000000E+00
  0.00000000E+00  0.00000000E+00  0.00000000E+00
  0.00000000E+00  0.00000000E+00  0.00000000E+00
  0.00000000E+00  0.00000000E+00  0.00000000E+00
  0.00000000E+00  0.00000000E+00  0.00000000E+00
  0.00000000E+00  0.00000000E+00  0.00000000E+00
  0.00000000E+00  0.00000000E+00  0.00000000E+00
  0.00000000E+00  0.00000000E+00  0.00000000E+00
  0.00000000E+00  0.00000000E+00  0.00000000E+00
  0.00000000E+00  0.00000000E+00  0.00000000E+00
  0.00000000E+00  0.00000000E+00  0.00000000E+00
  0.00000000E+00  0.00000000E+00  0.00000000E+00
  0.00000000E+00  0.00000000E+00  0.00000000E+00
  0.00000000E+00  0.00000000E+00  0.00000000E+00
  0.00000000E+00  0.00000000E+00  0.00000000E+00
  0.00000000E+00  0.00000000E+00  0.00000000E+00
  0.00000000E+00  0.00000000E+00  0.00000000E+00
  0.00000000E+00  0.00000000E+00  0.00000000E+00
  0.00000000E+00  0.00000000E+00  0.00000000E+00
  0.00000000E+00  0.00000000E+00  0.00000000E+00
  0.00000000E+00  0.00000000E+00  0.00000000E+00
  0.00000000E+00  0.00000000E+00  0.00000000E+00
  0.00000000E+00  0.00000000E+00  0.00000000E+00
  0.00000000E+00  0.00000000E+00  0.00000000E+00
  0.00000000E+00  0.00000000E+00  0.00000000E+00
  0.00000000E+00  0.00000000E+00  0.00000000E+00
  0.00000000E+00  0.00000000E+00  0.00000000E+00
  0.00000000E+00  0.00000000E+00  0.00000000E+00
  0.00000000E+00  0.00000000E+00  0.00000000E+00
  0.00000000E+00  0.00000000E+00  0.00000000E+00
  0.00000000E+00  0.00000000E+00  0.00000000E+00
  0.00000000E+00  0.00000000E+00  0.00000000E+00
  0.00000000E+00  0.00000000E+00  0.00000000E+00
  0.00000000E+00  0.00000000E+00  0.00000000E+00
  0.00000000E+00  0.00000000E+00  0.00000000E+00
  0.00000000E+00  0.00000000E+00  0.00000000E+00
  0.00000000E+00  0.00000000E+00  0.00000000E+00
  0.00000000E+00  0.00000000E+00  0.00000000E+00
  0.00000000E+00  0.00000000E+00  0.00000000E+00
  0.00000000E+00  0.00000000E+00  0.00000000E+00
  0.00000000E+00  0.00000000E+00  0.00000000E+00
  0.00000000E+00  0.00000000E+00  0.00000000E+00
  0.00000000E+00  0.00000000E+00  0.00000000E+00
  0.00000000E+00  0.00000000E+00  0.00000000E+00
  0.00000000E+00  0.00000000E+00  0.00000000E+00
  0.00000000E+00  0.00000000E+00  0.00000000E+00
  0.00000000E+00  0.00000000E+00  0.00000000E+00
  0.00000000E+00  0.00000000E+00  0.00000000E+00
  0.00000000E+00  0.00000000E+00  0.00000000E+00
  0.00000000E+00  0.00000000E+00  0.00000000E+00
  0.00000000E+00  0.00000000E+00  0.00000000E+00
  0.00000000E+00  0.00000000E+00  0.00000000E+00
  0.00000000E+00  0.00000000E+00  0.00000000E+00
  0.00000000E+00  0.00000000E+00  0.00000000E+00
  0.00000000E+00  0.00000000E+00  0.00000000E+00
  0.00000000E+00  0.00000000E+00  0.00000000E+00
  0.00000000E+00  0.00000000E+00  0.00000000E+00
  0.00000000E+00  0.00000000E+00  0.00000000E+00
  0.00000000E+00  0.00000000E+00  0.00000000E+00
  0.00000000E+00  0.00000000E+00  0.00000000E+00
  0.00000000E+00  0.00000000E+00  0.00000000E+00
  0.00000000E+00  0.00000000E+00  0.00000000E+00
  0.00000000E+00  0.00000000E+00  0.00000000E+00
  0.00000000E+00  0.00000000E+00  0.00000000E+00
  0.00000000E+00  0.00000000E+00  0.00000000E+00
  0.00000000E+00  0.00000000E+00  0.00000000E+00
  0.00000000E+00  0.00000000E+00  0.00000000E+00
  0.00000000E+00  0.00000000E+00  0.00000000E+00
  0.00000000E+00  0.00000000E+00  0.00000000E+00
  0.00000000E+00  0.00000000E+00  0.00000000E+00
  0.00000000E+00  0.00000000E+00  0.00000000E+00
  0.00000000E+00  0.00000000E+00  0.00000000E+00
  0.00000000E+00  0.00000000E+00  0.00000000E+00
  0.00000000E+00  0.00000000E+00  0.00000000E+00
  0.00000000E+00  0.00000000E+00  0.00000000E+00
  0.00000000E+00  0.00000000E+00  0.00000000E+00
  0.00000000E+00  0.00000000E+00  0.00000000E+00
  0.00000000E+00  0.00000000E+00  0.00000000E+00
  0.00000000E+00  0.00000000E+00  0.00000000E+00
  0.00000000E+00  0.00000000E+00  0.00000000E+00
  0.00000000E+00  0.00000000E+00  0.00000000E+00
  0.00000000E+00  0.00000000E+00  0.00000000E+00
  0.00000000E+00  0.00000000E+00  0.00000000E+00
  0.00000000E+00  0.00000000E+00  0.00000000E+00
  0.00000000E+00  0.00000000E+00  0.00000000E+00
  0.00000000E+00  0.00000000E+00  0.00000000E+00
  0.00000000E+00  0.00000000E+00  0.00000000E+00
  0.00000000E+00  0.00000000E+00  0.00000000E+00
  0.00000000E+00  0.00000000E+00  0.00000000E+00
  0.00000000E+00  0.00000000E+00  0.00000000E+00
  0.00000000E+00  0.00000000E+00  0.00000000E+00
  0.00000000E+00  0.00000000E+00  0.00000000E+00
  0.00000000E+00  0.00000000E+00  0.00000000E+00
  0.00000000E+00  0.00000000E+00  0.00000000E+00
  0.00000000E+00  0.00000000E+00  0.00000000E+00
  0.00000000E+00  0.00000000E+00  0.00000000E+00
  0.00000000E+00  0.00000000E+00  0.00000000E+00
  0.00000000E+00  0.00000000E+00  0.00000000E+00
  0.00000000E+00  0.00000000E+00  0.00000000E+00
  0.00000000E+00  0.00000000E+00  0.00000000E+00
  0.00000000E+00  0.00000000E+00  0.00000000E+00
  0.00000000E+00  0.00000000E+00  0.00000000E+00
  0.00000000E+00  0.00000000E+00  0.00000000E+00
  0.00000000E+00  0.00000000E+00  0.00000000E+00
  0.00000000E+00  0.00000000E+00  0.00000000E+00
  0.00000000E+00  0.00000000E+00  0.00000000E+00
  0.00000000E+00  0.00000000E+00  0.00000000E+00
  0.00000000E+00  0.00000000E+00  0.00000000E+00
  0.00000000E+00  0.00000000E+00  0.00000000E+00
  0.00000000E+00  0.00000000E+00  0.00000000E+00
  0.00000000E+00  0.00000000E+00  0.00000000E+00
  0.00000000E+00  0.00000000E+00  0.00000000E+00
  0.00000000E+00  0.00000000E+00  0.00000000E+00
  0.00000000E+00  0.00000000E+00  0.00000000E+00
  0.00000000E+00  0.00000000E+00  0.00000000E+00
  0.00000000E+00  0.00000000E+00  0.00000000E+00
  0.00000000E+00  0.00000000E+00  0.00000000E+00
  0.00000000E+00  0.00000000E+00  0.00000000E+00
  0.00000000E+00  0.00000000E+00  0.00000000E+00
  0.00000000E+00  0.00000000E+00  0.00000000E+00
  0.00000000E+00  0.00000000E+00  0.00000000E+00
  0.00000000E+00  0.00000000E+00  0.00000000E+00
  0.00000000E+00  0.00000000E+00  0.00000000E+00
  0.00000000E+00  0.00000000E+00  0.00000000E+00
  0.00000000E+00  0.00000000E+00  0.00000000E+00
  0.00000000E+00  0.00000000E+00  0.00000000E+00
  0.00000000E+00  0.00000000E+00  0.00000000E+00
  0.00000000E+00  0.00000000E+00  0.00000000E+00
  0.00000000E+00  0.00000000E+00  0.00000000E+00
  0.00000000E+00  0.00000000E+00  0.00000000E+00
  0.00000000E+00  0.00000000E+00  0.00000000E+00
  0.00000000E+00  0.00000000E+00  0.00000000E+00
  0.00000000E+00  0.00000000E+00  0.00000000E+00
  0.00000000E+00  0.00000000E+00  0.00000000E+00
  0.00000000E+00  0.00000000E+00  0.00000000E+00