FeMn_288_15                             
    1.000000000000000     
     9.7266779999999997    0.0000000000000000    0.0000000000000000
     0.0000000000000000    8.4235500000000005    0.0000000000000000
     0.0000000000000000    0.0000000000000000   45.0000000000000000
   Fe   Mn
   273    15
Direct
  0.6876982942724998  0.6185039106218851  0.1690405775988528
  0.6875357108273114  0.7860035849638392  0.2577461419820712
  0.8124939868520630  0.3727711861766060  0.5212802293707185
  0.0625960201378612  0.8762191409739197  0.7863422220725665
  0.8126772683107444  0.3687665165677486  0.1690501480209283
  0.5627810801784232  0.3709465944889986  0.4347318808563475
  0.3126468884014098  0.2078839742888328  0.6979868538534550
  0.0626399341151583  0.7061372649885584  0.5650606081586121
  0.0624255198160086  0.3696879254399406  0.3019531542468269
  0.4374389981843861  0.2922356367309862  0.7421247710642430
  0.4373694943255315  0.7924511745040291  0.8732886427650879
  0.0624321906178270  0.7019494312010179  0.2137914201157291
  0.5624456745909031  0.3696204182004431  0.3019778352542845
  0.0626216480827131  0.5355852547978581  0.2578490353371505
  0.6869763020264615  0.1185052062377992  0.1687767673359197
  0.5626657668886923  0.5421194282674572  0.7421353084353925
  0.5624088802999175  0.7065388124777183  0.5650616142502533
  0.1867786037888111  0.2845208876221009  0.1268559536104447
  0.8126330065248344  0.3757280345030264  0.7863150983399099
  0.8124059526429644  0.5419644770699193  0.7422416086534962
  0.8124081096963239  0.5357166352949904  0.2578454316801537
  0.9376160164150733  0.2877727498842068  0.3902705336056912
  0.1876994509078346  0.1259866090027755  0.7862399383507016
  0.5623810957767074  0.5373070171435660  0.3901704444921706
  0.5626826650450205  0.5404272683185062  0.6098473393750281
  0.8125553020660504  0.0376024275749612  0.3902851516181247
  0.9375622492831711  0.6185899254177349  0.1689310584587756
  0.5624161839932192  0.5363268855408619  0.1267724825437979
  0.5626308244703466  0.8738916404908690  0.6535451470361456
  0.8126525047762677  0.8739599618871066  0.6536972522829269
  0.1879920289672798  0.1184906719526409  0.1689465814560525
  0.9371934648675880  0.9535262100980348  0.3463358561210726
  0.0624650342773404  0.7032500430603289  0.3462973091019123
  0.8125998123149607  0.2053752464409057  0.4786578220050827
  0.3125235006300636  0.8679445361681764  0.1690272280775220
  0.1875530451242849  0.9580333809749851  0.6980406131526238
  0.8124037614397535  0.8711535226138706  0.4348454620937351
  0.6874224061039329  0.7877337707928481  0.3901889416486258
  0.3125175459960111  0.5421714005688534  0.7422325252200908
  0.0626717330711024  0.7077224131364892  0.6979334067192471
  0.3125885213604074  0.5360673624661838  0.2579275060004667
  0.9371929068831115  0.9600259513505002  0.8311199556234324
  0.0624164104143338  0.2040221556893587  0.3463338105546320
  0.1872938630903425  0.6184538037163357  0.1689898512818244
  0.0621497508113195  0.3721060811627331  0.5213624606360255
  0.0623125520108035  0.3766845916146738  0.7862500148606438
  0.5624352508640819  0.8697627798862231  0.3019460993641576
  0.9378186410387757  0.4535723289560902  0.3463410329763117
  0.8124236973589961  0.2021228982704459  0.2137922170280108
  0.0624641740525846  0.0406670932985778  0.6097636756022194
  0.1871232563388729  0.4566044180305871  0.5650975404621299
  0.9376788667970046  0.1244032215908579  0.6537911822815904
  0.0628023409648328  0.0432579379985030  0.8734247372029792
  0.0623182087992663  0.5423547167992269  0.7421479858695673
  0.1873955603238546  0.6196454975008056  0.3019063139849826
  0.3124929288167506  0.7051265789871722  0.4786039795897290
  0.9374321084548053  0.6213745799627590  0.4347947962839626
  0.4372228844460253  0.9560483698818131  0.5649700212262848
  0.6874261185533820  0.2872387624827274  0.3902421728507911
  0.9375302289264273  0.6196508797990153  0.3019794037101076
  0.3126049268595696  0.5432297746252548  0.8731597739610141
  0.5629626145803356  0.0421305793372690  0.7421889871761710
  0.4377962377643977  0.7878621106202484  0.3902509028262933
  0.4377727405475677  0.4554545127014483  0.4785950156315757
  0.3124568521575768  0.7016287859586845  0.2137629519078157
  0.5623839416400850  0.2055964726315545  0.4785704613048699
  0.6875313386413440  0.6195389288185672  0.3020409143264000
  0.4375159788309789  0.2903278334123553  0.6096974552630275
  0.4375103288162389  0.9592147114873025  0.8310849657673899
  0.8125892134512717  0.7081392072077922  0.6980798287312413
  0.8125125694829158  0.3739691120754172  0.6536857348392043
  0.9378211182254063  0.2920343857268236  0.8733784291150951
  0.5625272486256592  0.7041833654081043  0.3463585591373376
  0.6879265920883968  0.1214396541913257  0.4349392417142318
  0.9376008845037850  0.6239241805482857  0.6535462592846839
  0.5622356474501532  0.3738594144534538  0.6537165802626436
  0.9376803369458983  0.4519486925586980  0.2137506229271316
  0.6875847609137532  0.2920736266585575  0.7421502157425812
  0.9374857771814002  0.9552809269393521  0.4785056748905512
  0.6880029465658374  0.7901706989706585  0.6097231233395169
  0.4380033531154328  0.2926966416745061  0.8732777984106748
  0.9380652454436689  0.4596192716509448  0.8310748930710457
  0.4374307613467517  0.1262850609322739  0.7863903165045566
  0.5624493910355388  0.2036853554137250  0.3463417363501685
  0.9375281219033273  0.1185710774372456  0.1689995309571017
  0.3126633079349623  0.7058435894101407  0.5650195957920360
  0.5627224506685546  0.0373726312834290  0.3902643871917402
  0.6872898028691093  0.1196280600327452  0.3019721717007375
  0.8124894690455251  0.8695065790925965  0.3019463431824185
  0.1877055020017836  0.4579590782148754  0.6980048634131688
  0.9376856865780153  0.6225124178560602  0.5212269820932703
  0.4372654839603620  0.2875261737098808  0.3901766603471259
  0.5626229780080688  0.7092014680737597  0.8310230353747566
  0.0627079765307464  0.3743474362848446  0.6537150397465971
  0.5627493349849729  0.2098958994213569  0.8312049673436439
  0.6878515816876410  0.4523045794915253  0.2139282340854589
  0.8124720513890428  0.0356380552096872  0.2578596414003355
  0.9373414801152586  0.7916993433611955  0.7420905885928160
  0.6877398552198775  0.4538065322018695  0.3462946357884946
  0.9376371062016494  0.4559728022832575  0.5650842853764343
  0.0623484178292891  0.0421800535739717  0.7420988315457085
  0.6869414483623913  0.2921217102459077  0.8731923048992947
  0.8122632307118117  0.5356724580767533  0.1268402884241213
  0.0624459639965393  0.5398865600187122  0.6097576868612415
  0.5624420476125943  0.7018463988219040  0.2137459295878954
  0.5625194447506572  0.8712775528835487  0.4348002493317955
  0.0625448260098862  0.7096837411890305  0.8311140421972605
  0.3124884199084167  0.8762396390293968  0.7862777484988104
  0.9374992380491779  0.2855833727809629  0.2578945674415359
  0.9375969805542791  0.9578148192501990  0.6980434831697148
  0.5625210112870531  0.2020412876740362  0.2137232087339164
  0.3123405381216290  0.3713204374312811  0.4350462869165300
  0.1873573505849845  0.7858078168759093  0.2577687497445912
  0.8124119768822473  0.2085163247164936  0.6979674511972275
  0.6874219403882431  0.4565775779915670  0.5650724570830874
  0.1876996862223880  0.9602526137559615  0.8311043046749551
  0.3124141040212461  0.2050807107042440  0.4786695581224153
  0.1874857078564371  0.6228371376428065  0.5212414068247370
  0.1877010990215161  0.2877472432168641  0.3902676815655119
  0.0621436248093986  0.5422909793569169  0.8732824201349457
  0.6873585654992670  0.1240659625048104  0.6536714337377316
  0.8122060927862842  0.0350938489046740  0.1267141146815293
  0.4374533831628745  0.4595663381163165  0.8310840135805801
  0.6875510327725809  0.7856512132635776  0.1267189990367185
  0.3122959665530097  0.8726024023341628  0.5212703724550898
  0.3126480903586336  0.2040933611357269  0.3463134766934985
  0.3128682519780718  0.7094666546460919  0.8310304296489931
  0.8126162065865009  0.3696850586205652  0.3019640854353750
  0.4375382993117837  0.6211095254332454  0.4348024396070536
  0.3125500796543748  0.2063308742739018  0.5651540597704994
  0.8125620946612103  0.7051084262419354  0.4785573483121488
  0.5626382638177906  0.3760764848226302  0.7863069124199202
  0.0622659506005477  0.8742327492907033  0.6535153157362662
  0.4370735103136398  0.7852119697079517  0.1267305732239190
  0.3130346945956333  0.3679444061419384  0.1689292928540412
  0.9378919915363291  0.7848257568419794  0.1267879555294786
  0.4374992877877903  0.7862816559657583  0.2577217909957426
  0.0625458328928750  0.5376397405363630  0.3902300429660838
  0.6873525727825700  0.7916065574901127  0.7421666250808172
  0.0623661925685024  0.2022368059513671  0.2138289878517532
  0.4372111822043710  0.4576850883644378  0.6980741199492709
  0.3121057863256387  0.0378930165770819  0.3902372483103063
  0.4373219726772920  0.9579204874823775  0.6979917514364093
  0.6874700044845792  0.6226747277175716  0.5212632167924008
  0.6874357367174381  0.4600362912594237  0.8310796434782323
  0.8125394933467360  0.5372613450248145  0.3902214246958852
  0.3125749124045309  0.5372873517505377  0.3902150166120256
  0.9374828941513264  0.7906133733463996  0.6096124389385643
  0.4375108718483877  0.1197275440035318  0.3020412158545864
  0.9368882820286025  0.7923396226173651  0.8732963892093237
  0.9375120355052421  0.7856064573196224  0.2577906844013489
  0.1875099346696071  0.7878224719445694  0.3901635519739010
  0.9377377261073512  0.4552783349646273  0.4785395748705519
  0.0625944344119535  0.0377006330135785  0.3902039006263086
  0.9377402733541176  0.2922705970264916  0.7421680932082677
  0.8127507923381140  0.8726830467593475  0.5213198643710183
  0.1872185683966193  0.1222211416828908  0.5213971118040464
  0.5627115034495009  0.8725410200842286  0.5212552002911817
  0.5626366357260731  0.2073994698911460  0.6980009098107586
  0.3124233599348826  0.0422072986920569  0.8733465759027835
  0.6876432812942190  0.7927300916184153  0.8733340168318818
  0.4372228435517586  0.4566080972650481  0.5651254752622832
  0.0625167834012324  0.3716184821786692  0.4347726268730162
  0.0621284163733710  0.8724508105439950  0.5212414021903286
  0.1875953139382481  0.2857613686348792  0.2579413679278539
  0.4373567401029060  0.1238238441208809  0.6536576718627922
  0.4380068595010698  0.1224113846368894  0.5212399153904032
  0.0625305031414435  0.0358118571763159  0.2579461381366977
  0.8121614188613726  0.7097700992493180  0.8312152285431271
  0.1872382634830350  0.9558738498783789  0.5650408571194458
  0.6874556837809448  0.9553361416980466  0.4786007882389872
  0.6873504920191900  0.6260584520314003  0.7864429346158577
  0.3126084621635519  0.5359697437108769  0.1267738205984604
  0.9374772935194718  0.2853190020584820  0.1268192264922190
  0.9373010031030323  0.7877125843019359  0.3901827658418930
  0.0625838847704272  0.5353712018784446  0.1268417478382079
  0.4374868252957203  0.2862330674175491  0.2578106997966712
  0.3124018187058925  0.5401857444247545  0.6096934470486398
  0.4378305293691317  0.6256468133261129  0.7862574014922121
  0.6874250175624828  0.1223624353726145  0.5213481928541996
  0.3124425633593341  0.7085083873164069  0.6980482282657540
  0.1871980651671874  0.4536795834872623  0.3463314261991636
  0.8125261628031453  0.7021754775197903  0.2137683335561103
  0.5622626273972894  0.7083307397715199  0.6979922830527950
  0.1870571812212458  0.4589803727800037  0.8311640883758767
  0.5621149833027818  0.2065834386509717  0.5651443280973933
  0.8125431566553712  0.0425167727346659  0.8732877542485779
  0.8124609195707521  0.2040831259661130  0.3463761936726721
  0.4375662129746151  0.9551576195982602  0.4785150557600658
  0.9377925328912697  0.1214891232113967  0.4349317782517291
  0.6873263298961281  0.4552554197952708  0.4785586331876425
  0.4372483779356189  0.4541217589554600  0.3462760838120124
  0.1873453393480808  0.6215180993921140  0.4347058060948765
  0.4375127282332341  0.6197445315517703  0.3020379715170775
  0.1872153727957305  0.2923550324003475  0.7421575908844251
  0.1872050680309050  0.4554700127656026  0.4786939077077274
  0.4372138060127238  0.4520110622645588  0.2137834691675493
  0.6874793732581167  0.1258005133774376  0.7862971524313690
  0.9376300068908643  0.1222676733787398  0.5213405258709978
  0.1868256958486259  0.1215607668385787  0.4347901380668360
  0.1872659098239097  0.6243799513154056  0.6536588552910043
  0.6870758272662614  0.4581818779153315  0.6980016367249264
  0.3123471795475800  0.8740349750347963  0.6536411837609390
  0.5622351244606544  0.8762192069001642  0.7863432239554499
  0.0623090319191287  0.2080253399208588  0.6979812761009174
  0.1873336740127885  0.7850826122903324  0.1267221016727211
  0.6877829562480081  0.6208426545083054  0.4348721812995920
  0.3127491425902385  0.2092264439385877  0.8311814756495768
  0.0625657111324753  0.8683735254905888  0.1690226487020160
  0.1873432127258589  0.7899745334498205  0.6096946430987048
  0.1870965861224430  0.4522648742757428  0.2138877079052961
  0.3124225764106492  0.3698589584159054  0.3019325429657418
  0.3125056024413081  0.3742244294346269  0.6535681174070204
  0.0625169377424199  0.8696388699320999  0.3019753628425669
  0.8127353490764139  0.7060519867854567  0.5650128152718974
  0.6874054657141739  0.2858968359263467  0.2578080976527675
  0.1875518410645615  0.9553244475751491  0.4785383605182978
  0.0627552404198410  0.0350414977039665  0.1268056136324768
  0.8124555712190118  0.3715206650340759  0.4348472274662399
  0.5621631292372354  0.0428934835375802  0.8732761300690389
  0.8124282138655459  0.5399901457557623  0.6096685022857753
  0.3124550642888039  0.0360256661014807  0.2578780192274797
  0.4371560013773627  0.9512149091397947  0.2138768017089721
  0.1875249027720034  0.9520836258668715  0.2137822224150140
  0.5625622410231544  0.7051621324518804  0.4785273275898060
  0.5626009108105904  0.8682576127272912  0.1689317133182078
  0.8124547583931155  0.0405348083650651  0.6096927189336083
  0.0630766758937575  0.2064353981588186  0.5651226392633110
  0.6875822395192920  0.9591973805962698  0.8310919610864688
  0.4376204098964105  0.7923353967821308  0.7421127369008599
  0.8125366152083872  0.0419514785697349  0.7421602683473058
  0.9374341413524896  0.6260613640349728  0.7863621796373987
  0.5635046479023867  0.0354347081063551  0.1267246179478840
  0.6881218514320638  0.2854541462234116  0.1267687721981316
  0.9375771130014271  0.1257168100933719  0.7863755293069946
  0.3125277064393935  0.0398485226396220  0.6097360299369580
  0.4374367554585856  0.6180637242030200  0.1687964118755916
  0.1874951651668659  0.1241404226336972  0.6536289386440842
  0.9377746204309176  0.9521431278818573  0.2137336219907029
  0.8125516532565287  0.2093174734096478  0.8310533305413590
  0.3123958331645144  0.7034459883421771  0.3462980422044477
  0.1872550826576279  0.2924054989438664  0.8735055198213142
  0.6877082084011832  0.2903383185625965  0.6096069627009397
  0.0625227614589947  0.7053143419572518  0.4785324141287220
  0.3125355226716300  0.2021798548602585  0.2137686566316198
  0.1876638341441839  0.9533921513946310  0.3462530230872921
  0.9376088656361450  0.1197267249599218  0.3020595826661917
  0.6873010989984965  0.6235333250558410  0.6536787255511707
  0.9379900224245203  0.9561772163701214  0.5651354032940493
  0.8122108907198711  0.8687226207138592  0.1689580711106203
  0.4375084665429258  0.6241412029982019  0.6536957389538812
  0.1882001193161367  0.7921765116406845  0.8731676380029658
  0.8124915625393038  0.5427587494642014  0.8732728616536167
  0.5628515840444636  0.5427922646480268  0.8732860294356845
  0.1875713423304249  0.1196788323603638  0.3019840977027063
  0.0626763774441109  0.8713091792510543  0.4347477707020598
  0.1874651357792594  0.6258485592445124  0.7863658052297633
  0.4375527596508270  0.6227989879496112  0.5212821086885796
  0.8126751472110126  0.7032286303182664  0.3463166028078344
  0.0623073040753169  0.3686267838464640  0.1690913899175956
  0.5619709125846879  0.3680907985844401  0.1688934129447340
  0.3113855429237598  0.0353396798065640  0.1268183470773318
  0.3124417904724638  0.8713759984878152  0.4348411801789627
  0.5626083130684569  0.0401811309924694  0.6096707696705174
  0.0627660546481487  0.2055240711182393  0.4785644672793136
  0.4375429760514247  0.1192064524089069  0.1688115284193322
  0.1874140731351996  0.2904179482766000  0.6096747220562931
  0.5628417222706158  0.3723675479717937  0.5213993863058562
  0.5624324762458186  0.5360200363732267  0.2579204041495382
  0.5625623396672422  0.0358862711231706  0.2578417932372082
  0.9376949303954332  0.2902169548719100  0.6097748040164047
  0.3124348652743890  0.8694923576613923  0.3018939902920374
  0.1875882859809231  0.7921936653325948  0.7421645010224857
  0.6887439468251796  0.9535200613298459  0.3463428764523476
  0.4374056352183230  0.2855265370661196  0.1270044406336218
  0.4376399469381873  0.1210193152614225  0.4347845792416906
  0.9376765816155276  0.4583295273549933  0.6980367841092775
  0.3125103514715286  0.3726372109135133  0.5212874353402622
  0.6874625726551973  0.9519723674133205  0.2139562762522426
  0.6866709627441582  0.9556149820264763  0.5651678156178179
  0.8129463650924916  0.2070367194465589  0.5650976823926412
  0.3123609139174262  0.0429975783705029  0.7423310841684365
  0.6874977638718798  0.9579352690144147  0.6981291098055666
  0.0624752893710288  0.2098553345488804  0.8317636002686575
  0.3122379074157539  0.3756436154086356  0.7860590398215282
  0.4376009372828398  0.7902224343242357  0.6097802432359547
  0.4363773828999836  0.9536657188548060  0.3463961552767896
  0.8125475075468700  0.8763183060902494  0.7861006903904817
 
  0.00000000E+00  0.00000000E+00  0.00000000E+00
  0.00000000E+00  0.00000000E+00  0.00000000E+00
  0.00000000E+00  0.00000000E+00  0.00000000E+00
  0.00000000E+00  0.00000000E+00  0.00000000E+00
  0.00000000E+00  0.00000000E+00  0.00000000E+00
  0.00000000E+00  0.00000000E+00  0.00000000E+00
  0.00000000E+00  0.00000000E+00  0.00000000E+00
  0.00000000E+00  0.00000000E+00  0.00000000E+00
  0.00000000E+00  0.00000000E+00  0.00000000E+00
  0.00000000E+00  0.00000000E+00  0.00000000E+00
  0.00000000E+00  0.00000000E+00  0.00000000E+00
  0.00000000E+00  0.00000000E+00  0.00000000E+00
  0.00000000E+00  0.00000000E+00  0.00000000E+00
  0.00000000E+00  0.00000000E+00  0.00000000E+00
  0.00000000E+00  0.00000000E+00  0.00000000E+00
  0.00000000E+00  0.00000000E+00  0.00000000E+00
  0.00000000E+00  0.00000000E+00  0.00000000E+00
  0.00000000E+00  0.00000000E+00  0.00000000E+00
  0.00000000E+00  0.00000000E+00  0.00000000E+00
  0.00000000E+00  0.00000000E+00  0.00000000E+00
  0.00000000E+00  0.00000000E+00  0.00000000E+00
  0.00000000E+00  0.00000000E+00  0.00000000E+00
  0.00000000E+00  0.00000000E+00  0.00000000E+00
  0.00000000E+00  0.00000000E+00  0.00000000E+00
  0.00000000E+00  0.00000000E+00  0.00000000E+00
  0.00000000E+00  0.00000000E+00  0.00000000E+00
  0.00000000E+00  0.00000000E+00  0.00000000E+00
  0.00000000E+00  0.00000000E+00  0.00000000E+00
  0.00000000E+00  0.00000000E+00  0.00000000E+00
  0.00000000E+00  0.00000000E+00  0.00000000E+00
  0.00000000E+00  0.00000000E+00  0.00000000E+00
  0.00000000E+00  0.00000000E+00  0.00000000E+00
  0.00000000E+00  0.00000000E+00  0.00000000E+00
  0.00000000E+00  0.00000000E+00  0.00000000E+00
  0.00000000E+00  0.00000000E+00  0.00000000E+00
  0.00000000E+00  0.00000000E+00  0.00000000E+00
  0.00000000E+00  0.00000000E+00  0.00000000E+00
  0.00000000E+00  0.00000000E+00  0.00000000E+00
  0.00000000E+00  0.00000000E+00  0.00000000E+00
  0.00000000E+00  0.00000000E+00  0.00000000E+00
  0.00000000E+00  0.00000000E+00  0.00000000E+00
  0.00000000E+00  0.00000000E+00  0.00000000E+00
  0.00000000E+00  0.00000000E+00  0.00000000E+00
  0.00000000E+00  0.00000000E+00  0.00000000E+00
  0.00000000E+00  0.00000000E+00  0.00000000E+00
  0.00000000E+00  0.00000000E+00  0.00000000E+00
  0.00000000E+00  0.00000000E+00  0.00000000E+00
  0.00000000E+00  0.00000000E+00  0.00000000E+00
  0.00000000E+00  0.00000000E+00  0.00000000E+00
  0.00000000E+00  0.00000000E+00  0.00000000E+00
  0.00000000E+00  0.00000000E+00  0.00000000E+00
  0.00000000E+00  0.00000000E+00  0.00000000E+00
  0.00000000E+00  0.00000000E+00  0.00000000E+00
  0.00000000E+00  0.00000000E+00  0.00000000E+00
  0.00000000E+00  0.00000000E+00  0.00000000E+00
  0.00000000E+00  0.00000000E+00  0.00000000E+00
  0.00000000E+00  0.00000000E+00  0.00000000E+00
  0.00000000E+00  0.00000000E+00  0.00000000E+00
  0.00000000E+00  0.00000000E+00  0.00000000E+00
  0.00000000E+00  0.00000000E+00  0.00000000E+00
  0.00000000E+00  0.00000000E+00  0.00000000E+00
  0.00000000E+00  0.00000000E+00  0.00000000E+00
  0.00000000E+00  0.00000000E+00  0.00000000E+00
  0.00000000E+00  0.00000000E+00  0.00000000E+00
  0.00000000E+00  0.00000000E+00  0.00000000E+00
  0.00000000E+00  0.00000000E+00  0.00000000E+00
  0.00000000E+00  0.00000000E+00  0.00000000E+00
  0.00000000E+00  0.00000000E+00  0.00000000E+00
  0.00000000E+00  0.00000000E+00  0.00000000E+00
  0.00000000E+00  0.00000000E+00  0.00000000E+00
  0.00000000E+00  0.00000000E+00  0.00000000E+00
  0.00000000E+00  0.00000000E+00  0.00000000E+00
  0.00000000E+00  0.00000000E+00  0.00000000E+00
  0.00000000E+00  0.00000000E+00  0.00000000E+00
  0.00000000E+00  0.00000000E+00  0.00000000E+00
  0.00000000E+00  0.00000000E+00  0.00000000E+00
  0.00000000E+00  0.00000000E+00  0.00000000E+00
  0.00000000E+00  0.00000000E+00  0.00000000E+00
  0.00000000E+00  0.00000000E+00  0.00000000E+00
  0.00000000E+00  0.00000000E+00  0.00000000E+00
  0.00000000E+00  0.00000000E+00  0.00000000E+00
  0.00000000E+00  0.00000000E+00  0.00000000E+00
  0.00000000E+00  0.00000000E+00  0.00000000E+00
  0.00000000E+00  0.00000000E+00  0.00000000E+00
  0.00000000E+00  0.00000000E+00  0.00000000E+00
  0.00000000E+00  0.00000000E+00  0.00000000E+00
  0.00000000E+00  0.00000000E+00  0.00000000E+00
  0.00000000E+00  0.00000000E+00  0.00000000E+00
  0.00000000E+00  0.00000000E+00  0.00000000E+00
  0.00000000E+00  0.00000000E+00  0.00000000E+00
  0.00000000E+00  0.00000000E+00  0.00000000E+00
  0.00000000E+00  0.00000000E+00  0.00000000E+00
  0.00000000E+00  0.00000000E+00  0.00000000E+00
  0.00000000E+00  0.00000000E+00  0.00000000E+00
  0.00000000E+00  0.00000000E+00  0.00000000E+00
  0.00000000E+00  0.00000000E+00  0.00000000E+00
  0.00000000E+00  0.00000000E+00  0.00000000E+00
  0.00000000E+00  0.00000000E+00  0.00000000E+00
  0.00000000E+00  0.00000000E+00  0.00000000E+00
  0.00000000E+00  0.00000000E+00  0.00000000E+00
  0.00000000E+00  0.00000000E+00  0.00000000E+00
  0.00000000E+00  0.00000000E+00  0.00000000E+00
  0.00000000E+00  0.00000000E+00  0.00000000E+00
  0.00000000E+00  0.00000000E+00  0.00000000E+00
  0.00000000E+00  0.00000000E+00  0.00000000E+00
  0.00000000E+00  0.00000000E+00  0.00000000E+00
  0.00000000E+00  0.00000000E+00  0.00000000E+00
  0.00000000E+00  0.00000000E+00  0.00000000E+00
  0.00000000E+00  0.00000000E+00  0.00000000E+00
  0.00000000E+00  0.00000000E+00  0.00000000E+00
  0.00000000E+00  0.00000000E+00  0.00000000E+00
  0.00000000E+00  0.00000000E+00  0.00000000E+00
  0.00000000E+00  0.00000000E+00  0.00000000E+00
  0.00000000E+00  0.00000000E+00  0.00000000E+00
  0.00000000E+00  0.00000000E+00  0.00000000E+00
  0.00000000E+00  0.00000000E+00  0.00000000E+00
  0.00000000E+00  0.00000000E+00  0.00000000E+00
  0.00000000E+00  0.00000000E+00  0.00000000E+00
  0.00000000E+00  0.00000000E+00  0.00000000E+00
  0.00000000E+00  0.00000000E+00  0.00000000E+00
  0.00000000E+00  0.00000000E+00  0.00000000E+00
  0.00000000E+00  0.00000000E+00  0.00000000E+00
  0.00000000E+00  0.00000000E+00  0.00000000E+00
  0.00000000E+00  0.00000000E+00  0.00000000E+00
  0.00000000E+00  0.00000000E+00  0.00000000E+00
  0.00000000E+00  0.00000000E+00  0.00000000E+00
  0.00000000E+00  0.00000000E+00  0.00000000E+00
  0.00000000E+00  0.00000000E+00  0.00000000E+00
  0.00000000E+00  0.00000000E+00  0.00000000E+00
  0.00000000E+00  0.00000000E+00  0.00000000E+00
  0.00000000E+00  0.00000000E+00  0.00000000E+00
  0.00000000E+00  0.00000000E+00  0.00000000E+00
  0.00000000E+00  0.00000000E+00  0.00000000E+00
  0.00000000E+00  0.00000000E+00  0.00000000E+00
  0.00000000E+00  0.00000000E+00  0.00000000E+00
  0.00000000E+00  0.00000000E+00  0.00000000E+00
  0.00000000E+00  0.00000000E+00  0.00000000E+00
  0.00000000E+00  0.00000000E+00  0.00000000E+00
  0.00000000E+00  0.00000000E+00  0.00000000E+00
  0.00000000E+00  0.00000000E+00  0.00000000E+00
  0.00000000E+00  0.00000000E+00  0.00000000E+00
  0.00000000E+00  0.00000000E+00  0.00000000E+00
  0.00000000E+00  0.00000000E+00  0.00000000E+00
  0.00000000E+00  0.00000000E+00  0.00000000E+00
  0.00000000E+00  0.00000000E+00  0.00000000E+00
  0.00000000E+00  0.00000000E+00  0.00000000E+00
  0.00000000E+00  0.00000000E+00  0.00000000E+00
  0.00000000E+00  0.00000000E+00  0.00000000E+00
  0.00000000E+00  0.00000000E+00  0.00000000E+00
  0.00000000E+00  0.00000000E+00  0.00000000E+00
  0.00000000E+00  0.00000000E+00  0.00000000E+00
  0.00000000E+00  0.00000000E+00  0.00000000E+00
  0.00000000E+00  0.00000000E+00  0.00000000E+00
  0.00000000E+00  0.00000000E+00  0.00000000E+00
  0.00000000E+00  0.00000000E+00  0.00000000E+00
  0.00000000E+00  0.00000000E+00  0.00000000E+00
  0.00000000E+00  0.00000000E+00  0.00000000E+00
  0.00000000E+00  0.00000000E+00  0.00000000E+00
  0.00000000E+00  0.00000000E+00  0.00000000E+00
  0.00000000E+00  0.00000000E+00  0.00000000E+00
  0.00000000E+00  0.00000000E+00  0.00000000E+00
  0.00000000E+00  0.00000000E+00  0.00000000E+00
  0.00000000E+00  0.00000000E+00  0.00000000E+00
  0.00000000E+00  0.00000000E+00  0.00000000E+00
  0.00000000E+00  0.00000000E+00  0.00000000E+00
  0.00000000E+00  0.00000000E+00  0.00000000E+00
  0.00000000E+00  0.00000000E+00  0.00000000E+00
  0.00000000E+00  0.00000000E+00  0.00000000E+00
  0.00000000E+00  0.00000000E+00  0.00000000E+00
  0.00000000E+00  0.00000000E+00  0.00000000E+00
  0.00000000E+00  0.00000000E+00  0.00000000E+00
  0.00000000E+00  0.00000000E+00  0.00000000E+00
  0.00000000E+00  0.00000000E+00  0.00000000E+00
  0.00000000E+00  0.00000000E+00  0.00000000E+00
  0.00000000E+00  0.00000000E+00  0.00000000E+00
  0.00000000E+00  0.00000000E+00  0.00000000E+00
  0.00000000E+00  0.00000000E+00  0.00000000E+00
  0.00000000E+00  0.00000000E+00  0.00000000E+00
  0.00000000E+00  0.00000000E+00  0.00000000E+00
  0.00000000E+00  0.00000000E+00  0.00000000E+00
  0.00000000E+00  0.00000000E+00  0.00000000E+00
  0.00000000E+00  0.00000000E+00  0.00000000E+00
  0.00000000E+00  0.00000000E+00  0.00000000E+00
  0.00000000E+00  0.00000000E+00  0.00000000E+00
  0.00000000E+00  0.00000000E+00  0.00000000E+00
  0.00000000E+00  0.00000000E+00  0.00000000E+00
  0.00000000E+00  0.00000000E+00  0.00000000E+00
  0.00000000E+00  0.00000000E+00  0.00000000E+00
  0.00000000E+00  0.00000000E+00  0.00000000E+00
  0.00000000E+00  0.00000000E+00  0.00000000E+00
  0.00000000E+00  0.00000000E+00  0.00000000E+00
  0.00000000E+00  0.00000000E+00  0.00000000E+00
  0.00000000E+00  0.00000000E+00  0.00000000E+00
  0.00000000E+00  0.00000000E+00  0.00000000E+00
  0.00000000E+00  0.00000000E+00  0.00000000E+00
  0.00000000E+00  0.00000000E+00  0.00000000E+00
  0.00000000E+00  0.00000000E+00  0.00000000E+00
  0.00000000E+00  0.00000000E+00  0.00000000E+00
  0.00000000E+00  0.00000000E+00  0.00000000E+00
  0.00000000E+00  0.00000000E+00  0.00000000E+00
  0.00000000E+00  0.00000000E+00  0.00000000E+00
  0.00000000E+00  0.00000000E+00  0.00000000E+00
  0.00000000E+00  0.00000000E+00  0.00000000E+00
  0.00000000E+00  0.00000000E+00  0.00000000E+00
  0.00000000E+00  0.00000000E+00  0.00000000E+00
  0.00000000E+00  0.00000000E+00  0.00000000E+00
  0.00000000E+00  0.00000000E+00  0.00000000E+00
  0.00000000E+00  0.00000000E+00  0.00000000E+00
  0.00000000E+00  0.00000000E+00  0.00000000E+00
  0.00000000E+00  0.00000000E+00  0.00000000E+00
  0.00000000E+00  0.00000000E+00  0.00000000E+00
  0.00000000E+00  0.00000000E+00  0.00000000E+00
  0.00000000E+00  0.00000000E+00  0.00000000E+00
  0.00000000E+00  0.00000000E+00  0.00000000E+00
  0.00000000E+00  0.00000000E+00  0.00000000E+00
  0.00000000E+00  0.00000000E+00  0.00000000E+00
  0.00000000E+00  0.00000000E+00  0.00000000E+00
  0.00000000E+00  0.00000000E+00  0.00000000E+00
  0.00000000E+00  0.00000000E+00  0.00000000E+00
  0.00000000E+00  0.00000000E+00  0.00000000E+00
  0.00000000E+00  0.00000000E+00  0.00000000E+00
  0.00000000E+00  0.00000000E+00  0.00000000E+00
  0.00000000E+00  0.00000000E+00  0.00000000E+00
  0.00000000E+00  0.00000000E+00  0.00000000E+00
  0.00000000E+00  0.00000000E+00  0.00000000E+00
  0.00000000E+00  0.00000000E+00  0.00000000E+00
  0.00000000E+00  0.00000000E+00  0.00000000E+00
  0.00000000E+00  0.00000000E+00  0.00000000E+00
  0.00000000E+00  0.00000000E+00  0.00000000E+00
  0.00000000E+00  0.00000000E+00  0.00000000E+00
  0.00000000E+00  0.00000000E+00  0.00000000E+00
  0.00000000E+00  0.00000000E+00  0.00000000E+00
  0.00000000E+00  0.00000000E+00  0.00000000E+00
  0.00000000E+00  0.00000000E+00  0.00000000E+00
  0.00000000E+00  0.00000000E+00  0.00000000E+00
  0.00000000E+00  0.00000000E+00  0.00000000E+00
  0.00000000E+00  0.00000000E+00  0.00000000E+00
  0.00000000E+00  0.00000000E+00  0.00000000E+00
  0.00000000E+00  0.00000000E+00  0.00000000E+00
  0.00000000E+00  0.00000000E+00  0.00000000E+00
  0.00000000E+00  0.00000000E+00  0.00000000E+00
  0.00000000E+00  0.00000000E+00  0.00000000E+00
  0.00000000E+00  0.00000000E+00  0.00000000E+00
  0.00000000E+00  0.00000000E+00  0.00000000E+00
  0.00000000E+00  0.00000000E+00  0.00000000E+00
  0.00000000E+00  0.00000000E+00  0.00000000E+00
  0.00000000E+00  0.00000000E+00  0.00000000E+00