CuInSe2gb                               
   1.00000000000000     
     9.7266780392896699    0.0000000000000000    0.0000000000000000
     0.0000000000000000    8.4235502764570693    0.0000000000000000
     0.0000000000000000    0.0000000000000000   45.0000000000000000
   Fe   Mn
   274    14
Direct
  0.0611811328014414  0.0330607730031537  0.1243660555346337
  0.3138496760991265  0.8741630582813733  0.6550539600730851
  0.1865861221806709  0.1252800743594091  0.7882030869735777
  0.4400436922887173  0.2877908150111266  0.3893994278047856
  0.3144449816306763  0.7119399345258086  0.8335320105905353
  0.8160117083936436  0.2124221991786321  0.8336109886361945
  0.1894506027007557  0.9617332865528123  0.8338237678111466
  0.5618666922958699  0.2063697530497925  0.5657821776992001
  0.0635262086023695  0.0412600658748562  0.7441008281772908
  0.8113839693932959  0.8722800670709454  0.5217392015930858
  0.1884649130540466  0.2909960212612108  0.7441781680865315
  0.9371121187618692  0.4537945243731000  0.3449923518675580
  0.9392450475857648  0.2871769428525297  0.3893433586784977
  0.8126689340436475  0.0450923442261740  0.8756479744543525
  0.1860363829379058  0.7894381671313447  0.6106090933387412
  0.5642508368355010  0.0378736068599498  0.3893812562182358
  0.9411959251954626  0.9620478708483087  0.8338929066127676
  0.3137673111743595  0.5437454183568801  0.8756528325825432
  0.6885364426923721  0.2914766523992181  0.7441612118853032
  0.1846824603418779  0.6164266478826845  0.1663408781959246
  0.8118844510565688  0.2047230568974982  0.4784580499516853
  0.8109915953834949  0.5393818953890014  0.6106673958294623
  0.3124748252525080  0.8705320513317457  0.4343422720600640
  0.8118487930895597  0.0375107955132188  0.2558756243880720
  0.6870851925414223  0.9539123121835105  0.3449959698113190
  0.9335936685190314  0.1162095108138865  0.1665903473793318
  0.0623650676257366  0.8722487811436187  0.5217112073603445
  0.5614043702887704  0.5378613795519989  0.2557582954515212
  0.6875868948933315  0.7942081030029745  0.8756338467051279
  0.5588030575417201  0.3668052953629089  0.1661027711448744
  0.4384195931387730  0.7918380623257942  0.7441825839963612
  0.8119574283592427  0.7062666645091155  0.5657493988892081
  0.5614500564807124  0.8742197017422730  0.7883034183865869
  0.6865109765833042  0.1220509781703377  0.5216856673995597
  0.8138227532570426  0.3742706550519482  0.6550286567318183
  0.9400869838757810  0.4620679744939420  0.8336337732849330
  0.0618552891453546  0.2077626663030974  0.6997642033548521
  0.4369441123154933  0.9573570380217334  0.6996755385700997
  0.3142527706754096  0.2118008100521820  0.8337262998849496
  0.4387752295330330  0.6243099541389789  0.6550186796654838
  0.3110458711524246  0.5395658881395423  0.6106198173230363
  0.9369090854597860  0.4559799821177409  0.5657899790089066
  0.6886349533326453  0.7915471528132306  0.7442205070610750
  0.9342122783613388  0.7837281415052211  0.1246214885094117
  0.6896521118630928  0.7875193613064734  0.3893456012842665
  0.9386873195237398  0.7911832813696713  0.7441400376139750
  0.0623859096297157  0.2039476342937911  0.3450293458421408
  0.6875048151741655  0.4537938178554759  0.3449337646622019
  0.4363399828658073  0.1246141223531350  0.7884294713628667
  0.0629532881318031  0.2030867222112746  0.2115013505845182
  0.0577480011277246  0.3665578143604498  0.1661746398547536
  0.9363017478907080  0.7878355646220994  0.2557496923910073
  0.5616982496151514  0.2075482980107915  0.6997613121379980
  0.6867799045720556  0.9575154226273686  0.6997803451881028
  0.8111807278069588  0.8745981183604571  0.7882391962036452
  0.4369347500698205  0.9563395385743462  0.5657622527590768
  0.8114736618552825  0.3744527925766279  0.7883292084607771
  0.6865790275794744  0.2873670151749244  0.2559053128217517
  0.1868345638711980  0.4562128165156924  0.5657478334487919
  0.0589130110672746  0.8668083076562756  0.1663512198335677
  0.1861619126210264  0.2894709531624674  0.6107170038670313
  0.0619921742803068  0.2063760594045248  0.5657721084158446
  0.3119739630787581  0.2076134607110044  0.6997542480001638
  0.5639858720395384  0.5450097842868080  0.8755593714839220
  0.0617451855572527  0.7060913077364247  0.5657547561124237
  0.6860312841897773  0.6246270016233267  0.7882969296697878
  0.3144888236485974  0.5374440472836631  0.3893937851680455
  0.1870860933637201  0.6222361254596934  0.5217185417709701
  0.5626597299200319  0.8707006855440307  0.4342888762032224
  0.4368061866547782  0.4563210151943496  0.5658044802541266
  0.4384662101289993  0.2916415695359729  0.7442041202952757
  0.8156384029441538  0.8726986677937097  0.3002648131454291
  0.8121097529105157  0.7034549047064018  0.3450719037506233
  0.4402324114241508  0.4611792588195092  0.8335968290160162
  0.6873205460758792  0.9544630660288819  0.4784277407501332
  0.6869443278041808  0.4575911563481022  0.6997063182919605
  0.5617768824169264  0.8723609794657741  0.5216653608202908
  0.5638880914507756  0.3741887513945209  0.6549828355026608
  0.8137863625322270  0.8742794037905911  0.6550171164670783
  0.8124294169349459  0.3701530651422744  0.4341627797792799
  0.8114973472516642  0.5372599385635825  0.2559148582697102
  0.6902754510780070  0.4611549440122604  0.8336269232108681
  0.1855140467907085  0.7837102659098020  0.1241440374664315
  0.6893782156053438  0.2874670037469652  0.3893156232320654
  0.3136171266140999  0.3741544717183253  0.6549710731731500
  0.3122631865643900  0.2038265290912483  0.3450373688063710
  0.8135704369886944  0.5413895644882792  0.7440739127893417
  0.6903627982416960  0.9611035597775485  0.8336858853469075
  0.5638055690847426  0.8742152053239202  0.6550323555602088
  0.3119178707964993  0.7063410430091155  0.5657682201027849
  0.3099520690236542  0.5336719801475408  0.1241106476299108
  0.6882218048102814  0.9539462056229103  0.2116240907642172
  0.3118208758999452  0.2064932980876653  0.5657595328387276
  0.1870416649552048  0.9545670761464132  0.4784230816567625
  0.6871151698204657  0.9563775413662505  0.5658317520836330
  0.4359735938567513  0.7895144630260457  0.6105851231611048
  0.6829599889591047  0.6148124931883230  0.1662518372033991
  0.3153465707202358  0.8723357203210980  0.3002650440059010
  0.3121511239423088  0.7045270710411408  0.4784263308285281
  0.9359544460787392  0.2892880290992134  0.6106013172069957
  0.4406547761302222  0.6221623536924882  0.3002734147826393
  0.8088568545649839  0.8656306253620992  0.1664916821589427
  0.5638809209030432  0.2028364546523210  0.2117277277424313
  0.9343079165410412  0.6149507384548739  0.1664983127293645
  0.4373446471990614  0.9543470134401709  0.4783918961778769
  0.5613945292170586  0.3736857910336471  0.7883725612842224
  0.0618120430439188  0.3726458873804916  0.5216584232762179
  0.3086975178293757  0.3660020830160766  0.1661075533914604
  0.6908693688164790  0.1221608650627534  0.3003453901624176
  0.4399736481029667  0.9607629021575661  0.8338212505123354
  0.1849285914537382  0.2830984457818878  0.1244590568892753
  0.1866209923046660  0.2868858488204652  0.2558572989044707
  0.3124649619327743  0.3702709632454932  0.4342799671127018
  0.5607052335083079  0.0336612901828444  0.1243289036868602
  0.4359791058841627  0.2895191494785641  0.6106163796536891
  0.1869943753580455  0.4538195351984864  0.3449639402040048
  0.4338006323531206  0.2830838865845661  0.1244540159015560
  0.6865803062379435  0.7878843114981742  0.2559228202834229
  0.4368192827324320  0.1226222394700829  0.5216338566895575
  0.1895751150688091  0.2940251136640107  0.8758964542654808
  0.1887852798680688  0.1243083824951701  0.6550566766002568
  0.9388436396559421  0.1242613707209227  0.6550139004254552
  0.8144058617226553  0.5371415276933000  0.3893547544166062
  0.0643987839747615  0.0377586167626408  0.3894076381776554
  0.1838616829335616  0.1151089715782901  0.1665106574827288
  0.0609513691400105  0.5394016807063725  0.6106627450384660
  0.9365639297590979  0.2872428767662654  0.2558217637151106
  0.5609495708568009  0.5396169938818181  0.6106041595114057
  0.9369670696865928  0.9559068665834003  0.5657701259049813
  0.6905595704881395  0.6225449443102944  0.3003378632777481
  0.9376336860664782  0.6203838629260031  0.4342573365999192
  0.9360112088078475  0.6256165606137916  0.7881883126801416
  0.5618178268843307  0.7073512027784464  0.6997091260747424
  0.0649273720299314  0.7131859188537770  0.8336531701266958
  0.9407546672460484  0.1227859707079215  0.3002719505377963
  0.9359999336106266  0.7891947403257161  0.6106670501543274
  0.4367327342337804  0.7877880295719676  0.2559854723436258
  0.3115602266197134  0.3744000937229070  0.7883351876284973
  0.4383175536882480  0.4538372815972272  0.2115496047988864
  0.1872738790196949  0.1220359124193968  0.5216818110511267
  0.8118957025680769  0.7076819548387624  0.6997865858998610
  0.0608978861510050  0.0396156411087860  0.6106011964310941
  0.5645825010962072  0.2110636024810123  0.8334506236704738
  0.3117416071078955  0.8724437550758125  0.5217154182515257
  0.6857269081469191  0.2830516509912019  0.1241680099885797
  0.1882190694688622  0.9546926170375946  0.2116637991618088
  0.6859024222014509  0.2895213962469148  0.6107039328283370
  0.3110020275760266  0.0395435151794843  0.6106420178740869
  0.9363339461521861  0.1255519537264761  0.7883587349115759
  0.4385810590782037  0.7939631389426531  0.8756997108534531
  0.8136376909081070  0.0415807116547029  0.7440916674119472
  0.9369610325168412  0.4576447038973703  0.6997676188411192
  0.1887521536365214  0.6241882679640477  0.6550506416008665
  0.3119279588474362  0.7075298736012495  0.6997667308686313
  0.9342565841352628  0.2830243422921357  0.1242391584795977
  0.4372125320295733  0.4542134430081535  0.4783760216240263
  0.0622703377173865  0.7042566477238823  0.4784264739004572
  0.9375485142729572  0.1200967803501164  0.4345707287811219
  0.4409065053390017  0.1219228592942639  0.3002624497833550
  0.1872291199207887  0.1203008843545496  0.4341654200219456
  0.5641943919684291  0.0448639959469129  0.8757373185812575
  0.1865894092409496  0.9564588099193786  0.5658325551105696
  0.6850618172121731  0.7844605672234837  0.1244975744065294
  0.5623544063003910  0.7037924325896523  0.3450333355645253
  0.3147281398939358  0.0375098416983808  0.3893317424251178
  0.6847337253738629  0.1160320897577489  0.1666142987474545
  0.8137333498466977  0.2029556213290267  0.2115844644727818
  0.0613460807288736  0.5375403433255065  0.2556958366313766
  0.5623679978750329  0.7046021243885084  0.4783979260522094
  0.4346756957785177  0.7840015791384402  0.1240315855381568
  0.5654326572263346  0.3720313508374551  0.3003449053088415
  0.4369385397009702  0.9539734558968153  0.3449768916834495
  0.1868899448971851  0.9576109468282135  0.6997534781044447
  0.4338221535622852  0.6157344757475145  0.1661694634166464
  0.9383307959893626  0.4532751110283419  0.2117226886408775
  0.0604129693738963  0.5324935629637064  0.1242373424585184
  0.8118186501275167  0.3726607700786974  0.5216513336069851
  0.9406719367088874  0.6229442270696487  0.3001620976676490
  0.3116831710214111  0.0373401196788758  0.2558220042027772
  0.6860548446074379  0.7893693308759742  0.6106113366299288
  0.1897675569015972  0.4624685956091113  0.8337920856052554
  0.4344674784183590  0.1147180710466351  0.1665523991794928
  0.3115474708597437  0.3724501917098810  0.5216770153706137
  0.4367320434166145  0.6241802535900877  0.7883383616259567
  0.0614027994101949  0.0375474411040976  0.2558147526314634
  0.5618337723523057  0.7063306926422721  0.5657739489093703
  0.9384692120554338  0.2909184801189781  0.7441996799889277
  0.6860453885784964  0.1246701066302057  0.7882580645253037
  0.1875253127819660  0.4533912996618156  0.2115004780685597
  0.9390189781118284  0.7874142182062805  0.3893502444361923
  0.6872318176619334  0.2943436879467196  0.8757517433713498
  0.5574518177218963  0.8657146422708593  0.1662389752249003
  0.4367899684334543  0.4574530783117303  0.6997881836045509
  0.9373981217051935  0.9536683958590143  0.3449867833015928
  0.6865794241586363  0.6222015869866264  0.5216931844826739
  0.0638077570342824  0.8740675516989863  0.6550248025406473
  0.0617572696102660  0.8750155397199605  0.7884433558553119
  0.0638413889008096  0.3742343494954780  0.6550427439703014
  0.6870816761912018  0.4542871171370065  0.4782826008071886
  0.1863535619207992  0.7880033190269450  0.2559494712299452
  0.4375968276680262  0.1203451306666195  0.4343016299172579
  0.8111856238485186  0.0337792673440372  0.1244135743892492
  0.9368737486056551  0.6221483970859498  0.5216634876907016
  0.4387846587773530  0.1241720183402810  0.6550259522561401
  0.8121078153809042  0.5331592477391299  0.1239837856604758
  0.4373171185015595  0.4539707178830789  0.3450341023963537
  0.8122442068799757  0.2035319538679616  0.3450347221478267
  0.3124147879487030  0.7038247579023214  0.3450034145294844
  0.6887294993807186  0.1242886202421983  0.6550397574163181
  0.5656881273470441  0.8722101685648970  0.3002898983421932
  0.0634786464417682  0.5409614555607302  0.7440772045523897
  0.9385126990605954  0.9540899228074179  0.2116018389327801
  0.8135885066709179  0.7030903996708644  0.2116457388894515
  0.0654812248392641  0.8723418405741037  0.3003378813123593
  0.1905683053305558  0.1225584287654001  0.3001921917132312
  0.0621789634277911  0.7035522801207108  0.3449872260341511
  0.8112108066356314  0.0395830418567980  0.6106045011633349
  0.0626584688072713  0.3700424892444137  0.4341797301711777
  0.5624832765705063  0.2038305281940908  0.3449969335152123
  0.8154957048069398  0.3729092547894833  0.3002526694851144
  0.5621850161576101  0.0379534001717394  0.2558525156592744
  0.5640249435301058  0.5372598267702641  0.3893858878676289
  0.0625738992572753  0.2047246827755861  0.4784869218811765
  0.3119303306919698  0.8740083180263046  0.7882438973822182
  0.9369104348713027  0.9578037805289229  0.6996776354389034
  0.0658885007975853  0.3728301978341501  0.3002957669782483
  0.6887078187186970  0.6243690812596534  0.6550359677158443
  0.6868135715250697  0.4562237904294525  0.5657412308742912
  0.4383338259850806  0.9542664435111988  0.2117700876744944
  0.3121597648129346  0.2043319515426089  0.4783846138363660
  0.8130258512475773  0.5438318731196413  0.8755498261940390
  0.6878751032967788  0.6202384795788474  0.4342532448469804
  0.8118857999740012  0.2076483927301067  0.6997635683678964
  0.8121320388264109  0.7042886774911724  0.4784406945440510
  0.8122631633280294  0.8705865388775601  0.4342972736573658
  0.9373074158548098  0.9538533630934822  0.4785139449130737
  0.5622354958421624  0.2044375736645023  0.4784313941481944
  0.1871996822351149  0.6201396961428571  0.4343498630241540
  0.3134138003968548  0.0415311028867263  0.7441572399381778
  0.9388038865975207  0.6243407781990404  0.6549830419574003
  0.5647964687848883  0.7111447371772767  0.8333887912821099
  0.3156161307446512  0.3723347654615668  0.3003469066721376
  0.3134833168166819  0.5413247666544915  0.7441437950501760
  0.1873707013903138  0.4542318141671324  0.4783821034307748
  0.3156177422234708  0.0458526824361791  0.8757023396140873
  0.1868202077986130  0.4577050821607814  0.6997393428405622
  0.5620361261110240  0.3725274401662420  0.5216767725274702
  0.1892392025303245  0.2876508460566908  0.3893713308069770
  0.3132100298112447  0.2034370749104169  0.2115131001492816
  0.0640290185239126  0.7029566713212970  0.2114572655647827
  0.5624120452632048  0.3703112845481782  0.4342929795026647
  0.4367637996726064  0.6224261137628271  0.5215909114220079
  0.8153019410479011  0.7124161070385309  0.8334079575298251
  0.0615001096801413  0.3753629557016639  0.7883239572764970
  0.4378067784895652  0.2940736111737133  0.8758324848981517
  0.3109062706477477  0.0334566162694189  0.1240255159684099
  0.6876904641605379  0.1204245534713699  0.4342421210431733
  0.1872123231994527  0.9535194811048541  0.3450196289892721
  0.0643915831447859  0.2119845008858050  0.8337125770193697
  0.5610865320321861  0.0395905852737027  0.6106338037217219
  0.6879849214846805  0.4531546856091990  0.2116287661906396
  0.1884482639490121  0.7913034947482306  0.7441610564141747
  0.1906436305997699  0.6224368617254541  0.3002573789412729
  0.4398329984657399  0.7874249254999185  0.3893688354172125
  0.4366675522690951  0.2875785788235962  0.2557735628353532
  0.0649592437561723  0.5437031491359163  0.8756847166508709
  0.5636829256465762  0.0418663882056889  0.7442053954106780
  0.0626116035761803  0.8705838553196155  0.4342255652160093
  0.9373041258145254  0.4541209459922555  0.4783678902168232
  0.5634913248265266  0.5415643851029266  0.7441355245358720
  0.8117752069510095  0.2065210443790409  0.5657665987952991
  0.1868539122591173  0.6248069299614116  0.7883473847563961
  0.0650048743675778  0.5375912142276980  0.3894201426051430
  0.0618613998030002  0.7077518604519798  0.6997159466926967
  0.3115576010013240  0.5374067496516568  0.2556342895402501
  0.3125026109335021  0.7028861058549820  0.2117933670950945
  0.3081723231852367  0.8660501030945631  0.1657599016977884
  0.4371047209238408  0.6204524286447451  0.4342981285014415
  0.8150513202616704  0.0378317614034592  0.3893337025443354
  0.9367288938386390  0.2948564903017681  0.8756485412757552
  0.9362162188987329  0.7924297471262368  0.8756504346874137
  0.0645153688865130  0.0443686216419663  0.8755641508328731
  0.5613520737775285  0.5328328980447460  0.1244061853690708
  0.8077530679330438  0.3664451950968118  0.1656919703525930
  0.1897512238488226  0.7929191785595463  0.8756225256961950
  0.9366747323907547  0.1223068161688028  0.5215116348273426
  0.1898903653276022  0.7868544643541907  0.3892969817660789
  0.5644911074946197  0.7031477745573049  0.2117738233795617
 
  0.00000000E+00  0.00000000E+00  0.00000000E+00
  0.00000000E+00  0.00000000E+00  0.00000000E+00
  0.00000000E+00  0.00000000E+00  0.00000000E+00
  0.00000000E+00  0.00000000E+00  0.00000000E+00
  0.00000000E+00  0.00000000E+00  0.00000000E+00
  0.00000000E+00  0.00000000E+00  0.00000000E+00
  0.00000000E+00  0.00000000E+00  0.00000000E+00
  0.00000000E+00  0.00000000E+00  0.00000000E+00
  0.00000000E+00  0.00000000E+00  0.00000000E+00
  0.00000000E+00  0.00000000E+00  0.00000000E+00
  0.00000000E+00  0.00000000E+00  0.00000000E+00
  0.00000000E+00  0.00000000E+00  0.00000000E+00
  0.00000000E+00  0.00000000E+00  0.00000000E+00
  0.00000000E+00  0.00000000E+00  0.00000000E+00
  0.00000000E+00  0.00000000E+00  0.00000000E+00
  0.00000000E+00  0.00000000E+00  0.00000000E+00
  0.00000000E+00  0.00000000E+00  0.00000000E+00
  0.00000000E+00  0.00000000E+00  0.00000000E+00
  0.00000000E+00  0.00000000E+00  0.00000000E+00
  0.00000000E+00  0.00000000E+00  0.00000000E+00
  0.00000000E+00  0.00000000E+00  0.00000000E+00
  0.00000000E+00  0.00000000E+00  0.00000000E+00
  0.00000000E+00  0.00000000E+00  0.00000000E+00
  0.00000000E+00  0.00000000E+00  0.00000000E+00
  0.00000000E+00  0.00000000E+00  0.00000000E+00
  0.00000000E+00  0.00000000E+00  0.00000000E+00
  0.00000000E+00  0.00000000E+00  0.00000000E+00
  0.00000000E+00  0.00000000E+00  0.00000000E+00
  0.00000000E+00  0.00000000E+00  0.00000000E+00
  0.00000000E+00  0.00000000E+00  0.00000000E+00
  0.00000000E+00  0.00000000E+00  0.00000000E+00
  0.00000000E+00  0.00000000E+00  0.00000000E+00
  0.00000000E+00  0.00000000E+00  0.00000000E+00
  0.00000000E+00  0.00000000E+00  0.00000000E+00
  0.00000000E+00  0.00000000E+00  0.00000000E+00
  0.00000000E+00  0.00000000E+00  0.00000000E+00
  0.00000000E+00  0.00000000E+00  0.00000000E+00
  0.00000000E+00  0.00000000E+00  0.00000000E+00
  0.00000000E+00  0.00000000E+00  0.00000000E+00
  0.00000000E+00  0.00000000E+00  0.00000000E+00
  0.00000000E+00  0.00000000E+00  0.00000000E+00
  0.00000000E+00  0.00000000E+00  0.00000000E+00
  0.00000000E+00  0.00000000E+00  0.00000000E+00
  0.00000000E+00  0.00000000E+00  0.00000000E+00
  0.00000000E+00  0.00000000E+00  0.00000000E+00
  0.00000000E+00  0.00000000E+00  0.00000000E+00
  0.00000000E+00  0.00000000E+00  0.00000000E+00
  0.00000000E+00  0.00000000E+00  0.00000000E+00
  0.00000000E+00  0.00000000E+00  0.00000000E+00
  0.00000000E+00  0.00000000E+00  0.00000000E+00
  0.00000000E+00  0.00000000E+00  0.00000000E+00
  0.00000000E+00  0.00000000E+00  0.00000000E+00
  0.00000000E+00  0.00000000E+00  0.00000000E+00
  0.00000000E+00  0.00000000E+00  0.00000000E+00
  0.00000000E+00  0.00000000E+00  0.00000000E+00
  0.00000000E+00  0.00000000E+00  0.00000000E+00
  0.00000000E+00  0.00000000E+00  0.00000000E+00
  0.00000000E+00  0.00000000E+00  0.00000000E+00
  0.00000000E+00  0.00000000E+00  0.00000000E+00
  0.00000000E+00  0.00000000E+00  0.00000000E+00
  0.00000000E+00  0.00000000E+00  0.00000000E+00
  0.00000000E+00  0.00000000E+00  0.00000000E+00
  0.00000000E+00  0.00000000E+00  0.00000000E+00
  0.00000000E+00  0.00000000E+00  0.00000000E+00
  0.00000000E+00  0.00000000E+00  0.00000000E+00
  0.00000000E+00  0.00000000E+00  0.00000000E+00
  0.00000000E+00  0.00000000E+00  0.00000000E+00
  0.00000000E+00  0.00000000E+00  0.00000000E+00
  0.00000000E+00  0.00000000E+00  0.00000000E+00
  0.00000000E+00  0.00000000E+00  0.00000000E+00
  0.00000000E+00  0.00000000E+00  0.00000000E+00
  0.00000000E+00  0.00000000E+00  0.00000000E+00
  0.00000000E+00  0.00000000E+00  0.00000000E+00
  0.00000000E+00  0.00000000E+00  0.00000000E+00
  0.00000000E+00  0.00000000E+00  0.00000000E+00
  0.00000000E+00  0.00000000E+00  0.00000000E+00
  0.00000000E+00  0.00000000E+00  0.00000000E+00
  0.00000000E+00  0.00000000E+00  0.00000000E+00
  0.00000000E+00  0.00000000E+00  0.00000000E+00
  0.00000000E+00  0.00000000E+00  0.00000000E+00
  0.00000000E+00  0.00000000E+00  0.00000000E+00
  0.00000000E+00  0.00000000E+00  0.00000000E+00
  0.00000000E+00  0.00000000E+00  0.00000000E+00
  0.00000000E+00  0.00000000E+00  0.00000000E+00
  0.00000000E+00  0.00000000E+00  0.00000000E+00
  0.00000000E+00  0.00000000E+00  0.00000000E+00
  0.00000000E+00  0.00000000E+00  0.00000000E+00
  0.00000000E+00  0.00000000E+00  0.00000000E+00
  0.00000000E+00  0.00000000E+00  0.00000000E+00
  0.00000000E+00  0.00000000E+00  0.00000000E+00
  0.00000000E+00  0.00000000E+00  0.00000000E+00
  0.00000000E+00  0.00000000E+00  0.00000000E+00
  0.00000000E+00  0.00000000E+00  0.00000000E+00
  0.00000000E+00  0.00000000E+00  0.00000000E+00
  0.00000000E+00  0.00000000E+00  0.00000000E+00
  0.00000000E+00  0.00000000E+00  0.00000000E+00
  0.00000000E+00  0.00000000E+00  0.00000000E+00
  0.00000000E+00  0.00000000E+00  0.00000000E+00
  0.00000000E+00  0.00000000E+00  0.00000000E+00
  0.00000000E+00  0.00000000E+00  0.00000000E+00
  0.00000000E+00  0.00000000E+00  0.00000000E+00
  0.00000000E+00  0.00000000E+00  0.00000000E+00
  0.00000000E+00  0.00000000E+00  0.00000000E+00
  0.00000000E+00  0.00000000E+00  0.00000000E+00
  0.00000000E+00  0.00000000E+00  0.00000000E+00
  0.00000000E+00  0.00000000E+00  0.00000000E+00
  0.00000000E+00  0.00000000E+00  0.00000000E+00
  0.00000000E+00  0.00000000E+00  0.00000000E+00
  0.00000000E+00  0.00000000E+00  0.00000000E+00
  0.00000000E+00  0.00000000E+00  0.00000000E+00
  0.00000000E+00  0.00000000E+00  0.00000000E+00
  0.00000000E+00  0.00000000E+00  0.00000000E+00
  0.00000000E+00  0.00000000E+00  0.00000000E+00
  0.00000000E+00  0.00000000E+00  0.00000000E+00
  0.00000000E+00  0.00000000E+00  0.00000000E+00
  0.00000000E+00  0.00000000E+00  0.00000000E+00
  0.00000000E+00  0.00000000E+00  0.00000000E+00
  0.00000000E+00  0.00000000E+00  0.00000000E+00
  0.00000000E+00  0.00000000E+00  0.00000000E+00
  0.00000000E+00  0.00000000E+00  0.00000000E+00
  0.00000000E+00  0.00000000E+00  0.00000000E+00
  0.00000000E+00  0.00000000E+00  0.00000000E+00
  0.00000000E+00  0.00000000E+00  0.00000000E+00
  0.00000000E+00  0.00000000E+00  0.00000000E+00
  0.00000000E+00  0.00000000E+00  0.00000000E+00
  0.00000000E+00  0.00000000E+00  0.00000000E+00
  0.00000000E+00  0.00000000E+00  0.00000000E+00
  0.00000000E+00  0.00000000E+00  0.00000000E+00
  0.00000000E+00  0.00000000E+00  0.00000000E+00
  0.00000000E+00  0.00000000E+00  0.00000000E+00
  0.00000000E+00  0.00000000E+00  0.00000000E+00
  0.00000000E+00  0.00000000E+00  0.00000000E+00
  0.00000000E+00  0.00000000E+00  0.00000000E+00
  0.00000000E+00  0.00000000E+00  0.00000000E+00
  0.00000000E+00  0.00000000E+00  0.00000000E+00
  0.00000000E+00  0.00000000E+00  0.00000000E+00
  0.00000000E+00  0.00000000E+00  0.00000000E+00
  0.00000000E+00  0.00000000E+00  0.00000000E+00
  0.00000000E+00  0.00000000E+00  0.00000000E+00
  0.00000000E+00  0.00000000E+00  0.00000000E+00
  0.00000000E+00  0.00000000E+00  0.00000000E+00
  0.00000000E+00  0.00000000E+00  0.00000000E+00
  0.00000000E+00  0.00000000E+00  0.00000000E+00
  0.00000000E+00  0.00000000E+00  0.00000000E+00
  0.00000000E+00  0.00000000E+00  0.00000000E+00
  0.00000000E+00  0.00000000E+00  0.00000000E+00
  0.00000000E+00  0.00000000E+00  0.00000000E+00
  0.00000000E+00  0.00000000E+00  0.00000000E+00
  0.00000000E+00  0.00000000E+00  0.00000000E+00
  0.00000000E+00  0.00000000E+00  0.00000000E+00
  0.00000000E+00  0.00000000E+00  0.00000000E+00
  0.00000000E+00  0.00000000E+00  0.00000000E+00
  0.00000000E+00  0.00000000E+00  0.00000000E+00
  0.00000000E+00  0.00000000E+00  0.00000000E+00
  0.00000000E+00  0.00000000E+00  0.00000000E+00
  0.00000000E+00  0.00000000E+00  0.00000000E+00
  0.00000000E+00  0.00000000E+00  0.00000000E+00
  0.00000000E+00  0.00000000E+00  0.00000000E+00
  0.00000000E+00  0.00000000E+00  0.00000000E+00
  0.00000000E+00  0.00000000E+00  0.00000000E+00
  0.00000000E+00  0.00000000E+00  0.00000000E+00
  0.00000000E+00  0.00000000E+00  0.00000000E+00
  0.00000000E+00  0.00000000E+00  0.00000000E+00
  0.00000000E+00  0.00000000E+00  0.00000000E+00
  0.00000000E+00  0.00000000E+00  0.00000000E+00
  0.00000000E+00  0.00000000E+00  0.00000000E+00
  0.00000000E+00  0.00000000E+00  0.00000000E+00
  0.00000000E+00  0.00000000E+00  0.00000000E+00
  0.00000000E+00  0.00000000E+00  0.00000000E+00
  0.00000000E+00  0.00000000E+00  0.00000000E+00
  0.00000000E+00  0.00000000E+00  0.00000000E+00
  0.00000000E+00  0.00000000E+00  0.00000000E+00
  0.00000000E+00  0.00000000E+00  0.00000000E+00
  0.00000000E+00  0.00000000E+00  0.00000000E+00
  0.00000000E+00  0.00000000E+00  0.00000000E+00
  0.00000000E+00  0.00000000E+00  0.00000000E+00
  0.00000000E+00  0.00000000E+00  0.00000000E+00
  0.00000000E+00  0.00000000E+00  0.00000000E+00
  0.00000000E+00  0.00000000E+00  0.00000000E+00
  0.00000000E+00  0.00000000E+00  0.00000000E+00
  0.00000000E+00  0.00000000E+00  0.00000000E+00
  0.00000000E+00  0.00000000E+00  0.00000000E+00
  0.00000000E+00  0.00000000E+00  0.00000000E+00
  0.00000000E+00  0.00000000E+00  0.00000000E+00
  0.00000000E+00  0.00000000E+00  0.00000000E+00
  0.00000000E+00  0.00000000E+00  0.00000000E+00
  0.00000000E+00  0.00000000E+00  0.00000000E+00
  0.00000000E+00  0.00000000E+00  0.00000000E+00
  0.00000000E+00  0.00000000E+00  0.00000000E+00
  0.00000000E+00  0.00000000E+00  0.00000000E+00
  0.00000000E+00  0.00000000E+00  0.00000000E+00
  0.00000000E+00  0.00000000E+00  0.00000000E+00
  0.00000000E+00  0.00000000E+00  0.00000000E+00
  0.00000000E+00  0.00000000E+00  0.00000000E+00
  0.00000000E+00  0.00000000E+00  0.00000000E+00
  0.00000000E+00  0.00000000E+00  0.00000000E+00
  0.00000000E+00  0.00000000E+00  0.00000000E+00
  0.00000000E+00  0.00000000E+00  0.00000000E+00
  0.00000000E+00  0.00000000E+00  0.00000000E+00
  0.00000000E+00  0.00000000E+00  0.00000000E+00
  0.00000000E+00  0.00000000E+00  0.00000000E+00
  0.00000000E+00  0.00000000E+00  0.00000000E+00
  0.00000000E+00  0.00000000E+00  0.00000000E+00
  0.00000000E+00  0.00000000E+00  0.00000000E+00
  0.00000000E+00  0.00000000E+00  0.00000000E+00
  0.00000000E+00  0.00000000E+00  0.00000000E+00
  0.00000000E+00  0.00000000E+00  0.00000000E+00
  0.00000000E+00  0.00000000E+00  0.00000000E+00
  0.00000000E+00  0.00000000E+00  0.00000000E+00
  0.00000000E+00  0.00000000E+00  0.00000000E+00
  0.00000000E+00  0.00000000E+00  0.00000000E+00
  0.00000000E+00  0.00000000E+00  0.00000000E+00
  0.00000000E+00  0.00000000E+00  0.00000000E+00
  0.00000000E+00  0.00000000E+00  0.00000000E+00
  0.00000000E+00  0.00000000E+00  0.00000000E+00
  0.00000000E+00  0.00000000E+00  0.00000000E+00
  0.00000000E+00  0.00000000E+00  0.00000000E+00
  0.00000000E+00  0.00000000E+00  0.00000000E+00
  0.00000000E+00  0.00000000E+00  0.00000000E+00
  0.00000000E+00  0.00000000E+00  0.00000000E+00
  0.00000000E+00  0.00000000E+00  0.00000000E+00
  0.00000000E+00  0.00000000E+00  0.00000000E+00
  0.00000000E+00  0.00000000E+00  0.00000000E+00
  0.00000000E+00  0.00000000E+00  0.00000000E+00
  0.00000000E+00  0.00000000E+00  0.00000000E+00
  0.00000000E+00  0.00000000E+00  0.00000000E+00
  0.00000000E+00  0.00000000E+00  0.00000000E+00
  0.00000000E+00  0.00000000E+00  0.00000000E+00
  0.00000000E+00  0.00000000E+00  0.00000000E+00
  0.00000000E+00  0.00000000E+00  0.00000000E+00
  0.00000000E+00  0.00000000E+00  0.00000000E+00
  0.00000000E+00  0.00000000E+00  0.00000000E+00
  0.00000000E+00  0.00000000E+00  0.00000000E+00
  0.00000000E+00  0.00000000E+00  0.00000000E+00
  0.00000000E+00  0.00000000E+00  0.00000000E+00
  0.00000000E+00  0.00000000E+00  0.00000000E+00
  0.00000000E+00  0.00000000E+00  0.00000000E+00
  0.00000000E+00  0.00000000E+00  0.00000000E+00
  0.00000000E+00  0.00000000E+00  0.00000000E+00
  0.00000000E+00  0.00000000E+00  0.00000000E+00
  0.00000000E+00  0.00000000E+00  0.00000000E+00
  0.00000000E+00  0.00000000E+00  0.00000000E+00
  0.00000000E+00  0.00000000E+00  0.00000000E+00
  0.00000000E+00  0.00000000E+00  0.00000000E+00
  0.00000000E+00  0.00000000E+00  0.00000000E+00
  0.00000000E+00  0.00000000E+00  0.00000000E+00
  0.00000000E+00  0.00000000E+00  0.00000000E+00