CuInSe2gb                               
   1.00000000000000     
     9.7266780392896699    0.0000000000000000    0.0000000000000000
     0.0000000000000000    8.4235502764570693    0.0000000000000000
     0.0000000000000000    0.0000000000000000   45.0000000000000000
   Fe   Mn
   281     7
Direct
  0.0621516715315882  0.0339160086206826  0.1246082225860958
  0.8143890994043675  0.0427280791401919  0.8756793887929616
  0.1954353630707658  0.1254753995085449  0.7885209303943612
  0.4335893325731094  0.2873892906789854  0.3890726076055244
  0.3165715480053458  0.3608515345456729  0.1665858468972313
  0.8088012259058882  0.2130567491966863  0.8331453170707689
  0.1836437000149814  0.7875478532267598  0.3890513622082751
  0.5637827193547122  0.2076764982680337  0.5654295786804036
  0.0604255067135880  0.0421920973381115  0.7441671956400184
  0.8135279267697337  0.8719958752091593  0.5213186958829161
  0.1857160105465260  0.2920997828680605  0.7440912010864780
  0.9412941762352276  0.4517517904925096  0.3449377130764987
  0.9334511241111195  0.2875918513170503  0.3890657952806474
  0.4384145314629241  0.6219845070590003  0.5213151602446120
  0.1877667116287277  0.7918489022764092  0.6108198709593232
  0.5585896053517254  0.0374975271261842  0.3890795501530890
  0.9335324332111619  0.9629452881145152  0.8331770079792354
  0.3142139058829451  0.5425378205626047  0.8755388780766453
  0.6856954032879699  0.2920110991841682  0.7440693405030682
  0.9412757579556870  0.9520691177002673  0.3449355389216415
  0.8128125660540593  0.2058097865417469  0.4786263187412919
  0.8127973965016340  0.5418686840107149  0.6107915905407492
  0.3131300969300764  0.8705005267718720  0.4343435862497053
  0.8154028846512349  0.0353404211779750  0.2560382214804047
  0.6912957227753483  0.9519788464963944  0.3449471846716055
  0.9420737627546447  0.1126840454381140  0.1668646163639936
  0.9384551230444336  0.1219767820166871  0.5213112694589891
  0.5653400938025741  0.5353506566892394  0.2559762403734640
  0.6930467413146697  0.7963007141372908  0.8756485400186065
  0.5665039575498532  0.3627103475893306  0.1669802575403778
  0.4358857417579087  0.7918035122208410  0.7441511559812596
  0.8138029540483863  0.7076621006322353  0.5654211480533876
  0.5705003301040643  0.8742801181242570  0.7883629901268779
  0.6884992450419779  0.1219481767600842  0.5213116435652803
  0.1899776037966328  0.2856177248931053  0.2559322913653658
  0.9336175932090778  0.4632744375331211  0.8330228378663493
  0.0655467614659273  0.2085640831588216  0.6996846125304044
  0.8086423326060422  0.0375864222029916  0.3890726780565649
  0.3088772557612567  0.2138813616118777  0.8332985012511654
  0.4340729155597642  0.6260157422491556  0.6549609742520721
  0.3127980594441972  0.5417876202497703  0.6107832473833414
  0.9387205585353375  0.4577985860835301  0.5654464412012209
  0.6855989873375113  0.7920617725938564  0.7441746060328355
  0.3088186958185830  0.8756576742384812  0.6549197964942316
  0.6836548320432664  0.7872927917201286  0.3890280766349144
  0.9359086286645959  0.7918098108899259  0.7441617799126453
  0.0661543952097052  0.2016296498502031  0.3449051084384239
  0.4366529473647755  0.7802725438187429  0.1241427640081328
  0.4454174984719887  0.1251236186889547  0.7886091357946891
  0.0552227129583544  0.2027951739397129  0.2120083942784718
  0.0677811155350526  0.3613193600451414  0.1668359802407691
  0.9404454796185975  0.7853884694037698  0.2560236856428666
  0.5654506232779103  0.2083842628657208  0.6997226974047130
  0.6905736678940597  0.9584201442029413  0.6997090205382719
  0.6836022142358879  0.2875660961951128  0.3890769718116454
  0.4387673320414568  0.9577303170451005  0.5654306892981956
  0.8206738011344819  0.3742667829721510  0.7883764215452821
  0.6900206442255117  0.2853475677980029  0.2560296095517051
  0.1887679509665465  0.4577394927455485  0.5654637010154207
  0.0667210780226256  0.8622561721408878  0.1666633370622617
  0.1877773036485532  0.2917612171440407  0.6107908951898422
  0.5662811819559902  0.7017857354481668  0.3449620155532291
  0.3155252827073106  0.2083705494849645  0.6997323346241505
  0.5654652069245011  0.5417771930082781  0.8755422292070889
  0.0638095258375485  0.7077641175399613  0.5654292629088717
  0.6952299727315219  0.6247944848092482  0.7885452091257878
  0.3087368432788786  0.5374501670858576  0.3890245388240684
  0.1884961901955065  0.6219590027812982  0.5213129286776880
  0.5631528430721574  0.8703739997573349  0.4344362691407870
  0.4388170267838824  0.4576801041963560  0.5654510843973687
  0.4357826950208333  0.2919588458473560  0.7441165814100710
  0.8036314221210619  0.8720164758903860  0.3003377938318536
  0.8163780085153542  0.7022174621316365  0.3449250228031694
  0.4333952023166101  0.4641414713822706  0.8331572805533161
  0.6877974477577433  0.9558390339132407  0.4786024548974782
  0.6907426800793495  0.4583721003172840  0.6997145283138057
  0.5634824838773057  0.8721415045023461  0.5213314640309187
  0.5587999735908865  0.3755749306021752  0.6549277858595127
  0.8088175422129710  0.8755977329746315  0.6548802763466905
  0.8129128704634238  0.3704627229404798  0.4343900995536458
  0.8154422253255966  0.5354308838812489  0.2559552803459769
  0.6835047294660723  0.4630827698306664  0.8330890014174726
  0.1877309388905497  0.7797986892724970  0.1243227236342388
  0.0642981869267670  0.0427072526099584  0.8755950885752893
  0.3088931835805807  0.3756966044090101  0.6549110294666528
  0.3162511153938460  0.2019871284115220  0.3449814473893646
  0.8108473134737175  0.5423167025234753  0.7440746386801987
  0.6839455279945875  0.9635887086228939  0.8330881554881799
  0.5588819985608339  0.8756555516880429  0.6549261754656935
  0.3138050512205603  0.7077812433913242  0.5654590036052327
  0.3127197248140720  0.5351999806429912  0.1241660311868718
  0.6805625579898560  0.9526496202256366  0.2116258842865033
  0.3138068186448237  0.2076530952078195  0.5654284238143829
  0.3109734364437388  0.5427343193356662  0.7442734530277264
  0.6887886062233354  0.9577184192541577  0.5654602355445418
  0.4377477696063045  0.7917981475121341  0.6108217594023360
  0.6928536678662356  0.6114034802959711  0.1670613703293474
  0.3037663955374665  0.8722685962021492  0.3003319622121490
  0.3128251119683961  0.7058825299318143  0.4785982190917433
  0.9377973773086179  0.2917216472493818  0.6107824287629706
  0.4285939141654757  0.6221272135375003  0.3003363285555825
  0.8168480732935490  0.8625267570527874  0.1668038998364582
  0.5551048892954672  0.2026133589853877  0.2117596851285028
  0.9417602489847571  0.6126466230140477  0.1668993968146183
  0.9412397368959454  0.7962608186241745  0.8756761171093830
  0.5707005708140046  0.3743356325303859  0.7883609649124192
  0.0634832347588701  0.3719419929307407  0.5213067169040031
  0.5634817139296586  0.3719994778767272  0.5213164855886291
  0.6786378540366121  0.1220411739079815  0.3003319951475806
  0.4329720471507424  0.9631123546611482  0.8331912193952196
  0.1878389581756536  0.9557606861164936  0.4786084511232973
  0.8208258056476999  0.8743973818854920  0.7883922887508021
  0.3130135118641680  0.3699969266040858  0.4344739708773622
  0.9376587392552737  0.7918530377089188  0.6109375992094374
  0.4377342776183455  0.2918711608537742  0.6108559353358967
  0.1913361514005956  0.4522388231259583  0.3449371589355407
  0.4383310272764006  0.2805859446315480  0.1243554279248663
  0.6898792185423879  0.7855633951416063  0.2560261064616564
  0.1906595508955942  0.9584019183820461  0.6997042137448380
  0.1909547957331820  0.2957109335994141  0.8758342431209891
  0.1838738091338567  0.1257392618106822  0.6549001525949529
  0.9338927461982389  0.1258667558671172  0.6549275146099048
  0.3057616893772980  0.2024718339679280  0.2119583345285987
  0.0585063193209248  0.0374769222684380  0.3890659174728980
  0.4402416194084036  0.9582660809779667  0.6996771857687525
  0.0628728830974935  0.5417533937592111  0.6107501749882696
  0.9405434824606441  0.2853061252244683  0.2560290595969126
  0.5627950066358957  0.5417838867150300  0.6107784318630680
  0.9388173197916525  0.9577475562800877  0.5654293500741184
  0.6787989615349158  0.6222354214801822  0.3002766235734045
  0.9381232214873075  0.6203678171871997  0.4344379339845007
  0.9453507063200379  0.6250020435414996  0.7885855935958931
  0.5654729343072378  0.7085046983839970  0.6996692074271937
  0.0589384508743828  0.7132657385270039  0.8333084237532361
  0.9285533931183898  0.1220770309788995  0.3003596155949153
  0.9403157847127269  0.4584174435929518  0.6996961409710596
  0.4401729087952635  0.7855936519446759  0.2559334546828841
  0.3208413144943583  0.3746540124386199  0.7883866198681285
  0.4302113895487666  0.4518104901300900  0.2115627178798482
  0.1884498461160410  0.1219828755954501  0.5213128614104892
  0.8154780151538161  0.7084835798631268  0.6996595468520627
  0.0626981617432380  0.0418620727719385  0.6108678303381875
  0.5590282398567539  0.2134720346713042  0.8332440411392622
  0.3134962927094110  0.8719891989004390  0.5213031081287089
  0.6885025243005347  0.2817086480845106  0.1243119601102409
  0.1801572045476198  0.9525768861010755  0.2119709739455484
  0.6877130356407157  0.2918009425818214  0.6107689646414272
  0.3125885789139590  0.0419435991116229  0.6108641527253327
  0.9457499085999845  0.1253847757153230  0.7884288860484849
  0.4416471910751362  0.7970964783735393  0.8756866376968282
  0.8108196127352891  0.0424085663059933  0.7440807338500351
  0.4385023474250356  0.1219921770494656  0.5213144111704547
  0.1838500719971708  0.6257769750490311  0.6549163176005559
  0.3153271748096210  0.7083883085943906  0.6996593694978624
  0.9340702567095551  0.2798673270162268  0.1244985324119551
  0.4378013252608887  0.4558934037125891  0.4786214053904802
  0.0628396908909587  0.7058366356226902  0.4786318867570102
  0.9381140923658302  0.1204450034844023  0.4344127784605349
  0.4286242891591320  0.1223632907802199  0.3003105192455006
  0.1879161089667878  0.1204466873893699  0.4344473675789577
  0.5651864885215532  0.0430561210413175  0.8755823882108739
  0.1887423683570739  0.9577143190273002  0.5654427913138396
  0.6875903821564053  0.7816825859928391  0.1243813194962140
  0.5641555084390636  0.5332495625916686  0.1244791669933301
  0.3085727399081781  0.0373291779464361  0.3890108201641106
  0.6929582121858344  0.1112501715501793  0.1671182338931050
  0.8055537288404185  0.2028168667762908  0.2118424769337246
  0.0655631221996956  0.5355777105311462  0.2559299563104166
  0.5628662484886138  0.7057893813213748  0.4786307823037581
  0.0637709816505029  0.2076998476657093  0.5654245911457242
  0.5537127530818537  0.3720146183369089  0.3003156362681128
  0.4410228927087845  0.9517828231198017  0.3449439666830342
  0.1839651191127148  0.9634849620382615  0.8332056794666429
  0.4416450690135233  0.6125551392576183  0.1668350611933708
  0.9305292893389037  0.4531147160775051  0.2119761749758994
  0.0625129598814147  0.5337446642470201  0.1245765657622451
  0.8134977411007051  0.3719862814778070  0.5213057324927818
  0.9285095860371341  0.6219575750829804  0.3003688399128533
  0.3151176134579441  0.0357037794268196  0.2559571194985776
  0.0634495922118602  0.8721432637199454  0.5213275254962689
  0.1839374208368914  0.4645760411055603  0.8333103919653015
  0.4423741967131798  0.1116154155642612  0.1667105353875550
  0.3134869541069220  0.3720117435160438  0.5212982886719214
  0.4459283673163947  0.6247872553085361  0.7883795868122346
  0.0654804059857690  0.0352080838034396  0.2559938933835680
  0.5637626591587492  0.7076657766753954  0.5654354719927680
  0.1787502028376995  0.6221350882901495  0.3002882258840649
  0.6956804836051486  0.1250269295049143  0.7884591564215239
  0.1808238824958973  0.4519750684941514  0.2116216830469781
  0.9333959582880647  0.7875536082123891  0.3890292196350270
  0.6938596074170553  0.2971268426981770  0.8758221960194572
  0.6877035512266556  0.7918431150478686  0.6108506672818429
  0.4402636245096789  0.4581743789268085  0.6996538255740627
  0.8088719755343569  0.3756152639629662  0.6549150885444517
  0.6884913965025552  0.6220997288756864  0.5213112201260230
  0.0588239920654522  0.8756615632663096  0.6549044516057112
  0.0708568809120522  0.8744616966823947  0.7883942564892814
  0.0589109206162021  0.3756549414437135  0.6549254988990714
  0.6877648518231159  0.4558983247422221  0.4786102275166410
  0.1900806068217481  0.7856475747144344  0.2559958223847603
  0.4380638613179534  0.1203942488792349  0.4344630449569522
  0.0587589575531790  0.5374750751650957  0.3890429373442882
  0.9384488429042476  0.6219501218690550  0.5213082777281515
  0.0629562290213072  0.8703797681141557  0.4344441115414613
  0.8108742028412307  0.5332716155988921  0.1244605961837149
  0.4413402725279816  0.4519801929101053  0.3449669219054234
  0.8162976738343637  0.2018940922567727  0.3449508295887882
  0.1864271008837072  0.2802324642883735  0.1244045364977149
  0.6837894034145503  0.1257503315287980  0.6549048415682380
  0.5537559796251852  0.8721063667043266  0.3003281649866403
  0.0605487118596976  0.5420944072097292  0.7441842595139766
  0.9355465032236813  0.7808091016190665  0.1245687285921174
  0.8055407305725800  0.7020410292958439  0.2120191311822102
  0.0540712426891356  0.8721513479800820  0.3002559047140388
  0.1787972365494568  0.1227715589374793  0.3003382701823281
  0.0662540510740864  0.7018096121198771  0.3449563992722082
  0.8127522114904027  0.0418104009385595  0.6108111639395375
  0.0630324206924408  0.3704096614472577  0.4344472954414703
  0.5663128184885928  0.2020250091784175  0.3449397727650530
  0.8035434888761178  0.3719416628837494  0.3003591977007157
  0.4377724737820575  0.9557832784599887  0.4786122893419630
  0.5585183368861059  0.5375579943471008  0.3890534852574362
  0.0628195223466871  0.2058900881705959  0.4785963209618084
  0.3207934998107686  0.8745695733487490  0.7883938310681659
  0.9403394970097279  0.9585759119234734  0.6997441970162140
  0.0538391842578264  0.3723125335784427  0.3002469777926789
  0.6841060154661575  0.6260299480610965  0.6549712751679168
  0.6887590508400719  0.4577591738144565  0.5654378271635500
  0.4301362327603745  0.9529984073900237  0.2118570453660570
  0.3128399447386485  0.2058648782053096  0.4785953849877833
  0.4338572603929285  0.1257334354686275  0.6549165695029086
  0.6879814007946656  0.6205172172223526  0.4344443991595849
  0.8152531056824638  0.2082540598380244  0.6996419494795362
  0.8127972716949283  0.7057675419975810  0.4785819001326360
  0.5630427554523885  0.3704150581508445  0.4344450067280778
  0.9378572657237619  0.9558584684554465  0.4785890101659860
  0.5628133769654414  0.2058272602547970  0.4786212299796875
  0.1878615483634677  0.6204657352082229  0.4344307875984457
  0.3107168560775163  0.0419599595996199  0.7440352509861909
  0.9339192624339026  0.6259089151760719  0.6548964522938254
  0.5589340021107188  0.7131581378150869  0.8332493421101923
  0.3039808955423217  0.3724840556550899  0.3003097982187317
  0.5551074786883746  0.7022779749834761  0.2117896396943251
  0.1877979638481843  0.4558458853147722  0.4786080907503824
  0.3148847554923990  0.0419310091449771  0.8756573859515617
  0.1901757551450102  0.4580994889243674  0.6996345668405326
  0.8145787061010491  0.5424181402156094  0.8756387425303778
  0.1836413354063121  0.2873088013638953  0.3890432231024944
  0.4381114544916808  0.6206162258946994  0.4344097004239822
  0.0552086301285868  0.7029893207456828  0.2118881205621752
  0.5635527878927783  0.0330276757238962  0.1244901266256232
  0.8164368368812160  0.3620623697532657  0.1668127274752969
  0.8083180278385163  0.7136908894204317  0.8331049991275756
  0.0709861010961025  0.3744558283112809  0.7884342937980198
  0.4429312073423812  0.2963185378308469  0.8757036681279333
  0.3136569590134129  0.0343925035079180  0.1244222584877898
  0.6880167071667374  0.1205586956992848  0.4343892787876331
  0.1915990182273825  0.9518380394509911  0.3449747621463209
  0.0585266971748134  0.2135219223818885  0.8333307275708958
  0.5626996844995821  0.0419010601454367  0.6108781665977220
  0.6800684424892202  0.4531145994182922  0.2118700624730206
  0.1860827463157254  0.7916518329183263  0.7441745740612310
  0.8130790724573392  0.8704256907855549  0.4344319844357172
  0.4335253521520555  0.7873790947655238  0.3890660126666077
  0.4405599785469791  0.2855382593295101  0.2559299844880397
  0.0643677097430836  0.5424577001890029  0.8756498792550663
  0.5605927738653657  0.0421043062788903  0.7441605043125831
  0.1939243786950432  0.7969114715701934  0.8758863385016208
  0.9377847480522630  0.4558063429305679  0.4786099268400605
  0.8087328540023745  0.5374864541083059  0.3890706112933215
  0.8138111678729774  0.2077329010118119  0.5654433226992960
  0.1952371131286672  0.6250860372542580  0.7884418531147210
  0.9305307078867553  0.9531864282732543  0.2118801285032139
  0.0653319248648526  0.7084532013136112  0.6996820089521687
  0.3149788585191474  0.5356803957640285  0.2560531472659895
  0.3057582053537270  0.7024695713714033  0.2118736352665281
  0.5674043152024992  0.8633800598096590  0.1668405278807619
  0.5608055212732276  0.5426161213300031  0.7440807268178412
  0.6912156776705094  0.4516657498525605  0.3449272919884820
  0.9409842835797882  0.2968250429844428  0.8758393460984281
  0.5650745445386226  0.0354044902164699  0.2560278817638413
  0.1929817977408598  0.1117231738001345  0.1660110884606846
  0.3079986687197681  0.7147733977394033  0.8339021654968390
  0.3181696569062232  0.8598592471257117  0.1660455720458735
  0.9362084619689984  0.2921793542438105  0.7441251141973341
  0.8108430637407645  0.0338154130152758  0.1247961695875681
  0.1934554666539820  0.6115696282944091  0.1659492540788309
  0.3167556433812539  0.7024350209091844  0.3450485221124423
 
  0.00000000E+00  0.00000000E+00  0.00000000E+00
  0.00000000E+00  0.00000000E+00  0.00000000E+00
  0.00000000E+00  0.00000000E+00  0.00000000E+00
  0.00000000E+00  0.00000000E+00  0.00000000E+00
  0.00000000E+00  0.00000000E+00  0.00000000E+00
  0.00000000E+00  0.00000000E+00  0.00000000E+00
  0.00000000E+00  0.00000000E+00  0.00000000E+00
  0.00000000E+00  0.00000000E+00  0.00000000E+00
  0.00000000E+00  0.00000000E+00  0.00000000E+00
  0.00000000E+00  0.00000000E+00  0.00000000E+00
  0.00000000E+00  0.00000000E+00  0.00000000E+00
  0.00000000E+00  0.00000000E+00  0.00000000E+00
  0.00000000E+00  0.00000000E+00  0.00000000E+00
  0.00000000E+00  0.00000000E+00  0.00000000E+00
  0.00000000E+00  0.00000000E+00  0.00000000E+00
  0.00000000E+00  0.00000000E+00  0.00000000E+00
  0.00000000E+00  0.00000000E+00  0.00000000E+00
  0.00000000E+00  0.00000000E+00  0.00000000E+00
  0.00000000E+00  0.00000000E+00  0.00000000E+00
  0.00000000E+00  0.00000000E+00  0.00000000E+00
  0.00000000E+00  0.00000000E+00  0.00000000E+00
  0.00000000E+00  0.00000000E+00  0.00000000E+00
  0.00000000E+00  0.00000000E+00  0.00000000E+00
  0.00000000E+00  0.00000000E+00  0.00000000E+00
  0.00000000E+00  0.00000000E+00  0.00000000E+00
  0.00000000E+00  0.00000000E+00  0.00000000E+00
  0.00000000E+00  0.00000000E+00  0.00000000E+00
  0.00000000E+00  0.00000000E+00  0.00000000E+00
  0.00000000E+00  0.00000000E+00  0.00000000E+00
  0.00000000E+00  0.00000000E+00  0.00000000E+00
  0.00000000E+00  0.00000000E+00  0.00000000E+00
  0.00000000E+00  0.00000000E+00  0.00000000E+00
  0.00000000E+00  0.00000000E+00  0.00000000E+00
  0.00000000E+00  0.00000000E+00  0.00000000E+00
  0.00000000E+00  0.00000000E+00  0.00000000E+00
  0.00000000E+00  0.00000000E+00  0.00000000E+00
  0.00000000E+00  0.00000000E+00  0.00000000E+00
  0.00000000E+00  0.00000000E+00  0.00000000E+00
  0.00000000E+00  0.00000000E+00  0.00000000E+00
  0.00000000E+00  0.00000000E+00  0.00000000E+00
  0.00000000E+00  0.00000000E+00  0.00000000E+00
  0.00000000E+00  0.00000000E+00  0.00000000E+00
  0.00000000E+00  0.00000000E+00  0.00000000E+00
  0.00000000E+00  0.00000000E+00  0.00000000E+00
  0.00000000E+00  0.00000000E+00  0.00000000E+00
  0.00000000E+00  0.00000000E+00  0.00000000E+00
  0.00000000E+00  0.00000000E+00  0.00000000E+00
  0.00000000E+00  0.00000000E+00  0.00000000E+00
  0.00000000E+00  0.00000000E+00  0.00000000E+00
  0.00000000E+00  0.00000000E+00  0.00000000E+00
  0.00000000E+00  0.00000000E+00  0.00000000E+00
  0.00000000E+00  0.00000000E+00  0.00000000E+00
  0.00000000E+00  0.00000000E+00  0.00000000E+00
  0.00000000E+00  0.00000000E+00  0.00000000E+00
  0.00000000E+00  0.00000000E+00  0.00000000E+00
  0.00000000E+00  0.00000000E+00  0.00000000E+00
  0.00000000E+00  0.00000000E+00  0.00000000E+00
  0.00000000E+00  0.00000000E+00  0.00000000E+00
  0.00000000E+00  0.00000000E+00  0.00000000E+00
  0.00000000E+00  0.00000000E+00  0.00000000E+00
  0.00000000E+00  0.00000000E+00  0.00000000E+00
  0.00000000E+00  0.00000000E+00  0.00000000E+00
  0.00000000E+00  0.00000000E+00  0.00000000E+00
  0.00000000E+00  0.00000000E+00  0.00000000E+00
  0.00000000E+00  0.00000000E+00  0.00000000E+00
  0.00000000E+00  0.00000000E+00  0.00000000E+00
  0.00000000E+00  0.00000000E+00  0.00000000E+00
  0.00000000E+00  0.00000000E+00  0.00000000E+00
  0.00000000E+00  0.00000000E+00  0.00000000E+00
  0.00000000E+00  0.00000000E+00  0.00000000E+00
  0.00000000E+00  0.00000000E+00  0.00000000E+00
  0.00000000E+00  0.00000000E+00  0.00000000E+00
  0.00000000E+00  0.00000000E+00  0.00000000E+00
  0.00000000E+00  0.00000000E+00  0.00000000E+00
  0.00000000E+00  0.00000000E+00  0.00000000E+00
  0.00000000E+00  0.00000000E+00  0.00000000E+00
  0.00000000E+00  0.00000000E+00  0.00000000E+00
  0.00000000E+00  0.00000000E+00  0.00000000E+00
  0.00000000E+00  0.00000000E+00  0.00000000E+00
  0.00000000E+00  0.00000000E+00  0.00000000E+00
  0.00000000E+00  0.00000000E+00  0.00000000E+00
  0.00000000E+00  0.00000000E+00  0.00000000E+00
  0.00000000E+00  0.00000000E+00  0.00000000E+00
  0.00000000E+00  0.00000000E+00  0.00000000E+00
  0.00000000E+00  0.00000000E+00  0.00000000E+00
  0.00000000E+00  0.00000000E+00  0.00000000E+00
  0.00000000E+00  0.00000000E+00  0.00000000E+00
  0.00000000E+00  0.00000000E+00  0.00000000E+00
  0.00000000E+00  0.00000000E+00  0.00000000E+00
  0.00000000E+00  0.00000000E+00  0.00000000E+00
  0.00000000E+00  0.00000000E+00  0.00000000E+00
  0.00000000E+00  0.00000000E+00  0.00000000E+00
  0.00000000E+00  0.00000000E+00  0.00000000E+00
  0.00000000E+00  0.00000000E+00  0.00000000E+00
  0.00000000E+00  0.00000000E+00  0.00000000E+00
  0.00000000E+00  0.00000000E+00  0.00000000E+00
  0.00000000E+00  0.00000000E+00  0.00000000E+00
  0.00000000E+00  0.00000000E+00  0.00000000E+00
  0.00000000E+00  0.00000000E+00  0.00000000E+00
  0.00000000E+00  0.00000000E+00  0.00000000E+00
  0.00000000E+00  0.00000000E+00  0.00000000E+00
  0.00000000E+00  0.00000000E+00  0.00000000E+00
  0.00000000E+00  0.00000000E+00  0.00000000E+00
  0.00000000E+00  0.00000000E+00  0.00000000E+00
  0.00000000E+00  0.00000000E+00  0.00000000E+00
  0.00000000E+00  0.00000000E+00  0.00000000E+00
  0.00000000E+00  0.00000000E+00  0.00000000E+00
  0.00000000E+00  0.00000000E+00  0.00000000E+00
  0.00000000E+00  0.00000000E+00  0.00000000E+00
  0.00000000E+00  0.00000000E+00  0.00000000E+00
  0.00000000E+00  0.00000000E+00  0.00000000E+00
  0.00000000E+00  0.00000000E+00  0.00000000E+00
  0.00000000E+00  0.00000000E+00  0.00000000E+00
  0.00000000E+00  0.00000000E+00  0.00000000E+00
  0.00000000E+00  0.00000000E+00  0.00000000E+00
  0.00000000E+00  0.00000000E+00  0.00000000E+00
  0.00000000E+00  0.00000000E+00  0.00000000E+00
  0.00000000E+00  0.00000000E+00  0.00000000E+00
  0.00000000E+00  0.00000000E+00  0.00000000E+00
  0.00000000E+00  0.00000000E+00  0.00000000E+00
  0.00000000E+00  0.00000000E+00  0.00000000E+00
  0.00000000E+00  0.00000000E+00  0.00000000E+00
  0.00000000E+00  0.00000000E+00  0.00000000E+00
  0.00000000E+00  0.00000000E+00  0.00000000E+00
  0.00000000E+00  0.00000000E+00  0.00000000E+00
  0.00000000E+00  0.00000000E+00  0.00000000E+00
  0.00000000E+00  0.00000000E+00  0.00000000E+00
  0.00000000E+00  0.00000000E+00  0.00000000E+00
  0.00000000E+00  0.00000000E+00  0.00000000E+00
  0.00000000E+00  0.00000000E+00  0.00000000E+00
  0.00000000E+00  0.00000000E+00  0.00000000E+00
  0.00000000E+00  0.00000000E+00  0.00000000E+00
  0.00000000E+00  0.00000000E+00  0.00000000E+00
  0.00000000E+00  0.00000000E+00  0.00000000E+00
  0.00000000E+00  0.00000000E+00  0.00000000E+00
  0.00000000E+00  0.00000000E+00  0.00000000E+00
  0.00000000E+00  0.00000000E+00  0.00000000E+00
  0.00000000E+00  0.00000000E+00  0.00000000E+00
  0.00000000E+00  0.00000000E+00  0.00000000E+00
  0.00000000E+00  0.00000000E+00  0.00000000E+00
  0.00000000E+00  0.00000000E+00  0.00000000E+00
  0.00000000E+00  0.00000000E+00  0.00000000E+00
  0.00000000E+00  0.00000000E+00  0.00000000E+00
  0.00000000E+00  0.00000000E+00  0.00000000E+00
  0.00000000E+00  0.00000000E+00  0.00000000E+00
  0.00000000E+00  0.00000000E+00  0.00000000E+00
  0.00000000E+00  0.00000000E+00  0.00000000E+00
  0.00000000E+00  0.00000000E+00  0.00000000E+00
  0.00000000E+00  0.00000000E+00  0.00000000E+00
  0.00000000E+00  0.00000000E+00  0.00000000E+00
  0.00000000E+00  0.00000000E+00  0.00000000E+00
  0.00000000E+00  0.00000000E+00  0.00000000E+00
  0.00000000E+00  0.00000000E+00  0.00000000E+00
  0.00000000E+00  0.00000000E+00  0.00000000E+00
  0.00000000E+00  0.00000000E+00  0.00000000E+00
  0.00000000E+00  0.00000000E+00  0.00000000E+00
  0.00000000E+00  0.00000000E+00  0.00000000E+00
  0.00000000E+00  0.00000000E+00  0.00000000E+00
  0.00000000E+00  0.00000000E+00  0.00000000E+00
  0.00000000E+00  0.00000000E+00  0.00000000E+00
  0.00000000E+00  0.00000000E+00  0.00000000E+00
  0.00000000E+00  0.00000000E+00  0.00000000E+00
  0.00000000E+00  0.00000000E+00  0.00000000E+00
  0.00000000E+00  0.00000000E+00  0.00000000E+00
  0.00000000E+00  0.00000000E+00  0.00000000E+00
  0.00000000E+00  0.00000000E+00  0.00000000E+00
  0.00000000E+00  0.00000000E+00  0.00000000E+00
  0.00000000E+00  0.00000000E+00  0.00000000E+00
  0.00000000E+00  0.00000000E+00  0.00000000E+00
  0.00000000E+00  0.00000000E+00  0.00000000E+00
  0.00000000E+00  0.00000000E+00  0.00000000E+00
  0.00000000E+00  0.00000000E+00  0.00000000E+00
  0.00000000E+00  0.00000000E+00  0.00000000E+00
  0.00000000E+00  0.00000000E+00  0.00000000E+00
  0.00000000E+00  0.00000000E+00  0.00000000E+00
  0.00000000E+00  0.00000000E+00  0.00000000E+00
  0.00000000E+00  0.00000000E+00  0.00000000E+00
  0.00000000E+00  0.00000000E+00  0.00000000E+00
  0.00000000E+00  0.00000000E+00  0.00000000E+00
  0.00000000E+00  0.00000000E+00  0.00000000E+00
  0.00000000E+00  0.00000000E+00  0.00000000E+00
  0.00000000E+00  0.00000000E+00  0.00000000E+00
  0.00000000E+00  0.00000000E+00  0.00000000E+00
  0.00000000E+00  0.00000000E+00  0.00000000E+00
  0.00000000E+00  0.00000000E+00  0.00000000E+00
  0.00000000E+00  0.00000000E+00  0.00000000E+00
  0.00000000E+00  0.00000000E+00  0.00000000E+00
  0.00000000E+00  0.00000000E+00  0.00000000E+00
  0.00000000E+00  0.00000000E+00  0.00000000E+00
  0.00000000E+00  0.00000000E+00  0.00000000E+00
  0.00000000E+00  0.00000000E+00  0.00000000E+00
  0.00000000E+00  0.00000000E+00  0.00000000E+00
  0.00000000E+00  0.00000000E+00  0.00000000E+00
  0.00000000E+00  0.00000000E+00  0.00000000E+00
  0.00000000E+00  0.00000000E+00  0.00000000E+00
  0.00000000E+00  0.00000000E+00  0.00000000E+00
  0.00000000E+00  0.00000000E+00  0.00000000E+00
  0.00000000E+00  0.00000000E+00  0.00000000E+00
  0.00000000E+00  0.00000000E+00  0.00000000E+00
  0.00000000E+00  0.00000000E+00  0.00000000E+00
  0.00000000E+00  0.00000000E+00  0.00000000E+00
  0.00000000E+00  0.00000000E+00  0.00000000E+00
  0.00000000E+00  0.00000000E+00  0.00000000E+00
  0.00000000E+00  0.00000000E+00  0.00000000E+00
  0.00000000E+00  0.00000000E+00  0.00000000E+00
  0.00000000E+00  0.00000000E+00  0.00000000E+00
  0.00000000E+00  0.00000000E+00  0.00000000E+00
  0.00000000E+00  0.00000000E+00  0.00000000E+00
  0.00000000E+00  0.00000000E+00  0.00000000E+00
  0.00000000E+00  0.00000000E+00  0.00000000E+00
  0.00000000E+00  0.00000000E+00  0.00000000E+00
  0.00000000E+00  0.00000000E+00  0.00000000E+00
  0.00000000E+00  0.00000000E+00  0.00000000E+00
  0.00000000E+00  0.00000000E+00  0.00000000E+00
  0.00000000E+00  0.00000000E+00  0.00000000E+00
  0.00000000E+00  0.00000000E+00  0.00000000E+00
  0.00000000E+00  0.00000000E+00  0.00000000E+00
  0.00000000E+00  0.00000000E+00  0.00000000E+00
  0.00000000E+00  0.00000000E+00  0.00000000E+00
  0.00000000E+00  0.00000000E+00  0.00000000E+00
  0.00000000E+00  0.00000000E+00  0.00000000E+00
  0.00000000E+00  0.00000000E+00  0.00000000E+00
  0.00000000E+00  0.00000000E+00  0.00000000E+00
  0.00000000E+00  0.00000000E+00  0.00000000E+00
  0.00000000E+00  0.00000000E+00  0.00000000E+00
  0.00000000E+00  0.00000000E+00  0.00000000E+00
  0.00000000E+00  0.00000000E+00  0.00000000E+00
  0.00000000E+00  0.00000000E+00  0.00000000E+00
  0.00000000E+00  0.00000000E+00  0.00000000E+00
  0.00000000E+00  0.00000000E+00  0.00000000E+00
  0.00000000E+00  0.00000000E+00  0.00000000E+00
  0.00000000E+00  0.00000000E+00  0.00000000E+00
  0.00000000E+00  0.00000000E+00  0.00000000E+00
  0.00000000E+00  0.00000000E+00  0.00000000E+00
  0.00000000E+00  0.00000000E+00  0.00000000E+00
  0.00000000E+00  0.00000000E+00  0.00000000E+00
  0.00000000E+00  0.00000000E+00  0.00000000E+00
  0.00000000E+00  0.00000000E+00  0.00000000E+00
  0.00000000E+00  0.00000000E+00  0.00000000E+00
  0.00000000E+00  0.00000000E+00  0.00000000E+00
  0.00000000E+00  0.00000000E+00  0.00000000E+00
  0.00000000E+00  0.00000000E+00  0.00000000E+00
  0.00000000E+00  0.00000000E+00  0.00000000E+00
  0.00000000E+00  0.00000000E+00  0.00000000E+00
  0.00000000E+00  0.00000000E+00  0.00000000E+00
  0.00000000E+00  0.00000000E+00  0.00000000E+00
  0.00000000E+00  0.00000000E+00  0.00000000E+00