CuInSe2gb                               
   1.00000000000000     
     9.7266780392896699    0.0000000000000000    0.0000000000000000
     0.0000000000000000    8.4235502764570693    0.0000000000000000
     0.0000000000000000    0.0000000000000000   45.0000000000000000
   Fe   Mn
   281     7
Direct
  0.0623757240520392  0.0369449036447777  0.1258131205439688
  0.3122846857101000  0.8721761449052470  0.6539492273156345
  0.1870009055863450  0.1205756547135662  0.7871751555784834
  0.4379407713512395  0.2900156315778060  0.3899826620406761
  0.3117770219364162  0.7068345166423452  0.8319996189921841
  0.8119082389875898  0.2065221096465139  0.8322168133160328
  0.3130099570392282  0.3703436019828483  0.1681068595052713
  0.5627363855743405  0.2056330287402625  0.5652712338953667
  0.0616150966938208  0.0377015937866090  0.7429527174092883
  0.8123139823171930  0.8721866663391222  0.5212506003543371
  0.1864954311001406  0.2877435066728797  0.7429016833212410
  0.9375869394539087  0.4569679570256059  0.3459950903257991
  0.9370403216263311  0.2899445181623408  0.3899875603705697
  0.8106247736680736  0.0399091483989799  0.8742029992124877
  0.1878747251806517  0.7885209383396871  0.6099268741304903
  0.5624611946899671  0.0403189179160136  0.3899750733489958
  0.9370869001942296  0.9565604372967823  0.8321850422522817
  0.3120635185011769  0.5389864957965589  0.8742421152527104
  0.6867452952009412  0.2878833388952770  0.7429081658691520
  0.1879514954947392  0.6209338022312745  0.1680874662734423
  0.8125514199411635  0.2056036933788676  0.4785739099575593
  0.8131137637272762  0.5385254105877737  0.6099819452211439
  0.3126382508044597  0.8727432391093223  0.4345602860771117
  0.8134323252704448  0.0401371308115545  0.2571411594854603
  0.6876945284844345  0.9566440186862994  0.3459575975507053
  0.9373926579616007  0.1205180532958139  0.1679301505905531
  0.9377288518404876  0.1227653988220983  0.5212704481375988
  0.5631866633899401  0.5407538082908604  0.2572249327234550
  0.6867667258359665  0.7880407269797637  0.8741018597876681
  0.5629952182349959  0.3706856097644320  0.1680594105962237
  0.4366698615645275  0.7876934804326388  0.7429203849382653
  0.8129556498186823  0.7057165429616992  0.5652999415669954
  0.5620921442080464  0.8701324313784743  0.7871203653439541
  0.6878784598607608  0.1225115929564574  0.5212450571963790
  0.8123019554706862  0.3721021763749214  0.6539937031662901
  0.9360097195595632  0.4567449469124444  0.8320606111767229
  0.0622927379966730  0.2050687213729453  0.6985459889495226
  0.4376088400202055  0.9552370455040885  0.6985839493865018
  0.3106557621830973  0.2059665457102296  0.8323342332396101
  0.4371873730092941  0.6219139125179411  0.6539980233022609
  0.3130572157833587  0.5384085001864940  0.6099590711305612
  0.9377359041479837  0.4555199132661470  0.5652378976389294
  0.6868082364593161  0.7881434690086334  0.7429019686731956
  0.9378614140277378  0.7873669185803585  0.1259389901966242
  0.6874171295608561  0.7900348817416505  0.3899439175295853
  0.9367952758757161  0.7878994005515536  0.7428448243254406
  0.0627832219405280  0.2068673900768179  0.3459855704165913
  0.8126322129734697  0.0402379994665932  0.3899632723137105
  0.4369122821845247  0.1200535875536942  0.7871023029606383
  0.0625949921637772  0.2066334205864538  0.2129091451568009
  0.0628632608737683  0.3708911115789534  0.1680127144325322
  0.9380350740740512  0.7904954799505260  0.2570952501192175
  0.5624077389243780  0.2049836071225700  0.6985661748742465
  0.6873665415779450  0.9549765948987431  0.6985802191203714
  0.4373907018769097  0.7870451108854891  0.1259587823621762
  0.4377049580336646  0.9557160836365842  0.5652510319830173
  0.8119957492517594  0.3700152964285545  0.7870114439498728
  0.6885643672680041  0.2904864673081946  0.2571383341159145
  0.1877082702382175  0.4555343878711742  0.5652327958011867
  0.0633988836706282  0.8707344416809192  0.1680696609892163
  0.1880829099059315  0.2882588112146461  0.6099389757780731
  0.5626973597899486  0.7068567707238208  0.3459492030435067
  0.3123988382734215  0.2053083539467873  0.6985593831881917
  0.5617464792005469  0.5395849373637021  0.8741872809762190
  0.0626300256862196  0.7052556940708685  0.5652307088318014
  0.6870975106046309  0.6203600535811605  0.7871466165371483
  0.3125285439983264  0.5400785030608718  0.3899738565251561
  0.1880193313927622  0.6224500903817859  0.5212835986848225
  0.5624144356006554  0.8729659050285795  0.4346425427560058
  0.4377799341926489  0.4556671655838931  0.5652574311637023
  0.4369110073057159  0.2878682827251209  0.7429306041012999
  0.8128453064587022  0.8742439726666206  0.3014121434855802
  0.8127038554372124  0.7068320652708618  0.3459610209913375
  0.4367537685193971  0.4562579849427485  0.8320373055878224
  0.6876745622402244  0.9554977228971264  0.4785976041292153
  0.6873741454428083  0.4549488173723399  0.6985846029213297
  0.5627855904331315  0.8725572682546195  0.5212271795409299
  0.5624434279786213  0.3717886658965447  0.6539411441264196
  0.8122262263316825  0.8718925622782969  0.6540242467336793
  0.8124364126249181  0.3729059334233124  0.4346368980888553
  0.8134556183639103  0.5405900295022386  0.2572395631587576
  0.6864491294510906  0.4560184160012108  0.8319591923709617
  0.1875839942055078  0.7868323842023345  0.1259837412238123
  0.6874820869024711  0.2900039943437581  0.3899351893282719
  0.3123190356434610  0.3720459013081501  0.6539899664171583
  0.3126489905570236  0.2069114832846306  0.3459691510582137
  0.8115797808893839  0.5374665962346475  0.7429247851254711
  0.6862495969501191  0.9565577490097591  0.8320050994841687
  0.5621867210563287  0.8718796052392174  0.6539901038050754
  0.3125561275156273  0.7056708406886165  0.5652767805073647
  0.3123584386591557  0.5376571423863868  0.1259183524601059
  0.6877649242944331  0.9568189037405572  0.2129343088249441
  0.3128265065640330  0.2056565247219868  0.5652252356909523
  0.1879729938397746  0.9556763421736225  0.4786736985413722
  0.6877365002361063  0.9557965896312359  0.5652362432485091
  0.4380679256033257  0.7885157540207236  0.6099338829183630
  0.6879076255228279  0.6199646777369987  0.1680819420292829
  0.3128621667364864  0.8738452311613570  0.3014189812582084
  0.3125422267347888  0.7056325274645117  0.4786238676971732
  0.9380607796271451  0.2883597177847043  0.6099834772844713
  0.4380567302047701  0.6236615194708616  0.3013527340899719
  0.8131075073566422  0.8701054558318136  0.1680117045574395
  0.5631181194976064  0.2065036239874052  0.2129068736811152
  0.9379375226824912  0.6198507004549838  0.1680855615921783
  0.9368202778526232  0.7875924815308810  0.8742031535916290
  0.5617123636324239  0.3699840202655916  0.7871014509698855
  0.0627283944735148  0.3724368280591812  0.5212329280341237
  0.5626894939306020  0.3725507990168036  0.5212586381673316
  0.6877662430351749  0.1239622442392233  0.3014450308377196
  0.4369210334387047  0.9556953088838636  0.8320788573757902
  0.1881573485809299  0.2871508794722332  0.1259206410554096
  0.8118541374153655  0.8699522093040718  0.7870209214350378
  0.3124808513453127  0.3727729160371354  0.4346355702451192
  0.5620630235374379  0.0371222055106277  0.1258630318232707
  0.4381152574852484  0.2884671877781979  0.6099237370045786
  0.1877257753505455  0.4568038149356048  0.3459743836973735
  0.4368914301411873  0.2871902875907129  0.1259227825430908
  0.6884958873279523  0.7905776562654149  0.2571228060704548
  0.4376357144196963  0.1225846711314047  0.5212359585922357
  0.1877630079811178  0.2881530809124905  0.8743366387335191
  0.1872666025384565  0.1220492162453591  0.6540217476550929
  0.9371951864526221  0.1218136891645861  0.6540139113110199
  0.3129039172362642  0.2065706492560210  0.2129412873361812
  0.0624054429468431  0.0397814009631855  0.3899876720119037
  0.1879333094883622  0.1201732758842689  0.1680780847729166
  0.0630925816360132  0.5382079862003998  0.6099853307945949
  0.9381487119501082  0.2905263470673199  0.2571411500946058
  0.5631718924394947  0.5384972762778730  0.6099335007390168
  0.9376310605345186  0.9557262132014778  0.5652577938855150
  0.6877064868578331  0.6240054392182397  0.3014543131024783
  0.9375178492945474  0.6228476477138427  0.4345404540095491
  0.9369636939311671  0.6205501385565293  0.7871486095390521
  0.5623120699704424  0.7049562537503501  0.6985620215433774
  0.0611545278479626  0.7076578637279347  0.8322309623437346
  0.9380309121576459  0.1240636396711550  0.3014455670024909
  0.9381802317785394  0.7885329657638653  0.6099163726790359
  0.4388346749093837  0.7904905083435896  0.2571456425348331
  0.3119552156574978  0.3699272497353451  0.7871218474573051
  0.4377114985164683  0.4566267295817858  0.2130350549374609
  0.1875878352041555  0.1227681463938485  0.5212649338063124
  0.8126570581762876  0.7051905957649982  0.6986249785788067
  0.0630497778814013  0.0382071531827463  0.6099058506854023
  0.5614682474175969  0.2064802841777357  0.8320310674999105
  0.3130387791084945  0.8721237393300058  0.5212830204044344
  0.6877802678332380  0.2872301555494302  0.1256605353930419
  0.1878087399684815  0.9570111459236994  0.2130716095337278
  0.6879926270377748  0.2885909711069963  0.6099627026844551
  0.3132127728522721  0.0383677865034899  0.6100360202944993
  0.9371702803088060  0.1202941390237951  0.7871898948018790
  0.4367062031298538  0.7884788084368642  0.8742093591934702
  0.8118199017516409  0.0378769565315930  0.7429099351927104
  0.9375369637094081  0.4548391205675526  0.6985723425514307
  0.1874421343585547  0.6219282759448230  0.6540148346787859
  0.3125930089586009  0.7051445345607520  0.6985639180529097
  0.9370644039510585  0.2872961261923856  0.1256243719675735
  0.4376597827972957  0.4554957120245520  0.4786031346084126
  0.0625296413627193  0.7049896104728371  0.4786889577593891
  0.9374374070415892  0.1229735425250911  0.4345470051232829
  0.4377061185436198  0.1240215998480931  0.3014594893122960
  0.1874933770365717  0.1228697561020325  0.4345152760620432
  0.5624288140682255  0.0390335053354392  0.8742614296595671
  0.1878284739040390  0.9557820806146211  0.5652505148471916
  0.6871099149312653  0.7872911884326103  0.1259696571708049
  0.5624531914139473  0.5375470832099501  0.1258708722947740
  0.3125585981176051  0.0399678089283764  0.3899937152979663
  0.6883994473277618  0.1207541896250849  0.1680279152064663
  0.8128471002053262  0.2062260370906831  0.2128711062017179
  0.0633325577418569  0.5403742014381534  0.2571469002157438
  0.5627323072567898  0.7056416860898718  0.4786026454016861
  0.0627718977290755  0.2053155918004035  0.5652757289137839
  0.5628635048729256  0.3739963098910219  0.3014238116728292
  0.4376506773153345  0.9565676677956988  0.3459621142291801
  0.1873542880832185  0.9550885104400160  0.6986065838947524
  0.4379033302432751  0.6207466333947353  0.1681960422629065
  0.9382990484979051  0.4568093781668044  0.2130283554498070
  0.0622843265076553  0.5375284954379217  0.1258316408884659
  0.8124929326257160  0.3724016657452378  0.5212501773900198
  0.9375336944486984  0.6238790403600629  0.3013803851832158
  0.3134006468454383  0.0403109447310730  0.2571512814886399
  0.6880199669230974  0.7884778269978578  0.6099454181567651
  0.1863507585386760  0.4567537764836623  0.8321231732844958
  0.4380252618115800  0.1201199145511679  0.1680096757697165
  0.3129933582592690  0.3724815324030158  0.5212320269336977
  0.4369890527848329  0.6202700765106535  0.7871511031485330
  0.0632219537934755  0.0404453099982489  0.2571209244854283
  0.5626541904158279  0.7056339085295797  0.5652169531898498
  0.9369833664051868  0.2874650930513450  0.7429292496241111
  0.6870408651689491  0.1203253162943835  0.7871172039432206
  0.1876077354877069  0.4568207027241298  0.2129949976446581
  0.9373575616548698  0.7901612222704633  0.3899713234769484
  0.6871244143956515  0.2888936729284249  0.8743223776241101
  0.3131324545568462  0.8709617902245448  0.1681723911368021
  0.4374931888041282  0.4550453702687511  0.6985420879703272
  0.9378486692711143  0.9567335036195710  0.3459501071799390
  0.6877718094700205  0.6224258734530850  0.5212587750440919
  0.0622553414764261  0.8719089357062881  0.6540090593720747
  0.0616621606113829  0.8698701719415989  0.7871238058202715
  0.0621025014332381  0.3721030494733946  0.6539400780322945
  0.6876022661940262  0.4555903951861776  0.4785679680447337
  0.1883945337122210  0.7903957603673686  0.2571974031643908
  0.4375444361589310  0.1226708632441560  0.4346377818761299
  0.8125246687526990  0.0382491886246314  0.1258027961021758
  0.9375173230556719  0.6224021290180698  0.5212636449489220
  0.0624252920391697  0.8726542334169620  0.4348856353726742
  0.8122911119356943  0.5373492885129932  0.1256142231534885
  0.4378802078720083  0.4568012133287024  0.3459889546614670
  0.8127228507347137  0.2068649895729344  0.3459256525923003
  0.3127797632482406  0.7068233922516511  0.3460017967233747
  0.6873586377999318  0.1218599586768291  0.6539671476935640
  0.5628214770288510  0.8740915859448400  0.3014308053996348
  0.0613945733746634  0.5374939070309124  0.7429497477301522
  0.9378106112102452  0.9568456378081697  0.2129171196490642
  0.8127905107560891  0.7063453460618306  0.2128739933236661
  0.0627789914954343  0.8738838637766532  0.3013956095995349
  0.1877988480966602  0.1243216952184228  0.3014246282419629
  0.0625459016189374  0.7066035057964146  0.3459230749030083
  0.8128741820221318  0.0385682634957210  0.6100108924526068
  0.0624807022514286  0.3727162797228637  0.4346351363892935
  0.5626852677912842  0.2068017595548717  0.3459403341803253
  0.8126999366920118  0.3739997631489205  0.3014003536784264
  0.4375889104384120  0.9555166669922999  0.4786369398114901
  0.5623719651841634  0.5396294040473981  0.3898978218796288
  0.0626326615648012  0.2052147919461038  0.4786392836569309
  0.3126350138907487  0.8695801984793742  0.7870124387323100
  0.9374021943158413  0.9548984250047058  0.6985663054261967
  0.0627088730197722  0.3740564482244055  0.3014623474413549
  0.6873598777711591  0.6219032512831916  0.6539830614217391
  0.6877763854579512  0.4556342927047607  0.5652667447551081
  0.4379551628673035  0.9568610172517766  0.2130280011784712
  0.3127414871757436  0.2055488207197871  0.4785745579718335
  0.4371627786228387  0.1219765987502077  0.6539761368925382
  0.6874160174213295  0.6228743099118632  0.4346598544717185
  0.8124268412410165  0.2050239217877230  0.6985055510247749
  0.8126913722980423  0.7057248674398757  0.4785690231283485
  0.8123954764298028  0.8728377986347777  0.4345475652948249
  0.9372301370895031  0.9556166632365105  0.4786891021222021
  0.5626344584837027  0.2055486084166951  0.4785985656754455
  0.1875528437059676  0.6226089169600618  0.4345886877110021
  0.3116176515837129  0.0377851879353269  0.7428949889378095
  0.9372579514835824  0.6217439476007203  0.6540354502096719
  0.5617151674820414  0.7060651068136272  0.8320662970900078
  0.3128931398644023  0.3741029394123490  0.3014715707790274
  0.5629833725089172  0.7064596568575578  0.2129619169469199
  0.1876687877881792  0.4554419220172476  0.4786339721983800
  0.3121677324285564  0.0401693378462369  0.8744123169751825
  0.1874733986453432  0.4549126459876828  0.6986021760103802
  0.8115850169124511  0.5390138329208763  0.8742286959141460
  0.1875044733149153  0.2899143549064442  0.3899967725554814
  0.4373780475409564  0.6228617351730912  0.4346304598408856
  0.0627855211457324  0.7066818579177299  0.2129418816191070
  0.5625263345621255  0.3729224506807996  0.4346233934637955
  0.4375255894665375  0.6223612291227207  0.5212500206027730
  0.8112873756158037  0.7060218614148129  0.8318715845266609
  0.0620043040156719  0.3707432943023803  0.7870876881684408
  0.4367982864005382  0.2892534743784195  0.8743119463758049
  0.3124761679390063  0.0374543457923305  0.1258018605131926
  0.6874931411539124  0.1228070611385538  0.4346331896890498
  0.1877429380135506  0.9565278634254895  0.3459859122937194
  0.0618347628419175  0.2056607209138026  0.8322130137020366
  0.5630781173596723  0.0384413934676534  0.6099245893229690
  0.6874950777037444  0.4569957492184130  0.2129956916420846
  0.1867099815775336  0.7877296045129127  0.7428695772902191
  0.1875651437926543  0.6237948694976188  0.3013828726325558
  0.4376667403333429  0.7900333501994762  0.3899474486127864
  0.4386730844542986  0.2902717887970744  0.2571357372842956
  0.0614194819523131  0.5391948931962205  0.8742293239537766
  0.5619670582788355  0.0379585122974562  0.7429707343862716
  0.1867031615888881  0.7880027116874762  0.8744570072307326
  0.9376101858157668  0.4554948351599908  0.4785828809618589
  0.8126337349420403  0.5397028284497996  0.3898799592819086
  0.8126516281720657  0.2055020986782375  0.5652116736275696
  0.1871590019327334  0.6205783446138365  0.7871886762562282
  0.0624399579276408  0.5400164179511661  0.3899816348835953
  0.0626740937698205  0.7050998365053587  0.6985790536658794
  0.3135252705858414  0.5403420482355343  0.2571749426723198
  0.3127744961219729  0.7066746329875574  0.2129576290113213
  0.5625373550610145  0.8704285006544883  0.1680548987883329
  0.5621712154001556  0.5376393602512965  0.7428423758012487
  0.6876886792609544  0.4567492935497112  0.3459457632367501
  0.9359594427239851  0.2890989349139042  0.8743177329568859
  0.5634615292277086  0.0401960369125856  0.2571258287307794
  0.0623701776304025  0.0383399834688588  0.8743368445474216
  0.1873856425117280  0.7901621940344233  0.3897845680311379
  0.8130137759541538  0.3701424896778766  0.1673711757739356
  0.1855352075413887  0.9570848435275355  0.8327240874053925
  0.0627466352575243  0.8725533066706999  0.5211476839890776
  0.1886065415393015  0.2901536870795295  0.2570875304424438
  0.3116226471763594  0.5376295663072176  0.7430513897359973
 
  0.00000000E+00  0.00000000E+00  0.00000000E+00
  0.00000000E+00  0.00000000E+00  0.00000000E+00
  0.00000000E+00  0.00000000E+00  0.00000000E+00
  0.00000000E+00  0.00000000E+00  0.00000000E+00
  0.00000000E+00  0.00000000E+00  0.00000000E+00
  0.00000000E+00  0.00000000E+00  0.00000000E+00
  0.00000000E+00  0.00000000E+00  0.00000000E+00
  0.00000000E+00  0.00000000E+00  0.00000000E+00
  0.00000000E+00  0.00000000E+00  0.00000000E+00
  0.00000000E+00  0.00000000E+00  0.00000000E+00
  0.00000000E+00  0.00000000E+00  0.00000000E+00
  0.00000000E+00  0.00000000E+00  0.00000000E+00
  0.00000000E+00  0.00000000E+00  0.00000000E+00
  0.00000000E+00  0.00000000E+00  0.00000000E+00
  0.00000000E+00  0.00000000E+00  0.00000000E+00
  0.00000000E+00  0.00000000E+00  0.00000000E+00
  0.00000000E+00  0.00000000E+00  0.00000000E+00
  0.00000000E+00  0.00000000E+00  0.00000000E+00
  0.00000000E+00  0.00000000E+00  0.00000000E+00
  0.00000000E+00  0.00000000E+00  0.00000000E+00
  0.00000000E+00  0.00000000E+00  0.00000000E+00
  0.00000000E+00  0.00000000E+00  0.00000000E+00
  0.00000000E+00  0.00000000E+00  0.00000000E+00
  0.00000000E+00  0.00000000E+00  0.00000000E+00
  0.00000000E+00  0.00000000E+00  0.00000000E+00
  0.00000000E+00  0.00000000E+00  0.00000000E+00
  0.00000000E+00  0.00000000E+00  0.00000000E+00
  0.00000000E+00  0.00000000E+00  0.00000000E+00
  0.00000000E+00  0.00000000E+00  0.00000000E+00
  0.00000000E+00  0.00000000E+00  0.00000000E+00
  0.00000000E+00  0.00000000E+00  0.00000000E+00
  0.00000000E+00  0.00000000E+00  0.00000000E+00
  0.00000000E+00  0.00000000E+00  0.00000000E+00
  0.00000000E+00  0.00000000E+00  0.00000000E+00
  0.00000000E+00  0.00000000E+00  0.00000000E+00
  0.00000000E+00  0.00000000E+00  0.00000000E+00
  0.00000000E+00  0.00000000E+00  0.00000000E+00
  0.00000000E+00  0.00000000E+00  0.00000000E+00
  0.00000000E+00  0.00000000E+00  0.00000000E+00
  0.00000000E+00  0.00000000E+00  0.00000000E+00
  0.00000000E+00  0.00000000E+00  0.00000000E+00
  0.00000000E+00  0.00000000E+00  0.00000000E+00
  0.00000000E+00  0.00000000E+00  0.00000000E+00
  0.00000000E+00  0.00000000E+00  0.00000000E+00
  0.00000000E+00  0.00000000E+00  0.00000000E+00
  0.00000000E+00  0.00000000E+00  0.00000000E+00
  0.00000000E+00  0.00000000E+00  0.00000000E+00
  0.00000000E+00  0.00000000E+00  0.00000000E+00
  0.00000000E+00  0.00000000E+00  0.00000000E+00
  0.00000000E+00  0.00000000E+00  0.00000000E+00
  0.00000000E+00  0.00000000E+00  0.00000000E+00
  0.00000000E+00  0.00000000E+00  0.00000000E+00
  0.00000000E+00  0.00000000E+00  0.00000000E+00
  0.00000000E+00  0.00000000E+00  0.00000000E+00
  0.00000000E+00  0.00000000E+00  0.00000000E+00
  0.00000000E+00  0.00000000E+00  0.00000000E+00
  0.00000000E+00  0.00000000E+00  0.00000000E+00
  0.00000000E+00  0.00000000E+00  0.00000000E+00
  0.00000000E+00  0.00000000E+00  0.00000000E+00
  0.00000000E+00  0.00000000E+00  0.00000000E+00
  0.00000000E+00  0.00000000E+00  0.00000000E+00
  0.00000000E+00  0.00000000E+00  0.00000000E+00
  0.00000000E+00  0.00000000E+00  0.00000000E+00
  0.00000000E+00  0.00000000E+00  0.00000000E+00
  0.00000000E+00  0.00000000E+00  0.00000000E+00
  0.00000000E+00  0.00000000E+00  0.00000000E+00
  0.00000000E+00  0.00000000E+00  0.00000000E+00
  0.00000000E+00  0.00000000E+00  0.00000000E+00
  0.00000000E+00  0.00000000E+00  0.00000000E+00
  0.00000000E+00  0.00000000E+00  0.00000000E+00
  0.00000000E+00  0.00000000E+00  0.00000000E+00
  0.00000000E+00  0.00000000E+00  0.00000000E+00
  0.00000000E+00  0.00000000E+00  0.00000000E+00
  0.00000000E+00  0.00000000E+00  0.00000000E+00
  0.00000000E+00  0.00000000E+00  0.00000000E+00
  0.00000000E+00  0.00000000E+00  0.00000000E+00
  0.00000000E+00  0.00000000E+00  0.00000000E+00
  0.00000000E+00  0.00000000E+00  0.00000000E+00
  0.00000000E+00  0.00000000E+00  0.00000000E+00
  0.00000000E+00  0.00000000E+00  0.00000000E+00
  0.00000000E+00  0.00000000E+00  0.00000000E+00
  0.00000000E+00  0.00000000E+00  0.00000000E+00
  0.00000000E+00  0.00000000E+00  0.00000000E+00
  0.00000000E+00  0.00000000E+00  0.00000000E+00
  0.00000000E+00  0.00000000E+00  0.00000000E+00
  0.00000000E+00  0.00000000E+00  0.00000000E+00
  0.00000000E+00  0.00000000E+00  0.00000000E+00
  0.00000000E+00  0.00000000E+00  0.00000000E+00
  0.00000000E+00  0.00000000E+00  0.00000000E+00
  0.00000000E+00  0.00000000E+00  0.00000000E+00
  0.00000000E+00  0.00000000E+00  0.00000000E+00
  0.00000000E+00  0.00000000E+00  0.00000000E+00
  0.00000000E+00  0.00000000E+00  0.00000000E+00
  0.00000000E+00  0.00000000E+00  0.00000000E+00
  0.00000000E+00  0.00000000E+00  0.00000000E+00
  0.00000000E+00  0.00000000E+00  0.00000000E+00
  0.00000000E+00  0.00000000E+00  0.00000000E+00
  0.00000000E+00  0.00000000E+00  0.00000000E+00
  0.00000000E+00  0.00000000E+00  0.00000000E+00
  0.00000000E+00  0.00000000E+00  0.00000000E+00
  0.00000000E+00  0.00000000E+00  0.00000000E+00
  0.00000000E+00  0.00000000E+00  0.00000000E+00
  0.00000000E+00  0.00000000E+00  0.00000000E+00
  0.00000000E+00  0.00000000E+00  0.00000000E+00
  0.00000000E+00  0.00000000E+00  0.00000000E+00
  0.00000000E+00  0.00000000E+00  0.00000000E+00
  0.00000000E+00  0.00000000E+00  0.00000000E+00
  0.00000000E+00  0.00000000E+00  0.00000000E+00
  0.00000000E+00  0.00000000E+00  0.00000000E+00
  0.00000000E+00  0.00000000E+00  0.00000000E+00
  0.00000000E+00  0.00000000E+00  0.00000000E+00
  0.00000000E+00  0.00000000E+00  0.00000000E+00
  0.00000000E+00  0.00000000E+00  0.00000000E+00
  0.00000000E+00  0.00000000E+00  0.00000000E+00
  0.00000000E+00  0.00000000E+00  0.00000000E+00
  0.00000000E+00  0.00000000E+00  0.00000000E+00
  0.00000000E+00  0.00000000E+00  0.00000000E+00
  0.00000000E+00  0.00000000E+00  0.00000000E+00
  0.00000000E+00  0.00000000E+00  0.00000000E+00
  0.00000000E+00  0.00000000E+00  0.00000000E+00
  0.00000000E+00  0.00000000E+00  0.00000000E+00
  0.00000000E+00  0.00000000E+00  0.00000000E+00
  0.00000000E+00  0.00000000E+00  0.00000000E+00
  0.00000000E+00  0.00000000E+00  0.00000000E+00
  0.00000000E+00  0.00000000E+00  0.00000000E+00
  0.00000000E+00  0.00000000E+00  0.00000000E+00
  0.00000000E+00  0.00000000E+00  0.00000000E+00
  0.00000000E+00  0.00000000E+00  0.00000000E+00
  0.00000000E+00  0.00000000E+00  0.00000000E+00
  0.00000000E+00  0.00000000E+00  0.00000000E+00
  0.00000000E+00  0.00000000E+00  0.00000000E+00
  0.00000000E+00  0.00000000E+00  0.00000000E+00
  0.00000000E+00  0.00000000E+00  0.00000000E+00
  0.00000000E+00  0.00000000E+00  0.00000000E+00
  0.00000000E+00  0.00000000E+00  0.00000000E+00
  0.00000000E+00  0.00000000E+00  0.00000000E+00
  0.00000000E+00  0.00000000E+00  0.00000000E+00
  0.00000000E+00  0.00000000E+00  0.00000000E+00
  0.00000000E+00  0.00000000E+00  0.00000000E+00
  0.00000000E+00  0.00000000E+00  0.00000000E+00
  0.00000000E+00  0.00000000E+00  0.00000000E+00
  0.00000000E+00  0.00000000E+00  0.00000000E+00
  0.00000000E+00  0.00000000E+00  0.00000000E+00
  0.00000000E+00  0.00000000E+00  0.00000000E+00
  0.00000000E+00  0.00000000E+00  0.00000000E+00
  0.00000000E+00  0.00000000E+00  0.00000000E+00
  0.00000000E+00  0.00000000E+00  0.00000000E+00
  0.00000000E+00  0.00000000E+00  0.00000000E+00
  0.00000000E+00  0.00000000E+00  0.00000000E+00
  0.00000000E+00  0.00000000E+00  0.00000000E+00
  0.00000000E+00  0.00000000E+00  0.00000000E+00
  0.00000000E+00  0.00000000E+00  0.00000000E+00
  0.00000000E+00  0.00000000E+00  0.00000000E+00
  0.00000000E+00  0.00000000E+00  0.00000000E+00
  0.00000000E+00  0.00000000E+00  0.00000000E+00
  0.00000000E+00  0.00000000E+00  0.00000000E+00
  0.00000000E+00  0.00000000E+00  0.00000000E+00
  0.00000000E+00  0.00000000E+00  0.00000000E+00
  0.00000000E+00  0.00000000E+00  0.00000000E+00
  0.00000000E+00  0.00000000E+00  0.00000000E+00
  0.00000000E+00  0.00000000E+00  0.00000000E+00
  0.00000000E+00  0.00000000E+00  0.00000000E+00
  0.00000000E+00  0.00000000E+00  0.00000000E+00
  0.00000000E+00  0.00000000E+00  0.00000000E+00
  0.00000000E+00  0.00000000E+00  0.00000000E+00
  0.00000000E+00  0.00000000E+00  0.00000000E+00
  0.00000000E+00  0.00000000E+00  0.00000000E+00
  0.00000000E+00  0.00000000E+00  0.00000000E+00
  0.00000000E+00  0.00000000E+00  0.00000000E+00
  0.00000000E+00  0.00000000E+00  0.00000000E+00
  0.00000000E+00  0.00000000E+00  0.00000000E+00
  0.00000000E+00  0.00000000E+00  0.00000000E+00
  0.00000000E+00  0.00000000E+00  0.00000000E+00
  0.00000000E+00  0.00000000E+00  0.00000000E+00
  0.00000000E+00  0.00000000E+00  0.00000000E+00
  0.00000000E+00  0.00000000E+00  0.00000000E+00
  0.00000000E+00  0.00000000E+00  0.00000000E+00
  0.00000000E+00  0.00000000E+00  0.00000000E+00
  0.00000000E+00  0.00000000E+00  0.00000000E+00
  0.00000000E+00  0.00000000E+00  0.00000000E+00
  0.00000000E+00  0.00000000E+00  0.00000000E+00
  0.00000000E+00  0.00000000E+00  0.00000000E+00
  0.00000000E+00  0.00000000E+00  0.00000000E+00
  0.00000000E+00  0.00000000E+00  0.00000000E+00
  0.00000000E+00  0.00000000E+00  0.00000000E+00
  0.00000000E+00  0.00000000E+00  0.00000000E+00
  0.00000000E+00  0.00000000E+00  0.00000000E+00
  0.00000000E+00  0.00000000E+00  0.00000000E+00
  0.00000000E+00  0.00000000E+00  0.00000000E+00
  0.00000000E+00  0.00000000E+00  0.00000000E+00
  0.00000000E+00  0.00000000E+00  0.00000000E+00
  0.00000000E+00  0.00000000E+00  0.00000000E+00
  0.00000000E+00  0.00000000E+00  0.00000000E+00
  0.00000000E+00  0.00000000E+00  0.00000000E+00
  0.00000000E+00  0.00000000E+00  0.00000000E+00
  0.00000000E+00  0.00000000E+00  0.00000000E+00
  0.00000000E+00  0.00000000E+00  0.00000000E+00
  0.00000000E+00  0.00000000E+00  0.00000000E+00
  0.00000000E+00  0.00000000E+00  0.00000000E+00
  0.00000000E+00  0.00000000E+00  0.00000000E+00
  0.00000000E+00  0.00000000E+00  0.00000000E+00
  0.00000000E+00  0.00000000E+00  0.00000000E+00
  0.00000000E+00  0.00000000E+00  0.00000000E+00
  0.00000000E+00  0.00000000E+00  0.00000000E+00
  0.00000000E+00  0.00000000E+00  0.00000000E+00
  0.00000000E+00  0.00000000E+00  0.00000000E+00
  0.00000000E+00  0.00000000E+00  0.00000000E+00
  0.00000000E+00  0.00000000E+00  0.00000000E+00
  0.00000000E+00  0.00000000E+00  0.00000000E+00
  0.00000000E+00  0.00000000E+00  0.00000000E+00
  0.00000000E+00  0.00000000E+00  0.00000000E+00
  0.00000000E+00  0.00000000E+00  0.00000000E+00
  0.00000000E+00  0.00000000E+00  0.00000000E+00
  0.00000000E+00  0.00000000E+00  0.00000000E+00
  0.00000000E+00  0.00000000E+00  0.00000000E+00
  0.00000000E+00  0.00000000E+00  0.00000000E+00
  0.00000000E+00  0.00000000E+00  0.00000000E+00
  0.00000000E+00  0.00000000E+00  0.00000000E+00
  0.00000000E+00  0.00000000E+00  0.00000000E+00
  0.00000000E+00  0.00000000E+00  0.00000000E+00
  0.00000000E+00  0.00000000E+00  0.00000000E+00
  0.00000000E+00  0.00000000E+00  0.00000000E+00
  0.00000000E+00  0.00000000E+00  0.00000000E+00
  0.00000000E+00  0.00000000E+00  0.00000000E+00
  0.00000000E+00  0.00000000E+00  0.00000000E+00
  0.00000000E+00  0.00000000E+00  0.00000000E+00
  0.00000000E+00  0.00000000E+00  0.00000000E+00
  0.00000000E+00  0.00000000E+00  0.00000000E+00
  0.00000000E+00  0.00000000E+00  0.00000000E+00
  0.00000000E+00  0.00000000E+00  0.00000000E+00
  0.00000000E+00  0.00000000E+00  0.00000000E+00
  0.00000000E+00  0.00000000E+00  0.00000000E+00
  0.00000000E+00  0.00000000E+00  0.00000000E+00
  0.00000000E+00  0.00000000E+00  0.00000000E+00
  0.00000000E+00  0.00000000E+00  0.00000000E+00
  0.00000000E+00  0.00000000E+00  0.00000000E+00
  0.00000000E+00  0.00000000E+00  0.00000000E+00
  0.00000000E+00  0.00000000E+00  0.00000000E+00
  0.00000000E+00  0.00000000E+00  0.00000000E+00
  0.00000000E+00  0.00000000E+00  0.00000000E+00
  0.00000000E+00  0.00000000E+00  0.00000000E+00
  0.00000000E+00  0.00000000E+00  0.00000000E+00
  0.00000000E+00  0.00000000E+00  0.00000000E+00
  0.00000000E+00  0.00000000E+00  0.00000000E+00
  0.00000000E+00  0.00000000E+00  0.00000000E+00
  0.00000000E+00  0.00000000E+00  0.00000000E+00
  0.00000000E+00  0.00000000E+00  0.00000000E+00