CuInSe2gb                               
   1.00000000000000     
     9.7266780392896699    0.0000000000000000    0.0000000000000000
     0.0000000000000000    8.4235502764570693    0.0000000000000000
     0.0000000000000000    0.0000000000000000   45.0000000000000000
   Fe   Mn
   281     7
Direct
  0.0622179967747741  0.0333907007873128  0.1254861868458017
  0.3109691342028944  0.8717488335529436  0.6540514020612594
  0.1872455525515036  0.1172567232325732  0.7873240205845075
  0.4376312668382920  0.2904633730692865  0.3898032342906261
  0.3108705859496129  0.7100887169436729  0.8320595053758433
  0.8121069446946289  0.2091175538068943  0.8324157067549288
  0.3128555960217824  0.3687288054739201  0.1683404007343852
  0.5624679435395562  0.2071079066844882  0.5649844125120812
  0.0597457983826859  0.0362113564503456  0.7425532105046871
  0.8124550503225803  0.8708497574162181  0.5210972465248511
  0.1871173201288153  0.2873377399718123  0.7428030840217552
  0.9371797031616730  0.4556439254780335  0.3460120569844533
  0.9373111563611062  0.2904348366183190  0.3897629877448896
  0.8110202885530267  0.0362207230518443  0.8743648029147338
  0.1891150937459545  0.7875617278629899  0.6100627134500982
  0.5623665982867629  0.0405433403388757  0.3897649341399674
  0.9369303087085339  0.9593297083186878  0.8323897798122598
  0.3131520930662314  0.5343343008235580  0.8745659347867005
  0.6854655909730224  0.2863320756530586  0.7424798269815998
  0.1889185809431903  0.6197317350165877  0.1683508028711304
  0.8125237363910914  0.2058298302334318  0.4786606407904883
  0.8142019029855769  0.5375112614623212  0.6101213670919087
  0.3124375871516374  0.8720450494589045  0.4346027903284306
  0.8147793867995438  0.0416120324932275  0.2573161179130196
  0.6877213487153269  0.9566674766132170  0.3461113871059975
  0.9377194026179813  0.1176231872379962  0.1676432368685264
  0.9384517728700859  0.1213536049039645  0.5211173390197862
  0.5644957734373520  0.5415870675057255  0.2572707347647628
  0.6865101324748903  0.7905743116955340  0.8745158732716496
  0.5637188220123386  0.3698708081477470  0.1680508297992705
  0.4369858406130435  0.7874305045213653  0.7429099373485756
  0.8126239374292418  0.7071356019133286  0.5649851187976321
  0.5626090024034971  0.8675229245723450  0.7872751889003292
  0.6880427638741110  0.1208622261094411  0.5211226844865844
  0.8111223703132794  0.3718612283746934  0.6540228273688230
  0.9349568005362477  0.4594014827640624  0.8320154661703923
  0.0630361078033949  0.2062471360954862  0.6985589086462738
  0.4375998863596005  0.9561692513954723  0.6985591275644467
  0.3102299326280153  0.2077828243839313  0.8323219236752796
  0.4367016946214338  0.6219830480322754  0.6540240252023700
  0.3140130498644941  0.5373899942592798  0.6101509948286639
  0.9374996295190079  0.4572390296634519  0.5649931910525285
  0.6870735792413083  0.7881101598282388  0.7429693023659695
  0.9380344105899984  0.7910626241035943  0.1255809492363759
  0.6874684987994956  0.7903423432054926  0.3898579665551862
  0.9373290761210025  0.7875696990162686  0.7429534830227152
  0.0625454525609539  0.2067918137614750  0.3461923865065837
  0.8124595590514185  0.0404892124647282  0.3898307253216381
  0.4376147056980149  0.1172060420546675  0.7872649042075656
  0.0621279842765341  0.2079128266409779  0.2128259462010554
  0.0636640508371293  0.3689803035319982  0.1679863635253453
  0.9396967714202414  0.7917414455153445  0.2573025828898580
  0.5635520539356181  0.2067924690311016  0.6987454067908485
  0.6880634032960612  0.9566165504506168  0.6985171041552245
  0.4362201049728796  0.7896816834393418  0.1255668720059826
  0.4374292064488748  0.9570741580837177  0.5649592513265292
  0.8125635076627472  0.3678494175222290  0.7872194073865157
  0.6900091093720553  0.2913173241410643  0.2571691125406853
  0.1875656169244747  0.4571657568620028  0.5649766419259381
  0.0632155076566346  0.8694615145695639  0.1682549635420550
  0.1891943516072246  0.2876174896119063  0.6101580884011653
  0.5626836944020479  0.7053694342763778  0.3460283313268612
  0.3128147371011601  0.2062373278487528  0.6986233963215581
  0.5630504679944702  0.5355581581968282  0.8744590698892291
  0.0623209063139030  0.7071130899843208  0.5648887187681005
  0.6877231560957889  0.6171635954299530  0.7872682532874153
  0.3120441204069466  0.5405245235501198  0.3897944521018973
  0.1880146486627496  0.6205499620601072  0.5210874150877347
  0.5624342383105853  0.8728160512968364  0.4345689563507757
  0.4373259619731450  0.4575027305126420  0.5650196567477722
  0.4342957693320820  0.2876128176333212  0.7426269354313308
  0.8123949868916671  0.8734987686624978  0.3014422170666966
  0.8120664446753941  0.7060759048671784  0.3462116226761822
  0.4352650793987956  0.4586806193308970  0.8320582508104070
  0.6876150040437655  0.9557000505609267  0.4786495335316397
  0.6884959438637007  0.4565290836137660  0.6985959214202205
  0.5629162100003425  0.8708783386541740  0.5211000132683213
  0.5610279653056013  0.3716810612410006  0.6540003783331044
  0.8108774334282598  0.8717143686951924  0.6539726005555785
  0.8125514840452325  0.3728725322285140  0.4346229242921050
  0.8142506748873165  0.5416868879254434  0.2572242575577862
  0.6850265859925875  0.4582904511192243  0.8318612719111229
  0.1883599828327017  0.7896035674432788  0.1256219793393535
  0.6874759778722143  0.2907827753943624  0.3897639206040484
  0.3110456886131533  0.3719052699434927  0.6539603811802039
  0.3127240687776293  0.2068156923123552  0.3462338710555311
  0.8119398480611082  0.5373892899556277  0.7427732122939938
  0.6851473495458748  0.9585013323099572  0.8319146114024885
  0.5610378000306055  0.8720043126564001  0.6539707488155996
  0.3121915280354178  0.7073634995299740  0.5649974498247715
  0.3116366760424706  0.5351960626673093  0.1255485790677938
  0.6874672484601364  0.9580963114679938  0.2128184636358694
  0.3125293859389474  0.2070157615597545  0.5649644183084884
  0.1877943489727319  0.9557779746543121  0.4786952914589371
  0.6878513403396174  0.9571777276867116  0.5649333791693985
  0.4392774972201108  0.7875971840584681  0.6100785017702790
  0.6885392875539897  0.6163524013713123  0.1678733943805303
  0.3120916273164054  0.8733302060887579  0.3014863278486805
  0.3124085677263210  0.7057424598471608  0.4787076552714215
  0.9394567104053996  0.2878057543473762  0.6102105537733808
  0.4373558071545209  0.6243717063569659  0.3015475598393897
  0.8129651387206048  0.8691715729045665  0.1682176280388574
  0.5625730463347470  0.2081543972127985  0.2128731288272977
  0.9388202836971580  0.6161825825030243  0.1678946237908643
  0.9381670076963133  0.7892944373163604  0.8745470324036482
  0.5626924906739084  0.3674045920291684  0.7872378810418805
  0.0630922835810284  0.3707704637247389  0.5211289344768277
  0.5626556405266413  0.3710788579432160  0.5211123663352034
  0.6873928674589631  0.1241351966985362  0.3014811272965915
  0.4369712052020999  0.9582651037478751  0.8322735289681953
  0.1884415854639472  0.2901130490460669  0.1256373766181339
  0.8119076435063973  0.8675971514454682  0.7871025492872389
  0.3123652505240057  0.3729242941312382  0.4346465377427360
  0.5608926230074366  0.0338917258724364  0.1255456434282014
  0.4391899035753657  0.2875503115609780  0.6101161265019852
  0.1877981913933101  0.4565532091696274  0.3463291275306872
  0.4361500380357075  0.2905536040079686  0.1256338592994199
  0.6899567461433260  0.7913503077806835  0.2573876425235640
  0.4378322423791888  0.1208110911057100  0.5210932389142995
  0.1880381007466037  0.2913978272093516  0.8746936023229152
  0.1858080692064008  0.1220427915821247  0.6539651164341405
  0.9362800190915487  0.1224813071656358  0.6540343446939134
  0.3124365048101625  0.2078730425926012  0.2127506765631081
  0.0624426845582838  0.0397872587164617  0.3897755898023094
  0.1888561147205511  0.1180650452776326  0.1679939888706257
  0.0640937850574130  0.5369532034805795  0.6101970873434518
  0.9397686348491692  0.2914623657296187  0.2572916890745338
  0.5641602203806628  0.5375730854549863  0.6101478167835602
  0.9370633153562868  0.9573004946215669  0.5649764654039263
  0.6870334200203925  0.6248585641986945  0.3014469068817429
  0.9369724322494501  0.6225472556499615  0.4345702747861707
  0.9370329522682750  0.6174571347800623  0.7871346105841552
  0.5631302093540285  0.7063099253942293  0.6985383270119775
  0.0608443269301897  0.7113735774039942  0.8325564326147215
  0.9373115818676871  0.1240027675072067  0.3015056230032065
  0.9392975553981520  0.7876950795971986  0.6100960880913990
  0.4404770709068934  0.7914023233144620  0.2573546304919001
  0.3120772906053320  0.3681487403047170  0.7871338962655486
  0.4373898504651773  0.4580417287571596  0.2129371958593383
  0.1876086516268828  0.1212420305054996  0.5211075783545855
  0.8130983158320177  0.7059927248457605  0.6985523536065015
  0.0642302792997617  0.0372283566950537  0.6100906859216100
  0.5604236385813054  0.2096213482153051  0.8319885234537295
  0.3130786532526913  0.8705687519445529  0.5210969979913369
  0.6873237263300758  0.2913611681069648  0.1254739438950962
  0.1875468183252287  0.9581132246120554  0.2129598198505110
  0.6892488001600408  0.2876611814407236  0.6101702615775376
  0.3143224140110338  0.0376448994201403  0.6102357416811540
  0.9377746827377710  0.1171473192161758  0.7872951836373480
  0.4382858296593428  0.7910488477691959  0.8745384340008906
  0.8104037101881657  0.0378093732172485  0.7426435119638825
  0.9377466062880945  0.4574673411687368  0.6987452374486240
  0.1863052976930606  0.6221419593493789  0.6540253053168592
  0.3131761751029374  0.7063221725685315  0.6985754068169171
  0.9369980942818896  0.2911804956838160  0.1254805337336523
  0.4376190076107584  0.4559268977551640  0.4786398904418571
  0.0624491575702441  0.7056147432138636  0.4787051912458129
  0.9374154571489280  0.1230832780185241  0.4346139812359710
  0.4366927182188222  0.1242316848929050  0.3014609389193265
  0.1873575530702235  0.1233796623670247  0.4346443940689527
  0.5632689793194804  0.0346007987695378  0.8745980620107842
  0.1878264775534679  0.9572223180659040  0.5649515001577246
  0.6865582133563357  0.7908278923864323  0.1255787385553858
  0.5612438357063197  0.5349086573717904  0.1254887806878581
  0.3124738474033214  0.0396267863286761  0.3897482040814482
  0.6892497909276076  0.1181644389959058  0.1679386761034637
  0.8121460979110011  0.2076607524169479  0.2128658962425548
  0.0640485220358703  0.5405355857627570  0.2572276480424152
  0.5625473412299413  0.7060909221753667  0.4786640535929672
  0.0625212536830092  0.2069893662556871  0.5649981980071849
  0.5623113416883293  0.3737260043766523  0.3014188837230884
  0.4375597422729534  0.9567848310178205  0.3461471160294369
  0.1882481609822604  0.9568428127925901  0.6985460259954014
  0.4378721430714531  0.6190201030618288  0.1684485444833106
  0.9376329419763868  0.4581874846932305  0.2130693691274367
  0.0622838501704589  0.5349217936073778  0.1254437685382694
  0.8125556897915206  0.3707482304070862  0.5211382366718917
  0.9368800028866712  0.6244468166992780  0.3014741564039303
  0.3148874709676737  0.0413496177612857  0.2574777174419568
  0.6892369475404237  0.7875739648485192  0.6101316235164005
  0.1857138590677155  0.4596692191971589  0.8321633428190766
  0.4387633492496388  0.1177983356340311  0.1677646893791114
  0.3132925848712050  0.3707812980390585  0.5210846791580297
  0.4375523016673907  0.6171104848736541  0.7872849368411589
  0.0649006589351820  0.0417861720576109  0.2573459734886227
  0.5623216146540407  0.7071064139376988  0.5650206407033893
  0.9346990160952197  0.2865514339689004  0.7427172799231133
  0.6872476051704068  0.1172504732678568  0.7873083994027761
  0.1871745897267947  0.4580213786621549  0.2128788787843454
  0.9375457635567147  0.7905768532846568  0.3897349861119538
  0.6874262958651709  0.2921010151115234  0.8747950957054709
  0.3131984885203292  0.8694695587178645  0.1684166821289243
  0.4386308662367159  0.4566978800814998  0.6985229581211087
  0.9383941914094960  0.9564801929885706  0.3462331300469498
  0.6877894462437755  0.6208701875570207  0.5210836693580408
  0.0611283009386785  0.8718457670959501  0.6539520572119991
  0.0619926025512661  0.8681740454465338  0.7870200651473371
  0.0611948762778274  0.3714255027916660  0.6538048625659979
  0.6875396667453775  0.4557907502313736  0.4786597649251970
  0.1896323039178944  0.7913778096759325  0.2573449315245672
  0.4373881160235978  0.1235441722152106  0.4348244686778991
  0.8117510626848488  0.0342057543671522  0.1254051868130001
  0.9377320975631754  0.6206772419923238  0.5211222267789480
  0.0618746902191733  0.8738159927504733  0.4349708719170643
  0.8113486499908588  0.5345090138778801  0.1254250820328434
  0.4384751102489945  0.4561638565891961  0.3461448777752713
  0.8126483245190580  0.2059348630667570  0.3461579442230362
  0.3123759320069420  0.7053492120293100  0.3460192397261037
  0.6860705557642320  0.1216958889036849  0.6538615813205029
  0.5622373823879377  0.8736374612919383  0.3014633269839689
  0.0618783783290548  0.5365059513935905  0.7428867714065859
  0.9372945369400342  0.9579737692862561  0.2128101808891520
  0.8123875092727340  0.7078483739286839  0.2127074546996537
  0.0625221785991175  0.8734927770837989  0.3014768060690031
  0.1869804501429306  0.1243123058503499  0.3013736139412980
  0.0621875769405890  0.7066708224472998  0.3462196947797910
  0.8142505930507590  0.0375241662041204  0.6101325964089201
  0.0625173543925897  0.3727307260268904  0.4346679232169840
  0.5628586405388529  0.2059082474171703  0.3461807705237487
  0.8124953994079543  0.3740875659266176  0.3014712306390712
  0.4375906951523998  0.9557109247007307  0.4786530990295435
  0.5622981260448451  0.5403429595290112  0.3897388541204500
  0.0626040736322689  0.2059371421005808  0.4786303718872044
  0.3132251768541745  0.8677552042077423  0.7870447871732428
  0.9379991404273693  0.9571327560700217  0.6985560947565154
  0.0620909229004517  0.3740702507380680  0.3014674961857799
  0.6863018376063854  0.6222773408913432  0.6540306068275096
  0.6874641852955183  0.4574086287311619  0.5650890716718140
  0.4374762197877357  0.9581064190809085  0.2129164250473830
  0.3125803535698377  0.2059633300219346  0.4786664236925557
  0.4363014287519106  0.1215153090611910  0.6537983746579881
  0.6873956574961771  0.6230924118981549  0.4346824085887815
  0.8132172461632214  0.2061650272261634  0.6986763516808443
  0.8126964829537063  0.7059895779060524  0.4786657408284468
  0.8116782926925687  0.8720054302288920  0.4345440947596044
  0.9372743664313596  0.9557657743148914  0.4787631142351780
  0.5626730519986936  0.2057859922635088  0.4786419533634990
  0.1875857910951174  0.6227464329984603  0.4344869522373578
  0.3108712321861333  0.0371591219479073  0.7427378081598948
  0.9368355902038100  0.6226676280294170  0.6541026291560443
  0.5604021042064564  0.7090066760943717  0.8318346189602950
  0.3123606752955644  0.3736441713283920  0.3014312500134792
  0.5621971979490075  0.7078608149430187  0.2127725959086357
  0.1877097317757176  0.4557372091188895  0.4786971541689289
  0.3130919594852168  0.0364616677115839  0.8744651479307095
  0.1879610614266484  0.4574381912060118  0.6987002881921491
  0.8109073286924374  0.5352558704078900  0.8746500884399547
  0.1876361089581875  0.2903743021214698  0.3897614934593146
  0.4374756082841365  0.6232634390722018  0.4346652251820770
  0.0622777432123799  0.7079591393983172  0.2127322950629319
  0.5623848736678545  0.3723592409599997  0.4346147667834572
  0.4375560716772302  0.6208298271935844  0.5211238546700860
  0.8098156987395473  0.7085083818913607  0.8316026358635047
  0.0627898766205422  0.3680816175119517  0.7871164763921764
  0.4375614487090091  0.2922239341831147  0.8747844686956966
  0.3117406591963112  0.0339965196232089  0.1254362087375293
  0.6873957698111094  0.1232378781144949  0.4346643053819280
  0.1877388834962940  0.9562315510395036  0.3463201685016620
  0.0617764719862696  0.2089748505647408  0.8325911544165956
  0.5642146739964211  0.0375966770838537  0.6102232960869303
  0.6868608367794055  0.4579095009196518  0.2130775441715734
  0.1872322670680992  0.7870213329707503  0.7429697221560970
  0.1874330877752051  0.6238087340558039  0.3015796684020363
  0.4376410388496845  0.7906522397305465  0.3897991364284608
  0.4396827195035198  0.2913384471487109  0.2573923785674032
  0.0614219140848127  0.5355021086308450  0.8745159812340820
  0.5620082507162707  0.0374265988694357  0.7427658425163498
  0.1861041406178867  0.7904764233732210  0.8745406507627962
  0.9375822149003312  0.4556992955652346  0.4786820601076842
  0.8125611326460117  0.5403639670198584  0.3898181564057656
  0.8123629651986373  0.2070655689607934  0.5648899883006462
  0.1875902325074804  0.6169870334227323  0.7872173778555993
  0.0627811046436333  0.5409178024695894  0.3898237183980106
  0.0631371388915666  0.7060947282792178  0.6986195241430067
  0.3129699281440196  0.5400639458874436  0.2573445671208691
  0.3123449364495907  0.7080928709004632  0.2127070388623866
  0.5630695548798308  0.8693460737368359  0.1683645913256920
  0.5595245931640563  0.5385438433498728  0.7425430622196152
  0.6879719114584814  0.4563269764139714  0.3460347735227121
  0.9361013529845509  0.2914047861324743  0.8745695515042802
  0.5643529025719970  0.0411004407429248  0.2573541596016635
  0.0622964244753892  0.0336590518314511  0.8744827686751206
  0.1872906171023876  0.7906402267412318  0.3896100157350512
  0.8129741266946487  0.3688258247020775  0.1671102892490631
  0.1853937339372348  0.9601686468129201  0.8329581396251313
  0.0629339071418422  0.8704233660540154  0.5210764088831150
  0.1898956464602512  0.2909442166205488  0.2572130807686320
  0.3106013278469344  0.5361856825714326  0.7430850553206233
 
  0.00000000E+00  0.00000000E+00  0.00000000E+00
  0.00000000E+00  0.00000000E+00  0.00000000E+00
  0.00000000E+00  0.00000000E+00  0.00000000E+00
  0.00000000E+00  0.00000000E+00  0.00000000E+00
  0.00000000E+00  0.00000000E+00  0.00000000E+00
  0.00000000E+00  0.00000000E+00  0.00000000E+00
  0.00000000E+00  0.00000000E+00  0.00000000E+00
  0.00000000E+00  0.00000000E+00  0.00000000E+00
  0.00000000E+00  0.00000000E+00  0.00000000E+00
  0.00000000E+00  0.00000000E+00  0.00000000E+00
  0.00000000E+00  0.00000000E+00  0.00000000E+00
  0.00000000E+00  0.00000000E+00  0.00000000E+00
  0.00000000E+00  0.00000000E+00  0.00000000E+00
  0.00000000E+00  0.00000000E+00  0.00000000E+00
  0.00000000E+00  0.00000000E+00  0.00000000E+00
  0.00000000E+00  0.00000000E+00  0.00000000E+00
  0.00000000E+00  0.00000000E+00  0.00000000E+00
  0.00000000E+00  0.00000000E+00  0.00000000E+00
  0.00000000E+00  0.00000000E+00  0.00000000E+00
  0.00000000E+00  0.00000000E+00  0.00000000E+00
  0.00000000E+00  0.00000000E+00  0.00000000E+00
  0.00000000E+00  0.00000000E+00  0.00000000E+00
  0.00000000E+00  0.00000000E+00  0.00000000E+00
  0.00000000E+00  0.00000000E+00  0.00000000E+00
  0.00000000E+00  0.00000000E+00  0.00000000E+00
  0.00000000E+00  0.00000000E+00  0.00000000E+00
  0.00000000E+00  0.00000000E+00  0.00000000E+00
  0.00000000E+00  0.00000000E+00  0.00000000E+00
  0.00000000E+00  0.00000000E+00  0.00000000E+00
  0.00000000E+00  0.00000000E+00  0.00000000E+00
  0.00000000E+00  0.00000000E+00  0.00000000E+00
  0.00000000E+00  0.00000000E+00  0.00000000E+00
  0.00000000E+00  0.00000000E+00  0.00000000E+00
  0.00000000E+00  0.00000000E+00  0.00000000E+00
  0.00000000E+00  0.00000000E+00  0.00000000E+00
  0.00000000E+00  0.00000000E+00  0.00000000E+00
  0.00000000E+00  0.00000000E+00  0.00000000E+00
  0.00000000E+00  0.00000000E+00  0.00000000E+00
  0.00000000E+00  0.00000000E+00  0.00000000E+00
  0.00000000E+00  0.00000000E+00  0.00000000E+00
  0.00000000E+00  0.00000000E+00  0.00000000E+00
  0.00000000E+00  0.00000000E+00  0.00000000E+00
  0.00000000E+00  0.00000000E+00  0.00000000E+00
  0.00000000E+00  0.00000000E+00  0.00000000E+00
  0.00000000E+00  0.00000000E+00  0.00000000E+00
  0.00000000E+00  0.00000000E+00  0.00000000E+00
  0.00000000E+00  0.00000000E+00  0.00000000E+00
  0.00000000E+00  0.00000000E+00  0.00000000E+00
  0.00000000E+00  0.00000000E+00  0.00000000E+00
  0.00000000E+00  0.00000000E+00  0.00000000E+00
  0.00000000E+00  0.00000000E+00  0.00000000E+00
  0.00000000E+00  0.00000000E+00  0.00000000E+00
  0.00000000E+00  0.00000000E+00  0.00000000E+00
  0.00000000E+00  0.00000000E+00  0.00000000E+00
  0.00000000E+00  0.00000000E+00  0.00000000E+00
  0.00000000E+00  0.00000000E+00  0.00000000E+00
  0.00000000E+00  0.00000000E+00  0.00000000E+00
  0.00000000E+00  0.00000000E+00  0.00000000E+00
  0.00000000E+00  0.00000000E+00  0.00000000E+00
  0.00000000E+00  0.00000000E+00  0.00000000E+00
  0.00000000E+00  0.00000000E+00  0.00000000E+00
  0.00000000E+00  0.00000000E+00  0.00000000E+00
  0.00000000E+00  0.00000000E+00  0.00000000E+00
  0.00000000E+00  0.00000000E+00  0.00000000E+00
  0.00000000E+00  0.00000000E+00  0.00000000E+00
  0.00000000E+00  0.00000000E+00  0.00000000E+00
  0.00000000E+00  0.00000000E+00  0.00000000E+00
  0.00000000E+00  0.00000000E+00  0.00000000E+00
  0.00000000E+00  0.00000000E+00  0.00000000E+00
  0.00000000E+00  0.00000000E+00  0.00000000E+00
  0.00000000E+00  0.00000000E+00  0.00000000E+00
  0.00000000E+00  0.00000000E+00  0.00000000E+00
  0.00000000E+00  0.00000000E+00  0.00000000E+00
  0.00000000E+00  0.00000000E+00  0.00000000E+00
  0.00000000E+00  0.00000000E+00  0.00000000E+00
  0.00000000E+00  0.00000000E+00  0.00000000E+00
  0.00000000E+00  0.00000000E+00  0.00000000E+00
  0.00000000E+00  0.00000000E+00  0.00000000E+00
  0.00000000E+00  0.00000000E+00  0.00000000E+00
  0.00000000E+00  0.00000000E+00  0.00000000E+00
  0.00000000E+00  0.00000000E+00  0.00000000E+00
  0.00000000E+00  0.00000000E+00  0.00000000E+00
  0.00000000E+00  0.00000000E+00  0.00000000E+00
  0.00000000E+00  0.00000000E+00  0.00000000E+00
  0.00000000E+00  0.00000000E+00  0.00000000E+00
  0.00000000E+00  0.00000000E+00  0.00000000E+00
  0.00000000E+00  0.00000000E+00  0.00000000E+00
  0.00000000E+00  0.00000000E+00  0.00000000E+00
  0.00000000E+00  0.00000000E+00  0.00000000E+00
  0.00000000E+00  0.00000000E+00  0.00000000E+00
  0.00000000E+00  0.00000000E+00  0.00000000E+00
  0.00000000E+00  0.00000000E+00  0.00000000E+00
  0.00000000E+00  0.00000000E+00  0.00000000E+00
  0.00000000E+00  0.00000000E+00  0.00000000E+00
  0.00000000E+00  0.00000000E+00  0.00000000E+00
  0.00000000E+00  0.00000000E+00  0.00000000E+00
  0.00000000E+00  0.00000000E+00  0.00000000E+00
  0.00000000E+00  0.00000000E+00  0.00000000E+00
  0.00000000E+00  0.00000000E+00  0.00000000E+00
  0.00000000E+00  0.00000000E+00  0.00000000E+00
  0.00000000E+00  0.00000000E+00  0.00000000E+00
  0.00000000E+00  0.00000000E+00  0.00000000E+00
  0.00000000E+00  0.00000000E+00  0.00000000E+00
  0.00000000E+00  0.00000000E+00  0.00000000E+00
  0.00000000E+00  0.00000000E+00  0.00000000E+00
  0.00000000E+00  0.00000000E+00  0.00000000E+00
  0.00000000E+00  0.00000000E+00  0.00000000E+00
  0.00000000E+00  0.00000000E+00  0.00000000E+00
  0.00000000E+00  0.00000000E+00  0.00000000E+00
  0.00000000E+00  0.00000000E+00  0.00000000E+00
  0.00000000E+00  0.00000000E+00  0.00000000E+00
  0.00000000E+00  0.00000000E+00  0.00000000E+00
  0.00000000E+00  0.00000000E+00  0.00000000E+00
  0.00000000E+00  0.00000000E+00  0.00000000E+00
  0.00000000E+00  0.00000000E+00  0.00000000E+00
  0.00000000E+00  0.00000000E+00  0.00000000E+00
  0.00000000E+00  0.00000000E+00  0.00000000E+00
  0.00000000E+00  0.00000000E+00  0.00000000E+00
  0.00000000E+00  0.00000000E+00  0.00000000E+00
  0.00000000E+00  0.00000000E+00  0.00000000E+00
  0.00000000E+00  0.00000000E+00  0.00000000E+00
  0.00000000E+00  0.00000000E+00  0.00000000E+00
  0.00000000E+00  0.00000000E+00  0.00000000E+00
  0.00000000E+00  0.00000000E+00  0.00000000E+00
  0.00000000E+00  0.00000000E+00  0.00000000E+00
  0.00000000E+00  0.00000000E+00  0.00000000E+00
  0.00000000E+00  0.00000000E+00  0.00000000E+00
  0.00000000E+00  0.00000000E+00  0.00000000E+00
  0.00000000E+00  0.00000000E+00  0.00000000E+00
  0.00000000E+00  0.00000000E+00  0.00000000E+00
  0.00000000E+00  0.00000000E+00  0.00000000E+00
  0.00000000E+00  0.00000000E+00  0.00000000E+00
  0.00000000E+00  0.00000000E+00  0.00000000E+00
  0.00000000E+00  0.00000000E+00  0.00000000E+00
  0.00000000E+00  0.00000000E+00  0.00000000E+00
  0.00000000E+00  0.00000000E+00  0.00000000E+00
  0.00000000E+00  0.00000000E+00  0.00000000E+00
  0.00000000E+00  0.00000000E+00  0.00000000E+00
  0.00000000E+00  0.00000000E+00  0.00000000E+00
  0.00000000E+00  0.00000000E+00  0.00000000E+00
  0.00000000E+00  0.00000000E+00  0.00000000E+00
  0.00000000E+00  0.00000000E+00  0.00000000E+00
  0.00000000E+00  0.00000000E+00  0.00000000E+00
  0.00000000E+00  0.00000000E+00  0.00000000E+00
  0.00000000E+00  0.00000000E+00  0.00000000E+00
  0.00000000E+00  0.00000000E+00  0.00000000E+00
  0.00000000E+00  0.00000000E+00  0.00000000E+00
  0.00000000E+00  0.00000000E+00  0.00000000E+00
  0.00000000E+00  0.00000000E+00  0.00000000E+00
  0.00000000E+00  0.00000000E+00  0.00000000E+00
  0.00000000E+00  0.00000000E+00  0.00000000E+00
  0.00000000E+00  0.00000000E+00  0.00000000E+00
  0.00000000E+00  0.00000000E+00  0.00000000E+00
  0.00000000E+00  0.00000000E+00  0.00000000E+00
  0.00000000E+00  0.00000000E+00  0.00000000E+00
  0.00000000E+00  0.00000000E+00  0.00000000E+00
  0.00000000E+00  0.00000000E+00  0.00000000E+00
  0.00000000E+00  0.00000000E+00  0.00000000E+00
  0.00000000E+00  0.00000000E+00  0.00000000E+00
  0.00000000E+00  0.00000000E+00  0.00000000E+00
  0.00000000E+00  0.00000000E+00  0.00000000E+00
  0.00000000E+00  0.00000000E+00  0.00000000E+00
  0.00000000E+00  0.00000000E+00  0.00000000E+00
  0.00000000E+00  0.00000000E+00  0.00000000E+00
  0.00000000E+00  0.00000000E+00  0.00000000E+00
  0.00000000E+00  0.00000000E+00  0.00000000E+00
  0.00000000E+00  0.00000000E+00  0.00000000E+00
  0.00000000E+00  0.00000000E+00  0.00000000E+00
  0.00000000E+00  0.00000000E+00  0.00000000E+00
  0.00000000E+00  0.00000000E+00  0.00000000E+00
  0.00000000E+00  0.00000000E+00  0.00000000E+00
  0.00000000E+00  0.00000000E+00  0.00000000E+00
  0.00000000E+00  0.00000000E+00  0.00000000E+00
  0.00000000E+00  0.00000000E+00  0.00000000E+00
  0.00000000E+00  0.00000000E+00  0.00000000E+00
  0.00000000E+00  0.00000000E+00  0.00000000E+00
  0.00000000E+00  0.00000000E+00  0.00000000E+00
  0.00000000E+00  0.00000000E+00  0.00000000E+00
  0.00000000E+00  0.00000000E+00  0.00000000E+00
  0.00000000E+00  0.00000000E+00  0.00000000E+00
  0.00000000E+00  0.00000000E+00  0.00000000E+00
  0.00000000E+00  0.00000000E+00  0.00000000E+00
  0.00000000E+00  0.00000000E+00  0.00000000E+00
  0.00000000E+00  0.00000000E+00  0.00000000E+00
  0.00000000E+00  0.00000000E+00  0.00000000E+00
  0.00000000E+00  0.00000000E+00  0.00000000E+00
  0.00000000E+00  0.00000000E+00  0.00000000E+00
  0.00000000E+00  0.00000000E+00  0.00000000E+00
  0.00000000E+00  0.00000000E+00  0.00000000E+00
  0.00000000E+00  0.00000000E+00  0.00000000E+00
  0.00000000E+00  0.00000000E+00  0.00000000E+00
  0.00000000E+00  0.00000000E+00  0.00000000E+00
  0.00000000E+00  0.00000000E+00  0.00000000E+00
  0.00000000E+00  0.00000000E+00  0.00000000E+00
  0.00000000E+00  0.00000000E+00  0.00000000E+00
  0.00000000E+00  0.00000000E+00  0.00000000E+00
  0.00000000E+00  0.00000000E+00  0.00000000E+00
  0.00000000E+00  0.00000000E+00  0.00000000E+00
  0.00000000E+00  0.00000000E+00  0.00000000E+00
  0.00000000E+00  0.00000000E+00  0.00000000E+00
  0.00000000E+00  0.00000000E+00  0.00000000E+00
  0.00000000E+00  0.00000000E+00  0.00000000E+00
  0.00000000E+00  0.00000000E+00  0.00000000E+00
  0.00000000E+00  0.00000000E+00  0.00000000E+00
  0.00000000E+00  0.00000000E+00  0.00000000E+00
  0.00000000E+00  0.00000000E+00  0.00000000E+00
  0.00000000E+00  0.00000000E+00  0.00000000E+00
  0.00000000E+00  0.00000000E+00  0.00000000E+00
  0.00000000E+00  0.00000000E+00  0.00000000E+00
  0.00000000E+00  0.00000000E+00  0.00000000E+00
  0.00000000E+00  0.00000000E+00  0.00000000E+00
  0.00000000E+00  0.00000000E+00  0.00000000E+00
  0.00000000E+00  0.00000000E+00  0.00000000E+00
  0.00000000E+00  0.00000000E+00  0.00000000E+00
  0.00000000E+00  0.00000000E+00  0.00000000E+00
  0.00000000E+00  0.00000000E+00  0.00000000E+00
  0.00000000E+00  0.00000000E+00  0.00000000E+00
  0.00000000E+00  0.00000000E+00  0.00000000E+00
  0.00000000E+00  0.00000000E+00  0.00000000E+00
  0.00000000E+00  0.00000000E+00  0.00000000E+00
  0.00000000E+00  0.00000000E+00  0.00000000E+00
  0.00000000E+00  0.00000000E+00  0.00000000E+00
  0.00000000E+00  0.00000000E+00  0.00000000E+00
  0.00000000E+00  0.00000000E+00  0.00000000E+00
  0.00000000E+00  0.00000000E+00  0.00000000E+00
  0.00000000E+00  0.00000000E+00  0.00000000E+00
  0.00000000E+00  0.00000000E+00  0.00000000E+00
  0.00000000E+00  0.00000000E+00  0.00000000E+00
  0.00000000E+00  0.00000000E+00  0.00000000E+00
  0.00000000E+00  0.00000000E+00  0.00000000E+00
  0.00000000E+00  0.00000000E+00  0.00000000E+00
  0.00000000E+00  0.00000000E+00  0.00000000E+00
  0.00000000E+00  0.00000000E+00  0.00000000E+00
  0.00000000E+00  0.00000000E+00  0.00000000E+00
  0.00000000E+00  0.00000000E+00  0.00000000E+00
  0.00000000E+00  0.00000000E+00  0.00000000E+00
  0.00000000E+00  0.00000000E+00  0.00000000E+00
  0.00000000E+00  0.00000000E+00  0.00000000E+00
  0.00000000E+00  0.00000000E+00  0.00000000E+00
  0.00000000E+00  0.00000000E+00  0.00000000E+00
  0.00000000E+00  0.00000000E+00  0.00000000E+00
  0.00000000E+00  0.00000000E+00  0.00000000E+00
  0.00000000E+00  0.00000000E+00  0.00000000E+00
  0.00000000E+00  0.00000000E+00  0.00000000E+00
  0.00000000E+00  0.00000000E+00  0.00000000E+00
  0.00000000E+00  0.00000000E+00  0.00000000E+00
  0.00000000E+00  0.00000000E+00  0.00000000E+00