CuInSe2gb                               
   1.00000000000000     
     9.7266780392896699    0.0000000000000000    0.0000000000000000
     0.0000000000000000    8.4235502764570693    0.0000000000000000
     0.0000000000000000    0.0000000000000000   45.0000000000000000
   Fe   Mn
   281     7
Direct
  0.0598858144010800  0.7053260658041287  0.2114987499978424
  0.3145445066662332  0.7140792472000257  0.8753733018179113
  0.6883520791564440  0.9578146811224164  0.6112684705776301
  0.4378024141095708  0.4577291150387389  0.6112155024180426
  0.4369698359611462  0.2883743738920283  0.2558021155589261
  0.0617911444063712  0.3840737631165992  0.8340292574027397
  0.3116898052267131  0.8828233814698725  0.8338298332385513
  0.4429773871207468  0.6258642276826973  0.7001059256129140
  0.0640963810465495  0.2111194995339667  0.7443329227380143
  0.1850906261851989  0.4554050556203771  0.2113775345470280
  0.5636193863374654  0.2088977831407572  0.4778740336354880
  0.0628696188115621  0.8745313639985474  0.5665937612667343
  0.5632562421280723  0.2145073511187387  0.8756671490001291
  0.8111258004178845  0.5348382444171785  0.1246448666365800
  0.4348342936287392  0.9555391414084662  0.2114735924542966
  0.5625990634260361  0.3748451983778504  0.5666610317905919
  0.8118323768888501  0.0412155057333545  0.3887561519686354
  0.6856450449239277  0.7917352215937908  0.5221478613015124
  0.4385759523844027  0.4592917132919588  0.4778865489668565
  0.4392544886666512  0.9610394612586872  0.7443770321940945
  0.4376048438072122  0.6250477894546714  0.5667155456106893
  0.0612992960374573  0.5346954781702915  0.1245507843796954
  0.3112198321957347  0.0352897447163869  0.1247069505737966
  0.6868382929352410  0.9563380257140160  0.3444966540848167
  0.6857919959627263  0.7865539739962955  0.1244859296612108
  0.0590127646302243  0.3727504582300811  0.3000268565494676
  0.6868140830557745  0.4668453143973623  0.8752959441302659
  0.4350792219630329  0.4551770539555351  0.2113367090555065
  0.8108332752981861  0.3749045057360322  0.4333274485681291
  0.8174153374841184  0.3758329528723212  0.6999290157071195
  0.5631692142830047  0.5412515953572810  0.6554231749331733
  0.9355739964458755  0.1249739292932947  0.4333004878899634
  0.5626621288148985  0.5384400388252580  0.2556664813934205
  0.6868314195710430  0.4564569034787716  0.3443889407146584
  0.1875333082467621  0.6186222407396362  0.1664543693396759
  0.1915151502494106  0.7947834552019378  0.7881670352864210
  0.4435927993003451  0.1254676259049272  0.6999962355113206
  0.9336427369014662  0.6229280510050293  0.2999740530496030
  0.3129710285780930  0.2146521019459019  0.8756311972785269
  0.3129028416463203  0.8745223384231694  0.5666247869447525
  0.8144802884280891  0.2138002288434684  0.8755788160290005
  0.8135018103843842  0.5412611114640568  0.6554599331699565
  0.5610354362252329  0.5348460348987438  0.1246466305796416
  0.5625494092227755  0.8686213787261470  0.1664324729389719
  0.1869181995983529  0.2884499213432115  0.2557838826954264
  0.8106038036141757  0.8749287215128874  0.4332886798836567
  0.5678160316308302  0.3760104717425492  0.7000772014220539
  0.0611630090942263  0.0352093455443503  0.1247116992205460
  0.3128893632636900  0.5411677437495123  0.6553736865132107
  0.5616080409777099  0.2064285850578516  0.3444394175624158
  0.1883603075571692  0.9580143836174267  0.6112673019198399
  0.3092762660068894  0.3732377790917382  0.3000124914718078
  0.4380536789771883  0.7907770666062520  0.6553518012378892
  0.6887499599522894  0.4613392816525357  0.7443684462625765
  0.0624598693184735  0.3682382003781060  0.1664532246537960
  0.6928372578743295  0.6261909930751640  0.7000551463752525
  0.3117570008510374  0.5408723603130391  0.3887694653841375
  0.0642289729401435  0.7145501156783256  0.8754255599641176
  0.9367753041579554  0.6332524176287823  0.8337233937212414
  0.3166591886017691  0.5462573183120386  0.7884274597333443
  0.3097602343640791  0.2054419473461798  0.2116281656144250
  0.0634948151190858  0.7093665512862871  0.4778472602723660
  0.5599229884105810  0.2052088981716335  0.2115346283051992
  0.3143085021997186  0.2116188227015950  0.7442646026061965
  0.0676054177897880  0.3760993283945214  0.7000227977299252
  0.1864176832682495  0.6321739224559904  0.8335093965633441
  0.0659034926151724  0.0458516857466183  0.7885577249734889
  0.4376353245935709  0.1248431354831510  0.5666277960225240
  0.9383749306255822  0.2912387391707552  0.6553686151961944
  0.8099707898202585  0.2053584612509122  0.2115749657071724
  0.9349689250765646  0.9552151481463841  0.2114755451772462
  0.9382141994806577  0.6247993005565677  0.5666870425637368
  0.8119514616877966  0.3838930020523917  0.8338798496308347
  0.1923657386411031  0.6262895300166317  0.6999448437570730
  0.5677891882893891  0.8753473204328831  0.7000346356175418
  0.6881934642659510  0.2914206130321477  0.6554455735895800
  0.3128446268236807  0.2078371092815145  0.6113046429623623
  0.4392145198447948  0.4611971729866927  0.7442949226912915
  0.4369444481243192  0.7912601814080548  0.3887299204139057
  0.6894306505081321  0.9608930450576355  0.7443726593660203
  0.8099776510373703  0.7049988005209825  0.2115634093745057
  0.8132328989191907  0.7077907838234695  0.6112440267589434
  0.4360111111216042  0.7861218630459222  0.1244994690843978
  0.3143249152493873  0.7115160852509157  0.7444363617294033
  0.3161541492248935  0.0458511303922331  0.7885884199792942
  0.8116473325708901  0.5413384200154789  0.3887606472512540
  0.6861328850938773  0.2915833551927288  0.5220697259707241
  0.6910003271558463  0.7950507511620999  0.7884456790676476
  0.1868927903541558  0.7883986035560393  0.2557307240070705
  0.6875855294778643  0.1187862566635366  0.1663552503021586
  0.6885819226270804  0.9592442951437027  0.4778398712763824
  0.9365272607714218  0.9566592095398331  0.3445483420652777
  0.8116214774708027  0.0417604243891785  0.5220410149246958
  0.6851925709003259  0.6246451285021934  0.4333024351953447
  0.4366027217484648  0.4565243922216228  0.3443894423150367
  0.8139735722675142  0.2107033165681553  0.7441871714429785
  0.4381645915247243  0.9666960917584512  0.8752350076547769
  0.5626371469151515  0.8746406814639737  0.5666197642316685
  0.8111733020379047  0.0351468144224645  0.1246453300608313
  0.4339992568504125  0.6229854837883866  0.2999908977187063
  0.5640930756512834  0.2111222524516795  0.7443116812069298
  0.6884813096523626  0.4580841653101532  0.6112056487741738
  0.5605616522581814  0.3835588565968885  0.8337284550168373
  0.8086392041112551  0.3728081555790811  0.3000153498094509
  0.1869424343076724  0.2911032615619206  0.3888784879640765
  0.8160585707961224  0.5466859588186519  0.7886546303135015
  0.1858466892182971  0.7916819614972030  0.5220953094785451
  0.3092415465056076  0.8725523522775851  0.3000651360246047
  0.1847132845797657  0.9557156746811822  0.2113990399096336
  0.1891084428044989  0.4612364584651120  0.7442588706741097
  0.4365336275662908  0.2916135099929762  0.5221140123461038
  0.0620615727498867  0.7065259191129974  0.3444730245702977
  0.1880307630008829  0.7912319922674991  0.6553925612685391
  0.4417754119662681  0.7951577976055281  0.7883382403134651
  0.6856415756519606  0.1248702458433796  0.4333225372019016
  0.9360067342772296  0.7916588552036194  0.5221129077960156
  0.6874675012873336  0.6185539668481140  0.1663454927128861
  0.8119336886005784  0.7072696004209051  0.3445048768751128
  0.9390517067946339  0.4613631543925544  0.7443359500374520
  0.1868787334955484  0.4565020722382286  0.3444925723081205
  0.5664408035311502  0.5464946606243886  0.7883475887908017
  0.5625697664109179  0.3685884294501749  0.1664345688623887
  0.5620267923630479  0.7072333084887684  0.3444609535038675
  0.5583144288936094  0.3729621733690931  0.3000356415972725
  0.1870734821955064  0.4663736839614563  0.8753020699055928
  0.1872327545329489  0.1184459791638068  0.1663892895755159
  0.4413240158323221  0.2947659321308596  0.7884866521608591
  0.6869741579711771  0.7885848119121479  0.2558908047932639
  0.9363933588737595  0.1333470431971119  0.8335994313053670
  0.4384423297699125  0.9590591193130528  0.4777872360441155
  0.5631015693911833  0.7141334960090817  0.8755878370755508
  0.1885034078761794  0.4589360463087941  0.4779327729960519
  0.9359556438380228  0.2863839110872770  0.1244724165270438
  0.3115837321756765  0.0409437414187841  0.3887222158736948
  0.0629853638774791  0.0413121757364991  0.6553184667372298
  0.5608918538249893  0.3752208364735858  0.4332977865841582
  0.9354882623757731  0.6250030062610237  0.4332769153791476
  0.3125671894504670  0.3685229151777956  0.1664283247593845
  0.9424226454288259  0.1259164468278176  0.6999615680859617
  0.5629106929140820  0.0414201634556454  0.6554986613241737
  0.5609931746908569  0.5418412350784028  0.5220076259067041
  0.1839094049041773  0.1229641336197200  0.3000088413374210
  0.4375361365664144  0.1186537693956737  0.1663562220778632
  0.6838599619150381  0.6229267860817689  0.2999975947624952
  0.9332554060704011  0.1227202870615725  0.2999493088500399
  0.8133973705087195  0.3751038539031314  0.5667300048060713
  0.0584416025537996  0.8727753100912233  0.2999592848154350
  0.1882179372351363  0.6249340168754669  0.5667654211868319
  0.9402846389418643  0.7948654597076812  0.7883838119356041
  0.3106095279167426  0.3826739173807562  0.8338216862778123
  0.9391268964770866  0.4668081642948450  0.8752784098265777
  0.4359669817029543  0.6326073381802546  0.8336605664332407
  0.0619485454809813  0.2060162311348470  0.3444678151222915
  0.1878416053815397  0.9667572815761210  0.8752852994043130
  0.9358895074992312  0.7865004831519333  0.1244127477155506
  0.6868465858944202  0.7911557552021018  0.3886573185392135
  0.9379737453174254  0.7912694930415085  0.6553983381728907
  0.9377214752842090  0.1186884355559104  0.1663508241179831
  0.4380839454204973  0.2911310476393961  0.6554212072857459
  0.0597339734797027  0.2053745944762865  0.2115409592278250
  0.6848346684875307  0.9554782337209617  0.2115093033673227
  0.5629484322050817  0.7078718705622967  0.6112456731817419
  0.8178979276205059  0.8757501600680037  0.6999441180690098
  0.9433832825536465  0.6260857202253561  0.6999979020737500
  0.1928271441685253  0.1259333366023525  0.7000616585001704
  0.9384313043744549  0.4587839268399222  0.4779473424378380
  0.8138380104313572  0.2079252119366591  0.6112399493767493
  0.1857369625331786  0.6248112560690833  0.4333096294818850
  0.4345414877914761  0.1228746854352479  0.2999742535847285
  0.6839574620880432  0.1224187053161835  0.2999361979935838
  0.5616225149102705  0.5412247171197474  0.3887531906397987
  0.8121235284910649  0.2062263455745790  0.3444772243264567
  0.4384878841835388  0.4670533785101824  0.8752286432206918
  0.5606347135318114  0.8832017059313336  0.8340216025586641
  0.3133121858554002  0.2089901301304746  0.4778586079518807
  0.1884124410232233  0.9589509452296086  0.4778918243756242
  0.0610547113512707  0.8831326522621364  0.8338352466983753
  0.0607472830168366  0.5413133145892099  0.5220782284128764
  0.9388016311568184  0.9589603546193446  0.4778887603990076
  0.0630101908759709  0.7080127069299204  0.6112175456267531
  0.5612124730130315  0.0417705857851892  0.5220999228887633
  0.6910715154563621  0.2956877706703869  0.7885696732674174
  0.8125192432953867  0.3686302108212021  0.1665023783871030
  0.4354819751527001  0.1247738656305565  0.4333125920016349
  0.0634684584214998  0.2090112043838505  0.4778187834384083
  0.3135770990983641  0.0414445984820353  0.6552153165134120
  0.4361282047690700  0.7918878404094947  0.5221874448469257
  0.1868424071843015  0.1336853547676405  0.8335455540576389
  0.1860379821147951  0.2863369813786461  0.1244414545287414
  0.9368041299479699  0.4563389238441000  0.3445027904881744
  0.3125142298146626  0.8685643225481653  0.1663906368189422
  0.3097509656581581  0.7050813628554461  0.2114962838731486
  0.9375943524310366  0.6187809685822848  0.1663807269265612
  0.1881188012038069  0.4578498328542809  0.6112496888443945
  0.0677363992495740  0.8763154786516749  0.7000832115761904
  0.0632686413862731  0.5410732558394248  0.6554068360973628
  0.3115223012275296  0.5350408157751120  0.1245739131837887
  0.9365902256838111  0.7913749201153502  0.3887918257369246
  0.9405217994355525  0.2955266665828885  0.7885818145510979
  0.1879781170685097  0.2916152819324961  0.6553655515097883
  0.9381985551625022  0.9580606894431780  0.6112614166060337
  0.8141101050131094  0.7116479444882714  0.7443624010204122
  0.6871724508450796  0.2883146502343999  0.2557449484272281
  0.0641807020753775  0.7114781157442419  0.7442155952984539
  0.6849254479355230  0.4553920356560515  0.2114451082447453
  0.8133101116658744  0.2090954216877166  0.4778966900560087
  0.5634303196377701  0.7085707950599144  0.4778688991340647
  0.0623371436844665  0.8687655574436473  0.1664452075723659
  0.9361435357696506  0.2914079997140123  0.5221417413598124
  0.6877786741634393  0.7914057106683291  0.6553944509140054
  0.0603851608055921  0.8749059356407993  0.4333625665694940
  0.0639252769868730  0.2154393852576279  0.8755654857891669
  0.8130020584131612  0.0414392914142726  0.6554213983501801
  0.5612405978313061  0.0351130280143732  0.1246699770389646
  0.3103245279389085  0.3751146084332005  0.4333258292717581
  0.3132812646893104  0.3750455595642917  0.5667690371695442
  0.3133108552725469  0.7089382565842165  0.4777934279714463
  0.0612250667424266  0.0419925903233844  0.5221431748618187
  0.3175054631984894  0.8756085674652890  0.6999003750808614
  0.0620222450660245  0.5389673975738078  0.2558003066969960
  0.6862827141980238  0.1337261636169707  0.8334457070227312
  0.8119888600428461  0.0387529607863799  0.2557400553166392
  0.1854523412539323  0.1250016166350051  0.4333410376991484
  0.6929019985396205  0.1259348924296345  0.7000802385093032
  0.1861422455325978  0.2914162256598935  0.5221305868402868
  0.4367289621273903  0.7885747025464186  0.2558551155885821
  0.8120676877754249  0.5384471834987066  0.2556375729864074
  0.0634857949919101  0.2084189384264762  0.6112989563014027
  0.1868855415610584  0.7914059468142691  0.3887488813005792
  0.3109114948504714  0.5413608455603784  0.5220795338618798
  0.8125619600233540  0.8685192500142590  0.1664749129678934
  0.6867658996880779  0.2912493901560398  0.3887704029700913
  0.1878201773451462  0.1245026095080855  0.5666063180319871
  0.6868287061786573  0.9668322612773091  0.8758712966955776
  0.6882589265960156  0.1248875987398866  0.5666113237311207
  0.4366513997831949  0.9566237846101782  0.3444878558655697
  0.1889311145323767  0.9611025508573807  0.7441920406721879
  0.9371929345067644  0.7886902404717584  0.2557870095295405
  0.5602864645097567  0.8751019036692079  0.4333152496134290
  0.3102854775739395  0.8750698950402551  0.4333567605470442
  0.8107397364024319  0.5412538039883283  0.5220567451713228
  0.9347037315548403  0.4549305297734230  0.2113585794028813
  0.3119860216134175  0.5386738156850683  0.2556749426400589
  0.5615910841820408  0.0411220104733600  0.3887406973203756
  0.9381024052795216  0.4577088163332376  0.6111759035733931
  0.0614924493656994  0.0406591228636910  0.3887124189155834
  0.0617233923274924  0.5407224800946066  0.3887700193356384
  0.4367351679605797  0.2911010514472707  0.3887371167904575
  0.6882015264299112  0.4589824877245535  0.4779132684480551
  0.0629737324456797  0.3750920007536773  0.5667548109676891
  0.5599481440519426  0.7050300866554247  0.2115189696900585
  0.9368365190199507  0.2884196564457360  0.2557635118617765
  0.8162322572816552  0.0461002409108750  0.7884711401186634
  0.1867279150815609  0.9568032061600834  0.3445096165822148
  0.5586885357257888  0.8730780716267452  0.2999708528713390
  0.0607400590487794  0.3748705764882094  0.4333193496731131
  0.3121222134175287  0.7067893249103415  0.3444912815495282
  0.3117063782503192  0.2062456062983555  0.3444590078545636
  0.9374810057301493  0.1244869458027092  0.5666091835048624
  0.4376984386426394  0.9580127263476147  0.6112509335792964
  0.5621833787251597  0.0387112540819708  0.2557461280446434
  0.1861097691118976  0.7863679552087675  0.1244046486340436
  0.0620006054521610  0.0389722966660537  0.2556660703846630
  0.6879273806376014  0.6251584832074654  0.5667345331392875
  0.4375825284006543  0.6186058919548602  0.1663118826306636
  0.3112781694533933  0.0417128652522372  0.5221548499632457
  0.6858660147066792  0.2862871740346271  0.1244583913051531
  0.8135294459968186  0.7091242301640330  0.4778754844354303
  0.4367786384045834  0.1328051443472893  0.8336728762312126
  0.3180120738192271  0.3762479153713552  0.7000366223298978
  0.6871052716326173  0.6335909210172822  0.8336642974256824
  0.5642855937094352  0.7110080627799291  0.7444061643901445
  0.9369569385427450  0.2911172919984692  0.3887734546480276
  0.9391145427291328  0.9677518083740196  0.8755112813588569
  0.9388069603555413  0.9610727929832756  0.7442133351847477
  0.8132421633996926  0.8752318996929931  0.5665711458467431
  0.8085761111383890  0.8729322083157939  0.2999715040126617
  0.3121618413550084  0.0390992746539253  0.2557405452479936
  0.4359091790806561  0.2862606962680408  0.1245100854037833
  0.3125496471440932  0.7074094387428088  0.6112309177092522
  0.4354758880780488  0.6247012014800880  0.4333718131108653
  0.1923020140206570  0.2935845081292511  0.7882744965226146
  0.5665132337807434  0.0453408845619726  0.7882873361246430
  0.0661649354828396  0.5466876615592522  0.7882285559478470
  0.8101749354640432  0.8839171249447076  0.8340384642338743
  0.8137257047428587  0.7147913361071396  0.8760211068650878
  0.5629215488622987  0.2080522420175701  0.6112391255479859
  0.1832393763021392  0.6227418561335669  0.2999455301897067
 
  0.00000000E+00  0.00000000E+00  0.00000000E+00
  0.00000000E+00  0.00000000E+00  0.00000000E+00
  0.00000000E+00  0.00000000E+00  0.00000000E+00
  0.00000000E+00  0.00000000E+00  0.00000000E+00
  0.00000000E+00  0.00000000E+00  0.00000000E+00
  0.00000000E+00  0.00000000E+00  0.00000000E+00
  0.00000000E+00  0.00000000E+00  0.00000000E+00
  0.00000000E+00  0.00000000E+00  0.00000000E+00
  0.00000000E+00  0.00000000E+00  0.00000000E+00
  0.00000000E+00  0.00000000E+00  0.00000000E+00
  0.00000000E+00  0.00000000E+00  0.00000000E+00
  0.00000000E+00  0.00000000E+00  0.00000000E+00
  0.00000000E+00  0.00000000E+00  0.00000000E+00
  0.00000000E+00  0.00000000E+00  0.00000000E+00
  0.00000000E+00  0.00000000E+00  0.00000000E+00
  0.00000000E+00  0.00000000E+00  0.00000000E+00
  0.00000000E+00  0.00000000E+00  0.00000000E+00
  0.00000000E+00  0.00000000E+00  0.00000000E+00
  0.00000000E+00  0.00000000E+00  0.00000000E+00
  0.00000000E+00  0.00000000E+00  0.00000000E+00
  0.00000000E+00  0.00000000E+00  0.00000000E+00
  0.00000000E+00  0.00000000E+00  0.00000000E+00
  0.00000000E+00  0.00000000E+00  0.00000000E+00
  0.00000000E+00  0.00000000E+00  0.00000000E+00
  0.00000000E+00  0.00000000E+00  0.00000000E+00
  0.00000000E+00  0.00000000E+00  0.00000000E+00
  0.00000000E+00  0.00000000E+00  0.00000000E+00
  0.00000000E+00  0.00000000E+00  0.00000000E+00
  0.00000000E+00  0.00000000E+00  0.00000000E+00
  0.00000000E+00  0.00000000E+00  0.00000000E+00
  0.00000000E+00  0.00000000E+00  0.00000000E+00
  0.00000000E+00  0.00000000E+00  0.00000000E+00
  0.00000000E+00  0.00000000E+00  0.00000000E+00
  0.00000000E+00  0.00000000E+00  0.00000000E+00
  0.00000000E+00  0.00000000E+00  0.00000000E+00
  0.00000000E+00  0.00000000E+00  0.00000000E+00
  0.00000000E+00  0.00000000E+00  0.00000000E+00
  0.00000000E+00  0.00000000E+00  0.00000000E+00
  0.00000000E+00  0.00000000E+00  0.00000000E+00
  0.00000000E+00  0.00000000E+00  0.00000000E+00
  0.00000000E+00  0.00000000E+00  0.00000000E+00
  0.00000000E+00  0.00000000E+00  0.00000000E+00
  0.00000000E+00  0.00000000E+00  0.00000000E+00
  0.00000000E+00  0.00000000E+00  0.00000000E+00
  0.00000000E+00  0.00000000E+00  0.00000000E+00
  0.00000000E+00  0.00000000E+00  0.00000000E+00
  0.00000000E+00  0.00000000E+00  0.00000000E+00
  0.00000000E+00  0.00000000E+00  0.00000000E+00
  0.00000000E+00  0.00000000E+00  0.00000000E+00
  0.00000000E+00  0.00000000E+00  0.00000000E+00
  0.00000000E+00  0.00000000E+00  0.00000000E+00
  0.00000000E+00  0.00000000E+00  0.00000000E+00
  0.00000000E+00  0.00000000E+00  0.00000000E+00
  0.00000000E+00  0.00000000E+00  0.00000000E+00
  0.00000000E+00  0.00000000E+00  0.00000000E+00
  0.00000000E+00  0.00000000E+00  0.00000000E+00
  0.00000000E+00  0.00000000E+00  0.00000000E+00
  0.00000000E+00  0.00000000E+00  0.00000000E+00
  0.00000000E+00  0.00000000E+00  0.00000000E+00
  0.00000000E+00  0.00000000E+00  0.00000000E+00
  0.00000000E+00  0.00000000E+00  0.00000000E+00
  0.00000000E+00  0.00000000E+00  0.00000000E+00
  0.00000000E+00  0.00000000E+00  0.00000000E+00
  0.00000000E+00  0.00000000E+00  0.00000000E+00
  0.00000000E+00  0.00000000E+00  0.00000000E+00
  0.00000000E+00  0.00000000E+00  0.00000000E+00
  0.00000000E+00  0.00000000E+00  0.00000000E+00
  0.00000000E+00  0.00000000E+00  0.00000000E+00
  0.00000000E+00  0.00000000E+00  0.00000000E+00
  0.00000000E+00  0.00000000E+00  0.00000000E+00
  0.00000000E+00  0.00000000E+00  0.00000000E+00
  0.00000000E+00  0.00000000E+00  0.00000000E+00
  0.00000000E+00  0.00000000E+00  0.00000000E+00
  0.00000000E+00  0.00000000E+00  0.00000000E+00
  0.00000000E+00  0.00000000E+00  0.00000000E+00
  0.00000000E+00  0.00000000E+00  0.00000000E+00
  0.00000000E+00  0.00000000E+00  0.00000000E+00
  0.00000000E+00  0.00000000E+00  0.00000000E+00
  0.00000000E+00  0.00000000E+00  0.00000000E+00
  0.00000000E+00  0.00000000E+00  0.00000000E+00
  0.00000000E+00  0.00000000E+00  0.00000000E+00
  0.00000000E+00  0.00000000E+00  0.00000000E+00
  0.00000000E+00  0.00000000E+00  0.00000000E+00
  0.00000000E+00  0.00000000E+00  0.00000000E+00
  0.00000000E+00  0.00000000E+00  0.00000000E+00
  0.00000000E+00  0.00000000E+00  0.00000000E+00
  0.00000000E+00  0.00000000E+00  0.00000000E+00
  0.00000000E+00  0.00000000E+00  0.00000000E+00
  0.00000000E+00  0.00000000E+00  0.00000000E+00
  0.00000000E+00  0.00000000E+00  0.00000000E+00
  0.00000000E+00  0.00000000E+00  0.00000000E+00
  0.00000000E+00  0.00000000E+00  0.00000000E+00
  0.00000000E+00  0.00000000E+00  0.00000000E+00
  0.00000000E+00  0.00000000E+00  0.00000000E+00
  0.00000000E+00  0.00000000E+00  0.00000000E+00
  0.00000000E+00  0.00000000E+00  0.00000000E+00
  0.00000000E+00  0.00000000E+00  0.00000000E+00
  0.00000000E+00  0.00000000E+00  0.00000000E+00
  0.00000000E+00  0.00000000E+00  0.00000000E+00
  0.00000000E+00  0.00000000E+00  0.00000000E+00
  0.00000000E+00  0.00000000E+00  0.00000000E+00
  0.00000000E+00  0.00000000E+00  0.00000000E+00
  0.00000000E+00  0.00000000E+00  0.00000000E+00
  0.00000000E+00  0.00000000E+00  0.00000000E+00
  0.00000000E+00  0.00000000E+00  0.00000000E+00
  0.00000000E+00  0.00000000E+00  0.00000000E+00
  0.00000000E+00  0.00000000E+00  0.00000000E+00
  0.00000000E+00  0.00000000E+00  0.00000000E+00
  0.00000000E+00  0.00000000E+00  0.00000000E+00
  0.00000000E+00  0.00000000E+00  0.00000000E+00
  0.00000000E+00  0.00000000E+00  0.00000000E+00
  0.00000000E+00  0.00000000E+00  0.00000000E+00
  0.00000000E+00  0.00000000E+00  0.00000000E+00
  0.00000000E+00  0.00000000E+00  0.00000000E+00
  0.00000000E+00  0.00000000E+00  0.00000000E+00
  0.00000000E+00  0.00000000E+00  0.00000000E+00
  0.00000000E+00  0.00000000E+00  0.00000000E+00
  0.00000000E+00  0.00000000E+00  0.00000000E+00
  0.00000000E+00  0.00000000E+00  0.00000000E+00
  0.00000000E+00  0.00000000E+00  0.00000000E+00
  0.00000000E+00  0.00000000E+00  0.00000000E+00
  0.00000000E+00  0.00000000E+00  0.00000000E+00
  0.00000000E+00  0.00000000E+00  0.00000000E+00
  0.00000000E+00  0.00000000E+00  0.00000000E+00
  0.00000000E+00  0.00000000E+00  0.00000000E+00
  0.00000000E+00  0.00000000E+00  0.00000000E+00
  0.00000000E+00  0.00000000E+00  0.00000000E+00
  0.00000000E+00  0.00000000E+00  0.00000000E+00
  0.00000000E+00  0.00000000E+00  0.00000000E+00
  0.00000000E+00  0.00000000E+00  0.00000000E+00
  0.00000000E+00  0.00000000E+00  0.00000000E+00
  0.00000000E+00  0.00000000E+00  0.00000000E+00
  0.00000000E+00  0.00000000E+00  0.00000000E+00
  0.00000000E+00  0.00000000E+00  0.00000000E+00
  0.00000000E+00  0.00000000E+00  0.00000000E+00
  0.00000000E+00  0.00000000E+00  0.00000000E+00
  0.00000000E+00  0.00000000E+00  0.00000000E+00
  0.00000000E+00  0.00000000E+00  0.00000000E+00
  0.00000000E+00  0.00000000E+00  0.00000000E+00
  0.00000000E+00  0.00000000E+00  0.00000000E+00
  0.00000000E+00  0.00000000E+00  0.00000000E+00
  0.00000000E+00  0.00000000E+00  0.00000000E+00
  0.00000000E+00  0.00000000E+00  0.00000000E+00
  0.00000000E+00  0.00000000E+00  0.00000000E+00
  0.00000000E+00  0.00000000E+00  0.00000000E+00
  0.00000000E+00  0.00000000E+00  0.00000000E+00
  0.00000000E+00  0.00000000E+00  0.00000000E+00
  0.00000000E+00  0.00000000E+00  0.00000000E+00
  0.00000000E+00  0.00000000E+00  0.00000000E+00
  0.00000000E+00  0.00000000E+00  0.00000000E+00
  0.00000000E+00  0.00000000E+00  0.00000000E+00
  0.00000000E+00  0.00000000E+00  0.00000000E+00
  0.00000000E+00  0.00000000E+00  0.00000000E+00
  0.00000000E+00  0.00000000E+00  0.00000000E+00
  0.00000000E+00  0.00000000E+00  0.00000000E+00
  0.00000000E+00  0.00000000E+00  0.00000000E+00
  0.00000000E+00  0.00000000E+00  0.00000000E+00
  0.00000000E+00  0.00000000E+00  0.00000000E+00
  0.00000000E+00  0.00000000E+00  0.00000000E+00
  0.00000000E+00  0.00000000E+00  0.00000000E+00
  0.00000000E+00  0.00000000E+00  0.00000000E+00
  0.00000000E+00  0.00000000E+00  0.00000000E+00
  0.00000000E+00  0.00000000E+00  0.00000000E+00
  0.00000000E+00  0.00000000E+00  0.00000000E+00
  0.00000000E+00  0.00000000E+00  0.00000000E+00
  0.00000000E+00  0.00000000E+00  0.00000000E+00
  0.00000000E+00  0.00000000E+00  0.00000000E+00
  0.00000000E+00  0.00000000E+00  0.00000000E+00
  0.00000000E+00  0.00000000E+00  0.00000000E+00
  0.00000000E+00  0.00000000E+00  0.00000000E+00
  0.00000000E+00  0.00000000E+00  0.00000000E+00
  0.00000000E+00  0.00000000E+00  0.00000000E+00
  0.00000000E+00  0.00000000E+00  0.00000000E+00
  0.00000000E+00  0.00000000E+00  0.00000000E+00
  0.00000000E+00  0.00000000E+00  0.00000000E+00
  0.00000000E+00  0.00000000E+00  0.00000000E+00
  0.00000000E+00  0.00000000E+00  0.00000000E+00
  0.00000000E+00  0.00000000E+00  0.00000000E+00
  0.00000000E+00  0.00000000E+00  0.00000000E+00
  0.00000000E+00  0.00000000E+00  0.00000000E+00
  0.00000000E+00  0.00000000E+00  0.00000000E+00
  0.00000000E+00  0.00000000E+00  0.00000000E+00
  0.00000000E+00  0.00000000E+00  0.00000000E+00
  0.00000000E+00  0.00000000E+00  0.00000000E+00
  0.00000000E+00  0.00000000E+00  0.00000000E+00
  0.00000000E+00  0.00000000E+00  0.00000000E+00
  0.00000000E+00  0.00000000E+00  0.00000000E+00
  0.00000000E+00  0.00000000E+00  0.00000000E+00
  0.00000000E+00  0.00000000E+00  0.00000000E+00
  0.00000000E+00  0.00000000E+00  0.00000000E+00
  0.00000000E+00  0.00000000E+00  0.00000000E+00
  0.00000000E+00  0.00000000E+00  0.00000000E+00
  0.00000000E+00  0.00000000E+00  0.00000000E+00
  0.00000000E+00  0.00000000E+00  0.00000000E+00
  0.00000000E+00  0.00000000E+00  0.00000000E+00
  0.00000000E+00  0.00000000E+00  0.00000000E+00
  0.00000000E+00  0.00000000E+00  0.00000000E+00
  0.00000000E+00  0.00000000E+00  0.00000000E+00
  0.00000000E+00  0.00000000E+00  0.00000000E+00
  0.00000000E+00  0.00000000E+00  0.00000000E+00
  0.00000000E+00  0.00000000E+00  0.00000000E+00
  0.00000000E+00  0.00000000E+00  0.00000000E+00
  0.00000000E+00  0.00000000E+00  0.00000000E+00
  0.00000000E+00  0.00000000E+00  0.00000000E+00
  0.00000000E+00  0.00000000E+00  0.00000000E+00
  0.00000000E+00  0.00000000E+00  0.00000000E+00
  0.00000000E+00  0.00000000E+00  0.00000000E+00
  0.00000000E+00  0.00000000E+00  0.00000000E+00
  0.00000000E+00  0.00000000E+00  0.00000000E+00
  0.00000000E+00  0.00000000E+00  0.00000000E+00
  0.00000000E+00  0.00000000E+00  0.00000000E+00
  0.00000000E+00  0.00000000E+00  0.00000000E+00
  0.00000000E+00  0.00000000E+00  0.00000000E+00
  0.00000000E+00  0.00000000E+00  0.00000000E+00
  0.00000000E+00  0.00000000E+00  0.00000000E+00
  0.00000000E+00  0.00000000E+00  0.00000000E+00
  0.00000000E+00  0.00000000E+00  0.00000000E+00
  0.00000000E+00  0.00000000E+00  0.00000000E+00
  0.00000000E+00  0.00000000E+00  0.00000000E+00
  0.00000000E+00  0.00000000E+00  0.00000000E+00
  0.00000000E+00  0.00000000E+00  0.00000000E+00
  0.00000000E+00  0.00000000E+00  0.00000000E+00
  0.00000000E+00  0.00000000E+00  0.00000000E+00
  0.00000000E+00  0.00000000E+00  0.00000000E+00
  0.00000000E+00  0.00000000E+00  0.00000000E+00
  0.00000000E+00  0.00000000E+00  0.00000000E+00
  0.00000000E+00  0.00000000E+00  0.00000000E+00
  0.00000000E+00  0.00000000E+00  0.00000000E+00
  0.00000000E+00  0.00000000E+00  0.00000000E+00
  0.00000000E+00  0.00000000E+00  0.00000000E+00
  0.00000000E+00  0.00000000E+00  0.00000000E+00
  0.00000000E+00  0.00000000E+00  0.00000000E+00
  0.00000000E+00  0.00000000E+00  0.00000000E+00
  0.00000000E+00  0.00000000E+00  0.00000000E+00
  0.00000000E+00  0.00000000E+00  0.00000000E+00
  0.00000000E+00  0.00000000E+00  0.00000000E+00
  0.00000000E+00  0.00000000E+00  0.00000000E+00
  0.00000000E+00  0.00000000E+00  0.00000000E+00
  0.00000000E+00  0.00000000E+00  0.00000000E+00
  0.00000000E+00  0.00000000E+00  0.00000000E+00
  0.00000000E+00  0.00000000E+00  0.00000000E+00
  0.00000000E+00  0.00000000E+00  0.00000000E+00
  0.00000000E+00  0.00000000E+00  0.00000000E+00
  0.00000000E+00  0.00000000E+00  0.00000000E+00
  0.00000000E+00  0.00000000E+00  0.00000000E+00
  0.00000000E+00  0.00000000E+00  0.00000000E+00
  0.00000000E+00  0.00000000E+00  0.00000000E+00