CuInSe2gb                               
   1.00000000000000     
     9.7266780392896699    0.0000000000000000    0.0000000000000000
     0.0000000000000000    8.4235502764570693    0.0000000000000000
     0.0000000000000000    0.0000000000000000   45.0000000000000000
   Fe   Mn
   281     7
Direct
  0.0580440170819956  0.7075658433274863  0.2115050633796893
  0.3139488457237593  0.7186695544139724  0.8759862729632639
  0.6878735766890526  0.9582641500182438  0.6111083029131130
  0.4393588489420310  0.4576042698711905  0.6114377982489386
  0.4408756147128221  0.2890410007564387  0.2556299614292667
  0.0603411437267342  0.3852255670970829  0.8331515729101092
  0.3085525805317410  0.8856749301055077  0.8331751563468266
  0.4481233717591950  0.6257199910470329  0.7000150159358218
  0.0611262153060946  0.2111338978804536  0.7446447766084170
  0.1833636449814832  0.4562461792176320  0.2113330468744918
  0.5673694979174595  0.2099406435541403  0.4775107013154204
  0.0639860280213504  0.8750447638255573  0.5667215531188947
  0.5638509198122373  0.2188261639109128  0.8758117351768685
  0.8110135722544143  0.5385306597323967  0.1242830465635250
  0.4329810151037983  0.9564372671527368  0.2113064024609431
  0.5655515320221811  0.3749100171500446  0.5668663257555926
  0.8122776315066813  0.0414733390583264  0.3887341014621641
  0.6835916061296728  0.7911391911494803  0.5220870547515588
  0.4425976035492697  0.4595430383108646  0.4775207391815547
  0.4351427171699304  0.9608430455576892  0.7441395840593752
  0.4389162047564225  0.6250399453894006  0.5667117577444029
  0.0611144271920296  0.5385062141622674  0.1243302617185111
  0.3109238528993603  0.0377821914892395  0.1243101564238155
  0.6892485287911766  0.9559919674301074  0.3444440037441124
  0.6857079835750947  0.7829847293915203  0.1242233086672786
  0.0536709329049367  0.3724720651789704  0.3000822671133471
  0.6884536287739889  0.4599704802532579  0.8758392248612130
  0.4334911414897987  0.4563494125636702  0.2112515872241264
  0.8069758204755900  0.3751432900148002  0.4332138630960157
  0.8236219286564160  0.3760265666297382  0.6999641143488273
  0.5597834597947225  0.5403158733351880  0.6557808846633828
  0.9320126859740603  0.1248711327578245  0.4332290255674524
  0.5659367974880004  0.5390344906581096  0.2557980907466542
  0.6897802078514390  0.4560372457675489  0.3445392584904752
  0.1880268671942809  0.6168720942798518  0.1665772159770663
  0.1935110822374516  0.7941792955053244  0.7884827699881266
  0.4486629243328454  0.1260458633385589  0.7000476254282896
  0.9288978502343909  0.6225375752439264  0.2999108516306858
  0.3148402382486462  0.2179518863368272  0.8759805626420152
  0.3138263723991568  0.8747212106265626  0.5667058768217967
  0.8145898968595203  0.2188925889851500  0.8758849311169785
  0.8097834348489417  0.5416606417627141  0.6556088604595672
  0.5613954956533214  0.5384819100243899  0.1242985060635095
  0.5629087309289200  0.8670868828782714  0.1667143992977699
  0.1907090954539804  0.2890810327850915  0.2558094130342447
  0.8076756782927912  0.8747114542841412  0.4331834012457697
  0.5737448079048949  0.3756782232287784  0.6999370802850902
  0.0609116711735270  0.0381591633753425  0.1242570419432046
  0.3097292138812738  0.5409474322312695  0.6557613448291219
  0.5653738631312739  0.2057941064904175  0.3444760280994383
  0.1880681975044615  0.9576038172884066  0.6111374600345633
  0.3030949980745657  0.3732088457966009  0.2999795019976709
  0.4339034528946715  0.7911602894411903  0.6555776196412278
  0.6855813548172568  0.4608617589569852  0.7442827786152868
  0.0632928863862273  0.3672578990071618  0.1665064285992121
  0.6986481356446788  0.6256379767162824  0.7000308550846628
  0.3123326917020773  0.5418820472622446  0.3887778151328965
  0.0674968679143060  0.7199643614623706  0.8757009773877272
  0.9344411591241183  0.6372830726293013  0.8337513447010059
  0.3182185672536741  0.5441812555176128  0.7885043521789888
  0.3081174627333263  0.2075086463743913  0.2114751917736080
  0.0672884083356349  0.7092141758944117  0.4776047460559392
  0.5579295652073623  0.2076545006013940  0.2115395669091600
  0.3117589798553839  0.2106118736432303  0.7443362103366925
  0.0738622486729556  0.3757145806282098  0.7000453776344935
  0.1859544019805678  0.6343639233623091  0.8330075259290362
  0.0681983244167950  0.0441463858793749  0.7883982002706423
  0.4401090178457885  0.1249837511601016  0.5667803207784512
  0.9344797400365220  0.2916739880948902  0.6555147890506406
  0.8081425608718112  0.2075544663877799  0.2114286993071383
  0.9334632538489730  0.9565626392588935  0.2112554376710518
  0.9382006614835164  0.6252973733661245  0.5667064635973046
  0.8088140475416089  0.3863914253962059  0.8335582519221972
  0.1989592795020978  0.6262928954181989  0.6999848127777497
  0.5731614094605137  0.8755010771843112  0.7001420590058554
  0.6851077095250494  0.2911736111433214  0.6556806485712359
  0.3133937046904660  0.2077830216363005  0.6112548842388481
  0.4358771605847762  0.4604467430668944  0.7443502198467324
  0.4377600058827403  0.7916688252729026  0.3889870960004802
  0.6852163847949782  0.9601052343585992  0.7441408322842940
  0.8078355731547916  0.7073932865568400  0.2114582183367992
  0.8132850449268428  0.7080625764241140  0.6112738462242818
  0.4358327335028796  0.7835241491668146  0.1241570226963865
  0.3100587594246391  0.7107995791281372  0.7440356105666814
  0.3183552892509378  0.0431319968943986  0.7885741109824069
  0.8123266272225383  0.5413548209008066  0.3887505425281551
  0.6833175765850086  0.2908956805763655  0.5223453867643501
  0.6927216533747144  0.7955229777610624  0.7884262801855609
  0.1907640414217472  0.7891355693132051  0.2556305425652732
  0.6880712635113756  0.1172161607562242  0.1667322555500605
  0.6927635245405147  0.9602316576654678  0.4777236434887107
  0.9392433759625947  0.9553327778112658  0.3444267796190548
  0.8076006559510193  0.0404587157917398  0.5222072938961233
  0.6821003335118249  0.6252908401530005  0.4332194600134727
  0.4397768730229604  0.4563310816778014  0.3444843022476609
  0.8108802218348033  0.2112069784413051  0.7446309118444190
  0.4367261196958295  0.9616051685473503  0.8758325369528280
  0.5642722465692513  0.8750561799520833  0.5667919400513567
  0.8108119618110048  0.0379685875748009  0.1243781509487301
  0.4295480937350845  0.6226000609670925  0.2997771558530617
  0.5614515839505223  0.2098291325980130  0.7448213674698588
  0.6881969671919166  0.4582165805725927  0.6113964683387844
  0.5588111385348637  0.3843058129380698  0.8331193358732539
  0.8041761142119268  0.3718413840166544  0.2999389906879487
  0.1872831352964576  0.2912026451852139  0.3887324134369171
  0.8191199002467249  0.5461402598612370  0.7885382934461436
  0.1832253527577911  0.7907062267588589  0.5222478216060497
  0.3029853297900227  0.8725842879468312  0.2999986644091928
  0.1835409212988527  0.9564518204329031  0.2112371287323451
  0.1849925625558226  0.4608398297058042  0.7443211588264891
  0.4327566418573516  0.2908320253484094  0.5222521905838247
  0.0647224648440660  0.7055847616194338  0.3444502492755356
  0.1841047576692722  0.7913054931180550  0.6557011400840004
  0.4429419394391064  0.7947535165553590  0.7885334715196223
  0.6819054188846632  0.1254054660489937  0.4331458687078596
  0.9328195633497104  0.7906746029781205  0.5222522102451815
  0.6880378481979252  0.6173504018086274  0.1666511207530540
  0.8146338558035117  0.7048809119865838  0.3443791322707246
  0.9353376427436197  0.4602923486744621  0.7441429410045173
  0.1894209790814935  0.4553627202966840  0.3444876638936476
  0.5668189148759448  0.5441885287071682  0.7887309529575410
  0.5631853684169921  0.3672281034180192  0.1665740616475057
  0.5647334460535142  0.7052376920441987  0.3443873874299099
  0.5542538992258877  0.3717341503733159  0.2998532292388010
  0.1897509456884408  0.4624963211346901  0.8759309607525004
  0.1884012959525000  0.1168178897170955  0.1668170867889348
  0.4430878973468256  0.2946466205926224  0.7884260991638622
  0.6907945260018912  0.7886271855114708  0.2554921883170811
  0.9333412728335531  0.1361931793373952  0.8333887589929007
  0.4426983598793737  0.9600584490980110  0.4776526416771086
  0.5628021981014328  0.7177969083819855  0.8758116176635925
  0.1925415532907164  0.4601564981105958  0.4774889076571802
  0.9357849826414988  0.2828169475495852  0.1242094342642462
  0.3123664088362131  0.0419946053954116  0.3887682852789848
  0.0594765091508565  0.0413385605486464  0.6557626372672581
  0.5569239424781137  0.3748175705360372  0.4332175056839631
  0.9319153151844165  0.6250738886390239  0.4332075953948836
  0.3130975519378789  0.3671426505304521  0.1666099631832563
  0.9483257703169463  0.1260236514492485  0.6999347376114863
  0.5594348471016076  0.0412901851077817  0.6555872266545190
  0.5580317742194499  0.5409788249659007  0.5224456295303594
  0.1787972972047191  0.1224407676977488  0.2999540892245648
  0.4381705514607711  0.1173614752311674  0.1668060162366710
  0.6788428153260795  0.6227581206575232  0.2999164857555950
  0.9287170593911036  0.1224856681381554  0.2999430332511338
  0.8136192656911442  0.3744548269135188  0.5666936983997316
  0.0535558803047862  0.8727346346746636  0.3000140171864068
  0.1880617787747664  0.6247596622260322  0.5666449693791560
  0.9431533821845454  0.7944280643317866  0.7885247231808239
  0.3092484876639622  0.3842478749643380  0.8336312645828536
  0.9376953282048103  0.4608457212189455  0.8757497604356177
  0.4352432188293381  0.6343119560127989  0.8329379112619489
  0.0648788487189422  0.2057868245338600  0.3445887972162640
  0.1898271251969856  0.9614072106088838  0.8759037171198946
  0.9355966433737547  0.7831571305376599  0.1242122645783133
  0.6873348723599109  0.7918032928497785  0.3889480936832250
  0.9339733584159169  0.7913142084538516  0.6557107407656474
  0.9379176678624849  0.1171115180818462  0.1667503424303995
  0.4344414519659286  0.2914323255971067  0.6557815718503966
  0.0582094313872921  0.2072641959185522  0.2114393536318155
  0.6834404057376923  0.9565043736933732  0.2112535907322312
  0.5630595136665590  0.7079537227742441  0.6112871324460402
  0.8233706639238132  0.8756947371330422  0.6999538844605383
  0.9484366580427103  0.6261150147612728  0.7000739284675207
  0.1988565773236370  0.1259237842335191  0.7000107469512441
  0.9426589668997823  0.4603521830515911  0.4774620176648540
  0.8132926517016027  0.2076823576351985  0.6112867884433293
  0.1814999625008131  0.6251531495145678  0.4331077487365722
  0.4286536125420599  0.1228012456415293  0.3000380535478823
  0.6788021412841085  0.1227923926547568  0.2999295328852542
  0.5625575876092254  0.5412295984649248  0.3886615261540804
  0.8147496038387184  0.2059264637432096  0.3445372406772096
  0.4383312994626626  0.4606349481178473  0.8758815738503334
  0.5612036333031866  0.8839595345743152  0.8335339534594456
  0.3178773083174877  0.2099167882472635  0.4776235672107996
  0.1929055412448294  0.9601828353853127  0.4776762679906137
  0.0593400795089196  0.8835857270672207  0.8332864422230939
  0.0582790427693747  0.5410674794255775  0.5224403700583271
  0.9424982268748962  0.9603757250015804  0.4776773174355058
  0.0631369276758207  0.7076571010362805  0.6111675644571488
  0.5577733133463946  0.0407594939894867  0.5222758295683556
  0.6934397115717302  0.2948865294111502  0.7883932223868417
  0.8131843765025994  0.3672719005728827  0.1666356071900250
  0.4321550948393214  0.1254474519276077  0.4331275572318507
  0.0675460666198127  0.2099473628732564  0.4777010629674573
  0.3090304415991618  0.0411046575801852  0.6557383359418084
  0.4326275459649046  0.7902354233984601  0.5220343782200496
  0.1838785729691343  0.1368004130443896  0.8332506605718657
  0.1856121363875537  0.2832565750505586  0.1242140019884579
  0.9398218752046218  0.4559376218157401  0.3444943823693246
  0.3130489241623815  0.8670614201311935  0.1666140238802941
  0.3080032539999348  0.7074391524005282  0.2114804962961749
  0.9381147941946373  0.6168271722168891  0.1666536514560575
  0.1887838159141401  0.4588143528191574  0.6113621730126588
  0.0730153653345412  0.8761054470319894  0.6998779139718477
  0.0595970094380535  0.5411000345212866  0.6556635591268507
  0.3105151616841724  0.5382903131737944  0.1243637313737059
  0.9372722052009052  0.7919484770823074  0.3889184152790697
  0.9441496535568507  0.2961802085915064  0.7882924089900870
  0.1848987770190876  0.2909255411151094  0.6556970668300286
  0.9381696610340198  0.9574448349034143  0.6112424755696505
  0.8110557492825008  0.7100690206077799  0.7442545241023306
  0.6904678764276699  0.2890299646628461  0.2556637172883641
  0.0602464041116214  0.7114545819103595  0.7445875879541929
  0.6834201285478397  0.4563818403583523  0.2112982053453376
  0.8177767329501209  0.2097028693326084  0.4774685989402379
  0.5674020650786142  0.7099452169931567  0.4776617675295945
  0.0634227816908677  0.8668334649647691  0.1664774297479564
  0.9330637187257202  0.2915344709919830  0.5222902484126961
  0.6841502487570551  0.7909995452609024  0.6556489275677468
  0.0578471690136416  0.8750902715249064  0.4331992914121986
  0.0658341896476117  0.2186021507524399  0.8758745782153976
  0.8092150260557116  0.0411952281201375  0.6557268674107593
  0.5604753579108707  0.0383996473992547  0.1243788985727489
  0.3076455403685770  0.3750612026445615  0.4332941389191309
  0.3146069212568330  0.3746969137218180  0.5667142476858057
  0.3172975642069930  0.7097183384223864  0.4775564450306289
  0.0575556989611372  0.0402752275045559  0.5222767884874838
  0.3233563779438092  0.8762648828029999  0.6998812574076561
  0.0668104394724075  0.5386249896798913  0.2555278175121081
  0.6851278614545725  0.1355244454833540  0.8336933435180788
  0.8165306249366551  0.0386190916542804  0.2555819556856262
  0.1820522593147113  0.1250826712642724  0.4331118096790526
  0.6988736317945777  0.1260788943225441  0.7000243735335475
  0.1833087763242862  0.2909312160364161  0.5223235795200463
  0.4403579980102011  0.7888510471118402  0.2554956770203963
  0.8164048461977560  0.5386736521044253  0.2557259713211463
  0.0629549672274562  0.2076023928528661  0.6111201559688083
  0.1876556958911312  0.7913918062817455  0.3887429244605359
  0.3086361214674101  0.5409211572619816  0.5224679237646024
  0.8132176662735608  0.8669698708044168  0.1665917881996541
  0.6876837906885437  0.2914867721342919  0.3887455782330227
  0.1898993647336956  0.1254196129151209  0.5669101671179936
  0.6868842397941826  0.9616635669361639  0.8759762927217229
  0.6893731630448060  0.1251999709824354  0.5667172823749689
  0.4395630334111822  0.9554403060149086  0.3445003162746109
  0.1849159212191516  0.9613533525963399  0.7444967685384112
  0.9403101104432737  0.7883238522251048  0.2555902572412190
  0.5579170709269043  0.8748925447282297  0.4331207639240627
  0.3079451668868134  0.8749637825690572  0.4332514255110844
  0.8085703037134431  0.5410144342596872  0.5224114302409855
  0.9332267328306953  0.4565968072723317  0.2113392896341589
  0.3168546968455184  0.5386635415118196  0.2555193721770864
  0.5622901841015902  0.0414546197580731  0.3887284896122268
  0.9389291501485039  0.4594923469869270  0.6114491953432426
  0.0624460722394190  0.0417843853772497  0.3889268967930450
  0.0622849574912404  0.5422562996240374  0.3888136807719148
  0.4374586512660715  0.2918364018047472  0.3886986456906801
  0.6927575760748652  0.4599057319352185  0.4775151254722745
  0.0648735190870600  0.3742078231306403  0.5667163384334795
  0.5579571991154819  0.7079080633499291  0.2115132890434726
  0.9406854418171592  0.2888819167521681  0.2556812554669669
  0.8183179581106362  0.0465587659305053  0.7883959434421539
  0.1893613659333579  0.9550204311221268  0.3443591522295764
  0.5531710409340520  0.8729608020766876  0.3000270705147692
  0.0571792213249801  0.3748877897371172  0.4332792745293402
  0.3148281690978891  0.7053564777181975  0.3444769056080421
  0.3153263539284589  0.2062110773538657  0.3444844774336788
  0.9404566455505328  0.1257264913716654  0.5668830202607129
  0.4386194016428510  0.9575338036051657  0.6111815883614304
  0.5662755877842114  0.0387205497760715  0.2556068472407642
  0.1855984909151439  0.7835304733542350  0.1241546133483670
  0.0662600449812638  0.0387247900733764  0.2557617953337628
  0.6884193663288267  0.6249580432099584  0.5666460737686176
  0.4382878310517963  0.6172849585549324  0.1666797860519516
  0.3073206500910843  0.0403321959883618  0.5222411369461522
  0.6857806161598626  0.2829759453387823  0.1241559572617896
  0.8170476348211217  0.7094982248633639  0.4774660605152818
  0.4338946101114846  0.1351760642718561  0.8334559497194323
  0.3235111198099976  0.3747708921708516  0.7000302475605041
  0.6851730462297778  0.6370464326216617  0.8337047454002257
  0.5606810468259892  0.7117255105260805  0.7442515238791804
  0.9374611711849562  0.2914999631496026  0.3887285618852467
  0.9401686553154415  0.9618992731522684  0.8758666671052815
  0.9353870028770291  0.9608519410877471  0.7442830040172211
  0.8139225955633580  0.8745268342119197  0.5667126045100730
  0.8034784240576963  0.8729494166203730  0.3000232151617622
  0.3160346094023993  0.0389683931908821  0.2558375866172524
  0.4357210342615879  0.2829555990122665  0.1242484421718273
  0.3130764498803342  0.7078998478796847  0.6114192938474525
  0.4317998868465922  0.6253373892282281  0.4331084554955749
  0.1931796359799534  0.2937125320895933  0.7882037857970449
  0.5694107399824421  0.0450065031425809  0.7883431318243604
  0.0683431982224343  0.5437920738811441  0.7882697233919161
  0.8089852533232027  0.8840083441689842  0.8343738756097028
  0.8150454794695614  0.7198621857642457  0.8756079894710285
  0.5637989393179728  0.2068694586202914  0.6112061687936066
  0.1786170012339787  0.6230248675802900  0.2999086501203165
 
  0.00000000E+00  0.00000000E+00  0.00000000E+00
  0.00000000E+00  0.00000000E+00  0.00000000E+00
  0.00000000E+00  0.00000000E+00  0.00000000E+00
  0.00000000E+00  0.00000000E+00  0.00000000E+00
  0.00000000E+00  0.00000000E+00  0.00000000E+00
  0.00000000E+00  0.00000000E+00  0.00000000E+00
  0.00000000E+00  0.00000000E+00  0.00000000E+00
  0.00000000E+00  0.00000000E+00  0.00000000E+00
  0.00000000E+00  0.00000000E+00  0.00000000E+00
  0.00000000E+00  0.00000000E+00  0.00000000E+00
  0.00000000E+00  0.00000000E+00  0.00000000E+00
  0.00000000E+00  0.00000000E+00  0.00000000E+00
  0.00000000E+00  0.00000000E+00  0.00000000E+00
  0.00000000E+00  0.00000000E+00  0.00000000E+00
  0.00000000E+00  0.00000000E+00  0.00000000E+00
  0.00000000E+00  0.00000000E+00  0.00000000E+00
  0.00000000E+00  0.00000000E+00  0.00000000E+00
  0.00000000E+00  0.00000000E+00  0.00000000E+00
  0.00000000E+00  0.00000000E+00  0.00000000E+00
  0.00000000E+00  0.00000000E+00  0.00000000E+00
  0.00000000E+00  0.00000000E+00  0.00000000E+00
  0.00000000E+00  0.00000000E+00  0.00000000E+00
  0.00000000E+00  0.00000000E+00  0.00000000E+00
  0.00000000E+00  0.00000000E+00  0.00000000E+00
  0.00000000E+00  0.00000000E+00  0.00000000E+00
  0.00000000E+00  0.00000000E+00  0.00000000E+00
  0.00000000E+00  0.00000000E+00  0.00000000E+00
  0.00000000E+00  0.00000000E+00  0.00000000E+00
  0.00000000E+00  0.00000000E+00  0.00000000E+00
  0.00000000E+00  0.00000000E+00  0.00000000E+00
  0.00000000E+00  0.00000000E+00  0.00000000E+00
  0.00000000E+00  0.00000000E+00  0.00000000E+00
  0.00000000E+00  0.00000000E+00  0.00000000E+00
  0.00000000E+00  0.00000000E+00  0.00000000E+00
  0.00000000E+00  0.00000000E+00  0.00000000E+00
  0.00000000E+00  0.00000000E+00  0.00000000E+00
  0.00000000E+00  0.00000000E+00  0.00000000E+00
  0.00000000E+00  0.00000000E+00  0.00000000E+00
  0.00000000E+00  0.00000000E+00  0.00000000E+00
  0.00000000E+00  0.00000000E+00  0.00000000E+00
  0.00000000E+00  0.00000000E+00  0.00000000E+00
  0.00000000E+00  0.00000000E+00  0.00000000E+00
  0.00000000E+00  0.00000000E+00  0.00000000E+00
  0.00000000E+00  0.00000000E+00  0.00000000E+00
  0.00000000E+00  0.00000000E+00  0.00000000E+00
  0.00000000E+00  0.00000000E+00  0.00000000E+00
  0.00000000E+00  0.00000000E+00  0.00000000E+00
  0.00000000E+00  0.00000000E+00  0.00000000E+00
  0.00000000E+00  0.00000000E+00  0.00000000E+00
  0.00000000E+00  0.00000000E+00  0.00000000E+00
  0.00000000E+00  0.00000000E+00  0.00000000E+00
  0.00000000E+00  0.00000000E+00  0.00000000E+00
  0.00000000E+00  0.00000000E+00  0.00000000E+00
  0.00000000E+00  0.00000000E+00  0.00000000E+00
  0.00000000E+00  0.00000000E+00  0.00000000E+00
  0.00000000E+00  0.00000000E+00  0.00000000E+00
  0.00000000E+00  0.00000000E+00  0.00000000E+00
  0.00000000E+00  0.00000000E+00  0.00000000E+00
  0.00000000E+00  0.00000000E+00  0.00000000E+00
  0.00000000E+00  0.00000000E+00  0.00000000E+00
  0.00000000E+00  0.00000000E+00  0.00000000E+00
  0.00000000E+00  0.00000000E+00  0.00000000E+00
  0.00000000E+00  0.00000000E+00  0.00000000E+00
  0.00000000E+00  0.00000000E+00  0.00000000E+00
  0.00000000E+00  0.00000000E+00  0.00000000E+00
  0.00000000E+00  0.00000000E+00  0.00000000E+00
  0.00000000E+00  0.00000000E+00  0.00000000E+00
  0.00000000E+00  0.00000000E+00  0.00000000E+00
  0.00000000E+00  0.00000000E+00  0.00000000E+00
  0.00000000E+00  0.00000000E+00  0.00000000E+00
  0.00000000E+00  0.00000000E+00  0.00000000E+00
  0.00000000E+00  0.00000000E+00  0.00000000E+00
  0.00000000E+00  0.00000000E+00  0.00000000E+00
  0.00000000E+00  0.00000000E+00  0.00000000E+00
  0.00000000E+00  0.00000000E+00  0.00000000E+00
  0.00000000E+00  0.00000000E+00  0.00000000E+00
  0.00000000E+00  0.00000000E+00  0.00000000E+00
  0.00000000E+00  0.00000000E+00  0.00000000E+00
  0.00000000E+00  0.00000000E+00  0.00000000E+00
  0.00000000E+00  0.00000000E+00  0.00000000E+00
  0.00000000E+00  0.00000000E+00  0.00000000E+00
  0.00000000E+00  0.00000000E+00  0.00000000E+00
  0.00000000E+00  0.00000000E+00  0.00000000E+00
  0.00000000E+00  0.00000000E+00  0.00000000E+00
  0.00000000E+00  0.00000000E+00  0.00000000E+00
  0.00000000E+00  0.00000000E+00  0.00000000E+00
  0.00000000E+00  0.00000000E+00  0.00000000E+00
  0.00000000E+00  0.00000000E+00  0.00000000E+00
  0.00000000E+00  0.00000000E+00  0.00000000E+00
  0.00000000E+00  0.00000000E+00  0.00000000E+00
  0.00000000E+00  0.00000000E+00  0.00000000E+00
  0.00000000E+00  0.00000000E+00  0.00000000E+00
  0.00000000E+00  0.00000000E+00  0.00000000E+00
  0.00000000E+00  0.00000000E+00  0.00000000E+00
  0.00000000E+00  0.00000000E+00  0.00000000E+00
  0.00000000E+00  0.00000000E+00  0.00000000E+00
  0.00000000E+00  0.00000000E+00  0.00000000E+00
  0.00000000E+00  0.00000000E+00  0.00000000E+00
  0.00000000E+00  0.00000000E+00  0.00000000E+00
  0.00000000E+00  0.00000000E+00  0.00000000E+00
  0.00000000E+00  0.00000000E+00  0.00000000E+00
  0.00000000E+00  0.00000000E+00  0.00000000E+00
  0.00000000E+00  0.00000000E+00  0.00000000E+00
  0.00000000E+00  0.00000000E+00  0.00000000E+00
  0.00000000E+00  0.00000000E+00  0.00000000E+00
  0.00000000E+00  0.00000000E+00  0.00000000E+00
  0.00000000E+00  0.00000000E+00  0.00000000E+00
  0.00000000E+00  0.00000000E+00  0.00000000E+00
  0.00000000E+00  0.00000000E+00  0.00000000E+00
  0.00000000E+00  0.00000000E+00  0.00000000E+00
  0.00000000E+00  0.00000000E+00  0.00000000E+00
  0.00000000E+00  0.00000000E+00  0.00000000E+00
  0.00000000E+00  0.00000000E+00  0.00000000E+00
  0.00000000E+00  0.00000000E+00  0.00000000E+00
  0.00000000E+00  0.00000000E+00  0.00000000E+00
  0.00000000E+00  0.00000000E+00  0.00000000E+00
  0.00000000E+00  0.00000000E+00  0.00000000E+00
  0.00000000E+00  0.00000000E+00  0.00000000E+00
  0.00000000E+00  0.00000000E+00  0.00000000E+00
  0.00000000E+00  0.00000000E+00  0.00000000E+00
  0.00000000E+00  0.00000000E+00  0.00000000E+00
  0.00000000E+00  0.00000000E+00  0.00000000E+00
  0.00000000E+00  0.00000000E+00  0.00000000E+00
  0.00000000E+00  0.00000000E+00  0.00000000E+00
  0.00000000E+00  0.00000000E+00  0.00000000E+00
  0.00000000E+00  0.00000000E+00  0.00000000E+00
  0.00000000E+00  0.00000000E+00  0.00000000E+00
  0.00000000E+00  0.00000000E+00  0.00000000E+00
  0.00000000E+00  0.00000000E+00  0.00000000E+00
  0.00000000E+00  0.00000000E+00  0.00000000E+00
  0.00000000E+00  0.00000000E+00  0.00000000E+00
  0.00000000E+00  0.00000000E+00  0.00000000E+00
  0.00000000E+00  0.00000000E+00  0.00000000E+00
  0.00000000E+00  0.00000000E+00  0.00000000E+00
  0.00000000E+00  0.00000000E+00  0.00000000E+00
  0.00000000E+00  0.00000000E+00  0.00000000E+00
  0.00000000E+00  0.00000000E+00  0.00000000E+00
  0.00000000E+00  0.00000000E+00  0.00000000E+00
  0.00000000E+00  0.00000000E+00  0.00000000E+00
  0.00000000E+00  0.00000000E+00  0.00000000E+00
  0.00000000E+00  0.00000000E+00  0.00000000E+00
  0.00000000E+00  0.00000000E+00  0.00000000E+00
  0.00000000E+00  0.00000000E+00  0.00000000E+00
  0.00000000E+00  0.00000000E+00  0.00000000E+00
  0.00000000E+00  0.00000000E+00  0.00000000E+00
  0.00000000E+00  0.00000000E+00  0.00000000E+00
  0.00000000E+00  0.00000000E+00  0.00000000E+00
  0.00000000E+00  0.00000000E+00  0.00000000E+00
  0.00000000E+00  0.00000000E+00  0.00000000E+00
  0.00000000E+00  0.00000000E+00  0.00000000E+00
  0.00000000E+00  0.00000000E+00  0.00000000E+00
  0.00000000E+00  0.00000000E+00  0.00000000E+00
  0.00000000E+00  0.00000000E+00  0.00000000E+00
  0.00000000E+00  0.00000000E+00  0.00000000E+00
  0.00000000E+00  0.00000000E+00  0.00000000E+00
  0.00000000E+00  0.00000000E+00  0.00000000E+00
  0.00000000E+00  0.00000000E+00  0.00000000E+00
  0.00000000E+00  0.00000000E+00  0.00000000E+00
  0.00000000E+00  0.00000000E+00  0.00000000E+00
  0.00000000E+00  0.00000000E+00  0.00000000E+00
  0.00000000E+00  0.00000000E+00  0.00000000E+00
  0.00000000E+00  0.00000000E+00  0.00000000E+00
  0.00000000E+00  0.00000000E+00  0.00000000E+00
  0.00000000E+00  0.00000000E+00  0.00000000E+00
  0.00000000E+00  0.00000000E+00  0.00000000E+00
  0.00000000E+00  0.00000000E+00  0.00000000E+00
  0.00000000E+00  0.00000000E+00  0.00000000E+00
  0.00000000E+00  0.00000000E+00  0.00000000E+00
  0.00000000E+00  0.00000000E+00  0.00000000E+00
  0.00000000E+00  0.00000000E+00  0.00000000E+00
  0.00000000E+00  0.00000000E+00  0.00000000E+00
  0.00000000E+00  0.00000000E+00  0.00000000E+00
  0.00000000E+00  0.00000000E+00  0.00000000E+00
  0.00000000E+00  0.00000000E+00  0.00000000E+00
  0.00000000E+00  0.00000000E+00  0.00000000E+00
  0.00000000E+00  0.00000000E+00  0.00000000E+00
  0.00000000E+00  0.00000000E+00  0.00000000E+00
  0.00000000E+00  0.00000000E+00  0.00000000E+00
  0.00000000E+00  0.00000000E+00  0.00000000E+00
  0.00000000E+00  0.00000000E+00  0.00000000E+00
  0.00000000E+00  0.00000000E+00  0.00000000E+00
  0.00000000E+00  0.00000000E+00  0.00000000E+00
  0.00000000E+00  0.00000000E+00  0.00000000E+00
  0.00000000E+00  0.00000000E+00  0.00000000E+00
  0.00000000E+00  0.00000000E+00  0.00000000E+00
  0.00000000E+00  0.00000000E+00  0.00000000E+00
  0.00000000E+00  0.00000000E+00  0.00000000E+00
  0.00000000E+00  0.00000000E+00  0.00000000E+00
  0.00000000E+00  0.00000000E+00  0.00000000E+00
  0.00000000E+00  0.00000000E+00  0.00000000E+00
  0.00000000E+00  0.00000000E+00  0.00000000E+00
  0.00000000E+00  0.00000000E+00  0.00000000E+00
  0.00000000E+00  0.00000000E+00  0.00000000E+00
  0.00000000E+00  0.00000000E+00  0.00000000E+00
  0.00000000E+00  0.00000000E+00  0.00000000E+00
  0.00000000E+00  0.00000000E+00  0.00000000E+00
  0.00000000E+00  0.00000000E+00  0.00000000E+00
  0.00000000E+00  0.00000000E+00  0.00000000E+00
  0.00000000E+00  0.00000000E+00  0.00000000E+00
  0.00000000E+00  0.00000000E+00  0.00000000E+00
  0.00000000E+00  0.00000000E+00  0.00000000E+00
  0.00000000E+00  0.00000000E+00  0.00000000E+00
  0.00000000E+00  0.00000000E+00  0.00000000E+00
  0.00000000E+00  0.00000000E+00  0.00000000E+00
  0.00000000E+00  0.00000000E+00  0.00000000E+00
  0.00000000E+00  0.00000000E+00  0.00000000E+00
  0.00000000E+00  0.00000000E+00  0.00000000E+00
  0.00000000E+00  0.00000000E+00  0.00000000E+00
  0.00000000E+00  0.00000000E+00  0.00000000E+00
  0.00000000E+00  0.00000000E+00  0.00000000E+00
  0.00000000E+00  0.00000000E+00  0.00000000E+00
  0.00000000E+00  0.00000000E+00  0.00000000E+00
  0.00000000E+00  0.00000000E+00  0.00000000E+00
  0.00000000E+00  0.00000000E+00  0.00000000E+00
  0.00000000E+00  0.00000000E+00  0.00000000E+00
  0.00000000E+00  0.00000000E+00  0.00000000E+00
  0.00000000E+00  0.00000000E+00  0.00000000E+00
  0.00000000E+00  0.00000000E+00  0.00000000E+00
  0.00000000E+00  0.00000000E+00  0.00000000E+00
  0.00000000E+00  0.00000000E+00  0.00000000E+00
  0.00000000E+00  0.00000000E+00  0.00000000E+00
  0.00000000E+00  0.00000000E+00  0.00000000E+00
  0.00000000E+00  0.00000000E+00  0.00000000E+00
  0.00000000E+00  0.00000000E+00  0.00000000E+00
  0.00000000E+00  0.00000000E+00  0.00000000E+00
  0.00000000E+00  0.00000000E+00  0.00000000E+00
  0.00000000E+00  0.00000000E+00  0.00000000E+00
  0.00000000E+00  0.00000000E+00  0.00000000E+00
  0.00000000E+00  0.00000000E+00  0.00000000E+00
  0.00000000E+00  0.00000000E+00  0.00000000E+00
  0.00000000E+00  0.00000000E+00  0.00000000E+00
  0.00000000E+00  0.00000000E+00  0.00000000E+00
  0.00000000E+00  0.00000000E+00  0.00000000E+00
  0.00000000E+00  0.00000000E+00  0.00000000E+00
  0.00000000E+00  0.00000000E+00  0.00000000E+00
  0.00000000E+00  0.00000000E+00  0.00000000E+00
  0.00000000E+00  0.00000000E+00  0.00000000E+00
  0.00000000E+00  0.00000000E+00  0.00000000E+00
  0.00000000E+00  0.00000000E+00  0.00000000E+00
  0.00000000E+00  0.00000000E+00  0.00000000E+00
  0.00000000E+00  0.00000000E+00  0.00000000E+00
  0.00000000E+00  0.00000000E+00  0.00000000E+00
  0.00000000E+00  0.00000000E+00  0.00000000E+00
  0.00000000E+00  0.00000000E+00  0.00000000E+00
  0.00000000E+00  0.00000000E+00  0.00000000E+00
  0.00000000E+00  0.00000000E+00  0.00000000E+00
  0.00000000E+00  0.00000000E+00  0.00000000E+00