CuInSe2gb                               
   1.00000000000000     
     9.7266780392896699    0.0000000000000000    0.0000000000000000
     0.0000000000000000    8.4235502764570693    0.0000000000000000
     0.0000000000000000    0.0000000000000000   45.0000000000000000
   Fe   Mn
   274    14
Direct
  0.0604859049728418  0.0335526513453555  0.1246863608911256
  0.3135361323471781  0.8742605748766087  0.6548133175555645
  0.1872125927946445  0.1233855273564072  0.7880870086319225
  0.4395861611115153  0.2881757147974671  0.3894756406629443
  0.3148139487270438  0.7099702618745017  0.8330946981233834
  0.8159439625550499  0.2111183298950433  0.8333483173274585
  0.1890734065191862  0.9606050027224535  0.8334144392483529
  0.5618423659151334  0.2061638156873822  0.5656809077506355
  0.0633000786196445  0.0405227264690506  0.7439127740707819
  0.8113054221763053  0.8724479339581538  0.5216400813758689
  0.1884597351214202  0.2908136901415017  0.7440052765386446
  0.9372794985068297  0.4542018324325365  0.3450723839066077
  0.3080029098548104  0.8663896150886824  0.1668649535756840
  0.8127171990021070  0.0435359092931108  0.8752528257538014
  0.1857127810434741  0.7889430425787013  0.6104822555771738
  0.5642455406466043  0.0376000560912751  0.3894124596629716
  0.9411794455328876  0.9611308510768954  0.8334469993171870
  0.3139658660257463  0.5429537841703258  0.8753351224138938
  0.6887714719290360  0.2905362727845737  0.7440025458655375
  0.1840581580712451  0.6174012212239023  0.1667300098630393
  0.8117050082288658  0.2051789353445108  0.4783659447189698
  0.8107681121768570  0.5388503322175575  0.6105587483128523
  0.3125292532003436  0.8710975207347905  0.4342682085813920
  0.8118719723677552  0.0384035400223865  0.2560330425574546
  0.6870933993280531  0.9542699941142235  0.3450553972735980
  0.9335348782841175  0.1164443948537686  0.1668781393656836
  0.0621219183852201  0.8725286376107704  0.5217055289419785
  0.5617673125394831  0.5387118097385020  0.2561460523014232
  0.6871467183700355  0.7927526602591806  0.8753042253287540
  0.5584193599164903  0.3672227605731248  0.1665606446779234
  0.4387646399026516  0.7907589433774872  0.7440182281303073
  0.8115254236565852  0.7060608544545739  0.5656575248232246
  0.5621300833925134  0.8731947294177420  0.7881025789545824
  0.6863369633054034  0.1221763660552467  0.5215895264914184
  0.8133973593211951  0.3743834271328371  0.6549567942800775
  0.9405972470468013  0.4610202961841253  0.8334183531362136
  0.0618097244848553  0.2074898343842670  0.6994966257288524
  0.4369060997711396  0.9571926173852372  0.6995175492269824
  0.3145379973768917  0.2096243017746028  0.8335055232578225
  0.4385196637168103  0.6239750248465875  0.6548274191398384
  0.3110440143603888  0.5392755277548299  0.6105180381387914
  0.9366139921529604  0.4556781764677807  0.5657267813309590
  0.6887712952989820  0.7911052450657965  0.7439614049879952
  0.9346415341274369  0.7838072866274934  0.1248857328946753
  0.6891823661871258  0.7881285628021780  0.3894247956602422
  0.9388071302400526  0.7907566451306132  0.7439403231013479
  0.0624498131944429  0.2041991948945777  0.3451671024902491
  0.6874251485147502  0.4542324019697817  0.3451458045911324
  0.4368781194956929  0.1234447375646212  0.7882105607165555
  0.0624804642887225  0.2044067683917592  0.2117106500351705
  0.0582247126664020  0.3669559143856317  0.1666410408087995
  0.9366395320242016  0.7885423724539218  0.2560528498090096
  0.5619109386347592  0.2071525712588631  0.6995247881244830
  0.6866930115673688  0.9572509304631525  0.6995985723044982
  0.8116082949918769  0.8737018939304131  0.7880182168664325
  0.4366688851183889  0.9559404157406890  0.5656321271528852
  0.8119035233550891  0.3736340012065282  0.7879831783471658
  0.6868737185389215  0.2882509873521398  0.2561745792390642
  0.1870113599992002  0.4561234648239797  0.5656514194190813
  0.0590556591169762  0.8668736285918880  0.1667027743769660
  0.1861560627906961  0.2889879105179597  0.6105330612384754
  0.1896913078513542  0.7873327705774157  0.3894613992333683
  0.3120099831839591  0.2073632913870405  0.6995914213457136
  0.5646078657223594  0.5435605011418494  0.8752650447037906
  0.0617295980343417  0.7059818811391583  0.5656309794646880
  0.6866292410772787  0.6236442489839089  0.7880356729872549
  0.3142450944432932  0.5381420321191108  0.3894943797759848
  0.1871165313152737  0.6224838697357964  0.5215742631406309
  0.5626425958639169  0.8713299493755094  0.4343042476546261
  0.4366122622325915  0.4567313200465691  0.5656214870441992
  0.4388257161809045  0.2910530091723644  0.7439560402784451
  0.8151994317124387  0.8733004189928353  0.3003996406591873
  0.8124003653651098  0.7041108441410191  0.3452001395089224
  0.4402304298835737  0.4597811139652435  0.8333805238782955
  0.6873362782566328  0.9547095478278208  0.4783485634490817
  0.6870345656325183  0.4571031526528839  0.6995264282529576
  0.5618657866419255  0.8723758471300567  0.5215698534030734
  0.5638432958274140  0.3738612026886388  0.6547347688041580
  0.8135629966640413  0.8736368034937857  0.6548618190876315
  0.8124181187745851  0.3709522205822026  0.4342729630481091
  0.8116181214372051  0.5380448593929704  0.2561761127133872
  0.6905624282129555  0.4603666171135899  0.8333054235431905
  0.1853298526386039  0.7839159951118697  0.1247582526103272
  0.6889820121748746  0.2876268001386796  0.3894278223101858
  0.3134820654686790  0.3741294239836949  0.6548988183512094
  0.3123417875301335  0.2037381801217716  0.3451653668479204
  0.8138790672457091  0.5407155285067560  0.7438433733896305
  0.6903630610808240  0.9604027782860963  0.8333735378577278
  0.5635479406910011  0.8738206290827663  0.6548739308064978
  0.3121419040742127  0.7062947985138072  0.5656827948363243
  0.3101319684686904  0.5347426152409938  0.1245354639764109
  0.6881445560906317  0.9541416675406114  0.2119130270518535
  0.3122478499811088  0.2063357613896343  0.5655950126616353
  0.1869537114452714  0.9545610976823644  0.4782552787999091
  0.6873294825186468  0.9557416434957888  0.5656048712035646
  0.4358916431825034  0.7895043948079363  0.6104879185036145
  0.6831732839242224  0.6156606032573565  0.1668270741642359
  0.3153245973560994  0.8721503761997668  0.3004613970451184
  0.3122923553849669  0.7046559448088245  0.4783170267671676
  0.9357430921446167  0.2888946533754150  0.6105709702741714
  0.4404202696626973  0.6228535332028006  0.3005658991326055
  0.8084347574172274  0.8663105055951098  0.1668791477230487
  0.5641140253252495  0.2037604608160276  0.2120325737470931
  0.9344618102298008  0.6162390541081736  0.1669315306377752
  0.4371282379711177  0.9548106451462066  0.4783074067044175
  0.5619840149615158  0.3732292430576121  0.7881554396583925
  0.0616267643580121  0.3728634744006651  0.5216355309746982
  0.3083454042800475  0.3664497218436167  0.1665932371996298
  0.6901587899949385  0.1230347782484493  0.3003832746283088
  0.4406234131358124  0.9597692514460148  0.8333238457981246
  0.1856683749949265  0.2837145113857659  0.1247027525385456
  0.1867227821500025  0.2878230956949180  0.2560756567171781
  0.3125169934699913  0.3712999348691542  0.4343163086213331
  0.5612865692492479  0.0338580021724428  0.1246804608613412
  0.4357822114973097  0.2892726223110915  0.6104871539699545
  0.1872061458967766  0.4541603670694098  0.3451535947094023
  0.4328267478774667  0.2835427306300015  0.1247299739941956
  0.6866329744278855  0.7885747399087567  0.2561754683110711
  0.4367850744561307  0.1226192064529340  0.5215619357806131
  0.1895868628357718  0.2921928845299375  0.8755446474432186
  0.1883396988811620  0.1241211431943759  0.6549138683669777
  0.9388382069313027  0.1238122275456300  0.6548756358059907
  0.8139664060760949  0.5377549142591177  0.3894840508712221
  0.0643367561227939  0.0377828057051672  0.3894393051877126
  0.1840265329234845  0.1166374725659458  0.1666915756548681
  0.0609059081187611  0.5388436049615600  0.6104872384094640
  0.9366397612363335  0.2881475578277233  0.2561022483644828
  0.5608642508275034  0.5393743517912866  0.6104709685068788
  0.9366582000579298  0.9556406835469193  0.5657149149905545
  0.6904450505277435  0.6234816065892709  0.3005315968665121
  0.9375256141743080  0.6209781877852242  0.4342545267605779
  0.9366954043963100  0.6248269832800319  0.7880391002269400
  0.5616492795427345  0.7068326758499864  0.6995069974713836
  0.0641643003666788  0.7118356318893125  0.8334017176668727
  0.9401152454128979  0.1234452650173594  0.3004275092501629
  0.9358683118407047  0.7888310093997533  0.6105480316553419
  0.4368584126309379  0.7882661254678829  0.2562149145141638
  0.3119698701902895  0.3728413524666320  0.7881085288632614
  0.4385532193457942  0.4547544724675038  0.2119423071097946
  0.1872790088396587  0.1221023563839991  0.5215859536621122
  0.8118934564293284  0.7073908719406669  0.6995811857896912
  0.0605428697511031  0.0389238882838005  0.6104867775097946
  0.5645870056173847  0.2099874651800404  0.8331607086948964
  0.3116789233801601  0.8723690137860007  0.5215725107085415
  0.6859013361108336  0.2835051274431161  0.1246889052116876
  0.1876761939191989  0.9555112601593759  0.2119287712211128
  0.6856765137427463  0.2894109779093723  0.6105862704967774
  0.3107465621515559  0.0390901354304183  0.6104965654648823
  0.9369567479489460  0.1245206296603251  0.7881194965851404
  0.4380484917038547  0.7918147935291364  0.8753278049277091
  0.8137974519206370  0.0408693613429432  0.7438678569245204
  0.9368558787941590  0.4572422605161602  0.6995402345919741
  0.1883626653929423  0.6238054616134125  0.6548445820174686
  0.3118774827961924  0.7072325052921531  0.6995247893111483
  0.9340303155875045  0.2835631155001185  0.1246837193682346
  0.4371600685231469  0.4547499387724971  0.4783084286093087
  0.0621882907986973  0.7044856718905225  0.4783183483863703
  0.9374056793956557  0.1209171908677610  0.4345900526549321
  0.4404258437961054  0.1228681703117625  0.3004924921930265
  0.1875522917485645  0.1210129877543446  0.4341653990330375
  0.5646072986484334  0.0430949067833233  0.8753807787855167
  0.1864407961019365  0.9557854048187522  0.5656575765631227
  0.6847385911162843  0.7845333894783669  0.1249360270654284
  0.5624068253576394  0.7041472808842238  0.3452063142724368
  0.3141852151933707  0.0375506449328901  0.3894403949890162
  0.6841903976268134  0.1161281119489745  0.1669099457424680
  0.8135991431299184  0.2040725328017841  0.2119011374340724
  0.0616535204204828  0.5384986634184593  0.2560525228515868
  0.5621092632895297  0.7047694484207080  0.4783277457896011
  0.4342755497435385  0.7845040504503233  0.1247489518909344
  0.5652626883334616  0.3732040234019421  0.3005356844193770
  0.4372910592606636  0.9539596271424645  0.3451602044259211
  0.1871074990612716  0.9575579853028311  0.6995798482697476
  0.4341461927277542  0.6166940570116467  0.1667211111126181
  0.9385339336137570  0.4547368519548116  0.2120240933333263
  0.0604604498022865  0.5339515453968587  0.1246238156725972
  0.8119355334051279  0.3726814733696352  0.5216775185789841
  0.9403600386968786  0.6239412240163409  0.3004292781865087
  0.3115933361211413  0.0385752015947655  0.2560544082235424
  0.6861181992782680  0.7891010990558036  0.6104886360196004
  0.1899796583985482  0.4605562417828152  0.8333959475968202
  0.4337869850904681  0.1161088791212788  0.1668122843825518
  0.3115228413989047  0.3724385246759341  0.5216392710869104
  0.4370953588134198  0.6235135452405397  0.7881730097658127
  0.0614202754776929  0.0381690495041836  0.2560531765997157
  0.5617068638629925  0.7063409745225158  0.5656801595047939
  0.9388695801135570  0.2902661084278975  0.7439344598815754
  0.6867172697675797  0.1235836659296115  0.7880001577284024
  0.1874493915148102  0.4550537517461870  0.2118934387501158
  0.9392421150887713  0.7875638552677963  0.3894296519957772
  0.6874787919272245  0.2928115277620653  0.8754333914449220
  0.5578648769746744  0.8664688974100480  0.1666740884590153
  0.4368847503594381  0.4569894912182954  0.6994815000073897
  0.9372781911050060  0.9542588451268803  0.3451243485412728
  0.6864481269865640  0.6224569987147642  0.5215774039074419
  0.0637349299574674  0.8733610070008628  0.6549529363832901
  0.0621900482515305  0.8736687002209950  0.7881566317144143
  0.0635497856495142  0.3740337019470782  0.6548619612048147
  0.6871507425432721  0.4546658839777716  0.4783523931020732
  0.1866406844826230  0.7885895900450886  0.2561116236143908
  0.4375830690373824  0.1211565501965905  0.4342272060326950
  0.8108657942296492  0.0343748136779948  0.1247898160668323
  0.9366745628213254  0.6222940904117015  0.5215867883096327
  0.0624469220274399  0.8709713841040073  0.4341802372063392
  0.8117085016632029  0.5339158986506123  0.1244997731652128
  0.4371859219871080  0.4541330741472143  0.3452067321568592
  0.8121886566689493  0.2040126042850749  0.3450978227733785
  0.3123111588708211  0.7041741840921091  0.3451231272438040
  0.6888401779330574  0.1239782570402882  0.6548682175730204
  0.5651674603252690  0.8726872269006488  0.3004714119162348
  0.0633728026115581  0.5402685899388613  0.7438816930171898
  0.9382842147221867  0.9548373934120314  0.2118632671106536
  0.8137762323280850  0.7043529157533367  0.2119707686670781
  0.0652552165313893  0.8732736940929479  0.3005041703095193
  0.1904211009620658  0.1228456314838374  0.3003836621496487
  0.0623559292123731  0.7042838441986442  0.3451650992434525
  0.8113858567417396  0.0391325290443636  0.6104682399890096
  0.0625108277503668  0.3712327557332801  0.4342192165282116
  0.5624352746529095  0.2038075051471653  0.3452127198675854
  0.8151867746344736  0.3734234965159035  0.3003462385654493
  0.5622278738818078  0.0387129596299623  0.2561302689144136
  0.5638985237885754  0.5380415508205461  0.3894906252609956
  0.0626826068393249  0.2049149462061450  0.4785501229975247
  0.3123847301767438  0.8726824707163625  0.7879552066368141
  0.9368269494794236  0.9574411594176643  0.6995054467169672
  0.0651572976894060  0.3732782488605533  0.3005385655752823
  0.6889982034131146  0.6240292872164165  0.6548650782477013
  0.6867918134776483  0.4562295121925407  0.5657040066485600
  0.4383799933964946  0.9548208536995327  0.2119215817051157
  0.3122855771511472  0.2048715434903663  0.4782639667593683
  0.8134136991690579  0.5430920045063788  0.8752804912061058
  0.6873174429084465  0.6210778529356376  0.4342443463299834
  0.8119779552852566  0.2073468580104000  0.6995638552265729
  0.8121107765134845  0.7045856832612406  0.4783580609496161
  0.8124145615414048  0.8708966883347043  0.4342447601441725
  0.9372751861058306  0.9539318927746483  0.4784050582642311
  0.5621332165359636  0.2048091911367082  0.4783269163584636
  0.1874783658799168  0.6210365263138000  0.4342476637820339
  0.3135585099587086  0.0411321953919555  0.7439549985751663
  0.9385831877846794  0.6238944339277879  0.6548402142189884
  0.5649302943333581  0.7100717992261509  0.8331688787085682
  0.3152018424395918  0.3726738627226964  0.3004958480351507
  0.5639800905799093  0.7046326881910350  0.2118528619415593
  0.1873913570052051  0.4546016383543787  0.4783317051607118
  0.3151668270081693  0.0441957066602897  0.8753248843014461
  0.1866778660208907  0.4573091297795460  0.6995401306749564
  0.5618782412056287  0.3725305137815322  0.5215985742153364
  0.1894283979360170  0.2878633719860295  0.3895064067248482
  0.4375829053618559  0.6211102769915687  0.4342797178632347
  0.0629486754209417  0.7042613571425244  0.2117492322434263
  0.5624172156349677  0.3711215722801565  0.4342974017294278
  0.4367993917862313  0.6224827161177309  0.5216124178928095
  0.8152555317738620  0.7110780267389423  0.8330600382859660
  0.0624356488190782  0.3741673689695761  0.7880273022684174
  0.4379103607583609  0.2926713408957474  0.8755317693131003
  0.3108092467086839  0.0348160209703920  0.1245368532366930
  0.6874624103703660  0.1211886057377412  0.4341956464375107
  0.1873512772731435  0.9538682087886062  0.3451726619721058
  0.0644573793745210  0.2106568141726721  0.8333208999377594
  0.5608346364411537  0.0392444811072358  0.6104750759335877
  0.6876994894401206  0.4543251172805184  0.2119758116437152
  0.1885279700216141  0.7906102422595401  0.7438917468509052
  0.1901980455745440  0.6230373866512608  0.3004682011944118
  0.4393957337990695  0.7874993207122040  0.3894426164711272
  0.4368761621615532  0.2883848699374925  0.2561220107090319
  0.0655326578909740  0.5428158354592829  0.8753688981924285
  0.5642694968316451  0.0411095032861283  0.7440240608512944
  0.1887998225363540  0.7921525612854609  0.8754895178161320
  0.9371964244856443  0.4544505437280877  0.4783125086557610
  0.5641688209956242  0.5408921270851825  0.7439113864187034
  0.8112044594484825  0.2060999317078028  0.5656661392747051
  0.1872673800581170  0.6237714593406173  0.7880626250498872
  0.0646005923016318  0.5373074112792912  0.3894812573760922
  0.0619967186403659  0.7075357552398066  0.6995136210731896
  0.3114056502994157  0.5376194629286067  0.2560501769944485
  0.3135428388124940  0.7052098944174215  0.2119402495989993
  0.9399128420055145  0.2881478146841959  0.3892867274320863
  0.3137932019710563  0.2053619387912590  0.2120576015252372
  0.8145392176579711  0.0374413230446842  0.3893550361065267
  0.9367962646650007  0.2934446063406110  0.8753551986460396
  0.9378290250325322  0.7903537246381634  0.8752500573138735
  0.0656448169144304  0.0422037092034039  0.8752009747187488
  0.5615606229303908  0.5339629063185907  0.1249130129377408
  0.8075121313141771  0.3668590511686965  0.1661898497612686
  0.4390036740880081  0.1241048842907046  0.6547328826838047
  0.9367835357094353  0.1224417231719881  0.5213862022050151
  0.0623801834180035  0.2064722019110023  0.5658767082094572
  0.3138896285957316  0.5406132907145346  0.7440522682385013
 
  0.00000000E+00  0.00000000E+00  0.00000000E+00
  0.00000000E+00  0.00000000E+00  0.00000000E+00
  0.00000000E+00  0.00000000E+00  0.00000000E+00
  0.00000000E+00  0.00000000E+00  0.00000000E+00
  0.00000000E+00  0.00000000E+00  0.00000000E+00
  0.00000000E+00  0.00000000E+00  0.00000000E+00
  0.00000000E+00  0.00000000E+00  0.00000000E+00
  0.00000000E+00  0.00000000E+00  0.00000000E+00
  0.00000000E+00  0.00000000E+00  0.00000000E+00
  0.00000000E+00  0.00000000E+00  0.00000000E+00
  0.00000000E+00  0.00000000E+00  0.00000000E+00
  0.00000000E+00  0.00000000E+00  0.00000000E+00
  0.00000000E+00  0.00000000E+00  0.00000000E+00
  0.00000000E+00  0.00000000E+00  0.00000000E+00
  0.00000000E+00  0.00000000E+00  0.00000000E+00
  0.00000000E+00  0.00000000E+00  0.00000000E+00
  0.00000000E+00  0.00000000E+00  0.00000000E+00
  0.00000000E+00  0.00000000E+00  0.00000000E+00
  0.00000000E+00  0.00000000E+00  0.00000000E+00
  0.00000000E+00  0.00000000E+00  0.00000000E+00
  0.00000000E+00  0.00000000E+00  0.00000000E+00
  0.00000000E+00  0.00000000E+00  0.00000000E+00
  0.00000000E+00  0.00000000E+00  0.00000000E+00
  0.00000000E+00  0.00000000E+00  0.00000000E+00
  0.00000000E+00  0.00000000E+00  0.00000000E+00
  0.00000000E+00  0.00000000E+00  0.00000000E+00
  0.00000000E+00  0.00000000E+00  0.00000000E+00
  0.00000000E+00  0.00000000E+00  0.00000000E+00
  0.00000000E+00  0.00000000E+00  0.00000000E+00
  0.00000000E+00  0.00000000E+00  0.00000000E+00
  0.00000000E+00  0.00000000E+00  0.00000000E+00
  0.00000000E+00  0.00000000E+00  0.00000000E+00
  0.00000000E+00  0.00000000E+00  0.00000000E+00
  0.00000000E+00  0.00000000E+00  0.00000000E+00
  0.00000000E+00  0.00000000E+00  0.00000000E+00
  0.00000000E+00  0.00000000E+00  0.00000000E+00
  0.00000000E+00  0.00000000E+00  0.00000000E+00
  0.00000000E+00  0.00000000E+00  0.00000000E+00
  0.00000000E+00  0.00000000E+00  0.00000000E+00
  0.00000000E+00  0.00000000E+00  0.00000000E+00
  0.00000000E+00  0.00000000E+00  0.00000000E+00
  0.00000000E+00  0.00000000E+00  0.00000000E+00
  0.00000000E+00  0.00000000E+00  0.00000000E+00
  0.00000000E+00  0.00000000E+00  0.00000000E+00
  0.00000000E+00  0.00000000E+00  0.00000000E+00
  0.00000000E+00  0.00000000E+00  0.00000000E+00
  0.00000000E+00  0.00000000E+00  0.00000000E+00
  0.00000000E+00  0.00000000E+00  0.00000000E+00
  0.00000000E+00  0.00000000E+00  0.00000000E+00
  0.00000000E+00  0.00000000E+00  0.00000000E+00
  0.00000000E+00  0.00000000E+00  0.00000000E+00
  0.00000000E+00  0.00000000E+00  0.00000000E+00
  0.00000000E+00  0.00000000E+00  0.00000000E+00
  0.00000000E+00  0.00000000E+00  0.00000000E+00
  0.00000000E+00  0.00000000E+00  0.00000000E+00
  0.00000000E+00  0.00000000E+00  0.00000000E+00
  0.00000000E+00  0.00000000E+00  0.00000000E+00
  0.00000000E+00  0.00000000E+00  0.00000000E+00
  0.00000000E+00  0.00000000E+00  0.00000000E+00
  0.00000000E+00  0.00000000E+00  0.00000000E+00
  0.00000000E+00  0.00000000E+00  0.00000000E+00
  0.00000000E+00  0.00000000E+00  0.00000000E+00
  0.00000000E+00  0.00000000E+00  0.00000000E+00
  0.00000000E+00  0.00000000E+00  0.00000000E+00
  0.00000000E+00  0.00000000E+00  0.00000000E+00
  0.00000000E+00  0.00000000E+00  0.00000000E+00
  0.00000000E+00  0.00000000E+00  0.00000000E+00
  0.00000000E+00  0.00000000E+00  0.00000000E+00
  0.00000000E+00  0.00000000E+00  0.00000000E+00
  0.00000000E+00  0.00000000E+00  0.00000000E+00
  0.00000000E+00  0.00000000E+00  0.00000000E+00
  0.00000000E+00  0.00000000E+00  0.00000000E+00
  0.00000000E+00  0.00000000E+00  0.00000000E+00
  0.00000000E+00  0.00000000E+00  0.00000000E+00
  0.00000000E+00  0.00000000E+00  0.00000000E+00
  0.00000000E+00  0.00000000E+00  0.00000000E+00
  0.00000000E+00  0.00000000E+00  0.00000000E+00
  0.00000000E+00  0.00000000E+00  0.00000000E+00
  0.00000000E+00  0.00000000E+00  0.00000000E+00
  0.00000000E+00  0.00000000E+00  0.00000000E+00
  0.00000000E+00  0.00000000E+00  0.00000000E+00
  0.00000000E+00  0.00000000E+00  0.00000000E+00
  0.00000000E+00  0.00000000E+00  0.00000000E+00
  0.00000000E+00  0.00000000E+00  0.00000000E+00
  0.00000000E+00  0.00000000E+00  0.00000000E+00
  0.00000000E+00  0.00000000E+00  0.00000000E+00
  0.00000000E+00  0.00000000E+00  0.00000000E+00
  0.00000000E+00  0.00000000E+00  0.00000000E+00
  0.00000000E+00  0.00000000E+00  0.00000000E+00
  0.00000000E+00  0.00000000E+00  0.00000000E+00
  0.00000000E+00  0.00000000E+00  0.00000000E+00
  0.00000000E+00  0.00000000E+00  0.00000000E+00
  0.00000000E+00  0.00000000E+00  0.00000000E+00
  0.00000000E+00  0.00000000E+00  0.00000000E+00
  0.00000000E+00  0.00000000E+00  0.00000000E+00
  0.00000000E+00  0.00000000E+00  0.00000000E+00
  0.00000000E+00  0.00000000E+00  0.00000000E+00
  0.00000000E+00  0.00000000E+00  0.00000000E+00
  0.00000000E+00  0.00000000E+00  0.00000000E+00
  0.00000000E+00  0.00000000E+00  0.00000000E+00
  0.00000000E+00  0.00000000E+00  0.00000000E+00
  0.00000000E+00  0.00000000E+00  0.00000000E+00
  0.00000000E+00  0.00000000E+00  0.00000000E+00
  0.00000000E+00  0.00000000E+00  0.00000000E+00
  0.00000000E+00  0.00000000E+00  0.00000000E+00
  0.00000000E+00  0.00000000E+00  0.00000000E+00
  0.00000000E+00  0.00000000E+00  0.00000000E+00
  0.00000000E+00  0.00000000E+00  0.00000000E+00
  0.00000000E+00  0.00000000E+00  0.00000000E+00
  0.00000000E+00  0.00000000E+00  0.00000000E+00
  0.00000000E+00  0.00000000E+00  0.00000000E+00
  0.00000000E+00  0.00000000E+00  0.00000000E+00
  0.00000000E+00  0.00000000E+00  0.00000000E+00
  0.00000000E+00  0.00000000E+00  0.00000000E+00
  0.00000000E+00  0.00000000E+00  0.00000000E+00
  0.00000000E+00  0.00000000E+00  0.00000000E+00
  0.00000000E+00  0.00000000E+00  0.00000000E+00
  0.00000000E+00  0.00000000E+00  0.00000000E+00
  0.00000000E+00  0.00000000E+00  0.00000000E+00
  0.00000000E+00  0.00000000E+00  0.00000000E+00
  0.00000000E+00  0.00000000E+00  0.00000000E+00
  0.00000000E+00  0.00000000E+00  0.00000000E+00
  0.00000000E+00  0.00000000E+00  0.00000000E+00
  0.00000000E+00  0.00000000E+00  0.00000000E+00
  0.00000000E+00  0.00000000E+00  0.00000000E+00
  0.00000000E+00  0.00000000E+00  0.00000000E+00
  0.00000000E+00  0.00000000E+00  0.00000000E+00
  0.00000000E+00  0.00000000E+00  0.00000000E+00
  0.00000000E+00  0.00000000E+00  0.00000000E+00
  0.00000000E+00  0.00000000E+00  0.00000000E+00
  0.00000000E+00  0.00000000E+00  0.00000000E+00
  0.00000000E+00  0.00000000E+00  0.00000000E+00
  0.00000000E+00  0.00000000E+00  0.00000000E+00
  0.00000000E+00  0.00000000E+00  0.00000000E+00
  0.00000000E+00  0.00000000E+00  0.00000000E+00
  0.00000000E+00  0.00000000E+00  0.00000000E+00
  0.00000000E+00  0.00000000E+00  0.00000000E+00
  0.00000000E+00  0.00000000E+00  0.00000000E+00
  0.00000000E+00  0.00000000E+00  0.00000000E+00
  0.00000000E+00  0.00000000E+00  0.00000000E+00
  0.00000000E+00  0.00000000E+00  0.00000000E+00
  0.00000000E+00  0.00000000E+00  0.00000000E+00
  0.00000000E+00  0.00000000E+00  0.00000000E+00
  0.00000000E+00  0.00000000E+00  0.00000000E+00
  0.00000000E+00  0.00000000E+00  0.00000000E+00
  0.00000000E+00  0.00000000E+00  0.00000000E+00
  0.00000000E+00  0.00000000E+00  0.00000000E+00
  0.00000000E+00  0.00000000E+00  0.00000000E+00
  0.00000000E+00  0.00000000E+00  0.00000000E+00
  0.00000000E+00  0.00000000E+00  0.00000000E+00
  0.00000000E+00  0.00000000E+00  0.00000000E+00
  0.00000000E+00  0.00000000E+00  0.00000000E+00
  0.00000000E+00  0.00000000E+00  0.00000000E+00
  0.00000000E+00  0.00000000E+00  0.00000000E+00
  0.00000000E+00  0.00000000E+00  0.00000000E+00
  0.00000000E+00  0.00000000E+00  0.00000000E+00
  0.00000000E+00  0.00000000E+00  0.00000000E+00
  0.00000000E+00  0.00000000E+00  0.00000000E+00
  0.00000000E+00  0.00000000E+00  0.00000000E+00
  0.00000000E+00  0.00000000E+00  0.00000000E+00
  0.00000000E+00  0.00000000E+00  0.00000000E+00
  0.00000000E+00  0.00000000E+00  0.00000000E+00
  0.00000000E+00  0.00000000E+00  0.00000000E+00
  0.00000000E+00  0.00000000E+00  0.00000000E+00
  0.00000000E+00  0.00000000E+00  0.00000000E+00
  0.00000000E+00  0.00000000E+00  0.00000000E+00
  0.00000000E+00  0.00000000E+00  0.00000000E+00
  0.00000000E+00  0.00000000E+00  0.00000000E+00
  0.00000000E+00  0.00000000E+00  0.00000000E+00
  0.00000000E+00  0.00000000E+00  0.00000000E+00
  0.00000000E+00  0.00000000E+00  0.00000000E+00
  0.00000000E+00  0.00000000E+00  0.00000000E+00
  0.00000000E+00  0.00000000E+00  0.00000000E+00
  0.00000000E+00  0.00000000E+00  0.00000000E+00
  0.00000000E+00  0.00000000E+00  0.00000000E+00
  0.00000000E+00  0.00000000E+00  0.00000000E+00
  0.00000000E+00  0.00000000E+00  0.00000000E+00
  0.00000000E+00  0.00000000E+00  0.00000000E+00
  0.00000000E+00  0.00000000E+00  0.00000000E+00
  0.00000000E+00  0.00000000E+00  0.00000000E+00
  0.00000000E+00  0.00000000E+00  0.00000000E+00
  0.00000000E+00  0.00000000E+00  0.00000000E+00
  0.00000000E+00  0.00000000E+00  0.00000000E+00
  0.00000000E+00  0.00000000E+00  0.00000000E+00
  0.00000000E+00  0.00000000E+00  0.00000000E+00
  0.00000000E+00  0.00000000E+00  0.00000000E+00
  0.00000000E+00  0.00000000E+00  0.00000000E+00
  0.00000000E+00  0.00000000E+00  0.00000000E+00
  0.00000000E+00  0.00000000E+00  0.00000000E+00
  0.00000000E+00  0.00000000E+00  0.00000000E+00
  0.00000000E+00  0.00000000E+00  0.00000000E+00
  0.00000000E+00  0.00000000E+00  0.00000000E+00
  0.00000000E+00  0.00000000E+00  0.00000000E+00
  0.00000000E+00  0.00000000E+00  0.00000000E+00
  0.00000000E+00  0.00000000E+00  0.00000000E+00
  0.00000000E+00  0.00000000E+00  0.00000000E+00
  0.00000000E+00  0.00000000E+00  0.00000000E+00
  0.00000000E+00  0.00000000E+00  0.00000000E+00
  0.00000000E+00  0.00000000E+00  0.00000000E+00
  0.00000000E+00  0.00000000E+00  0.00000000E+00
  0.00000000E+00  0.00000000E+00  0.00000000E+00
  0.00000000E+00  0.00000000E+00  0.00000000E+00
  0.00000000E+00  0.00000000E+00  0.00000000E+00
  0.00000000E+00  0.00000000E+00  0.00000000E+00
  0.00000000E+00  0.00000000E+00  0.00000000E+00
  0.00000000E+00  0.00000000E+00  0.00000000E+00
  0.00000000E+00  0.00000000E+00  0.00000000E+00
  0.00000000E+00  0.00000000E+00  0.00000000E+00
  0.00000000E+00  0.00000000E+00  0.00000000E+00
  0.00000000E+00  0.00000000E+00  0.00000000E+00
  0.00000000E+00  0.00000000E+00  0.00000000E+00
  0.00000000E+00  0.00000000E+00  0.00000000E+00
  0.00000000E+00  0.00000000E+00  0.00000000E+00
  0.00000000E+00  0.00000000E+00  0.00000000E+00
  0.00000000E+00  0.00000000E+00  0.00000000E+00
  0.00000000E+00  0.00000000E+00  0.00000000E+00
  0.00000000E+00  0.00000000E+00  0.00000000E+00
  0.00000000E+00  0.00000000E+00  0.00000000E+00
  0.00000000E+00  0.00000000E+00  0.00000000E+00
  0.00000000E+00  0.00000000E+00  0.00000000E+00
  0.00000000E+00  0.00000000E+00  0.00000000E+00
  0.00000000E+00  0.00000000E+00  0.00000000E+00
  0.00000000E+00  0.00000000E+00  0.00000000E+00
  0.00000000E+00  0.00000000E+00  0.00000000E+00
  0.00000000E+00  0.00000000E+00  0.00000000E+00
  0.00000000E+00  0.00000000E+00  0.00000000E+00
  0.00000000E+00  0.00000000E+00  0.00000000E+00
  0.00000000E+00  0.00000000E+00  0.00000000E+00
  0.00000000E+00  0.00000000E+00  0.00000000E+00
  0.00000000E+00  0.00000000E+00  0.00000000E+00
  0.00000000E+00  0.00000000E+00  0.00000000E+00
  0.00000000E+00  0.00000000E+00  0.00000000E+00
  0.00000000E+00  0.00000000E+00  0.00000000E+00
  0.00000000E+00  0.00000000E+00  0.00000000E+00
  0.00000000E+00  0.00000000E+00  0.00000000E+00
  0.00000000E+00  0.00000000E+00  0.00000000E+00
  0.00000000E+00  0.00000000E+00  0.00000000E+00
  0.00000000E+00  0.00000000E+00  0.00000000E+00
  0.00000000E+00  0.00000000E+00  0.00000000E+00
  0.00000000E+00  0.00000000E+00  0.00000000E+00
  0.00000000E+00  0.00000000E+00  0.00000000E+00
  0.00000000E+00  0.00000000E+00  0.00000000E+00
  0.00000000E+00  0.00000000E+00  0.00000000E+00
  0.00000000E+00  0.00000000E+00  0.00000000E+00
  0.00000000E+00  0.00000000E+00  0.00000000E+00
  0.00000000E+00  0.00000000E+00  0.00000000E+00
  0.00000000E+00  0.00000000E+00  0.00000000E+00