FeMn_288_15                             
    1.000000000000000     
     9.7266779999999997    0.0000000000000000    0.0000000000000000
     0.0000000000000000    8.4235500000000005    0.0000000000000000
     0.0000000000000000    0.0000000000000000   45.0000000000000000
   Fe   Mn
   273    15
Direct
  0.4374230252120248  0.1195736206032476  0.1672647622830086
  0.9375793438496958  0.9556622068943045  0.5653455918570071
  0.6873363538116147  0.6264015223025220  0.7877959570389943
  0.6875611922522382  0.1218456024315464  0.6545649263599385
  0.6874438740729026  0.1260739748731599  0.7878106711772525
  0.5623553787058142  0.0385356834457231  0.3894493858934482
  0.3125265562224097  0.0388827742203755  0.6107100064087061
  0.3125716195038712  0.0354776659760928  0.1250192073399985
  0.8124158237188147  0.3725044854645908  0.4343194036637338
  0.0623803628440903  0.5390043642293959  0.3893845881542989
  0.1876237825829151  0.2869963152732025  0.2564428456403254
  0.8123729920946087  0.2060641027342388  0.3453328116067741
  0.6875129469536387  0.6220571358699789  0.5215293204995690
  0.4375328936004811  0.4576536944490190  0.8325734637682182
  0.9376202483539365  0.1210764736458380  0.3005950145205579
  0.0625067535077429  0.0380111093237461  0.6106005020600536
  0.0624637865814694  0.0425543794898430  0.8748233142165834
  0.5629524189821571  0.7080719440178403  0.8326186075167726
  0.3126602868182857  0.0390186465007237  0.3895100302109055
  0.9374519328768020  0.2923544830316782  0.8747543520714304
  0.9368033507395298  0.6225080550302715  0.4341489419591545
  0.0627751911536241  0.7078809682288409  0.8325633249257789
  0.4375549829374292  0.7907447108184151  0.7435114761615075
  0.9369760785534245  0.6226276551150753  0.5216231277447131
  0.3125476351817196  0.8723616095603965  0.4342809210246661
  0.4375188822555535  0.6255344569356867  0.7877966473633783
  0.5625712280195838  0.8719569029141588  0.6547605090079299
  0.9374540500323637  0.7861640711966130  0.2564556098750093
  0.0623491047794645  0.8758742429514191  0.7877644403653575
  0.6872071472240452  0.2916110388443332  0.7434611699021192
  0.6874816477966089  0.7887056256576064  0.3893687297700322
  0.6876274488176459  0.2869673612291087  0.2564882260814645
  0.6876629028881129  0.1222193910788972  0.5215362100638206
  0.6874974814284377  0.9560169503787284  0.5659046055838849
  0.8127058161824883  0.7052859454611046  0.5657999560082895
  0.3121500340070509  0.2056126899017402  0.5657781482131953
  0.3124646327866357  0.5367686420213061  0.2564358569604459
  0.4378848324739905  0.6224996349069428  0.4344040806868745
  0.5626459464669186  0.3710981071169727  0.3008047723317465
  0.5628957989922128  0.8723437063778356  0.5215834749489934
  0.5628649184747176  0.2020429061395848  0.2122798530846347
  0.8124481009051159  0.3693791114222567  0.1674367159614483
  0.5628712123241398  0.3726795167839262  0.5214946606993671
  0.8119771347218832  0.7075335272776682  0.8325248903639966
  0.6874818994126681  0.9559809633745578  0.3451770316523208
  0.8124223045739710  0.5355868879441261  0.1252208067408060
  0.4373488134268581  0.6216799114351987  0.6546496166352856
  0.4377647688567356  0.1228412992329850  0.4344027298532234
  0.8118351976685843  0.3718808723568016  0.5215548756442486
  0.3125531627443250  0.3713982580239860  0.3007179492312601
  0.0626949372782591  0.2075945665930065  0.8326044888729904
  0.1874695426998225  0.6258563340595978  0.7879136877959370
  0.4372860697469218  0.9581984485429443  0.8325712240424726
  0.1874566357727206  0.9568357393150292  0.3451215161400106
  0.4373992247959042  0.2868411441648401  0.2564822368934339
  0.9370959849828522  0.2852420247390240  0.1252482748697469
  0.8122652235019929  0.5425878975346758  0.8749875333921958
  0.8126714938044595  0.0383489650234422  0.3894757699785641
  0.9373703129555887  0.1260348094507996  0.7877053765187407
  0.6876205144391317  0.6216677335046091  0.6546932878807631
  0.9374738400342250  0.9562767501172810  0.3452228966012874
  0.9367296801037099  0.7850915050841821  0.1251381396403388
  0.4377184616704393  0.7892831874099970  0.6105199919803109
  0.4379448703037839  0.9520465031832424  0.2122214298768962
  0.8123444810282778  0.5369745174480121  0.2565359071841957
  0.9372408749277109  0.2893817245144070  0.3894064242442176
  0.6875627202847107  0.2888092948950500  0.6104853649156827
  0.8125944323540489  0.2056122069220087  0.5658034701288202
  0.0630936018108398  0.5427614251829554  0.8747485061505074
  0.9368524799924167  0.1230173688427480  0.5215582963726844
  0.8124714297066397  0.5413021685244855  0.7435709032220315
  0.5624737525599701  0.2085004002297835  0.8325910597452042
  0.3124488302953061  0.5413136247785312  0.7436683327365933
  0.9375579043229652  0.7912224918398858  0.7435884993097615
  0.4375089607611601  0.7930575423972968  0.8747290880573013
  0.1876117400186482  0.4555033125600575  0.5655898910907250
  0.6874585858992676  0.1222660160235825  0.4343294146427991
  0.3124065604208213  0.0366952263654298  0.2565059937441458
  0.1875624885414786  0.1195867678440359  0.1672681132763771
  0.1873540150297177  0.2853246629067308  0.1252209429270318
  0.4376153657907347  0.2913217657129704  0.7435543656059087
  0.1875009336227901  0.2924308968517681  0.8747763188583452
  0.8124497456468265  0.7058902622037060  0.3452085637614241
  0.9373198737261741  0.2884763500709008  0.6105561995823375
  0.5626663727099930  0.8726191870791703  0.4344711953133324
  0.1872312304316236  0.4518523057000870  0.2121312786226448
  0.3125044073577215  0.5361844375552748  0.1251943160671923
  0.6875590336377247  0.9514290803635829  0.2120169929197704
  0.9377012362784004  0.4574098120465739  0.8325972991546802
  0.9374602525604921  0.7931550374991730  0.8746756955494429
  0.5625099587675945  0.2056045155542341  0.3452697674336683
  0.3123289784779926  0.7049834452267588  0.4784299487683794
  0.8124701196861454  0.8691426831129136  0.1669380124534663
  0.5630459720617121  0.2058359537755573  0.4783963822368884
  0.8124539095781967  0.2018535260569278  0.2122629176518165
  0.4375298152244555  0.4555707035542929  0.5655691943908709
  0.8127324113915271  0.3708387484359272  0.3008636399186351
  0.1870142137973531  0.9521108352931760  0.2121807630856131
  0.8125613176636138  0.0364814255693561  0.2564898015242312
  0.9373633727889618  0.9572048196964631  0.6994857055397328
  0.3124536241374301  0.0408230363457927  0.7435484572535714
  0.4376781993442868  0.9561627954264527  0.3452161574783420
  0.6872412097946526  0.7912001100798327  0.7435822490793087
  0.8125390805058683  0.5385133972113453  0.6106232545634424
  0.9371819580702685  0.1230152991283080  0.4341695076621546
  0.3124589158797259  0.3760522925080313  0.7878226298558215
  0.3124344209786650  0.7065791193786325  0.6993603933102039
  0.8128453420033969  0.0422456146565828  0.8746947357960466
  0.0623218558498295  0.5368545943231566  0.2564857571807829
  0.8124554456675995  0.7071700759203509  0.6993918171364694
  0.1874669980422247  0.6213877032293261  0.3005801492381863
  0.8123765727206668  0.2056217228144325  0.4784142608759150
  0.8125727697184735  0.8710812518450461  0.3006432610703260
  0.6876669584715727  0.9582048117662144  0.8325116048607801
  0.9375002538359317  0.7884922461006142  0.6106229488238477
  0.4374932245644533  0.2922668942777994  0.8747793868487627
  0.5625086968688739  0.5391168255641601  0.3894429300570006
  0.0623102723677858  0.3711716170546908  0.3007479730584823
  0.0628916932038788  0.5343826224084586  0.1253522186122722
  0.0624785443329000  0.3713893960105719  0.6547114824906228
  0.5622579531540458  0.0393074599793451  0.6106402795385544
  0.9375116987039486  0.6211146432647323  0.3006186959389578
  0.5627411024331429  0.7050941355551624  0.4784853194193108
  0.1879293428927077  0.9559261132612590  0.5658211468438167
  0.5624726522778439  0.2068945228666042  0.6993934826557688
  0.3126148655978339  0.5389378837594837  0.6106338264344653
  0.1874346312884093  0.7924681172954389  0.8747966499650647
  0.0621619693585832  0.3725158225963591  0.4348441773519253
  0.4373646824014408  0.4557964559927288  0.4784626881862122
  0.1873178817278570  0.2886759652877136  0.6104677004239322
  0.5622874085365074  0.8758031252027448  0.7877877389015543
  0.4368298529175580  0.6198346294646665  0.1673596971357671
  0.0625229341547656  0.5412072901474128  0.7436175014695448
  0.1876009456741887  0.1213162651671181  0.6545768212574177
  0.6877355011769030  0.4566815791380503  0.6993474030671987
  0.4375851406714809  0.9568178281516609  0.6994133495376988
  0.0623673695368181  0.7046826636690678  0.4785056566477441
  0.6878148936695577  0.1201165414982017  0.1673125987230547
  0.3130534619371784  0.3721912648874689  0.5216084655513124
  0.3116950719528311  0.2059086765758332  0.4783975986361406
  0.5620644810352614  0.3758935032383819  0.7877433051188875
  0.0622806698256164  0.0353985722171496  0.1252718360695780
  0.6875694448502803  0.6226205856926286  0.4344279073919110
  0.3124446222759588  0.8718828380667828  0.5216348086156537
  0.0625490701946969  0.7069341016790647  0.6994281236438377
  0.1875258529737691  0.7888652680668448  0.3892685814171339
  0.6877404009321338  0.9561513023120888  0.4784327174416954
  0.0624817739004586  0.5383488770700912  0.6105846977900229
  0.1875245296189896  0.9579270235714836  0.8324886207591633
  0.3124725722482647  0.8758185076093866  0.7877676750820303
  0.9374367679313398  0.9516628991578365  0.2120559149008357
  0.3124490797592937  0.7063009197789762  0.3452143822903715
  0.5623892857014859  0.7068313971192047  0.6994015313206770
  0.4377149862109113  0.2893628205489853  0.3894126802352856
  0.6874308025130328  0.7891084720899786  0.6106173677008264
  0.4368307719158225  0.7855615586538633  0.1249955393504286
  0.3125370953639716  0.7018197096000997  0.2122599702228998
  0.3117487880946674  0.5425863353214726  0.8747407398607764
  0.6877940360875716  0.2852233308061266  0.1252029680394777
  0.6875438652701544  0.7861541258112644  0.2564974923688156
  0.9374086436088926  0.2869551274754465  0.2565274678020884
  0.6874963283371786  0.7920696387892825  0.8747130133488684
  0.3126736501332553  0.8711467161053617  0.3007991935269544
  0.8127974624561535  0.2082722563861967  0.8325942194645738
  0.3129567243833133  0.3722870493646110  0.4343737784044627
  0.4377336145655359  0.1212756614187280  0.3005964650283293
  0.3125179000367989  0.5387570442086131  0.3894667790055009
  0.9370866698812519  0.6198313218866988  0.1672728677412987
  0.1875229768710149  0.4563356276395642  0.3452443913144806
  0.0624211952019301  0.8717440369954416  0.6547197913095308
  0.4374457431964771  0.1257571028896113  0.7878046835184582
  0.3124903781058714  0.2066018066177188  0.6993669541904063
  0.8125658454498424  0.0388494965851472  0.6106739272483710
  0.0623694001312502  0.8703618227603344  0.1672383408141601
  0.1876635942248921  0.7865544482626233  0.2564851364268964
  0.6872038158356375  0.4522008242768792  0.2122746007995863
  0.5624397946449233  0.0410469872520691  0.7435264727622243
  0.3124378011064120  0.2077620254721015  0.8326031676706686
  0.4374610887402346  0.1225083373915813  0.5214990399017096
  0.8124469873887622  0.3759257782533095  0.7877387139970528
  0.8125554938547663  0.3716841111995834  0.6547636709373624
  0.1874776619504342  0.9561886182461066  0.4783710750391427
  0.5624702661814202  0.8703361381818019  0.1672684368352274
  0.9372744425690318  0.6255437759991288  0.7877065210979872
  0.6882253470042557  0.7850573548459376  0.1251409103134135
  0.9374028377073176  0.1219105574020238  0.6547679445139144
  0.8124295394699901  0.2068080435369249  0.6993022206976379
  0.6874017392850224  0.2928460081909741  0.8749499298745125
  0.0623650303661472  0.0389193053532274  0.3894324721767600
  0.0621706576344869  0.3702888139537447  0.1671798788432724
  0.5626610338151892  0.0353933005738381  0.1252468468920617
  0.9371842291248562  0.7890629683431781  0.3894302153084346
  0.4376382864119411  0.7892066090876144  0.3894045611236890
  0.0624260699939431  0.7044176368918907  0.5657511697039144
  0.5627401602229999  0.3701846774561395  0.1672004768271384
  0.9373083812074142  0.4556702244766064  0.4785606947447312
  0.9375893390099544  0.6219061069435284  0.6546992969227677
  0.9377175923762008  0.4557899955256779  0.3451762467667586
  0.3124279325890602  0.3693951747650775  0.1672276495609732
  0.4377253320283595  0.4518020268193646  0.2121217820984032
  0.4375855490756966  0.1220465101400714  0.6547598929478929
  0.6876069215740145  0.4556217723087982  0.5654804166282056
  0.1871069673181937  0.4562496951263624  0.6994451154820350
  0.0624715915190890  0.2064457255495274  0.6993387967825316
  0.0626986864316833  0.3760008322704149  0.7878235332788089
  0.8125180524228601  0.0360810921978396  0.1251314636932037
  0.9377281899864838  0.4522445357784828  0.2122302085345369
  0.1879701928454681  0.6226502249437089  0.5215397138776934
  0.0624894131236255  0.7061739585569939  0.3453044817039415
  0.1881147680370963  0.6197901644989628  0.1672941761470795
  0.8114928013398673  0.8716670554520337  0.5215795928244619
  0.4376916095615709  0.2852115753562480  0.1252114086389890
  0.9379576180033895  0.9577161944165189  0.8326450051816541
  0.4374273649680121  0.7865212952177592  0.2564669025308507
  0.8126630233169847  0.0415273534121274  0.7435845632430561
  0.9375762350359952  0.4567242447460784  0.6993714513009142
  0.5628017833968049  0.5424144349952770  0.8749856629897973
  0.6875582626707469  0.2890763434473020  0.3893784068211346
  0.9371542460705581  0.1201450110537845  0.1672876476393952
  0.0628688068385247  0.2050608333850485  0.4784542685758698
  0.1876221574364987  0.6213301661424419  0.6547989538486285
  0.5623980108891921  0.5385721743422283  0.6105315845622956
  0.3126292738026840  0.0426138208861954  0.8748226151853875
  0.1873613138873217  0.1215185390962709  0.3007279000234856
  0.3126915694896451  0.7084100699226590  0.8326698458835725
  0.5626006882992531  0.5367899653252208  0.2564997846872069
  0.5624680244082634  0.2055525058375194  0.5656723725716826
  0.4378017236027587  0.2890264413332870  0.6105726262997057
  0.1872581579973198  0.9566640353760307  0.6993607321772749
  0.6875128918921464  0.6210538171959848  0.3006808779306822
  0.0624746156468461  0.8723302780868071  0.4346717874049748
  0.6874446755205988  0.4558740480586008  0.4784834353556050
  0.8121075824264696  0.8726154590007115  0.4344289238833388
  0.8125736341571517  0.8758385771771002  0.7877748624200565
  0.4372953199629568  0.9557887190004154  0.5653626264441441
  0.0623975895686755  0.2021358823696638  0.2122533581819087
  0.3127440088612594  0.8716067955766282  0.6547482211475198
  0.5624594287414164  0.7053962871443388  0.5657218224489088
  0.5626543894128150  0.3716450808533978  0.6547484079727219
  0.0627962097387164  0.7020914776033523  0.2123074428232894
  0.5621725249745122  0.5343426614951875  0.1253336287155848
  0.6878388043511158  0.6197684852655875  0.1672576729560989
  0.8124429952063621  0.8719861360475224  0.6547888084571029
  0.1878600326462377  0.2913790578599167  0.7434791361164201
  0.5624321254036663  0.3724861621252339  0.4345467902641225
  0.0625920009642174  0.0413909170933233  0.7435780708946020
  0.5620614929906177  0.0422933383301256  0.8746975879770470
  0.6872668595242882  0.4556954461441828  0.3452315269833194
  0.1877877772770719  0.1221221792384732  0.4341443863900343
  0.3122826892689406  0.7055551816450032  0.5657321764438297
  0.1873872485460489  0.1259549656611998  0.7878129155110792
  0.0626728033756496  0.8713798123550724  0.3007295346158928
  0.1878638468492952  0.4553102896939007  0.4785167164727541
  0.1881821598917391  0.7856126802312835  0.1250236415672482
  0.6873974271462486  0.1209762092832204  0.3006900779638162
  0.8125883123750441  0.5391189785313995  0.3895018750673663
  0.5623690939103310  0.7020344675641819  0.2123295807700002
  0.4374705286372408  0.6210257604040399  0.3005617648223157
  0.1877442596011026  0.4584044214999480  0.8327580437101085
  0.8127222789728398  0.7056049528886565  0.4784836744333938
  0.5623844708236402  0.8710472397829143  0.3007391312533412
  0.4375092254367586  0.4556685475228753  0.3452044910326869
  0.5624921162426003  0.7057314395076904  0.3453048153603385
  0.5627280229332586  0.5413913100146125  0.7436155593697470
  0.1878626182443313  0.1220988179084592  0.5215465193298271
  0.3123226100281223  0.2066043114261435  0.3453832776232945
  0.1878127827600599  0.7911653998082978  0.7435708082636124
  0.0626210436684581  0.2050983206229763  0.5657961142609284
  0.4374362301906080  0.6221101821472237  0.5215120200941730
  0.0626475527428248  0.2062858106965527  0.3452758299552251
  0.6876182283830405  0.9569199152654944  0.6993470947035300
  0.3125248989122769  0.3714155217800381  0.6547611658170713
  0.9374467548616993  0.4553854098154430  0.5655133399622949
  0.0626202957464385  0.0367846442905455  0.2562911390351572
  0.3124914025548244  0.2013938243152528  0.2124656848802874
  0.4374590052543263  0.4567804274753749  0.6994283557854966
  0.1878492351019725  0.6221936693454521  0.4340320613963840
  0.4374976676862503  0.9556707834302591  0.4785542038839932
  0.3124986783121085  0.8694578227318898  0.1665948399375563
  0.9374786259275201  0.2914424238887929  0.7436142182904356
  0.1873571131631876  0.7889143208157210  0.6106162732703676
  0.1875310634896461  0.2895848529086009  0.3893416791255448
  0.0629102903496993  0.8719956143709490  0.5215341745709547
  0.5619556943676558  0.0368174081960925  0.2563572188558387
  0.8125923252432681  0.7019286806712458  0.2123964112690764
  0.6874136730534620  0.4581385874104441  0.8333212949679362
  0.9373645019830237  0.9554430666737542  0.4786059036045845
  0.0622335315043656  0.3719640787409578  0.5215264949792257
 
  0.00000000E+00  0.00000000E+00  0.00000000E+00
  0.00000000E+00  0.00000000E+00  0.00000000E+00
  0.00000000E+00  0.00000000E+00  0.00000000E+00
  0.00000000E+00  0.00000000E+00  0.00000000E+00
  0.00000000E+00  0.00000000E+00  0.00000000E+00
  0.00000000E+00  0.00000000E+00  0.00000000E+00
  0.00000000E+00  0.00000000E+00  0.00000000E+00
  0.00000000E+00  0.00000000E+00  0.00000000E+00
  0.00000000E+00  0.00000000E+00  0.00000000E+00
  0.00000000E+00  0.00000000E+00  0.00000000E+00
  0.00000000E+00  0.00000000E+00  0.00000000E+00
  0.00000000E+00  0.00000000E+00  0.00000000E+00
  0.00000000E+00  0.00000000E+00  0.00000000E+00
  0.00000000E+00  0.00000000E+00  0.00000000E+00
  0.00000000E+00  0.00000000E+00  0.00000000E+00
  0.00000000E+00  0.00000000E+00  0.00000000E+00
  0.00000000E+00  0.00000000E+00  0.00000000E+00
  0.00000000E+00  0.00000000E+00  0.00000000E+00
  0.00000000E+00  0.00000000E+00  0.00000000E+00
  0.00000000E+00  0.00000000E+00  0.00000000E+00
  0.00000000E+00  0.00000000E+00  0.00000000E+00
  0.00000000E+00  0.00000000E+00  0.00000000E+00
  0.00000000E+00  0.00000000E+00  0.00000000E+00
  0.00000000E+00  0.00000000E+00  0.00000000E+00
  0.00000000E+00  0.00000000E+00  0.00000000E+00
  0.00000000E+00  0.00000000E+00  0.00000000E+00
  0.00000000E+00  0.00000000E+00  0.00000000E+00
  0.00000000E+00  0.00000000E+00  0.00000000E+00
  0.00000000E+00  0.00000000E+00  0.00000000E+00
  0.00000000E+00  0.00000000E+00  0.00000000E+00
  0.00000000E+00  0.00000000E+00  0.00000000E+00
  0.00000000E+00  0.00000000E+00  0.00000000E+00
  0.00000000E+00  0.00000000E+00  0.00000000E+00
  0.00000000E+00  0.00000000E+00  0.00000000E+00
  0.00000000E+00  0.00000000E+00  0.00000000E+00
  0.00000000E+00  0.00000000E+00  0.00000000E+00
  0.00000000E+00  0.00000000E+00  0.00000000E+00
  0.00000000E+00  0.00000000E+00  0.00000000E+00
  0.00000000E+00  0.00000000E+00  0.00000000E+00
  0.00000000E+00  0.00000000E+00  0.00000000E+00
  0.00000000E+00  0.00000000E+00  0.00000000E+00
  0.00000000E+00  0.00000000E+00  0.00000000E+00
  0.00000000E+00  0.00000000E+00  0.00000000E+00
  0.00000000E+00  0.00000000E+00  0.00000000E+00
  0.00000000E+00  0.00000000E+00  0.00000000E+00
  0.00000000E+00  0.00000000E+00  0.00000000E+00
  0.00000000E+00  0.00000000E+00  0.00000000E+00
  0.00000000E+00  0.00000000E+00  0.00000000E+00
  0.00000000E+00  0.00000000E+00  0.00000000E+00
  0.00000000E+00  0.00000000E+00  0.00000000E+00
  0.00000000E+00  0.00000000E+00  0.00000000E+00
  0.00000000E+00  0.00000000E+00  0.00000000E+00
  0.00000000E+00  0.00000000E+00  0.00000000E+00
  0.00000000E+00  0.00000000E+00  0.00000000E+00
  0.00000000E+00  0.00000000E+00  0.00000000E+00
  0.00000000E+00  0.00000000E+00  0.00000000E+00
  0.00000000E+00  0.00000000E+00  0.00000000E+00
  0.00000000E+00  0.00000000E+00  0.00000000E+00
  0.00000000E+00  0.00000000E+00  0.00000000E+00
  0.00000000E+00  0.00000000E+00  0.00000000E+00
  0.00000000E+00  0.00000000E+00  0.00000000E+00
  0.00000000E+00  0.00000000E+00  0.00000000E+00
  0.00000000E+00  0.00000000E+00  0.00000000E+00
  0.00000000E+00  0.00000000E+00  0.00000000E+00
  0.00000000E+00  0.00000000E+00  0.00000000E+00
  0.00000000E+00  0.00000000E+00  0.00000000E+00
  0.00000000E+00  0.00000000E+00  0.00000000E+00
  0.00000000E+00  0.00000000E+00  0.00000000E+00
  0.00000000E+00  0.00000000E+00  0.00000000E+00
  0.00000000E+00  0.00000000E+00  0.00000000E+00
  0.00000000E+00  0.00000000E+00  0.00000000E+00
  0.00000000E+00  0.00000000E+00  0.00000000E+00
  0.00000000E+00  0.00000000E+00  0.00000000E+00
  0.00000000E+00  0.00000000E+00  0.00000000E+00
  0.00000000E+00  0.00000000E+00  0.00000000E+00
  0.00000000E+00  0.00000000E+00  0.00000000E+00
  0.00000000E+00  0.00000000E+00  0.00000000E+00
  0.00000000E+00  0.00000000E+00  0.00000000E+00
  0.00000000E+00  0.00000000E+00  0.00000000E+00
  0.00000000E+00  0.00000000E+00  0.00000000E+00
  0.00000000E+00  0.00000000E+00  0.00000000E+00
  0.00000000E+00  0.00000000E+00  0.00000000E+00
  0.00000000E+00  0.00000000E+00  0.00000000E+00
  0.00000000E+00  0.00000000E+00  0.00000000E+00
  0.00000000E+00  0.00000000E+00  0.00000000E+00
  0.00000000E+00  0.00000000E+00  0.00000000E+00
  0.00000000E+00  0.00000000E+00  0.00000000E+00
  0.00000000E+00  0.00000000E+00  0.00000000E+00
  0.00000000E+00  0.00000000E+00  0.00000000E+00
  0.00000000E+00  0.00000000E+00  0.00000000E+00
  0.00000000E+00  0.00000000E+00  0.00000000E+00
  0.00000000E+00  0.00000000E+00  0.00000000E+00
  0.00000000E+00  0.00000000E+00  0.00000000E+00
  0.00000000E+00  0.00000000E+00  0.00000000E+00
  0.00000000E+00  0.00000000E+00  0.00000000E+00
  0.00000000E+00  0.00000000E+00  0.00000000E+00
  0.00000000E+00  0.00000000E+00  0.00000000E+00
  0.00000000E+00  0.00000000E+00  0.00000000E+00
  0.00000000E+00  0.00000000E+00  0.00000000E+00
  0.00000000E+00  0.00000000E+00  0.00000000E+00
  0.00000000E+00  0.00000000E+00  0.00000000E+00
  0.00000000E+00  0.00000000E+00  0.00000000E+00
  0.00000000E+00  0.00000000E+00  0.00000000E+00
  0.00000000E+00  0.00000000E+00  0.00000000E+00
  0.00000000E+00  0.00000000E+00  0.00000000E+00
  0.00000000E+00  0.00000000E+00  0.00000000E+00
  0.00000000E+00  0.00000000E+00  0.00000000E+00
  0.00000000E+00  0.00000000E+00  0.00000000E+00
  0.00000000E+00  0.00000000E+00  0.00000000E+00
  0.00000000E+00  0.00000000E+00  0.00000000E+00
  0.00000000E+00  0.00000000E+00  0.00000000E+00
  0.00000000E+00  0.00000000E+00  0.00000000E+00
  0.00000000E+00  0.00000000E+00  0.00000000E+00
  0.00000000E+00  0.00000000E+00  0.00000000E+00
  0.00000000E+00  0.00000000E+00  0.00000000E+00
  0.00000000E+00  0.00000000E+00  0.00000000E+00
  0.00000000E+00  0.00000000E+00  0.00000000E+00
  0.00000000E+00  0.00000000E+00  0.00000000E+00
  0.00000000E+00  0.00000000E+00  0.00000000E+00
  0.00000000E+00  0.00000000E+00  0.00000000E+00
  0.00000000E+00  0.00000000E+00  0.00000000E+00
  0.00000000E+00  0.00000000E+00  0.00000000E+00
  0.00000000E+00  0.00000000E+00  0.00000000E+00
  0.00000000E+00  0.00000000E+00  0.00000000E+00
  0.00000000E+00  0.00000000E+00  0.00000000E+00
  0.00000000E+00  0.00000000E+00  0.00000000E+00
  0.00000000E+00  0.00000000E+00  0.00000000E+00
  0.00000000E+00  0.00000000E+00  0.00000000E+00
  0.00000000E+00  0.00000000E+00  0.00000000E+00
  0.00000000E+00  0.00000000E+00  0.00000000E+00
  0.00000000E+00  0.00000000E+00  0.00000000E+00
  0.00000000E+00  0.00000000E+00  0.00000000E+00
  0.00000000E+00  0.00000000E+00  0.00000000E+00
  0.00000000E+00  0.00000000E+00  0.00000000E+00
  0.00000000E+00  0.00000000E+00  0.00000000E+00
  0.00000000E+00  0.00000000E+00  0.00000000E+00
  0.00000000E+00  0.00000000E+00  0.00000000E+00
  0.00000000E+00  0.00000000E+00  0.00000000E+00
  0.00000000E+00  0.00000000E+00  0.00000000E+00
  0.00000000E+00  0.00000000E+00  0.00000000E+00
  0.00000000E+00  0.00000000E+00  0.00000000E+00
  0.00000000E+00  0.00000000E+00  0.00000000E+00
  0.00000000E+00  0.00000000E+00  0.00000000E+00
  0.00000000E+00  0.00000000E+00  0.00000000E+00
  0.00000000E+00  0.00000000E+00  0.00000000E+00
  0.00000000E+00  0.00000000E+00  0.00000000E+00
  0.00000000E+00  0.00000000E+00  0.00000000E+00
  0.00000000E+00  0.00000000E+00  0.00000000E+00
  0.00000000E+00  0.00000000E+00  0.00000000E+00
  0.00000000E+00  0.00000000E+00  0.00000000E+00
  0.00000000E+00  0.00000000E+00  0.00000000E+00
  0.00000000E+00  0.00000000E+00  0.00000000E+00
  0.00000000E+00  0.00000000E+00  0.00000000E+00
  0.00000000E+00  0.00000000E+00  0.00000000E+00
  0.00000000E+00  0.00000000E+00  0.00000000E+00
  0.00000000E+00  0.00000000E+00  0.00000000E+00
  0.00000000E+00  0.00000000E+00  0.00000000E+00
  0.00000000E+00  0.00000000E+00  0.00000000E+00
  0.00000000E+00  0.00000000E+00  0.00000000E+00
  0.00000000E+00  0.00000000E+00  0.00000000E+00
  0.00000000E+00  0.00000000E+00  0.00000000E+00
  0.00000000E+00  0.00000000E+00  0.00000000E+00
  0.00000000E+00  0.00000000E+00  0.00000000E+00
  0.00000000E+00  0.00000000E+00  0.00000000E+00
  0.00000000E+00  0.00000000E+00  0.00000000E+00
  0.00000000E+00  0.00000000E+00  0.00000000E+00
  0.00000000E+00  0.00000000E+00  0.00000000E+00
  0.00000000E+00  0.00000000E+00  0.00000000E+00
  0.00000000E+00  0.00000000E+00  0.00000000E+00
  0.00000000E+00  0.00000000E+00  0.00000000E+00
  0.00000000E+00  0.00000000E+00  0.00000000E+00
  0.00000000E+00  0.00000000E+00  0.00000000E+00
  0.00000000E+00  0.00000000E+00  0.00000000E+00
  0.00000000E+00  0.00000000E+00  0.00000000E+00
  0.00000000E+00  0.00000000E+00  0.00000000E+00
  0.00000000E+00  0.00000000E+00  0.00000000E+00
  0.00000000E+00  0.00000000E+00  0.00000000E+00
  0.00000000E+00  0.00000000E+00  0.00000000E+00
  0.00000000E+00  0.00000000E+00  0.00000000E+00
  0.00000000E+00  0.00000000E+00  0.00000000E+00
  0.00000000E+00  0.00000000E+00  0.00000000E+00
  0.00000000E+00  0.00000000E+00  0.00000000E+00
  0.00000000E+00  0.00000000E+00  0.00000000E+00
  0.00000000E+00  0.00000000E+00  0.00000000E+00
  0.00000000E+00  0.00000000E+00  0.00000000E+00
  0.00000000E+00  0.00000000E+00  0.00000000E+00
  0.00000000E+00  0.00000000E+00  0.00000000E+00
  0.00000000E+00  0.00000000E+00  0.00000000E+00
  0.00000000E+00  0.00000000E+00  0.00000000E+00
  0.00000000E+00  0.00000000E+00  0.00000000E+00
  0.00000000E+00  0.00000000E+00  0.00000000E+00
  0.00000000E+00  0.00000000E+00  0.00000000E+00
  0.00000000E+00  0.00000000E+00  0.00000000E+00
  0.00000000E+00  0.00000000E+00  0.00000000E+00
  0.00000000E+00  0.00000000E+00  0.00000000E+00
  0.00000000E+00  0.00000000E+00  0.00000000E+00
  0.00000000E+00  0.00000000E+00  0.00000000E+00
  0.00000000E+00  0.00000000E+00  0.00000000E+00
  0.00000000E+00  0.00000000E+00  0.00000000E+00
  0.00000000E+00  0.00000000E+00  0.00000000E+00
  0.00000000E+00  0.00000000E+00  0.00000000E+00
  0.00000000E+00  0.00000000E+00  0.00000000E+00
  0.00000000E+00  0.00000000E+00  0.00000000E+00
  0.00000000E+00  0.00000000E+00  0.00000000E+00
  0.00000000E+00  0.00000000E+00  0.00000000E+00
  0.00000000E+00  0.00000000E+00  0.00000000E+00
  0.00000000E+00  0.00000000E+00  0.00000000E+00
  0.00000000E+00  0.00000000E+00  0.00000000E+00
  0.00000000E+00  0.00000000E+00  0.00000000E+00
  0.00000000E+00  0.00000000E+00  0.00000000E+00
  0.00000000E+00  0.00000000E+00  0.00000000E+00
  0.00000000E+00  0.00000000E+00  0.00000000E+00
  0.00000000E+00  0.00000000E+00  0.00000000E+00
  0.00000000E+00  0.00000000E+00  0.00000000E+00
  0.00000000E+00  0.00000000E+00  0.00000000E+00
  0.00000000E+00  0.00000000E+00  0.00000000E+00
  0.00000000E+00  0.00000000E+00  0.00000000E+00
  0.00000000E+00  0.00000000E+00  0.00000000E+00
  0.00000000E+00  0.00000000E+00  0.00000000E+00
  0.00000000E+00  0.00000000E+00  0.00000000E+00
  0.00000000E+00  0.00000000E+00  0.00000000E+00
  0.00000000E+00  0.00000000E+00  0.00000000E+00
  0.00000000E+00  0.00000000E+00  0.00000000E+00
  0.00000000E+00  0.00000000E+00  0.00000000E+00
  0.00000000E+00  0.00000000E+00  0.00000000E+00
  0.00000000E+00  0.00000000E+00  0.00000000E+00
  0.00000000E+00  0.00000000E+00  0.00000000E+00
  0.00000000E+00  0.00000000E+00  0.00000000E+00
  0.00000000E+00  0.00000000E+00  0.00000000E+00
  0.00000000E+00  0.00000000E+00  0.00000000E+00
  0.00000000E+00  0.00000000E+00  0.00000000E+00
  0.00000000E+00  0.00000000E+00  0.00000000E+00
  0.00000000E+00  0.00000000E+00  0.00000000E+00
  0.00000000E+00  0.00000000E+00  0.00000000E+00
  0.00000000E+00  0.00000000E+00  0.00000000E+00
  0.00000000E+00  0.00000000E+00  0.00000000E+00
  0.00000000E+00  0.00000000E+00  0.00000000E+00
  0.00000000E+00  0.00000000E+00  0.00000000E+00
  0.00000000E+00  0.00000000E+00  0.00000000E+00
  0.00000000E+00  0.00000000E+00  0.00000000E+00
  0.00000000E+00  0.00000000E+00  0.00000000E+00
  0.00000000E+00  0.00000000E+00  0.00000000E+00
  0.00000000E+00  0.00000000E+00  0.00000000E+00
  0.00000000E+00  0.00000000E+00  0.00000000E+00
  0.00000000E+00  0.00000000E+00  0.00000000E+00
  0.00000000E+00  0.00000000E+00  0.00000000E+00
  0.00000000E+00  0.00000000E+00  0.00000000E+00