FeMn_288_15                             
    1.000000000000000     
     9.7266779999999997    0.0000000000000000    0.0000000000000000
     0.0000000000000000    8.4235500000000005    0.0000000000000000
     0.0000000000000000    0.0000000000000000   45.0000000000000000
   Fe   Mn
   273    15
Direct
  0.4374482158651808  0.1151063660897927  0.1663281106891825
  0.9374530627545848  0.9544451974616064  0.5652949648872562
  0.6876263369792588  0.6245554465178530  0.7884921501038016
  0.6874911294964366  0.1211296262651148  0.6547382177307708
  0.6876594348507434  0.1245459988243366  0.7885334284451930
  0.5624544190193637  0.0404155712737173  0.3893675194074993
  0.3124176073281656  0.0374922255134816  0.6106697547550181
  0.3124362630982745  0.0318613498493901  0.1240373646755689
  0.8124131218682703  0.3731939075536266  0.4343066175017104
  0.0623972667398128  0.5405062435310555  0.3893229246038356
  0.1873501372245771  0.2886315655821943  0.2559842148732435
  0.8124550714691592  0.2068606039200322  0.3451865066208327
  0.6876727776867371  0.6218557802592498  0.5215778581546296
  0.4374574787278596  0.4616145481212307  0.8335193067905871
  0.9371743244417811  0.1231874652071436  0.3004042758836702
  0.0626193697220377  0.0365782449464492  0.6105937328244314
  0.0628810429879855  0.0449833871868804  0.8756205684686845
  0.5629884034412220  0.7121786316241882  0.8335244392573697
  0.3123984937245720  0.0406655892679585  0.3894870910703118
  0.9375473760337472  0.2957688990218306  0.8756544989425362
  0.9370662220116835  0.6235527580141980  0.4342157283505252
  0.0626336657397706  0.7122187002152862  0.8334512862919766
  0.4375672461507010  0.7891376307857515  0.7440150518528880
  0.9368882311470301  0.6222108273338408  0.5216131457471871
  0.3124818822646246  0.8731593176433049  0.4343167119869024
  0.4377592777953853  0.6241709357651615  0.7884824443955636
  0.5624866740390740  0.8712328576480330  0.6548608725839253
  0.9373770892926649  0.7880519798170149  0.2560311824713550
  0.0626294571116961  0.8740005748239644  0.7884329775140612
  0.6872120297595873  0.2895943961350217  0.7440035785470582
  0.6876127954987791  0.7905291681599422  0.3893524317975203
  0.6873578822688915  0.2885947498476391  0.2559919701810840
  0.6876701692064809  0.1215739119197813  0.5215397548622769
  0.6877348069199564  0.9548870282657917  0.5657730524568555
  0.8127395199987711  0.7042845137408379  0.5657259980203847
  0.3122273251024955  0.2045858736590490  0.5656952708214115
  0.3126026121825602  0.5387323146530559  0.2558940612528737
  0.4377315017887141  0.6236150425049209  0.4344622206540533
  0.5627422950242921  0.3735738484102356  0.3004711629212582
  0.5628709450253875  0.8715282987131957  0.5215560586473068
  0.5623880603855663  0.2036248806910954  0.2115981446954343
  0.8125283494505626  0.3658257709640613  0.1665983264457237
  0.5624096448501377  0.3716362143212832  0.5215418223435461
  0.8118061638106245  0.7120147913261249  0.8334913239728964
  0.6873552717864961  0.9566880591023564  0.3451185038182613
  0.8125211471029929  0.5321639436967981  0.1241535291585347
  0.4372437058188487  0.6212262165090595  0.6548170618197618
  0.4376514044085054  0.1234069487492448  0.4345300562088637
  0.8119103003488417  0.3711811440242278  0.5215730938932110
  0.3123792523073801  0.3733857402743755  0.3003469040654294
  0.0624364137449608  0.2117660475268869  0.8334228694555116
  0.1874936277484553  0.6242364309543151  0.7885309416991673
  0.4371085519128679  0.9621276062187100  0.8334551782569314
  0.1873832720455187  0.9572347622172058  0.3450376299611400
  0.4375994812074465  0.2886149573508455  0.2559950034120771
  0.9371271678959571  0.2828192466784435  0.1243014154166883
  0.8120858554988529  0.5448226882025058  0.8758223157608181
  0.8127009406117872  0.0402264029873107  0.3894810384256533
  0.9376081508309714  0.1242356011193442  0.7883915101599385
  0.6875413340390598  0.6208935636873120  0.6548367878611165
  0.9375005491924352  0.9567315907800480  0.3451567025369546
  0.9362987578419311  0.7831514375638809  0.1243453175767937
  0.4375471914583156  0.7877250833447876  0.6105366932487175
  0.4382477594674031  0.9540338046570620  0.2117214797603888
  0.8125422674390234  0.5389023117970712  0.2559630195217622
  0.9373884112189723  0.2910282480612617  0.3893053256185451
  0.6875590718118957  0.2872195523360729  0.6105071170203362
  0.8125834603412393  0.2047412716822301  0.5657252711371998
  0.0633183739090401  0.5447620078245603  0.8755497093100149
  0.9369839549909588  0.1225221622003457  0.5215950589055396
  0.8124402302737256  0.5391850280456827  0.7439722519953779
  0.5625126176864972  0.2128161212700342  0.8334882786765795
  0.3123413409555895  0.5395434282842324  0.7441020648252687
  0.9373878676725538  0.7893440470932201  0.7440942374448832
  0.4372737989752442  0.7964987265877105  0.8755800120543705
  0.1876687885212859  0.4544399974245174  0.5656000701116689
  0.6875180224894335  0.1233312131029104  0.4344051618252284
  0.3125121776480529  0.0383908200980350  0.2559641842908417
  0.1875026258331955  0.1150897129850708  0.1663350894169957
  0.1872553127476802  0.2829318835881184  0.1242834162165057
  0.4375959191287588  0.2893825636944877  0.7440414316043895
  0.1875082368189263  0.2955482737154323  0.8756300545363809
  0.8124562499287633  0.7068037285591262  0.3451492298305564
  0.9373067715710384  0.2870581648510339  0.6105519107806360
  0.5626218136838049  0.8732481933386651  0.4344563343013020
  0.1874165203860928  0.4537784454006419  0.2114831042722695
  0.3124707605424843  0.5327155200565885  0.1242132393852983
  0.6873296364249792  0.9536136899208677  0.2114934412661540
  0.9374913450201039  0.4615777993460095  0.8335533610827498
  0.9377596223611470  0.7967701592677159  0.8755988326379994
  0.5624478169379731  0.2065350610853393  0.3451406189268976
  0.3122524248392900  0.7056344780184968  0.4785259945989463
  0.8125156191016292  0.8648889465626208  0.1663580118542970
  0.5630029088455836  0.2063174368599661  0.4784089868232627
  0.8124428608139703  0.2036151006232936  0.2114873537322925
  0.4374777804409998  0.4543405684978198  0.5655357682080782
  0.8124862254144600  0.3732691217172968  0.3005231666461812
  0.1866887874852304  0.9540988957732403  0.2117111914907806
  0.8125486766552488  0.0383227733762443  0.2559918972983127
  0.9374001246108349  0.9548206208659580  0.6997907148019790
  0.3125501245113719  0.0389587755918633  0.7439997837238338
  0.4377109038270922  0.9567459982269890  0.3451198275589615
  0.6872783745752524  0.7891338016279926  0.7440424708079483
  0.8124924984182406  0.5371046323274892  0.6106304561472206
  0.9371699804292631  0.1235047776505047  0.4342834739954888
  0.3128326278205334  0.3743582178956075  0.7884476980714457
  0.3125911376229067  0.7045569824806690  0.6996729019006462
  0.8128611805618096  0.0445558016330680  0.8755944175824103
  0.0622544127801960  0.5384812990029607  0.2559912136060001
  0.8125578894466247  0.7050406177206109  0.6996491372082901
  0.1874297180865785  0.6231871025597073  0.3003755764073469
  0.8121764654309306  0.2063428971842044  0.4784430974890823
  0.8125007391599030  0.8735456033794406  0.3003351562676859
  0.6876346038379165  0.9624267800078292  0.8335083022333656
  0.9375618461573693  0.7869959922951875  0.6106495305245315
  0.4375602040574889  0.2956651218002680  0.8756616510926575
  0.5622704460930976  0.5409726699950115  0.3893539029703442
  0.0621371188648105  0.3734331766204322  0.3004002897358974
  0.0626085971738538  0.5306816147895130  0.1243449810652891
  0.0624063641452157  0.3711670618105534  0.6548228350014148
  0.5623678659691808  0.0377457162579472  0.6106334855106010
  0.9375912024100583  0.6233490663773443  0.3003101290116655
  0.5626647701216557  0.7055523003635061  0.4784719950623866
  0.1878563501730572  0.9548499441106164  0.5656992659942514
  0.5625268978027685  0.2047295405546867  0.6997079093773517
  0.3126682738450618  0.5374475380525122  0.6106182682026100
  0.1875366904816496  0.7956776038595585  0.8756845376012214
  0.0622699484355762  0.3732490317917238  0.4348103280194036
  0.4373945992915558  0.4561449439497883  0.4784715726314659
  0.1872021216623114  0.2871744433009664  0.6104735861146245
  0.5627610692639717  0.8741788203728867  0.7885038911213206
  0.4367669806961623  0.6157498865136108  0.1664487772366038
  0.0623393205634559  0.5393319539049026  0.7440194621559264
  0.1874977676127587  0.1211135125858035  0.6547571377498120
  0.6878523039528250  0.4543220233461767  0.6996384925473225
  0.4377260451949867  0.9545562068812222  0.6997147036771501
  0.0627202453262372  0.7050114051829720  0.4785819873176294
  0.6876638774678870  0.1161108266451054  0.1665374327118528
  0.3134241440993558  0.3712730398671285  0.5216274835310852
  0.3119913473694508  0.2063370628399839  0.4785195302019247
  0.5619937033616327  0.3740193896748238  0.7883229073871999
  0.0622407779029269  0.0318527249492557  0.1242352340545422
  0.6876178759645216  0.6231664610373192  0.4344641060553976
  0.3128301800241344  0.8712690043570589  0.5216315646358287
  0.0625523746809857  0.7048610151340533  0.6997360734013135
  0.1876500127264143  0.7903632852568790  0.3892731099785500
  0.6874826271818956  0.9567093473033770  0.4783975332084416
  0.0624924591112738  0.5369313626399864  0.6105479146949250
  0.1872766095770086  0.9619842667130152  0.8334085260589570
  0.3124083989869141  0.8741094220774456  0.7884462082905846
  0.9376827968693005  0.9536934751265324  0.2115144888503367
  0.3122924109518304  0.7070576218205447  0.3450565195789942
  0.5624477129300313  0.7046428831451743  0.6997098121265050
  0.4376403339046904  0.2911734190196180  0.3893338385120882
  0.6873754462456217  0.7875165810794743  0.6106145602340632
  0.4366268937924352  0.7832963074763095  0.1241636704787490
  0.3123856844072226  0.7035820379434147  0.2115328155646163
  0.3115850147096496  0.5445921042149224  0.8755319001515236
  0.6879266836922595  0.2828762945017284  0.1243095252469387
  0.6874787124928354  0.7881344972261004  0.2560142944751883
  0.9376105728838461  0.2885322929928592  0.2560300369038254
  0.6875582157003878  0.7953519039884559  0.8756915477972925
  0.3126008379530223  0.8733057946322152  0.3004232617039884
  0.8125893755688127  0.2126677358243958  0.8335117939122558
  0.3128335784446020  0.3730774203187053  0.4343467644486359
  0.4375882915951754  0.1233520861575644  0.3003500128818291
  0.3126071547823431  0.5403492882263425  0.3893861187343238
  0.9372117355533153  0.6156118018565268  0.1663734032280095
  0.1876681310950915  0.4567184881349292  0.3451163495079560
  0.0623633856262299  0.8715502427638954  0.6548581182222274
  0.4375824251253632  0.1240934838838201  0.7884666199279435
  0.3125369943894959  0.2045495993949331  0.6996789847125453
  0.8125830621391283  0.0375048926045897  0.6106742428285485
  0.0625887261493293  0.8663935295068073  0.1663865072818830
  0.1876738114193663  0.7881265615548462  0.2560357378832910
  0.6873336585903211  0.4540185997502566  0.2115828080793195
  0.5624487606381047  0.0388970348831725  0.7439611632751980
  0.3122890169650550  0.2118386869396886  0.8334173903268921
  0.4373592800358959  0.1222838047427888  0.5215234328552554
  0.8129541572273988  0.3739111754726636  0.7883383789477024
  0.8124962567509059  0.3711621478465286  0.6549221852970777
  0.1876490911461469  0.9568569501485337  0.4784258504377540
  0.5624391087687198  0.8664218271168186  0.1663946741254630
  0.9373389081946706  0.6239905830175646  0.7884344501017320
  0.6887335679278840  0.7831702232754880  0.1243517340719518
  0.9373350568141079  0.1214141497058931  0.6549153200187801
  0.8124127027173087  0.2044132454766037  0.6995814295439032
  0.6875954927780653  0.2959158750205520  0.8758293131658498
  0.0625470379331810  0.0407046364749288  0.3893916308465944
  0.0621932241907275  0.3662574801054381  0.1662847981597183
  0.5627232310315030  0.0318697173278789  0.1242395591101872
  0.9374075797367116  0.7905841620066926  0.3894491233025579
  0.4375979633198283  0.7909086858706247  0.3894552037781209
  0.0622720987595754  0.7036277802322755  0.5656501251471953
  0.5628511838204436  0.3663025356405394  0.1662798135358498
  0.9374650508312226  0.4563587559575923  0.4785329192652252
  0.9375707943544963  0.6214731801083279  0.6548483293838046
  0.9374496690941651  0.4562848150928837  0.3450706884493006
  0.3125318438849949  0.3649312220340183  0.1664690287212614
  0.4375598608250947  0.4538504854323218  0.2114929277057505
  0.4375620648919630  0.1213623163205771  0.6548903108222950
  0.6876647654607291  0.4543399167036287  0.5655770520901325
  0.1871782557745984  0.4539676001661459  0.6997658359531297
  0.0626804569739659  0.2042166319198516  0.6996288672189738
  0.0625465231730484  0.3742641777428455  0.7884700643135490
  0.8124791873545710  0.0326716051825056  0.1242899377116176
  0.9376250615119219  0.4540735172648817  0.2115900420374631
  0.1879350807745879  0.6221059916213584  0.5215570365464343
  0.0626435299995774  0.7066523544891492  0.3451816156668825
  0.1881710345366763  0.6157405864830837  0.1664506525560078
  0.8114983007303954  0.8710402951210335  0.5215747021356676
  0.4376537786783119  0.2829591962765145  0.1242918869291073
  0.9377735616981998  0.9617169631346122  0.8336110555166126
  0.4373299266534932  0.7881324826539794  0.2560109221164376
  0.8126250281779933  0.0392419804785800  0.7439895348668069
  0.9376408073827103  0.4544454938690340  0.6996213283113517
  0.5630937597264252  0.5446807178973210  0.8758106556702410
  0.6876206168142751  0.2907840125134871  0.3894334301063434
  0.9373540336255374  0.1161258238535834  0.1665403568844649
  0.0628439475959520  0.2056327230856741  0.4785453519071393
  0.1875146427412321  0.6210716918317464  0.6549262311867470
  0.5623751009010645  0.5371212902071373  0.6105443870356172
  0.3122467028070930  0.0450575098688928  0.8755837220249801
  0.1876420800677642  0.1234916421414097  0.3004414737764015
  0.3124081238969262  0.7124635578688839  0.8334977600838882
  0.5626941501856700  0.5385716032405340  0.2560505112426884
  0.5626044635990812  0.2045781769201757  0.5656549584343018
  0.4377525865154358  0.2874476330928226  0.6105877082572456
  0.1873902093549210  0.9544820960369620  0.6996529240033680
  0.6874640537490688  0.6232753901126187  0.3004359452208961
  0.0625694047054422  0.8733523810504894  0.4347679083383015
  0.6876061736035167  0.4562309854958132  0.4783936894840606
  0.8121027864669119  0.8732841007351867  0.4343847233858091
  0.8125166577833195  0.8741540525339339  0.7884816927644636
  0.4373679112544978  0.9543079950692550  0.5653744211539112
  0.0624780350643732  0.2035983797220836  0.2115576798764065
  0.3125800328065407  0.8713350779856813  0.6549391663539609
  0.5624002699689629  0.7042739710706143  0.5656676734505077
  0.5625316186837344  0.3711482995902177  0.6548423755040382
  0.0624458388419125  0.7036691546112575  0.2115348395197428
  0.5623037919424910  0.5307013117455699  0.1243424729071353
  0.6878374207002961  0.6155510511101675  0.1663760100696870
  0.8122732611781064  0.8713506528980144  0.6548775583999522
  0.1876270296398970  0.2897228423382702  0.7439518256561967
  0.5624938238069230  0.3731462839813975  0.4344602300773137
  0.0622507154192658  0.0394211229588695  0.7440107526288064
  0.5621426748091444  0.0446764245818218  0.8755381179563506
  0.6874120525506224  0.4565281044505183  0.3451194755896017
  0.1876970195103576  0.1232449766363020  0.4342149954651887
  0.3124128588460637  0.7044725767516696  0.5656429937865987
  0.1875063133386094  0.1242844953211268  0.7885155122928791
  0.0624840346306717  0.8735778269187162  0.3004558130215464
  0.1875750917817105  0.4564067251772221  0.4785165955392296
  0.1882882970367011  0.7833247220253662  0.1241532458153296
  0.6876759565544012  0.1233421276858832  0.3004493715389046
  0.8128147492446569  0.5409019249348267  0.3894980658498952
  0.5625301061087951  0.7037416208199329  0.2115477086957264
  0.4375501220513620  0.6231062930134361  0.3003075723402264
  0.1875436779012244  0.4623316674752534  0.8335697895088198
  0.8126300544613209  0.7056251822996680  0.4784800704344951
  0.5621494865052260  0.8734199594007109  0.3005063088427152
  0.4374487223963297  0.4563635292290087  0.3451101812529503
  0.5626281194274871  0.7064492225225661  0.3451822620240556
  0.5627868980696650  0.5394756653053330  0.7440627295205156
  0.1878261789036011  0.1219181245331159  0.5215792397107600
  0.3126191699273024  0.2071622559251151  0.3451394806825807
  0.1876445433103267  0.7893760596247059  0.7440474024116467
  0.0624747638236598  0.2041983880122694  0.5657217543372198
  0.4374779840995537  0.6217988338220802  0.5215423802886610
  0.0625004378961951  0.2068014014950142  0.3450494896684749
  0.6876902657458447  0.9545227401923174  0.6996405915718298
  0.3124108841829901  0.3711107217127391  0.6548681871356835
  0.9373425387958167  0.4544436922331380  0.5654753023838373
  0.0629168050462967  0.0389204504239586  0.2558817634366517
  0.3124219938326815  0.2032619289620174  0.2117440026476992
  0.4375148176267089  0.4544354616475789  0.6996402827390392
  0.1877341605103114  0.6227239804753872  0.4341272253680942
  0.4375192098024205  0.9560266993323886  0.4785696368379637
  0.3125055268016781  0.8655558895041483  0.1657514748952547
  0.9373162360897180  0.2893228143056281  0.7441424881085115
  0.1873067688353088  0.7872870884878448  0.6107540429437548
  0.1876615864764452  0.2908088705073698  0.3892761805375040
  0.0627094337174149  0.8717361225063026  0.5215527790898331
  0.5622011104141783  0.0391140384320664  0.2559446870994679
  0.8123403784397193  0.7036684717315295  0.2117523702046978
  0.6873929955845562  0.4625236586761170  0.8342291155920388
  0.9374310269235636  0.9561894536663343  0.4785444785111778
  0.0622049426739836  0.3714206117369109  0.5215724249016540
 
  0.00000000E+00  0.00000000E+00  0.00000000E+00
  0.00000000E+00  0.00000000E+00  0.00000000E+00
  0.00000000E+00  0.00000000E+00  0.00000000E+00
  0.00000000E+00  0.00000000E+00  0.00000000E+00
  0.00000000E+00  0.00000000E+00  0.00000000E+00
  0.00000000E+00  0.00000000E+00  0.00000000E+00
  0.00000000E+00  0.00000000E+00  0.00000000E+00
  0.00000000E+00  0.00000000E+00  0.00000000E+00
  0.00000000E+00  0.00000000E+00  0.00000000E+00
  0.00000000E+00  0.00000000E+00  0.00000000E+00
  0.00000000E+00  0.00000000E+00  0.00000000E+00
  0.00000000E+00  0.00000000E+00  0.00000000E+00
  0.00000000E+00  0.00000000E+00  0.00000000E+00
  0.00000000E+00  0.00000000E+00  0.00000000E+00
  0.00000000E+00  0.00000000E+00  0.00000000E+00
  0.00000000E+00  0.00000000E+00  0.00000000E+00
  0.00000000E+00  0.00000000E+00  0.00000000E+00
  0.00000000E+00  0.00000000E+00  0.00000000E+00
  0.00000000E+00  0.00000000E+00  0.00000000E+00
  0.00000000E+00  0.00000000E+00  0.00000000E+00
  0.00000000E+00  0.00000000E+00  0.00000000E+00
  0.00000000E+00  0.00000000E+00  0.00000000E+00
  0.00000000E+00  0.00000000E+00  0.00000000E+00
  0.00000000E+00  0.00000000E+00  0.00000000E+00
  0.00000000E+00  0.00000000E+00  0.00000000E+00
  0.00000000E+00  0.00000000E+00  0.00000000E+00
  0.00000000E+00  0.00000000E+00  0.00000000E+00
  0.00000000E+00  0.00000000E+00  0.00000000E+00
  0.00000000E+00  0.00000000E+00  0.00000000E+00
  0.00000000E+00  0.00000000E+00  0.00000000E+00
  0.00000000E+00  0.00000000E+00  0.00000000E+00
  0.00000000E+00  0.00000000E+00  0.00000000E+00
  0.00000000E+00  0.00000000E+00  0.00000000E+00
  0.00000000E+00  0.00000000E+00  0.00000000E+00
  0.00000000E+00  0.00000000E+00  0.00000000E+00
  0.00000000E+00  0.00000000E+00  0.00000000E+00
  0.00000000E+00  0.00000000E+00  0.00000000E+00
  0.00000000E+00  0.00000000E+00  0.00000000E+00
  0.00000000E+00  0.00000000E+00  0.00000000E+00
  0.00000000E+00  0.00000000E+00  0.00000000E+00
  0.00000000E+00  0.00000000E+00  0.00000000E+00
  0.00000000E+00  0.00000000E+00  0.00000000E+00
  0.00000000E+00  0.00000000E+00  0.00000000E+00
  0.00000000E+00  0.00000000E+00  0.00000000E+00
  0.00000000E+00  0.00000000E+00  0.00000000E+00
  0.00000000E+00  0.00000000E+00  0.00000000E+00
  0.00000000E+00  0.00000000E+00  0.00000000E+00
  0.00000000E+00  0.00000000E+00  0.00000000E+00
  0.00000000E+00  0.00000000E+00  0.00000000E+00
  0.00000000E+00  0.00000000E+00  0.00000000E+00
  0.00000000E+00  0.00000000E+00  0.00000000E+00
  0.00000000E+00  0.00000000E+00  0.00000000E+00
  0.00000000E+00  0.00000000E+00  0.00000000E+00
  0.00000000E+00  0.00000000E+00  0.00000000E+00
  0.00000000E+00  0.00000000E+00  0.00000000E+00
  0.00000000E+00  0.00000000E+00  0.00000000E+00
  0.00000000E+00  0.00000000E+00  0.00000000E+00
  0.00000000E+00  0.00000000E+00  0.00000000E+00
  0.00000000E+00  0.00000000E+00  0.00000000E+00
  0.00000000E+00  0.00000000E+00  0.00000000E+00
  0.00000000E+00  0.00000000E+00  0.00000000E+00
  0.00000000E+00  0.00000000E+00  0.00000000E+00
  0.00000000E+00  0.00000000E+00  0.00000000E+00
  0.00000000E+00  0.00000000E+00  0.00000000E+00
  0.00000000E+00  0.00000000E+00  0.00000000E+00
  0.00000000E+00  0.00000000E+00  0.00000000E+00
  0.00000000E+00  0.00000000E+00  0.00000000E+00
  0.00000000E+00  0.00000000E+00  0.00000000E+00
  0.00000000E+00  0.00000000E+00  0.00000000E+00
  0.00000000E+00  0.00000000E+00  0.00000000E+00
  0.00000000E+00  0.00000000E+00  0.00000000E+00
  0.00000000E+00  0.00000000E+00  0.00000000E+00
  0.00000000E+00  0.00000000E+00  0.00000000E+00
  0.00000000E+00  0.00000000E+00  0.00000000E+00
  0.00000000E+00  0.00000000E+00  0.00000000E+00
  0.00000000E+00  0.00000000E+00  0.00000000E+00
  0.00000000E+00  0.00000000E+00  0.00000000E+00
  0.00000000E+00  0.00000000E+00  0.00000000E+00
  0.00000000E+00  0.00000000E+00  0.00000000E+00
  0.00000000E+00  0.00000000E+00  0.00000000E+00
  0.00000000E+00  0.00000000E+00  0.00000000E+00
  0.00000000E+00  0.00000000E+00  0.00000000E+00
  0.00000000E+00  0.00000000E+00  0.00000000E+00
  0.00000000E+00  0.00000000E+00  0.00000000E+00
  0.00000000E+00  0.00000000E+00  0.00000000E+00
  0.00000000E+00  0.00000000E+00  0.00000000E+00
  0.00000000E+00  0.00000000E+00  0.00000000E+00
  0.00000000E+00  0.00000000E+00  0.00000000E+00
  0.00000000E+00  0.00000000E+00  0.00000000E+00
  0.00000000E+00  0.00000000E+00  0.00000000E+00
  0.00000000E+00  0.00000000E+00  0.00000000E+00
  0.00000000E+00  0.00000000E+00  0.00000000E+00
  0.00000000E+00  0.00000000E+00  0.00000000E+00
  0.00000000E+00  0.00000000E+00  0.00000000E+00
  0.00000000E+00  0.00000000E+00  0.00000000E+00
  0.00000000E+00  0.00000000E+00  0.00000000E+00
  0.00000000E+00  0.00000000E+00  0.00000000E+00
  0.00000000E+00  0.00000000E+00  0.00000000E+00
  0.00000000E+00  0.00000000E+00  0.00000000E+00
  0.00000000E+00  0.00000000E+00  0.00000000E+00
  0.00000000E+00  0.00000000E+00  0.00000000E+00
  0.00000000E+00  0.00000000E+00  0.00000000E+00
  0.00000000E+00  0.00000000E+00  0.00000000E+00
  0.00000000E+00  0.00000000E+00  0.00000000E+00
  0.00000000E+00  0.00000000E+00  0.00000000E+00
  0.00000000E+00  0.00000000E+00  0.00000000E+00
  0.00000000E+00  0.00000000E+00  0.00000000E+00
  0.00000000E+00  0.00000000E+00  0.00000000E+00
  0.00000000E+00  0.00000000E+00  0.00000000E+00
  0.00000000E+00  0.00000000E+00  0.00000000E+00
  0.00000000E+00  0.00000000E+00  0.00000000E+00
  0.00000000E+00  0.00000000E+00  0.00000000E+00
  0.00000000E+00  0.00000000E+00  0.00000000E+00
  0.00000000E+00  0.00000000E+00  0.00000000E+00
  0.00000000E+00  0.00000000E+00  0.00000000E+00
  0.00000000E+00  0.00000000E+00  0.00000000E+00
  0.00000000E+00  0.00000000E+00  0.00000000E+00
  0.00000000E+00  0.00000000E+00  0.00000000E+00
  0.00000000E+00  0.00000000E+00  0.00000000E+00
  0.00000000E+00  0.00000000E+00  0.00000000E+00
  0.00000000E+00  0.00000000E+00  0.00000000E+00
  0.00000000E+00  0.00000000E+00  0.00000000E+00
  0.00000000E+00  0.00000000E+00  0.00000000E+00
  0.00000000E+00  0.00000000E+00  0.00000000E+00
  0.00000000E+00  0.00000000E+00  0.00000000E+00
  0.00000000E+00  0.00000000E+00  0.00000000E+00
  0.00000000E+00  0.00000000E+00  0.00000000E+00
  0.00000000E+00  0.00000000E+00  0.00000000E+00
  0.00000000E+00  0.00000000E+00  0.00000000E+00
  0.00000000E+00  0.00000000E+00  0.00000000E+00
  0.00000000E+00  0.00000000E+00  0.00000000E+00
  0.00000000E+00  0.00000000E+00  0.00000000E+00
  0.00000000E+00  0.00000000E+00  0.00000000E+00
  0.00000000E+00  0.00000000E+00  0.00000000E+00
  0.00000000E+00  0.00000000E+00  0.00000000E+00
  0.00000000E+00  0.00000000E+00  0.00000000E+00
  0.00000000E+00  0.00000000E+00  0.00000000E+00
  0.00000000E+00  0.00000000E+00  0.00000000E+00
  0.00000000E+00  0.00000000E+00  0.00000000E+00
  0.00000000E+00  0.00000000E+00  0.00000000E+00
  0.00000000E+00  0.00000000E+00  0.00000000E+00
  0.00000000E+00  0.00000000E+00  0.00000000E+00
  0.00000000E+00  0.00000000E+00  0.00000000E+00
  0.00000000E+00  0.00000000E+00  0.00000000E+00
  0.00000000E+00  0.00000000E+00  0.00000000E+00
  0.00000000E+00  0.00000000E+00  0.00000000E+00
  0.00000000E+00  0.00000000E+00  0.00000000E+00
  0.00000000E+00  0.00000000E+00  0.00000000E+00
  0.00000000E+00  0.00000000E+00  0.00000000E+00
  0.00000000E+00  0.00000000E+00  0.00000000E+00
  0.00000000E+00  0.00000000E+00  0.00000000E+00
  0.00000000E+00  0.00000000E+00  0.00000000E+00
  0.00000000E+00  0.00000000E+00  0.00000000E+00
  0.00000000E+00  0.00000000E+00  0.00000000E+00
  0.00000000E+00  0.00000000E+00  0.00000000E+00
  0.00000000E+00  0.00000000E+00  0.00000000E+00
  0.00000000E+00  0.00000000E+00  0.00000000E+00
  0.00000000E+00  0.00000000E+00  0.00000000E+00
  0.00000000E+00  0.00000000E+00  0.00000000E+00
  0.00000000E+00  0.00000000E+00  0.00000000E+00
  0.00000000E+00  0.00000000E+00  0.00000000E+00
  0.00000000E+00  0.00000000E+00  0.00000000E+00
  0.00000000E+00  0.00000000E+00  0.00000000E+00
  0.00000000E+00  0.00000000E+00  0.00000000E+00
  0.00000000E+00  0.00000000E+00  0.00000000E+00
  0.00000000E+00  0.00000000E+00  0.00000000E+00
  0.00000000E+00  0.00000000E+00  0.00000000E+00
  0.00000000E+00  0.00000000E+00  0.00000000E+00
  0.00000000E+00  0.00000000E+00  0.00000000E+00
  0.00000000E+00  0.00000000E+00  0.00000000E+00
  0.00000000E+00  0.00000000E+00  0.00000000E+00
  0.00000000E+00  0.00000000E+00  0.00000000E+00
  0.00000000E+00  0.00000000E+00  0.00000000E+00
  0.00000000E+00  0.00000000E+00  0.00000000E+00
  0.00000000E+00  0.00000000E+00  0.00000000E+00
  0.00000000E+00  0.00000000E+00  0.00000000E+00
  0.00000000E+00  0.00000000E+00  0.00000000E+00
  0.00000000E+00  0.00000000E+00  0.00000000E+00
  0.00000000E+00  0.00000000E+00  0.00000000E+00
  0.00000000E+00  0.00000000E+00  0.00000000E+00
  0.00000000E+00  0.00000000E+00  0.00000000E+00
  0.00000000E+00  0.00000000E+00  0.00000000E+00
  0.00000000E+00  0.00000000E+00  0.00000000E+00
  0.00000000E+00  0.00000000E+00  0.00000000E+00
  0.00000000E+00  0.00000000E+00  0.00000000E+00
  0.00000000E+00  0.00000000E+00  0.00000000E+00
  0.00000000E+00  0.00000000E+00  0.00000000E+00
  0.00000000E+00  0.00000000E+00  0.00000000E+00
  0.00000000E+00  0.00000000E+00  0.00000000E+00
  0.00000000E+00  0.00000000E+00  0.00000000E+00
  0.00000000E+00  0.00000000E+00  0.00000000E+00
  0.00000000E+00  0.00000000E+00  0.00000000E+00
  0.00000000E+00  0.00000000E+00  0.00000000E+00
  0.00000000E+00  0.00000000E+00  0.00000000E+00
  0.00000000E+00  0.00000000E+00  0.00000000E+00
  0.00000000E+00  0.00000000E+00  0.00000000E+00
  0.00000000E+00  0.00000000E+00  0.00000000E+00
  0.00000000E+00  0.00000000E+00  0.00000000E+00
  0.00000000E+00  0.00000000E+00  0.00000000E+00
  0.00000000E+00  0.00000000E+00  0.00000000E+00
  0.00000000E+00  0.00000000E+00  0.00000000E+00
  0.00000000E+00  0.00000000E+00  0.00000000E+00
  0.00000000E+00  0.00000000E+00  0.00000000E+00
  0.00000000E+00  0.00000000E+00  0.00000000E+00
  0.00000000E+00  0.00000000E+00  0.00000000E+00
  0.00000000E+00  0.00000000E+00  0.00000000E+00
  0.00000000E+00  0.00000000E+00  0.00000000E+00
  0.00000000E+00  0.00000000E+00  0.00000000E+00
  0.00000000E+00  0.00000000E+00  0.00000000E+00
  0.00000000E+00  0.00000000E+00  0.00000000E+00
  0.00000000E+00  0.00000000E+00  0.00000000E+00
  0.00000000E+00  0.00000000E+00  0.00000000E+00
  0.00000000E+00  0.00000000E+00  0.00000000E+00
  0.00000000E+00  0.00000000E+00  0.00000000E+00
  0.00000000E+00  0.00000000E+00  0.00000000E+00
  0.00000000E+00  0.00000000E+00  0.00000000E+00
  0.00000000E+00  0.00000000E+00  0.00000000E+00
  0.00000000E+00  0.00000000E+00  0.00000000E+00
  0.00000000E+00  0.00000000E+00  0.00000000E+00
  0.00000000E+00  0.00000000E+00  0.00000000E+00
  0.00000000E+00  0.00000000E+00  0.00000000E+00
  0.00000000E+00  0.00000000E+00  0.00000000E+00
  0.00000000E+00  0.00000000E+00  0.00000000E+00
  0.00000000E+00  0.00000000E+00  0.00000000E+00
  0.00000000E+00  0.00000000E+00  0.00000000E+00
  0.00000000E+00  0.00000000E+00  0.00000000E+00
  0.00000000E+00  0.00000000E+00  0.00000000E+00
  0.00000000E+00  0.00000000E+00  0.00000000E+00
  0.00000000E+00  0.00000000E+00  0.00000000E+00
  0.00000000E+00  0.00000000E+00  0.00000000E+00
  0.00000000E+00  0.00000000E+00  0.00000000E+00
  0.00000000E+00  0.00000000E+00  0.00000000E+00
  0.00000000E+00  0.00000000E+00  0.00000000E+00
  0.00000000E+00  0.00000000E+00  0.00000000E+00
  0.00000000E+00  0.00000000E+00  0.00000000E+00
  0.00000000E+00  0.00000000E+00  0.00000000E+00
  0.00000000E+00  0.00000000E+00  0.00000000E+00
  0.00000000E+00  0.00000000E+00  0.00000000E+00
  0.00000000E+00  0.00000000E+00  0.00000000E+00
  0.00000000E+00  0.00000000E+00  0.00000000E+00
  0.00000000E+00  0.00000000E+00  0.00000000E+00
  0.00000000E+00  0.00000000E+00  0.00000000E+00
  0.00000000E+00  0.00000000E+00  0.00000000E+00
  0.00000000E+00  0.00000000E+00  0.00000000E+00
  0.00000000E+00  0.00000000E+00  0.00000000E+00
  0.00000000E+00  0.00000000E+00  0.00000000E+00
  0.00000000E+00  0.00000000E+00  0.00000000E+00