CuInSe2gb                               
   1.00000000000000     
     9.7266780392896699    0.0000000000000000    0.0000000000000000
     0.0000000000000000    8.4235502764570693    0.0000000000000000
     0.0000000000000000    0.0000000000000000   45.0000000000000000
   Fe   Mn
   281     7
Direct
  0.0571370643535596  0.7016675776032172  0.2114907961200481
  0.3159384800863156  0.7196925845369674  0.8757028264220414
  0.6886635903926788  0.9575536243131790  0.6113249043634471
  0.4377639686350860  0.4571995358387052  0.6113414138449804
  0.4362964449920376  0.2870900285899078  0.2557472946857244
  0.0608458055662466  0.3863823614458924  0.8342310909201831
  0.3112392836294606  0.8860928896370093  0.8340760410215780
  0.4428091374172689  0.6266350533927720  0.7001717378394267
  0.0640988281241257  0.2129836611574062  0.7444067570041810
  0.1821670663945068  0.4514280088724911  0.2113633074870899
  0.5640316054758663  0.2088681759909650  0.4778283322946924
  0.0640494386497873  0.8741397729807570  0.5666499919216913
  0.5653629806490816  0.2192186106153580  0.8756381485736840
  0.8101416965999610  0.5305024951934739  0.1248144707476186
  0.4321414373014014  0.9515009711981999  0.2113424950565371
  0.5643907246985064  0.3745010838397672  0.5665873713093925
  0.8119475916039176  0.0421406353183880  0.3885496126086393
  0.6862483735783422  0.7905494082129972  0.5220983204983289
  0.4388500569218168  0.4589625480813243  0.4777997182770731
  0.4386925670970868  0.9623658373364240  0.7443582902029215
  0.4389858864011606  0.6245921468804397  0.5666650288002267
  0.0601194375763192  0.5304709524273596  0.1248118428899681
  0.3101172636329861  0.0304084305180246  0.1248128507343458
  0.6871829856396832  0.9587698095960022  0.3444248332566724
  0.6839163197667503  0.7816108977524197  0.1245748293821667
  0.0577565662354974  0.3733307187655310  0.2997739652425961
  0.6885183939083563  0.4709595013166982  0.8753855015509739
  0.4322039338763485  0.4513861478982776  0.2113466141083038
  0.8110395212631657  0.3752048961689536  0.4331199175688673
  0.8112519776986600  0.8863309416946232  0.8340027546946258
  0.5632467978069183  0.5408856673203170  0.6555073047290904
  0.9360744744549563  0.1251998559864583  0.4331405835562028
  0.5614353240583406  0.5377512161255561  0.2557096279224949
  0.6872427525512697  0.4586708782920454  0.3444030443286902
  0.1882101128346085  0.6142127132563915  0.1661150516338173
  0.1929521010369106  0.7984815503035223  0.7884945981489833
  0.4429959528073466  0.1254197696969527  0.7000361723187579
  0.9329092472573541  0.6233397066612388  0.2997779170102046
  0.3147031033947102  0.2197854222070780  0.8757760635589018
  0.3141873762614263  0.8745009083826574  0.5666010986364318
  0.8159143246286357  0.2194144835136153  0.8756534911635673
  0.8128266676274538  0.5417299714747361  0.6555267448443455
  0.5601417452171814  0.5304993224468145  0.1248088828213028
  0.5628766765387476  0.8640371017904204  0.1662551597667448
  0.1861786416605090  0.2870627907343388  0.2557661727159573
  0.8110027084579626  0.8751410155713644  0.4331267209990151
  0.5672321370002983  0.3763257677435404  0.7002455398533287
  0.0601592634814714  0.0303592045514285  0.1247750071913726
  0.3131327970804555  0.5410205284621296  0.6555222400686145
  0.5623504385400496  0.2086209915169406  0.3443669998735121
  0.1885267266657168  0.9577412433888941  0.6113791684692937
  0.3077719308185043  0.3733775109092495  0.2997858703490142
  0.4379936918578268  0.7914810127989994  0.6555114438745453
  0.6890711793930874  0.4625866394280982  0.7445374748813863
  0.0627793836847848  0.3641113076709648  0.1662705920971421
  0.6923666566765408  0.6263718331853551  0.7001876000052599
  0.3119486531092934  0.5422062721118344  0.3885628105148711
  0.0655315485460978  0.7187937703175586  0.8756780014104151
  0.9361342624162965  0.6367056833961647  0.8340471718292474
  0.3177212212739607  0.5491925944919028  0.7887412069382520
  0.3072034161062050  0.2016954654137274  0.2115061676311834
  0.0640272850052582  0.7090476375822043  0.4778160712098420
  0.5571196469138050  0.2016573132165416  0.2114913310324474
  0.3144028468514378  0.2120719034847308  0.7442680295338239
  0.0679150805062193  0.3762656630642549  0.7001699488471019
  0.1863068937209224  0.6367574027639890  0.8337892487090964
  0.0672061194077768  0.0480047221254690  0.7888815092917436
  0.4390217119977542  0.1245514938910795  0.5666607868186845
  0.9380101661298421  0.2915609965322223  0.6555798326750212
  0.8071300391586799  0.2015945576251053  0.2115067576841939
  0.9321869041713163  0.9514250728872444  0.2113368356381974
  0.9393668919796323  0.6243833058609460  0.5666343396542126
  0.8112581257245365  0.3867404865617196  0.8341235543369054
  0.1925082091900908  0.6265704921819363  0.7001204965302700
  0.5672734696613175  0.8761628154936839  0.7002187156995247
  0.6881563780996487  0.2913519800560005  0.6555013161010854
  0.3124189932904649  0.2074288529912499  0.6113161357740557
  0.4387031618069265  0.4626684049994357  0.7443058707599501
  0.4369080143941755  0.7920767296738195  0.3885494002939709
  0.6895484425272256  0.9624645475221092  0.7444302477739377
  0.8071555005265552  0.7017162417998953  0.2114876376055224
  0.8141394814553629  0.7077595127512830  0.6112936531118941
  0.4337894097533230  0.7816553903709981  0.1245555450965372
  0.3134544798017239  0.7124447247675800  0.7443716479925405
  0.3172765127325285  0.0484917219224920  0.7887650631932273
  0.8120081131754096  0.5420899306004909  0.3885652092356199
  0.6863538588526571  0.2903497396865312  0.5220622929371834
  0.6926009994432376  0.7980242550978127  0.7886089064728989
  0.1863862859237786  0.7873698327313940  0.2557488371951872
  0.6882049257155991  0.1141542339225090  0.1661719995224393
  0.6889803337350642  0.9589366454313282  0.4777906427391823
  0.9372101677130599  0.9588102217635833  0.3443930757250342
  0.8112905087246762  0.0400337144457452  0.5219503833936279
  0.6860471965123569  0.6252081671114312  0.4331175727650107
  0.4371921698165522  0.4587208641619939  0.3444154142821848
  0.8142249593682251  0.2122864061144445  0.7444249432810879
  0.4391989569062038  0.9711638830990834  0.8754174944920197
  0.5644164033175099  0.8744999356067957  0.5665908801177669
  0.8102271104804147  0.0303476280143956  0.1247827649803901
  0.4329300806556632  0.6236159502351197  0.2997700562939120
  0.8148908261442004  0.7195523720980628  0.8757030825919407
  0.6886081030004959  0.4573661772168408  0.6113063287622892
  0.5607775057434268  0.3867801523287975  0.8340554959733565
  0.8077753143699768  0.3733279611147292  0.2997956266875835
  0.1871410674372254  0.2921718547271397  0.3885908763436931
  0.8175238206944249  0.5490613386453160  0.7888988770752119
  0.1861620373088300  0.7901679589459443  0.5220584057914450
  0.3078812073134444  0.8733179306487234  0.2997876732528745
  0.1821963681958573  0.9514627207557321  0.2113700204286443
  0.1888919855915989  0.4628496886572951  0.7444837994834768
  0.4361554049945497  0.2903437158901941  0.5220652976985464
  0.0623271477382467  0.7086376471691115  0.3443640984296396
  0.1879950152530656  0.7912066838817460  0.6555809598046005
  0.4423429713378515  0.7983408333035041  0.7886077396106859
  0.6859892724616556  0.1252174670103743  0.4331299124907632
  0.9363479207906696  0.7902039888217983  0.5220896814283601
  0.6881408945766087  0.6141473484113152  0.1661157466066829
  0.8123454759006220  0.7085875720747060  0.3443715178413323
  0.9393514349986646  0.4624570420178367  0.7444363620534575
  0.1872185523209880  0.4586966536392533  0.3444102699699195
  0.5675887784377365  0.5489580922514904  0.7888477228852306
  0.5626975429644407  0.3641624364864464  0.1662717526974785
  0.5622896551920014  0.7086876449479823  0.3443504686014577
  0.5578444531284411  0.3733666171241211  0.2997734810440272
  0.1884451184113145  0.4708632279468166  0.8754748072623806
  0.1882580083509817  0.1140526253978944  0.1661268107279556
  0.4428759772471198  0.2988173916819815  0.7885250068020939
  0.6861286674113729  0.7871585640563217  0.2557789970209273
  0.9367279744058726  0.1365145954112673  0.8339552956655397
  0.4388437807624558  0.9588763125514315  0.4777917433659615
  0.5653460980617792  0.7191869064067573  0.8756286786506792
  0.1889703611987425  0.4591638949072684  0.4778844817709960
  0.9337671420548814  0.2816689797351283  0.1245725258963093
  0.3120648577283930  0.0421597435510239  0.3885581492851804
  0.0633647051716337  0.0412683019411123  0.6554627738713713
  0.5610268697120753  0.3752699406244812  0.4331148468907812
  0.9360999189480830  0.6252218305138618  0.4331234042285818
  0.3127872308161571  0.3640511269130658  0.1662652539287764
  0.9429203401008500  0.1259465913666802  0.7001932645286132
  0.5629950580642505  0.0406405299907490  0.6555626290125681
  0.5612407141108686  0.5407261675944207  0.5219566026674890
  0.1828862113074036  0.1235273235937309  0.2997561889949355
  0.4382421086032054  0.1140835391805526  0.1661304902963942
  0.6828751474067317  0.6235058092246922  0.2997536581010178
  0.9328798062301120  0.1235754516021868  0.2997799364380840
  0.8139201008698124  0.3745885503973078  0.5666345586427710
  0.0577838971823425  0.8734016468069713  0.2997853052270767
  0.1890841316494547  0.6243426088999156  0.5666301740991684
  0.9422317671899165  0.7978411927284188  0.7886293305292865
  0.3104915307821771  0.3864999837408050  0.8341187847714111
  0.9386942317152531  0.4708803571144656  0.8755282103801757
  0.4365133049645147  0.6364086226901147  0.8339684129920156
  0.0622513984319171  0.2085948924124939  0.3443611374336033
  0.1885071476499145  0.9703396666075385  0.8754104845153268
  0.9338722532497572  0.7814953833458480  0.1245707333816849
  0.6869933233686120  0.7921498063570079  0.3885663944666877
  0.9379374050809111  0.7915324703391835  0.6555896564161199
  0.9382117773923578  0.1139545376355932  0.1662045372757434
  0.4378025550546922  0.2913221760464753  0.6555266396265240
  0.0571064549636198  0.2015008023033943  0.2115016370749703
  0.6821183411196375  0.9515691594010286  0.2113509753346137
  0.1829411279483685  0.6234406885020036  0.2997673268154360
  0.8176747338627687  0.8762355462642059  0.7002250331143152
  0.9431820251450737  0.6264761367210874  0.7001701744861764
  0.1927367943296664  0.1257382858264972  0.7000530820296847
  0.9389740018533896  0.4590787266949182  0.4778820648907081
  0.8139195450915383  0.2078081403651549  0.6112986710542080
  0.1859624665932265  0.6252197779245973  0.4331217439985917
  0.4330424643795214  0.1234149862495406  0.2997520615078662
  0.6828579930582570  0.1234809274022868  0.2997589649920827
  0.5619904140391579  0.5421213704925628  0.3885676820386965
  0.8122735251446812  0.2085841405156840  0.3443586750241013
  0.4395488157011077  0.4715216749675183  0.8753142731370227
  0.5607455334035670  0.8863452269221352  0.8340223891353596
  0.3138556904737385  0.2089224988057609  0.4777886994208039
  0.1889265411264985  0.9590597531443598  0.4778655800074038
  0.0609238126955281  0.8864611285160512  0.8340210821992625
  0.0611654184168218  0.5403279242931526  0.5220797322489451
  0.9389893052243300  0.9590073167065098  0.4778537155648572
  0.0631374542662584  0.7074884448150663  0.6113251359460684
  0.5612751368214668  0.0406106666474235  0.5220012103952012
  0.6932928794463015  0.2983482465403487  0.7885402413808130
  0.8127118470824682  0.3639919219482431  0.1662819876684451
  0.4359450732955283  0.1251973244405915  0.4331049321115915
  0.0639923602248679  0.2091772092734645  0.4778099099608853
  0.3130549402003115  0.0411934149664005  0.6553870604462805
  0.4362623809145831  0.7905406766259017  0.5220610213080524
  0.1864566733823330  0.1368432834759709  0.8338500316040093
  0.1838694930923480  0.2816848686555781  0.1245735068368471
  0.9371901907734629  0.4586784834702208  0.3444024784363460
  0.3126735677284362  0.8639290615644826  0.1662462678419040
  0.3071518368479892  0.7016823148821477  0.2114894583553312
  0.9382464664698971  0.6140922228270717  0.1661257065809401
  0.1883399529400162  0.4576099049674794  0.6113413367858753
  0.0680115057176234  0.8769160568909807  0.7002548130957856
  0.0630347171077700  0.5413033612725356  0.6555175665802596
  0.3101643669567894  0.5305184788150054  0.1248131931639104
  0.9370408776345747  0.7921334506903032  0.3885590042047975
  0.9418576873416511  0.2989166294300887  0.7886657364721902
  0.1878457286750237  0.2911988413672024  0.6555806306517938
  0.9382755992219557  0.9578377715757942  0.6113875004105085
  0.8151746336674842  0.7123975343287263  0.7443776905176201
  0.6863092891902971  0.2871038848997461  0.2557623638658914
  0.0643391323872501  0.7128904727717903  0.7444057785537667
  0.6820824111476758  0.4514433996112005  0.2113431048407184
  0.8139160731292848  0.2088988606497248  0.4778038511532411
  0.5639076997006843  0.7088358728461855  0.4778237719352516
  0.0627245360523034  0.8640029044081722  0.1662847325970127
  0.9363913370691819  0.2901166479856924  0.5220572994096632
  0.6881322814983341  0.7918404181890338  0.6556278831283222
  0.0609541530827062  0.8750994883835471  0.4330960523639325
  0.0656146473547842  0.2191811486478286  0.8757744278456747
  0.8130136381265241  0.0411746728210958  0.6554781772084438
  0.5600904921516614  0.0304053623195027  0.1247844681568400
  0.3109900125770650  0.3752195268151341  0.4331230998825288
  0.3142941452445781  0.3745188242114277  0.5666189488725262
  0.3138300417813700  0.7088946604780758  0.4777667056314791
  0.0611670544838649  0.0403792798922023  0.5220961072021901
  0.3173307504868410  0.8768460309673338  0.7002315783775109
  0.0614054485732592  0.5376128225242240  0.2557207498571396
  0.6865388110153535  0.1368918259247991  0.8338582830755964
  0.8113983009980140  0.0377224158436423  0.2556922536713236
  0.1859671568065243  0.1251986584028864  0.4331294702606573
  0.6924918234407569  0.1258279621619449  0.7001239755776739
  0.1862077135999510  0.2900275084616185  0.5220632067894075
  0.4362741408584933  0.7872258724101555  0.2557623748932693
  0.8114294348760289  0.5376901083051112  0.2557087715020465
  0.0634378013879685  0.2076054876001483  0.6112016030689691
  0.1871690214174206  0.7921095999242463  0.3885879359472724
  0.3111939396195648  0.5401494815873135  0.5220448137771340
  0.8129048044283944  0.8639490688326281  0.1662878751638595
  0.6870233410277656  0.2920768236929701  0.3885496066229289
  0.1891191501634720  0.1242660915171465  0.5666946133556848
  0.6883258970135343  0.9709607380931063  0.8754564868495005
  0.6890240359431754  0.1245398032182790  0.5666038270488505
  0.4372399017371447  0.9587707673696271  0.3444052188819087
  0.1891314249202247  0.9616852979266294  0.7442723919319469
  0.9363461075812379  0.7872857331073300  0.2557432186630871
  0.5609816256416579  0.8752340952797366  0.4331112453699927
  0.3110506054248125  0.8750828154005516  0.4331327079838107
  0.8113789283129123  0.5400224571471839  0.5219733444961214
  0.9321571095828954  0.4513592107848828  0.2113475866828048
  0.3114087584803944  0.5377097576546895  0.2556931982580494
  0.5619055280412172  0.0421491890687899  0.3885607176400075
  0.9381193271069118  0.4578038945626539  0.6113528983823270
  0.0620000286812519  0.0420928036593737  0.3885586167896354
  0.0619451240377832  0.5421440254314334  0.3885836223497304
  0.4370174575379890  0.2920184288842756  0.3885347018222844
  0.6888814221992167  0.4589649686436750  0.4777841983114175
  0.0640284237333900  0.3743166136305597  0.5666562409660384
  0.5571234896702865  0.7015451131466973  0.2114877898148471
  0.9363178710054241  0.2870892820776242  0.2557802957921378
  0.8177752441219688  0.0483466721982897  0.7887696934402750
  0.1872207834728848  0.9587753580964468  0.3444065896027240
  0.5577698629589918  0.8733387439111823  0.2997745944609565
  0.0610032679901439  0.3752168319825853  0.4331038003733331
  0.3123159830020498  0.7085804249868496  0.3443707693586685
  0.3123405754011007  0.2085915096810472  0.3443756879204960
  0.9392855997519380  0.1241659682128511  0.5666093218564093
  0.4377220728659115  0.9571457779870286  0.6113085373096131
  0.5613780525691942  0.0377322592551420  0.2557154645010351
  0.1839746692957539  0.7816486909177515  0.1245742134415524
  0.0613969222935792  0.0376774257383597  0.2556927386588896
  0.6890811962655438  0.6245176362758528  0.5665764817332413
  0.4382570012240947  0.6140362032919375  0.1661264293045964
  0.3112228359282618  0.0400415432598851  0.5220230560523557
  0.6839138975437121  0.2817365520463683  0.1245697768848575
  0.8140055644241164  0.7089004735777559  0.4778059905994212
  0.4367482834918581  0.1366715338213836  0.8339915495805249
  0.3178024834973543  0.3766869116033112  0.7002114817110817
  0.6868274071003465  0.6363012811931344  0.8338773974475057
  0.5642716644815838  0.7127027319642267  0.7443977871081733
  0.9369515997276467  0.2921068645628280  0.3885394570474083
  0.9387737075169836  0.9707671666725749  0.8753144240857653
  0.9390888033266973  0.9614872823487356  0.7442955065757283
  0.8140911270571938  0.8744448345855428  0.5666795468178728
  0.8077147422376518  0.8733361031468866  0.2997768100023413
  0.3114630441639467  0.0376837848111107  0.2557025746413426
  0.4338308037998846  0.2816746623153968  0.1245741283560436
  0.3123951091584043  0.7074354691392625  0.6113207516159493
  0.4358761921951497  0.6252431635111672  0.4331172487725240
  0.1931796188970723  0.2976174631912596  0.7884584042227829
  0.5678752000913476  0.0481529673968690  0.7886248368058151
  0.0673501325838463  0.5495916659711222  0.7887017181438600
  0.8179522043570722  0.3760581033654029  0.7001765360139885
  0.5641897792645283  0.2130620326435508  0.7442664940712749
  0.5630861096535678  0.2077379364370145  0.6112003996500328
  0.5630871804412739  0.7077978782822502  0.6113510842941487
 
  0.00000000E+00  0.00000000E+00  0.00000000E+00
  0.00000000E+00  0.00000000E+00  0.00000000E+00
  0.00000000E+00  0.00000000E+00  0.00000000E+00
  0.00000000E+00  0.00000000E+00  0.00000000E+00
  0.00000000E+00  0.00000000E+00  0.00000000E+00
  0.00000000E+00  0.00000000E+00  0.00000000E+00
  0.00000000E+00  0.00000000E+00  0.00000000E+00
  0.00000000E+00  0.00000000E+00  0.00000000E+00
  0.00000000E+00  0.00000000E+00  0.00000000E+00
  0.00000000E+00  0.00000000E+00  0.00000000E+00
  0.00000000E+00  0.00000000E+00  0.00000000E+00
  0.00000000E+00  0.00000000E+00  0.00000000E+00
  0.00000000E+00  0.00000000E+00  0.00000000E+00
  0.00000000E+00  0.00000000E+00  0.00000000E+00
  0.00000000E+00  0.00000000E+00  0.00000000E+00
  0.00000000E+00  0.00000000E+00  0.00000000E+00
  0.00000000E+00  0.00000000E+00  0.00000000E+00
  0.00000000E+00  0.00000000E+00  0.00000000E+00
  0.00000000E+00  0.00000000E+00  0.00000000E+00
  0.00000000E+00  0.00000000E+00  0.00000000E+00
  0.00000000E+00  0.00000000E+00  0.00000000E+00
  0.00000000E+00  0.00000000E+00  0.00000000E+00
  0.00000000E+00  0.00000000E+00  0.00000000E+00
  0.00000000E+00  0.00000000E+00  0.00000000E+00
  0.00000000E+00  0.00000000E+00  0.00000000E+00
  0.00000000E+00  0.00000000E+00  0.00000000E+00
  0.00000000E+00  0.00000000E+00  0.00000000E+00
  0.00000000E+00  0.00000000E+00  0.00000000E+00
  0.00000000E+00  0.00000000E+00  0.00000000E+00
  0.00000000E+00  0.00000000E+00  0.00000000E+00
  0.00000000E+00  0.00000000E+00  0.00000000E+00
  0.00000000E+00  0.00000000E+00  0.00000000E+00
  0.00000000E+00  0.00000000E+00  0.00000000E+00
  0.00000000E+00  0.00000000E+00  0.00000000E+00
  0.00000000E+00  0.00000000E+00  0.00000000E+00
  0.00000000E+00  0.00000000E+00  0.00000000E+00
  0.00000000E+00  0.00000000E+00  0.00000000E+00
  0.00000000E+00  0.00000000E+00  0.00000000E+00
  0.00000000E+00  0.00000000E+00  0.00000000E+00
  0.00000000E+00  0.00000000E+00  0.00000000E+00
  0.00000000E+00  0.00000000E+00  0.00000000E+00
  0.00000000E+00  0.00000000E+00  0.00000000E+00
  0.00000000E+00  0.00000000E+00  0.00000000E+00
  0.00000000E+00  0.00000000E+00  0.00000000E+00
  0.00000000E+00  0.00000000E+00  0.00000000E+00
  0.00000000E+00  0.00000000E+00  0.00000000E+00
  0.00000000E+00  0.00000000E+00  0.00000000E+00
  0.00000000E+00  0.00000000E+00  0.00000000E+00
  0.00000000E+00  0.00000000E+00  0.00000000E+00
  0.00000000E+00  0.00000000E+00  0.00000000E+00
  0.00000000E+00  0.00000000E+00  0.00000000E+00
  0.00000000E+00  0.00000000E+00  0.00000000E+00
  0.00000000E+00  0.00000000E+00  0.00000000E+00
  0.00000000E+00  0.00000000E+00  0.00000000E+00
  0.00000000E+00  0.00000000E+00  0.00000000E+00
  0.00000000E+00  0.00000000E+00  0.00000000E+00
  0.00000000E+00  0.00000000E+00  0.00000000E+00
  0.00000000E+00  0.00000000E+00  0.00000000E+00
  0.00000000E+00  0.00000000E+00  0.00000000E+00
  0.00000000E+00  0.00000000E+00  0.00000000E+00
  0.00000000E+00  0.00000000E+00  0.00000000E+00
  0.00000000E+00  0.00000000E+00  0.00000000E+00
  0.00000000E+00  0.00000000E+00  0.00000000E+00
  0.00000000E+00  0.00000000E+00  0.00000000E+00
  0.00000000E+00  0.00000000E+00  0.00000000E+00
  0.00000000E+00  0.00000000E+00  0.00000000E+00
  0.00000000E+00  0.00000000E+00  0.00000000E+00
  0.00000000E+00  0.00000000E+00  0.00000000E+00
  0.00000000E+00  0.00000000E+00  0.00000000E+00
  0.00000000E+00  0.00000000E+00  0.00000000E+00
  0.00000000E+00  0.00000000E+00  0.00000000E+00
  0.00000000E+00  0.00000000E+00  0.00000000E+00
  0.00000000E+00  0.00000000E+00  0.00000000E+00
  0.00000000E+00  0.00000000E+00  0.00000000E+00
  0.00000000E+00  0.00000000E+00  0.00000000E+00
  0.00000000E+00  0.00000000E+00  0.00000000E+00
  0.00000000E+00  0.00000000E+00  0.00000000E+00
  0.00000000E+00  0.00000000E+00  0.00000000E+00
  0.00000000E+00  0.00000000E+00  0.00000000E+00
  0.00000000E+00  0.00000000E+00  0.00000000E+00
  0.00000000E+00  0.00000000E+00  0.00000000E+00
  0.00000000E+00  0.00000000E+00  0.00000000E+00
  0.00000000E+00  0.00000000E+00  0.00000000E+00
  0.00000000E+00  0.00000000E+00  0.00000000E+00
  0.00000000E+00  0.00000000E+00  0.00000000E+00
  0.00000000E+00  0.00000000E+00  0.00000000E+00
  0.00000000E+00  0.00000000E+00  0.00000000E+00
  0.00000000E+00  0.00000000E+00  0.00000000E+00
  0.00000000E+00  0.00000000E+00  0.00000000E+00
  0.00000000E+00  0.00000000E+00  0.00000000E+00
  0.00000000E+00  0.00000000E+00  0.00000000E+00
  0.00000000E+00  0.00000000E+00  0.00000000E+00
  0.00000000E+00  0.00000000E+00  0.00000000E+00
  0.00000000E+00  0.00000000E+00  0.00000000E+00
  0.00000000E+00  0.00000000E+00  0.00000000E+00
  0.00000000E+00  0.00000000E+00  0.00000000E+00
  0.00000000E+00  0.00000000E+00  0.00000000E+00
  0.00000000E+00  0.00000000E+00  0.00000000E+00
  0.00000000E+00  0.00000000E+00  0.00000000E+00
  0.00000000E+00  0.00000000E+00  0.00000000E+00
  0.00000000E+00  0.00000000E+00  0.00000000E+00
  0.00000000E+00  0.00000000E+00  0.00000000E+00
  0.00000000E+00  0.00000000E+00  0.00000000E+00
  0.00000000E+00  0.00000000E+00  0.00000000E+00
  0.00000000E+00  0.00000000E+00  0.00000000E+00
  0.00000000E+00  0.00000000E+00  0.00000000E+00
  0.00000000E+00  0.00000000E+00  0.00000000E+00
  0.00000000E+00  0.00000000E+00  0.00000000E+00
  0.00000000E+00  0.00000000E+00  0.00000000E+00
  0.00000000E+00  0.00000000E+00  0.00000000E+00
  0.00000000E+00  0.00000000E+00  0.00000000E+00
  0.00000000E+00  0.00000000E+00  0.00000000E+00
  0.00000000E+00  0.00000000E+00  0.00000000E+00
  0.00000000E+00  0.00000000E+00  0.00000000E+00
  0.00000000E+00  0.00000000E+00  0.00000000E+00
  0.00000000E+00  0.00000000E+00  0.00000000E+00
  0.00000000E+00  0.00000000E+00  0.00000000E+00
  0.00000000E+00  0.00000000E+00  0.00000000E+00
  0.00000000E+00  0.00000000E+00  0.00000000E+00
  0.00000000E+00  0.00000000E+00  0.00000000E+00
  0.00000000E+00  0.00000000E+00  0.00000000E+00
  0.00000000E+00  0.00000000E+00  0.00000000E+00
  0.00000000E+00  0.00000000E+00  0.00000000E+00
  0.00000000E+00  0.00000000E+00  0.00000000E+00
  0.00000000E+00  0.00000000E+00  0.00000000E+00
  0.00000000E+00  0.00000000E+00  0.00000000E+00
  0.00000000E+00  0.00000000E+00  0.00000000E+00
  0.00000000E+00  0.00000000E+00  0.00000000E+00
  0.00000000E+00  0.00000000E+00  0.00000000E+00
  0.00000000E+00  0.00000000E+00  0.00000000E+00
  0.00000000E+00  0.00000000E+00  0.00000000E+00
  0.00000000E+00  0.00000000E+00  0.00000000E+00
  0.00000000E+00  0.00000000E+00  0.00000000E+00
  0.00000000E+00  0.00000000E+00  0.00000000E+00
  0.00000000E+00  0.00000000E+00  0.00000000E+00
  0.00000000E+00  0.00000000E+00  0.00000000E+00
  0.00000000E+00  0.00000000E+00  0.00000000E+00
  0.00000000E+00  0.00000000E+00  0.00000000E+00
  0.00000000E+00  0.00000000E+00  0.00000000E+00
  0.00000000E+00  0.00000000E+00  0.00000000E+00
  0.00000000E+00  0.00000000E+00  0.00000000E+00
  0.00000000E+00  0.00000000E+00  0.00000000E+00
  0.00000000E+00  0.00000000E+00  0.00000000E+00
  0.00000000E+00  0.00000000E+00  0.00000000E+00
  0.00000000E+00  0.00000000E+00  0.00000000E+00
  0.00000000E+00  0.00000000E+00  0.00000000E+00
  0.00000000E+00  0.00000000E+00  0.00000000E+00
  0.00000000E+00  0.00000000E+00  0.00000000E+00
  0.00000000E+00  0.00000000E+00  0.00000000E+00
  0.00000000E+00  0.00000000E+00  0.00000000E+00
  0.00000000E+00  0.00000000E+00  0.00000000E+00
  0.00000000E+00  0.00000000E+00  0.00000000E+00
  0.00000000E+00  0.00000000E+00  0.00000000E+00
  0.00000000E+00  0.00000000E+00  0.00000000E+00
  0.00000000E+00  0.00000000E+00  0.00000000E+00
  0.00000000E+00  0.00000000E+00  0.00000000E+00
  0.00000000E+00  0.00000000E+00  0.00000000E+00
  0.00000000E+00  0.00000000E+00  0.00000000E+00
  0.00000000E+00  0.00000000E+00  0.00000000E+00
  0.00000000E+00  0.00000000E+00  0.00000000E+00
  0.00000000E+00  0.00000000E+00  0.00000000E+00
  0.00000000E+00  0.00000000E+00  0.00000000E+00
  0.00000000E+00  0.00000000E+00  0.00000000E+00
  0.00000000E+00  0.00000000E+00  0.00000000E+00
  0.00000000E+00  0.00000000E+00  0.00000000E+00
  0.00000000E+00  0.00000000E+00  0.00000000E+00
  0.00000000E+00  0.00000000E+00  0.00000000E+00
  0.00000000E+00  0.00000000E+00  0.00000000E+00
  0.00000000E+00  0.00000000E+00  0.00000000E+00
  0.00000000E+00  0.00000000E+00  0.00000000E+00
  0.00000000E+00  0.00000000E+00  0.00000000E+00
  0.00000000E+00  0.00000000E+00  0.00000000E+00
  0.00000000E+00  0.00000000E+00  0.00000000E+00
  0.00000000E+00  0.00000000E+00  0.00000000E+00
  0.00000000E+00  0.00000000E+00  0.00000000E+00
  0.00000000E+00  0.00000000E+00  0.00000000E+00
  0.00000000E+00  0.00000000E+00  0.00000000E+00
  0.00000000E+00  0.00000000E+00  0.00000000E+00
  0.00000000E+00  0.00000000E+00  0.00000000E+00
  0.00000000E+00  0.00000000E+00  0.00000000E+00
  0.00000000E+00  0.00000000E+00  0.00000000E+00
  0.00000000E+00  0.00000000E+00  0.00000000E+00
  0.00000000E+00  0.00000000E+00  0.00000000E+00
  0.00000000E+00  0.00000000E+00  0.00000000E+00
  0.00000000E+00  0.00000000E+00  0.00000000E+00
  0.00000000E+00  0.00000000E+00  0.00000000E+00
  0.00000000E+00  0.00000000E+00  0.00000000E+00
  0.00000000E+00  0.00000000E+00  0.00000000E+00
  0.00000000E+00  0.00000000E+00  0.00000000E+00
  0.00000000E+00  0.00000000E+00  0.00000000E+00
  0.00000000E+00  0.00000000E+00  0.00000000E+00
  0.00000000E+00  0.00000000E+00  0.00000000E+00
  0.00000000E+00  0.00000000E+00  0.00000000E+00
  0.00000000E+00  0.00000000E+00  0.00000000E+00
  0.00000000E+00  0.00000000E+00  0.00000000E+00
  0.00000000E+00  0.00000000E+00  0.00000000E+00
  0.00000000E+00  0.00000000E+00  0.00000000E+00
  0.00000000E+00  0.00000000E+00  0.00000000E+00
  0.00000000E+00  0.00000000E+00  0.00000000E+00
  0.00000000E+00  0.00000000E+00  0.00000000E+00
  0.00000000E+00  0.00000000E+00  0.00000000E+00
  0.00000000E+00  0.00000000E+00  0.00000000E+00
  0.00000000E+00  0.00000000E+00  0.00000000E+00
  0.00000000E+00  0.00000000E+00  0.00000000E+00
  0.00000000E+00  0.00000000E+00  0.00000000E+00
  0.00000000E+00  0.00000000E+00  0.00000000E+00
  0.00000000E+00  0.00000000E+00  0.00000000E+00
  0.00000000E+00  0.00000000E+00  0.00000000E+00
  0.00000000E+00  0.00000000E+00  0.00000000E+00
  0.00000000E+00  0.00000000E+00  0.00000000E+00
  0.00000000E+00  0.00000000E+00  0.00000000E+00
  0.00000000E+00  0.00000000E+00  0.00000000E+00
  0.00000000E+00  0.00000000E+00  0.00000000E+00
  0.00000000E+00  0.00000000E+00  0.00000000E+00
  0.00000000E+00  0.00000000E+00  0.00000000E+00
  0.00000000E+00  0.00000000E+00  0.00000000E+00
  0.00000000E+00  0.00000000E+00  0.00000000E+00
  0.00000000E+00  0.00000000E+00  0.00000000E+00
  0.00000000E+00  0.00000000E+00  0.00000000E+00
  0.00000000E+00  0.00000000E+00  0.00000000E+00
  0.00000000E+00  0.00000000E+00  0.00000000E+00
  0.00000000E+00  0.00000000E+00  0.00000000E+00
  0.00000000E+00  0.00000000E+00  0.00000000E+00
  0.00000000E+00  0.00000000E+00  0.00000000E+00
  0.00000000E+00  0.00000000E+00  0.00000000E+00
  0.00000000E+00  0.00000000E+00  0.00000000E+00
  0.00000000E+00  0.00000000E+00  0.00000000E+00
  0.00000000E+00  0.00000000E+00  0.00000000E+00
  0.00000000E+00  0.00000000E+00  0.00000000E+00
  0.00000000E+00  0.00000000E+00  0.00000000E+00
  0.00000000E+00  0.00000000E+00  0.00000000E+00
  0.00000000E+00  0.00000000E+00  0.00000000E+00
  0.00000000E+00  0.00000000E+00  0.00000000E+00
  0.00000000E+00  0.00000000E+00  0.00000000E+00
  0.00000000E+00  0.00000000E+00  0.00000000E+00
  0.00000000E+00  0.00000000E+00  0.00000000E+00
  0.00000000E+00  0.00000000E+00  0.00000000E+00
  0.00000000E+00  0.00000000E+00  0.00000000E+00
  0.00000000E+00  0.00000000E+00  0.00000000E+00
  0.00000000E+00  0.00000000E+00  0.00000000E+00
  0.00000000E+00  0.00000000E+00  0.00000000E+00
  0.00000000E+00  0.00000000E+00  0.00000000E+00
  0.00000000E+00  0.00000000E+00  0.00000000E+00
  0.00000000E+00  0.00000000E+00  0.00000000E+00
  0.00000000E+00  0.00000000E+00  0.00000000E+00
  0.00000000E+00  0.00000000E+00  0.00000000E+00
  0.00000000E+00  0.00000000E+00  0.00000000E+00