CuInSe2gb                               
   1.00000000000000     
     9.7266780392896699    0.0000000000000000    0.0000000000000000
     0.0000000000000000    8.4235502764570693    0.0000000000000000
     0.0000000000000000    0.0000000000000000   45.0000000000000000
   Fe   Mn
   281     7
Direct
  0.0533887172860052  0.7018813679977282  0.2114485641691902
  0.3178988147236795  0.7248421547810500  0.8762731638119071
  0.6875743860444433  0.9582145006177450  0.6111911155016431
  0.4381824424556710  0.4577033814217967  0.6112389010592781
  0.4399104442531601  0.2881913242685128  0.2554797495138241
  0.0584418624591445  0.3878972953291002  0.8335267935007085
  0.3080943066476877  0.8874203874162720  0.8334738884021339
  0.4472499224812754  0.6262059987531583  0.7001772590188382
  0.0610837488146764  0.2112105075807966  0.7447154538297892
  0.1786347908014208  0.4512948108442465  0.2112994498542501
  0.5677647414163141  0.2104915672001438  0.4774864261197586
  0.0669966642319679  0.8748082179461572  0.5666987525119116
  0.5677974647428293  0.2239495067151860  0.8760923282794478
  0.8089586525943181  0.5341849372132075  0.1242531968515302
  0.4286084960805159  0.9511745188677135  0.2113046684566705
  0.5667177451154992  0.3748184841374678  0.5668169621827541
  0.8123037569891634  0.0418840989479759  0.3886121168137594
  0.6825544485229204  0.7880633425985805  0.5221631266567609
  0.4428638740905969  0.4606230974048419  0.4774275670489623
  0.4356874397653457  0.9616513315854288  0.7445553152156699
  0.4416806685300597  0.6250742146217656  0.5667415999165054
  0.0590024720350582  0.5341115303071136  0.1242590588617542
  0.3092252280534858  0.0344617249539095  0.1242376428363096
  0.6903974080572949  0.9593697795623304  0.3441712556459922
  0.6817605001225212  0.7787677371212207  0.1241640977531823
  0.0531439380036548  0.3736728998156154  0.2998557284183811
  0.6892076559394457  0.4669875997840735  0.8759887403962456
  0.4286029744651818  0.4512727186596776  0.2113010350517828
  0.8083145798545521  0.3749813116381552  0.4331210959759013
  0.8081334292113410  0.8881075917887852  0.8334432953784344
  0.5598777372165719  0.5413516954545713  0.6555688534000959
  0.9333894611982843  0.1250398385887097  0.4330880504329958
  0.5658433062754354  0.5375412585339461  0.2554560999359727
  0.6903109486181176  0.4593404983585669  0.3441917581993403
  0.1914594877441332  0.6123600454381047  0.1668750966484317
  0.1955372195036704  0.7983103345912124  0.7886287868329585
  0.4478550067206187  0.1254774749196038  0.7000941099340996
  0.9283949688746552  0.6235252467049505  0.2997430583826421
  0.3177072101088849  0.2241278421253552  0.8761023306369508
  0.3168334595140896  0.8741132985319749  0.5667754983607599
  0.8175589105765103  0.2233423879532864  0.8762047140245915
  0.8098062231002163  0.5406555851696083  0.6558282876432953
  0.5588768099423144  0.5343204662596142  0.1242180641485963
  0.5660625974852377  0.8625566416789674  0.1666996442373392
  0.1899924157869470  0.2882277506444904  0.2554548653755714
  0.8083898366172456  0.8750428482945041  0.4331136670554659
  0.5723156909668711  0.3754601443073604  0.7001967175782388
  0.0590264311746759  0.0346100804297882  0.1242893838454000
  0.3099780356499429  0.5410621512237214  0.6557162468883879
  0.5652853653234026  0.2094214671133586  0.3441653548415038
  0.1877095429772977  0.9580929457274486  0.6113325095120858
  0.3030404566287966  0.3737239671502571  0.2998149867433360
  0.4346019374401379  0.7905900730011298  0.6557793503837600
  0.6848306255080062  0.4619062905002700  0.7446100877710776
  0.0663012172434728  0.3624044128779201  0.1667172486579978
  0.6978521578531417  0.6261376511841015  0.7004437942245727
  0.3123268716920524  0.5418592533793520  0.3886067896474679
  0.0676401507366514  0.7239003917822143  0.8761444622139665
  0.9332914060693381  0.6374899548095646  0.8335626390241153
  0.3203382906719072  0.5497053121860680  0.7886463396100435
  0.3033510290893842  0.2018410496363476  0.2114351750649411
  0.0678435798063779  0.7106871465701351  0.4774504806961480
  0.5534043088150120  0.2019651089137173  0.2114327018118015
  0.3109394370740864  0.2118912532342453  0.7444346481274052
  0.0723665356400849  0.3756117547184704  0.7003657303567925
  0.1831271387586714  0.6374256562851051  0.8333790596325696
  0.0712488978760527  0.0488078686772210  0.7887329088158026
  0.4417960161957152  0.1249901046981663  0.5667642125821641
  0.9348708098271392  0.2909348096284494  0.6557362520832327
  0.8033559826272895  0.2019106742572372  0.2114477739797547
  0.9285691732117868  0.9511092101123929  0.2113350052756543
  0.9416074466881001  0.6250283640697016  0.5669058022591587
  0.8085673435253183  0.3878337460009362  0.8334877244798538
  0.1973773568749680  0.6261895759217579  0.7001317232452937
  0.5721988666764938  0.8759124039261352  0.7004345652053018
  0.6846630440692630  0.2906832241448850  0.6557565365793120
  0.3126263478108937  0.2080376997656056  0.6113811739569278
  0.4355668222867042  0.4618269866958638  0.7444935072225142
  0.4374260685928490  0.7919511515972962  0.3886234870140205
  0.6851596936506730  0.9621236866248979  0.7445021656594660
  0.8033555588296072  0.7017817701332241  0.2114366709045765
  0.8125810640380557  0.7081396662946821  0.6111999677760070
  0.4319156850003833  0.7788458350590217  0.1241533896859880
  0.3105918995642557  0.7120950395163713  0.7444593299700457
  0.3214370193488671  0.0491452590992615  0.7886773304772536
  0.8122117238957246  0.5419081775832727  0.3885932957372937
  0.6824979268009893  0.2883433215084114  0.5222177339958247
  0.6952085533652820  0.7979174392370629  0.7886752256109536
  0.1897657716932593  0.7878920094218554  0.2555065810088216
  0.6914073092335820  0.1124430538818251  0.1668605378754129
  0.6928263356484190  0.9607347212351104  0.4774471991666652
  0.9403294455129078  0.9592972290552644  0.3441984163004355
  0.8076034102229347  0.0382294805045427  0.5222075975501866
  0.6834827981194018  0.6250012699352374  0.4330894808239111
  0.4403295751287796  0.4594075692113680  0.3441749074356565
  0.8110238956025163  0.2116750682184476  0.7446252868038589
  0.4395572034937032  0.9668878857128620  0.8759074188559623
  0.5666036734108822  0.8749014349672888  0.5668938051776501
  0.8088635267969404  0.0343753573231425  0.1243062177366004
  0.4284367684033668  0.6233929878961777  0.2997147999856289
  0.8170171196637668  0.7231814691243643  0.8761402775785253
  0.6875762339429424  0.4582253392483508  0.6112421186931813
  0.5583491445958049  0.3875495174787338  0.8331771247961003
  0.8030479235951362  0.3736950863766338  0.2997888384642509
  0.1869416776946120  0.2917811747834195  0.3885013708525564
  0.8211898013306175  0.5489779125945489  0.7888301030872940
  0.1826095916174944  0.7884463628608931  0.5223056610465246
  0.3030168689805518  0.8737402114195935  0.2998035893145722
  0.1785852593630315  0.9511608783549117  0.2112957785139635
  0.1857707780138310  0.4612578897248220  0.7446484910059303
  0.4324619132300365  0.2881920597282938  0.5221787176426818
  0.0652798433489236  0.7094007568813514  0.3441804599274793
  0.1847627867107120  0.7906506619045209  0.6557934244252566
  0.4461420619177079  0.7980397337534954  0.7886625206617154
  0.6834279174168995  0.1250213129426115  0.4330706477378427
  0.9324602599497919  0.7883873852217557  0.5223293043013538
  0.6915068084170519  0.6124210352520202  0.1668720812187132
  0.8152789018133306  0.7093760711327239  0.3441743108273597
  0.9350629729629860  0.4617551065523953  0.7445246114038233
  0.1903489097669306  0.4593515161361450  0.3441877320569592
  0.5696561344885490  0.5491345363982695  0.7888396786790495
  0.5663439455537955  0.3626133617933830  0.1666946044155391
  0.5652958605321404  0.7093551638338916  0.3441905504034745
  0.5530685661476146  0.3736750746178839  0.2998214762910685
  0.1891708528492170  0.4668792010752037  0.8758792014212794
  0.1914314059161358  0.1124506901872704  0.1668867988721291
  0.4449631098702791  0.2984774607085428  0.7887187642071819
  0.6900419690127213  0.7882042014005496  0.2554450064356326
  0.9335810944253681  0.1376491478621709  0.8335086986516150
  0.4428742088521637  0.9607920052673246  0.4774486505524401
  0.5671390534737050  0.7232403110268738  0.8760976015933445
  0.1928594520069161  0.4608262697985712  0.4774624587590525
  0.9315653765837587  0.2787308370065295  0.1242062269977459
  0.3121669472300096  0.0418963117662864  0.3886058600427720
  0.0597285913795533  0.0405903149823960  0.6558396481592191
  0.5583583952901476  0.3749695117641134  0.4331034146052033
  0.9333826116690471  0.6250868946769371  0.4330817608537816
  0.3163050539408407  0.3625495553309662  0.1667288500878591
  0.9468020842377406  0.1259303579275606  0.7000989667591156
  0.5600060963740346  0.0414130161761301  0.6555728105387341
  0.5573012235767850  0.5383112201977356  0.5223373245878468
  0.1784731787065441  0.1234452223690484  0.2997224675419567
  0.4414434140932021  0.1123841278310741  0.1668515003077512
  0.6784198834886557  0.6235304369779344  0.2997552842776395
  0.9284279037351578  0.1233809351587331  0.2996883039608623
  0.8167860101043352  0.3743232160927374  0.5667666102610144
  0.0531562378637935  0.8736855693446341  0.2998488545559014
  0.1915222119497799  0.6250302232554081  0.5668582046925663
  0.9450590670461037  0.7977918704240909  0.7887866184577511
  0.3078140337776022  0.3870915647832005  0.8334831105299261
  0.9383162222485566  0.4666267039766003  0.8759490297713368
  0.4335953784620927  0.6375622629922719  0.8334994932304869
  0.0653756006790067  0.2093701112211263  0.3441811625431356
  0.1889757059109982  0.9656687535140062  0.8760618644320359
  0.9318740924660790  0.7788000187001652  0.1241932134805013
  0.6872150208256478  0.7918150780163369  0.3885522633153230
  0.9347028965486476  0.7907005420494647  0.6557966072865120
  0.9414918437370208  0.1125035903653242  0.1668420470200189
  0.4347476767275891  0.2906199752690691  0.6558625329616860
  0.0534992285550380  0.2019382449972237  0.2114448417334297
  0.6786546580193397  0.9511465146540060  0.2112987681869450
  0.1784368309344893  0.6235624140402605  0.2997667508534629
  0.8228014572154378  0.8757704755275340  0.7001750488260400
  0.9470518555647566  0.6260576206428150  0.7001841110697808
  0.1975418297732052  0.1258713298457023  0.7001619791282133
  0.9427775891142092  0.4608922115167706  0.4774641435584501
  0.8129191534829405  0.2076261672756911  0.6112891412440442
  0.1834474901231244  0.6250196265582624  0.4331285724770640
  0.4282692200653723  0.1236408666441102  0.2997697114459441
  0.6784666903107488  0.1234887951297969  0.2997485027492979
  0.5621556726522544  0.5418416400784127  0.3886148023747458
  0.8153791951757068  0.2094202689065210  0.3441794374840451
  0.4396580428680910  0.4667516417613922  0.8759704716999123
  0.5582177701113932  0.8881569830902464  0.8332614319185023
  0.3178460604424135  0.2107466242929747  0.4774348277244695
  0.1928570592374033  0.9608514759097913  0.4774685857569694
  0.0585874954307314  0.8876773949682598  0.8333877950880586
  0.0573924959735730  0.5381443484313885  0.5223693043036540
  0.9426921462201330  0.9608638289838572  0.4774719532787180
  0.0628736620867619  0.7079263980549609  0.6112506868982716
  0.5573309036363946  0.0382449249917857  0.5223297800114853
  0.6961785680045222  0.2985641159457947  0.7886690651041438
  0.8162798288685617  0.3626739317782560  0.1667548957657775
  0.4334317641693525  0.1250227826803635  0.4330946061375760
  0.0678248261856308  0.2106692868036128  0.4774603854428151
  0.3097471519729633  0.0407741000373605  0.6557397761499152
  0.4324420311708200  0.7880981524855929  0.5221421309485494
  0.1835758470468372  0.1380841867193006  0.8335204136412669
  0.1814490289177045  0.2786697253359871  0.1241588734221345
  0.9403386227799964  0.4592758221077769  0.3441805404576467
  0.3163027568331627  0.8627034680267710  0.1666928622291916
  0.3032952372479448  0.7019810196481117  0.2114490011050540
  0.9414318848442716  0.6124758119530146  0.1668701548808005
  0.1876798225451906  0.4582524938526528  0.6112522502177981
  0.0723547588051473  0.8760973141658597  0.6999592912201904
  0.0597572189021217  0.5406069654028486  0.6558102474677124
  0.3088566663748034  0.5342401489066058  0.1242395647612024
  0.9373081687269275  0.7917945494971774  0.3885637828189711
  0.9462963125687243  0.2978564939263555  0.7885597485807773
  0.1849094190686324  0.2911019142443629  0.6557082725246218
  0.9377012210858505  0.9582647727687625  0.6112717446138746
  0.8113515807808516  0.7113317916318594  0.7445807050388749
  0.6898110863993406  0.2881289446546519  0.2554572455522600
  0.0612247032641813  0.7112179018107749  0.7447341698924260
  0.6786818900584664  0.4512262356565994  0.2113171096601248
  0.8179248801445312  0.2106169292789100  0.4774410720887050
  0.5679349308189504  0.7105591134901234  0.4775030119541150
  0.0662976911523908  0.8625266752484430  0.1666783409794932
  0.9322972188761242  0.2885781679916917  0.5222591349635867
  0.6846638141593510  0.7907073152814270  0.6558013470076820
  0.0584396679654350  0.8749191406211164  0.4330997050992159
  0.0672388437007957  0.2231280331852710  0.8761340107152819
  0.8102600638108948  0.0414019080602098  0.6558830527403311
  0.5590803236314694  0.0344775604898273  0.1242458696123340
  0.3083894285734923  0.3749822118041576  0.4331112473767352
  0.3167775988234289  0.3744410077408689  0.5667611827963415
  0.3178931128965293  0.7107222621014947  0.4774320150129478
  0.0572861901269570  0.0381784226099229  0.5223270561872160
  0.3220428920399276  0.8753294304099083  0.7000579572955320
  0.0659075105411419  0.5376222623977378  0.2554638738518453
  0.6829350107735591  0.1370170159934144  0.8333702504186629
  0.8158809258607654  0.0375275185384516  0.2554549284971069
  0.1834143205244063  0.1250691420987958  0.4331090842486374
  0.6983853232036347  0.1263649404123309  0.7001701554455880
  0.1826211904514435  0.2884154982409485  0.5223010381180294
  0.4399500104461458  0.7881795565335427  0.2554459481786824
  0.8158200867007491  0.5375341975397786  0.2554589006544652
  0.0627788488145068  0.2079876336375447  0.6112274834726327
  0.1869981667863302  0.7919010884973035  0.3885141588044674
  0.3072426021687709  0.5383325953063089  0.5223522599594030
  0.8160413427804969  0.8625632475979805  0.1666858574506163
  0.6872023732016468  0.2918811290181875  0.3885834447874075
  0.1914682617306929  0.1250834597556537  0.5668782171452588
  0.6893358684525045  0.9675912417335840  0.8759099280006832
  0.6920123552843463  0.1251970927602337  0.5666997311216500
  0.4403229594905089  0.9592583665892640  0.3441994704176833
  0.1853145248864178  0.9624827182692973  0.7446601592574450
  0.9398478548910090  0.7879692850352361  0.2555062295363192
  0.5584660442080394  0.8749697728589426  0.4330835006585251
  0.3083982230648158  0.8751096008377601  0.4331098901060974
  0.8075464656139145  0.5381927918733614  0.5221950847384439
  0.9287007694954903  0.4512459134484386  0.2113287928340037
  0.3158909493981561  0.5375998419161201  0.2554435378135069
  0.5623029546493027  0.0418641325036728  0.3885871627912414
  0.9375932421204344  0.4581079912484555  0.6112938116159689
  0.0621848800242895  0.0418214972396302  0.3886176248335612
  0.0622093064047516  0.5417975873866829  0.3885671204124304
  0.4372563458077072  0.2919357480572142  0.3886073239514510
  0.6929397415611335  0.4606900338282569  0.4774484794956902
  0.0670060828607290  0.3743714603210243  0.5667445768923514
  0.5534189389955531  0.7019741111658125  0.2114301283095351
  0.9399403937956338  0.2882416973160935  0.2554442970107096
  0.8200933865186991  0.0494743164201843  0.7888883518756568
  0.1903978176019606  0.9592228299335898  0.3441881257148720
  0.5531433945818515  0.8737540374313860  0.2998182943491743
  0.0584567057333951  0.3749720245766656  0.4330860284299382
  0.3153895164709765  0.7094248561429041  0.3441722352593788
  0.3153441443153248  0.2094182740354274  0.3441806248795161
  0.9416913504815473  0.1250446622551149  0.5668886832791533
  0.4381587712736618  0.9577537529280185  0.6112238594066545
  0.5658334244002791  0.0374975396579013  0.2554290673156679
  0.1815725773627749  0.7787612344308467  0.1241625385549228
  0.0658473622208752  0.0374944713269512  0.2554619225074025
  0.6917782281119220  0.6250601416851803  0.5667570161563351
  0.4414037740177989  0.6125027047717416  0.1668474234891972
  0.3071648640380983  0.0383717785058340  0.5222246351902791
  0.6813113269665017  0.2787298660593729  0.1241822656882616
  0.8178790011763553  0.7107515335962186  0.4774533366418584
  0.4337188098305782  0.1376845288992442  0.8336141043565681
  0.3224526882349715  0.3753136721164532  0.7000668726809592
  0.6834555605743309  0.6371977401732328  0.8335061245038239
  0.5609675388532281  0.7126535665370879  0.7445125691320795
  0.9373800986037870  0.2918684976275285  0.3885993819707035
  0.9391294088243116  0.9662735183029736  0.8759668132994389
  0.9351556137531000  0.9615874131369175  0.7445686654011794
  0.8166935963958292  0.8741548166817152  0.5668098341386589
  0.8031293394262063  0.8737350713725920  0.2998266272642392
  0.3157928611664706  0.0375281242155897  0.2554561528902445
  0.4315354559492923  0.2789754694044345  0.1241649411268446
  0.3126449838513284  0.7079613128549128  0.6114110868880810
  0.4333976269549534  0.6249423520308569  0.4330899716575755
  0.1968852276295576  0.2967245315132435  0.7885314465741262
  0.5709692875396934  0.0496712301343010  0.7888024168056009
  0.0710102650393054  0.5501074137405532  0.7887876007304110
  0.8224832920262934  0.3764818825447594  0.7001549107410330
  0.5614806251499928  0.2124574031711540  0.7444106705933775
  0.5626354238627245  0.2065002741621125  0.6112396615635124
  0.5636836334090317  0.7068426553261592  0.6113931415905318
 
  0.00000000E+00  0.00000000E+00  0.00000000E+00
  0.00000000E+00  0.00000000E+00  0.00000000E+00
  0.00000000E+00  0.00000000E+00  0.00000000E+00
  0.00000000E+00  0.00000000E+00  0.00000000E+00
  0.00000000E+00  0.00000000E+00  0.00000000E+00
  0.00000000E+00  0.00000000E+00  0.00000000E+00
  0.00000000E+00  0.00000000E+00  0.00000000E+00
  0.00000000E+00  0.00000000E+00  0.00000000E+00
  0.00000000E+00  0.00000000E+00  0.00000000E+00
  0.00000000E+00  0.00000000E+00  0.00000000E+00
  0.00000000E+00  0.00000000E+00  0.00000000E+00
  0.00000000E+00  0.00000000E+00  0.00000000E+00
  0.00000000E+00  0.00000000E+00  0.00000000E+00
  0.00000000E+00  0.00000000E+00  0.00000000E+00
  0.00000000E+00  0.00000000E+00  0.00000000E+00
  0.00000000E+00  0.00000000E+00  0.00000000E+00
  0.00000000E+00  0.00000000E+00  0.00000000E+00
  0.00000000E+00  0.00000000E+00  0.00000000E+00
  0.00000000E+00  0.00000000E+00  0.00000000E+00
  0.00000000E+00  0.00000000E+00  0.00000000E+00
  0.00000000E+00  0.00000000E+00  0.00000000E+00
  0.00000000E+00  0.00000000E+00  0.00000000E+00
  0.00000000E+00  0.00000000E+00  0.00000000E+00
  0.00000000E+00  0.00000000E+00  0.00000000E+00
  0.00000000E+00  0.00000000E+00  0.00000000E+00
  0.00000000E+00  0.00000000E+00  0.00000000E+00
  0.00000000E+00  0.00000000E+00  0.00000000E+00
  0.00000000E+00  0.00000000E+00  0.00000000E+00
  0.00000000E+00  0.00000000E+00  0.00000000E+00
  0.00000000E+00  0.00000000E+00  0.00000000E+00
  0.00000000E+00  0.00000000E+00  0.00000000E+00
  0.00000000E+00  0.00000000E+00  0.00000000E+00
  0.00000000E+00  0.00000000E+00  0.00000000E+00
  0.00000000E+00  0.00000000E+00  0.00000000E+00
  0.00000000E+00  0.00000000E+00  0.00000000E+00
  0.00000000E+00  0.00000000E+00  0.00000000E+00
  0.00000000E+00  0.00000000E+00  0.00000000E+00
  0.00000000E+00  0.00000000E+00  0.00000000E+00
  0.00000000E+00  0.00000000E+00  0.00000000E+00
  0.00000000E+00  0.00000000E+00  0.00000000E+00
  0.00000000E+00  0.00000000E+00  0.00000000E+00
  0.00000000E+00  0.00000000E+00  0.00000000E+00
  0.00000000E+00  0.00000000E+00  0.00000000E+00
  0.00000000E+00  0.00000000E+00  0.00000000E+00
  0.00000000E+00  0.00000000E+00  0.00000000E+00
  0.00000000E+00  0.00000000E+00  0.00000000E+00
  0.00000000E+00  0.00000000E+00  0.00000000E+00
  0.00000000E+00  0.00000000E+00  0.00000000E+00
  0.00000000E+00  0.00000000E+00  0.00000000E+00
  0.00000000E+00  0.00000000E+00  0.00000000E+00
  0.00000000E+00  0.00000000E+00  0.00000000E+00
  0.00000000E+00  0.00000000E+00  0.00000000E+00
  0.00000000E+00  0.00000000E+00  0.00000000E+00
  0.00000000E+00  0.00000000E+00  0.00000000E+00
  0.00000000E+00  0.00000000E+00  0.00000000E+00
  0.00000000E+00  0.00000000E+00  0.00000000E+00
  0.00000000E+00  0.00000000E+00  0.00000000E+00
  0.00000000E+00  0.00000000E+00  0.00000000E+00
  0.00000000E+00  0.00000000E+00  0.00000000E+00
  0.00000000E+00  0.00000000E+00  0.00000000E+00
  0.00000000E+00  0.00000000E+00  0.00000000E+00
  0.00000000E+00  0.00000000E+00  0.00000000E+00
  0.00000000E+00  0.00000000E+00  0.00000000E+00
  0.00000000E+00  0.00000000E+00  0.00000000E+00
  0.00000000E+00  0.00000000E+00  0.00000000E+00
  0.00000000E+00  0.00000000E+00  0.00000000E+00
  0.00000000E+00  0.00000000E+00  0.00000000E+00
  0.00000000E+00  0.00000000E+00  0.00000000E+00
  0.00000000E+00  0.00000000E+00  0.00000000E+00
  0.00000000E+00  0.00000000E+00  0.00000000E+00
  0.00000000E+00  0.00000000E+00  0.00000000E+00
  0.00000000E+00  0.00000000E+00  0.00000000E+00
  0.00000000E+00  0.00000000E+00  0.00000000E+00
  0.00000000E+00  0.00000000E+00  0.00000000E+00
  0.00000000E+00  0.00000000E+00  0.00000000E+00
  0.00000000E+00  0.00000000E+00  0.00000000E+00
  0.00000000E+00  0.00000000E+00  0.00000000E+00
  0.00000000E+00  0.00000000E+00  0.00000000E+00
  0.00000000E+00  0.00000000E+00  0.00000000E+00
  0.00000000E+00  0.00000000E+00  0.00000000E+00
  0.00000000E+00  0.00000000E+00  0.00000000E+00
  0.00000000E+00  0.00000000E+00  0.00000000E+00
  0.00000000E+00  0.00000000E+00  0.00000000E+00
  0.00000000E+00  0.00000000E+00  0.00000000E+00
  0.00000000E+00  0.00000000E+00  0.00000000E+00
  0.00000000E+00  0.00000000E+00  0.00000000E+00
  0.00000000E+00  0.00000000E+00  0.00000000E+00
  0.00000000E+00  0.00000000E+00  0.00000000E+00
  0.00000000E+00  0.00000000E+00  0.00000000E+00
  0.00000000E+00  0.00000000E+00  0.00000000E+00
  0.00000000E+00  0.00000000E+00  0.00000000E+00
  0.00000000E+00  0.00000000E+00  0.00000000E+00
  0.00000000E+00  0.00000000E+00  0.00000000E+00
  0.00000000E+00  0.00000000E+00  0.00000000E+00
  0.00000000E+00  0.00000000E+00  0.00000000E+00
  0.00000000E+00  0.00000000E+00  0.00000000E+00
  0.00000000E+00  0.00000000E+00  0.00000000E+00
  0.00000000E+00  0.00000000E+00  0.00000000E+00
  0.00000000E+00  0.00000000E+00  0.00000000E+00
  0.00000000E+00  0.00000000E+00  0.00000000E+00
  0.00000000E+00  0.00000000E+00  0.00000000E+00
  0.00000000E+00  0.00000000E+00  0.00000000E+00
  0.00000000E+00  0.00000000E+00  0.00000000E+00
  0.00000000E+00  0.00000000E+00  0.00000000E+00
  0.00000000E+00  0.00000000E+00  0.00000000E+00
  0.00000000E+00  0.00000000E+00  0.00000000E+00
  0.00000000E+00  0.00000000E+00  0.00000000E+00
  0.00000000E+00  0.00000000E+00  0.00000000E+00
  0.00000000E+00  0.00000000E+00  0.00000000E+00
  0.00000000E+00  0.00000000E+00  0.00000000E+00
  0.00000000E+00  0.00000000E+00  0.00000000E+00
  0.00000000E+00  0.00000000E+00  0.00000000E+00
  0.00000000E+00  0.00000000E+00  0.00000000E+00
  0.00000000E+00  0.00000000E+00  0.00000000E+00
  0.00000000E+00  0.00000000E+00  0.00000000E+00
  0.00000000E+00  0.00000000E+00  0.00000000E+00
  0.00000000E+00  0.00000000E+00  0.00000000E+00
  0.00000000E+00  0.00000000E+00  0.00000000E+00
  0.00000000E+00  0.00000000E+00  0.00000000E+00
  0.00000000E+00  0.00000000E+00  0.00000000E+00
  0.00000000E+00  0.00000000E+00  0.00000000E+00
  0.00000000E+00  0.00000000E+00  0.00000000E+00
  0.00000000E+00  0.00000000E+00  0.00000000E+00
  0.00000000E+00  0.00000000E+00  0.00000000E+00
  0.00000000E+00  0.00000000E+00  0.00000000E+00
  0.00000000E+00  0.00000000E+00  0.00000000E+00
  0.00000000E+00  0.00000000E+00  0.00000000E+00
  0.00000000E+00  0.00000000E+00  0.00000000E+00
  0.00000000E+00  0.00000000E+00  0.00000000E+00
  0.00000000E+00  0.00000000E+00  0.00000000E+00
  0.00000000E+00  0.00000000E+00  0.00000000E+00
  0.00000000E+00  0.00000000E+00  0.00000000E+00
  0.00000000E+00  0.00000000E+00  0.00000000E+00
  0.00000000E+00  0.00000000E+00  0.00000000E+00
  0.00000000E+00  0.00000000E+00  0.00000000E+00
  0.00000000E+00  0.00000000E+00  0.00000000E+00
  0.00000000E+00  0.00000000E+00  0.00000000E+00
  0.00000000E+00  0.00000000E+00  0.00000000E+00
  0.00000000E+00  0.00000000E+00  0.00000000E+00
  0.00000000E+00  0.00000000E+00  0.00000000E+00
  0.00000000E+00  0.00000000E+00  0.00000000E+00
  0.00000000E+00  0.00000000E+00  0.00000000E+00
  0.00000000E+00  0.00000000E+00  0.00000000E+00
  0.00000000E+00  0.00000000E+00  0.00000000E+00
  0.00000000E+00  0.00000000E+00  0.00000000E+00
  0.00000000E+00  0.00000000E+00  0.00000000E+00
  0.00000000E+00  0.00000000E+00  0.00000000E+00
  0.00000000E+00  0.00000000E+00  0.00000000E+00
  0.00000000E+00  0.00000000E+00  0.00000000E+00
  0.00000000E+00  0.00000000E+00  0.00000000E+00
  0.00000000E+00  0.00000000E+00  0.00000000E+00
  0.00000000E+00  0.00000000E+00  0.00000000E+00
  0.00000000E+00  0.00000000E+00  0.00000000E+00
  0.00000000E+00  0.00000000E+00  0.00000000E+00
  0.00000000E+00  0.00000000E+00  0.00000000E+00
  0.00000000E+00  0.00000000E+00  0.00000000E+00
  0.00000000E+00  0.00000000E+00  0.00000000E+00
  0.00000000E+00  0.00000000E+00  0.00000000E+00
  0.00000000E+00  0.00000000E+00  0.00000000E+00
  0.00000000E+00  0.00000000E+00  0.00000000E+00
  0.00000000E+00  0.00000000E+00  0.00000000E+00
  0.00000000E+00  0.00000000E+00  0.00000000E+00
  0.00000000E+00  0.00000000E+00  0.00000000E+00
  0.00000000E+00  0.00000000E+00  0.00000000E+00
  0.00000000E+00  0.00000000E+00  0.00000000E+00
  0.00000000E+00  0.00000000E+00  0.00000000E+00
  0.00000000E+00  0.00000000E+00  0.00000000E+00
  0.00000000E+00  0.00000000E+00  0.00000000E+00
  0.00000000E+00  0.00000000E+00  0.00000000E+00
  0.00000000E+00  0.00000000E+00  0.00000000E+00
  0.00000000E+00  0.00000000E+00  0.00000000E+00
  0.00000000E+00  0.00000000E+00  0.00000000E+00
  0.00000000E+00  0.00000000E+00  0.00000000E+00
  0.00000000E+00  0.00000000E+00  0.00000000E+00
  0.00000000E+00  0.00000000E+00  0.00000000E+00
  0.00000000E+00  0.00000000E+00  0.00000000E+00
  0.00000000E+00  0.00000000E+00  0.00000000E+00
  0.00000000E+00  0.00000000E+00  0.00000000E+00
  0.00000000E+00  0.00000000E+00  0.00000000E+00
  0.00000000E+00  0.00000000E+00  0.00000000E+00
  0.00000000E+00  0.00000000E+00  0.00000000E+00
  0.00000000E+00  0.00000000E+00  0.00000000E+00
  0.00000000E+00  0.00000000E+00  0.00000000E+00
  0.00000000E+00  0.00000000E+00  0.00000000E+00
  0.00000000E+00  0.00000000E+00  0.00000000E+00
  0.00000000E+00  0.00000000E+00  0.00000000E+00
  0.00000000E+00  0.00000000E+00  0.00000000E+00
  0.00000000E+00  0.00000000E+00  0.00000000E+00
  0.00000000E+00  0.00000000E+00  0.00000000E+00
  0.00000000E+00  0.00000000E+00  0.00000000E+00
  0.00000000E+00  0.00000000E+00  0.00000000E+00
  0.00000000E+00  0.00000000E+00  0.00000000E+00
  0.00000000E+00  0.00000000E+00  0.00000000E+00
  0.00000000E+00  0.00000000E+00  0.00000000E+00
  0.00000000E+00  0.00000000E+00  0.00000000E+00
  0.00000000E+00  0.00000000E+00  0.00000000E+00
  0.00000000E+00  0.00000000E+00  0.00000000E+00
  0.00000000E+00  0.00000000E+00  0.00000000E+00
  0.00000000E+00  0.00000000E+00  0.00000000E+00
  0.00000000E+00  0.00000000E+00  0.00000000E+00
  0.00000000E+00  0.00000000E+00  0.00000000E+00
  0.00000000E+00  0.00000000E+00  0.00000000E+00
  0.00000000E+00  0.00000000E+00  0.00000000E+00
  0.00000000E+00  0.00000000E+00  0.00000000E+00
  0.00000000E+00  0.00000000E+00  0.00000000E+00
  0.00000000E+00  0.00000000E+00  0.00000000E+00
  0.00000000E+00  0.00000000E+00  0.00000000E+00
  0.00000000E+00  0.00000000E+00  0.00000000E+00
  0.00000000E+00  0.00000000E+00  0.00000000E+00
  0.00000000E+00  0.00000000E+00  0.00000000E+00
  0.00000000E+00  0.00000000E+00  0.00000000E+00
  0.00000000E+00  0.00000000E+00  0.00000000E+00
  0.00000000E+00  0.00000000E+00  0.00000000E+00
  0.00000000E+00  0.00000000E+00  0.00000000E+00
  0.00000000E+00  0.00000000E+00  0.00000000E+00
  0.00000000E+00  0.00000000E+00  0.00000000E+00
  0.00000000E+00  0.00000000E+00  0.00000000E+00
  0.00000000E+00  0.00000000E+00  0.00000000E+00
  0.00000000E+00  0.00000000E+00  0.00000000E+00
  0.00000000E+00  0.00000000E+00  0.00000000E+00
  0.00000000E+00  0.00000000E+00  0.00000000E+00
  0.00000000E+00  0.00000000E+00  0.00000000E+00
  0.00000000E+00  0.00000000E+00  0.00000000E+00
  0.00000000E+00  0.00000000E+00  0.00000000E+00
  0.00000000E+00  0.00000000E+00  0.00000000E+00
  0.00000000E+00  0.00000000E+00  0.00000000E+00
  0.00000000E+00  0.00000000E+00  0.00000000E+00
  0.00000000E+00  0.00000000E+00  0.00000000E+00
  0.00000000E+00  0.00000000E+00  0.00000000E+00
  0.00000000E+00  0.00000000E+00  0.00000000E+00
  0.00000000E+00  0.00000000E+00  0.00000000E+00
  0.00000000E+00  0.00000000E+00  0.00000000E+00
  0.00000000E+00  0.00000000E+00  0.00000000E+00
  0.00000000E+00  0.00000000E+00  0.00000000E+00
  0.00000000E+00  0.00000000E+00  0.00000000E+00
  0.00000000E+00  0.00000000E+00  0.00000000E+00
  0.00000000E+00  0.00000000E+00  0.00000000E+00
  0.00000000E+00  0.00000000E+00  0.00000000E+00
  0.00000000E+00  0.00000000E+00  0.00000000E+00
  0.00000000E+00  0.00000000E+00  0.00000000E+00
  0.00000000E+00  0.00000000E+00  0.00000000E+00
  0.00000000E+00  0.00000000E+00  0.00000000E+00
  0.00000000E+00  0.00000000E+00  0.00000000E+00
  0.00000000E+00  0.00000000E+00  0.00000000E+00
  0.00000000E+00  0.00000000E+00  0.00000000E+00
  0.00000000E+00  0.00000000E+00  0.00000000E+00
  0.00000000E+00  0.00000000E+00  0.00000000E+00