CuInSe2gb                               
   1.00000000000000     
     9.7266780392896699    0.0000000000000000    0.0000000000000000
     0.0000000000000000    8.4235502764570693    0.0000000000000000
     0.0000000000000000    0.0000000000000000   45.0000000000000000
   Fe   Mn
   281     7
Direct
  0.0580911701838279  0.7009867514280982  0.2111725273644968
  0.3159038630831347  0.7203400125087848  0.8757550199715717
  0.6884479035841631  0.9579935444823811  0.6114037014672388
  0.4382970530911036  0.4580503012240797  0.6114155295103755
  0.4365868583633468  0.2870570886181842  0.2555405371902096
  0.0609177629526493  0.3867887794210255  0.8341511427120318
  0.3111349795388658  0.8866931036162955  0.8342441927480660
  0.4423372053892335  0.6265272298054926  0.7003480747162135
  0.0636307586688683  0.2134476225450454  0.7444999986296738
  0.1825779652440902  0.4516526556507139  0.2113137601249544
  0.5638349049494540  0.2091076070900974  0.4778034719295133
  0.0641173868635748  0.8746231640256984  0.5668535711732977
  0.5656203075189274  0.2198918761293200  0.8756974436264133
  0.8099998529176271  0.5304794893409630  0.1245401407270594
  0.4332765172982185  0.9515160849603946  0.2111913000622081
  0.5640767821571402  0.3745218418248160  0.5666974768360020
  0.8117541266292809  0.0420293044984196  0.3883898249069603
  0.6860974700824616  0.7909490706654669  0.5221025003161193
  0.4388576531391755  0.4590667095957804  0.4777881611642983
  0.4378746101205679  0.9625359009505214  0.7444942419279145
  0.4390912080578338  0.6249627985167240  0.5667359061011830
  0.5673502347824098  0.8762375229028295  0.7003307395270031
  0.3106830993263342  0.0311196061471659  0.1241395201458413
  0.6865330641484437  0.9579636979566742  0.3440325891297004
  0.6877851128930801  0.7797974458963525  0.1246841350142401
  0.0576538616655692  0.3732956079828992  0.2996432039140626
  0.6889532117044661  0.4713287437353206  0.8754972683748959
  0.4330848517612787  0.4514745522120366  0.2111728820468260
  0.8108101257425742  0.3755916425012578  0.4330004534913818
  0.5632287039358642  0.7080214746705089  0.6114994843156187
  0.5632113472208667  0.5413791925690298  0.6557965488623615
  0.8145264430685129  0.8636809549667662  0.1660885759461654
  0.5614453938693378  0.5370746987500249  0.2554991806340580
  0.6865242154910580  0.4579732065565522  0.3440383994888930
  0.1883999208788351  0.6127226505790888  0.1662356065258136
  0.1916504016321973  0.7991709841782021  0.7887646438301568
  0.4424119952243996  0.1261214660527713  0.7004550255785249
  0.9325154728827473  0.6231723425761549  0.2996678172169520
  0.3154600328221567  0.2199875584228516  0.8756914606382510
  0.3138321011227773  0.8748317491939318  0.5667807200961580
  0.8153766353526963  0.2200443423831892  0.8756918473233315
  0.8127272555979802  0.5417446034415855  0.6557834931002053
  0.5601407404339130  0.5295269660248741  0.1244656410144748
  0.5669637746614654  0.0496728374326987  0.7889942332824138
  0.1868036502919773  0.2873558588549037  0.2554972543709327
  0.8107612733851596  0.8755100390103427  0.4330112853942479
  0.5673694200829321  0.3766257792756962  0.7004859441413647
  0.0610921088907528  0.0293680094754983  0.1245071297379163
  0.3128164676938072  0.5416468751500922  0.6557398920740695
  0.5617057399235641  0.2080791114287354  0.3441743027952058
  0.1884329581345984  0.9580763790615605  0.6114618208194033
  0.3076585307758403  0.3735759300062317  0.2996530995222085
  0.4379254180105136  0.7918220210736934  0.6558195270755587
  0.1916806865294816  0.2984693884971734  0.7889227327680944
  0.0639018655502718  0.3637556624061235  0.1660821178686804
  0.6920239432992001  0.6266068897453594  0.7003883359274375
  0.3114658115131036  0.5416743962855383  0.3884054175216055
  0.0653108350521785  0.7199272284887767  0.8759054118520406
  0.9362089724625067  0.6367078938191082  0.8343111305343429
  0.3172359043604220  0.5496515092728113  0.7890008428385072
  0.3075054690762863  0.2003697778644141  0.2111409271081027
  0.0639356873961258  0.7089856364888302  0.4778930060643485
  0.5574588334811569  0.2009041706438190  0.2111425179915879
  0.3137568248033389  0.2134113193273321  0.7444374719007874
  0.0671029567743700  0.3769021862127202  0.7004205539154018
  0.1862501015987069  0.6366700214250537  0.8340286802155512
  0.0667490864633627  0.0491656660692422  0.7889457172095850
  0.4391639363013782  0.1248699801466520  0.5667778277116898
  0.9380706848034157  0.2918227005708317  0.6556741074740576
  0.8075753138983858  0.2010788105057084  0.2111485786436456
  0.9328153309467602  0.9513802589101787  0.2113704115856361
  0.9391841642415364  0.6248822650358903  0.5667816399259245
  0.8109807341771988  0.3866165044889028  0.8342052050235831
  0.1920714311734962  0.6268359164552719  0.7003842587728505
  0.8111258647237638  0.8864691409857675  0.8343008474103473
  0.6884635246192451  0.2916107203314238  0.6557867593790383
  0.3135454006772977  0.2080880278922339  0.6114683393286698
  0.4382031608923764  0.4625679690722575  0.7444642819852535
  0.4365253122778490  0.7917145489282540  0.3884326000948144
  0.6876399576729352  0.9625634066336587  0.7445412470457701
  0.8074501310871289  0.7011121384672790  0.2111524951852661
  0.8131195903959012  0.7079693437395218  0.6114077858675689
  0.4372083088449660  0.7793663967996832  0.1243175653609847
  0.3129499947621874  0.7127328402591929  0.7444207962901855
  0.3171161255773410  0.0496210768628950  0.7890311828253438
  0.8116195534089992  0.5418313751728848  0.3884166635409900
  0.6860830651479389  0.2910856027407955  0.5221220259664547
  0.6919119195218157  0.7994097118238538  0.7889144336872262
  0.1868865334855878  0.7873740202690446  0.2555273118037494
  0.6890292123397179  0.1134327529695424  0.1661598912047939
  0.6887421053608311  0.9591781551385311  0.4778891873666173
  0.9366101532866390  0.9586782417429708  0.3440998759540720
  0.8110064062693341  0.0403657457884776  0.5221238837067863
  0.6850185961568775  0.6249948091286404  0.4330521188961315
  0.4368327573271126  0.4584897045192634  0.3441529183825099
  0.8132159184697978  0.2136054122381975  0.7444720120255959
  0.4390534450931400  0.9715647076766755  0.8755243552969867
  0.5640965984481139  0.8745860332891865  0.5667562941174158
  0.8104119505054080  0.0303551720469496  0.1245527959317604
  0.4327064689852446  0.6233022479996385  0.2996907382110802
  0.8151593801965736  0.7204095364427494  0.8758433276918132
  0.6881115119082347  0.4579241733911144  0.6114407159005272
  0.5611579120756154  0.3868723750742223  0.8340924060664214
  0.8075442636091594  0.3734565742505641  0.2996216451712211
  0.1864144013854772  0.2916094236875051  0.3884107093513378
  0.8165498928584249  0.5494119013115292  0.7890753687314243
  0.1860982825189479  0.7905897582538300  0.5221639932620818
  0.3076756086705026  0.8736020372068568  0.2996553545793056
  0.1824864257514967  0.9515129765133260  0.2113083753670378
  0.1885036307746784  0.4631084283573436  0.7445020895942513
  0.4360527379338580  0.2908356935200382  0.5220555018567967
  0.0617537151706153  0.7084393600604064  0.3441709165467305
  0.1878420558529562  0.7914633325541934  0.6557146513917734
  0.4416909297683720  0.7994671980225226  0.7887881014496279
  0.6850200074091187  0.1251082055314078  0.4330557182301303
  0.9361288503893104  0.7904503585272156  0.5221715714252607
  0.6888319041942079  0.6132804523266113  0.1661373423911422
  0.8117894182731594  0.7084982347562950  0.3442109426484235
  0.9382916236291854  0.4626161388863989  0.7444347892448268
  0.1868900202093285  0.4581830968308735  0.3441333768568025
  0.5672703240925967  0.5492128511852669  0.7889937277595049
  0.5653436583362257  0.3639127422270422  0.1658621149533237
  0.5616961250629249  0.7081371724662692  0.3441567526147002
  0.5577644663792651  0.3733860663625527  0.2996687959242655
  0.1888935572160031  0.4713103883898089  0.8756004049582584
  0.1884782723259157  0.1127711359790693  0.1662019000954410
  0.4417658039387693  0.2987667497706576  0.7888619844132634
  0.6865827597764510  0.7871591994527840  0.2554504281621764
  0.9367579983577984  0.1367140964450114  0.8341329850924422
  0.4387547905269072  0.9591957141063089  0.4777631692825128
  0.5653940755717115  0.7201103159302646  0.8757222159169130
  0.1887292709800695  0.4590831970407905  0.4778129206538328
  0.9363656354432304  0.2796587672242281  0.1246285442814512
  0.3113987584596848  0.0416681158382170  0.3884102101045973
  0.0630714122644364  0.0409156795973896  0.6557272025218812
  0.5611569392234989  0.3753130290580579  0.4330301897947461
  0.6877374522275198  0.4627232691297659  0.7446261030488126
  0.5634842565502106  0.2136018398524795  0.7444768982278993
  0.9424763636730796  0.1269659822357296  0.7003545783529272
  0.5632329572475719  0.0413035911138858  0.6557733332813102
  0.5610391273483721  0.5407402750989526  0.5220505182812762
  0.1827012855680697  0.1232374915254968  0.2996022113632331
  0.4386975389991424  0.1124232092157225  0.1660852141394641
  0.6823545919972011  0.6232085759349302  0.2996557154906064
  0.9326559738051265  0.1230970215497527  0.2996543058532591
  0.8141171654711061  0.3747153327266705  0.5668531956946938
  0.0577553445308260  0.8733873447184664  0.2996163578956169
  0.1890213611861555  0.6247509850082594  0.5668826019617711
  0.9411382494538143  0.7990731255985680  0.7889366818135582
  0.3113060963672443  0.3867241592356873  0.8342027523270137
  0.9393143478372411  0.4715401930710091  0.8755752033199796
  0.4366308866054211  0.6368434672350590  0.8341577597629993
  0.0617234859572760  0.2083310937344013  0.3441924842797128
  0.1888744194374478  0.9711793346596350  0.8755045082914877
  0.9363913228009754  0.7796525953652795  0.1246226623733267
  0.6863877561100968  0.7918163914860606  0.3883625781619642
  0.9381426646973668  0.7916409424206655  0.6557727112513578
  0.9385933154680819  0.1134539858475201  0.1662334307450670
  0.8115354792435392  0.5367478809455615  0.2555180892083657
  0.0582193341214581  0.2011588251449522  0.2111424570693476
  0.6828251162132873  0.9513567521609988  0.2112991100788504
  0.1826925722879617  0.6232434271327633  0.2995887272749210
  0.8169989390964165  0.8766233786826101  0.7003688382924391
  0.9422482972164601  0.6268453276281013  0.7004276898142957
  0.1922272563504330  0.1266929508860988  0.7004285662998008
  0.9391440640635221  0.4588685685268085  0.4778194458357665
  0.8131292776212007  0.2078830777950191  0.6114343706573175
  0.1867206402625562  0.6251817901731554  0.4329924635872273
  0.4325965619442434  0.1233064555601252  0.2996902357256689
  0.6824643239176696  0.1231422923461091  0.2996516091122868
  0.5613198083848943  0.5416201760653278  0.3884050595529282
  0.8118752496182318  0.2083726469976394  0.3442190589140803
  0.4392028745856416  0.4714194222434205  0.8754889761237428
  0.5612056160955614  0.8865821926307229  0.8342451182069064
  0.3140058820345319  0.2092116572105860  0.4777751216827502
  0.1886051756345388  0.9590140113916151  0.4777734139949271
  0.0609138515117934  0.8868557874970722  0.8342312356531257
  0.0610887882602385  0.5404499017985802  0.5220238672082680
  0.9391462368096151  0.9587915663187886  0.4777656056629689
  0.0633402522310463  0.7078788615890020  0.6114151876134347
  0.5612053977396487  0.0407440422343785  0.5220427024867675
  0.6918506106152417  0.2986989474081280  0.7888216853462053
  0.8143951652154098  0.3635458821876885  0.1660879328261550
  0.4357112120941548  0.1249722600034330  0.4330476405239981
  0.0638873236162366  0.2089489945891436  0.4778583514117951
  0.3130962909861358  0.0410295465612071  0.6557614330877406
  0.4361972136657624  0.7903697322570794  0.5220590780007537
  0.1867233856160773  0.1369982596063669  0.8341503889096793
  0.1860798797439508  0.2786302416456946  0.1244244620320218
  0.9367549425184283  0.4586227072045446  0.3440652002204700
  0.5654380013741994  0.8639991519945606  0.1658765188699829
  0.3074454941655490  0.7000224407625397  0.2111269198727877
  0.9383851487342338  0.6132776272932311  0.1662282338147729
  0.1882925512322928  0.4579924789904493  0.6114284987699717
  0.0673399605506163  0.8767932481675632  0.7002578470134072
  0.0630380658028396  0.5420105365984081  0.6558640028920547
  0.3105682279237765  0.5309837346857670  0.1241145509139212
  0.9361416821340454  0.7921609287428912  0.3883967253548228
  0.9414827239171266  0.2986569856147743  0.7888446506266850
  0.1875481862597993  0.2917143853376807  0.6558021611011763
  0.9383596544278640  0.9578366691850093  0.6115081161768462
  0.8134259524232559  0.7131866975386399  0.7445508183664028
  0.6866764624260179  0.2872989833681999  0.2554567510882638
  0.0636996300862967  0.7131515940229720  0.7444643998004450
  0.6827188833870860  0.4513534220336956  0.2113121507802210
  0.8138839832114964  0.2088995654576867  0.4778439655418668
  0.5638227396679998  0.7091335639829558  0.4778316417802387
  0.0639367087014674  0.8638377332383661  0.1661045818238669
  0.9360945502522794  0.2905820179040612  0.5221805557358185
  0.6880391387889663  0.7915915511027002  0.6557996859887595
  0.0613490783209703  0.8749367057915670  0.4329888178712012
  0.0656677429315523  0.2195086104001316  0.8757991161760079
  0.8129727954916952  0.0408859656144098  0.6557602602361133
  0.5601717508833108  0.0294719961626786  0.1244681663860722
  0.3106437473522638  0.3749907560090570  0.4330702675189058
  0.3141567586069150  0.3747023961478583  0.5667293522417649
  0.3139456814346266  0.7092519385415594  0.4778223543810636
  0.0611550161733391  0.0405894408905394  0.5220397694024881
  0.3172534249459717  0.8765649720792741  0.7003967371943607
  0.0614045701200821  0.5370959979841131  0.2554842305870126
  0.6865446378010687  0.1374089619592617  0.8341104701515233
  0.8115419768422680  0.0367914530572263  0.2555491838022597
  0.1868571807895617  0.1251416758403471  0.4330101826284690
  0.6920607559801439  0.1263207223090887  0.7002930625817881
  0.1862827049968087  0.2907912104259830  0.5221577414752625
  0.4364909320473412  0.7871252208965621  0.2555414364898101
  0.4385034853512847  0.6123342788953233  0.1660917576655942
  0.0631618009010967  0.2078954111800898  0.6113952153202954
  0.1864224823328741  0.7916717259677719  0.3883967631611248
  0.3114103521441698  0.5408110452764479  0.5220359801106752
  0.8171656242722799  0.3768037861970855  0.7003623007983214
  0.6863438593242516  0.2918063635694605  0.3883837818338006
  0.1889086181216367  0.1244433312386338  0.5666540640368957
  0.6889560206588661  0.9717422552482802  0.8755304880025921
  0.6890816714080676  0.1247408157677108  0.5667904891567471
  0.4368753615161235  0.9584281692089427  0.3441643833709627
  0.1883399412541020  0.9628211982157748  0.7444967951766263
  0.9365134858222505  0.7871413525886493  0.2555290365120583
  0.5610823446434010  0.8752230934454778  0.4330109730670267
  0.3107161257061938  0.8750235695884566  0.4330681392509010
  0.8110038825771069  0.5403681339913418  0.5221035104134738
  0.9328862700116645  0.4513610969559859  0.2113694986243911
  0.3114007130572826  0.5366423303179206  0.2555747426248516
  0.5611818228819715  0.0417229891948959  0.3883880794870703
  0.9382052939604265  0.4576742544541786  0.6114939120033593
  0.0614152212339185  0.0420100630511233  0.3883785459523016
  0.0614000877226051  0.5418424014184708  0.3884110314268959
  0.4365721349026831  0.2916869666265054  0.3884469067320852
  0.6887914370307930  0.4590735785887779  0.4778450848343176
  0.0641473370958505  0.3748375839094542  0.5668717941669029
  0.5574744312270136  0.7007730971537175  0.2111372204718275
  0.9365251015985854  0.2872630637944635  0.2555228789831842
  0.8165151928602241  0.0493820981775383  0.7889208605460334
  0.1869235381300996  0.9582253279695565  0.3441366133153262
  0.5577408959920312  0.8733495728583092  0.2996564028194151
  0.0613268279943380  0.3749775636313179  0.4329838132784688
  0.3117399377691603  0.7081008282504057  0.3441818113812118
  0.3117000534422542  0.2079078378925904  0.3441500995249441
  0.9388941666436168  0.1249667204458375  0.5667695073306921
  0.4380406764429432  0.9581208846387359  0.6114847992480972
  0.5613858689561678  0.0370267555380492  0.2555084058848346
  0.1862513186414195  0.7788574202932386  0.1244576454539665
  0.0615114800766191  0.0370547800157202  0.2555332197433219
  0.6890268039795691  0.6245774226530983  0.5668610250493590
  0.0607207381593209  0.5293390508940791  0.1245089539365399
  0.3110621547723379  0.0411052075658207  0.5220454145013982
  0.6876303632874625  0.2798777974724044  0.1246902839703852
  0.8138442825675043  0.7089309028738071  0.4778326611712376
  0.4367448657836605  0.1368026456802147  0.8340258107709015
  0.3174579327421070  0.3762911354253750  0.7003163344969290
  0.6868503721950970  0.6371267982498984  0.8340781095817541
  0.5632882461127884  0.7126363209118137  0.7444459667289776
  0.9361710234524840  0.2920742569377902  0.3883973140654879
  0.9392906147846535  0.9712215305577012  0.8755141704329740
  0.5635584825670000  0.2080321266906401  0.6113970929246457
  0.8141999381141276  0.8747033593005012  0.5668283772117655
  0.8075352291136787  0.8734127954184504  0.2996343880810144
  0.3113846526498823  0.0366254999241669  0.2556148350145008
  0.4369822305297004  0.2794343933931505  0.1243191976733003
  0.3132222900497897  0.7082316416981480  0.6114547302077212
  0.4357045206564092  0.6249607026844226  0.4330243772920512
  0.9357160364212079  0.6250109024810762  0.4330906896822699
  0.3151494457832755  0.8631862213230507  0.1656383411868387
  0.0672255279727478  0.5491742560015959  0.7887508753172991
  0.9357762809927123  0.1250841026519911  0.4330948630540692
  0.3150772302285109  0.3631599451352204  0.1656406690276841
  0.9375869799326998  0.9630287778085675  0.7446350293845510
  0.4374624575889253  0.2914786002691684  0.6558970911176374
 
  0.00000000E+00  0.00000000E+00  0.00000000E+00
  0.00000000E+00  0.00000000E+00  0.00000000E+00
  0.00000000E+00  0.00000000E+00  0.00000000E+00
  0.00000000E+00  0.00000000E+00  0.00000000E+00
  0.00000000E+00  0.00000000E+00  0.00000000E+00
  0.00000000E+00  0.00000000E+00  0.00000000E+00
  0.00000000E+00  0.00000000E+00  0.00000000E+00
  0.00000000E+00  0.00000000E+00  0.00000000E+00
  0.00000000E+00  0.00000000E+00  0.00000000E+00
  0.00000000E+00  0.00000000E+00  0.00000000E+00
  0.00000000E+00  0.00000000E+00  0.00000000E+00
  0.00000000E+00  0.00000000E+00  0.00000000E+00
  0.00000000E+00  0.00000000E+00  0.00000000E+00
  0.00000000E+00  0.00000000E+00  0.00000000E+00
  0.00000000E+00  0.00000000E+00  0.00000000E+00
  0.00000000E+00  0.00000000E+00  0.00000000E+00
  0.00000000E+00  0.00000000E+00  0.00000000E+00
  0.00000000E+00  0.00000000E+00  0.00000000E+00
  0.00000000E+00  0.00000000E+00  0.00000000E+00
  0.00000000E+00  0.00000000E+00  0.00000000E+00
  0.00000000E+00  0.00000000E+00  0.00000000E+00
  0.00000000E+00  0.00000000E+00  0.00000000E+00
  0.00000000E+00  0.00000000E+00  0.00000000E+00
  0.00000000E+00  0.00000000E+00  0.00000000E+00
  0.00000000E+00  0.00000000E+00  0.00000000E+00
  0.00000000E+00  0.00000000E+00  0.00000000E+00
  0.00000000E+00  0.00000000E+00  0.00000000E+00
  0.00000000E+00  0.00000000E+00  0.00000000E+00
  0.00000000E+00  0.00000000E+00  0.00000000E+00
  0.00000000E+00  0.00000000E+00  0.00000000E+00
  0.00000000E+00  0.00000000E+00  0.00000000E+00
  0.00000000E+00  0.00000000E+00  0.00000000E+00
  0.00000000E+00  0.00000000E+00  0.00000000E+00
  0.00000000E+00  0.00000000E+00  0.00000000E+00
  0.00000000E+00  0.00000000E+00  0.00000000E+00
  0.00000000E+00  0.00000000E+00  0.00000000E+00
  0.00000000E+00  0.00000000E+00  0.00000000E+00
  0.00000000E+00  0.00000000E+00  0.00000000E+00
  0.00000000E+00  0.00000000E+00  0.00000000E+00
  0.00000000E+00  0.00000000E+00  0.00000000E+00
  0.00000000E+00  0.00000000E+00  0.00000000E+00
  0.00000000E+00  0.00000000E+00  0.00000000E+00
  0.00000000E+00  0.00000000E+00  0.00000000E+00
  0.00000000E+00  0.00000000E+00  0.00000000E+00
  0.00000000E+00  0.00000000E+00  0.00000000E+00
  0.00000000E+00  0.00000000E+00  0.00000000E+00
  0.00000000E+00  0.00000000E+00  0.00000000E+00
  0.00000000E+00  0.00000000E+00  0.00000000E+00
  0.00000000E+00  0.00000000E+00  0.00000000E+00
  0.00000000E+00  0.00000000E+00  0.00000000E+00
  0.00000000E+00  0.00000000E+00  0.00000000E+00
  0.00000000E+00  0.00000000E+00  0.00000000E+00
  0.00000000E+00  0.00000000E+00  0.00000000E+00
  0.00000000E+00  0.00000000E+00  0.00000000E+00
  0.00000000E+00  0.00000000E+00  0.00000000E+00
  0.00000000E+00  0.00000000E+00  0.00000000E+00
  0.00000000E+00  0.00000000E+00  0.00000000E+00
  0.00000000E+00  0.00000000E+00  0.00000000E+00
  0.00000000E+00  0.00000000E+00  0.00000000E+00
  0.00000000E+00  0.00000000E+00  0.00000000E+00
  0.00000000E+00  0.00000000E+00  0.00000000E+00
  0.00000000E+00  0.00000000E+00  0.00000000E+00
  0.00000000E+00  0.00000000E+00  0.00000000E+00
  0.00000000E+00  0.00000000E+00  0.00000000E+00
  0.00000000E+00  0.00000000E+00  0.00000000E+00
  0.00000000E+00  0.00000000E+00  0.00000000E+00
  0.00000000E+00  0.00000000E+00  0.00000000E+00
  0.00000000E+00  0.00000000E+00  0.00000000E+00
  0.00000000E+00  0.00000000E+00  0.00000000E+00
  0.00000000E+00  0.00000000E+00  0.00000000E+00
  0.00000000E+00  0.00000000E+00  0.00000000E+00
  0.00000000E+00  0.00000000E+00  0.00000000E+00
  0.00000000E+00  0.00000000E+00  0.00000000E+00
  0.00000000E+00  0.00000000E+00  0.00000000E+00
  0.00000000E+00  0.00000000E+00  0.00000000E+00
  0.00000000E+00  0.00000000E+00  0.00000000E+00
  0.00000000E+00  0.00000000E+00  0.00000000E+00
  0.00000000E+00  0.00000000E+00  0.00000000E+00
  0.00000000E+00  0.00000000E+00  0.00000000E+00
  0.00000000E+00  0.00000000E+00  0.00000000E+00
  0.00000000E+00  0.00000000E+00  0.00000000E+00
  0.00000000E+00  0.00000000E+00  0.00000000E+00
  0.00000000E+00  0.00000000E+00  0.00000000E+00
  0.00000000E+00  0.00000000E+00  0.00000000E+00
  0.00000000E+00  0.00000000E+00  0.00000000E+00
  0.00000000E+00  0.00000000E+00  0.00000000E+00
  0.00000000E+00  0.00000000E+00  0.00000000E+00
  0.00000000E+00  0.00000000E+00  0.00000000E+00
  0.00000000E+00  0.00000000E+00  0.00000000E+00
  0.00000000E+00  0.00000000E+00  0.00000000E+00
  0.00000000E+00  0.00000000E+00  0.00000000E+00
  0.00000000E+00  0.00000000E+00  0.00000000E+00
  0.00000000E+00  0.00000000E+00  0.00000000E+00
  0.00000000E+00  0.00000000E+00  0.00000000E+00
  0.00000000E+00  0.00000000E+00  0.00000000E+00
  0.00000000E+00  0.00000000E+00  0.00000000E+00
  0.00000000E+00  0.00000000E+00  0.00000000E+00
  0.00000000E+00  0.00000000E+00  0.00000000E+00
  0.00000000E+00  0.00000000E+00  0.00000000E+00
  0.00000000E+00  0.00000000E+00  0.00000000E+00
  0.00000000E+00  0.00000000E+00  0.00000000E+00
  0.00000000E+00  0.00000000E+00  0.00000000E+00
  0.00000000E+00  0.00000000E+00  0.00000000E+00
  0.00000000E+00  0.00000000E+00  0.00000000E+00
  0.00000000E+00  0.00000000E+00  0.00000000E+00
  0.00000000E+00  0.00000000E+00  0.00000000E+00
  0.00000000E+00  0.00000000E+00  0.00000000E+00
  0.00000000E+00  0.00000000E+00  0.00000000E+00
  0.00000000E+00  0.00000000E+00  0.00000000E+00
  0.00000000E+00  0.00000000E+00  0.00000000E+00
  0.00000000E+00  0.00000000E+00  0.00000000E+00
  0.00000000E+00  0.00000000E+00  0.00000000E+00
  0.00000000E+00  0.00000000E+00  0.00000000E+00
  0.00000000E+00  0.00000000E+00  0.00000000E+00
  0.00000000E+00  0.00000000E+00  0.00000000E+00
  0.00000000E+00  0.00000000E+00  0.00000000E+00
  0.00000000E+00  0.00000000E+00  0.00000000E+00
  0.00000000E+00  0.00000000E+00  0.00000000E+00
  0.00000000E+00  0.00000000E+00  0.00000000E+00
  0.00000000E+00  0.00000000E+00  0.00000000E+00
  0.00000000E+00  0.00000000E+00  0.00000000E+00
  0.00000000E+00  0.00000000E+00  0.00000000E+00
  0.00000000E+00  0.00000000E+00  0.00000000E+00
  0.00000000E+00  0.00000000E+00  0.00000000E+00
  0.00000000E+00  0.00000000E+00  0.00000000E+00
  0.00000000E+00  0.00000000E+00  0.00000000E+00
  0.00000000E+00  0.00000000E+00  0.00000000E+00
  0.00000000E+00  0.00000000E+00  0.00000000E+00
  0.00000000E+00  0.00000000E+00  0.00000000E+00
  0.00000000E+00  0.00000000E+00  0.00000000E+00
  0.00000000E+00  0.00000000E+00  0.00000000E+00
  0.00000000E+00  0.00000000E+00  0.00000000E+00
  0.00000000E+00  0.00000000E+00  0.00000000E+00
  0.00000000E+00  0.00000000E+00  0.00000000E+00
  0.00000000E+00  0.00000000E+00  0.00000000E+00
  0.00000000E+00  0.00000000E+00  0.00000000E+00
  0.00000000E+00  0.00000000E+00  0.00000000E+00
  0.00000000E+00  0.00000000E+00  0.00000000E+00
  0.00000000E+00  0.00000000E+00  0.00000000E+00
  0.00000000E+00  0.00000000E+00  0.00000000E+00
  0.00000000E+00  0.00000000E+00  0.00000000E+00
  0.00000000E+00  0.00000000E+00  0.00000000E+00
  0.00000000E+00  0.00000000E+00  0.00000000E+00
  0.00000000E+00  0.00000000E+00  0.00000000E+00
  0.00000000E+00  0.00000000E+00  0.00000000E+00
  0.00000000E+00  0.00000000E+00  0.00000000E+00
  0.00000000E+00  0.00000000E+00  0.00000000E+00
  0.00000000E+00  0.00000000E+00  0.00000000E+00
  0.00000000E+00  0.00000000E+00  0.00000000E+00
  0.00000000E+00  0.00000000E+00  0.00000000E+00
  0.00000000E+00  0.00000000E+00  0.00000000E+00
  0.00000000E+00  0.00000000E+00  0.00000000E+00
  0.00000000E+00  0.00000000E+00  0.00000000E+00
  0.00000000E+00  0.00000000E+00  0.00000000E+00
  0.00000000E+00  0.00000000E+00  0.00000000E+00
  0.00000000E+00  0.00000000E+00  0.00000000E+00
  0.00000000E+00  0.00000000E+00  0.00000000E+00
  0.00000000E+00  0.00000000E+00  0.00000000E+00
  0.00000000E+00  0.00000000E+00  0.00000000E+00
  0.00000000E+00  0.00000000E+00  0.00000000E+00
  0.00000000E+00  0.00000000E+00  0.00000000E+00
  0.00000000E+00  0.00000000E+00  0.00000000E+00
  0.00000000E+00  0.00000000E+00  0.00000000E+00
  0.00000000E+00  0.00000000E+00  0.00000000E+00
  0.00000000E+00  0.00000000E+00  0.00000000E+00
  0.00000000E+00  0.00000000E+00  0.00000000E+00
  0.00000000E+00  0.00000000E+00  0.00000000E+00
  0.00000000E+00  0.00000000E+00  0.00000000E+00
  0.00000000E+00  0.00000000E+00  0.00000000E+00
  0.00000000E+00  0.00000000E+00  0.00000000E+00
  0.00000000E+00  0.00000000E+00  0.00000000E+00
  0.00000000E+00  0.00000000E+00  0.00000000E+00
  0.00000000E+00  0.00000000E+00  0.00000000E+00
  0.00000000E+00  0.00000000E+00  0.00000000E+00
  0.00000000E+00  0.00000000E+00  0.00000000E+00
  0.00000000E+00  0.00000000E+00  0.00000000E+00
  0.00000000E+00  0.00000000E+00  0.00000000E+00
  0.00000000E+00  0.00000000E+00  0.00000000E+00
  0.00000000E+00  0.00000000E+00  0.00000000E+00
  0.00000000E+00  0.00000000E+00  0.00000000E+00
  0.00000000E+00  0.00000000E+00  0.00000000E+00
  0.00000000E+00  0.00000000E+00  0.00000000E+00
  0.00000000E+00  0.00000000E+00  0.00000000E+00
  0.00000000E+00  0.00000000E+00  0.00000000E+00
  0.00000000E+00  0.00000000E+00  0.00000000E+00
  0.00000000E+00  0.00000000E+00  0.00000000E+00
  0.00000000E+00  0.00000000E+00  0.00000000E+00
  0.00000000E+00  0.00000000E+00  0.00000000E+00
  0.00000000E+00  0.00000000E+00  0.00000000E+00
  0.00000000E+00  0.00000000E+00  0.00000000E+00
  0.00000000E+00  0.00000000E+00  0.00000000E+00
  0.00000000E+00  0.00000000E+00  0.00000000E+00
  0.00000000E+00  0.00000000E+00  0.00000000E+00
  0.00000000E+00  0.00000000E+00  0.00000000E+00
  0.00000000E+00  0.00000000E+00  0.00000000E+00
  0.00000000E+00  0.00000000E+00  0.00000000E+00
  0.00000000E+00  0.00000000E+00  0.00000000E+00
  0.00000000E+00  0.00000000E+00  0.00000000E+00
  0.00000000E+00  0.00000000E+00  0.00000000E+00
  0.00000000E+00  0.00000000E+00  0.00000000E+00
  0.00000000E+00  0.00000000E+00  0.00000000E+00
  0.00000000E+00  0.00000000E+00  0.00000000E+00
  0.00000000E+00  0.00000000E+00  0.00000000E+00
  0.00000000E+00  0.00000000E+00  0.00000000E+00
  0.00000000E+00  0.00000000E+00  0.00000000E+00
  0.00000000E+00  0.00000000E+00  0.00000000E+00
  0.00000000E+00  0.00000000E+00  0.00000000E+00
  0.00000000E+00  0.00000000E+00  0.00000000E+00
  0.00000000E+00  0.00000000E+00  0.00000000E+00
  0.00000000E+00  0.00000000E+00  0.00000000E+00
  0.00000000E+00  0.00000000E+00  0.00000000E+00
  0.00000000E+00  0.00000000E+00  0.00000000E+00
  0.00000000E+00  0.00000000E+00  0.00000000E+00
  0.00000000E+00  0.00000000E+00  0.00000000E+00
  0.00000000E+00  0.00000000E+00  0.00000000E+00
  0.00000000E+00  0.00000000E+00  0.00000000E+00
  0.00000000E+00  0.00000000E+00  0.00000000E+00
  0.00000000E+00  0.00000000E+00  0.00000000E+00
  0.00000000E+00  0.00000000E+00  0.00000000E+00
  0.00000000E+00  0.00000000E+00  0.00000000E+00
  0.00000000E+00  0.00000000E+00  0.00000000E+00
  0.00000000E+00  0.00000000E+00  0.00000000E+00
  0.00000000E+00  0.00000000E+00  0.00000000E+00
  0.00000000E+00  0.00000000E+00  0.00000000E+00
  0.00000000E+00  0.00000000E+00  0.00000000E+00
  0.00000000E+00  0.00000000E+00  0.00000000E+00
  0.00000000E+00  0.00000000E+00  0.00000000E+00
  0.00000000E+00  0.00000000E+00  0.00000000E+00
  0.00000000E+00  0.00000000E+00  0.00000000E+00
  0.00000000E+00  0.00000000E+00  0.00000000E+00
  0.00000000E+00  0.00000000E+00  0.00000000E+00
  0.00000000E+00  0.00000000E+00  0.00000000E+00
  0.00000000E+00  0.00000000E+00  0.00000000E+00
  0.00000000E+00  0.00000000E+00  0.00000000E+00
  0.00000000E+00  0.00000000E+00  0.00000000E+00
  0.00000000E+00  0.00000000E+00  0.00000000E+00
  0.00000000E+00  0.00000000E+00  0.00000000E+00
  0.00000000E+00  0.00000000E+00  0.00000000E+00
  0.00000000E+00  0.00000000E+00  0.00000000E+00
  0.00000000E+00  0.00000000E+00  0.00000000E+00
  0.00000000E+00  0.00000000E+00  0.00000000E+00
  0.00000000E+00  0.00000000E+00  0.00000000E+00
  0.00000000E+00  0.00000000E+00  0.00000000E+00
  0.00000000E+00  0.00000000E+00  0.00000000E+00
  0.00000000E+00  0.00000000E+00  0.00000000E+00
  0.00000000E+00  0.00000000E+00  0.00000000E+00
  0.00000000E+00  0.00000000E+00  0.00000000E+00