CuInSe2gb                               
   1.00000000000000     
     9.7266780392896699    0.0000000000000000    0.0000000000000000
     0.0000000000000000    8.4235502764570693    0.0000000000000000
     0.0000000000000000    0.0000000000000000   45.0000000000000000
   Fe   Mn
   281     7
Direct
  0.0539524855575287  0.7011854541650070  0.2113098600528378
  0.3179992484675621  0.7238696769695693  0.8762402175391805
  0.6880919281261985  0.9584779429847888  0.6114591136213275
  0.4380735979607395  0.4582243841113625  0.6116121728477584
  0.4407291172568868  0.2873417292778397  0.2551940733813076
  0.0586920031903032  0.3883895126069741  0.8335572256160809
  0.3085527043629553  0.8875399692182313  0.8335124128603937
  0.4465796198935635  0.6257229874366201  0.7003436018723919
  0.0596206087218740  0.2125302522940588  0.7449259641830147
  0.1784488449729717  0.4511633475001974  0.2113388140374189
  0.5677830755813920  0.2105227001865868  0.4774209207357692
  0.0666782728455007  0.8749811536065940  0.5669027780819682
  0.5684421400462615  0.2238011235635070  0.8761582200691704
  0.8084397594817415  0.5280890245011399  0.1239449847217695
  0.4292539087430666  0.9511748993705067  0.2114262098692759
  0.5668168395670831  0.3750256157965183  0.5667557443058098
  0.8109838552612498  0.0416103742150876  0.3883208465591050
  0.6819491120987033  0.7887167485775622  0.5223497004683649
  0.4427622254635679  0.4606965228928649  0.4774273762903017
  0.4339262532756762  0.9625365406538398  0.7449306286151739
  0.4417386952740280  0.6251216068359330  0.5668040411605672
  0.5714858827015816  0.8762819366759957  0.7005592654797560
  0.3090807325302558  0.0257236910469120  0.1240279383112771
  0.6897157995952877  0.9588991172656399  0.3439716002209735
  0.6880464804241525  0.7824599482798253  0.1242609211786550
  0.0528428103497800  0.3738295716037334  0.2995487717201100
  0.6898759613945933  0.4678638831786691  0.8760859638540645
  0.4292281925862748  0.4512013724548505  0.2114021308235436
  0.8087547666177128  0.3750022903070748  0.4330741544819671
  0.5635087515621113  0.7086294628195836  0.6115590855559571
  0.5596405960614759  0.5403691302388809  0.6559077588834091
  0.8178363893823789  0.8615393047266031  0.1667578436058431
  0.5654071352883886  0.5373462533831929  0.2551279625471014
  0.6896609106077869  0.4588369863919624  0.3439724459694222
  0.1918249527339888  0.6116605943381676  0.1664414870355288
  0.1944422670628458  0.7993680984990689  0.7888530492729762
  0.4471912271964343  0.1261324647296767  0.7003858699563787
  0.9279533186417642  0.6235085074180966  0.2995790035176541
  0.3173308638374558  0.2235163018282542  0.8761684615484939
  0.3165992749272793  0.8748876637091590  0.5667355848028238
  0.8175293042220940  0.2239381803070598  0.8762127050823253
  0.8097599257526389  0.5415331990167898  0.6558804067022264
  0.5588729232152139  0.5265907985409086  0.1239408266793898
  0.5691390824050904  0.0495585692198177  0.7890078737736413
  0.1910122764052305  0.2873861253329694  0.2552604579288444
  0.8087910981992527  0.8751698478993553  0.4330154476917153
  0.5723303572459026  0.3759058064255348  0.7004988009601745
  0.0573552189643560  0.0264407700543550  0.1241943418913742
  0.3098564617412605  0.5411975556483278  0.6559037155470636
  0.5648412317883427  0.2089315490427765  0.3439932574291505
  0.1876722672396245  0.9582200648856072  0.6113433981946802
  0.3031003429367626  0.3739245823939392  0.2995959500883634
  0.4348871222031201  0.7906750364757381  0.6559197132929310
  0.1948961435948533  0.2989646422386765  0.7888113197509039
  0.0674874118020373  0.3630265188269665  0.1666423453315999
  0.6968971215168607  0.6262509912390521  0.7005189219665030
  0.3112245556454441  0.5414542549915935  0.3884236925024358
  0.0675235408768634  0.7232575417101886  0.8762035549700391
  0.9338019964569662  0.6377943562310960  0.8340080157595742
  0.3199485965804919  0.5495667295287613  0.7889124970176675
  0.3044070880387957  0.2006123042408686  0.2112651193744059
  0.0677584795566106  0.7106710565196684  0.4773599423004647
  0.5541713970046055  0.2008755462719691  0.2111723042495311
  0.3095875420424898  0.2124786104780887  0.7449548146528111
  0.0720494520999082  0.3762946232032010  0.7004681028183152
  0.1832453285827577  0.6377681231150213  0.8336270866677948
  0.0695734227518612  0.0495196261923514  0.7890108158992833
  0.4414891343183477  0.1250125468405481  0.5669047616907398
  0.9347738961460067  0.2907564663851254  0.6558475735237410
  0.8039322502518964  0.2012826721681650  0.2112088456048315
  0.9292539427042925  0.9515401698260222  0.2112978462441057
  0.9415014216472666  0.6251962758724460  0.5668056130682417
  0.8084257619668669  0.3876675121428093  0.8335282493674968
  0.1967154000879983  0.6261303771354159  0.7003474537561862
  0.8085659393701001  0.8876545525605058  0.8335597865932690
  0.6850644438762733  0.2908371676025833  0.6560909757959470
  0.3128497214841663  0.2082607288085951  0.6113965239831921
  0.4346625193165463  0.4628069027152130  0.7448337670993926
  0.4361383226558458  0.7912209738096988  0.3883756685153113
  0.6844359220815002  0.9628095410885054  0.7448406053262424
  0.8038385554014035  0.7011615031808109  0.2111854421179688
  0.8135164644738876  0.7083830071597852  0.6115952416965718
  0.4368785497048938  0.7837840463069682  0.1240684487699912
  0.3095942759648196  0.7121481989149471  0.7449037719762442
  0.3200469104297106  0.0493567754417200  0.7888765482765995
  0.8110027299486962  0.5418343453319137  0.3883242533156994
  0.6821318498931938  0.2887066596579019  0.5223142975152461
  0.6949383502981379  0.7993167340692746  0.7888597719771178
  0.1906575573500543  0.7872598912985261  0.2552177896263926
  0.6918391305571489  0.1123983207123995  0.1667332017522042
  0.6928409032392010  0.9605873460427670  0.4774236240506367
  0.9402171662185457  0.9590624350134737  0.3440169978473991
  0.8072040792859179  0.0393365127896546  0.5225891252529055
  0.6836814206213675  0.6251047011185618  0.4328711134890023
  0.4397126813213749  0.4587269911858202  0.3439852076189092
  0.8103066049772233  0.2113745703690991  0.7446707129107765
  0.4396522730535115  0.9678611151554477  0.8760828204623110
  0.5667807253782334  0.8748108301654199  0.5667555143768358
  0.8092783059090627  0.0281673975993825  0.1239683117358763
  0.4279758978438775  0.6237425293969781  0.2994724276108627
  0.8165146914926675  0.7238226938629746  0.8763562141792982
  0.6879059655065524  0.4580422439453334  0.6114309466357427
  0.5585306440567422  0.3875382682622696  0.8335017883339182
  0.8031077200544147  0.3734718511374355  0.2994187996186964
  0.1859985010737281  0.2913156383992870  0.3883406119849194
  0.8199960140273902  0.5494457036990463  0.7889109414881190
  0.1822347599064742  0.7893237515244684  0.5225535689769272
  0.3028559720377675  0.8739305461474843  0.2995845619075148
  0.1787758399816358  0.9514656878741937  0.2113399189269319
  0.1842759175547007  0.4626088270668546  0.7449766497532651
  0.4321359580567703  0.2887674771980370  0.5222811601691248
  0.0646161823440450  0.7085987494438979  0.3437675062249004
  0.1848705761799484  0.7906609453690866  0.6558644054727927
  0.4447593334437455  0.7992610917564329  0.7888327299213054
  0.6838264748100016  0.1249260378623136  0.4328859996912054
  0.9321079642334792  0.7884571479864394  0.5223789582398921
  0.6918070840150136  0.6125140570109182  0.1667282651531259
  0.8144742336336780  0.7086745607337288  0.3438471883739312
  0.9341875526134523  0.4627458508346307  0.7449525716366494
  0.1897990205914626  0.4588124821132085  0.3439980345986817
  0.5698409538390665  0.5496519791351990  0.7890219697448125
  0.5668565628888976  0.3627922455432401  0.1664718802633079
  0.5647492560286647  0.7089539358465853  0.3439375436399071
  0.5529160571626657  0.3736942586945395  0.2995727135963737
  0.1897406721295455  0.4679235221440097  0.8760966651707038
  0.1919620730965561  0.1116955657623046  0.1664621178649364
  0.4443392888800914  0.2992247241209569  0.7888394367256518
  0.6909168082244376  0.7875224942002279  0.2553967047693129
  0.9337631664942031  0.1377722213984018  0.8335623727668359
  0.4428924679908771  0.9607418901236066  0.4774240803041515
  0.5674643721666882  0.7247152053285741  0.8762485302994245
  0.1926089228213228  0.4608019080806930  0.4774555323429915
  0.9344204828939788  0.2820798013525097  0.1242145837801427
  0.3114058238579264  0.0414627966251865  0.3884082591963839
  0.0602457877951519  0.0406134459414797  0.6560536685241594
  0.5585574485648762  0.3747514696475203  0.4330598515875139
  0.6842746087170375  0.4627712118065888  0.7449587138893100
  0.5597776441295934  0.2125019912392763  0.7449035525491624
  0.9470420771592664  0.1263229952002980  0.7003717063500652
  0.5596384163970585  0.0409735163444276  0.6557856811063527
  0.5573423767170109  0.5392437301739318  0.5224465483851479
  0.1780866916401127  0.1238365338644959  0.2995514361099190
  0.4413734377044500  0.1104817988375586  0.1664686558170081
  0.6781786844916593  0.6234475472038912  0.2994477014658301
  0.9278213326258086  0.1235661088546175  0.2995958535707622
  0.8166064882719305  0.3750128032151621  0.5669005097896597
  0.0526875618024297  0.8738834105587626  0.2995608164105493
  0.1917528626353284  0.6249318821499678  0.5668637015149057
  0.9445499049155964  0.7997181124035927  0.7888595229822214
  0.3084264350772785  0.3874549207146988  0.8335415523940635
  0.9398396851588605  0.4684740104540488  0.8761304322367979
  0.4337078312326754  0.6378530699160583  0.8335362983632694
  0.0647477399079953  0.2085611570001060  0.3437965063530225
  0.1897186232608186  0.9679600745565921  0.8761308281474129
  0.9347252829678476  0.7820666527491510  0.1242088211911749
  0.6863113784249054  0.7912606881585609  0.3884287819307325
  0.9348630401675776  0.7908103175653295  0.6559282164229886
  0.9411959691226213  0.1121538621899355  0.1666126207921292
  0.8153769307629783  0.5375247418792365  0.2551931478315136
  0.0542017775070834  0.2010836022034665  0.2112996434262045
  0.6791382439710228  0.9512154170365659  0.2112815236413614
  0.1781493277927668  0.6237235316310624  0.2995641590098250
  0.8219571708354569  0.8761530080897505  0.7004360818269915
  0.9466601513320518  0.6264245829557995  0.7005208096895105
  0.1970716688713013  0.1262740714830477  0.7003441457002000
  0.9425989360033759  0.4605046587496000  0.4772111449554238
  0.8135037537834757  0.2083158456190687  0.6115656938404084
  0.1836697845660150  0.6250638305365412  0.4331234267816874
  0.4281025859546433  0.1235371064390296  0.2995042336339960
  0.6779726400412072  0.1237135450376827  0.2994800041897058
  0.5614213273527953  0.5414551260839815  0.3884270522049345
  0.8144814995618274  0.2088308668841859  0.3437956794585929
  0.4399242428246994  0.4680562988331460  0.8759403709381940
  0.5586407412409355  0.8875871264582023  0.8335016319686667
  0.3176740156061980  0.2104305593093745  0.4772813170087160
  0.1926760043027386  0.9607517880193157  0.4774870073638567
  0.0587048685728188  0.8876266154114737  0.8334906244675828
  0.0574513092716264  0.5392347519323797  0.5225071799556436
  0.9426274081249761  0.9607105930900021  0.4771964872759112
  0.0632535882093312  0.7084164690401267  0.6115915407830088
  0.5569688902695880  0.0392000836431645  0.5224426931883850
  0.6950635318360427  0.2990628494449072  0.7887903384518672
  0.8177259603335222  0.3617295069863211  0.1667295935184576
  0.4336334215290200  0.1248730208761852  0.4329511025402262
  0.0679215127498854  0.2106479347362939  0.4774307563935866
  0.3103573925631874  0.0416538851711534  0.6560156692399745
  0.4320305388436709  0.7890037570563523  0.5224602523562490
  0.1836865682183461  0.1377351522598613  0.8335905402726635
  0.1859406245006262  0.2831268239227369  0.1242856112688581
  0.9398960899007942  0.4591354717634771  0.3440479331112238
  0.5667555708854664  0.8626928647148308  0.1664821434048464
  0.3041051423054177  0.7009017811358298  0.2112914391533703
  0.9411979627972699  0.6124086713652706  0.1666212464291328
  0.1883246648434236  0.4584636661987369  0.6114975506647483
  0.0722221987153152  0.8764347422779029  0.7003622910617000
  0.0600030322640514  0.5409976999040323  0.6559668526269907
  0.3078039028330007  0.5255855107156530  0.1240134740204305
  0.9364852133995722  0.7913130490741155  0.3884433504106833
  0.9449092683449837  0.2986011389644721  0.7887580549777221
  0.1848644768597710  0.2906341896729915  0.6558839616199819
  0.9380906065668859  0.9583374237314849  0.6115037199715108
  0.8098605270187542  0.7119791318766024  0.7448770146382427
  0.6909261745678283  0.2874759514879983  0.2553507714038012
  0.0593042990123854  0.7123710795309555  0.7449915862621703
  0.6789716451245965  0.4513187607728357  0.2112728646100565
  0.8177874448953560  0.2107202266330281  0.4774525268643452
  0.5676473259620453  0.7104897288969158  0.4773753448404986
  0.0675876974118918  0.8629620701234113  0.1666542610152366
  0.9323945606431923  0.2885183122622331  0.5224018356401111
  0.6848796516582792  0.7905833835593988  0.6559697118335066
  0.0585310130082150  0.8747832719583671  0.4329485151626894
  0.0681867900783611  0.2232945573694436  0.8761826789880707
  0.8097694907018486  0.0406297554874886  0.6558924866713302
  0.5598136369398334  0.0267502514003851  0.1239648931280726
  0.3089373309336661  0.3750233050057482  0.4329387637343258
  0.3165900722351491  0.3748015851315943  0.5668162407155066
  0.3176327565360430  0.7103720007956102  0.4772760862742777
  0.0572369785209673  0.0391667696320707  0.5225206013041503
  0.3219447826326975  0.8759239024119010  0.7005902887138463
  0.0656953775240203  0.5373265572306338  0.2552593240453757
  0.6834540282173305  0.1376823327809429  0.8335137845217531
  0.8154752148964548  0.0373530710875246  0.2551746517010533
  0.1834441824469192  0.1251695209710390  0.4331028790243972
  0.6967739520681678  0.1266113968952062  0.7005060518975147
  0.1822968304258739  0.2892331778625822  0.5224748695400118
  0.4409507021378499  0.7873438483393426  0.2552107515843066
  0.4413042177149173  0.6105725558856212  0.1664821513617349
  0.0632697339649269  0.2084738870395624  0.6115457567090543
  0.1859927048365688  0.7913238906387963  0.3883271663926328
  0.3068526327083730  0.5390566818235046  0.5224377340387196
  0.8220088920102739  0.3761759948029409  0.7001297025590080
  0.6864723536659417  0.2913284681480793  0.3884262444078406
  0.1915317841274121  0.1250332656554525  0.5668917999479648
  0.6898031261595797  0.9683822612343810  0.8761218507072324
  0.6917715472957137  0.1248742403823806  0.5668787904997949
  0.4397280070208183  0.9586815936936002  0.3439936736820638
  0.1840821030731201  0.9626625723606115  0.7447733924014945
  0.9411983950952170  0.7876194175443788  0.2553191820454879
  0.5585414687159199  0.8748116199267248  0.4330479799096567
  0.3086937882882438  0.8749359377050903  0.4329022073520561
  0.8074219515162747  0.5392735690653711  0.5225153080544787
  0.9291099476212316  0.4515122632219244  0.2112554073410574
  0.3154058221796126  0.5377408751936673  0.2551644472611952
  0.5616871927895138  0.0414601521983102  0.3884487233435404
  0.9381862537873392  0.4582655922755428  0.6116146711124986
  0.0613611602831117  0.0413625191412639  0.3884189153449267
  0.0612538528107088  0.5414307712172568  0.3883414902565698
  0.4361050666353340  0.2913322897830427  0.3883495760416100
  0.6927970702751767  0.4607529022497223  0.4774214690718905
  0.0666177894219244  0.3750118443373160  0.5668647738594662
  0.5537510853735697  0.7010085572257777  0.2111834493593057
  0.9410982887982491  0.2873985771605879  0.2553024092164836
  0.8192068070037012  0.0496117203806856  0.7890979292313005
  0.1898197743506048  0.9587996023851098  0.3439806180804758
  0.5529431029235528  0.8737153407580247  0.2995795577458676
  0.0586336868522388  0.3748338590316559  0.4329000043535742
  0.3147572475434937  0.7087506939835257  0.3439343032333084
  0.3148624554006869  0.2089858971308663  0.3439944176660139
  0.9415891706627114  0.1250384543357120  0.5667920326211412
  0.4385623710737381  0.9587033022397732  0.6115786609983763
  0.5656302024952833  0.0374986190811422  0.2551355589986488
  0.1860875514422792  0.7830519668529333  0.1243155084471278
  0.0658472687392249  0.0375147317133503  0.2551977770464939
  0.6916779085498806  0.6250519861447423  0.5668906978379399
  0.0571990458244262  0.5264441210665882  0.1241609094440054
  0.3070961789531810  0.0385256116791182  0.5223116623584909
  0.6878917533549979  0.2824339432651821  0.1242133966750693
  0.8177696249782809  0.7107469796484630  0.4774445364702443
  0.4335259389961130  0.1376128132471010  0.8335221100015340
  0.3223474907557388  0.3762525731459683  0.7004036537792184
  0.6836161816754095  0.6377316041172025  0.8335120928423337
  0.5596875251329231  0.7120343902795089  0.7448855019662085
  0.9363368428167033  0.2914686478712846  0.3884287160976013
  0.9396557106827073  0.9685584982437111  0.8761300470194724
  0.5627355028426210  0.2080363336122021  0.6113490186751798
  0.8165776161127771  0.8750483710318393  0.5668832194658954
  0.8030337496370892  0.8735239619893842  0.2994731785976102
  0.3156334128441384  0.0376937392028487  0.2551591418387387
  0.4368290021379165  0.2835036442536784  0.1240926348378838
  0.3135000607108403  0.7086077642697151  0.6115531555655843
  0.4335793172509350  0.6251064735152119  0.4329840922590982
  0.9333314132831441  0.6253874745244764  0.4331158505357622
  0.3186515316228097  0.8629228601851805  0.1658578077908922
  0.0704413940455803  0.5492087006960872  0.7886955501629220
  0.9333793007397172  0.1254043040299518  0.4330608907343083
  0.3184065509177025  0.3628862596337717  0.1658303506923864
  0.9333399528294681  0.9624350631674690  0.7446976059183483
  0.4347420767277480  0.2912016586461854  0.6559921562213353
 
  0.00000000E+00  0.00000000E+00  0.00000000E+00
  0.00000000E+00  0.00000000E+00  0.00000000E+00
  0.00000000E+00  0.00000000E+00  0.00000000E+00
  0.00000000E+00  0.00000000E+00  0.00000000E+00
  0.00000000E+00  0.00000000E+00  0.00000000E+00
  0.00000000E+00  0.00000000E+00  0.00000000E+00
  0.00000000E+00  0.00000000E+00  0.00000000E+00
  0.00000000E+00  0.00000000E+00  0.00000000E+00
  0.00000000E+00  0.00000000E+00  0.00000000E+00
  0.00000000E+00  0.00000000E+00  0.00000000E+00
  0.00000000E+00  0.00000000E+00  0.00000000E+00
  0.00000000E+00  0.00000000E+00  0.00000000E+00
  0.00000000E+00  0.00000000E+00  0.00000000E+00
  0.00000000E+00  0.00000000E+00  0.00000000E+00
  0.00000000E+00  0.00000000E+00  0.00000000E+00
  0.00000000E+00  0.00000000E+00  0.00000000E+00
  0.00000000E+00  0.00000000E+00  0.00000000E+00
  0.00000000E+00  0.00000000E+00  0.00000000E+00
  0.00000000E+00  0.00000000E+00  0.00000000E+00
  0.00000000E+00  0.00000000E+00  0.00000000E+00
  0.00000000E+00  0.00000000E+00  0.00000000E+00
  0.00000000E+00  0.00000000E+00  0.00000000E+00
  0.00000000E+00  0.00000000E+00  0.00000000E+00
  0.00000000E+00  0.00000000E+00  0.00000000E+00
  0.00000000E+00  0.00000000E+00  0.00000000E+00
  0.00000000E+00  0.00000000E+00  0.00000000E+00
  0.00000000E+00  0.00000000E+00  0.00000000E+00
  0.00000000E+00  0.00000000E+00  0.00000000E+00
  0.00000000E+00  0.00000000E+00  0.00000000E+00
  0.00000000E+00  0.00000000E+00  0.00000000E+00
  0.00000000E+00  0.00000000E+00  0.00000000E+00
  0.00000000E+00  0.00000000E+00  0.00000000E+00
  0.00000000E+00  0.00000000E+00  0.00000000E+00
  0.00000000E+00  0.00000000E+00  0.00000000E+00
  0.00000000E+00  0.00000000E+00  0.00000000E+00
  0.00000000E+00  0.00000000E+00  0.00000000E+00
  0.00000000E+00  0.00000000E+00  0.00000000E+00
  0.00000000E+00  0.00000000E+00  0.00000000E+00
  0.00000000E+00  0.00000000E+00  0.00000000E+00
  0.00000000E+00  0.00000000E+00  0.00000000E+00
  0.00000000E+00  0.00000000E+00  0.00000000E+00
  0.00000000E+00  0.00000000E+00  0.00000000E+00
  0.00000000E+00  0.00000000E+00  0.00000000E+00
  0.00000000E+00  0.00000000E+00  0.00000000E+00
  0.00000000E+00  0.00000000E+00  0.00000000E+00
  0.00000000E+00  0.00000000E+00  0.00000000E+00
  0.00000000E+00  0.00000000E+00  0.00000000E+00
  0.00000000E+00  0.00000000E+00  0.00000000E+00
  0.00000000E+00  0.00000000E+00  0.00000000E+00
  0.00000000E+00  0.00000000E+00  0.00000000E+00
  0.00000000E+00  0.00000000E+00  0.00000000E+00
  0.00000000E+00  0.00000000E+00  0.00000000E+00
  0.00000000E+00  0.00000000E+00  0.00000000E+00
  0.00000000E+00  0.00000000E+00  0.00000000E+00
  0.00000000E+00  0.00000000E+00  0.00000000E+00
  0.00000000E+00  0.00000000E+00  0.00000000E+00
  0.00000000E+00  0.00000000E+00  0.00000000E+00
  0.00000000E+00  0.00000000E+00  0.00000000E+00
  0.00000000E+00  0.00000000E+00  0.00000000E+00
  0.00000000E+00  0.00000000E+00  0.00000000E+00
  0.00000000E+00  0.00000000E+00  0.00000000E+00
  0.00000000E+00  0.00000000E+00  0.00000000E+00
  0.00000000E+00  0.00000000E+00  0.00000000E+00
  0.00000000E+00  0.00000000E+00  0.00000000E+00
  0.00000000E+00  0.00000000E+00  0.00000000E+00
  0.00000000E+00  0.00000000E+00  0.00000000E+00
  0.00000000E+00  0.00000000E+00  0.00000000E+00
  0.00000000E+00  0.00000000E+00  0.00000000E+00
  0.00000000E+00  0.00000000E+00  0.00000000E+00
  0.00000000E+00  0.00000000E+00  0.00000000E+00
  0.00000000E+00  0.00000000E+00  0.00000000E+00
  0.00000000E+00  0.00000000E+00  0.00000000E+00
  0.00000000E+00  0.00000000E+00  0.00000000E+00
  0.00000000E+00  0.00000000E+00  0.00000000E+00
  0.00000000E+00  0.00000000E+00  0.00000000E+00
  0.00000000E+00  0.00000000E+00  0.00000000E+00
  0.00000000E+00  0.00000000E+00  0.00000000E+00
  0.00000000E+00  0.00000000E+00  0.00000000E+00
  0.00000000E+00  0.00000000E+00  0.00000000E+00
  0.00000000E+00  0.00000000E+00  0.00000000E+00
  0.00000000E+00  0.00000000E+00  0.00000000E+00
  0.00000000E+00  0.00000000E+00  0.00000000E+00
  0.00000000E+00  0.00000000E+00  0.00000000E+00
  0.00000000E+00  0.00000000E+00  0.00000000E+00
  0.00000000E+00  0.00000000E+00  0.00000000E+00
  0.00000000E+00  0.00000000E+00  0.00000000E+00
  0.00000000E+00  0.00000000E+00  0.00000000E+00
  0.00000000E+00  0.00000000E+00  0.00000000E+00
  0.00000000E+00  0.00000000E+00  0.00000000E+00
  0.00000000E+00  0.00000000E+00  0.00000000E+00
  0.00000000E+00  0.00000000E+00  0.00000000E+00
  0.00000000E+00  0.00000000E+00  0.00000000E+00
  0.00000000E+00  0.00000000E+00  0.00000000E+00
  0.00000000E+00  0.00000000E+00  0.00000000E+00
  0.00000000E+00  0.00000000E+00  0.00000000E+00
  0.00000000E+00  0.00000000E+00  0.00000000E+00
  0.00000000E+00  0.00000000E+00  0.00000000E+00
  0.00000000E+00  0.00000000E+00  0.00000000E+00
  0.00000000E+00  0.00000000E+00  0.00000000E+00
  0.00000000E+00  0.00000000E+00  0.00000000E+00
  0.00000000E+00  0.00000000E+00  0.00000000E+00
  0.00000000E+00  0.00000000E+00  0.00000000E+00
  0.00000000E+00  0.00000000E+00  0.00000000E+00
  0.00000000E+00  0.00000000E+00  0.00000000E+00
  0.00000000E+00  0.00000000E+00  0.00000000E+00
  0.00000000E+00  0.00000000E+00  0.00000000E+00
  0.00000000E+00  0.00000000E+00  0.00000000E+00
  0.00000000E+00  0.00000000E+00  0.00000000E+00
  0.00000000E+00  0.00000000E+00  0.00000000E+00
  0.00000000E+00  0.00000000E+00  0.00000000E+00
  0.00000000E+00  0.00000000E+00  0.00000000E+00
  0.00000000E+00  0.00000000E+00  0.00000000E+00
  0.00000000E+00  0.00000000E+00  0.00000000E+00
  0.00000000E+00  0.00000000E+00  0.00000000E+00
  0.00000000E+00  0.00000000E+00  0.00000000E+00
  0.00000000E+00  0.00000000E+00  0.00000000E+00
  0.00000000E+00  0.00000000E+00  0.00000000E+00
  0.00000000E+00  0.00000000E+00  0.00000000E+00
  0.00000000E+00  0.00000000E+00  0.00000000E+00
  0.00000000E+00  0.00000000E+00  0.00000000E+00
  0.00000000E+00  0.00000000E+00  0.00000000E+00
  0.00000000E+00  0.00000000E+00  0.00000000E+00
  0.00000000E+00  0.00000000E+00  0.00000000E+00
  0.00000000E+00  0.00000000E+00  0.00000000E+00
  0.00000000E+00  0.00000000E+00  0.00000000E+00
  0.00000000E+00  0.00000000E+00  0.00000000E+00
  0.00000000E+00  0.00000000E+00  0.00000000E+00
  0.00000000E+00  0.00000000E+00  0.00000000E+00
  0.00000000E+00  0.00000000E+00  0.00000000E+00
  0.00000000E+00  0.00000000E+00  0.00000000E+00
  0.00000000E+00  0.00000000E+00  0.00000000E+00
  0.00000000E+00  0.00000000E+00  0.00000000E+00
  0.00000000E+00  0.00000000E+00  0.00000000E+00
  0.00000000E+00  0.00000000E+00  0.00000000E+00
  0.00000000E+00  0.00000000E+00  0.00000000E+00
  0.00000000E+00  0.00000000E+00  0.00000000E+00
  0.00000000E+00  0.00000000E+00  0.00000000E+00
  0.00000000E+00  0.00000000E+00  0.00000000E+00
  0.00000000E+00  0.00000000E+00  0.00000000E+00
  0.00000000E+00  0.00000000E+00  0.00000000E+00
  0.00000000E+00  0.00000000E+00  0.00000000E+00
  0.00000000E+00  0.00000000E+00  0.00000000E+00
  0.00000000E+00  0.00000000E+00  0.00000000E+00
  0.00000000E+00  0.00000000E+00  0.00000000E+00
  0.00000000E+00  0.00000000E+00  0.00000000E+00
  0.00000000E+00  0.00000000E+00  0.00000000E+00
  0.00000000E+00  0.00000000E+00  0.00000000E+00
  0.00000000E+00  0.00000000E+00  0.00000000E+00
  0.00000000E+00  0.00000000E+00  0.00000000E+00
  0.00000000E+00  0.00000000E+00  0.00000000E+00
  0.00000000E+00  0.00000000E+00  0.00000000E+00
  0.00000000E+00  0.00000000E+00  0.00000000E+00
  0.00000000E+00  0.00000000E+00  0.00000000E+00
  0.00000000E+00  0.00000000E+00  0.00000000E+00
  0.00000000E+00  0.00000000E+00  0.00000000E+00
  0.00000000E+00  0.00000000E+00  0.00000000E+00
  0.00000000E+00  0.00000000E+00  0.00000000E+00
  0.00000000E+00  0.00000000E+00  0.00000000E+00
  0.00000000E+00  0.00000000E+00  0.00000000E+00
  0.00000000E+00  0.00000000E+00  0.00000000E+00
  0.00000000E+00  0.00000000E+00  0.00000000E+00
  0.00000000E+00  0.00000000E+00  0.00000000E+00
  0.00000000E+00  0.00000000E+00  0.00000000E+00
  0.00000000E+00  0.00000000E+00  0.00000000E+00
  0.00000000E+00  0.00000000E+00  0.00000000E+00
  0.00000000E+00  0.00000000E+00  0.00000000E+00
  0.00000000E+00  0.00000000E+00  0.00000000E+00
  0.00000000E+00  0.00000000E+00  0.00000000E+00
  0.00000000E+00  0.00000000E+00  0.00000000E+00
  0.00000000E+00  0.00000000E+00  0.00000000E+00
  0.00000000E+00  0.00000000E+00  0.00000000E+00
  0.00000000E+00  0.00000000E+00  0.00000000E+00
  0.00000000E+00  0.00000000E+00  0.00000000E+00
  0.00000000E+00  0.00000000E+00  0.00000000E+00
  0.00000000E+00  0.00000000E+00  0.00000000E+00
  0.00000000E+00  0.00000000E+00  0.00000000E+00
  0.00000000E+00  0.00000000E+00  0.00000000E+00
  0.00000000E+00  0.00000000E+00  0.00000000E+00
  0.00000000E+00  0.00000000E+00  0.00000000E+00
  0.00000000E+00  0.00000000E+00  0.00000000E+00
  0.00000000E+00  0.00000000E+00  0.00000000E+00
  0.00000000E+00  0.00000000E+00  0.00000000E+00
  0.00000000E+00  0.00000000E+00  0.00000000E+00
  0.00000000E+00  0.00000000E+00  0.00000000E+00
  0.00000000E+00  0.00000000E+00  0.00000000E+00
  0.00000000E+00  0.00000000E+00  0.00000000E+00
  0.00000000E+00  0.00000000E+00  0.00000000E+00
  0.00000000E+00  0.00000000E+00  0.00000000E+00
  0.00000000E+00  0.00000000E+00  0.00000000E+00
  0.00000000E+00  0.00000000E+00  0.00000000E+00
  0.00000000E+00  0.00000000E+00  0.00000000E+00
  0.00000000E+00  0.00000000E+00  0.00000000E+00
  0.00000000E+00  0.00000000E+00  0.00000000E+00
  0.00000000E+00  0.00000000E+00  0.00000000E+00
  0.00000000E+00  0.00000000E+00  0.00000000E+00
  0.00000000E+00  0.00000000E+00  0.00000000E+00
  0.00000000E+00  0.00000000E+00  0.00000000E+00
  0.00000000E+00  0.00000000E+00  0.00000000E+00
  0.00000000E+00  0.00000000E+00  0.00000000E+00
  0.00000000E+00  0.00000000E+00  0.00000000E+00
  0.00000000E+00  0.00000000E+00  0.00000000E+00
  0.00000000E+00  0.00000000E+00  0.00000000E+00
  0.00000000E+00  0.00000000E+00  0.00000000E+00
  0.00000000E+00  0.00000000E+00  0.00000000E+00
  0.00000000E+00  0.00000000E+00  0.00000000E+00
  0.00000000E+00  0.00000000E+00  0.00000000E+00
  0.00000000E+00  0.00000000E+00  0.00000000E+00
  0.00000000E+00  0.00000000E+00  0.00000000E+00
  0.00000000E+00  0.00000000E+00  0.00000000E+00
  0.00000000E+00  0.00000000E+00  0.00000000E+00
  0.00000000E+00  0.00000000E+00  0.00000000E+00
  0.00000000E+00  0.00000000E+00  0.00000000E+00
  0.00000000E+00  0.00000000E+00  0.00000000E+00
  0.00000000E+00  0.00000000E+00  0.00000000E+00
  0.00000000E+00  0.00000000E+00  0.00000000E+00
  0.00000000E+00  0.00000000E+00  0.00000000E+00
  0.00000000E+00  0.00000000E+00  0.00000000E+00
  0.00000000E+00  0.00000000E+00  0.00000000E+00
  0.00000000E+00  0.00000000E+00  0.00000000E+00
  0.00000000E+00  0.00000000E+00  0.00000000E+00
  0.00000000E+00  0.00000000E+00  0.00000000E+00
  0.00000000E+00  0.00000000E+00  0.00000000E+00
  0.00000000E+00  0.00000000E+00  0.00000000E+00
  0.00000000E+00  0.00000000E+00  0.00000000E+00
  0.00000000E+00  0.00000000E+00  0.00000000E+00
  0.00000000E+00  0.00000000E+00  0.00000000E+00
  0.00000000E+00  0.00000000E+00  0.00000000E+00
  0.00000000E+00  0.00000000E+00  0.00000000E+00
  0.00000000E+00  0.00000000E+00  0.00000000E+00
  0.00000000E+00  0.00000000E+00  0.00000000E+00
  0.00000000E+00  0.00000000E+00  0.00000000E+00
  0.00000000E+00  0.00000000E+00  0.00000000E+00
  0.00000000E+00  0.00000000E+00  0.00000000E+00
  0.00000000E+00  0.00000000E+00  0.00000000E+00
  0.00000000E+00  0.00000000E+00  0.00000000E+00
  0.00000000E+00  0.00000000E+00  0.00000000E+00
  0.00000000E+00  0.00000000E+00  0.00000000E+00
  0.00000000E+00  0.00000000E+00  0.00000000E+00
  0.00000000E+00  0.00000000E+00  0.00000000E+00
  0.00000000E+00  0.00000000E+00  0.00000000E+00
  0.00000000E+00  0.00000000E+00  0.00000000E+00
  0.00000000E+00  0.00000000E+00  0.00000000E+00
  0.00000000E+00  0.00000000E+00  0.00000000E+00
  0.00000000E+00  0.00000000E+00  0.00000000E+00
  0.00000000E+00  0.00000000E+00  0.00000000E+00
  0.00000000E+00  0.00000000E+00  0.00000000E+00
  0.00000000E+00  0.00000000E+00  0.00000000E+00