FeMn_288_25                             
    1.000000000000000     
     9.7266779999999997    0.0000000000000000    0.0000000000000000
     0.0000000000000000    8.4235500000000005    0.0000000000000000
     0.0000000000000000    0.0000000000000000   45.0000000000000000
   Fe   Mn
   263    25
Direct
  0.1874848618107244  0.4564641499258265  0.5652888474336564
  0.0625333686385506  0.5410748911412120  0.8737467781525902
  0.9372052896844957  0.2922471293825691  0.8737576075432202
  0.3125680813484976  0.3742794565585356  0.7866371170558445
  0.3128657877997572  0.0411477490510174  0.7425704348977835
  0.4378516247631683  0.2902273138170872  0.6100293662831607
  0.6875964878908780  0.4574500162752749  0.6982672554427137
  0.0625021470767458  0.2067266409181789  0.5652784083336313
  0.1879003997167710  0.6252603085604398  0.7867116215277443
  0.9370997610807490  0.1196197807561437  0.1683876205272229
  0.5629194685214495  0.8743221171198531  0.6539403597054411
  0.5622668849123712  0.0418899031020733  0.8738461833329094
  0.4377372901357463  0.2857881632105801  0.1263519310321453
  0.6875942455827464  0.1252166135012651  0.7867235419956295
  0.8125471281705495  0.0360346890529234  0.1262406345645959
  0.0627099978074014  0.3723268497988035  0.5212415338678521
  0.8124344500077409  0.5367191679981541  0.2574440151538033
  0.6875559712168879  0.4560248750105085  0.5649186242713135
  0.4371550079746601  0.2876165130421508  0.3900566403054718
  0.4380079438936976  0.2921771187551614  0.8736731877144074
  0.8130902553337138  0.8722501372807605  0.5213013843860069
  0.1874817586833174  0.6193789135057521  0.1684265256507953
  0.3123150514689297  0.0362446204109212  0.1263682943584988
  0.9376663966067462  0.7919625039610595  0.8737316580504402
  0.1872557785937883  0.7919628303571313  0.7425964988428696
  0.9374041241904119  0.6225916378345778  0.5213131958513743
  0.1874941195580521  0.4577534940823637  0.6982370517832089
  0.0623400191042423  0.8742608358956157  0.6539113502558033
  0.3126531593574717  0.5377020849163550  0.3899847583533023
  0.5627642028350243  0.3741461828172960  0.6537655665451121
  0.3123925762118540  0.5411523829773964  0.7425198943280793
  0.0621803493353134  0.2054307343805971  0.4786734786652713
  0.0622555612758856  0.5362594192263211  0.1263056965970095
  0.9370221048445384  0.2865570094618824  0.1262889747660360
  0.6875715549759045  0.2926738134137228  0.8736715341413396
  0.8125367232446604  0.7035113174099618  0.3460753449421827
  0.3125399989875921  0.2067423457967693  0.5648841618614940
  0.3127544492482892  0.8726419266632124  0.5212286441840329
  0.8124739530230582  0.8714328892045083  0.4348281266121776
  0.1876736908625820  0.1239301358198463  0.6538542690592023
  0.4379804376118324  0.1222719578016683  0.5213965855591691
  0.9379279925075700  0.4564061557055555  0.5651618724258131
  0.9373092024345923  0.1212547031902945  0.4348484210599292
  0.3125362423176253  0.2041158068916513  0.3461120891430752
  0.4377531151475423  0.6215734195617307  0.4347621968797978
  0.0620173437446458  0.3748427516662275  0.7866944186012855
  0.3127387359237847  0.0365470849026427  0.2575618043416447
  0.1878390066175194  0.7866920564077288  0.1263211924825325
  0.5622516577717370  0.0360602381207544  0.1263544824038492
  0.1876786439878533  0.2904292781305228  0.6099095024397173
  0.3120097130035400  0.5413132424214125  0.8736315575056243
  0.4377491640835648  0.6252881228911361  0.7866733014765677
  0.5621455270162427  0.7029765154369432  0.2133035187245769
  0.0624564086034781  0.3697672447850763  0.1684738500846470
  0.0622164605789859  0.2032417591983857  0.2132670075473743
  0.8122960349492999  0.3713526939788217  0.4347859538567286
  0.1874196931791828  0.2921567005945931  0.8737227100035049
  0.6875251863490686  0.1220383061806181  0.4348419461765922
  0.9375704736046330  0.4539096473727839  0.3461071372214484
  0.4371397378499833  0.2866081040633111  0.2575526793978389
  0.5622604504150917  0.5367308121071946  0.2575670050813877
  0.4375795450564882  0.4527524245784832  0.2132718570222992
  0.3126827365094833  0.3726443433910776  0.5213974351703980
  0.0622812156605751  0.3739061319473740  0.6537707128244987
  0.4369971328092697  0.9556320520466230  0.4785562784143160
  0.5623693087297759  0.8695565264774968  0.1684994764060327
  0.5623492798013443  0.3697891905020487  0.3016873587128443
  0.6875408200148168  0.2905340139439374  0.6098744739591179
  0.1871163053799569  0.9581181539242459  0.8318071925610021
  0.8129733635583342  0.7060272198384250  0.5653343009633789
  0.4373457507326551  0.4565503351213195  0.5654036617143168
  0.4374161040093498  0.7870948805677452  0.3899624201804002
  0.6877054501827161  0.6234631327759124  0.6538613920718820
  0.1874004667067622  0.6226391404516697  0.5213636690951452
  0.3129155008589742  0.8701489538895679  0.3015548798231407
  0.1876160317472862  0.1224017514637552  0.5213898977007538
  0.5622834843068459  0.2035929511110396  0.3461435250101390
  0.3126150707479031  0.7088647054833178  0.8316164219078905
  0.1876134217552553  0.9575920849356068  0.6983522641258605
  0.9372220591257140  0.2870305018900711  0.3899752556383891
  0.5625623678106512  0.8715958176051852  0.4347711938055867
  0.8125177995421538  0.5418961967726039  0.8736995019572930
  0.6873448172752097  0.6194054256154699  0.3016161162549515
  0.4374940440353984  0.4582096013402245  0.8315006301856240
  0.0624549514328378  0.0361396297360976  0.1262758094710718
  0.0621916746341599  0.0368278899768104  0.2574510556192689
  0.0627544285049368  0.7081919689046818  0.8316242230657426
  0.8123179727310733  0.7080158902371484  0.8315508477256480
  0.6875694678288379  0.1201017846737265  0.3017255528313894
  0.6873427559513183  0.2858380614185764  0.1263448948292130
  0.6872275270751251  0.2864204503991821  0.2574942068172860
  0.6874150744050450  0.1199900184507813  0.1684344385341166
  0.8126028315455125  0.8699503955071637  0.1683723239821425
  0.4376774827123494  0.9579070207752418  0.6982229604167702
  0.6869422851061435  0.7855813600587337  0.1263104054703732
  0.3128450313193408  0.3741888981515068  0.6537654954954901
  0.8122102272390761  0.8748089736865514  0.7867540643551550
  0.8124609636459578  0.0420642032476024  0.8735879145418147
  0.9379893343079317  0.9562923922888056  0.5652758862128627
  0.6873548749690428  0.6252262176301283  0.7866733529040524
  0.1880125139114445  0.2866853626970544  0.3900215808739714
  0.8127490108169116  0.2063907233208692  0.5654267004794408
  0.6878606564894139  0.4583308329419854  0.8314655653553849
  0.4379535828857078  0.6222658981026591  0.5213253576157729
  0.9372382691383806  0.9541714977151794  0.3461871593610252
  0.3128517393195146  0.5409512934360405  0.6098417198510392
  0.9374401837365345  0.4575158897001587  0.6982282773723743
  0.5628064371634319  0.2029298386019990  0.2133638369309478
  0.3125842981479485  0.0404039005803766  0.6099114911419443
  0.9372633795251002  0.7865464950414025  0.1262852871329636
  0.0622212342050624  0.8699503227993595  0.1684492217925019
  0.0628845095033970  0.5363679958031152  0.2575292568150679
  0.1873747647639638  0.4553088478499538  0.4786037902008810
  0.8127741530788469  0.7048059724982385  0.4785637424259686
  0.5629843391997847  0.5416825223506477  0.8736003561769323
  0.4378177420321813  0.1255942027438805  0.7866470452729857
  0.6876010118240111  0.6220152813180085  0.4347826947002829
  0.8123660824497742  0.5359763497348840  0.1263855272752007
  0.3129180836588692  0.0379145902789550  0.3901249590781434
  0.1875659063328028  0.4542550261078814  0.3460558537295598
  0.8126645604321623  0.2036628305436164  0.3461837753834413
  0.3129721698191466  0.7061792609165888  0.5650261860116466
  0.8124151552824987  0.3739474937996281  0.6538469510469694
  0.5624142398506986  0.7050393548761643  0.4784739522822283
  0.5625713963986232  0.7031167309132494  0.3460353553487243
  0.5626151976403220  0.5400026902179396  0.6097848756073145
  0.4371755035846527  0.9559380871925187  0.5654089514569856
  0.9371280023010188  0.1248539514584832  0.7866847127775476
  0.9374666663995624  0.1242734222021744  0.6539560872377295
  0.9374345659885264  0.2899702662996639  0.6098423672356580
  0.4375548499648698  0.7859820142425419  0.1263259724512156
  0.1873701261340700  0.1214656277848800  0.4348087277918841
  0.3124633611433910  0.2030485129110220  0.2133353440700361
  0.1874407137270739  0.2862924839828205  0.1263443993236373
  0.1874701130332081  0.6213861109809290  0.4347597342343334
  0.8125600385057125  0.5377995836711230  0.3900257808620404
  0.3129140829293360  0.3717307702205621  0.4347895343113983
  0.6874611744500816  0.7918511105811039  0.8736143173412071
  0.4377825827369968  0.6197562386538397  0.3016969317921325
  0.1877056806322737  0.6199924969990076  0.3015445959947197
  0.0627282513501529  0.7029472537798906  0.2132419673243627
  0.1876809025287521  0.9528392532162909  0.2133031367679863
  0.3126629809720333  0.3701217458189912  0.3017347591955348
  0.0626408228628661  0.2082835385971090  0.8316384500632887
  0.8124293572611893  0.3750363952796816  0.7867096934491572
  0.1875255159072163  0.1195888360114884  0.1685692014448098
  0.8120364042264764  0.0375831091554380  0.3901809796776449
  0.5625183860232489  0.7088514616194266  0.8314847605849790
  0.3122247753034378  0.8695706910112841  0.1684259135491619
  0.1876171239882557  0.1199610066411941  0.3017434020013987
  0.9376539050072896  0.6194852714525025  0.1684182530939626
  0.8121746524410889  0.0414820845872258  0.7425603312146648
  0.5625558541938204  0.7059583153036005  0.5653136953496113
  0.8125573852517282  0.8744573955625961  0.6537652038020989
  0.4372217455586653  0.1204138962504735  0.3017979088312269
  0.5624519777301972  0.3714126470117801  0.4347522910846481
  0.5622529242347625  0.0412055713440805  0.7425519820476963
  0.0626789157411403  0.5404803113859615  0.6098471808250654
  0.0620697883993676  0.0415122631487988  0.8737477904033489
  0.3132304655021402  0.2078152584592734  0.6983213492628261
  0.1875346153122354  0.9550561150209004  0.4786292565868143
  0.1873578770645098  0.7911405218362159  0.8738054410696355
  0.9372741354863322  0.9578497695028438  0.6983562025170326
  0.4374449520266396  0.6241877359122896  0.6538772458807457
  0.5619933907739354  0.0404585620109935  0.6099903646011745
  0.3119419192329153  0.5365760215933764  0.2574783509240319
  0.6869681189013671  0.9527288271848227  0.2133053418213427
  0.9377517354853535  0.1201602868616660  0.3016979392835137
  0.3125909823295805  0.8749413061169515  0.7867954925275684
  0.9370679652728664  0.6201220581963912  0.3017988083569871
  0.8122201672409226  0.0403232114987707  0.6100499887259498
  0.0619973282500572  0.8715210743982924  0.4348601431694818
  0.5623331559700820  0.2053179820538797  0.4785647101113280
  0.8122227746408850  0.2028688840614327  0.2133256891995997
  0.1875167751592329  0.9560986060045888  0.5652743885730962
  0.3127964129530134  0.7073073957212245  0.6982613644524214
  0.9372347902653253  0.1223137520138171  0.5214706010655291
  0.9372731324585636  0.7912100972716644  0.7424872784252393
  0.5626287444100795  0.5412065935647767  0.7424738000470535
  0.9381655910663834  0.9557843756778184  0.4786325396502876
  0.0626178324875180  0.3704203715852780  0.3016550558823319
  0.8125950266570077  0.2084366951131255  0.8316124531866284
  0.8128802224602795  0.3719830526946372  0.5213090966562042
  0.4373780346595569  0.2908072882912661  0.7424096349426464
  0.5627035475598124  0.5375547626220453  0.3899938222883715
  0.5626983468831757  0.8746630950028351  0.7866325482503985
  0.8121822803646012  0.7073480938363158  0.6982604129762461
  0.6875404573628345  0.6231700519586717  0.5213283414931694
  0.4375572183101410  0.1197072146801271  0.1685463653958897
  0.9380318470216297  0.4558015829753634  0.4786211484698611
  0.5625014781131703  0.5357531380114783  0.1263658859978428
  0.0623901416856163  0.2080758245650517  0.6983034166692502
  0.4375087621251743  0.9536060883260248  0.3461640861989749
  0.6876529279649873  0.9581567728846555  0.8315059518777921
  0.1870448163352433  0.4583060478855081  0.8315199804604950
  0.4374704320789904  0.4536665672504636  0.3461174782961270
  0.6873662808606767  0.6200911106329496  0.1685796237523643
  0.5624938034274715  0.2078301638831770  0.6983416284304987
  0.9370688740417018  0.4531228554305805  0.2132836553254858
  0.4370892633613535  0.6197299056655924  0.1684713602508786
  0.1873373393260085  0.7860378788937314  0.2573950832440017
  0.6877124345643497  0.7916287540654330  0.7424861795504207
  0.6873974197629859  0.4529757041110519  0.3462033911697403
  0.3122376054527334  0.3696333051300607  0.1685021909987661
  0.0624593646707889  0.2041888486780591  0.3462014435565611
  0.9376432487525537  0.2916863236984130  0.7425080539170675
  0.5624858131365474  0.8701405663748506  0.3016958261093329
  0.8124784151280567  0.7033241715080282  0.2132512755253810
  0.5626103382711388  0.3753518915576148  0.7867385587446127
  0.6872446136731722  0.7876402571889324  0.3900686648800167
  0.9374348436529378  0.4579243695216495  0.8314824698588518
  0.6872715082436327  0.2879221344552884  0.3900774136959947
  0.0624460467541430  0.7043016162207294  0.3460714757636505
  0.8124506858969878  0.3700076738682863  0.1685056458729315
  0.3127318846164805  0.2078152036391124  0.8316751963460381
  0.9369842510072333  0.7906369638934572  0.6098768902277102
  0.3132175067545677  0.0419212814139216  0.8739190609787207
  0.6877117686399714  0.7899756285187113  0.6098823452137930
  0.9376933876636595  0.9580552756266841  0.8315718394311397
  0.4374437411365857  0.4574869460157702  0.6983507594825648
  0.5622563317347624  0.2081643956222119  0.8314986725298883
  0.0622508062629519  0.7061277675898484  0.5650956109386716
  0.3124995688186528  0.7039101325770986  0.3461516326469280
  0.9374186033235568  0.6250463838669118  0.7867803987492823
  0.5622887344967257  0.3699715495692705  0.1685007373498209
  0.1875345713018708  0.9538067471079268  0.3461014825217213
  0.5620627879900055  0.3720926320840987  0.5212607883441369
  0.8122125353557186  0.3700116455211762  0.3016715461752786
  0.4377362028147006  0.7920088153220954  0.8737325056479041
  0.6874774619507958  0.1243888518887257  0.6539038498961041
  0.5620615845666589  0.8720983757044908  0.5213509099439410
  0.9373436154338490  0.6211822600003150  0.4347677866831984
  0.3124508428954869  0.5359383955693720  0.1263255471026870
  0.0626321330000009  0.5371432804221044  0.3900675424062450
  0.6873889487445930  0.9533531233890484  0.3462595832334128
  0.5627225177791507  0.0376132894331725  0.3900680596952564
  0.6877903547095541  0.2910738290084038  0.7424903015829389
  0.9374500579974399  0.7862077378344743  0.2574029127252389
  0.5623718282778682  0.7078130682446500  0.6984059491861515
  0.8130542539701097  0.2051184266548551  0.4785614077546581
  0.0623367581420059  0.8724625420183496  0.5213972683276136
  0.8120388477190567  0.2079002345885006  0.6985099746293525
  0.4376149519349072  0.1243045971896228  0.6538348599375483
  0.3124148229066805  0.7023267290584762  0.2131984850796487
  0.1874498805671272  0.2870460024935718  0.2575145397005402
  0.1871943570048543  0.2908576529943517  0.7424647463159969
  0.3127912472033184  0.7052745768581146  0.4785999886501751
  0.6871490039420828  0.4529840875832133  0.2133264007350908
  0.4379149519086938  0.1213250244069370  0.4347235765535383
  0.9377494137488489  0.2862972087525344  0.2574904151981135
  0.4372577973845181  0.4557452306725807  0.4785735386395306
  0.4371888074516329  0.7864208317390984  0.2575289401806796
  0.0628940054988080  0.0413322268164949  0.7426479245748121
  0.4376474377316128  0.9523741109315959  0.2133182529600715
  0.1873806865484959  0.7873838658548674  0.3900175087970987
  0.6874847705391398  0.9578598131731733  0.6983726461475459
  0.4380007263008153  0.7905159203246733  0.6098563663032256
  0.1876529636387623  0.6235859241731426  0.6537627504800390
  0.9379266366897950  0.6233876258310236  0.6537520725565893
  0.8118861712029279  0.8701441824670257  0.3016192978507571
  0.0622429594951467  0.7053813369398625  0.4785728958235317
  0.6873965468228556  0.1232995425339024  0.5213181039315105
  0.5626406354261766  0.2063074539875965  0.5654784803417576
  0.8119249406800126  0.5401541165681454  0.6099342166230907
  0.0628999183737690  0.0411872950622661  0.6099882383320284
  0.0634663238267122  0.5411808314753780  0.7427332621243306
  0.9374931604912269  0.7865859438610259  0.3899721982059836
  0.3121001069718116  0.8743244922674850  0.6538719823527713
  0.0621086753259764  0.8703870815600330  0.3016195098562901
  0.6877860220024191  0.7858855663338671  0.2574492744382654
  0.0624403091495981  0.8737202276009705  0.7864960827012840
  0.3125991416656587  0.8720268553460977  0.4347259651124818
  0.0625267130567182  0.3711527099159188  0.4347066888198807
  0.3126369440377192  0.2054068975448222  0.4786397946179469
  0.0630975993591414  0.0375853187468985  0.3900360312856149
  0.8118968473180764  0.5411821627912409  0.7423900282449208
  0.0626013181658337  0.7081760178088634  0.6983793698528427
  0.6874055668933768  0.9561320164713166  0.5649294443646740
  0.1875787361274308  0.4526364415537172  0.2135089471429349
  0.4377441809203666  0.7919011170872962  0.7425407363204202
  0.4372838343731521  0.9588119303430763  0.8320911249666635
  0.8137239427906835  0.0371170153397470  0.2576207667500723
  0.1876768746289971  0.7898239933166942  0.6097196425173006
  0.9373771810255543  0.9521647090887109  0.2133878688045211
  0.1881813905369570  0.1250823568782010  0.7865983897725936
  0.5610268198479620  0.0371489987765569  0.2574248054008825
  0.6875264466320219  0.4555162928982805  0.4787077624670515
  0.6872730825408788  0.9554013860603118  0.4788410270565336
 
  0.00000000E+00  0.00000000E+00  0.00000000E+00
  0.00000000E+00  0.00000000E+00  0.00000000E+00
  0.00000000E+00  0.00000000E+00  0.00000000E+00
  0.00000000E+00  0.00000000E+00  0.00000000E+00
  0.00000000E+00  0.00000000E+00  0.00000000E+00
  0.00000000E+00  0.00000000E+00  0.00000000E+00
  0.00000000E+00  0.00000000E+00  0.00000000E+00
  0.00000000E+00  0.00000000E+00  0.00000000E+00
  0.00000000E+00  0.00000000E+00  0.00000000E+00
  0.00000000E+00  0.00000000E+00  0.00000000E+00
  0.00000000E+00  0.00000000E+00  0.00000000E+00
  0.00000000E+00  0.00000000E+00  0.00000000E+00
  0.00000000E+00  0.00000000E+00  0.00000000E+00
  0.00000000E+00  0.00000000E+00  0.00000000E+00
  0.00000000E+00  0.00000000E+00  0.00000000E+00
  0.00000000E+00  0.00000000E+00  0.00000000E+00
  0.00000000E+00  0.00000000E+00  0.00000000E+00
  0.00000000E+00  0.00000000E+00  0.00000000E+00
  0.00000000E+00  0.00000000E+00  0.00000000E+00
  0.00000000E+00  0.00000000E+00  0.00000000E+00
  0.00000000E+00  0.00000000E+00  0.00000000E+00
  0.00000000E+00  0.00000000E+00  0.00000000E+00
  0.00000000E+00  0.00000000E+00  0.00000000E+00
  0.00000000E+00  0.00000000E+00  0.00000000E+00
  0.00000000E+00  0.00000000E+00  0.00000000E+00
  0.00000000E+00  0.00000000E+00  0.00000000E+00
  0.00000000E+00  0.00000000E+00  0.00000000E+00
  0.00000000E+00  0.00000000E+00  0.00000000E+00
  0.00000000E+00  0.00000000E+00  0.00000000E+00
  0.00000000E+00  0.00000000E+00  0.00000000E+00
  0.00000000E+00  0.00000000E+00  0.00000000E+00
  0.00000000E+00  0.00000000E+00  0.00000000E+00
  0.00000000E+00  0.00000000E+00  0.00000000E+00
  0.00000000E+00  0.00000000E+00  0.00000000E+00
  0.00000000E+00  0.00000000E+00  0.00000000E+00
  0.00000000E+00  0.00000000E+00  0.00000000E+00
  0.00000000E+00  0.00000000E+00  0.00000000E+00
  0.00000000E+00  0.00000000E+00  0.00000000E+00
  0.00000000E+00  0.00000000E+00  0.00000000E+00
  0.00000000E+00  0.00000000E+00  0.00000000E+00
  0.00000000E+00  0.00000000E+00  0.00000000E+00
  0.00000000E+00  0.00000000E+00  0.00000000E+00
  0.00000000E+00  0.00000000E+00  0.00000000E+00
  0.00000000E+00  0.00000000E+00  0.00000000E+00
  0.00000000E+00  0.00000000E+00  0.00000000E+00
  0.00000000E+00  0.00000000E+00  0.00000000E+00
  0.00000000E+00  0.00000000E+00  0.00000000E+00
  0.00000000E+00  0.00000000E+00  0.00000000E+00
  0.00000000E+00  0.00000000E+00  0.00000000E+00
  0.00000000E+00  0.00000000E+00  0.00000000E+00
  0.00000000E+00  0.00000000E+00  0.00000000E+00
  0.00000000E+00  0.00000000E+00  0.00000000E+00
  0.00000000E+00  0.00000000E+00  0.00000000E+00
  0.00000000E+00  0.00000000E+00  0.00000000E+00
  0.00000000E+00  0.00000000E+00  0.00000000E+00
  0.00000000E+00  0.00000000E+00  0.00000000E+00
  0.00000000E+00  0.00000000E+00  0.00000000E+00
  0.00000000E+00  0.00000000E+00  0.00000000E+00
  0.00000000E+00  0.00000000E+00  0.00000000E+00
  0.00000000E+00  0.00000000E+00  0.00000000E+00
  0.00000000E+00  0.00000000E+00  0.00000000E+00
  0.00000000E+00  0.00000000E+00  0.00000000E+00
  0.00000000E+00  0.00000000E+00  0.00000000E+00
  0.00000000E+00  0.00000000E+00  0.00000000E+00
  0.00000000E+00  0.00000000E+00  0.00000000E+00
  0.00000000E+00  0.00000000E+00  0.00000000E+00
  0.00000000E+00  0.00000000E+00  0.00000000E+00
  0.00000000E+00  0.00000000E+00  0.00000000E+00
  0.00000000E+00  0.00000000E+00  0.00000000E+00
  0.00000000E+00  0.00000000E+00  0.00000000E+00
  0.00000000E+00  0.00000000E+00  0.00000000E+00
  0.00000000E+00  0.00000000E+00  0.00000000E+00
  0.00000000E+00  0.00000000E+00  0.00000000E+00
  0.00000000E+00  0.00000000E+00  0.00000000E+00
  0.00000000E+00  0.00000000E+00  0.00000000E+00
  0.00000000E+00  0.00000000E+00  0.00000000E+00
  0.00000000E+00  0.00000000E+00  0.00000000E+00
  0.00000000E+00  0.00000000E+00  0.00000000E+00
  0.00000000E+00  0.00000000E+00  0.00000000E+00
  0.00000000E+00  0.00000000E+00  0.00000000E+00
  0.00000000E+00  0.00000000E+00  0.00000000E+00
  0.00000000E+00  0.00000000E+00  0.00000000E+00
  0.00000000E+00  0.00000000E+00  0.00000000E+00
  0.00000000E+00  0.00000000E+00  0.00000000E+00
  0.00000000E+00  0.00000000E+00  0.00000000E+00
  0.00000000E+00  0.00000000E+00  0.00000000E+00
  0.00000000E+00  0.00000000E+00  0.00000000E+00
  0.00000000E+00  0.00000000E+00  0.00000000E+00
  0.00000000E+00  0.00000000E+00  0.00000000E+00
  0.00000000E+00  0.00000000E+00  0.00000000E+00
  0.00000000E+00  0.00000000E+00  0.00000000E+00
  0.00000000E+00  0.00000000E+00  0.00000000E+00
  0.00000000E+00  0.00000000E+00  0.00000000E+00
  0.00000000E+00  0.00000000E+00  0.00000000E+00
  0.00000000E+00  0.00000000E+00  0.00000000E+00
  0.00000000E+00  0.00000000E+00  0.00000000E+00
  0.00000000E+00  0.00000000E+00  0.00000000E+00
  0.00000000E+00  0.00000000E+00  0.00000000E+00
  0.00000000E+00  0.00000000E+00  0.00000000E+00
  0.00000000E+00  0.00000000E+00  0.00000000E+00
  0.00000000E+00  0.00000000E+00  0.00000000E+00
  0.00000000E+00  0.00000000E+00  0.00000000E+00
  0.00000000E+00  0.00000000E+00  0.00000000E+00
  0.00000000E+00  0.00000000E+00  0.00000000E+00
  0.00000000E+00  0.00000000E+00  0.00000000E+00
  0.00000000E+00  0.00000000E+00  0.00000000E+00
  0.00000000E+00  0.00000000E+00  0.00000000E+00
  0.00000000E+00  0.00000000E+00  0.00000000E+00
  0.00000000E+00  0.00000000E+00  0.00000000E+00
  0.00000000E+00  0.00000000E+00  0.00000000E+00
  0.00000000E+00  0.00000000E+00  0.00000000E+00
  0.00000000E+00  0.00000000E+00  0.00000000E+00
  0.00000000E+00  0.00000000E+00  0.00000000E+00
  0.00000000E+00  0.00000000E+00  0.00000000E+00
  0.00000000E+00  0.00000000E+00  0.00000000E+00
  0.00000000E+00  0.00000000E+00  0.00000000E+00
  0.00000000E+00  0.00000000E+00  0.00000000E+00
  0.00000000E+00  0.00000000E+00  0.00000000E+00
  0.00000000E+00  0.00000000E+00  0.00000000E+00
  0.00000000E+00  0.00000000E+00  0.00000000E+00
  0.00000000E+00  0.00000000E+00  0.00000000E+00
  0.00000000E+00  0.00000000E+00  0.00000000E+00
  0.00000000E+00  0.00000000E+00  0.00000000E+00
  0.00000000E+00  0.00000000E+00  0.00000000E+00
  0.00000000E+00  0.00000000E+00  0.00000000E+00
  0.00000000E+00  0.00000000E+00  0.00000000E+00
  0.00000000E+00  0.00000000E+00  0.00000000E+00
  0.00000000E+00  0.00000000E+00  0.00000000E+00
  0.00000000E+00  0.00000000E+00  0.00000000E+00
  0.00000000E+00  0.00000000E+00  0.00000000E+00
  0.00000000E+00  0.00000000E+00  0.00000000E+00
  0.00000000E+00  0.00000000E+00  0.00000000E+00
  0.00000000E+00  0.00000000E+00  0.00000000E+00
  0.00000000E+00  0.00000000E+00  0.00000000E+00
  0.00000000E+00  0.00000000E+00  0.00000000E+00
  0.00000000E+00  0.00000000E+00  0.00000000E+00
  0.00000000E+00  0.00000000E+00  0.00000000E+00
  0.00000000E+00  0.00000000E+00  0.00000000E+00
  0.00000000E+00  0.00000000E+00  0.00000000E+00
  0.00000000E+00  0.00000000E+00  0.00000000E+00
  0.00000000E+00  0.00000000E+00  0.00000000E+00
  0.00000000E+00  0.00000000E+00  0.00000000E+00
  0.00000000E+00  0.00000000E+00  0.00000000E+00
  0.00000000E+00  0.00000000E+00  0.00000000E+00
  0.00000000E+00  0.00000000E+00  0.00000000E+00
  0.00000000E+00  0.00000000E+00  0.00000000E+00
  0.00000000E+00  0.00000000E+00  0.00000000E+00
  0.00000000E+00  0.00000000E+00  0.00000000E+00
  0.00000000E+00  0.00000000E+00  0.00000000E+00
  0.00000000E+00  0.00000000E+00  0.00000000E+00
  0.00000000E+00  0.00000000E+00  0.00000000E+00
  0.00000000E+00  0.00000000E+00  0.00000000E+00
  0.00000000E+00  0.00000000E+00  0.00000000E+00
  0.00000000E+00  0.00000000E+00  0.00000000E+00
  0.00000000E+00  0.00000000E+00  0.00000000E+00
  0.00000000E+00  0.00000000E+00  0.00000000E+00
  0.00000000E+00  0.00000000E+00  0.00000000E+00
  0.00000000E+00  0.00000000E+00  0.00000000E+00
  0.00000000E+00  0.00000000E+00  0.00000000E+00
  0.00000000E+00  0.00000000E+00  0.00000000E+00
  0.00000000E+00  0.00000000E+00  0.00000000E+00
  0.00000000E+00  0.00000000E+00  0.00000000E+00
  0.00000000E+00  0.00000000E+00  0.00000000E+00
  0.00000000E+00  0.00000000E+00  0.00000000E+00
  0.00000000E+00  0.00000000E+00  0.00000000E+00
  0.00000000E+00  0.00000000E+00  0.00000000E+00
  0.00000000E+00  0.00000000E+00  0.00000000E+00
  0.00000000E+00  0.00000000E+00  0.00000000E+00
  0.00000000E+00  0.00000000E+00  0.00000000E+00
  0.00000000E+00  0.00000000E+00  0.00000000E+00
  0.00000000E+00  0.00000000E+00  0.00000000E+00
  0.00000000E+00  0.00000000E+00  0.00000000E+00
  0.00000000E+00  0.00000000E+00  0.00000000E+00
  0.00000000E+00  0.00000000E+00  0.00000000E+00
  0.00000000E+00  0.00000000E+00  0.00000000E+00
  0.00000000E+00  0.00000000E+00  0.00000000E+00
  0.00000000E+00  0.00000000E+00  0.00000000E+00
  0.00000000E+00  0.00000000E+00  0.00000000E+00
  0.00000000E+00  0.00000000E+00  0.00000000E+00
  0.00000000E+00  0.00000000E+00  0.00000000E+00
  0.00000000E+00  0.00000000E+00  0.00000000E+00
  0.00000000E+00  0.00000000E+00  0.00000000E+00
  0.00000000E+00  0.00000000E+00  0.00000000E+00
  0.00000000E+00  0.00000000E+00  0.00000000E+00
  0.00000000E+00  0.00000000E+00  0.00000000E+00
  0.00000000E+00  0.00000000E+00  0.00000000E+00
  0.00000000E+00  0.00000000E+00  0.00000000E+00
  0.00000000E+00  0.00000000E+00  0.00000000E+00
  0.00000000E+00  0.00000000E+00  0.00000000E+00
  0.00000000E+00  0.00000000E+00  0.00000000E+00
  0.00000000E+00  0.00000000E+00  0.00000000E+00
  0.00000000E+00  0.00000000E+00  0.00000000E+00
  0.00000000E+00  0.00000000E+00  0.00000000E+00
  0.00000000E+00  0.00000000E+00  0.00000000E+00
  0.00000000E+00  0.00000000E+00  0.00000000E+00
  0.00000000E+00  0.00000000E+00  0.00000000E+00
  0.00000000E+00  0.00000000E+00  0.00000000E+00
  0.00000000E+00  0.00000000E+00  0.00000000E+00
  0.00000000E+00  0.00000000E+00  0.00000000E+00
  0.00000000E+00  0.00000000E+00  0.00000000E+00
  0.00000000E+00  0.00000000E+00  0.00000000E+00
  0.00000000E+00  0.00000000E+00  0.00000000E+00
  0.00000000E+00  0.00000000E+00  0.00000000E+00
  0.00000000E+00  0.00000000E+00  0.00000000E+00
  0.00000000E+00  0.00000000E+00  0.00000000E+00
  0.00000000E+00  0.00000000E+00  0.00000000E+00
  0.00000000E+00  0.00000000E+00  0.00000000E+00
  0.00000000E+00  0.00000000E+00  0.00000000E+00
  0.00000000E+00  0.00000000E+00  0.00000000E+00
  0.00000000E+00  0.00000000E+00  0.00000000E+00
  0.00000000E+00  0.00000000E+00  0.00000000E+00
  0.00000000E+00  0.00000000E+00  0.00000000E+00
  0.00000000E+00  0.00000000E+00  0.00000000E+00
  0.00000000E+00  0.00000000E+00  0.00000000E+00
  0.00000000E+00  0.00000000E+00  0.00000000E+00
  0.00000000E+00  0.00000000E+00  0.00000000E+00
  0.00000000E+00  0.00000000E+00  0.00000000E+00
  0.00000000E+00  0.00000000E+00  0.00000000E+00
  0.00000000E+00  0.00000000E+00  0.00000000E+00
  0.00000000E+00  0.00000000E+00  0.00000000E+00
  0.00000000E+00  0.00000000E+00  0.00000000E+00
  0.00000000E+00  0.00000000E+00  0.00000000E+00
  0.00000000E+00  0.00000000E+00  0.00000000E+00
  0.00000000E+00  0.00000000E+00  0.00000000E+00
  0.00000000E+00  0.00000000E+00  0.00000000E+00
  0.00000000E+00  0.00000000E+00  0.00000000E+00
  0.00000000E+00  0.00000000E+00  0.00000000E+00
  0.00000000E+00  0.00000000E+00  0.00000000E+00
  0.00000000E+00  0.00000000E+00  0.00000000E+00
  0.00000000E+00  0.00000000E+00  0.00000000E+00
  0.00000000E+00  0.00000000E+00  0.00000000E+00
  0.00000000E+00  0.00000000E+00  0.00000000E+00
  0.00000000E+00  0.00000000E+00  0.00000000E+00
  0.00000000E+00  0.00000000E+00  0.00000000E+00
  0.00000000E+00  0.00000000E+00  0.00000000E+00
  0.00000000E+00  0.00000000E+00  0.00000000E+00
  0.00000000E+00  0.00000000E+00  0.00000000E+00
  0.00000000E+00  0.00000000E+00  0.00000000E+00
  0.00000000E+00  0.00000000E+00  0.00000000E+00
  0.00000000E+00  0.00000000E+00  0.00000000E+00
  0.00000000E+00  0.00000000E+00  0.00000000E+00
  0.00000000E+00  0.00000000E+00  0.00000000E+00
  0.00000000E+00  0.00000000E+00  0.00000000E+00
  0.00000000E+00  0.00000000E+00  0.00000000E+00
  0.00000000E+00  0.00000000E+00  0.00000000E+00
  0.00000000E+00  0.00000000E+00  0.00000000E+00
  0.00000000E+00  0.00000000E+00  0.00000000E+00