CuInSe2gb                               
   1.00000000000000     
     9.7266780392896699    0.0000000000000000    0.0000000000000000
     0.0000000000000000    8.4235502764570693    0.0000000000000000
     0.0000000000000000    0.0000000000000000   45.0000000000000000
   Fe   Mn
   281     7
Direct
  0.0580959547132071  0.7010316868081786  0.2110871434116218
  0.3161038432147574  0.7199811412270938  0.8758147557076594
  0.6885084368801861  0.9580764384103262  0.6114265430711514
  0.4383144698235082  0.4579917788491744  0.6114859913967791
  0.4365977786823372  0.2871493279444135  0.2555256469819441
  0.0607580332162973  0.3865872512990929  0.8342829430922321
  0.3111216457539562  0.8868347071904639  0.8342095661042956
  0.4423844153024111  0.6265434305137988  0.7003960293921128
  0.0637237081886067  0.2133722775565570  0.7445837342563838
  0.1825872981316685  0.4514094984564059  0.2112704196324264
  0.5639027669976991  0.2091911750886894  0.4778521381226380
  0.0641222968443760  0.8748761191026713  0.5668859260214604
  0.8114813987155122  0.5367773502345148  0.2555602543281130
  0.8099459244692064  0.5303932562379841  0.1245163234389426
  0.4330859286752738  0.9512416371661927  0.2111785175979502
  0.5642772018218343  0.3746255476201825  0.5667763832612033
  0.8118068990759367  0.0420029325313190  0.3884778403500471
  0.6859577259278793  0.7908777348673341  0.5221943140485682
  0.4389009645196622  0.4590488326331414  0.4778286614623228
  0.4381412819024114  0.9630344590334392  0.7444622806109603
  0.4390782852792599  0.6248039286016877  0.5668180746589185
  0.5674101469391422  0.8767929017786527  0.7002649481174616
  0.3105790512261100  0.0306317894362513  0.1241376516557836
  0.6866654937415346  0.9580350777401554  0.3440618230198099
  0.6875690227075710  0.7796484828303174  0.1246709034495250
  0.0576693266036146  0.3733230029433229  0.2996290547730848
  0.6895682425758674  0.4717002188851666  0.8754754613117907
  0.4330385467096239  0.4513220593545192  0.2111554505138977
  0.8107937983837349  0.3754451099859223  0.4330167918747129
  0.5633414216387767  0.7080623438186503  0.6115109912547017
  0.5629073534030370  0.5413809491725132  0.6558200019479523
  0.8144766081240993  0.8634894316494475  0.1660819501669241
  0.5612258904473949  0.5370501003483942  0.2555519807312872
  0.6867079335670383  0.4581384518477249  0.3440503268582992
  0.1883838455255744  0.6127615262187985  0.1662096960273075
  0.1918556547437364  0.7988534708287315  0.7887913758605000
  0.4425475256579749  0.1266092484069166  0.7003919838414181
  0.9324134007203934  0.6231507290877140  0.2996275374424957
  0.3146539072969621  0.2194771669980049  0.8757226851097130
  0.3141061776781076  0.8747473794552018  0.5667851574029544
  0.8161669426344360  0.2197091216969828  0.8757452354464931
  0.8129043514739578  0.5418365811141597  0.6557749565733734
  0.5599995581304447  0.5294165108398735  0.1244542980124981
  0.5667905840448748  0.0498141026689380  0.7889813976284930
  0.1868064802342135  0.2873413917956701  0.2554797036796344
  0.8106920952834843  0.8755372747983593  0.4330000101194558
  0.5672365591449244  0.3766706507836754  0.7004351119012090
  0.0609895076015541  0.0291865256633353  0.1244651390755021
  0.3129651877864105  0.5413452098791671  0.6557918115824756
  0.5616723915349013  0.2081060853912132  0.3441795860746044
  0.1883723884288497  0.9579971740520501  0.6114486553667891
  0.3076598698447496  0.3736321530303205  0.2996488640829559
  0.4379024752851708  0.7915968515189065  0.6558466007365017
  0.1918247632811816  0.2982258309712615  0.7888038111062131
  0.0637812150560141  0.3637107327220427  0.1660277731863447
  0.6921630521538069  0.6266599116195596  0.7003424546370908
  0.3115530457733084  0.5417248744860598  0.3884720432839845
  0.0653620106671318  0.7195461200348243  0.8758931878771330
  0.9362967181732954  0.6368336155724628  0.8342816331551938
  0.3176143231212745  0.5498681225143136  0.7889210080365546
  0.3075279959339812  0.2004584915332603  0.2110807756005843
  0.0639462732256738  0.7088743848934355  0.4778890530674585
  0.5573509665839157  0.2009417676310161  0.2110850832148639
  0.3137399527440310  0.2136465554501533  0.7444240906559010
  0.0674247324501952  0.3768701491807741  0.7003552185959526
  0.1863744130091628  0.6367432957229480  0.8340573399924166
  0.0670636363388361  0.0495788360651776  0.7889658916554019
  0.4389302350387490  0.1246515935865644  0.5668238545074704
  0.9380634275186331  0.2918250136442547  0.6557256862317803
  0.8075228076473661  0.2008243623480536  0.2110638941715181
  0.9326116504899198  0.9516090851684652  0.2113068850480224
  0.9390757102531756  0.6249343764509097  0.5668003521636268
  0.8106766820012578  0.3867683666093723  0.8342400952753006
  0.1922864924597901  0.6267625146576502  0.7003764747504557
  0.8112670984737942  0.8865808337678732  0.8341519448488790
  0.6879991136515695  0.2914728632632056  0.6558209588164439
  0.3133838607967827  0.2080629553718633  0.6115187903314437
  0.4383018622020073  0.4628805713091489  0.7444036541657725
  0.4365207961200879  0.7915785878794993  0.3885064655181790
  0.6878115836471427  0.9629981970414934  0.7444765523803220
  0.8073969275336496  0.7009459746261466  0.2111125307340372
  0.8132563796509071  0.7081406149709949  0.6114387921624879
  0.4369858094396968  0.7794466858087472  0.1242963754091952
  0.3131530709459008  0.7128364967668266  0.7444734432389500
  0.3171847432650104  0.0492251463556346  0.7888548345151192
  0.8117649750405709  0.5418992296997763  0.3884650097737553
  0.6860389889971257  0.2910075218126594  0.5221858692049988
  0.6922318617782577  0.7995529457594185  0.7888829963641584
  0.1870019109463113  0.7873415486791628  0.2555443799379711
  0.6890382452872755  0.1133779291412262  0.1661484060104662
  0.6888172107518632  0.9592206229312173  0.4778857286127976
  0.9370696568247691  0.9586100314518111  0.3440826948435719
  0.8109498359240301  0.0404798930104207  0.5221332164423881
  0.6849405769835578  0.6250993001964866  0.4330385031172177
  0.4369943721353052  0.4585318965973345  0.3441699789173268
  0.8131844714132410  0.2134164686293867  0.7444883477106287
  0.4386622508463019  0.9710837624210955  0.8755228517069169
  0.5641974400398990  0.8744971446677826  0.5667642727743464
  0.8102765321509736  0.0303428650353744  0.1244706207136121
  0.4325401595713224  0.6233338031646972  0.2996402619579162
  0.8152180960553971  0.7201328953579188  0.8758641759532475
  0.6882351573899533  0.4580471904626938  0.6114072672733901
  0.5606228124545739  0.3868073225631420  0.8340506139730035
  0.8076532534320157  0.3734631049232765  0.2995820286069148
  0.1864899101232272  0.2917552154145117  0.3884742969062801
  0.8166244185975049  0.5498221998209438  0.7890007907908203
  0.1861548594646988  0.7905919020807872  0.5222242600599725
  0.3075942691401760  0.8735160286832687  0.2996408765588349
  0.1826240565711700  0.9515126943627914  0.2112667625411649
  0.1886582587623428  0.4632288218150519  0.7444854488184028
  0.4359152571550063  0.2907232885789844  0.5220907432010401
  0.0619756978676867  0.7085413551827076  0.3441708061215130
  0.1881322184675476  0.7912269191342575  0.6557159789542791
  0.4413069500638409  0.7995440315927297  0.7887797468963716
  0.6849750476955353  0.1251494733088002  0.4330541307236424
  0.9361631390542550  0.7902491726492968  0.5222208779769029
  0.6888841468824159  0.6131252337244624  0.1661446170006193
  0.8120153319986099  0.7084649325529345  0.3442080863837467
  0.9384183419411896  0.4631878544980015  0.7444384891124551
  0.1869391792822124  0.4582347580503600  0.3441470694158190
  0.5672313415903040  0.5500663509317023  0.7888259168289196
  0.5654825755738786  0.3639562039066750  0.1658331985857663
  0.5617361380560740  0.7080684191917384  0.3441754734373664
  0.5576170932886045  0.3734595205547750  0.2996236550228563
  0.1887144302533065  0.4713836611631873  0.8755942138659171
  0.1886431486978157  0.1127763202073317  0.1661517781040402
  0.4417419351306596  0.2988711684239287  0.7888187238927382
  0.6866622806816542  0.7872180798862989  0.2554553931422411
  0.9372699728755775  0.1359789388715830  0.8339469984426503
  0.4388401867669730  0.9589753746023594  0.4778107866167956
  0.5655230651331904  0.7194648524844015  0.8757981995241800
  0.1887328668563030  0.4591728430375500  0.4778477953972810
  0.9361426970022521  0.2794914281085423  0.1246273874242814
  0.3115554280137832  0.0417052284150881  0.3884692693116178
  0.0628606813089400  0.0411789896785679  0.6557622560235572
  0.5610261761023300  0.3752677910430098  0.4330353840014867
  0.6876880177845214  0.4626930096910701  0.7444370252794223
  0.5633725944295185  0.2135714913491361  0.7444568835763300
  0.9426265721844641  0.1269149904130150  0.7003841848292934
  0.5630634572542550  0.0411883574668839  0.6558066588283259
  0.5609205373282411  0.5407188474537062  0.5221167071415209
  0.1825559010495424  0.1232369827501227  0.2995948152706581
  0.4386603097404336  0.1123703328188605  0.1660308976637754
  0.6823826330067948  0.6232134835964637  0.2995924629912283
  0.9324669692750364  0.1231464025846161  0.2996277328971482
  0.8141278693682727  0.3747803770891935  0.5668703117349843
  0.0577113466014539  0.8734167529409370  0.2996254572317024
  0.1890164791668879  0.6249318521050716  0.5669008743776732
  0.9414694660496109  0.7984611773451172  0.7888511070609956
  0.3115111307745429  0.3865526936405808  0.8344265498901519
  0.9389807166123979  0.4718445553836179  0.8755186314800235
  0.4366592790427031  0.6375782548522894  0.8340887312567403
  0.0619406608433809  0.2085424750698258  0.3441621920698637
  0.1888314037193872  0.9712344137588579  0.8754674399207746
  0.9363855751793221  0.7792799155363858  0.1246052620705340
  0.6864519890085864  0.7918069531230960  0.3884484184463476
  0.9380700650239340  0.7915216262704627  0.6557679384442903
  0.9384028728706001  0.1134336519409014  0.1661910497153473
  0.4377549453178847  0.2915655550708223  0.6558413247165040
  0.0582290908485652  0.2010013668542547  0.2111213314620148
  0.6828467853515696  0.9513981730387417  0.2112436083322906
  0.1825669038283758  0.6233393084552301  0.2995756989198201
  0.8171034137166816  0.8769123524146401  0.7003329806744976
  0.9426318466731437  0.6267823676313911  0.7004300345952866
  0.1922500865978769  0.1268538141209326  0.7003847582166269
  0.9390571807423299  0.4589456147705057  0.4778411194873537
  0.8132065990967021  0.2078879967154484  0.6114594417304702
  0.1867838705029475  0.6251793512599804  0.4330260007101497
  0.4326608677401743  0.1232557760748071  0.2996572208349907
  0.6822324556804313  0.1231693804588958  0.2995848599331487
  0.5612689047222598  0.5415851060421817  0.3884621411115278
  0.8121407107769700  0.2085492993984205  0.3442021587908288
  0.4377684663277583  0.4720595207740417  0.8754684831447568
  0.5610263358760708  0.8871470497651908  0.8342765700013005
  0.3140185048268461  0.2093433007167328  0.4778574069065807
  0.1886995523326268  0.9589382830188630  0.4778115357699323
  0.0608662577832869  0.8867436021565928  0.8342428379150665
  0.0610303766471424  0.5404695673185422  0.5220812934837812
  0.9390368683535728  0.9589112664716091  0.4778226987599518
  0.0633242623869623  0.7081426588881798  0.6114482573170342
  0.5609495967619287  0.0407411763046693  0.5221281539327081
  0.6918070709110916  0.2988569069557795  0.7886638185118946
  0.8143257679412498  0.3634181269964624  0.1660398306640480
  0.4357393540621762  0.1250193562940196  0.4330072395440105
  0.0638760349431999  0.2089547942851313  0.4779033963463084
  0.3130938220570993  0.0413623805371813  0.6557820664415441
  0.4358650735964941  0.7906067076544835  0.5221087718158679
  0.1863730773633940  0.1367520642392069  0.8341570954578122
  0.1859061860602828  0.2786926461252001  0.1244213114673686
  0.9368525109044730  0.4586554537998068  0.3440842149275341
  0.5653956742553092  0.8640820294166263  0.1658046760194137
  0.3075522585602738  0.7002575589743678  0.2111001935198442
  0.9382227960507930  0.6131959736334188  0.1662044924071078
  0.1883118180754276  0.4579887501210851  0.6114652344507345
  0.0675719528439196  0.8767148209588330  0.7002344975012039
  0.0629846209987990  0.5414731314361373  0.6558914755816049
  0.3103243190421853  0.5306766163411781  0.1240811300528302
  0.9363243983744174  0.7919733518500934  0.3884612138517872
  0.9416254269392957  0.2983387854739013  0.7887670611198644
  0.1879805019465454  0.2916158613561475  0.6558611982032901
  0.9384274152931044  0.9578689853163819  0.6115093360587995
  0.8135733571106074  0.7129289100643920  0.7446106990424169
  0.6867532679815280  0.2872113505065416  0.2554752278828445
  0.0637524400237690  0.7130574520570750  0.7445128190923835
  0.6827286085292331  0.4513746558498763  0.2112368966450234
  0.8138765486238558  0.2089686248307658  0.4778344121453539
  0.5638083245287522  0.7091020736080964  0.4778567149492653
  0.0638107826184770  0.8637172996593057  0.1660379737892282
  0.9360579008776616  0.2906625116699036  0.5222217668783317
  0.6877135939648424  0.7915231786077996  0.6557834847693558
  0.0613414582141366  0.8749284745729886  0.4329833023055926
  0.0655783024167698  0.2190561045719141  0.8757826381806919
  0.8129538699244354  0.0412217222432410  0.6557547552398985
  0.5600506697908724  0.0292997898881633  0.1244453552921637
  0.3106671452822399  0.3750429610061813  0.4330487711133342
  0.3141209814214027  0.3745166150398933  0.5667844732098892
  0.3139300854615011  0.7093177400470662  0.4778480067851603
  0.0611015698193729  0.0405404598984048  0.5220876754550722
  0.3173816707284123  0.8766633479867402  0.7003798341139298
  0.0616354980202282  0.5369716680606554  0.2555726860492065
  0.6859446026962356  0.1373609958893451  0.8339794270382255
  0.8115826546765600  0.0368182051069379  0.2555331828001325
  0.1868025290590482  0.1251668442303958  0.4330033376220014
  0.6923345914466291  0.1265527366440544  0.7003207720366247
  0.1862045759729909  0.2908191071905272  0.5222362586536979
  0.4364631247846358  0.7872022954148530  0.2555294932805118
  0.4384609942885317  0.6123734449441318  0.1660871249427040
  0.0632401772540701  0.2080084895278451  0.6114044038931911
  0.1864671639994311  0.7916045125369322  0.3884755918336825
  0.3111648253162502  0.5408542573150878  0.5221027226183880
  0.8172332589594316  0.3768468072825233  0.7002892683419499
  0.6864590814687892  0.2919184358235687  0.3884425577702937
  0.1891432445884101  0.1247034597297672  0.5668543248062449
  0.6889875300837071  0.9710594074229162  0.8755136723459979
  0.6890350615125028  0.1247628247193295  0.5668713561042136
  0.4368638958231207  0.9586405453756719  0.3441642025775338
  0.1884690023612148  0.9630377420319605  0.7445243186186714
  0.9363459722332018  0.7872699314870650  0.2555710065838562
  0.5610329445508943  0.8752364517027698  0.4330133618156570
  0.3106796902476719  0.8748542941861507  0.4330423333817540
  0.8109666640371597  0.5403548773719894  0.5221406803086647
  0.9326496633322381  0.4513783474999754  0.2112778555380065
  0.3114088031927605  0.5367547418190817  0.2556053794117631
  0.5612892400046354  0.0415882765557883  0.3884593066298821
  0.9382977727026792  0.4578674481518205  0.6114676288206433
  0.0614443760211155  0.0418547719022551  0.3884417523520620
  0.0615322895086916  0.5417891630296008  0.3884497243852973
  0.4366201272854960  0.2916689727551717  0.3884992262095733
  0.6887810585272506  0.4591516580602193  0.4778891324979176
  0.0640913392492247  0.3746535148101712  0.5668998952991919
  0.5573017462685995  0.7007989961687008  0.2111059466139169
  0.9364417670322018  0.2871926105043353  0.2555438018554153
  0.8167172720484925  0.0492469776792946  0.7887730454295285
  0.1869686020705723  0.9581836730984169  0.3441429010347298
  0.5575747458998684  0.8734446120685104  0.2996159361850164
  0.0611957962042606  0.3750257174793283  0.4329743588602667
  0.3118371386297504  0.7080341488983513  0.3441708228083707
  0.3117985041787799  0.2080061759879584  0.3441641299206408
  0.9391630380489555  0.1249197407590821  0.5668005134968536
  0.4380711399407134  0.9581649438134278  0.6114768769771540
  0.5613379128074184  0.0369942065612093  0.2555554956850917
  0.1862034872067295  0.7789704123565724  0.1244430646182888
  0.0614969603836951  0.0371161259659886  0.2555601141616976
  0.6891468026744184  0.6247565294524028  0.5668914030491153
  0.0605334141728401  0.5291806060169817  0.1244612818869685
  0.3110968658063095  0.0409638641569291  0.5221325657167346
  0.6875022798493367  0.2797331121347321  0.1246691419965253
  0.8138537114376438  0.7088730403909006  0.4778649764634074
  0.4366297512571029  0.1367735461019247  0.8340073287192967
  0.3176325031783723  0.3763836590752699  0.7003584229127853
  0.6867326878885440  0.6375233073836432  0.8339602885389621
  0.5632763269654824  0.7125087338001488  0.7445003176984177
  0.9362661823867551  0.2920440057114695  0.3884794836065696
  0.9388448633402688  0.9709264533196347  0.8754673075077903
  0.5634888895682288  0.2082729518682350  0.6114718677147707
  0.8140928458471739  0.8748209829967570  0.5669092936096696
  0.8076507469333595  0.8734145349171767  0.2996039696465422
  0.3114755581598213  0.0365988980001961  0.2556084686538844
  0.4368652548782168  0.2793707893069014  0.1242487124314757
  0.3131840199993904  0.7080276812013575  0.6114738370421383
  0.4355506133609180  0.6250141724845814  0.4330048169154301
  0.9357280035450040  0.6250378879154252  0.4331006344805142
  0.3151129266925394  0.8630586317794103  0.1655384750313219
  0.0674371772796814  0.5494007671764587  0.7887907000189741
  0.9355728038350728  0.1251156116822330  0.4330910770267916
  0.3149898342321669  0.3630006144405842  0.1656140300565943
  0.9375650395402302  0.9633412330294497  0.7446568474273569
  0.5660123911796001  0.2196207150856222  0.8756032379769537
 
  0.00000000E+00  0.00000000E+00  0.00000000E+00
  0.00000000E+00  0.00000000E+00  0.00000000E+00
  0.00000000E+00  0.00000000E+00  0.00000000E+00
  0.00000000E+00  0.00000000E+00  0.00000000E+00
  0.00000000E+00  0.00000000E+00  0.00000000E+00
  0.00000000E+00  0.00000000E+00  0.00000000E+00
  0.00000000E+00  0.00000000E+00  0.00000000E+00
  0.00000000E+00  0.00000000E+00  0.00000000E+00
  0.00000000E+00  0.00000000E+00  0.00000000E+00
  0.00000000E+00  0.00000000E+00  0.00000000E+00
  0.00000000E+00  0.00000000E+00  0.00000000E+00
  0.00000000E+00  0.00000000E+00  0.00000000E+00
  0.00000000E+00  0.00000000E+00  0.00000000E+00
  0.00000000E+00  0.00000000E+00  0.00000000E+00
  0.00000000E+00  0.00000000E+00  0.00000000E+00
  0.00000000E+00  0.00000000E+00  0.00000000E+00
  0.00000000E+00  0.00000000E+00  0.00000000E+00
  0.00000000E+00  0.00000000E+00  0.00000000E+00
  0.00000000E+00  0.00000000E+00  0.00000000E+00
  0.00000000E+00  0.00000000E+00  0.00000000E+00
  0.00000000E+00  0.00000000E+00  0.00000000E+00
  0.00000000E+00  0.00000000E+00  0.00000000E+00
  0.00000000E+00  0.00000000E+00  0.00000000E+00
  0.00000000E+00  0.00000000E+00  0.00000000E+00
  0.00000000E+00  0.00000000E+00  0.00000000E+00
  0.00000000E+00  0.00000000E+00  0.00000000E+00
  0.00000000E+00  0.00000000E+00  0.00000000E+00
  0.00000000E+00  0.00000000E+00  0.00000000E+00
  0.00000000E+00  0.00000000E+00  0.00000000E+00
  0.00000000E+00  0.00000000E+00  0.00000000E+00
  0.00000000E+00  0.00000000E+00  0.00000000E+00
  0.00000000E+00  0.00000000E+00  0.00000000E+00
  0.00000000E+00  0.00000000E+00  0.00000000E+00
  0.00000000E+00  0.00000000E+00  0.00000000E+00
  0.00000000E+00  0.00000000E+00  0.00000000E+00
  0.00000000E+00  0.00000000E+00  0.00000000E+00
  0.00000000E+00  0.00000000E+00  0.00000000E+00
  0.00000000E+00  0.00000000E+00  0.00000000E+00
  0.00000000E+00  0.00000000E+00  0.00000000E+00
  0.00000000E+00  0.00000000E+00  0.00000000E+00
  0.00000000E+00  0.00000000E+00  0.00000000E+00
  0.00000000E+00  0.00000000E+00  0.00000000E+00
  0.00000000E+00  0.00000000E+00  0.00000000E+00
  0.00000000E+00  0.00000000E+00  0.00000000E+00
  0.00000000E+00  0.00000000E+00  0.00000000E+00
  0.00000000E+00  0.00000000E+00  0.00000000E+00
  0.00000000E+00  0.00000000E+00  0.00000000E+00
  0.00000000E+00  0.00000000E+00  0.00000000E+00
  0.00000000E+00  0.00000000E+00  0.00000000E+00
  0.00000000E+00  0.00000000E+00  0.00000000E+00
  0.00000000E+00  0.00000000E+00  0.00000000E+00
  0.00000000E+00  0.00000000E+00  0.00000000E+00
  0.00000000E+00  0.00000000E+00  0.00000000E+00
  0.00000000E+00  0.00000000E+00  0.00000000E+00
  0.00000000E+00  0.00000000E+00  0.00000000E+00
  0.00000000E+00  0.00000000E+00  0.00000000E+00
  0.00000000E+00  0.00000000E+00  0.00000000E+00
  0.00000000E+00  0.00000000E+00  0.00000000E+00
  0.00000000E+00  0.00000000E+00  0.00000000E+00
  0.00000000E+00  0.00000000E+00  0.00000000E+00
  0.00000000E+00  0.00000000E+00  0.00000000E+00
  0.00000000E+00  0.00000000E+00  0.00000000E+00
  0.00000000E+00  0.00000000E+00  0.00000000E+00
  0.00000000E+00  0.00000000E+00  0.00000000E+00
  0.00000000E+00  0.00000000E+00  0.00000000E+00
  0.00000000E+00  0.00000000E+00  0.00000000E+00
  0.00000000E+00  0.00000000E+00  0.00000000E+00
  0.00000000E+00  0.00000000E+00  0.00000000E+00
  0.00000000E+00  0.00000000E+00  0.00000000E+00
  0.00000000E+00  0.00000000E+00  0.00000000E+00
  0.00000000E+00  0.00000000E+00  0.00000000E+00
  0.00000000E+00  0.00000000E+00  0.00000000E+00
  0.00000000E+00  0.00000000E+00  0.00000000E+00
  0.00000000E+00  0.00000000E+00  0.00000000E+00
  0.00000000E+00  0.00000000E+00  0.00000000E+00
  0.00000000E+00  0.00000000E+00  0.00000000E+00
  0.00000000E+00  0.00000000E+00  0.00000000E+00
  0.00000000E+00  0.00000000E+00  0.00000000E+00
  0.00000000E+00  0.00000000E+00  0.00000000E+00
  0.00000000E+00  0.00000000E+00  0.00000000E+00
  0.00000000E+00  0.00000000E+00  0.00000000E+00
  0.00000000E+00  0.00000000E+00  0.00000000E+00
  0.00000000E+00  0.00000000E+00  0.00000000E+00
  0.00000000E+00  0.00000000E+00  0.00000000E+00
  0.00000000E+00  0.00000000E+00  0.00000000E+00
  0.00000000E+00  0.00000000E+00  0.00000000E+00
  0.00000000E+00  0.00000000E+00  0.00000000E+00
  0.00000000E+00  0.00000000E+00  0.00000000E+00
  0.00000000E+00  0.00000000E+00  0.00000000E+00
  0.00000000E+00  0.00000000E+00  0.00000000E+00
  0.00000000E+00  0.00000000E+00  0.00000000E+00
  0.00000000E+00  0.00000000E+00  0.00000000E+00
  0.00000000E+00  0.00000000E+00  0.00000000E+00
  0.00000000E+00  0.00000000E+00  0.00000000E+00
  0.00000000E+00  0.00000000E+00  0.00000000E+00
  0.00000000E+00  0.00000000E+00  0.00000000E+00
  0.00000000E+00  0.00000000E+00  0.00000000E+00
  0.00000000E+00  0.00000000E+00  0.00000000E+00
  0.00000000E+00  0.00000000E+00  0.00000000E+00
  0.00000000E+00  0.00000000E+00  0.00000000E+00
  0.00000000E+00  0.00000000E+00  0.00000000E+00
  0.00000000E+00  0.00000000E+00  0.00000000E+00
  0.00000000E+00  0.00000000E+00  0.00000000E+00
  0.00000000E+00  0.00000000E+00  0.00000000E+00
  0.00000000E+00  0.00000000E+00  0.00000000E+00
  0.00000000E+00  0.00000000E+00  0.00000000E+00
  0.00000000E+00  0.00000000E+00  0.00000000E+00
  0.00000000E+00  0.00000000E+00  0.00000000E+00
  0.00000000E+00  0.00000000E+00  0.00000000E+00
  0.00000000E+00  0.00000000E+00  0.00000000E+00
  0.00000000E+00  0.00000000E+00  0.00000000E+00
  0.00000000E+00  0.00000000E+00  0.00000000E+00
  0.00000000E+00  0.00000000E+00  0.00000000E+00
  0.00000000E+00  0.00000000E+00  0.00000000E+00
  0.00000000E+00  0.00000000E+00  0.00000000E+00
  0.00000000E+00  0.00000000E+00  0.00000000E+00
  0.00000000E+00  0.00000000E+00  0.00000000E+00
  0.00000000E+00  0.00000000E+00  0.00000000E+00
  0.00000000E+00  0.00000000E+00  0.00000000E+00
  0.00000000E+00  0.00000000E+00  0.00000000E+00
  0.00000000E+00  0.00000000E+00  0.00000000E+00
  0.00000000E+00  0.00000000E+00  0.00000000E+00
  0.00000000E+00  0.00000000E+00  0.00000000E+00
  0.00000000E+00  0.00000000E+00  0.00000000E+00
  0.00000000E+00  0.00000000E+00  0.00000000E+00
  0.00000000E+00  0.00000000E+00  0.00000000E+00
  0.00000000E+00  0.00000000E+00  0.00000000E+00
  0.00000000E+00  0.00000000E+00  0.00000000E+00
  0.00000000E+00  0.00000000E+00  0.00000000E+00
  0.00000000E+00  0.00000000E+00  0.00000000E+00
  0.00000000E+00  0.00000000E+00  0.00000000E+00
  0.00000000E+00  0.00000000E+00  0.00000000E+00
  0.00000000E+00  0.00000000E+00  0.00000000E+00
  0.00000000E+00  0.00000000E+00  0.00000000E+00
  0.00000000E+00  0.00000000E+00  0.00000000E+00
  0.00000000E+00  0.00000000E+00  0.00000000E+00
  0.00000000E+00  0.00000000E+00  0.00000000E+00
  0.00000000E+00  0.00000000E+00  0.00000000E+00
  0.00000000E+00  0.00000000E+00  0.00000000E+00
  0.00000000E+00  0.00000000E+00  0.00000000E+00
  0.00000000E+00  0.00000000E+00  0.00000000E+00
  0.00000000E+00  0.00000000E+00  0.00000000E+00
  0.00000000E+00  0.00000000E+00  0.00000000E+00
  0.00000000E+00  0.00000000E+00  0.00000000E+00
  0.00000000E+00  0.00000000E+00  0.00000000E+00
  0.00000000E+00  0.00000000E+00  0.00000000E+00
  0.00000000E+00  0.00000000E+00  0.00000000E+00
  0.00000000E+00  0.00000000E+00  0.00000000E+00
  0.00000000E+00  0.00000000E+00  0.00000000E+00
  0.00000000E+00  0.00000000E+00  0.00000000E+00
  0.00000000E+00  0.00000000E+00  0.00000000E+00
  0.00000000E+00  0.00000000E+00  0.00000000E+00
  0.00000000E+00  0.00000000E+00  0.00000000E+00
  0.00000000E+00  0.00000000E+00  0.00000000E+00
  0.00000000E+00  0.00000000E+00  0.00000000E+00
  0.00000000E+00  0.00000000E+00  0.00000000E+00
  0.00000000E+00  0.00000000E+00  0.00000000E+00
  0.00000000E+00  0.00000000E+00  0.00000000E+00
  0.00000000E+00  0.00000000E+00  0.00000000E+00
  0.00000000E+00  0.00000000E+00  0.00000000E+00
  0.00000000E+00  0.00000000E+00  0.00000000E+00
  0.00000000E+00  0.00000000E+00  0.00000000E+00
  0.00000000E+00  0.00000000E+00  0.00000000E+00
  0.00000000E+00  0.00000000E+00  0.00000000E+00
  0.00000000E+00  0.00000000E+00  0.00000000E+00
  0.00000000E+00  0.00000000E+00  0.00000000E+00
  0.00000000E+00  0.00000000E+00  0.00000000E+00
  0.00000000E+00  0.00000000E+00  0.00000000E+00
  0.00000000E+00  0.00000000E+00  0.00000000E+00
  0.00000000E+00  0.00000000E+00  0.00000000E+00
  0.00000000E+00  0.00000000E+00  0.00000000E+00
  0.00000000E+00  0.00000000E+00  0.00000000E+00
  0.00000000E+00  0.00000000E+00  0.00000000E+00
  0.00000000E+00  0.00000000E+00  0.00000000E+00
  0.00000000E+00  0.00000000E+00  0.00000000E+00
  0.00000000E+00  0.00000000E+00  0.00000000E+00
  0.00000000E+00  0.00000000E+00  0.00000000E+00
  0.00000000E+00  0.00000000E+00  0.00000000E+00
  0.00000000E+00  0.00000000E+00  0.00000000E+00
  0.00000000E+00  0.00000000E+00  0.00000000E+00
  0.00000000E+00  0.00000000E+00  0.00000000E+00
  0.00000000E+00  0.00000000E+00  0.00000000E+00
  0.00000000E+00  0.00000000E+00  0.00000000E+00
  0.00000000E+00  0.00000000E+00  0.00000000E+00
  0.00000000E+00  0.00000000E+00  0.00000000E+00
  0.00000000E+00  0.00000000E+00  0.00000000E+00
  0.00000000E+00  0.00000000E+00  0.00000000E+00
  0.00000000E+00  0.00000000E+00  0.00000000E+00
  0.00000000E+00  0.00000000E+00  0.00000000E+00
  0.00000000E+00  0.00000000E+00  0.00000000E+00
  0.00000000E+00  0.00000000E+00  0.00000000E+00
  0.00000000E+00  0.00000000E+00  0.00000000E+00
  0.00000000E+00  0.00000000E+00  0.00000000E+00
  0.00000000E+00  0.00000000E+00  0.00000000E+00
  0.00000000E+00  0.00000000E+00  0.00000000E+00
  0.00000000E+00  0.00000000E+00  0.00000000E+00
  0.00000000E+00  0.00000000E+00  0.00000000E+00
  0.00000000E+00  0.00000000E+00  0.00000000E+00
  0.00000000E+00  0.00000000E+00  0.00000000E+00
  0.00000000E+00  0.00000000E+00  0.00000000E+00
  0.00000000E+00  0.00000000E+00  0.00000000E+00
  0.00000000E+00  0.00000000E+00  0.00000000E+00
  0.00000000E+00  0.00000000E+00  0.00000000E+00
  0.00000000E+00  0.00000000E+00  0.00000000E+00
  0.00000000E+00  0.00000000E+00  0.00000000E+00
  0.00000000E+00  0.00000000E+00  0.00000000E+00
  0.00000000E+00  0.00000000E+00  0.00000000E+00
  0.00000000E+00  0.00000000E+00  0.00000000E+00
  0.00000000E+00  0.00000000E+00  0.00000000E+00
  0.00000000E+00  0.00000000E+00  0.00000000E+00
  0.00000000E+00  0.00000000E+00  0.00000000E+00
  0.00000000E+00  0.00000000E+00  0.00000000E+00
  0.00000000E+00  0.00000000E+00  0.00000000E+00
  0.00000000E+00  0.00000000E+00  0.00000000E+00
  0.00000000E+00  0.00000000E+00  0.00000000E+00
  0.00000000E+00  0.00000000E+00  0.00000000E+00
  0.00000000E+00  0.00000000E+00  0.00000000E+00
  0.00000000E+00  0.00000000E+00  0.00000000E+00
  0.00000000E+00  0.00000000E+00  0.00000000E+00
  0.00000000E+00  0.00000000E+00  0.00000000E+00
  0.00000000E+00  0.00000000E+00  0.00000000E+00
  0.00000000E+00  0.00000000E+00  0.00000000E+00
  0.00000000E+00  0.00000000E+00  0.00000000E+00
  0.00000000E+00  0.00000000E+00  0.00000000E+00
  0.00000000E+00  0.00000000E+00  0.00000000E+00
  0.00000000E+00  0.00000000E+00  0.00000000E+00
  0.00000000E+00  0.00000000E+00  0.00000000E+00
  0.00000000E+00  0.00000000E+00  0.00000000E+00
  0.00000000E+00  0.00000000E+00  0.00000000E+00
  0.00000000E+00  0.00000000E+00  0.00000000E+00
  0.00000000E+00  0.00000000E+00  0.00000000E+00
  0.00000000E+00  0.00000000E+00  0.00000000E+00
  0.00000000E+00  0.00000000E+00  0.00000000E+00
  0.00000000E+00  0.00000000E+00  0.00000000E+00
  0.00000000E+00  0.00000000E+00  0.00000000E+00
  0.00000000E+00  0.00000000E+00  0.00000000E+00
  0.00000000E+00  0.00000000E+00  0.00000000E+00
  0.00000000E+00  0.00000000E+00  0.00000000E+00
  0.00000000E+00  0.00000000E+00  0.00000000E+00
  0.00000000E+00  0.00000000E+00  0.00000000E+00
  0.00000000E+00  0.00000000E+00  0.00000000E+00
  0.00000000E+00  0.00000000E+00  0.00000000E+00
  0.00000000E+00  0.00000000E+00  0.00000000E+00
  0.00000000E+00  0.00000000E+00  0.00000000E+00
  0.00000000E+00  0.00000000E+00  0.00000000E+00
  0.00000000E+00  0.00000000E+00  0.00000000E+00
  0.00000000E+00  0.00000000E+00  0.00000000E+00