CuInSe2gb                               
   1.00000000000000     
     9.7266780392896699    0.0000000000000000    0.0000000000000000
     0.0000000000000000    8.4235502764570693    0.0000000000000000
     0.0000000000000000    0.0000000000000000   45.0000000000000000
   Fe   Mn
   281     7
Direct
  0.0541084351981562  0.7011218317207257  0.2113120189822034
  0.3177983656279850  0.7242065563653651  0.8763219872481141
  0.6880819385227872  0.9587223696521210  0.6115279840261102
  0.4384501912725771  0.4585259768354513  0.6115993933793281
  0.4408495889178158  0.2873449266890907  0.2551865776092733
  0.0585866907647975  0.3879934724486048  0.8335097431854129
  0.3083882779765029  0.8876833242731849  0.8335275337901070
  0.4469247050196264  0.6262439954095538  0.7004096132628240
  0.0597692328524996  0.2131187121719573  0.7448926641728119
  0.1784985386340124  0.4511918728619602  0.2113109169616414
  0.5677772756455890  0.2105496454766914  0.4774829971067628
  0.0666127842518143  0.8749195883671218  0.5668959190398104
  0.8151737933388793  0.5375653609317296  0.2551575150649255
  0.8080053516248393  0.5280002151712760  0.1239306680337979
  0.4293504541420404  0.9513243966197323  0.2113745700604766
  0.5667061676341069  0.3749938001287646  0.5668309863954568
  0.8110470626096646  0.0415752873360001  0.3882862626155926
  0.6818636537378734  0.7888311907764208  0.5224156209903245
  0.4426887738281113  0.4607901488305344  0.4774833662729511
  0.4341636240475669  0.9626567848612642  0.7447332724842440
  0.4416260100360518  0.6247878625838876  0.5669405888924216
  0.5717219389621769  0.8764442013788289  0.7005162984397019
  0.3089044691937329  0.0258882640257852  0.1239271429829720
  0.6899295777149576  0.9588979151939111  0.3439595296392257
  0.6880716103400044  0.7821845941198862  0.1242120963344514
  0.0527664156037856  0.3739901922758795  0.2995168379864839
  0.6901888643960767  0.4662730570994069  0.8761081170574266
  0.4292677506107557  0.4511748636905884  0.2113613548250515
  0.8084651023939378  0.3752954178859835  0.4330875168233611
  0.5633266803013021  0.7086326474546513  0.6115551399594896
  0.5597864273026301  0.5407577708098431  0.6559037920738304
  0.8177754603361355  0.8617034507780277  0.1666865486562834
  0.5653472009704178  0.5375307764933444  0.2550231579585122
  0.6898661490352349  0.4588591457794523  0.3439644255770294
  0.1917706825991367  0.6115550095825931  0.1664147445735665
  0.1944247107193321  0.7995377524769119  0.7888389956125172
  0.4470491508655235  0.1262504394608978  0.7003760272646268
  0.9279445526139635  0.6235482025732032  0.2996362534037985
  0.3165339927715651  0.2239312231631716  0.8761853262873482
  0.3165178942647759  0.8747952804055196  0.5668704028693572
  0.8176162003629408  0.2247101943869136  0.8759669810911055
  0.8096497390811713  0.5408129879506678  0.6558290944920634
  0.5586672408699686  0.5264538801347600  0.1239116881613132
  0.5694877464557684  0.0496109178158174  0.7888743791952710
  0.1909504316309418  0.2874408502601669  0.2552588592298479
  0.8087180171540107  0.8751691747538995  0.4330622559237041
  0.5722431725744388  0.3762499761841257  0.7003793194772431
  0.0572352747645058  0.0261817565500492  0.1241177997665900
  0.3097985334335056  0.5407246724739765  0.6559346081304420
  0.5651660388098652  0.2090548588730686  0.3439371034600927
  0.1880071738187776  0.9585116823259724  0.6114152993767880
  0.3028343771956402  0.3739802031104553  0.2995965851350952
  0.4347510898082688  0.7906496294907814  0.6559228914989718
  0.1945311143049029  0.2991183458553249  0.7887703597864043
  0.0674108757121695  0.3629191202350585  0.1666225180183680
  0.6970147118745557  0.6265122176930049  0.7004241310381203
  0.3113970815795146  0.5412392546907638  0.3884142925423288
  0.0679578513218973  0.7236948569842135  0.8762193554223167
  0.9338090456121110  0.6377117381433146  0.8338122435654470
  0.3199535387147145  0.5497785965505594  0.7889892585235245
  0.3044385040823671  0.2004233954692207  0.2112697037439351
  0.0680005114920070  0.7107446376111756  0.4774842292101846
  0.5544031572006610  0.2007451960723849  0.2111728607932155
  0.3096668464010718  0.2125754015514104  0.7449494350621704
  0.0719912938465108  0.3764922629699610  0.7005943808361494
  0.1831443950631105  0.6375395547900233  0.8335309938265564
  0.0696973382653373  0.0490386596200495  0.7889484675459976
  0.4417982371741615  0.1250149914460327  0.5668998492878592
  0.9348048204862762  0.2907242932531910  0.6558264265531698
  0.8041162319331945  0.2013822021276929  0.2111934740949641
  0.9293975244645193  0.9511223268165628  0.2113083393801457
  0.9415824562941082  0.6252153009123925  0.5668378455605313
  0.8074350086887593  0.3868608677738654  0.8334495885484815
  0.1970346530526610  0.6263366388041515  0.7003390386469746
  0.8087036683966664  0.8876770040946125  0.8335168804385122
  0.6849287952176365  0.2908587744521098  0.6560271230938672
  0.3131706561471348  0.2082609760015534  0.6115072871713909
  0.4345177150666822  0.4627062213341722  0.7449224944407596
  0.4364876682769031  0.7912439141282052  0.3883604542283768
  0.6843455708272712  0.9627971165340790  0.7447976753417143
  0.8040451030622925  0.7013387425622336  0.2111838385762049
  0.8134387750786345  0.7085312984621908  0.6115965950733246
  0.4367809318733638  0.7834246317562984  0.1240153525252309
  0.3096199110545706  0.7124086692084913  0.7449073563652746
  0.3199274405814437  0.0492451404190355  0.7887917040856411
  0.8110340269676094  0.5416930194558324  0.3883160912980725
  0.6820160312502354  0.2887954381055094  0.5224304605146287
  0.6949844503269268  0.7995951638456025  0.7888076649583172
  0.1906959304322772  0.7873732101978761  0.2552075482621019
  0.6917116282302069  0.1123909684335136  0.1665967159466605
  0.6927232155235574  0.9606605039033306  0.4774154268111275
  0.9401197416496672  0.9593429061050512  0.3440231432681403
  0.8071523045560265  0.0391321547737783  0.5225523621939822
  0.6836008349815056  0.6249196307492435  0.4329790000847712
  0.4400073423184432  0.4586765212378974  0.3440020091043733
  0.8101093375735887  0.2124687738575645  0.7445712382346539
  0.4398108380364070  0.9664180915250908  0.8760453326092567
  0.5665748898493369  0.8749602510731450  0.5668735714673268
  0.8092133333471669  0.0277678198705909  0.1239317665400712
  0.4279492400026361  0.6236534332075330  0.2994962910814364
  0.8177965881745662  0.7238058111872455  0.8763185688639418
  0.6882911940420361  0.4584353464950915  0.6115537613828659
  0.5584928471000630  0.3873578276777312  0.8335328220942025
  0.8028737442429703  0.3735552324892835  0.2994724923508453
  0.1860805647261357  0.2910688800154265  0.3883090881403021
  0.8200906132072502  0.5494205348489093  0.7889206001238376
  0.1822550688892535  0.7893525530372634  0.5225566221939502
  0.3028379281696343  0.8741114352165698  0.2995894512382984
  0.1785793357093080  0.9512969901769565  0.2113421876280422
  0.1847248354752279  0.4624711807487663  0.7448947455477406
  0.4322009446485628  0.2889189673420787  0.5223733003179275
  0.0647728230870422  0.7086587463780838  0.3438337992720981
  0.1848541353480602  0.7906824517209188  0.6559228673935887
  0.4446369987560057  0.7996247820881121  0.7887303216600059
  0.6836439557767227  0.1249246415839401  0.4329592454226548
  0.9319200586880477  0.7886021536324993  0.5224373325421354
  0.6917095816704266  0.6126045724457264  0.1667311718490401
  0.8147258626383603  0.7088303027368792  0.3438655441674932
  0.9344323328545260  0.4625497944749700  0.7449689605300024
  0.1902094466344893  0.4590326774912550  0.3440246378750632
  0.5704480968698356  0.5505837506968249  0.7888175819080638
  0.5664307552021917  0.3625725581366516  0.1664597070638340
  0.5650917888227012  0.7090508401569219  0.3439273091250800
  0.5530480992903520  0.3736865146484292  0.2995701190790080
  0.1894083301036766  0.4672206326913669  0.8762133740372591
  0.1917926858931379  0.1115434204128606  0.1664394574223710
  0.4446421394604349  0.2990965269513706  0.7888027379973410
  0.6908490766317765  0.7876767055737051  0.2553666080132596
  0.9337604111458052  0.1376519736080438  0.8335188590041802
  0.4428333099650378  0.9608001115702994  0.4775101563462046
  0.5674674535274647  0.7240030996996590  0.8762471111958887
  0.1925830520736760  0.4607506337159229  0.4774891095603600
  0.9342298231427618  0.2820440881636262  0.1241164451244250
  0.3114724997189807  0.0412466029150493  0.3884079112343395
  0.0602025283375832  0.0405454758551066  0.6560815349952273
  0.5585117587984113  0.3749024364336784  0.4331059128569972
  0.6843692924958386  0.4628041874448353  0.7449167208807890
  0.5600478471476334  0.2127629813745194  0.7448454029875862
  0.9470600904413859  0.1264116920132051  0.7003866212749426
  0.5597437654772371  0.0408994215034650  0.6558755680125627
  0.5572059406538368  0.5392352051678349  0.5225482393905724
  0.1780152334323316  0.1238586514748925  0.2995485328713795
  0.4414295279959047  0.1103587250861238  0.1664069192665708
  0.6779026701513893  0.6234954352641754  0.2994599803179503
  0.9278921299372187  0.1236330625132632  0.2996177695169250
  0.8166433031371205  0.3750687998647158  0.5669356804619192
  0.0526025010125368  0.8738170224925916  0.2995340094202654
  0.1917280140695049  0.6248672553738478  0.5669085288029021
  0.9443441215990460  0.7998775309638115  0.7888694810472595
  0.3085970204807713  0.3874479219353398  0.8335640159640832
  0.9397694702174096  0.4683197855502799  0.8761617479401109
  0.4338787604939035  0.6386350723606046  0.8336171082442536
  0.0648589190241491  0.2086392070216146  0.3438664387004020
  0.1897289511005493  0.9669813103044760  0.8761333905562788
  0.9345413388896319  0.7819906534642777  0.1241690074070143
  0.6864809374201367  0.7912390968531862  0.3883862486277185
  0.9348597108698761  0.7907717809762475  0.6559730072083469
  0.9413506222229588  0.1121275416763996  0.1665451192097046
  0.4349499556411457  0.2908592521222261  0.6560653970581344
  0.0542296858438573  0.2011131040315541  0.2112721609210134
  0.6791362152747219  0.9511921101396932  0.2112650184330963
  0.1779964176109931  0.6237123046994689  0.2995565673702262
  0.8222724367411564  0.8758425825985700  0.7004811405386085
  0.9468081203497826  0.6264905208252155  0.7005161387084636
  0.1971498924320554  0.1261709358947191  0.7003786992795754
  0.9426667709447591  0.4605788651366457  0.4773131200434051
  0.8133403382536786  0.2084901006965065  0.6115734427858860
  0.1832302098591433  0.6250262592172622  0.4331238133471364
  0.4279015450566080  0.1237159988759813  0.2994880522734703
  0.6781807466265519  0.1236022696211183  0.2994707169631423
  0.5615843507149931  0.5414297570915386  0.3884110779606368
  0.8145172045074595  0.2088324576028269  0.3438613038455711
  0.4390082289309816  0.4672569893231033  0.8759176722840110
  0.5585174530735061  0.8878650033326323  0.8335834744646703
  0.3177009473894160  0.2103461744239100  0.4773165000557476
  0.1925356173580314  0.9609469725524027  0.4775036895066266
  0.0583769200373628  0.8875792979721036  0.8334951073455474
  0.0572030405894914  0.5391457603455538  0.5225260459799301
  0.9426683724825892  0.9605915158580479  0.4772928661734372
  0.0632155490993227  0.7082001733474115  0.6116243054244942
  0.5571580790160493  0.0391334513928795  0.5224301298576508
  0.6948900145367131  0.2992755448904776  0.7887362712360959
  0.8176532994759597  0.3617617750362034  0.1666915970403371
  0.4335053757003013  0.1249480391945448  0.4330996365887164
  0.0679894680036353  0.2106547379689009  0.4774567400658905
  0.3098828708769372  0.0407843605395575  0.6559710910139832
  0.4321807552596649  0.7888533644721668  0.5223541834141027
  0.1834801969860174  0.1376170140297652  0.8335744449186777
  0.1859641073186766  0.2828124941382368  0.1242125932505675
  0.9402240110690375  0.4591541152201127  0.3440288562510045
  0.5665766305004989  0.8625301919719429  0.1664731343680991
  0.3042622888916682  0.7006051820888120  0.2112686241487242
  0.9413219334098204  0.6123265156268597  0.1666009995082783
  0.1882953161663835  0.4586730497186082  0.6114922980920483
  0.0723265491686594  0.8764762460274769  0.7003134615332309
  0.0599667739644366  0.5406632190321934  0.6559106966097389
  0.3076458422857846  0.5258095055958932  0.1240016536457431
  0.9365219162099639  0.7914695994421411  0.3884423345347966
  0.9449042766405864  0.2987931290363039  0.7887737906270091
  0.1845998230684401  0.2905541632273362  0.6558907998843897
  0.9381173523593692  0.9585831683737945  0.6115019170472449
  0.8099711230713751  0.7123897295521352  0.7447948478930759
  0.6908816924296919  0.2875122559031655  0.2553119202889136
  0.0594439259062196  0.7126192705570612  0.7449793578367109
  0.6790292219577047  0.4511470221588687  0.2113031915417477
  0.8177300443542703  0.2107111515877669  0.4774924027781853
  0.5677550901850574  0.7105302246027894  0.4774690689072841
  0.0676852378185068  0.8631766131048645  0.1666459591260864
  0.9322304649316367  0.2883636590843843  0.5223908335821272
  0.6845835203185915  0.7905619572940180  0.6558776475578845
  0.0584382204738244  0.8748840145817833  0.4330937847893538
  0.0678813634259621  0.2231390414534770  0.8763147312246553
  0.8099832177071485  0.0406982767127122  0.6559632286270972
  0.5595960405985687  0.0264452296681165  0.1238407609949084
  0.3086329488547484  0.3750105580968320  0.4330155810455965
  0.3165462573086257  0.3750313529034101  0.5668754889825286
  0.3176879586832556  0.7102656576251642  0.4772958254639932
  0.0570628767110576  0.0390819268048155  0.5225138798617879
  0.3221196538738795  0.8761261382681597  0.7005482233606578
  0.0652480770460674  0.5375127768168944  0.2551026073410992
  0.6831502307588306  0.1392491610867730  0.8336646676950470
  0.8151900414129148  0.0374734674255915  0.2551851267231581
  0.1833082105603271  0.1250270859192076  0.4331223321804468
  0.6973507253864916  0.1263422088146715  0.7004042864406842
  0.1822238517953499  0.2890811611017737  0.5225471661116668
  0.4408675016921260  0.7874005878554120  0.2552294771538997
  0.4413845220787576  0.6105308925270024  0.1664760278000326
  0.0633684733343292  0.2086282268353644  0.6115732481787897
  0.1862743699309967  0.7911865843491741  0.3883259053207486
  0.3069970367651998  0.5388902002874374  0.5224923772428551
  0.8220267459951329  0.3765408184275646  0.7003077448070267
  0.6864641555025789  0.2911942075246004  0.3884082891645304
  0.1917679579944573  0.1249482592456326  0.5668873088618620
  0.6890291834729805  0.9669487429530442  0.8759056062688625
  0.6917170439100083  0.1250312543576167  0.5668993791914493
  0.4401869692628315  0.9586439772298961  0.3440245694307216
  0.1843509308753999  0.9627473305310430  0.7448173808070421
  0.9413381894894404  0.7874042146937102  0.2552565816631114
  0.5585067508477269  0.8748143805860135  0.4331190719141143
  0.3086969509059811  0.8751516812575921  0.4330122699354922
  0.8072075799618795  0.5392539939359664  0.5225832298119868
  0.9292321203444310  0.4513531547712360  0.2112969477014681
  0.3152302865121821  0.5376479131505522  0.2551152573477807
  0.5617273940512243  0.0415353952003797  0.3884402016617425
  0.9383328058891532  0.4583443184842503  0.6116438225056405
  0.0615163289769988  0.0412664843307871  0.3883932430793466
  0.0612086832820678  0.5413947611166187  0.3884042053433902
  0.4362561766975926  0.2911271411491027  0.3883661455382695
  0.6928262937071562  0.4607700282571595  0.4774554000239014
  0.0667987775098955  0.3751883703658719  0.5669011441202686
  0.5540075287692696  0.7011151647615433  0.2111713586227031
  0.9412317027657678  0.2875013342264061  0.2552638322908612
  0.8203096943756216  0.0489887497729171  0.7887745983529399
  0.1901604567340160  0.9589931050745290  0.3440175421202480
  0.5529420589253063  0.8737822271030660  0.2996055605189469
  0.0585456698018547  0.3748115782416379  0.4330538822828542
  0.3149810844336942  0.7090259549363622  0.3439682073272606
  0.3151135201419488  0.2090008581096688  0.3439891900225385
  0.9414288647653473  0.1251111858852881  0.5668396752567962
  0.4384872548791287  0.9587031227632516  0.6115862769348260
  0.5653504285983932  0.0374834041763009  0.2550394019436595
  0.1859748072025655  0.7826846362414472  0.1242484802177434
  0.0654226172032741  0.0374577123864597  0.2551608516454364
  0.6915728391948642  0.6250085270349316  0.5669146669975254
  0.0569451671669503  0.5260672509745836  0.1241457367965524
  0.3070032767558645  0.0386653872273523  0.5223612492049489
  0.6876397143168482  0.2822306425223452  0.1241484051631381
  0.8177191402435920  0.7108067793295411  0.4774731724368131
  0.4335702574972052  0.1390369922682120  0.8336631976343717
  0.3222333079242717  0.3765897530160780  0.7004363163655072
  0.6835107071506946  0.6384451184339458  0.8334566046155155
  0.5596893598656719  0.7122961613486931  0.7449205212930418
  0.9364565945108888  0.2913234547825266  0.3884192891233989
  0.9394371020061564  0.9672981978007561  0.8761360220134390
  0.5628517618034187  0.2080812371127453  0.6113586152102142
  0.8166162191023777  0.8751307223249731  0.5668568552468406
  0.8028343188208076  0.8735284905596079  0.2994745598831517
  0.3152025582002460  0.0378470749409911  0.2551320787122133
  0.4365859698626544  0.2835188739860496  0.1240788506851851
  0.3134925692153954  0.7087199378905937  0.6115715124583406
  0.4336489298537726  0.6249640415440108  0.4330854924309845
  0.9331581429497862  0.6254419078508296  0.4331509044795150
  0.3183420985933106  0.8630146077393932  0.1658028420593561
  0.0709374187138774  0.5486290921241240  0.7889170484465400
  0.9333117565929061  0.1253483978878661  0.4331515765120521
  0.3181795684838689  0.3629577368133102  0.1657875359487004
  0.9334501690451847  0.9624225111598974  0.7447229814475773
  0.5684952413221361  0.2248007995358581  0.8756718454622139
 
  0.00000000E+00  0.00000000E+00  0.00000000E+00
  0.00000000E+00  0.00000000E+00  0.00000000E+00
  0.00000000E+00  0.00000000E+00  0.00000000E+00
  0.00000000E+00  0.00000000E+00  0.00000000E+00
  0.00000000E+00  0.00000000E+00  0.00000000E+00
  0.00000000E+00  0.00000000E+00  0.00000000E+00
  0.00000000E+00  0.00000000E+00  0.00000000E+00
  0.00000000E+00  0.00000000E+00  0.00000000E+00
  0.00000000E+00  0.00000000E+00  0.00000000E+00
  0.00000000E+00  0.00000000E+00  0.00000000E+00
  0.00000000E+00  0.00000000E+00  0.00000000E+00
  0.00000000E+00  0.00000000E+00  0.00000000E+00
  0.00000000E+00  0.00000000E+00  0.00000000E+00
  0.00000000E+00  0.00000000E+00  0.00000000E+00
  0.00000000E+00  0.00000000E+00  0.00000000E+00
  0.00000000E+00  0.00000000E+00  0.00000000E+00
  0.00000000E+00  0.00000000E+00  0.00000000E+00
  0.00000000E+00  0.00000000E+00  0.00000000E+00
  0.00000000E+00  0.00000000E+00  0.00000000E+00
  0.00000000E+00  0.00000000E+00  0.00000000E+00
  0.00000000E+00  0.00000000E+00  0.00000000E+00
  0.00000000E+00  0.00000000E+00  0.00000000E+00
  0.00000000E+00  0.00000000E+00  0.00000000E+00
  0.00000000E+00  0.00000000E+00  0.00000000E+00
  0.00000000E+00  0.00000000E+00  0.00000000E+00
  0.00000000E+00  0.00000000E+00  0.00000000E+00
  0.00000000E+00  0.00000000E+00  0.00000000E+00
  0.00000000E+00  0.00000000E+00  0.00000000E+00
  0.00000000E+00  0.00000000E+00  0.00000000E+00
  0.00000000E+00  0.00000000E+00  0.00000000E+00
  0.00000000E+00  0.00000000E+00  0.00000000E+00
  0.00000000E+00  0.00000000E+00  0.00000000E+00
  0.00000000E+00  0.00000000E+00  0.00000000E+00
  0.00000000E+00  0.00000000E+00  0.00000000E+00
  0.00000000E+00  0.00000000E+00  0.00000000E+00
  0.00000000E+00  0.00000000E+00  0.00000000E+00
  0.00000000E+00  0.00000000E+00  0.00000000E+00
  0.00000000E+00  0.00000000E+00  0.00000000E+00
  0.00000000E+00  0.00000000E+00  0.00000000E+00
  0.00000000E+00  0.00000000E+00  0.00000000E+00
  0.00000000E+00  0.00000000E+00  0.00000000E+00
  0.00000000E+00  0.00000000E+00  0.00000000E+00
  0.00000000E+00  0.00000000E+00  0.00000000E+00
  0.00000000E+00  0.00000000E+00  0.00000000E+00
  0.00000000E+00  0.00000000E+00  0.00000000E+00
  0.00000000E+00  0.00000000E+00  0.00000000E+00
  0.00000000E+00  0.00000000E+00  0.00000000E+00
  0.00000000E+00  0.00000000E+00  0.00000000E+00
  0.00000000E+00  0.00000000E+00  0.00000000E+00
  0.00000000E+00  0.00000000E+00  0.00000000E+00
  0.00000000E+00  0.00000000E+00  0.00000000E+00
  0.00000000E+00  0.00000000E+00  0.00000000E+00
  0.00000000E+00  0.00000000E+00  0.00000000E+00
  0.00000000E+00  0.00000000E+00  0.00000000E+00
  0.00000000E+00  0.00000000E+00  0.00000000E+00
  0.00000000E+00  0.00000000E+00  0.00000000E+00
  0.00000000E+00  0.00000000E+00  0.00000000E+00
  0.00000000E+00  0.00000000E+00  0.00000000E+00
  0.00000000E+00  0.00000000E+00  0.00000000E+00
  0.00000000E+00  0.00000000E+00  0.00000000E+00
  0.00000000E+00  0.00000000E+00  0.00000000E+00
  0.00000000E+00  0.00000000E+00  0.00000000E+00
  0.00000000E+00  0.00000000E+00  0.00000000E+00
  0.00000000E+00  0.00000000E+00  0.00000000E+00
  0.00000000E+00  0.00000000E+00  0.00000000E+00
  0.00000000E+00  0.00000000E+00  0.00000000E+00
  0.00000000E+00  0.00000000E+00  0.00000000E+00
  0.00000000E+00  0.00000000E+00  0.00000000E+00
  0.00000000E+00  0.00000000E+00  0.00000000E+00
  0.00000000E+00  0.00000000E+00  0.00000000E+00
  0.00000000E+00  0.00000000E+00  0.00000000E+00
  0.00000000E+00  0.00000000E+00  0.00000000E+00
  0.00000000E+00  0.00000000E+00  0.00000000E+00
  0.00000000E+00  0.00000000E+00  0.00000000E+00
  0.00000000E+00  0.00000000E+00  0.00000000E+00
  0.00000000E+00  0.00000000E+00  0.00000000E+00
  0.00000000E+00  0.00000000E+00  0.00000000E+00
  0.00000000E+00  0.00000000E+00  0.00000000E+00
  0.00000000E+00  0.00000000E+00  0.00000000E+00
  0.00000000E+00  0.00000000E+00  0.00000000E+00
  0.00000000E+00  0.00000000E+00  0.00000000E+00
  0.00000000E+00  0.00000000E+00  0.00000000E+00
  0.00000000E+00  0.00000000E+00  0.00000000E+00
  0.00000000E+00  0.00000000E+00  0.00000000E+00
  0.00000000E+00  0.00000000E+00  0.00000000E+00
  0.00000000E+00  0.00000000E+00  0.00000000E+00
  0.00000000E+00  0.00000000E+00  0.00000000E+00
  0.00000000E+00  0.00000000E+00  0.00000000E+00
  0.00000000E+00  0.00000000E+00  0.00000000E+00
  0.00000000E+00  0.00000000E+00  0.00000000E+00
  0.00000000E+00  0.00000000E+00  0.00000000E+00
  0.00000000E+00  0.00000000E+00  0.00000000E+00
  0.00000000E+00  0.00000000E+00  0.00000000E+00
  0.00000000E+00  0.00000000E+00  0.00000000E+00
  0.00000000E+00  0.00000000E+00  0.00000000E+00
  0.00000000E+00  0.00000000E+00  0.00000000E+00
  0.00000000E+00  0.00000000E+00  0.00000000E+00
  0.00000000E+00  0.00000000E+00  0.00000000E+00
  0.00000000E+00  0.00000000E+00  0.00000000E+00
  0.00000000E+00  0.00000000E+00  0.00000000E+00
  0.00000000E+00  0.00000000E+00  0.00000000E+00
  0.00000000E+00  0.00000000E+00  0.00000000E+00
  0.00000000E+00  0.00000000E+00  0.00000000E+00
  0.00000000E+00  0.00000000E+00  0.00000000E+00
  0.00000000E+00  0.00000000E+00  0.00000000E+00
  0.00000000E+00  0.00000000E+00  0.00000000E+00
  0.00000000E+00  0.00000000E+00  0.00000000E+00
  0.00000000E+00  0.00000000E+00  0.00000000E+00
  0.00000000E+00  0.00000000E+00  0.00000000E+00
  0.00000000E+00  0.00000000E+00  0.00000000E+00
  0.00000000E+00  0.00000000E+00  0.00000000E+00
  0.00000000E+00  0.00000000E+00  0.00000000E+00
  0.00000000E+00  0.00000000E+00  0.00000000E+00
  0.00000000E+00  0.00000000E+00  0.00000000E+00
  0.00000000E+00  0.00000000E+00  0.00000000E+00
  0.00000000E+00  0.00000000E+00  0.00000000E+00
  0.00000000E+00  0.00000000E+00  0.00000000E+00
  0.00000000E+00  0.00000000E+00  0.00000000E+00
  0.00000000E+00  0.00000000E+00  0.00000000E+00
  0.00000000E+00  0.00000000E+00  0.00000000E+00
  0.00000000E+00  0.00000000E+00  0.00000000E+00
  0.00000000E+00  0.00000000E+00  0.00000000E+00
  0.00000000E+00  0.00000000E+00  0.00000000E+00
  0.00000000E+00  0.00000000E+00  0.00000000E+00
  0.00000000E+00  0.00000000E+00  0.00000000E+00
  0.00000000E+00  0.00000000E+00  0.00000000E+00
  0.00000000E+00  0.00000000E+00  0.00000000E+00
  0.00000000E+00  0.00000000E+00  0.00000000E+00
  0.00000000E+00  0.00000000E+00  0.00000000E+00
  0.00000000E+00  0.00000000E+00  0.00000000E+00
  0.00000000E+00  0.00000000E+00  0.00000000E+00
  0.00000000E+00  0.00000000E+00  0.00000000E+00
  0.00000000E+00  0.00000000E+00  0.00000000E+00
  0.00000000E+00  0.00000000E+00  0.00000000E+00
  0.00000000E+00  0.00000000E+00  0.00000000E+00
  0.00000000E+00  0.00000000E+00  0.00000000E+00
  0.00000000E+00  0.00000000E+00  0.00000000E+00
  0.00000000E+00  0.00000000E+00  0.00000000E+00
  0.00000000E+00  0.00000000E+00  0.00000000E+00
  0.00000000E+00  0.00000000E+00  0.00000000E+00
  0.00000000E+00  0.00000000E+00  0.00000000E+00
  0.00000000E+00  0.00000000E+00  0.00000000E+00
  0.00000000E+00  0.00000000E+00  0.00000000E+00
  0.00000000E+00  0.00000000E+00  0.00000000E+00
  0.00000000E+00  0.00000000E+00  0.00000000E+00
  0.00000000E+00  0.00000000E+00  0.00000000E+00
  0.00000000E+00  0.00000000E+00  0.00000000E+00
  0.00000000E+00  0.00000000E+00  0.00000000E+00
  0.00000000E+00  0.00000000E+00  0.00000000E+00
  0.00000000E+00  0.00000000E+00  0.00000000E+00
  0.00000000E+00  0.00000000E+00  0.00000000E+00
  0.00000000E+00  0.00000000E+00  0.00000000E+00
  0.00000000E+00  0.00000000E+00  0.00000000E+00
  0.00000000E+00  0.00000000E+00  0.00000000E+00
  0.00000000E+00  0.00000000E+00  0.00000000E+00
  0.00000000E+00  0.00000000E+00  0.00000000E+00
  0.00000000E+00  0.00000000E+00  0.00000000E+00
  0.00000000E+00  0.00000000E+00  0.00000000E+00
  0.00000000E+00  0.00000000E+00  0.00000000E+00
  0.00000000E+00  0.00000000E+00  0.00000000E+00
  0.00000000E+00  0.00000000E+00  0.00000000E+00
  0.00000000E+00  0.00000000E+00  0.00000000E+00
  0.00000000E+00  0.00000000E+00  0.00000000E+00
  0.00000000E+00  0.00000000E+00  0.00000000E+00
  0.00000000E+00  0.00000000E+00  0.00000000E+00
  0.00000000E+00  0.00000000E+00  0.00000000E+00
  0.00000000E+00  0.00000000E+00  0.00000000E+00
  0.00000000E+00  0.00000000E+00  0.00000000E+00
  0.00000000E+00  0.00000000E+00  0.00000000E+00
  0.00000000E+00  0.00000000E+00  0.00000000E+00
  0.00000000E+00  0.00000000E+00  0.00000000E+00
  0.00000000E+00  0.00000000E+00  0.00000000E+00
  0.00000000E+00  0.00000000E+00  0.00000000E+00
  0.00000000E+00  0.00000000E+00  0.00000000E+00
  0.00000000E+00  0.00000000E+00  0.00000000E+00
  0.00000000E+00  0.00000000E+00  0.00000000E+00
  0.00000000E+00  0.00000000E+00  0.00000000E+00
  0.00000000E+00  0.00000000E+00  0.00000000E+00
  0.00000000E+00  0.00000000E+00  0.00000000E+00
  0.00000000E+00  0.00000000E+00  0.00000000E+00
  0.00000000E+00  0.00000000E+00  0.00000000E+00
  0.00000000E+00  0.00000000E+00  0.00000000E+00
  0.00000000E+00  0.00000000E+00  0.00000000E+00
  0.00000000E+00  0.00000000E+00  0.00000000E+00
  0.00000000E+00  0.00000000E+00  0.00000000E+00
  0.00000000E+00  0.00000000E+00  0.00000000E+00
  0.00000000E+00  0.00000000E+00  0.00000000E+00
  0.00000000E+00  0.00000000E+00  0.00000000E+00
  0.00000000E+00  0.00000000E+00  0.00000000E+00
  0.00000000E+00  0.00000000E+00  0.00000000E+00
  0.00000000E+00  0.00000000E+00  0.00000000E+00
  0.00000000E+00  0.00000000E+00  0.00000000E+00
  0.00000000E+00  0.00000000E+00  0.00000000E+00
  0.00000000E+00  0.00000000E+00  0.00000000E+00
  0.00000000E+00  0.00000000E+00  0.00000000E+00
  0.00000000E+00  0.00000000E+00  0.00000000E+00
  0.00000000E+00  0.00000000E+00  0.00000000E+00
  0.00000000E+00  0.00000000E+00  0.00000000E+00
  0.00000000E+00  0.00000000E+00  0.00000000E+00
  0.00000000E+00  0.00000000E+00  0.00000000E+00
  0.00000000E+00  0.00000000E+00  0.00000000E+00
  0.00000000E+00  0.00000000E+00  0.00000000E+00
  0.00000000E+00  0.00000000E+00  0.00000000E+00
  0.00000000E+00  0.00000000E+00  0.00000000E+00
  0.00000000E+00  0.00000000E+00  0.00000000E+00
  0.00000000E+00  0.00000000E+00  0.00000000E+00
  0.00000000E+00  0.00000000E+00  0.00000000E+00
  0.00000000E+00  0.00000000E+00  0.00000000E+00
  0.00000000E+00  0.00000000E+00  0.00000000E+00
  0.00000000E+00  0.00000000E+00  0.00000000E+00
  0.00000000E+00  0.00000000E+00  0.00000000E+00
  0.00000000E+00  0.00000000E+00  0.00000000E+00
  0.00000000E+00  0.00000000E+00  0.00000000E+00
  0.00000000E+00  0.00000000E+00  0.00000000E+00
  0.00000000E+00  0.00000000E+00  0.00000000E+00
  0.00000000E+00  0.00000000E+00  0.00000000E+00
  0.00000000E+00  0.00000000E+00  0.00000000E+00
  0.00000000E+00  0.00000000E+00  0.00000000E+00
  0.00000000E+00  0.00000000E+00  0.00000000E+00
  0.00000000E+00  0.00000000E+00  0.00000000E+00
  0.00000000E+00  0.00000000E+00  0.00000000E+00
  0.00000000E+00  0.00000000E+00  0.00000000E+00
  0.00000000E+00  0.00000000E+00  0.00000000E+00
  0.00000000E+00  0.00000000E+00  0.00000000E+00
  0.00000000E+00  0.00000000E+00  0.00000000E+00
  0.00000000E+00  0.00000000E+00  0.00000000E+00
  0.00000000E+00  0.00000000E+00  0.00000000E+00
  0.00000000E+00  0.00000000E+00  0.00000000E+00
  0.00000000E+00  0.00000000E+00  0.00000000E+00
  0.00000000E+00  0.00000000E+00  0.00000000E+00
  0.00000000E+00  0.00000000E+00  0.00000000E+00
  0.00000000E+00  0.00000000E+00  0.00000000E+00
  0.00000000E+00  0.00000000E+00  0.00000000E+00
  0.00000000E+00  0.00000000E+00  0.00000000E+00
  0.00000000E+00  0.00000000E+00  0.00000000E+00
  0.00000000E+00  0.00000000E+00  0.00000000E+00
  0.00000000E+00  0.00000000E+00  0.00000000E+00
  0.00000000E+00  0.00000000E+00  0.00000000E+00
  0.00000000E+00  0.00000000E+00  0.00000000E+00
  0.00000000E+00  0.00000000E+00  0.00000000E+00
  0.00000000E+00  0.00000000E+00  0.00000000E+00
  0.00000000E+00  0.00000000E+00  0.00000000E+00
  0.00000000E+00  0.00000000E+00  0.00000000E+00
  0.00000000E+00  0.00000000E+00  0.00000000E+00
  0.00000000E+00  0.00000000E+00  0.00000000E+00
  0.00000000E+00  0.00000000E+00  0.00000000E+00
  0.00000000E+00  0.00000000E+00  0.00000000E+00