FeMn_288_15                             
    1.000000000000000     
     9.7266779999999997    0.0000000000000000    0.0000000000000000
     0.0000000000000000    8.4235500000000005    0.0000000000000000
     0.0000000000000000    0.0000000000000000   45.0000000000000000
   Fe   Mn
   273    15
Direct
  0.1877224762049227  0.6261896503154794  0.6542985042180516
  0.4370451801035496  0.7962839854005676  0.8745551937464993
  0.4372103450907528  0.4568401424754395  0.5654409591120098
  0.0625434613183335  0.0367696359965309  0.3898441981307900
  0.4380238920254850  0.2834314550301918  0.2567589185637684
  0.6876510712315074  0.7963864291605192  0.8745336782757869
  0.4373001049453068  0.2918248508108882  0.6102321098082976
  0.8120194992044594  0.7100600531233752  0.6989819871319771
  0.9372961743414865  0.2828014808399869  0.2568044469295460
  0.4379336779462600  0.7813669385466014  0.1251841244607505
  0.5625420213685862  0.1995256104336440  0.2125972135139707
  0.0626065223654866  0.8675019554909071  0.3011586460776881
  0.8126539348116076  0.5317815187671326  0.1254615433700444
  0.5623898177448998  0.2052008338063983  0.4785798882217769
  0.0624056974277954  0.8757946483221168  0.6542711917097854
  0.3124294261191345  0.3785747665962300  0.7873497378192640
  0.0625130887800464  0.3658272332188015  0.1677859842653116
  0.5625952334603419  0.7101014223175653  0.6988997221262505
  0.6877285677527164  0.4518873238550473  0.3456629847388679
  0.1876216543487087  0.4625267158028415  0.8324251078099409
  0.4376740819579918  0.7831777978553887  0.2568041767281387
  0.0626316896464106  0.5361981186743588  0.3898524344620030
  0.1877858202911508  0.1170419833762004  0.3010362508963949
  0.9379751716136249  0.1173882116747435  0.3010425265363516
  0.0625632200540873  0.0444200243550492  0.7431255459383082
  0.4374991447679293  0.4489208261315279  0.2124511715949391
  0.6878161142761199  0.4497521689895121  0.2123765534518903
  0.4376866396948317  0.7950164489029227  0.7431835890623025
  0.5624191792714290  0.3730650568777708  0.5214734425628058
  0.1875873666662526  0.9494821548094101  0.2125393809328132
  0.6876338770267335  0.1209056349890749  0.4346259133755934
  0.3126398294227334  0.0331349901533840  0.2568027229166657
  0.8124860460553152  0.8724186589139123  0.5214487147192424
  0.1876039047488730  0.6152822536973395  0.1675784174297255
  0.3124550194642760  0.2055587897797579  0.4786116677611747
  0.9374866516022066  0.4518672650645483  0.3456406073534720
  0.4373650452281123  0.6175646886524100  0.3010397383293241
  0.5624240725736045  0.8785834986734612  0.7873962360320760
  0.3125719521335193  0.2119907341761089  0.8322153985488939
  0.6871384134567275  0.6157672388980895  0.1675867680862277
  0.3129250172364610  0.3707660251837403  0.4346680866700717
  0.6876505208278428  0.1148082997252184  0.1676703124240072
  0.3128075903883807  0.0320103850958645  0.1255337238395379
  0.9371510180324319  0.7829062895690955  0.2568299355649080
  0.6871043377947609  0.2966086884089847  0.8747393612889997
  0.1874656565605088  0.4516746175431882  0.3456765936509025
  0.1877991680363862  0.1225767989291315  0.5215709654063603
  0.8123263717778323  0.7019714636422222  0.3456350446135172
  0.8124895567996481  0.3757132750651210  0.6541895323625487
  0.8128052896716743  0.8656714954947541  0.1676169573551730
  0.0624268906367129  0.2072714234216747  0.5654272544702172
  0.8126336577252870  0.8784914102134674  0.7874688685143394
  0.5619671111159584  0.0360648578802158  0.3896405165214323
  0.0625384902889703  0.5443086694767424  0.7430402672016968
  0.0629795525725940  0.6991254699895828  0.2125295393557733
  0.6875477928333694  0.1280514644183873  0.7873473764262013
  0.8123913700476258  0.0332381804881873  0.2567782282988155
  0.5623242696626037  0.0463194189514307  0.8746104325869650
  0.6879136460381030  0.9502316573196455  0.2125234721373310
  0.8124070913226358  0.3710946339078931  0.4346502383299601
  0.0626903552499686  0.5420324389463697  0.6102848242297128
  0.1874851605182952  0.2923733145216101  0.6104010089242013
  0.8122197874407006  0.5464033307765894  0.8744901756310883
  0.8129238005549372  0.7128710123217555  0.8323759892370272
  0.9374376604155785  0.9523200640411495  0.3457255667563814
  0.1875305220929000  0.1206508863056457  0.4346087793556755
  0.4376863903974292  0.4551688720757944  0.4785745627210308
  0.6876472699547157  0.7831323947887339  0.2566917097110090
  0.1872602833383282  0.7917261667911244  0.6101655647888241
  0.0626577344128776  0.2055165608914086  0.4786414323540993
  0.9383623852891730  0.6173957045057162  0.3010595218858448
  0.1877429836169167  0.1261055006683704  0.6543547389336027
  0.1877956060670427  0.4485553834263402  0.2125926051363227
  0.4373188905328339  0.4606814392083639  0.6989130780375467
  0.9372384630890697  0.9601229776925471  0.6989691836661448
  0.0622359915612575  0.2128990395415463  0.8322357356203997
  0.0626422667656123  0.7057673261681481  0.4785957742483053
  0.1872636817564447  0.9553019260777041  0.4785994796422269
  0.5625321115656952  0.3650457442644515  0.1676477047139986
  0.4373772137600120  0.9496446550381205  0.2126046706075137
  0.4373293185799909  0.2813461507774444  0.1254011893086950
  0.3127300305264162  0.2018089548096689  0.3456038189823740
  0.0624913874276467  0.0419982791650373  0.6102218221317413
  0.9375458541134003  0.7859507440881470  0.3898168208691956
  0.3126216981369726  0.3653032567931154  0.1676786637844890
  0.8123039733905014  0.8705969082924057  0.4345352475959584
  0.9374032773191368  0.9624690100513098  0.8324929432621859
  0.4373833107160050  0.1209674077658497  0.4346789466348643
  0.3123922972143074  0.0422066577748900  0.6103158321395178
  0.3122129530794743  0.0446693256926207  0.7431112374433730
  0.8119848653733357  0.3783376633509450  0.7873658181348272
  0.3126247913407614  0.8707125214905312  0.4346714399195740
  0.9378245454197424  0.1160581112353438  0.1676119259477688
  0.8131432486144963  0.3648809118784626  0.1676208145430286
  0.9373215535340893  0.4600974696582307  0.6988480482278103
  0.1874253031622677  0.2862287767510167  0.3898050996681044
  0.4376084023687755  0.7863815809307747  0.3900292651044730
  0.3127294499798715  0.0458019301980322  0.8744862562026444
  0.9371854012844735  0.6225245546202633  0.5214918307533691
  0.0619797013619142  0.2105040147589992  0.6990309463608694
  0.3125504755484818  0.8786458825020335  0.7874158861384661
  0.3127838322872782  0.3671429511773222  0.3010372131730378
  0.5622098910814362  0.5320695148798154  0.1254436094645054
  0.0626307223894608  0.3727564491866543  0.5215246058985731
  0.5624689823521448  0.3705485714671845  0.4346218016399637
  0.6873620134294578  0.6209875795896075  0.4346457540166140
  0.1874492693262773  0.9620279699543711  0.8323500153965805
  0.6873709968130823  0.2832346472532635  0.2567898211123091
  0.0629337948363642  0.5314812640161638  0.1254110080332019
  0.8124918317604876  0.1996667028230759  0.2125294693354090
  0.9372874394188563  0.4553777870043683  0.4786760011972028
  0.6873301031719502  0.4568719346553107  0.5653519854652498
  0.9375928952966346  0.6207740700226250  0.4346419455408468
  0.5624148543781335  0.8708573739323701  0.4347218615603517
  0.1872941514279775  0.7809119096569372  0.1254777706664477
  0.3120146176030107  0.8721567914458667  0.5214047265712841
  0.0629071191751066  0.1991925982906975  0.2125746496477444
  0.9373225660396953  0.4627519350820047  0.8323323879030284
  0.5623986479970337  0.7125237586136017  0.8322493694504739
  0.8126769544751189  0.8756488696334097  0.6543745712802335
  0.4377020602196262  0.6225959581352927  0.5214713774150154
  0.5619095875096508  0.5419456024404979  0.6102135821742797
  0.0621582490024385  0.0461162802202861  0.8744351452312070
  0.0624761369807661  0.3784239989844625  0.7873699478369246
  0.9376121066423629  0.7948466131720485  0.7431921449964878
  0.4370267552360242  0.9567957575863005  0.5653592752558759
  0.9376002655966584  0.2859033741737959  0.3898938920114441
  0.8126147855431347  0.3733421424939008  0.5214752550174899
  0.5625301029889197  0.3673833593700464  0.3009672827881741
  0.4370685131444442  0.6285119211381437  0.7874012883510833
  0.0622983507737563  0.5461436867068397  0.8744993817369392
  0.9373968834297162  0.1206673108788538  0.4349353441443440
  0.0626799018661721  0.8652679036393428  0.1676528474763320
  0.3124558605630193  0.5464146462707378  0.8744698623153000
  0.6873136061645233  0.2913839795247133  0.6103024238962290
  0.5624839845398348  0.5457841994475995  0.8744825146490296
  0.5625104762873948  0.0449288730899046  0.7431548021120169
  0.9374831332169666  0.2947646688251828  0.7431739384530825
  0.9378233940950627  0.1256796610004208  0.6543844811408450
  0.1874780927436623  0.9566264640090746  0.5654580826536311
  0.4374335081817194  0.7917817065268664  0.6101072770209918
  0.3125257372423408  0.2073024489120876  0.5655150314377383
  0.0625673016375188  0.7068571472341024  0.5653458203168770
  0.9372577510980308  0.9553541693325512  0.4785002297051746
  0.9372773542390880  0.2915892861386545  0.6102182267088909
  0.1871113269315275  0.4605851905510105  0.6988835207373512
  0.9379232887702191  0.9564704061975851  0.5654269119422044
  0.0626931456559074  0.5336786573688531  0.2567232036215115
  0.0623315823349267  0.7102829435852426  0.6989057406719051
  0.9373508772135645  0.6288730696027028  0.7873924659723807
  0.4374435874593928  0.6209058922679713  0.4347506400071806
  0.3122432884892513  0.3725318933251082  0.5214772901253210
  0.5620436962432207  0.0416934357464416  0.6102659409073025
  0.5626932885406076  0.8675566023284645  0.3011107203122299
  0.3124326116829994  0.7068453088053857  0.5653233650614445
  0.6871251765658916  0.1225218608160958  0.5215334148045644
  0.1869450399545946  0.9513682654307796  0.3456883403902378
  0.8122769559400497  0.2075026576186797  0.5654956589194664
  0.0627087812666655  0.3760781707358784  0.6544244359468675
  0.1876791878223980  0.1164108838210171  0.1675560393567976
  0.9376629714246252  0.4492147491766335  0.2124670532599725
  0.5621848375016880  0.5358469071217350  0.3897520855880508
  0.4376831115828614  0.9556757293740364  0.4785540673576363
  0.3126554736267864  0.8672690292303670  0.3010570822696111
  0.4375295600016094  0.6259492427418794  0.6541680429107884
  0.1874348947685507  0.1287931696171733  0.7874087228046973
  0.9373682391012091  0.6152786221290527  0.1673927490557580
  0.4379676111713257  0.4620302459572749  0.8323222768288506
  0.0627381081555839  0.0332242052193156  0.2568571872549887
  0.9378432705213626  0.9491606608913917  0.2124856566170002
  0.4373302132583977  0.4519561239839757  0.3456559883801050
  0.3129668231364194  0.5311677318109699  0.1254601860780359
  0.4377307317387988  0.2964806617027171  0.8747608670888960
  0.4371831660489665  0.1282060790244726  0.7873843964849286
  0.8122692371966413  0.2025370440862405  0.3457228259432358
  0.4381283941903776  0.6154154876450734  0.1674785016180234
  0.6872831531083682  0.7853516739581944  0.3899100248987943
  0.6875216218490167  0.9604099806961938  0.6989313035065661
  0.1878593824972250  0.2808013067497803  0.1253699983834700
  0.0623530356953593  0.7122360760608465  0.8321910430192155
  0.1873069208551472  0.2830869713011629  0.2569192663946688
  0.8124606683635649  0.0327858656341762  0.1254452612739077
  0.6874905885816329  0.2855443381844179  0.3899381710104193
  0.6872265221768382  0.7815615486598084  0.1251086005361675
  0.8123903763350386  0.2121025050707635  0.8321846830350468
  0.3124518683939987  0.7105101233101916  0.6989238054281612
  0.0622506428852845  0.7015149301166603  0.3456867477488080
  0.4372689471834407  0.1150857374762503  0.1676471518729660
  0.5624343474209922  0.6990894443114222  0.2125950172552159
  0.1875095544930246  0.7964281282156628  0.8745333608352724
  0.8122934040716513  0.7073287519434571  0.5653894362685564
  0.3123576758783158  0.2104174276081803  0.6989373057807695
  0.4375559431120711  0.1263352632366167  0.6544419989516441
  0.3125347089607758  0.7019910312576048  0.3457574562561700
  0.6877380834828256  0.6281914802501396  0.7874090924109597
  0.4375574652381342  0.1229651419767997  0.5215358168524121
  0.5624095277211862  0.7052501059714499  0.4786443901024644
  0.5624939966098568  0.0336098165677885  0.2569259977486958
  0.6875572507690683  0.6256030263683747  0.6543595940207122
  0.0630917516895109  0.8722446941356848  0.5214328096386418
  0.3119280687858427  0.7129481275227989  0.8323737340681375
  0.9373049041009049  0.7917466558358547  0.6102221246351667
  0.3122905407647739  0.5335190600125971  0.2568297838641961
  0.5625101306999815  0.5333818162109941  0.2568224291990072
  0.9375170429257910  0.1286293264804216  0.7874828589563234
  0.1875352261027530  0.2944890088395419  0.7431670753124203
  0.3127583945594180  0.1991681586826849  0.2125102063083722
  0.4373189003915265  0.9603547185967366  0.6989779922717771
  0.4371637073955789  0.9627939779299705  0.8324487234986133
  0.6882069981576071  0.2815050035679094  0.1254131181876409
  0.6875239031124429  0.9513930494458702  0.3457133283158614
  0.1874200324535721  0.4550224106538542  0.4785593945663332
  0.1875479075742834  0.6171927155011330  0.3011017579540616
  0.5622081814826118  0.7070586921776103  0.5654382983500033
  0.8124886268543929  0.5418633019522867  0.6101750263955091
  0.5628362739849226  0.0318588048365814  0.1253443722576684
  0.6873924544505140  0.1259034371228614  0.6543674570787115
  0.1877387137427678  0.7866281631920025  0.3897598035119088
  0.9377191117527640  0.4564862997030167  0.5654697142797813
  0.8123767503327569  0.2102910227027423  0.6989627866512703
  0.3125043138105547  0.3761276992183365  0.6542229270023885
  0.3124135747305801  0.0364359728052472  0.3898485629459923
  0.1876366203880249  0.6206054820727246  0.4345994242289981
  0.8131045206112817  0.0361737435225334  0.3897968715988840
  0.6873051245073679  0.4605529908882932  0.6988599429451978
  0.9374972656516746  0.2811823284118757  0.1253373451275744
  0.4377209918286182  0.2857649064578104  0.3898544694081458
  0.8123920086408928  0.0459164856239483  0.8744849013853341
  0.4378311077134549  0.2952600532550022  0.7431433008657012
  0.5625724542701123  0.7015807859726932  0.3457246328225076
  0.9371162436886361  0.7965182046250066  0.8745760674275396
  0.3123295777750192  0.5443534497268055  0.7430621619514450
  0.4372520077744556  0.1174098273837836  0.3010892519793549
  0.5621497914026103  0.2020398690437486  0.3456459681494286
  0.3128534771840445  0.8655180733824199  0.1678153683265660
  0.8126688479958861  0.5444252211216909  0.7430714200124096
  0.6871579876427200  0.6223242667177209  0.5216306294592616
  0.5619990990184904  0.2109699128934791  0.6990457461327307
  0.5623636325854057  0.8723371873099304  0.5214999574834489
  0.6875675160618467  0.4554070677003696  0.4786338020357601
  0.9382106572240132  0.7811419744934414  0.1253522013260135
  0.8129216667678424  0.3671873351032188  0.3011308549408733
  0.6876216400476551  0.9623063664531086  0.8322925463635336
  0.6876028884550260  0.2947665628549456  0.7432153167216573
  0.8126709796669140  0.5329767503044780  0.2567827064799862
  0.8126770154177944  0.8675759968940956  0.3010078061675638
  0.0626820160522110  0.0319166839974326  0.1255501196948276
  0.3127363574886340  0.5361753518469086  0.3897308764640130
  0.0624797427306669  0.3671074418440737  0.3008581440859068
  0.3129963363859894  0.6992532324729606  0.2125820820964228
  0.8124045589295585  0.2051469369435561  0.4786329175491371
  0.1872943667963870  0.9603160871189748  0.6989214514782612
  0.9378105539175794  0.2966121307127272  0.8744950197854003
  0.1876401471795409  0.6228147969352404  0.5214729494328940
  0.8126915908134303  0.0444299515091540  0.7431313806598092
  0.5624167959275606  0.2072963220747023  0.5653651290437754
  0.1868474885658050  0.2967168127711453  0.8744608216578065
  0.5626819381710298  0.8763547431781327  0.6541983326561009
  0.8125358481463376  0.7051998237364688  0.4786220274745751
  0.3127760267738397  0.8760690958571222  0.6543380667205910
  0.6872407186513764  0.7918300607495774  0.6102221520295703
  0.1873070469389129  0.6286756285901993  0.7873510241979272
  0.1874030902966490  0.4566388458512066  0.5653449776310081
  0.0626448766374419  0.8702159521615423  0.4346887330327083
  0.0623424682846387  0.8790106155435642  0.7874613470002025
  0.9373370540500583  0.6255016266549371  0.6541056355677114
  0.6877455042459563  0.9558949741331607  0.4786518273131831
  0.3123033062977779  0.7057054885197271  0.4785881167120216
  0.5625615243055397  0.3783433967249806  0.7874011989763028
  0.6868905049845694  0.4618200074269057  0.8324040701657270
  0.5626775089119725  0.3759683665508550  0.6542986934883124
  0.3124797133270745  0.5422018348704198  0.6102083623114047
  0.0622747249298168  0.3709250851175374  0.4345881007065668
  0.5622819368038157  0.5442168161138082  0.7431966424994977
  0.8122002354187121  0.6995207691809909  0.2127954067752365
  0.6872933373426522  0.7953510762597847  0.7432636977069439
  0.1870536678964084  0.7949546295413292  0.7432618311023240
  0.6875510888744579  0.6173427569914974  0.3009477838860976
  0.5627609162975389  0.8646726651108515  0.1669345255124231
  0.6874254682744919  0.9566867934344169  0.5652775753870987
  0.8124465257069908  0.5361157798600802  0.3897782947992042
  0.8126391903032197  0.0423235483088341  0.6104428205027380
  0.6875374593814688  0.1173094130588344  0.3011085950670498
  0.0627402178008092  0.2024468323626083  0.3458634020354477
  0.5621831924092308  0.2127125515168297  0.8330139230535859
  0.1877102586679980  0.7831927121822855  0.2567177375319629
  0.4378627944026092  0.9514197816543180  0.3456480871314438
  0.9373096395370586  0.1222896100982562  0.5214071532583998
 
  0.00000000E+00  0.00000000E+00  0.00000000E+00
  0.00000000E+00  0.00000000E+00  0.00000000E+00
  0.00000000E+00  0.00000000E+00  0.00000000E+00
  0.00000000E+00  0.00000000E+00  0.00000000E+00
  0.00000000E+00  0.00000000E+00  0.00000000E+00
  0.00000000E+00  0.00000000E+00  0.00000000E+00
  0.00000000E+00  0.00000000E+00  0.00000000E+00
  0.00000000E+00  0.00000000E+00  0.00000000E+00
  0.00000000E+00  0.00000000E+00  0.00000000E+00
  0.00000000E+00  0.00000000E+00  0.00000000E+00
  0.00000000E+00  0.00000000E+00  0.00000000E+00
  0.00000000E+00  0.00000000E+00  0.00000000E+00
  0.00000000E+00  0.00000000E+00  0.00000000E+00
  0.00000000E+00  0.00000000E+00  0.00000000E+00
  0.00000000E+00  0.00000000E+00  0.00000000E+00
  0.00000000E+00  0.00000000E+00  0.00000000E+00
  0.00000000E+00  0.00000000E+00  0.00000000E+00
  0.00000000E+00  0.00000000E+00  0.00000000E+00
  0.00000000E+00  0.00000000E+00  0.00000000E+00
  0.00000000E+00  0.00000000E+00  0.00000000E+00
  0.00000000E+00  0.00000000E+00  0.00000000E+00
  0.00000000E+00  0.00000000E+00  0.00000000E+00
  0.00000000E+00  0.00000000E+00  0.00000000E+00
  0.00000000E+00  0.00000000E+00  0.00000000E+00
  0.00000000E+00  0.00000000E+00  0.00000000E+00
  0.00000000E+00  0.00000000E+00  0.00000000E+00
  0.00000000E+00  0.00000000E+00  0.00000000E+00
  0.00000000E+00  0.00000000E+00  0.00000000E+00
  0.00000000E+00  0.00000000E+00  0.00000000E+00
  0.00000000E+00  0.00000000E+00  0.00000000E+00
  0.00000000E+00  0.00000000E+00  0.00000000E+00
  0.00000000E+00  0.00000000E+00  0.00000000E+00
  0.00000000E+00  0.00000000E+00  0.00000000E+00
  0.00000000E+00  0.00000000E+00  0.00000000E+00
  0.00000000E+00  0.00000000E+00  0.00000000E+00
  0.00000000E+00  0.00000000E+00  0.00000000E+00
  0.00000000E+00  0.00000000E+00  0.00000000E+00
  0.00000000E+00  0.00000000E+00  0.00000000E+00
  0.00000000E+00  0.00000000E+00  0.00000000E+00
  0.00000000E+00  0.00000000E+00  0.00000000E+00
  0.00000000E+00  0.00000000E+00  0.00000000E+00
  0.00000000E+00  0.00000000E+00  0.00000000E+00
  0.00000000E+00  0.00000000E+00  0.00000000E+00
  0.00000000E+00  0.00000000E+00  0.00000000E+00
  0.00000000E+00  0.00000000E+00  0.00000000E+00
  0.00000000E+00  0.00000000E+00  0.00000000E+00
  0.00000000E+00  0.00000000E+00  0.00000000E+00
  0.00000000E+00  0.00000000E+00  0.00000000E+00
  0.00000000E+00  0.00000000E+00  0.00000000E+00
  0.00000000E+00  0.00000000E+00  0.00000000E+00
  0.00000000E+00  0.00000000E+00  0.00000000E+00
  0.00000000E+00  0.00000000E+00  0.00000000E+00
  0.00000000E+00  0.00000000E+00  0.00000000E+00
  0.00000000E+00  0.00000000E+00  0.00000000E+00
  0.00000000E+00  0.00000000E+00  0.00000000E+00
  0.00000000E+00  0.00000000E+00  0.00000000E+00
  0.00000000E+00  0.00000000E+00  0.00000000E+00
  0.00000000E+00  0.00000000E+00  0.00000000E+00
  0.00000000E+00  0.00000000E+00  0.00000000E+00
  0.00000000E+00  0.00000000E+00  0.00000000E+00
  0.00000000E+00  0.00000000E+00  0.00000000E+00
  0.00000000E+00  0.00000000E+00  0.00000000E+00
  0.00000000E+00  0.00000000E+00  0.00000000E+00
  0.00000000E+00  0.00000000E+00  0.00000000E+00
  0.00000000E+00  0.00000000E+00  0.00000000E+00
  0.00000000E+00  0.00000000E+00  0.00000000E+00
  0.00000000E+00  0.00000000E+00  0.00000000E+00
  0.00000000E+00  0.00000000E+00  0.00000000E+00
  0.00000000E+00  0.00000000E+00  0.00000000E+00
  0.00000000E+00  0.00000000E+00  0.00000000E+00
  0.00000000E+00  0.00000000E+00  0.00000000E+00
  0.00000000E+00  0.00000000E+00  0.00000000E+00
  0.00000000E+00  0.00000000E+00  0.00000000E+00
  0.00000000E+00  0.00000000E+00  0.00000000E+00
  0.00000000E+00  0.00000000E+00  0.00000000E+00
  0.00000000E+00  0.00000000E+00  0.00000000E+00
  0.00000000E+00  0.00000000E+00  0.00000000E+00
  0.00000000E+00  0.00000000E+00  0.00000000E+00
  0.00000000E+00  0.00000000E+00  0.00000000E+00
  0.00000000E+00  0.00000000E+00  0.00000000E+00
  0.00000000E+00  0.00000000E+00  0.00000000E+00
  0.00000000E+00  0.00000000E+00  0.00000000E+00
  0.00000000E+00  0.00000000E+00  0.00000000E+00
  0.00000000E+00  0.00000000E+00  0.00000000E+00
  0.00000000E+00  0.00000000E+00  0.00000000E+00
  0.00000000E+00  0.00000000E+00  0.00000000E+00
  0.00000000E+00  0.00000000E+00  0.00000000E+00
  0.00000000E+00  0.00000000E+00  0.00000000E+00
  0.00000000E+00  0.00000000E+00  0.00000000E+00
  0.00000000E+00  0.00000000E+00  0.00000000E+00
  0.00000000E+00  0.00000000E+00  0.00000000E+00
  0.00000000E+00  0.00000000E+00  0.00000000E+00
  0.00000000E+00  0.00000000E+00  0.00000000E+00
  0.00000000E+00  0.00000000E+00  0.00000000E+00
  0.00000000E+00  0.00000000E+00  0.00000000E+00
  0.00000000E+00  0.00000000E+00  0.00000000E+00
  0.00000000E+00  0.00000000E+00  0.00000000E+00
  0.00000000E+00  0.00000000E+00  0.00000000E+00
  0.00000000E+00  0.00000000E+00  0.00000000E+00
  0.00000000E+00  0.00000000E+00  0.00000000E+00
  0.00000000E+00  0.00000000E+00  0.00000000E+00
  0.00000000E+00  0.00000000E+00  0.00000000E+00
  0.00000000E+00  0.00000000E+00  0.00000000E+00
  0.00000000E+00  0.00000000E+00  0.00000000E+00
  0.00000000E+00  0.00000000E+00  0.00000000E+00
  0.00000000E+00  0.00000000E+00  0.00000000E+00
  0.00000000E+00  0.00000000E+00  0.00000000E+00
  0.00000000E+00  0.00000000E+00  0.00000000E+00
  0.00000000E+00  0.00000000E+00  0.00000000E+00
  0.00000000E+00  0.00000000E+00  0.00000000E+00
  0.00000000E+00  0.00000000E+00  0.00000000E+00
  0.00000000E+00  0.00000000E+00  0.00000000E+00
  0.00000000E+00  0.00000000E+00  0.00000000E+00
  0.00000000E+00  0.00000000E+00  0.00000000E+00
  0.00000000E+00  0.00000000E+00  0.00000000E+00
  0.00000000E+00  0.00000000E+00  0.00000000E+00
  0.00000000E+00  0.00000000E+00  0.00000000E+00
  0.00000000E+00  0.00000000E+00  0.00000000E+00
  0.00000000E+00  0.00000000E+00  0.00000000E+00
  0.00000000E+00  0.00000000E+00  0.00000000E+00
  0.00000000E+00  0.00000000E+00  0.00000000E+00
  0.00000000E+00  0.00000000E+00  0.00000000E+00
  0.00000000E+00  0.00000000E+00  0.00000000E+00
  0.00000000E+00  0.00000000E+00  0.00000000E+00
  0.00000000E+00  0.00000000E+00  0.00000000E+00
  0.00000000E+00  0.00000000E+00  0.00000000E+00
  0.00000000E+00  0.00000000E+00  0.00000000E+00
  0.00000000E+00  0.00000000E+00  0.00000000E+00
  0.00000000E+00  0.00000000E+00  0.00000000E+00
  0.00000000E+00  0.00000000E+00  0.00000000E+00
  0.00000000E+00  0.00000000E+00  0.00000000E+00
  0.00000000E+00  0.00000000E+00  0.00000000E+00
  0.00000000E+00  0.00000000E+00  0.00000000E+00
  0.00000000E+00  0.00000000E+00  0.00000000E+00
  0.00000000E+00  0.00000000E+00  0.00000000E+00
  0.00000000E+00  0.00000000E+00  0.00000000E+00
  0.00000000E+00  0.00000000E+00  0.00000000E+00
  0.00000000E+00  0.00000000E+00  0.00000000E+00
  0.00000000E+00  0.00000000E+00  0.00000000E+00
  0.00000000E+00  0.00000000E+00  0.00000000E+00
  0.00000000E+00  0.00000000E+00  0.00000000E+00
  0.00000000E+00  0.00000000E+00  0.00000000E+00
  0.00000000E+00  0.00000000E+00  0.00000000E+00
  0.00000000E+00  0.00000000E+00  0.00000000E+00
  0.00000000E+00  0.00000000E+00  0.00000000E+00
  0.00000000E+00  0.00000000E+00  0.00000000E+00
  0.00000000E+00  0.00000000E+00  0.00000000E+00
  0.00000000E+00  0.00000000E+00  0.00000000E+00
  0.00000000E+00  0.00000000E+00  0.00000000E+00
  0.00000000E+00  0.00000000E+00  0.00000000E+00
  0.00000000E+00  0.00000000E+00  0.00000000E+00
  0.00000000E+00  0.00000000E+00  0.00000000E+00
  0.00000000E+00  0.00000000E+00  0.00000000E+00
  0.00000000E+00  0.00000000E+00  0.00000000E+00
  0.00000000E+00  0.00000000E+00  0.00000000E+00
  0.00000000E+00  0.00000000E+00  0.00000000E+00
  0.00000000E+00  0.00000000E+00  0.00000000E+00
  0.00000000E+00  0.00000000E+00  0.00000000E+00
  0.00000000E+00  0.00000000E+00  0.00000000E+00
  0.00000000E+00  0.00000000E+00  0.00000000E+00
  0.00000000E+00  0.00000000E+00  0.00000000E+00
  0.00000000E+00  0.00000000E+00  0.00000000E+00
  0.00000000E+00  0.00000000E+00  0.00000000E+00
  0.00000000E+00  0.00000000E+00  0.00000000E+00
  0.00000000E+00  0.00000000E+00  0.00000000E+00
  0.00000000E+00  0.00000000E+00  0.00000000E+00
  0.00000000E+00  0.00000000E+00  0.00000000E+00
  0.00000000E+00  0.00000000E+00  0.00000000E+00
  0.00000000E+00  0.00000000E+00  0.00000000E+00
  0.00000000E+00  0.00000000E+00  0.00000000E+00
  0.00000000E+00  0.00000000E+00  0.00000000E+00
  0.00000000E+00  0.00000000E+00  0.00000000E+00
  0.00000000E+00  0.00000000E+00  0.00000000E+00
  0.00000000E+00  0.00000000E+00  0.00000000E+00
  0.00000000E+00  0.00000000E+00  0.00000000E+00
  0.00000000E+00  0.00000000E+00  0.00000000E+00
  0.00000000E+00  0.00000000E+00  0.00000000E+00
  0.00000000E+00  0.00000000E+00  0.00000000E+00
  0.00000000E+00  0.00000000E+00  0.00000000E+00
  0.00000000E+00  0.00000000E+00  0.00000000E+00
  0.00000000E+00  0.00000000E+00  0.00000000E+00
  0.00000000E+00  0.00000000E+00  0.00000000E+00
  0.00000000E+00  0.00000000E+00  0.00000000E+00
  0.00000000E+00  0.00000000E+00  0.00000000E+00
  0.00000000E+00  0.00000000E+00  0.00000000E+00
  0.00000000E+00  0.00000000E+00  0.00000000E+00
  0.00000000E+00  0.00000000E+00  0.00000000E+00
  0.00000000E+00  0.00000000E+00  0.00000000E+00
  0.00000000E+00  0.00000000E+00  0.00000000E+00
  0.00000000E+00  0.00000000E+00  0.00000000E+00
  0.00000000E+00  0.00000000E+00  0.00000000E+00
  0.00000000E+00  0.00000000E+00  0.00000000E+00
  0.00000000E+00  0.00000000E+00  0.00000000E+00
  0.00000000E+00  0.00000000E+00  0.00000000E+00
  0.00000000E+00  0.00000000E+00  0.00000000E+00
  0.00000000E+00  0.00000000E+00  0.00000000E+00
  0.00000000E+00  0.00000000E+00  0.00000000E+00
  0.00000000E+00  0.00000000E+00  0.00000000E+00
  0.00000000E+00  0.00000000E+00  0.00000000E+00
  0.00000000E+00  0.00000000E+00  0.00000000E+00
  0.00000000E+00  0.00000000E+00  0.00000000E+00
  0.00000000E+00  0.00000000E+00  0.00000000E+00
  0.00000000E+00  0.00000000E+00  0.00000000E+00
  0.00000000E+00  0.00000000E+00  0.00000000E+00
  0.00000000E+00  0.00000000E+00  0.00000000E+00
  0.00000000E+00  0.00000000E+00  0.00000000E+00
  0.00000000E+00  0.00000000E+00  0.00000000E+00
  0.00000000E+00  0.00000000E+00  0.00000000E+00
  0.00000000E+00  0.00000000E+00  0.00000000E+00
  0.00000000E+00  0.00000000E+00  0.00000000E+00
  0.00000000E+00  0.00000000E+00  0.00000000E+00
  0.00000000E+00  0.00000000E+00  0.00000000E+00
  0.00000000E+00  0.00000000E+00  0.00000000E+00
  0.00000000E+00  0.00000000E+00  0.00000000E+00
  0.00000000E+00  0.00000000E+00  0.00000000E+00
  0.00000000E+00  0.00000000E+00  0.00000000E+00
  0.00000000E+00  0.00000000E+00  0.00000000E+00
  0.00000000E+00  0.00000000E+00  0.00000000E+00
  0.00000000E+00  0.00000000E+00  0.00000000E+00
  0.00000000E+00  0.00000000E+00  0.00000000E+00
  0.00000000E+00  0.00000000E+00  0.00000000E+00
  0.00000000E+00  0.00000000E+00  0.00000000E+00
  0.00000000E+00  0.00000000E+00  0.00000000E+00
  0.00000000E+00  0.00000000E+00  0.00000000E+00
  0.00000000E+00  0.00000000E+00  0.00000000E+00
  0.00000000E+00  0.00000000E+00  0.00000000E+00
  0.00000000E+00  0.00000000E+00  0.00000000E+00
  0.00000000E+00  0.00000000E+00  0.00000000E+00
  0.00000000E+00  0.00000000E+00  0.00000000E+00
  0.00000000E+00  0.00000000E+00  0.00000000E+00
  0.00000000E+00  0.00000000E+00  0.00000000E+00
  0.00000000E+00  0.00000000E+00  0.00000000E+00
  0.00000000E+00  0.00000000E+00  0.00000000E+00
  0.00000000E+00  0.00000000E+00  0.00000000E+00
  0.00000000E+00  0.00000000E+00  0.00000000E+00
  0.00000000E+00  0.00000000E+00  0.00000000E+00
  0.00000000E+00  0.00000000E+00  0.00000000E+00
  0.00000000E+00  0.00000000E+00  0.00000000E+00
  0.00000000E+00  0.00000000E+00  0.00000000E+00
  0.00000000E+00  0.00000000E+00  0.00000000E+00
  0.00000000E+00  0.00000000E+00  0.00000000E+00
  0.00000000E+00  0.00000000E+00  0.00000000E+00
  0.00000000E+00  0.00000000E+00  0.00000000E+00
  0.00000000E+00  0.00000000E+00  0.00000000E+00
  0.00000000E+00  0.00000000E+00  0.00000000E+00
  0.00000000E+00  0.00000000E+00  0.00000000E+00
  0.00000000E+00  0.00000000E+00  0.00000000E+00