FeMn_288_15                             
    1.000000000000000     
     9.7266779999999997    0.0000000000000000    0.0000000000000000
     0.0000000000000000    8.4235500000000005    0.0000000000000000
     0.0000000000000000    0.0000000000000000   45.0000000000000000
   Fe   Mn
   273    15
Direct
  0.1880039351561940  0.6252743237476936  0.6548459751347486
  0.4368636692012038  0.7979294313822877  0.8752439563483376
  0.4372803522281224  0.4568967762439563  0.5656730052912824
  0.0626689659633488  0.0373282925622168  0.3893374224069367
  0.4376001094370613  0.2829172347470518  0.2561101020975068
  0.6874434810200972  0.7980130906276188  0.8752130873105964
  0.4373025905675390  0.2913905070609084  0.6107277339021219
  0.8119112099617042  0.7097739468894374  0.6996356459437958
  0.9368649916110531  0.2822783672833180  0.2561413105660108
  0.4383559814780447  0.7796855694742892  0.1245218955306793
  0.5629936342793642  0.1975841676678816  0.2118329030921197
  0.0627097942640512  0.8675748470372379  0.3005800525988680
  0.8132016960430744  0.5298049408839788  0.1247538943100505
  0.5624106316425516  0.2051517545580313  0.4784640656190713
  0.0628792743787625  0.8748987979564880  0.6548214020904723
  0.3121789380124835  0.3805155045003213  0.7881235891245538
  0.0621693988487546  0.3649571450796693  0.1670407571025228
  0.5621808978918157  0.7100706344198837  0.6995365409615335
  0.6873947125036632  0.4529297383931445  0.3450919459183526
  0.1877250365324187  0.4634444530011668  0.8330949189968383
  0.4372864760220951  0.7826537519117664  0.2561280968375440
  0.0626277709776008  0.5367807488730961  0.3893856800678806
  0.1879712955320299  0.1169746831000041  0.3003784691272309
  0.9381818931925351  0.1172656120954954  0.3004106165978418
  0.0629481960279472  0.0451053720611558  0.7437988905612785
  0.4379695967586781  0.4469456689331470  0.2116789560379694
  0.6882110341090478  0.4478459527047569  0.2116357838008445
  0.4378742730079412  0.7954272764663258  0.7438347182558532
  0.5625291195869699  0.3727583057794613  0.5215762223266830
  0.1880418273399747  0.9473561858899839  0.2117872839852521
  0.6875493527169706  0.1209738758794762  0.4343848229069520
  0.3122419187329344  0.0323087291874419  0.2561173310932086
  0.8124064670766845  0.8725980857354472  0.5215532897147841
  0.1873417476765971  0.6143576420616828  0.1668661806786035
  0.3123606068536369  0.2052575651365915  0.4784905620020769
  0.9371997624618504  0.4527933605630199  0.3451406237140791
  0.4373525834926098  0.6174944900290978  0.3004220757659201
  0.5620367120883385  0.8805169987623593  0.7881215063452117
  0.3129462900216567  0.2129545792196056  0.8329468230997427
  0.6868913300851451  0.6150336444986098  0.1668918492703154
  0.3127625422063601  0.3707429910488595  0.4344391621913670
  0.6873301739711336  0.1140159918945406  0.1669947151103708
  0.3131869721163783  0.0298216628828080  0.1247856638317553
  0.9369159418329656  0.7823361397779374  0.2561043205437710
  0.6867517156103820  0.2982998468787128  0.8753643177065078
  0.1869846561340351  0.4525475415688624  0.3451669499423696
  0.1878525377732986  0.1223656334098913  0.5216283257405602
  0.8118699382097001  0.7029267490554770  0.3451007357248664
  0.8130424584363026  0.3747733910678875  0.6547543316606815
  0.8122258825049790  0.8645732543935768  0.1668708148501935
  0.0624857122464413  0.2071461876281807  0.5656446269393245
  0.8122146919753369  0.8806572418803972  0.7882180500056737
  0.5620761898033717  0.0367368049474271  0.3892463706854702
  0.0628859220842500  0.5451139738684647  0.7437363271446613
  0.0635524365081092  0.6971057146656072  0.2117818401682642
  0.6872939439255263  0.1300716477440452  0.7880829492033649
  0.8120045488307471  0.0324691770307430  0.2560847403869144
  0.5619700631236015  0.0485383067248171  0.8753161217285621
  0.6884289451444702  0.9480987997994950  0.2117844683260585
  0.8122250322801772  0.3711471259351261  0.4344247830494774
  0.0626409099502498  0.5415109501512102  0.6107546760383450
  0.1875038239249084  0.2917766199441299  0.6109009556762977
  0.8120761678263022  0.5484651624447470  0.8751723020094438
  0.8132964195711124  0.7135795446821580  0.8331061901953846
  0.9371121029189476  0.9534265575076801  0.3452148648388673
  0.1873720727934703  0.1206331814351351  0.4343727209272670
  0.4374199971291596  0.4552253928290483  0.4784359071036279
  0.6871066070285100  0.7826566045986919  0.2560396079058976
  0.1872351141292885  0.7912403852214958  0.6106453035240048
  0.0627095421665166  0.2053505489113026  0.4785248416178932
  0.9384248293368559  0.6173523495819144  0.3004187835269728
  0.1880565424399994  0.1253239370715020  0.6548953270526993
  0.1881971314529804  0.4468208636391853  0.2118291471836454
  0.4371199850040100  0.4605799474808082  0.6995506714150249
  0.9372307905160147  0.9600590488556026  0.6996114359507768
  0.0625522054446468  0.2136980427622979  0.8329683337412370
  0.0624669820727265  0.7052606273111944  0.4784656813939959
  0.1872768783641514  0.9554369012286090  0.4785104658491680
  0.5621447051175178  0.3642497018722487  0.1669538566612744
  0.4378664125035025  0.9475914982313907  0.2118341010463441
  0.4376411163004160  0.2796315206200257  0.1247156339333096
  0.3123827140160654  0.2027932597486706  0.3451192288706397
  0.0623250193309499  0.0415164942244171  0.6106760697546750
  0.9375282262954719  0.7866185515459083  0.3893816728486936
  0.3120009777052622  0.3646389414653669  0.1669407762652221
  0.8122290708482213  0.8705506308906346  0.4343107320911662
  0.9376583365867353  0.9634004445237695  0.8331973338984056
  0.4372502939206964  0.1208329148897704  0.4343987842037395
  0.3122284949285454  0.0416735382001734  0.6107614029841887
  0.3125086555535521  0.0452439609402205  0.7438046494965211
  0.8116669448547458  0.3803592935116696  0.7881204796207997
  0.3125094482519746  0.8707123218234626  0.4344139297593806
  0.9374576598187579  0.1151119172461618  0.1669522122003293
  0.8126790240240908  0.3642199893608660  0.1669082255337870
  0.9372629745944416  0.4599270937864831  0.6995220112610396
  0.1873427652930723  0.2868289710370543  0.3893336031400055
  0.4376014426396649  0.7871106427583709  0.3895128295377245
  0.3125815475267991  0.0479768724071481  0.8752206553135499
  0.9374536647438987  0.6226188401880279  0.5215583615748132
  0.0620477020084803  0.2103960624210148  0.6996658242635545
  0.3120487755442666  0.8806794783627278  0.7881830211914559
  0.3128881399890197  0.3672724802054230  0.3004279571516010
  0.5625961334958925  0.5300265692769506  0.1247411510151870
  0.0624500436714768  0.3729343122299844  0.5216000329943542
  0.5624762159530522  0.3706338556604671  0.4344386818366437
  0.6873288923109981  0.6208885296568272  0.4344007006850940
  0.1875958871729593  0.9629506406992636  0.8330427518916088
  0.6870765520681597  0.2826265527938637  0.2561571287032870
  0.0634774132954270  0.5294061290673771  0.1246929415407015
  0.8130924207564251  0.1975812070629940  0.2117557299108255
  0.9375194027399743  0.4550948112975089  0.4785553444298408
  0.6874406228248059  0.4568425414802972  0.5655861483710234
  0.9374585042331308  0.6207195646433266  0.4344088325111830
  0.5622352633690788  0.8708624823420769  0.4344680729878185
  0.1876020282404465  0.7792741411426860  0.1247514444152265
  0.3123325768009698  0.8724806901623630  0.5215077977210941
  0.0634490637187078  0.1972149833276879  0.2118112588908764
  0.9375588619937606  0.4636901471629962  0.8330214723104133
  0.5626205280704948  0.7134261036184277  0.8329527248562033
  0.8130129462162263  0.8747728170632544  0.6549205204103452
  0.4374665736766573  0.6226344156927400  0.5215354504134651
  0.5618152349015607  0.5414532466323618  0.6107073642658207
  0.0619441748016751  0.0482201028314856  0.8751956532792771
  0.0621046379981402  0.3804345769380717  0.7881322387817301
  0.9378377128929231  0.7953125620316617  0.7438546290100619
  0.4371347457048546  0.9568605089211754  0.5656093759432721
  0.9376554752603639  0.2866908150370001  0.3894591924611328
  0.8125681076692207  0.3730324098256593  0.5215898649993554
  0.5625753123755551  0.3673257423349687  0.3003470320866833
  0.4368792447509306  0.6305687775500801  0.7881435916182862
  0.0620994933779478  0.5481595098331271  0.8752044856667408
  0.9373376815223230  0.1207739193628323  0.4346615117515177
  0.0622006949254321  0.8643672446400503  0.1669230829171650
  0.3121215632593851  0.5484654423519849  0.8751604238708672
  0.6872419037439205  0.2909025957283422  0.6107699284405194
  0.5621326334832073  0.5476706215799376  0.8751553087294380
  0.5628153115958650  0.0455171812655680  0.7438145325281571
  0.9377359183193285  0.2952502718084283  0.7438210167252842
  0.9381084520554197  0.1248417057945726  0.6549277136681129
  0.1874411849030952  0.9568927034423206  0.5656965524815456
  0.4374297807969184  0.7913736900556484  0.6106085048155713
  0.3126256118226789  0.2072766452385620  0.5657332742669916
  0.0625608762983123  0.7068264166692191  0.5655774370357080
  0.9374654631858121  0.9548875215071219  0.4784375172929757
  0.9372404327435188  0.2909208310097656  0.6107090674516105
  0.1870530181666568  0.4604937201790841  0.6995487859574798
  0.9379710838798017  0.9565051327814075  0.5656434069724144
  0.0622707668129743  0.5329639859265113  0.2560596061922116
  0.0620977633538356  0.7100355353305808  0.6995209261683036
  0.9371503317558720  0.6308936558635866  0.7881389605111474
  0.4373208291424348  0.6207579892058351  0.4344858087924207
  0.3123035972838457  0.3726422689655934  0.5215852766210175
  0.5620024647454877  0.0412456408720980  0.6107463143819530
  0.5626756714890082  0.8675823056872418  0.3004835046357114
  0.3126146931960633  0.7068392771401291  0.5655543308394949
  0.6871827076432601  0.1226228599713519  0.5216183555834962
  0.1866228915807986  0.9525327945062553  0.3451487977841619
  0.8122841708267566  0.2074114196991208  0.5657307396992077
  0.0630884453086935  0.3751365193075854  0.6549507273280376
  0.1872657795927240  0.1154213052628176  0.1669096977207578
  0.9381016599808023  0.4472937849653587  0.2116888937830906
  0.5623658284009880  0.5366241654980977  0.3893420827777652
  0.4374203068963775  0.9555456586976855  0.4784788254885288
  0.3129643842474806  0.8672775397970849  0.3004524826521738
  0.4378520184316456  0.6250305565708998  0.6547388183926577
  0.1871737556312849  0.1306645172974021  0.7881493020777391
  0.9368746318980984  0.6144987502748366  0.1666997683841586
  0.4381357640918334  0.4629534213650724  0.8329926344002346
  0.0623518033471383  0.0324553588134062  0.2561862328211263
  0.9383182900300018  0.9471406517066306  0.2116943559648237
  0.4370299098339251  0.4528863590538816  0.3451416009566767
  0.3132181522272448  0.5290152335677381  0.1247077299180024
  0.4375467924336364  0.2980640478469831  0.8753790174135400
  0.4369498002472576  0.1302784586183658  0.7881280055497328
  0.8119618213728867  0.2033701658663747  0.3452207781525262
  0.4377773774691425  0.6146156873225572  0.1667800869102578
  0.6873531240634154  0.7859817124645160  0.3894375992958734
  0.6872789079460367  0.9603031044915791  0.6995989555577460
  0.1881670237754721  0.2790151966624276  0.1246384528967844
  0.0626055880949707  0.7132536899074233  0.8329515288296336
  0.1870010361154738  0.2825541708990390  0.2562305780832386
  0.8128885893306672  0.0306155357614455  0.1247331833203201
  0.6876600401711305  0.2864688235366425  0.3894791564322501
  0.6876677521961309  0.7797215057655730  0.1244686451250767
  0.8125969132234353  0.2129900798358176  0.8329354261215053
  0.3122205384030596  0.7102929586365001  0.6995614914639404
  0.0620098607082776  0.7026030033930045  0.3451664685737306
  0.4370194083242616  0.1141960917160565  0.1669467600432922
  0.5629880436907625  0.6970273690750816  0.2118288982353790
  0.1873846968018576  0.7983210287336679  0.8752689057887364
  0.8125204788132778  0.7073502449585067  0.5656397806383840
  0.3120977137671496  0.2103459644935477  0.6995398439515990
  0.4377525983013137  0.1254419855577871  0.6549744799390858
  0.3123048264096371  0.7030763460152758  0.3452009817498475
  0.6873653249203002  0.6303890397520682  0.7881277438460421
  0.4374640535527179  0.1227168964877401  0.5216142705772540
  0.5625261824062843  0.7051802904616028  0.4785394517810727
  0.5620176108986898  0.0327956222842058  0.2562331274159319
  0.6878819514531234  0.6246467942568442  0.6548952214980438
  0.0627786280312056  0.8726552175408815  0.5215436024396843
  0.3121863865042992  0.7136444325916695  0.8331042335093357
  0.9371685443027764  0.7913771702045597  0.6107246380204391
  0.3118504264211875  0.5328868197949010  0.2561674538812222
  0.5620890738667280  0.5326485354310158  0.2561090657096270
  0.9371615391380436  0.1306697329859088  0.7882500121309037
  0.1877208653594361  0.2950240865392934  0.7438090523784836
  0.3132380244194526  0.1972972302589332  0.2117375426653758
  0.4372409422840333  0.9602688883577613  0.6996140110595970
  0.4374054424349218  0.9637568726877019  0.8331862663216595
  0.6885211703705448  0.2797740383159573  0.1247198610988077
  0.6872272157099376  0.9524326864833542  0.3451386515023562
  0.1874456457127650  0.4551284700720876  0.4784541353002022
  0.1875711591028630  0.6172543327574226  0.3004348238179614
  0.5623193300698462  0.7071685867301342  0.5656790603042688
  0.8123468444892566  0.5413358042577765  0.6106818810512724
  0.5631266838747444  0.0295410480131833  0.1246552859994826
  0.6877736915452470  0.1250512288751003  0.6548981518047038
  0.1876732347036433  0.7872490513770211  0.3893202130351379
  0.9378686468335112  0.4565531027209285  0.5656970519067837
  0.8122942919257382  0.2101590261720759  0.6995850617186231
  0.3128611701696715  0.3751341476907730  0.6547706123157351
  0.3124243354533573  0.0370048975483083  0.3894024016889353
  0.1875066421957559  0.6206243411684973  0.4343752022666326
  0.8130713047526530  0.0368496998213851  0.3893416462374601
  0.6873128031726091  0.4604303840583217  0.6994992130438935
  0.9379386929974605  0.2794814595629787  0.1246493122635194
  0.4376936433668738  0.2865174242323761  0.3893706449212391
  0.8120886990488908  0.0480177727376254  0.8752243553558205
  0.4380975152888757  0.2958054194555455  0.7437935096849887
  0.5621636076218941  0.7026580694107071  0.3452188858664965
  0.9369335223098216  0.7983012556482283  0.8753083553577897
  0.3127216834939554  0.5450166921003217  0.7437467782376499
  0.4374288657584716  0.1173358983924064  0.3004794399824235
  0.5617748126160682  0.2028251680274134  0.3451357139772169
  0.3124347983243170  0.8645968853730184  0.1670470285834047
  0.8129654618024987  0.5451197628937465  0.7437473574555936
  0.6871688779120787  0.6226426263794080  0.5216682426068162
  0.5618264604274539  0.2108141096290163  0.6996875696289310
  0.5624195260288520  0.8725002230306851  0.5215680622194780
  0.6874293074397844  0.4551188644759369  0.4784986947796404
  0.9385687073849635  0.7793999264965912  0.1246591289527480
  0.8130601301554180  0.3670997779699348  0.3005391776368029
  0.6877820063645089  0.9633195603264646  0.8330476247714236
  0.6877342043894364  0.2953494335125886  0.7438603968219759
  0.8122387663900327  0.5324034512914668  0.2560755527952631
  0.8128038527436704  0.8675708003916212  0.3003615827371127
  0.0630547944441507  0.0298703773666330  0.1248118644991181
  0.3128418238703268  0.5367925374486149  0.3893137979115195
  0.0627728925276464  0.3670450749334789  0.3003022928641169
  0.3135149949007764  0.6972681947925795  0.2118258038743455
  0.8122438125311204  0.2052941994658559  0.4785431944290510
  0.1872328552656382  0.9602711676422132  0.6995847831533499
  0.9377293158102921  0.2983187355329355  0.8751678212977121
  0.1876781992045361  0.6225304480503071  0.5215349880618237
  0.8130492758444359  0.0449982452172740  0.7438142061078817
  0.5626760710485725  0.2071819597321182  0.5656106742925681
  0.1866196319477577  0.2985772671712529  0.8751346538260091
  0.5630479903646863  0.8753963506222302  0.6547721958343592
  0.8123438725540285  0.7050956744837681  0.4785071160649802
  0.3130525308418888  0.8751835481573429  0.6548715293642747
  0.6873715877801790  0.7915562433159061  0.6106810742282210
  0.1870124015848713  0.6308143872309482  0.7880926038345708
  0.1875155332552479  0.4568046638160185  0.5655777391345526
  0.0625196857425133  0.8702467839210464  0.4343850157922043
  0.0619903214423129  0.8809317627473480  0.7882431844435813
  0.9377538946595783  0.6246355482718663  0.6546851956296244
  0.6876258570294815  0.9553808377358239  0.4785982792175507
  0.3124311080387209  0.7053354572161619  0.4784623756957387
  0.5621793971071114  0.3806148638459230  0.7880924678402046
  0.6871060592594785  0.4628072238032084  0.8330693525736408
  0.5629040536460377  0.3750858255085158  0.6548399790328161
  0.3123283312867138  0.5415924081323784  0.6106729181560351
  0.0621093074954037  0.3708556832072916  0.4343183205241971
  0.5626306801370043  0.5446872111732763  0.7438508336678470
  0.8129093724180078  0.6973238837504436  0.2120574704565183
  0.6877348260466836  0.7958693003261378  0.7439396545093500
  0.1875997742256067  0.7954747658268033  0.7439162219836351
  0.6877696358680242  0.6172047555075516  0.3003520966844097
  0.5622547792343499  0.8641244148604613  0.1661647302333257
  0.6876012521590342  0.9568241165726357  0.5655457097704010
  0.8125411831289079  0.5368014434829858  0.3893136603187026
  0.8125933673217328  0.0417590734327792  0.6109292788533057
  0.6876864471882328  0.1171427361464793  0.3004818336424646
  0.0622616185525657  0.2034684670679313  0.3453151775689455
  0.5625813043868014  0.2131484260536417  0.8337188156200646
  0.1870578405614417  0.7825053890104195  0.2559906585502792
  0.4374414653016612  0.9525193706052341  0.3451127213906846
  0.9373182416282874  0.1224746826164626  0.5215137012137802
 
  0.00000000E+00  0.00000000E+00  0.00000000E+00
  0.00000000E+00  0.00000000E+00  0.00000000E+00
  0.00000000E+00  0.00000000E+00  0.00000000E+00
  0.00000000E+00  0.00000000E+00  0.00000000E+00
  0.00000000E+00  0.00000000E+00  0.00000000E+00
  0.00000000E+00  0.00000000E+00  0.00000000E+00
  0.00000000E+00  0.00000000E+00  0.00000000E+00
  0.00000000E+00  0.00000000E+00  0.00000000E+00
  0.00000000E+00  0.00000000E+00  0.00000000E+00
  0.00000000E+00  0.00000000E+00  0.00000000E+00
  0.00000000E+00  0.00000000E+00  0.00000000E+00
  0.00000000E+00  0.00000000E+00  0.00000000E+00
  0.00000000E+00  0.00000000E+00  0.00000000E+00
  0.00000000E+00  0.00000000E+00  0.00000000E+00
  0.00000000E+00  0.00000000E+00  0.00000000E+00
  0.00000000E+00  0.00000000E+00  0.00000000E+00
  0.00000000E+00  0.00000000E+00  0.00000000E+00
  0.00000000E+00  0.00000000E+00  0.00000000E+00
  0.00000000E+00  0.00000000E+00  0.00000000E+00
  0.00000000E+00  0.00000000E+00  0.00000000E+00
  0.00000000E+00  0.00000000E+00  0.00000000E+00
  0.00000000E+00  0.00000000E+00  0.00000000E+00
  0.00000000E+00  0.00000000E+00  0.00000000E+00
  0.00000000E+00  0.00000000E+00  0.00000000E+00
  0.00000000E+00  0.00000000E+00  0.00000000E+00
  0.00000000E+00  0.00000000E+00  0.00000000E+00
  0.00000000E+00  0.00000000E+00  0.00000000E+00
  0.00000000E+00  0.00000000E+00  0.00000000E+00
  0.00000000E+00  0.00000000E+00  0.00000000E+00
  0.00000000E+00  0.00000000E+00  0.00000000E+00
  0.00000000E+00  0.00000000E+00  0.00000000E+00
  0.00000000E+00  0.00000000E+00  0.00000000E+00
  0.00000000E+00  0.00000000E+00  0.00000000E+00
  0.00000000E+00  0.00000000E+00  0.00000000E+00
  0.00000000E+00  0.00000000E+00  0.00000000E+00
  0.00000000E+00  0.00000000E+00  0.00000000E+00
  0.00000000E+00  0.00000000E+00  0.00000000E+00
  0.00000000E+00  0.00000000E+00  0.00000000E+00
  0.00000000E+00  0.00000000E+00  0.00000000E+00
  0.00000000E+00  0.00000000E+00  0.00000000E+00
  0.00000000E+00  0.00000000E+00  0.00000000E+00
  0.00000000E+00  0.00000000E+00  0.00000000E+00
  0.00000000E+00  0.00000000E+00  0.00000000E+00
  0.00000000E+00  0.00000000E+00  0.00000000E+00
  0.00000000E+00  0.00000000E+00  0.00000000E+00
  0.00000000E+00  0.00000000E+00  0.00000000E+00
  0.00000000E+00  0.00000000E+00  0.00000000E+00
  0.00000000E+00  0.00000000E+00  0.00000000E+00
  0.00000000E+00  0.00000000E+00  0.00000000E+00
  0.00000000E+00  0.00000000E+00  0.00000000E+00
  0.00000000E+00  0.00000000E+00  0.00000000E+00
  0.00000000E+00  0.00000000E+00  0.00000000E+00
  0.00000000E+00  0.00000000E+00  0.00000000E+00
  0.00000000E+00  0.00000000E+00  0.00000000E+00
  0.00000000E+00  0.00000000E+00  0.00000000E+00
  0.00000000E+00  0.00000000E+00  0.00000000E+00
  0.00000000E+00  0.00000000E+00  0.00000000E+00
  0.00000000E+00  0.00000000E+00  0.00000000E+00
  0.00000000E+00  0.00000000E+00  0.00000000E+00
  0.00000000E+00  0.00000000E+00  0.00000000E+00
  0.00000000E+00  0.00000000E+00  0.00000000E+00
  0.00000000E+00  0.00000000E+00  0.00000000E+00
  0.00000000E+00  0.00000000E+00  0.00000000E+00
  0.00000000E+00  0.00000000E+00  0.00000000E+00
  0.00000000E+00  0.00000000E+00  0.00000000E+00
  0.00000000E+00  0.00000000E+00  0.00000000E+00
  0.00000000E+00  0.00000000E+00  0.00000000E+00
  0.00000000E+00  0.00000000E+00  0.00000000E+00
  0.00000000E+00  0.00000000E+00  0.00000000E+00
  0.00000000E+00  0.00000000E+00  0.00000000E+00
  0.00000000E+00  0.00000000E+00  0.00000000E+00
  0.00000000E+00  0.00000000E+00  0.00000000E+00
  0.00000000E+00  0.00000000E+00  0.00000000E+00
  0.00000000E+00  0.00000000E+00  0.00000000E+00
  0.00000000E+00  0.00000000E+00  0.00000000E+00
  0.00000000E+00  0.00000000E+00  0.00000000E+00
  0.00000000E+00  0.00000000E+00  0.00000000E+00
  0.00000000E+00  0.00000000E+00  0.00000000E+00
  0.00000000E+00  0.00000000E+00  0.00000000E+00
  0.00000000E+00  0.00000000E+00  0.00000000E+00
  0.00000000E+00  0.00000000E+00  0.00000000E+00
  0.00000000E+00  0.00000000E+00  0.00000000E+00
  0.00000000E+00  0.00000000E+00  0.00000000E+00
  0.00000000E+00  0.00000000E+00  0.00000000E+00
  0.00000000E+00  0.00000000E+00  0.00000000E+00
  0.00000000E+00  0.00000000E+00  0.00000000E+00
  0.00000000E+00  0.00000000E+00  0.00000000E+00
  0.00000000E+00  0.00000000E+00  0.00000000E+00
  0.00000000E+00  0.00000000E+00  0.00000000E+00
  0.00000000E+00  0.00000000E+00  0.00000000E+00
  0.00000000E+00  0.00000000E+00  0.00000000E+00
  0.00000000E+00  0.00000000E+00  0.00000000E+00
  0.00000000E+00  0.00000000E+00  0.00000000E+00
  0.00000000E+00  0.00000000E+00  0.00000000E+00
  0.00000000E+00  0.00000000E+00  0.00000000E+00
  0.00000000E+00  0.00000000E+00  0.00000000E+00
  0.00000000E+00  0.00000000E+00  0.00000000E+00
  0.00000000E+00  0.00000000E+00  0.00000000E+00
  0.00000000E+00  0.00000000E+00  0.00000000E+00
  0.00000000E+00  0.00000000E+00  0.00000000E+00
  0.00000000E+00  0.00000000E+00  0.00000000E+00
  0.00000000E+00  0.00000000E+00  0.00000000E+00
  0.00000000E+00  0.00000000E+00  0.00000000E+00
  0.00000000E+00  0.00000000E+00  0.00000000E+00
  0.00000000E+00  0.00000000E+00  0.00000000E+00
  0.00000000E+00  0.00000000E+00  0.00000000E+00
  0.00000000E+00  0.00000000E+00  0.00000000E+00
  0.00000000E+00  0.00000000E+00  0.00000000E+00
  0.00000000E+00  0.00000000E+00  0.00000000E+00
  0.00000000E+00  0.00000000E+00  0.00000000E+00
  0.00000000E+00  0.00000000E+00  0.00000000E+00
  0.00000000E+00  0.00000000E+00  0.00000000E+00
  0.00000000E+00  0.00000000E+00  0.00000000E+00
  0.00000000E+00  0.00000000E+00  0.00000000E+00
  0.00000000E+00  0.00000000E+00  0.00000000E+00
  0.00000000E+00  0.00000000E+00  0.00000000E+00
  0.00000000E+00  0.00000000E+00  0.00000000E+00
  0.00000000E+00  0.00000000E+00  0.00000000E+00
  0.00000000E+00  0.00000000E+00  0.00000000E+00
  0.00000000E+00  0.00000000E+00  0.00000000E+00
  0.00000000E+00  0.00000000E+00  0.00000000E+00
  0.00000000E+00  0.00000000E+00  0.00000000E+00
  0.00000000E+00  0.00000000E+00  0.00000000E+00
  0.00000000E+00  0.00000000E+00  0.00000000E+00
  0.00000000E+00  0.00000000E+00  0.00000000E+00
  0.00000000E+00  0.00000000E+00  0.00000000E+00
  0.00000000E+00  0.00000000E+00  0.00000000E+00
  0.00000000E+00  0.00000000E+00  0.00000000E+00
  0.00000000E+00  0.00000000E+00  0.00000000E+00
  0.00000000E+00  0.00000000E+00  0.00000000E+00
  0.00000000E+00  0.00000000E+00  0.00000000E+00
  0.00000000E+00  0.00000000E+00  0.00000000E+00
  0.00000000E+00  0.00000000E+00  0.00000000E+00
  0.00000000E+00  0.00000000E+00  0.00000000E+00
  0.00000000E+00  0.00000000E+00  0.00000000E+00
  0.00000000E+00  0.00000000E+00  0.00000000E+00
  0.00000000E+00  0.00000000E+00  0.00000000E+00
  0.00000000E+00  0.00000000E+00  0.00000000E+00
  0.00000000E+00  0.00000000E+00  0.00000000E+00
  0.00000000E+00  0.00000000E+00  0.00000000E+00
  0.00000000E+00  0.00000000E+00  0.00000000E+00
  0.00000000E+00  0.00000000E+00  0.00000000E+00
  0.00000000E+00  0.00000000E+00  0.00000000E+00
  0.00000000E+00  0.00000000E+00  0.00000000E+00
  0.00000000E+00  0.00000000E+00  0.00000000E+00
  0.00000000E+00  0.00000000E+00  0.00000000E+00
  0.00000000E+00  0.00000000E+00  0.00000000E+00
  0.00000000E+00  0.00000000E+00  0.00000000E+00
  0.00000000E+00  0.00000000E+00  0.00000000E+00
  0.00000000E+00  0.00000000E+00  0.00000000E+00
  0.00000000E+00  0.00000000E+00  0.00000000E+00
  0.00000000E+00  0.00000000E+00  0.00000000E+00
  0.00000000E+00  0.00000000E+00  0.00000000E+00
  0.00000000E+00  0.00000000E+00  0.00000000E+00
  0.00000000E+00  0.00000000E+00  0.00000000E+00
  0.00000000E+00  0.00000000E+00  0.00000000E+00
  0.00000000E+00  0.00000000E+00  0.00000000E+00
  0.00000000E+00  0.00000000E+00  0.00000000E+00
  0.00000000E+00  0.00000000E+00  0.00000000E+00
  0.00000000E+00  0.00000000E+00  0.00000000E+00
  0.00000000E+00  0.00000000E+00  0.00000000E+00
  0.00000000E+00  0.00000000E+00  0.00000000E+00
  0.00000000E+00  0.00000000E+00  0.00000000E+00
  0.00000000E+00  0.00000000E+00  0.00000000E+00
  0.00000000E+00  0.00000000E+00  0.00000000E+00
  0.00000000E+00  0.00000000E+00  0.00000000E+00
  0.00000000E+00  0.00000000E+00  0.00000000E+00
  0.00000000E+00  0.00000000E+00  0.00000000E+00
  0.00000000E+00  0.00000000E+00  0.00000000E+00
  0.00000000E+00  0.00000000E+00  0.00000000E+00
  0.00000000E+00  0.00000000E+00  0.00000000E+00
  0.00000000E+00  0.00000000E+00  0.00000000E+00
  0.00000000E+00  0.00000000E+00  0.00000000E+00
  0.00000000E+00  0.00000000E+00  0.00000000E+00
  0.00000000E+00  0.00000000E+00  0.00000000E+00
  0.00000000E+00  0.00000000E+00  0.00000000E+00
  0.00000000E+00  0.00000000E+00  0.00000000E+00
  0.00000000E+00  0.00000000E+00  0.00000000E+00
  0.00000000E+00  0.00000000E+00  0.00000000E+00
  0.00000000E+00  0.00000000E+00  0.00000000E+00
  0.00000000E+00  0.00000000E+00  0.00000000E+00
  0.00000000E+00  0.00000000E+00  0.00000000E+00
  0.00000000E+00  0.00000000E+00  0.00000000E+00
  0.00000000E+00  0.00000000E+00  0.00000000E+00
  0.00000000E+00  0.00000000E+00  0.00000000E+00
  0.00000000E+00  0.00000000E+00  0.00000000E+00
  0.00000000E+00  0.00000000E+00  0.00000000E+00
  0.00000000E+00  0.00000000E+00  0.00000000E+00
  0.00000000E+00  0.00000000E+00  0.00000000E+00
  0.00000000E+00  0.00000000E+00  0.00000000E+00
  0.00000000E+00  0.00000000E+00  0.00000000E+00
  0.00000000E+00  0.00000000E+00  0.00000000E+00
  0.00000000E+00  0.00000000E+00  0.00000000E+00
  0.00000000E+00  0.00000000E+00  0.00000000E+00
  0.00000000E+00  0.00000000E+00  0.00000000E+00
  0.00000000E+00  0.00000000E+00  0.00000000E+00
  0.00000000E+00  0.00000000E+00  0.00000000E+00
  0.00000000E+00  0.00000000E+00  0.00000000E+00
  0.00000000E+00  0.00000000E+00  0.00000000E+00
  0.00000000E+00  0.00000000E+00  0.00000000E+00
  0.00000000E+00  0.00000000E+00  0.00000000E+00
  0.00000000E+00  0.00000000E+00  0.00000000E+00
  0.00000000E+00  0.00000000E+00  0.00000000E+00
  0.00000000E+00  0.00000000E+00  0.00000000E+00
  0.00000000E+00  0.00000000E+00  0.00000000E+00
  0.00000000E+00  0.00000000E+00  0.00000000E+00
  0.00000000E+00  0.00000000E+00  0.00000000E+00
  0.00000000E+00  0.00000000E+00  0.00000000E+00
  0.00000000E+00  0.00000000E+00  0.00000000E+00
  0.00000000E+00  0.00000000E+00  0.00000000E+00
  0.00000000E+00  0.00000000E+00  0.00000000E+00
  0.00000000E+00  0.00000000E+00  0.00000000E+00
  0.00000000E+00  0.00000000E+00  0.00000000E+00
  0.00000000E+00  0.00000000E+00  0.00000000E+00
  0.00000000E+00  0.00000000E+00  0.00000000E+00
  0.00000000E+00  0.00000000E+00  0.00000000E+00
  0.00000000E+00  0.00000000E+00  0.00000000E+00
  0.00000000E+00  0.00000000E+00  0.00000000E+00
  0.00000000E+00  0.00000000E+00  0.00000000E+00
  0.00000000E+00  0.00000000E+00  0.00000000E+00
  0.00000000E+00  0.00000000E+00  0.00000000E+00
  0.00000000E+00  0.00000000E+00  0.00000000E+00
  0.00000000E+00  0.00000000E+00  0.00000000E+00
  0.00000000E+00  0.00000000E+00  0.00000000E+00
  0.00000000E+00  0.00000000E+00  0.00000000E+00
  0.00000000E+00  0.00000000E+00  0.00000000E+00
  0.00000000E+00  0.00000000E+00  0.00000000E+00
  0.00000000E+00  0.00000000E+00  0.00000000E+00
  0.00000000E+00  0.00000000E+00  0.00000000E+00
  0.00000000E+00  0.00000000E+00  0.00000000E+00
  0.00000000E+00  0.00000000E+00  0.00000000E+00
  0.00000000E+00  0.00000000E+00  0.00000000E+00
  0.00000000E+00  0.00000000E+00  0.00000000E+00
  0.00000000E+00  0.00000000E+00  0.00000000E+00
  0.00000000E+00  0.00000000E+00  0.00000000E+00
  0.00000000E+00  0.00000000E+00  0.00000000E+00
  0.00000000E+00  0.00000000E+00  0.00000000E+00
  0.00000000E+00  0.00000000E+00  0.00000000E+00
  0.00000000E+00  0.00000000E+00  0.00000000E+00
  0.00000000E+00  0.00000000E+00  0.00000000E+00
  0.00000000E+00  0.00000000E+00  0.00000000E+00
  0.00000000E+00  0.00000000E+00  0.00000000E+00
  0.00000000E+00  0.00000000E+00  0.00000000E+00
  0.00000000E+00  0.00000000E+00  0.00000000E+00
  0.00000000E+00  0.00000000E+00  0.00000000E+00
  0.00000000E+00  0.00000000E+00  0.00000000E+00
  0.00000000E+00  0.00000000E+00  0.00000000E+00