CuInSe2gb                               
   1.00000000000000     
     9.7266780392896699    0.0000000000000000    0.0000000000000000
     0.0000000000000000    8.4235502764570693    0.0000000000000000
     0.0000000000000000    0.0000000000000000   45.0000000000000000
   Fe   Mn
   274    14
Direct
  0.0619576708961952  0.0310628224434184  0.1242718167153799
  0.3165339030427163  0.8749587414656419  0.6548983300569823
  0.1848270030541664  0.1217603266371536  0.7882811689982497
  0.4416267442495556  0.2877240572883890  0.3891263765362400
  0.3177302622005836  0.7126635393697289  0.8328039950504579
  0.8178257650174686  0.2139437250670765  0.8333544174744115
  0.1912080788895573  0.9626518637045043  0.8333067121962990
  0.5622736195197344  0.2071113387829377  0.5655033514575503
  0.0655556226172618  0.0397558526885694  0.7439444922822009
  0.8115020611206154  0.8713204191045978  0.5213731184129002
  0.1911440992820132  0.2904387502000454  0.7439084005007842
  0.9336625107196082  0.4522428383274059  0.3448832478913262
  0.9412456055108485  0.2867035415004784  0.3890100371954903
  0.8130831466634262  0.0399757642787532  0.8754192496557538
  0.1834985989952858  0.7880707002026538  0.6108379551860035
  0.5663660499129081  0.0377886950928804  0.3890960728973368
  0.9418194810406953  0.9633209474946948  0.8335801550148730
  0.3141062745243347  0.5388450384036416  0.8757984523045838
  0.6906301734153627  0.2904009646493223  0.7439222103398319
  0.1828743256129406  0.6135504177317495  0.1666742680613620
  0.8122097742600776  0.2057772519243507  0.4787018879516111
  0.8088218108667412  0.5379823301034447  0.6109137459476898
  0.3120890290782366  0.8703672109305967  0.4344986138750058
  0.8092045717831613  0.0383687033370802  0.2562542278641058
  0.6836243738406586  0.9517195576453080  0.3449010775980892
  0.9313823722320262  0.1147815973746670  0.1671974881142738
  0.0616682373169765  0.8713006148467586  0.5213914117597838
  0.5581696097655147  0.5384560169672098  0.2557747384721896
  0.6844613252484586  0.7956903327934469  0.8754387596908118
  0.5572856479037559  0.3638362501871220  0.1666142578528690
  0.4398702981089164  0.7907900563010913  0.7440465109632344
  0.8114588039903077  0.7065826387843546  0.5654763507908250
  0.5598988792516529  0.8722863698077525  0.7883111794822397
  0.6866264011050164  0.1215159408594112  0.5213847307052398
  0.8165461805523599  0.3748312448549765  0.6549019200130741
  0.9416948045977515  0.4628416620722124  0.8335218844788513
  0.0603947262685574  0.2080220895456179  0.6995498579228702
  0.4351373583051534  0.9580035503209038  0.6995393876415001
  0.3169113580302168  0.2119303036317698  0.8333265376766033
  0.4414331993385759  0.6249194624990689  0.6548953013665522
  0.3087663999494319  0.5378422993469321  0.6108787094892754
  0.9366413163741045  0.4566253367502851  0.5655771525722226
  0.6900460221646300  0.7910763160148381  0.7440474117252103
  0.9344149489161166  0.7875469044646433  0.1245971343558675
  0.6916917581308560  0.7877429397749717  0.3890759553768335
  0.9405822808784794  0.7901528082676270  0.7441654763736666
  0.0587641498928938  0.2028844950366783  0.3450495754774368
  0.6835952119265830  0.4523377803953718  0.3450448562597041
  0.4349915608486247  0.1213376408136621  0.7886410154713780
  0.0648251479528509  0.2051119673625645  0.2116865348075900
  0.0554495761579386  0.3657882531486554  0.1667756473154316
  0.9335389786634819  0.7890036874869532  0.2560061074938312
  0.5604424244489329  0.2077303880840244  0.6995742740172157
  0.6849609539301200  0.9580229232526737  0.6996031201652519
  0.8098299305269738  0.8723667890594253  0.7882361401988992
  0.4370509602254913  0.9572712167383445  0.5653693107741167
  0.8101774694261784  0.3732907687219391  0.7882065427186515
  0.6835923577638783  0.2891546018499299  0.2561154855910802
  0.1873322659706647  0.4571613803445085  0.5654735271512162
  0.0560367802377642  0.8655647401814488  0.1668399114358927
  0.1837410492359206  0.2880202975681030  0.6109226582870945
  0.0623377258659968  0.2072188933691588  0.5653583664179233
  0.3104533243621320  0.2079876615913597  0.6996461475784354
  0.5635381470805654  0.5392712176562273  0.8756818301067767
  0.0619022586204185  0.7063580584829749  0.5655361021885271
  0.6848464696399651  0.6215939119576873  0.7882082151743491
  0.3161551548232270  0.5378778367457531  0.3890695796699931
  0.1867314905664134  0.6212649285664029  0.5214378181656246
  0.5624435175013313  0.8702566449653879  0.4344571913290488
  0.4369194481419588  0.4570461390532652  0.5654954388001787
  0.4398753447939645  0.2911170923566838  0.7440469000235029
  0.8193769634303139  0.8747408261263196  0.3004095357362426
  0.8085721216295230  0.7027601421147730  0.3450664934722944
  0.4416255581549048  0.4623338543979084  0.8331407136010665
  0.6873840587757977  0.9556913127431688  0.4786710862605771
  0.6849949709128942  0.4580298873952282  0.6996139283124083
  0.5617977093168082  0.8719728064505828  0.5213871124925560
  0.5665548546166389  0.3748835982159639  0.6548992644769466
  0.8164306344761956  0.8749544483909092  0.6549354806458716
  0.8116661357740286  0.3711152893446821  0.4342368426407817
  0.8090630428044850  0.5383507228954495  0.2562373677738313
  0.6918176495993906  0.4615605797482167  0.8330714838357434
  0.1860321570883769  0.7878395033807137  0.1241208986825197
  0.6912892023774226  0.2875030323933717  0.3890666762384247
  0.3165129241695563  0.3749233895746140  0.6548873514414504
  0.3086194576274640  0.2024094262188191  0.3448779665300828
  0.8155469376170844  0.5398874634563242  0.7439495365112239
  0.6914788891207436  0.9620102057971417  0.8331391849773871
  0.5662732242685149  0.8749403328701967  0.6549168971250278
  0.3114715340889029  0.7072625843449171  0.5654396289330043
  0.3119523897563472  0.5320743829258279  0.1243053055889296
  0.6895175028805869  0.9557487396745271  0.2118428135610774
  0.3114101585968880  0.2066326623979135  0.5654875284926715
  0.1872939002590012  0.9557240439749911  0.4787258889864000
  0.6874152630694752  0.9571848143209564  0.5654713110668371
  0.4337376129507360  0.7881285143865453  0.6108336342609310
  0.6825716505677089  0.6123567799121222  0.1668400559884722
  0.3188689926847447  0.8739160037212437  0.3002445956062637
  0.3122141010894392  0.7057988119242514  0.4786760270514939
  0.9336654465656874  0.2878890877335577  0.6109019877059831
  0.4450715337695603  0.6247990280516942  0.3004648657560695
  0.8051243827389742  0.8657080955846660  0.1670121004514638
  0.5663029510825425  0.2046629702190372  0.2114957697829071
  0.9327021647640612  0.6126948580680525  0.1668823871715159
  0.4372212129661853  0.9557268460166256  0.4786346198311037
  0.5602032467713890  0.3718939785044935  0.7883510179042120
  0.0614096316839813  0.3720367222506317  0.5213545092003338
  0.3061914659102669  0.3639955118718130  0.1670010503836003
  0.6949450219482116  0.1239108872927689  0.3003590158556649
  0.4426621452304650  0.9618178887434979  0.8331492558957440
  0.1848525558678988  0.2878156471032725  0.1245998081696245
  0.1843051115646368  0.2890941305741150  0.2560454211518359
  0.3124883057390167  0.3703255782232825  0.4344595662849361
  0.5631260091185966  0.5325321459283360  0.1243511082921005
  0.4336725253534504  0.2880736253981515  0.6108582693018129
  0.1836125082027423  0.4527447301377992  0.3450344048968124
  0.4349445425761934  0.2882713874857882  0.1245891021144465
  0.6842207824378373  0.7893123477267947  0.2561155727110502
  0.4365978577072694  0.1215289554747459  0.5213733761421567
  0.1883288885818070  0.2944228701305968  0.8757663669665717
  0.1914789987109554  0.1249928130354071  0.6548893353065800
  0.9415595941894588  0.1249806103597632  0.6548997118565286
  0.8162424142161356  0.5375822121567446  0.3890735137788148
  0.0665052360166969  0.0378936882734772  0.3891014014402095
  0.1828597508012227  0.1123786019402421  0.1665978054093021
  0.0586368335147651  0.5378118552518610  0.6109171943557106
  0.9342489795648380  0.2889681435574455  0.2559875340059226
  0.5586032548869485  0.5379773573056154  0.6108802894451466
  0.9368679798309143  0.9573852887116935  0.5654424186653979
  0.6943102708417529  0.6249587383751941  0.3003692490748036
  0.9374401561783545  0.6201279059422220  0.4344704316988355
  0.9337306965142507  0.6229977435713090  0.7880155240494069
  0.5603979159466987  0.7076996208650653  0.6995746096712755
  0.0659818951462271  0.7152467411752005  0.8336447028974074
  0.9448609856368517  0.1238172115436548  0.3002824642343448
  0.9336709766491780  0.7876987373939588  0.6109178567123413
  0.4334863200797853  0.7893817256120043  0.2560677505732374
  0.3105534141946032  0.3720778768249301  0.7882106882668325
  0.4396097264751412  0.4556892838397473  0.2119439584369512
  0.1867006632459938  0.1214234082762391  0.5213938992705207
  0.8102564837579671  0.7079824775830221  0.6995670481102891
  0.0587138025195833  0.0379046392201330  0.6108547958736606
  0.5660849533167487  0.2129756162007489  0.8330120313458361
  0.3116809513580164  0.8715453409873382  0.5213833495234230
  0.6852810173695497  0.2885371389687334  0.1244938406457717
  0.1897066132735767  0.9565593583798899  0.2120583708013162
  0.6836318783009310  0.2881718593371281  0.6109122124617237
  0.3086893114483794  0.0379137556125737  0.6109695611561224
  0.9349506145607167  0.1226297554732470  0.7883549576669823
  0.4369341023162269  0.7953587306736989  0.8757164433247627
  0.8154347616931620  0.0403136180058667  0.7438797752943620
  0.9350005807587060  0.4581022878094746  0.6996137557266839
  0.1912857366526904  0.6249959899358857  0.6549025059800189
  0.3102800417725395  0.7077101411178842  0.6995949207116643
  0.9342844345437010  0.2878678037856831  0.1245753492676223
  0.4373261906527305  0.4558578152068140  0.4786043013264971
  0.0622183166500167  0.7057424921617641  0.4785858097722088
  0.9369263006926755  0.1198525585057613  0.4346045820522306
  0.4441894393224577  0.1246970065255049  0.3004800749791787
  0.1874419375908144  0.1199721763406342  0.4344112310289363
  0.5632690799436642  0.0392160322899572  0.8758093830126643
  0.1869689326540144  0.9572570822145008  0.5654322767887840
  0.6853393963708080  0.7878844620889571  0.1245045501081435
  0.5587029746746319  0.7023515238715469  0.3450011103073595
  0.3162957895299749  0.0369483767352841  0.3890055516834967
  0.6825080089786703  0.1129528536915466  0.1669151175413423
  0.8159833747087779  0.2053865539155445  0.2117605352653693
  0.0596725501738852  0.5381027290017504  0.2560375422573896
  0.5622377793103179  0.7056645757639071  0.4786201837942325
  0.4339080802534026  0.7868049309987568  0.1244006001310311
  0.5691316284462690  0.3739636367288529  0.3004305715434379
  0.4335245739144879  0.9528284164312883  0.3450948687522586
  0.1851936116084610  0.9580697276665444  0.6996953960812887
  0.4305181753454455  0.6150774105464342  0.1667576685097040
  0.9399464968512319  0.4553314860305758  0.2119458564039296
  0.0619434252126443  0.5311554677493111  0.1244349257528711
  0.8118008079791627  0.3718935833861304  0.5213751946430742
  0.9446090975411443  0.6243500154773313  0.3001731506854880
  0.3093971262592817  0.0378566849325313  0.2559535758911805
  0.6836132860277674  0.7880000528292757  0.6108906895654143
  0.1917720525025128  0.4625710968037156  0.8331785657894961
  0.4326063887416451  0.1120641827537439  0.1665987873109265
  0.3114918513278242  0.3716524262308034  0.5213891255229933
  0.4338496550694956  0.6217907285844476  0.7885188574785363
  0.0583426572997955  0.0383803388085413  0.2560445246477786
  0.5621298657343835  0.7071675759500516  0.5654925171921111
  0.9399995238976296  0.2895541542477442  0.7440016895314052
  0.6833038555724200  0.1221953981932811  0.7883337165138437
  0.1895269180677313  0.4550151412728996  0.2116369024834763
  0.9412506137829123  0.7875812585677174  0.3890532887622982
  0.6860180055224583  0.2977409457453019  0.8757455123238380
  0.5553257701787552  0.8652542739979620  0.1668070126296382
  0.4353752332717765  0.4580144358168512  0.6995518833718561
  0.9338783795246407  0.9517206597917570  0.3449834462374642
  0.6865475024880573  0.6213064748653052  0.5212850387475029
  0.0664447460536828  0.8748602592747449  0.6548745855041671
  0.0598883240784434  0.8728901110004793  0.7882433997250909
  0.0663687927787689  0.3748659284251980  0.6549106576736962
  0.6870311209476431  0.4556851319611515  0.4786429204222312
  0.1842703483278378  0.7896711004860305  0.2560124920734915
  0.4370364844897615  0.1206927802637697  0.4343991819253408
  0.8129932114957541  0.0307825497430293  0.1244638936422613
  0.9365520588894941  0.6214636279757598  0.5214022154547914
  0.4416614990669331  0.1248922729057210  0.6548285334814663
  0.8122555257611814  0.5310681450310312  0.1243061287229224
  0.4338541459169689  0.4525871928162304  0.3451468511925433
  0.8089214203889428  0.2025423752164981  0.3451070651459847
  0.3088570630076869  0.7020366835414064  0.3449366075568278
  0.6913907133884926  0.1249183630418541  0.6549435305672249
  0.5694722378751678  0.8740954799211501  0.3004861004487791
  0.0655309115690121  0.5399517256273106  0.7439971016272263
  0.9409207248878519  0.9555691155246887  0.2116366937361775
  0.8158354362113610  0.7049716771263238  0.2115421842700556
  0.0691020855842005  0.8742134241903191  0.3003913013443021
  0.1945314187950573  0.1246795780934908  0.3004338441962704
  0.0585843575602383  0.7021276657776576  0.3449560376609541
  0.8088560329727961  0.0378842980835618  0.6108618106455048
  0.0627358831547067  0.3711439263978932  0.4343957828003963
  0.5589013958217444  0.2026862753994257  0.3449623566513731
  0.8193930369685227  0.3747809013778122  0.3003968212255647
  0.5593843318310149  0.0389580794277993  0.2560684435275986
  0.5663316020072585  0.5376141509251728  0.3890911820580042
  0.0624842352523805  0.2057675643562877  0.4786680949728382
  0.3111238939849504  0.8714827695901408  0.7880706862972607
  0.9352564996217476  0.9582511432892283  0.6995722368823478
  0.0691097747172462  0.3749641946920850  0.3004630788361712
  0.6914518938091118  0.6249639451541157  0.6549714899325146
  0.6869144049861279  0.4570311229391917  0.5654003985507234
  0.4405629228969840  0.9567622153425848  0.2121682455113839
  0.3122766291084371  0.2056659124621515  0.4786907578214380
  0.8132901563867500  0.5386283609120387  0.8756046216719156
  0.6877572662803133  0.6202591540750163  0.4344780125754136
  0.8105099586327245  0.2078678097644907  0.6996285282337448
  0.8123387646366234  0.7056831840197931  0.4786584326786477
  0.8117272160981936  0.8708530524850737  0.4342717799197489
  0.9372777757456192  0.9550609127894296  0.4787292059920483
  0.5622666840101953  0.2056270745891950  0.4786300408111098
  0.1869623748326074  0.6200252847524735  0.4344430254154889
  0.3153237248417032  0.0406800155141864  0.7438744004918891
  0.9415125891542870  0.6252015097670856  0.6548689364852692
  0.5663120664648812  0.7128362936789489  0.8330961511302466
  0.3198545504939149  0.3738218243024473  0.3003780731157416
  0.5653584170388254  0.7037262864021828  0.2120785669226228
  0.1873537177954649  0.4557247663779397  0.4786501574127746
  0.3145469212525238  0.0403456851102943  0.8755886434309785
  0.1849534901778064  0.4580244671904979  0.6995682442145734
  0.5616231734273539  0.3715290362147048  0.5213942318217314
  0.1912527880257815  0.2877206556188612  0.3890544305029769
  0.3146814797862384  0.2059043838687412  0.2117852278557475
  0.0669598539128145  0.7055736523590705  0.2116165334488032
  0.5620470545288644  0.3705956075706764  0.4344126142966725
  0.4366471961004028  0.6217303540868606  0.5213155136702710
  0.8168418016923473  0.7143074015065294  0.8330484853858193
  0.0607910254458148  0.3730803940731260  0.7881233583053072
  0.4366374120793694  0.2964390007468722  0.8760536183366808
  0.3110893703783814  0.0314787288643859  0.1243856969814329
  0.6877307413520823  0.1197576543174679  0.4344047469302089
  0.1837037831134090  0.9526552145957113  0.3451281769016303
  0.0665681887817055  0.2136495643118823  0.8336389342365327
  0.5588886890694857  0.0381333302200359  0.6109553360113712
  0.6899273891023617  0.4559559214065269  0.2121924764506235
  0.1904202267326963  0.7903188591035210  0.7439953459995445
  0.1941987784067910  0.6243880452550459  0.3004586716340004
  0.4413609646292603  0.7875832383436896  0.3890967471342774
  0.4339032712480698  0.2895513060367584  0.2560961165246282
  0.0646400103051516  0.5387503900457703  0.8755509932758156
  0.5659050987511497  0.0403803298436348  0.7438997996503964
  0.1874707749996449  0.7954029659433149  0.8757157336877641
  0.9372811366112864  0.4556076060539796  0.4786594229618018
  0.5656876676406394  0.5405787312423743  0.7438860967658949
  0.8112607118707650  0.2069089659436515  0.5654449104518865
  0.1854477841799178  0.6207602568965569  0.7881160281886226
  0.0669954729755782  0.5386144683893520  0.3892259964729283
  0.0604528827402951  0.7077561714407169  0.6995573811119935
  0.3089043397157784  0.5386225239756292  0.2555629932463472
  0.3158628746421243  0.7032590675604351  0.2122582441591495
  0.3054470651612876  0.8658689240417196  0.1659279045780792
  0.4368849355600435  0.6207758939863568  0.4344279322089486
  0.8180219455748446  0.0388429879727964  0.3892172482744555
  0.9352326041696216  0.2961056277043990  0.8752918223976646
  0.9375919868988040  0.7937103020777181  0.8752060094642506
  0.0655314673549511  0.0376666373612360  0.8753604278413544
  0.5629601868031613  0.0300844363087211  0.1250385003924219
  0.8056007915147031  0.3653530549283118  0.1665572682853241
  0.0621183872708801  0.8708520456883025  0.4344556141733744
  0.9363918621025770  0.1214993557751034  0.5214422405079487
  0.1926337739627818  0.7875205935023681  0.3890254309953319
  0.3155541419406765  0.5401392256345711  0.7441593112643364
 
  0.00000000E+00  0.00000000E+00  0.00000000E+00
  0.00000000E+00  0.00000000E+00  0.00000000E+00
  0.00000000E+00  0.00000000E+00  0.00000000E+00
  0.00000000E+00  0.00000000E+00  0.00000000E+00
  0.00000000E+00  0.00000000E+00  0.00000000E+00
  0.00000000E+00  0.00000000E+00  0.00000000E+00
  0.00000000E+00  0.00000000E+00  0.00000000E+00
  0.00000000E+00  0.00000000E+00  0.00000000E+00
  0.00000000E+00  0.00000000E+00  0.00000000E+00
  0.00000000E+00  0.00000000E+00  0.00000000E+00
  0.00000000E+00  0.00000000E+00  0.00000000E+00
  0.00000000E+00  0.00000000E+00  0.00000000E+00
  0.00000000E+00  0.00000000E+00  0.00000000E+00
  0.00000000E+00  0.00000000E+00  0.00000000E+00
  0.00000000E+00  0.00000000E+00  0.00000000E+00
  0.00000000E+00  0.00000000E+00  0.00000000E+00
  0.00000000E+00  0.00000000E+00  0.00000000E+00
  0.00000000E+00  0.00000000E+00  0.00000000E+00
  0.00000000E+00  0.00000000E+00  0.00000000E+00
  0.00000000E+00  0.00000000E+00  0.00000000E+00
  0.00000000E+00  0.00000000E+00  0.00000000E+00
  0.00000000E+00  0.00000000E+00  0.00000000E+00
  0.00000000E+00  0.00000000E+00  0.00000000E+00
  0.00000000E+00  0.00000000E+00  0.00000000E+00
  0.00000000E+00  0.00000000E+00  0.00000000E+00
  0.00000000E+00  0.00000000E+00  0.00000000E+00
  0.00000000E+00  0.00000000E+00  0.00000000E+00
  0.00000000E+00  0.00000000E+00  0.00000000E+00
  0.00000000E+00  0.00000000E+00  0.00000000E+00
  0.00000000E+00  0.00000000E+00  0.00000000E+00
  0.00000000E+00  0.00000000E+00  0.00000000E+00
  0.00000000E+00  0.00000000E+00  0.00000000E+00
  0.00000000E+00  0.00000000E+00  0.00000000E+00
  0.00000000E+00  0.00000000E+00  0.00000000E+00
  0.00000000E+00  0.00000000E+00  0.00000000E+00
  0.00000000E+00  0.00000000E+00  0.00000000E+00
  0.00000000E+00  0.00000000E+00  0.00000000E+00
  0.00000000E+00  0.00000000E+00  0.00000000E+00
  0.00000000E+00  0.00000000E+00  0.00000000E+00
  0.00000000E+00  0.00000000E+00  0.00000000E+00
  0.00000000E+00  0.00000000E+00  0.00000000E+00
  0.00000000E+00  0.00000000E+00  0.00000000E+00
  0.00000000E+00  0.00000000E+00  0.00000000E+00
  0.00000000E+00  0.00000000E+00  0.00000000E+00
  0.00000000E+00  0.00000000E+00  0.00000000E+00
  0.00000000E+00  0.00000000E+00  0.00000000E+00
  0.00000000E+00  0.00000000E+00  0.00000000E+00
  0.00000000E+00  0.00000000E+00  0.00000000E+00
  0.00000000E+00  0.00000000E+00  0.00000000E+00
  0.00000000E+00  0.00000000E+00  0.00000000E+00
  0.00000000E+00  0.00000000E+00  0.00000000E+00
  0.00000000E+00  0.00000000E+00  0.00000000E+00
  0.00000000E+00  0.00000000E+00  0.00000000E+00
  0.00000000E+00  0.00000000E+00  0.00000000E+00
  0.00000000E+00  0.00000000E+00  0.00000000E+00
  0.00000000E+00  0.00000000E+00  0.00000000E+00
  0.00000000E+00  0.00000000E+00  0.00000000E+00
  0.00000000E+00  0.00000000E+00  0.00000000E+00
  0.00000000E+00  0.00000000E+00  0.00000000E+00
  0.00000000E+00  0.00000000E+00  0.00000000E+00
  0.00000000E+00  0.00000000E+00  0.00000000E+00
  0.00000000E+00  0.00000000E+00  0.00000000E+00
  0.00000000E+00  0.00000000E+00  0.00000000E+00
  0.00000000E+00  0.00000000E+00  0.00000000E+00
  0.00000000E+00  0.00000000E+00  0.00000000E+00
  0.00000000E+00  0.00000000E+00  0.00000000E+00
  0.00000000E+00  0.00000000E+00  0.00000000E+00
  0.00000000E+00  0.00000000E+00  0.00000000E+00
  0.00000000E+00  0.00000000E+00  0.00000000E+00
  0.00000000E+00  0.00000000E+00  0.00000000E+00
  0.00000000E+00  0.00000000E+00  0.00000000E+00
  0.00000000E+00  0.00000000E+00  0.00000000E+00
  0.00000000E+00  0.00000000E+00  0.00000000E+00
  0.00000000E+00  0.00000000E+00  0.00000000E+00
  0.00000000E+00  0.00000000E+00  0.00000000E+00
  0.00000000E+00  0.00000000E+00  0.00000000E+00
  0.00000000E+00  0.00000000E+00  0.00000000E+00
  0.00000000E+00  0.00000000E+00  0.00000000E+00
  0.00000000E+00  0.00000000E+00  0.00000000E+00
  0.00000000E+00  0.00000000E+00  0.00000000E+00
  0.00000000E+00  0.00000000E+00  0.00000000E+00
  0.00000000E+00  0.00000000E+00  0.00000000E+00
  0.00000000E+00  0.00000000E+00  0.00000000E+00
  0.00000000E+00  0.00000000E+00  0.00000000E+00
  0.00000000E+00  0.00000000E+00  0.00000000E+00
  0.00000000E+00  0.00000000E+00  0.00000000E+00
  0.00000000E+00  0.00000000E+00  0.00000000E+00
  0.00000000E+00  0.00000000E+00  0.00000000E+00
  0.00000000E+00  0.00000000E+00  0.00000000E+00
  0.00000000E+00  0.00000000E+00  0.00000000E+00
  0.00000000E+00  0.00000000E+00  0.00000000E+00
  0.00000000E+00  0.00000000E+00  0.00000000E+00
  0.00000000E+00  0.00000000E+00  0.00000000E+00
  0.00000000E+00  0.00000000E+00  0.00000000E+00
  0.00000000E+00  0.00000000E+00  0.00000000E+00
  0.00000000E+00  0.00000000E+00  0.00000000E+00
  0.00000000E+00  0.00000000E+00  0.00000000E+00
  0.00000000E+00  0.00000000E+00  0.00000000E+00
  0.00000000E+00  0.00000000E+00  0.00000000E+00
  0.00000000E+00  0.00000000E+00  0.00000000E+00
  0.00000000E+00  0.00000000E+00  0.00000000E+00
  0.00000000E+00  0.00000000E+00  0.00000000E+00
  0.00000000E+00  0.00000000E+00  0.00000000E+00
  0.00000000E+00  0.00000000E+00  0.00000000E+00
  0.00000000E+00  0.00000000E+00  0.00000000E+00
  0.00000000E+00  0.00000000E+00  0.00000000E+00
  0.00000000E+00  0.00000000E+00  0.00000000E+00
  0.00000000E+00  0.00000000E+00  0.00000000E+00
  0.00000000E+00  0.00000000E+00  0.00000000E+00
  0.00000000E+00  0.00000000E+00  0.00000000E+00
  0.00000000E+00  0.00000000E+00  0.00000000E+00
  0.00000000E+00  0.00000000E+00  0.00000000E+00
  0.00000000E+00  0.00000000E+00  0.00000000E+00
  0.00000000E+00  0.00000000E+00  0.00000000E+00
  0.00000000E+00  0.00000000E+00  0.00000000E+00
  0.00000000E+00  0.00000000E+00  0.00000000E+00
  0.00000000E+00  0.00000000E+00  0.00000000E+00
  0.00000000E+00  0.00000000E+00  0.00000000E+00
  0.00000000E+00  0.00000000E+00  0.00000000E+00
  0.00000000E+00  0.00000000E+00  0.00000000E+00
  0.00000000E+00  0.00000000E+00  0.00000000E+00
  0.00000000E+00  0.00000000E+00  0.00000000E+00
  0.00000000E+00  0.00000000E+00  0.00000000E+00
  0.00000000E+00  0.00000000E+00  0.00000000E+00
  0.00000000E+00  0.00000000E+00  0.00000000E+00
  0.00000000E+00  0.00000000E+00  0.00000000E+00
  0.00000000E+00  0.00000000E+00  0.00000000E+00
  0.00000000E+00  0.00000000E+00  0.00000000E+00
  0.00000000E+00  0.00000000E+00  0.00000000E+00
  0.00000000E+00  0.00000000E+00  0.00000000E+00
  0.00000000E+00  0.00000000E+00  0.00000000E+00
  0.00000000E+00  0.00000000E+00  0.00000000E+00
  0.00000000E+00  0.00000000E+00  0.00000000E+00
  0.00000000E+00  0.00000000E+00  0.00000000E+00
  0.00000000E+00  0.00000000E+00  0.00000000E+00
  0.00000000E+00  0.00000000E+00  0.00000000E+00
  0.00000000E+00  0.00000000E+00  0.00000000E+00
  0.00000000E+00  0.00000000E+00  0.00000000E+00
  0.00000000E+00  0.00000000E+00  0.00000000E+00
  0.00000000E+00  0.00000000E+00  0.00000000E+00
  0.00000000E+00  0.00000000E+00  0.00000000E+00
  0.00000000E+00  0.00000000E+00  0.00000000E+00
  0.00000000E+00  0.00000000E+00  0.00000000E+00
  0.00000000E+00  0.00000000E+00  0.00000000E+00
  0.00000000E+00  0.00000000E+00  0.00000000E+00
  0.00000000E+00  0.00000000E+00  0.00000000E+00
  0.00000000E+00  0.00000000E+00  0.00000000E+00
  0.00000000E+00  0.00000000E+00  0.00000000E+00
  0.00000000E+00  0.00000000E+00  0.00000000E+00
  0.00000000E+00  0.00000000E+00  0.00000000E+00
  0.00000000E+00  0.00000000E+00  0.00000000E+00
  0.00000000E+00  0.00000000E+00  0.00000000E+00
  0.00000000E+00  0.00000000E+00  0.00000000E+00
  0.00000000E+00  0.00000000E+00  0.00000000E+00
  0.00000000E+00  0.00000000E+00  0.00000000E+00
  0.00000000E+00  0.00000000E+00  0.00000000E+00
  0.00000000E+00  0.00000000E+00  0.00000000E+00
  0.00000000E+00  0.00000000E+00  0.00000000E+00
  0.00000000E+00  0.00000000E+00  0.00000000E+00
  0.00000000E+00  0.00000000E+00  0.00000000E+00
  0.00000000E+00  0.00000000E+00  0.00000000E+00
  0.00000000E+00  0.00000000E+00  0.00000000E+00
  0.00000000E+00  0.00000000E+00  0.00000000E+00
  0.00000000E+00  0.00000000E+00  0.00000000E+00
  0.00000000E+00  0.00000000E+00  0.00000000E+00
  0.00000000E+00  0.00000000E+00  0.00000000E+00
  0.00000000E+00  0.00000000E+00  0.00000000E+00
  0.00000000E+00  0.00000000E+00  0.00000000E+00
  0.00000000E+00  0.00000000E+00  0.00000000E+00
  0.00000000E+00  0.00000000E+00  0.00000000E+00
  0.00000000E+00  0.00000000E+00  0.00000000E+00
  0.00000000E+00  0.00000000E+00  0.00000000E+00
  0.00000000E+00  0.00000000E+00  0.00000000E+00
  0.00000000E+00  0.00000000E+00  0.00000000E+00
  0.00000000E+00  0.00000000E+00  0.00000000E+00
  0.00000000E+00  0.00000000E+00  0.00000000E+00
  0.00000000E+00  0.00000000E+00  0.00000000E+00
  0.00000000E+00  0.00000000E+00  0.00000000E+00
  0.00000000E+00  0.00000000E+00  0.00000000E+00
  0.00000000E+00  0.00000000E+00  0.00000000E+00
  0.00000000E+00  0.00000000E+00  0.00000000E+00
  0.00000000E+00  0.00000000E+00  0.00000000E+00
  0.00000000E+00  0.00000000E+00  0.00000000E+00
  0.00000000E+00  0.00000000E+00  0.00000000E+00
  0.00000000E+00  0.00000000E+00  0.00000000E+00
  0.00000000E+00  0.00000000E+00  0.00000000E+00
  0.00000000E+00  0.00000000E+00  0.00000000E+00
  0.00000000E+00  0.00000000E+00  0.00000000E+00
  0.00000000E+00  0.00000000E+00  0.00000000E+00
  0.00000000E+00  0.00000000E+00  0.00000000E+00
  0.00000000E+00  0.00000000E+00  0.00000000E+00
  0.00000000E+00  0.00000000E+00  0.00000000E+00
  0.00000000E+00  0.00000000E+00  0.00000000E+00
  0.00000000E+00  0.00000000E+00  0.00000000E+00
  0.00000000E+00  0.00000000E+00  0.00000000E+00
  0.00000000E+00  0.00000000E+00  0.00000000E+00
  0.00000000E+00  0.00000000E+00  0.00000000E+00
  0.00000000E+00  0.00000000E+00  0.00000000E+00
  0.00000000E+00  0.00000000E+00  0.00000000E+00
  0.00000000E+00  0.00000000E+00  0.00000000E+00
  0.00000000E+00  0.00000000E+00  0.00000000E+00
  0.00000000E+00  0.00000000E+00  0.00000000E+00
  0.00000000E+00  0.00000000E+00  0.00000000E+00
  0.00000000E+00  0.00000000E+00  0.00000000E+00
  0.00000000E+00  0.00000000E+00  0.00000000E+00
  0.00000000E+00  0.00000000E+00  0.00000000E+00
  0.00000000E+00  0.00000000E+00  0.00000000E+00
  0.00000000E+00  0.00000000E+00  0.00000000E+00
  0.00000000E+00  0.00000000E+00  0.00000000E+00
  0.00000000E+00  0.00000000E+00  0.00000000E+00
  0.00000000E+00  0.00000000E+00  0.00000000E+00
  0.00000000E+00  0.00000000E+00  0.00000000E+00
  0.00000000E+00  0.00000000E+00  0.00000000E+00
  0.00000000E+00  0.00000000E+00  0.00000000E+00
  0.00000000E+00  0.00000000E+00  0.00000000E+00
  0.00000000E+00  0.00000000E+00  0.00000000E+00
  0.00000000E+00  0.00000000E+00  0.00000000E+00
  0.00000000E+00  0.00000000E+00  0.00000000E+00
  0.00000000E+00  0.00000000E+00  0.00000000E+00
  0.00000000E+00  0.00000000E+00  0.00000000E+00
  0.00000000E+00  0.00000000E+00  0.00000000E+00
  0.00000000E+00  0.00000000E+00  0.00000000E+00
  0.00000000E+00  0.00000000E+00  0.00000000E+00
  0.00000000E+00  0.00000000E+00  0.00000000E+00
  0.00000000E+00  0.00000000E+00  0.00000000E+00
  0.00000000E+00  0.00000000E+00  0.00000000E+00
  0.00000000E+00  0.00000000E+00  0.00000000E+00
  0.00000000E+00  0.00000000E+00  0.00000000E+00
  0.00000000E+00  0.00000000E+00  0.00000000E+00
  0.00000000E+00  0.00000000E+00  0.00000000E+00
  0.00000000E+00  0.00000000E+00  0.00000000E+00
  0.00000000E+00  0.00000000E+00  0.00000000E+00
  0.00000000E+00  0.00000000E+00  0.00000000E+00
  0.00000000E+00  0.00000000E+00  0.00000000E+00
  0.00000000E+00  0.00000000E+00  0.00000000E+00
  0.00000000E+00  0.00000000E+00  0.00000000E+00
  0.00000000E+00  0.00000000E+00  0.00000000E+00
  0.00000000E+00  0.00000000E+00  0.00000000E+00
  0.00000000E+00  0.00000000E+00  0.00000000E+00
  0.00000000E+00  0.00000000E+00  0.00000000E+00
  0.00000000E+00  0.00000000E+00  0.00000000E+00
  0.00000000E+00  0.00000000E+00  0.00000000E+00
  0.00000000E+00  0.00000000E+00  0.00000000E+00
  0.00000000E+00  0.00000000E+00  0.00000000E+00
  0.00000000E+00  0.00000000E+00  0.00000000E+00
  0.00000000E+00  0.00000000E+00  0.00000000E+00
  0.00000000E+00  0.00000000E+00  0.00000000E+00