CuInSe2gb                               
   1.00000000000000     
     9.7266780392896699    0.0000000000000000    0.0000000000000000
     0.0000000000000000    8.4235502764570693    0.0000000000000000
     0.0000000000000000    0.0000000000000000   45.0000000000000000
   Fe   Mn
   281     7
Direct
  0.0627386246479024  0.0323224586192925  0.1247167243793537
  0.0629700329935858  0.8729041473670786  0.5217149304480065
  0.1917105692051797  0.1249469059345248  0.7882973737942240
  0.4351233458493941  0.2876245448799077  0.3894984606335911
  0.3108626473296686  0.7117174319794489  0.8335034862905182
  0.8110116595635036  0.2112928234175897  0.8335587185908613
  0.1851392000019235  0.7873100174495770  0.3894931715284292
  0.5632559864995846  0.2070505697199025  0.5656707933877604
  0.0624857642439048  0.0417919100449457  0.7438700513244898
  0.8133813721030252  0.8731550894645553  0.5217842246753530
  0.1875857027889543  0.2918221258630120  0.7438659874198810
  0.9378625237918414  0.4535824632487018  0.3450213721068903
  0.9356579745949730  0.2870249792481167  0.3894423322960042
  0.4384602956599243  0.6234208447081954  0.5217504673072035
  0.1873560495862686  0.7915022791538439  0.6104698837819867
  0.5597124069411784  0.0377967662329491  0.3894772924491108
  0.9353014456445088  0.9620712565267858  0.8335008215744829
  0.3132319777416471  0.5442741200881546  0.8752608767406967
  0.6875438642737383  0.2916736203193622  0.7438596344836729
  0.1903989993802238  0.6141514859293129  0.1666823410602955
  0.8129985766507956  0.2051504823000362  0.4781633183118278
  0.8123959949670823  0.5413844900272018  0.6104335104903487
  0.3124969887671162  0.8710549467760911  0.4341887158848345
  0.8124444409518791  0.0354376786413622  0.2560847048918358
  0.6876860093165140  0.9531021040551804  0.3450667118199637
  0.9405326553743373  0.1138668029148303  0.1667244243892890
  0.9384729598078717  0.1232024930068200  0.5216977377905021
  0.5623600765894604  0.5356384136112949  0.2560030965432967
  0.6884107073947611  0.7932073703519368  0.8753425060813400
  0.5661994912568639  0.3651149907530141  0.1665037351524620
  0.4376886417049480  0.7916728676176270  0.7438817351465272
  0.8132914109614467  0.7072627510636713  0.5657490408680553
  0.5665896244942534  0.8745881886715489  0.7881330762947801
  0.6884622952588662  0.1233027207280792  0.5216953972350513
  0.1876444690615951  0.2857809217377085  0.2561131174668635
  0.9359118175246577  0.4621396022864691  0.8334685321868956
  0.0637201295431744  0.2081355346529047  0.6996914873806646
  0.4386951828642416  0.9581266897801962  0.6996986900469442
  0.3109786938390184  0.2115954774507820  0.8336123902300269
  0.4357138530886698  0.6251664516343363  0.6548716674232195
  0.3124750375381582  0.5414972945908672  0.6104442404626023
  0.9382731778428473  0.4570183068915419  0.5657295138399803
  0.6876111299759344  0.7916680027837626  0.7438325274884209
  0.3108109789429521  0.8751191835395210  0.6548826451881306
  0.6855950210385036  0.7872165079587566  0.3894543966975931
  0.9376000142583383  0.7916212972015583  0.7438531465351654
  0.0626141360190828  0.2037230931113318  0.3451366421372665
  0.4395351639601177  0.7828107643265056  0.1248800524354000
  0.4416910010157113  0.1250864117442022  0.7882940676823583
  0.0596590409910912  0.2020271682504860  0.2117165788844438
  0.0658210052758603  0.3651522928192286  0.1666149605808808
  0.9377768522613003  0.7858637490237981  0.2560200574261760
  0.5636859131385543  0.2082326129313416  0.6996796464108954
  0.6886239838886580  0.9581759265717162  0.6996684830404852
  0.6852301847249358  0.2875800238733816  0.3894183574135565
  0.4384719595169838  0.9573456082221330  0.5658396089863872
  0.8167108311254971  0.3753118241918464  0.7881629736198312
  0.6873299075496849  0.2858859752478042  0.2561210601035808
  0.1881939807789089  0.4570275831265184  0.5657272475796863
  0.0656413268602598  0.8646367827051209  0.1664123139821473
  0.1873958008105590  0.2915106084491051  0.6104378731992282
  0.5627112427993163  0.7033010088793505  0.3449728830505640
  0.3137471663649456  0.2081817849529914  0.6996914420201931
  0.5633647627818638  0.5440020954531289  0.8753168215012984
  0.0631885431313797  0.7070331963676286  0.5658150304878147
  0.6915728622825953  0.6251848612845818  0.7883177986652041
  0.3106513289435850  0.5377044117937129  0.3894612372263000
  0.1881637058448781  0.6233625911856812  0.5217156763088679
  0.5626659501239801  0.8709169406540185  0.4343149976866505
  0.4381892703305050  0.4571205562126569  0.5657101088165176
  0.4375729648533381  0.2919969074180444  0.7438786873640100
  0.8077746393659586  0.8710447039374642  0.3002716800563739
  0.8127185102784358  0.7034806705299010  0.3451920289292174
  0.4360015747148956  0.4614158082489305  0.8335478939151216
  0.6877839251475616  0.9547811615051178  0.4782392539064035
  0.6887537515545021  0.4582356854389732  0.6996943428208656
  0.5631838570063542  0.8732610094757244  0.5217196963755399
  0.5607182141600977  0.3753023997131972  0.6548417166869618
  0.8106019426319736  0.8752657667773267  0.6548934688260816
  0.8130133735664837  0.3707845354717005  0.4342480828058919
  0.8126201949622253  0.5356144969729307  0.2561414865092125
  0.6858796409417937  0.4621113620511330  0.8335267557944992
  0.1888594123367981  0.7825681810639371  0.1248305896823576
  0.0642246206156935  0.0448242136785310  0.8752843851992199
  0.3108978509487941  0.3752309666570903  0.6548694713840892
  0.3127718083978341  0.2033167388140547  0.3450013788776018
  0.8125514529914276  0.5411868415317284  0.7438535957893828
  0.6863698833811352  0.9619587108806580  0.8335629350186046
  0.5606267961988023  0.8752544937543498  0.6548911120377165
  0.3130984936096159  0.7069371171127414  0.5658388761501710
  0.3136712244676230  0.5329466540483153  0.1244476382944554
  0.6838027331506135  0.9523208242688159  0.2118646024744518
  0.3132999997829047  0.2073821092069700  0.5658141560989228
  0.3126014350934149  0.5416294239061238  0.7438179420403034
  0.6882124815062910  0.9571926953797785  0.5657408411674006
  0.4373552403498253  0.7914827577706888  0.6104576179194505
  0.6904490420051064  0.6150643246861753  0.1666205240330481
  0.3078373263440228  0.8712687538476102  0.3002426501234138
  0.3128385133610931  0.7043392208078875  0.4781589060165833
  0.9375016602674112  0.2915847967494755  0.6104534155794656
  0.4327955254779281  0.6209228819882587  0.3003374316787069
  0.8162594461902601  0.8649114472134485  0.1665908383906109
  0.5587027964023858  0.2019904346510393  0.2118368151987284
  0.9402900563204281  0.6150503642407144  0.1666999672666929
  0.9387679831213390  0.7926503965591205  0.8752790307031112
  0.5667830452289039  0.3749006361278474  0.7882466546250817
  0.0633136771098022  0.3729575501145881  0.5217325143841617
  0.5630981692350672  0.3731807738050066  0.5216437365158679
  0.6829562432556068  0.1214949942236755  0.3004106030538760
  0.4354246103628699  0.9615697268351548  0.8335964897223899
  0.1895398295177903  0.2825248256201855  0.1246934670704039
  0.8167406837869620  0.8749323026612754  0.7882692442590060
  0.3123147734104944  0.3711824742734556  0.4343180276055132
  0.9374960435359863  0.7914676622478727  0.6104238941388286
  0.4374471640908251  0.2915528898721425  0.6104465332907135
  0.1883364749292127  0.4532284051737663  0.3451355146846790
  0.4388621108220537  0.2828248904752697  0.1245921855185158
  0.6876681024112375  0.7858206921604167  0.2559606073938489
  0.1888084265683880  0.9580550775572177  0.6997329480063792
  0.1886296293438932  0.2937806651175259  0.8753186235373086
  0.1857533998337718  0.1253670667321442  0.6548661327039930
  0.9356866183852850  0.1253000528072611  0.6548410113200166
  0.3086485551396306  0.2018806078588254  0.2118524983263722
  0.0608277341871701  0.0372664920872591  0.3895445894858837
  0.1906672912582971  0.1146002192421915  0.1666069137057845
  0.0624039129158671  0.5415294148062149  0.6104113291236000
  0.9373373900367552  0.2859020889210550  0.2560169859510743
  0.5623793023074171  0.5415145885935267  0.6104545606541657
  0.9381485346631629  0.9571712441843664  0.5657914657303196
  0.6827669088175398  0.6212551399286835  0.3002885329776355
  0.9375600136753686  0.6210773253148631  0.4343622779056173
  0.9420278762316620  0.6251984501168842  0.7883003135151992
  0.5637599133098332  0.7081918358174505  0.6996964899901674
  0.0614151305558874  0.7115730830009249  0.8333423448888020
  0.9328436409609586  0.1214703354218832  0.3003209222486584
  0.9388016086681449  0.4582389148722248  0.6997021422340030
  0.4377219858246852  0.7859404755590013  0.2560303061174485
  0.3167183121296137  0.3747241689329281  0.7882903535349259
  0.4344980299443322  0.4523928950826800  0.2118997275446232
  0.1880134677429180  0.1237455251664251  0.5216469770281296
  0.8136832413306494  0.7083243112783236  0.6996570357842054
  0.0624471325787707  0.0414634406570661  0.6104623935112636
  0.5614227669350477  0.2117983588934486  0.8337137482523376
  0.3133515098263786  0.8729845006324621  0.5217087163312124
  0.6896601790460071  0.2828207854105987  0.1249690226984020
  0.1845185206692538  0.9523704263984545  0.2117361983446205
  0.6874111222488284  0.2916171836978230  0.6104421045914592
  0.3123355964552502  0.0414542407889172  0.6104818407346492
  0.9419137513398126  0.1251071969433629  0.7883188610238572
  0.4385318873682170  0.7935750166564659  0.8752686458933595
  0.8124692437789502  0.0417261946115590  0.7439081153131381
  0.4379438993655665  0.1233508304388348  0.5216984001840194
  0.1858937654695124  0.6252656543623409  0.6548797598276623
  0.3138849803494903  0.7081019748154741  0.6996447377732912
  0.9387060492481845  0.2830185390474482  0.1249357858966951
  0.4380826033775060  0.4553527142153673  0.4782077566060312
  0.0627588937245395  0.7043720475323220  0.4781753023186588
  0.9378843658910258  0.1206270528750464  0.4342963454941601
  0.4328239662870256  0.1211329417806112  0.3003337453635110
  0.1880687167583802  0.1214792102657596  0.4342819974799084
  0.5622054431502534  0.0446935434852785  0.8753484155126406
  0.1881450307708027  0.9571132222556659  0.5654715560112669
  0.6887344835533447  0.7822260840756547  0.1248326880060845
  0.5628580338182282  0.5328101160879107  0.1247111146640996
  0.3102319038797064  0.0377290613909228  0.3895285703502504
  0.6903513688704798  0.1141729730070427  0.1666572887847239
  0.8091560343775958  0.2023049424434682  0.2117569080692346
  0.0625224161560996  0.5360450495524159  0.2560915825940397
  0.5626479362724462  0.7046272675406809  0.4781267837772542
  0.0630682520785677  0.2073642868434002  0.5657816029584589
  0.5576307401165912  0.3711682952044847  0.3003609689849068
  0.4379810809466856  0.9528720055011948  0.3450370424077796
  0.1862832246567752  0.9612677617999020  0.8334709421215288
  0.4407729524360245  0.6142071188860717  0.1665610711415092
  0.9341820449906053  0.4523808052517612  0.2119880268569366
  0.0632963477570481  0.5327617748590252  0.1247480371112297
  0.8134068380039626  0.3728115559628570  0.5218098974920198
  0.9329671128736263  0.6208397447915525  0.3004931881205941
  0.3126310270475430  0.0354573633693336  0.2560560205312489
  0.6873204797588923  0.7914374713029197  0.6104584245752748
  0.1858313322647263  0.4614556502264041  0.8335250753545641
  0.4400603633726640  0.1142111301105640  0.1667437758145164
  0.3130526428885414  0.3729065282076629  0.5217931037446790
  0.4418152900343094  0.6247251234782882  0.7883399548600748
  0.0625200771203971  0.0353827398178091  0.2560109824954475
  0.5633752467005692  0.7071705751610873  0.5656977288436706
  0.9375448551413886  0.2916107639073384  0.7438544571256306
  0.6917833777060456  0.1251470216422797  0.7883351886489259
  0.1844977663917546  0.4525077551462052  0.2119353537345023
  0.9351886165998338  0.7874401737218384  0.3894455975871108
  0.6876670192660560  0.2939391689535638  0.8754217898996111
  0.3159295321111056  0.8643158874093682  0.1665611234352527
  0.4387547668541715  0.4582518444814240  0.6996892245385662
  0.8107730113599979  0.3752920868971217  0.6548519432751588
  0.6880313436436031  0.6233556638724506  0.5217496791373532
  0.0607294882995093  0.8751030861910166  0.6548746922219840
  0.0670221499574981  0.8746496180093914  0.7881775658746177
  0.0607179810745556  0.3751693414858192  0.6548660976950024
  0.6878017761429094  0.4553492868311071  0.4781927291416029
  0.1875049347257374  0.7856983857858859  0.2559448443385410
  0.4372790031951753  0.1210848499844523  0.4342315309045726
  0.8129011050533528  0.0327391600101771  0.1246740706848204
  0.9382776050494908  0.6233588942239953  0.5217423949405453
  0.0622941870052033  0.8708976690555051  0.4342349577599457
  0.8132611344663758  0.5331513330295846  0.1247886966315958
  0.4379346942730148  0.4531722699810972  0.3450762918087485
  0.8130119956922519  0.2032835757513775  0.3450242621340778
  0.3129720142496543  0.7026900257333155  0.3450567892917363
  0.6856310705219096  0.1251913985021003  0.6548628501828471
  0.5578031961365455  0.8710142024198696  0.3002554602872023
  0.0627393690315928  0.5414959273621253  0.7438474104611058
  0.9389307432235691  0.7828183917741155  0.1247627138167273
  0.8089232805898492  0.7020261697232775  0.2117595510548695
  0.0580252194596371  0.8712374602631417  0.3002934055559033
  0.1831899575247740  0.1214298677014279  0.3004332984734687
  0.0631952559082080  0.7031595833207940  0.3450526318234583
  0.8124355213652501  0.0415304269800151  0.6104416187067737
  0.0629310563229322  0.3707673765317815  0.4343110132303756
  0.5630991526988139  0.2036134882625557  0.3450473617707538
  0.8077868701939673  0.3715799613305709  0.3003079710868387
  0.4383769137791242  0.9554261223030177  0.4781715588252887
  0.5597966608580335  0.5376204927054634  0.3894944041291430
  0.0623482912412445  0.2051771934245050  0.4781889640410417
  0.3167321704688739  0.8749351771361357  0.7882806119162596
  0.9387944313062055  0.9581323512579742  0.6996878963705616
  0.0580287845319931  0.3715198804335550  0.3003431983411892
  0.6856584893573867  0.6251111029993583  0.6548771566388639
  0.6884043558448723  0.4572531548307775  0.5657115865771413
  0.4341953924805050  0.9523570057077059  0.2118429164583695
  0.3135926415635994  0.2051249565593396  0.4780600458531253
  0.4357187612714754  0.1253354442733408  0.6548660838382294
  0.6877869324159531  0.6211203301810082  0.4342440937616541
  0.8137180052068407  0.2082662514125883  0.6996927977945893
  0.8131043645276893  0.7049628106554460  0.4782572990810446
  0.8131440601509169  0.8709471771493665  0.4343262964412557
  0.9372965080535545  0.9554108848508469  0.4781403923957087
  0.5624330656919986  0.2048956950493955  0.4782774272003969
  0.1878230974616200  0.6218854664378606  0.4342848240865521
  0.3124331727109479  0.0418164760696071  0.7438760143736687
  0.9356928276597867  0.6251761804554058  0.6548834826163316
  0.5609049098770851  0.7117732610698869  0.8334235844998249
  0.3079773186250318  0.3713372884464318  0.3003772747842246
  0.5590567373030593  0.7017477711754844  0.2118132088429177
  0.1879648808661601  0.4550087516619566  0.4782155108854049
  0.3132518528287748  0.0437484339181776  0.8753039892136453
  0.1889004387583709  0.4581674651120506  0.6996770326683013
  0.8135086814121716  0.5435915536824534  0.8752978826115400
  0.1855005817374318  0.2879287756439953  0.3894214198234991
  0.4375661822065137  0.6212769975438399  0.4342469284475193
  0.0595858075617775  0.7021989558693784  0.2118104054452786
  0.5631538256899676  0.0325017763559003  0.1248286892338124
  0.8163459016267663  0.3644831190315249  0.1666180940196536
  0.8110271718262743  0.7121247089061967  0.8335461531419808
  0.0667558346282660  0.3747783894666223  0.7882431472033424
  0.4390128577703559  0.2940452026893698  0.8753722290206870
  0.3129046538595452  0.0335314015004440  0.1247336656961386
  0.6879659455074278  0.1208783843156816  0.4343243687849488
  0.1884679226266629  0.9528015729743962  0.3451013337571243
  0.0608320278252367  0.2115829420420983  0.8335869657705024
  0.5623370839096200  0.0415116631254605  0.6104536508399601
  0.6835727482030723  0.4524146423729685  0.2119112467090110
  0.1875958856629718  0.7917169665553793  0.7438775336299005
  0.1829774698470498  0.6212024102353896  0.3003448778438021
  0.4357188670410745  0.7869391175880053  0.3893273391528853
  0.4373770834967744  0.2858191081624701  0.2560963527419152
  0.0634077348658569  0.5440062580169218  0.8752894287153025
  0.5626016130861821  0.0418065964319966  0.7438399854965366
  0.1884958515502129  0.7936043810900913  0.8752736903877009
  0.9375321179724102  0.4549319821384966  0.4781739791938353
  0.8101851959124986  0.5372740108309739  0.3894672780639059
  0.8133730451304489  0.2072294542596532  0.5656529375130732
  0.1917628057472796  0.6247149135727207  0.7883115365325442
  0.0607378842444899  0.5375632727778428  0.3894704682504171
  0.0638091869995686  0.7082028278581067  0.6996934515985263
  0.3124616155771847  0.5356989239020280  0.2560994150349787
  0.3090706147787307  0.7017202462079177  0.2117316355015020
  0.5667347010551922  0.8647100320812257  0.1665221723939933
  0.5624968365178562  0.5413954831325407  0.7438853462792300
  0.6875665303092409  0.4535924903227061  0.3450360561530352
  0.9399738221832106  0.2941045135623896  0.8753673605201200
  0.5623222605475536  0.0355530918154599  0.2560686410839628
  0.8098283475388438  0.0377936632266453  0.3894787269838957
  0.3166481484090556  0.3641655431187588  0.1661469875737857
  0.8137764582202532  0.0436170781748837  0.8751360760003021
  0.5627072313265499  0.3709870150544234  0.4342465385333470
  0.9337214040643445  0.9528638398470713  0.2120516562007363
  0.9389424255097900  0.9525854068759199  0.3449422681569982
  0.1878008999156116  0.9548256045013438  0.4783469331841937
 
  0.00000000E+00  0.00000000E+00  0.00000000E+00
  0.00000000E+00  0.00000000E+00  0.00000000E+00
  0.00000000E+00  0.00000000E+00  0.00000000E+00
  0.00000000E+00  0.00000000E+00  0.00000000E+00
  0.00000000E+00  0.00000000E+00  0.00000000E+00
  0.00000000E+00  0.00000000E+00  0.00000000E+00
  0.00000000E+00  0.00000000E+00  0.00000000E+00
  0.00000000E+00  0.00000000E+00  0.00000000E+00
  0.00000000E+00  0.00000000E+00  0.00000000E+00
  0.00000000E+00  0.00000000E+00  0.00000000E+00
  0.00000000E+00  0.00000000E+00  0.00000000E+00
  0.00000000E+00  0.00000000E+00  0.00000000E+00
  0.00000000E+00  0.00000000E+00  0.00000000E+00
  0.00000000E+00  0.00000000E+00  0.00000000E+00
  0.00000000E+00  0.00000000E+00  0.00000000E+00
  0.00000000E+00  0.00000000E+00  0.00000000E+00
  0.00000000E+00  0.00000000E+00  0.00000000E+00
  0.00000000E+00  0.00000000E+00  0.00000000E+00
  0.00000000E+00  0.00000000E+00  0.00000000E+00
  0.00000000E+00  0.00000000E+00  0.00000000E+00
  0.00000000E+00  0.00000000E+00  0.00000000E+00
  0.00000000E+00  0.00000000E+00  0.00000000E+00
  0.00000000E+00  0.00000000E+00  0.00000000E+00
  0.00000000E+00  0.00000000E+00  0.00000000E+00
  0.00000000E+00  0.00000000E+00  0.00000000E+00
  0.00000000E+00  0.00000000E+00  0.00000000E+00
  0.00000000E+00  0.00000000E+00  0.00000000E+00
  0.00000000E+00  0.00000000E+00  0.00000000E+00
  0.00000000E+00  0.00000000E+00  0.00000000E+00
  0.00000000E+00  0.00000000E+00  0.00000000E+00
  0.00000000E+00  0.00000000E+00  0.00000000E+00
  0.00000000E+00  0.00000000E+00  0.00000000E+00
  0.00000000E+00  0.00000000E+00  0.00000000E+00
  0.00000000E+00  0.00000000E+00  0.00000000E+00
  0.00000000E+00  0.00000000E+00  0.00000000E+00
  0.00000000E+00  0.00000000E+00  0.00000000E+00
  0.00000000E+00  0.00000000E+00  0.00000000E+00
  0.00000000E+00  0.00000000E+00  0.00000000E+00
  0.00000000E+00  0.00000000E+00  0.00000000E+00
  0.00000000E+00  0.00000000E+00  0.00000000E+00
  0.00000000E+00  0.00000000E+00  0.00000000E+00
  0.00000000E+00  0.00000000E+00  0.00000000E+00
  0.00000000E+00  0.00000000E+00  0.00000000E+00
  0.00000000E+00  0.00000000E+00  0.00000000E+00
  0.00000000E+00  0.00000000E+00  0.00000000E+00
  0.00000000E+00  0.00000000E+00  0.00000000E+00
  0.00000000E+00  0.00000000E+00  0.00000000E+00
  0.00000000E+00  0.00000000E+00  0.00000000E+00
  0.00000000E+00  0.00000000E+00  0.00000000E+00
  0.00000000E+00  0.00000000E+00  0.00000000E+00
  0.00000000E+00  0.00000000E+00  0.00000000E+00
  0.00000000E+00  0.00000000E+00  0.00000000E+00
  0.00000000E+00  0.00000000E+00  0.00000000E+00
  0.00000000E+00  0.00000000E+00  0.00000000E+00
  0.00000000E+00  0.00000000E+00  0.00000000E+00
  0.00000000E+00  0.00000000E+00  0.00000000E+00
  0.00000000E+00  0.00000000E+00  0.00000000E+00
  0.00000000E+00  0.00000000E+00  0.00000000E+00
  0.00000000E+00  0.00000000E+00  0.00000000E+00
  0.00000000E+00  0.00000000E+00  0.00000000E+00
  0.00000000E+00  0.00000000E+00  0.00000000E+00
  0.00000000E+00  0.00000000E+00  0.00000000E+00
  0.00000000E+00  0.00000000E+00  0.00000000E+00
  0.00000000E+00  0.00000000E+00  0.00000000E+00
  0.00000000E+00  0.00000000E+00  0.00000000E+00
  0.00000000E+00  0.00000000E+00  0.00000000E+00
  0.00000000E+00  0.00000000E+00  0.00000000E+00
  0.00000000E+00  0.00000000E+00  0.00000000E+00
  0.00000000E+00  0.00000000E+00  0.00000000E+00
  0.00000000E+00  0.00000000E+00  0.00000000E+00
  0.00000000E+00  0.00000000E+00  0.00000000E+00
  0.00000000E+00  0.00000000E+00  0.00000000E+00
  0.00000000E+00  0.00000000E+00  0.00000000E+00
  0.00000000E+00  0.00000000E+00  0.00000000E+00
  0.00000000E+00  0.00000000E+00  0.00000000E+00
  0.00000000E+00  0.00000000E+00  0.00000000E+00
  0.00000000E+00  0.00000000E+00  0.00000000E+00
  0.00000000E+00  0.00000000E+00  0.00000000E+00
  0.00000000E+00  0.00000000E+00  0.00000000E+00
  0.00000000E+00  0.00000000E+00  0.00000000E+00
  0.00000000E+00  0.00000000E+00  0.00000000E+00
  0.00000000E+00  0.00000000E+00  0.00000000E+00
  0.00000000E+00  0.00000000E+00  0.00000000E+00
  0.00000000E+00  0.00000000E+00  0.00000000E+00
  0.00000000E+00  0.00000000E+00  0.00000000E+00
  0.00000000E+00  0.00000000E+00  0.00000000E+00
  0.00000000E+00  0.00000000E+00  0.00000000E+00
  0.00000000E+00  0.00000000E+00  0.00000000E+00
  0.00000000E+00  0.00000000E+00  0.00000000E+00
  0.00000000E+00  0.00000000E+00  0.00000000E+00
  0.00000000E+00  0.00000000E+00  0.00000000E+00
  0.00000000E+00  0.00000000E+00  0.00000000E+00
  0.00000000E+00  0.00000000E+00  0.00000000E+00
  0.00000000E+00  0.00000000E+00  0.00000000E+00
  0.00000000E+00  0.00000000E+00  0.00000000E+00
  0.00000000E+00  0.00000000E+00  0.00000000E+00
  0.00000000E+00  0.00000000E+00  0.00000000E+00
  0.00000000E+00  0.00000000E+00  0.00000000E+00
  0.00000000E+00  0.00000000E+00  0.00000000E+00
  0.00000000E+00  0.00000000E+00  0.00000000E+00
  0.00000000E+00  0.00000000E+00  0.00000000E+00
  0.00000000E+00  0.00000000E+00  0.00000000E+00
  0.00000000E+00  0.00000000E+00  0.00000000E+00
  0.00000000E+00  0.00000000E+00  0.00000000E+00
  0.00000000E+00  0.00000000E+00  0.00000000E+00
  0.00000000E+00  0.00000000E+00  0.00000000E+00
  0.00000000E+00  0.00000000E+00  0.00000000E+00
  0.00000000E+00  0.00000000E+00  0.00000000E+00
  0.00000000E+00  0.00000000E+00  0.00000000E+00
  0.00000000E+00  0.00000000E+00  0.00000000E+00
  0.00000000E+00  0.00000000E+00  0.00000000E+00
  0.00000000E+00  0.00000000E+00  0.00000000E+00
  0.00000000E+00  0.00000000E+00  0.00000000E+00
  0.00000000E+00  0.00000000E+00  0.00000000E+00
  0.00000000E+00  0.00000000E+00  0.00000000E+00
  0.00000000E+00  0.00000000E+00  0.00000000E+00
  0.00000000E+00  0.00000000E+00  0.00000000E+00
  0.00000000E+00  0.00000000E+00  0.00000000E+00
  0.00000000E+00  0.00000000E+00  0.00000000E+00
  0.00000000E+00  0.00000000E+00  0.00000000E+00
  0.00000000E+00  0.00000000E+00  0.00000000E+00
  0.00000000E+00  0.00000000E+00  0.00000000E+00
  0.00000000E+00  0.00000000E+00  0.00000000E+00
  0.00000000E+00  0.00000000E+00  0.00000000E+00
  0.00000000E+00  0.00000000E+00  0.00000000E+00
  0.00000000E+00  0.00000000E+00  0.00000000E+00
  0.00000000E+00  0.00000000E+00  0.00000000E+00
  0.00000000E+00  0.00000000E+00  0.00000000E+00
  0.00000000E+00  0.00000000E+00  0.00000000E+00
  0.00000000E+00  0.00000000E+00  0.00000000E+00
  0.00000000E+00  0.00000000E+00  0.00000000E+00
  0.00000000E+00  0.00000000E+00  0.00000000E+00
  0.00000000E+00  0.00000000E+00  0.00000000E+00
  0.00000000E+00  0.00000000E+00  0.00000000E+00
  0.00000000E+00  0.00000000E+00  0.00000000E+00
  0.00000000E+00  0.00000000E+00  0.00000000E+00
  0.00000000E+00  0.00000000E+00  0.00000000E+00
  0.00000000E+00  0.00000000E+00  0.00000000E+00
  0.00000000E+00  0.00000000E+00  0.00000000E+00
  0.00000000E+00  0.00000000E+00  0.00000000E+00
  0.00000000E+00  0.00000000E+00  0.00000000E+00
  0.00000000E+00  0.00000000E+00  0.00000000E+00
  0.00000000E+00  0.00000000E+00  0.00000000E+00
  0.00000000E+00  0.00000000E+00  0.00000000E+00
  0.00000000E+00  0.00000000E+00  0.00000000E+00
  0.00000000E+00  0.00000000E+00  0.00000000E+00
  0.00000000E+00  0.00000000E+00  0.00000000E+00
  0.00000000E+00  0.00000000E+00  0.00000000E+00
  0.00000000E+00  0.00000000E+00  0.00000000E+00
  0.00000000E+00  0.00000000E+00  0.00000000E+00
  0.00000000E+00  0.00000000E+00  0.00000000E+00
  0.00000000E+00  0.00000000E+00  0.00000000E+00
  0.00000000E+00  0.00000000E+00  0.00000000E+00
  0.00000000E+00  0.00000000E+00  0.00000000E+00
  0.00000000E+00  0.00000000E+00  0.00000000E+00
  0.00000000E+00  0.00000000E+00  0.00000000E+00
  0.00000000E+00  0.00000000E+00  0.00000000E+00
  0.00000000E+00  0.00000000E+00  0.00000000E+00
  0.00000000E+00  0.00000000E+00  0.00000000E+00
  0.00000000E+00  0.00000000E+00  0.00000000E+00
  0.00000000E+00  0.00000000E+00  0.00000000E+00
  0.00000000E+00  0.00000000E+00  0.00000000E+00
  0.00000000E+00  0.00000000E+00  0.00000000E+00
  0.00000000E+00  0.00000000E+00  0.00000000E+00
  0.00000000E+00  0.00000000E+00  0.00000000E+00
  0.00000000E+00  0.00000000E+00  0.00000000E+00
  0.00000000E+00  0.00000000E+00  0.00000000E+00
  0.00000000E+00  0.00000000E+00  0.00000000E+00
  0.00000000E+00  0.00000000E+00  0.00000000E+00
  0.00000000E+00  0.00000000E+00  0.00000000E+00
  0.00000000E+00  0.00000000E+00  0.00000000E+00
  0.00000000E+00  0.00000000E+00  0.00000000E+00
  0.00000000E+00  0.00000000E+00  0.00000000E+00
  0.00000000E+00  0.00000000E+00  0.00000000E+00
  0.00000000E+00  0.00000000E+00  0.00000000E+00
  0.00000000E+00  0.00000000E+00  0.00000000E+00
  0.00000000E+00  0.00000000E+00  0.00000000E+00
  0.00000000E+00  0.00000000E+00  0.00000000E+00
  0.00000000E+00  0.00000000E+00  0.00000000E+00
  0.00000000E+00  0.00000000E+00  0.00000000E+00
  0.00000000E+00  0.00000000E+00  0.00000000E+00
  0.00000000E+00  0.00000000E+00  0.00000000E+00
  0.00000000E+00  0.00000000E+00  0.00000000E+00
  0.00000000E+00  0.00000000E+00  0.00000000E+00
  0.00000000E+00  0.00000000E+00  0.00000000E+00
  0.00000000E+00  0.00000000E+00  0.00000000E+00
  0.00000000E+00  0.00000000E+00  0.00000000E+00
  0.00000000E+00  0.00000000E+00  0.00000000E+00
  0.00000000E+00  0.00000000E+00  0.00000000E+00
  0.00000000E+00  0.00000000E+00  0.00000000E+00
  0.00000000E+00  0.00000000E+00  0.00000000E+00
  0.00000000E+00  0.00000000E+00  0.00000000E+00
  0.00000000E+00  0.00000000E+00  0.00000000E+00
  0.00000000E+00  0.00000000E+00  0.00000000E+00
  0.00000000E+00  0.00000000E+00  0.00000000E+00
  0.00000000E+00  0.00000000E+00  0.00000000E+00
  0.00000000E+00  0.00000000E+00  0.00000000E+00
  0.00000000E+00  0.00000000E+00  0.00000000E+00
  0.00000000E+00  0.00000000E+00  0.00000000E+00
  0.00000000E+00  0.00000000E+00  0.00000000E+00
  0.00000000E+00  0.00000000E+00  0.00000000E+00
  0.00000000E+00  0.00000000E+00  0.00000000E+00
  0.00000000E+00  0.00000000E+00  0.00000000E+00
  0.00000000E+00  0.00000000E+00  0.00000000E+00
  0.00000000E+00  0.00000000E+00  0.00000000E+00
  0.00000000E+00  0.00000000E+00  0.00000000E+00
  0.00000000E+00  0.00000000E+00  0.00000000E+00
  0.00000000E+00  0.00000000E+00  0.00000000E+00
  0.00000000E+00  0.00000000E+00  0.00000000E+00
  0.00000000E+00  0.00000000E+00  0.00000000E+00
  0.00000000E+00  0.00000000E+00  0.00000000E+00
  0.00000000E+00  0.00000000E+00  0.00000000E+00
  0.00000000E+00  0.00000000E+00  0.00000000E+00
  0.00000000E+00  0.00000000E+00  0.00000000E+00
  0.00000000E+00  0.00000000E+00  0.00000000E+00
  0.00000000E+00  0.00000000E+00  0.00000000E+00
  0.00000000E+00  0.00000000E+00  0.00000000E+00
  0.00000000E+00  0.00000000E+00  0.00000000E+00
  0.00000000E+00  0.00000000E+00  0.00000000E+00
  0.00000000E+00  0.00000000E+00  0.00000000E+00
  0.00000000E+00  0.00000000E+00  0.00000000E+00
  0.00000000E+00  0.00000000E+00  0.00000000E+00
  0.00000000E+00  0.00000000E+00  0.00000000E+00
  0.00000000E+00  0.00000000E+00  0.00000000E+00
  0.00000000E+00  0.00000000E+00  0.00000000E+00
  0.00000000E+00  0.00000000E+00  0.00000000E+00
  0.00000000E+00  0.00000000E+00  0.00000000E+00
  0.00000000E+00  0.00000000E+00  0.00000000E+00
  0.00000000E+00  0.00000000E+00  0.00000000E+00
  0.00000000E+00  0.00000000E+00  0.00000000E+00
  0.00000000E+00  0.00000000E+00  0.00000000E+00
  0.00000000E+00  0.00000000E+00  0.00000000E+00
  0.00000000E+00  0.00000000E+00  0.00000000E+00
  0.00000000E+00  0.00000000E+00  0.00000000E+00
  0.00000000E+00  0.00000000E+00  0.00000000E+00
  0.00000000E+00  0.00000000E+00  0.00000000E+00
  0.00000000E+00  0.00000000E+00  0.00000000E+00
  0.00000000E+00  0.00000000E+00  0.00000000E+00
  0.00000000E+00  0.00000000E+00  0.00000000E+00
  0.00000000E+00  0.00000000E+00  0.00000000E+00
  0.00000000E+00  0.00000000E+00  0.00000000E+00
  0.00000000E+00  0.00000000E+00  0.00000000E+00
  0.00000000E+00  0.00000000E+00  0.00000000E+00
  0.00000000E+00  0.00000000E+00  0.00000000E+00
  0.00000000E+00  0.00000000E+00  0.00000000E+00
  0.00000000E+00  0.00000000E+00  0.00000000E+00
  0.00000000E+00  0.00000000E+00  0.00000000E+00