FeMn_288_15                             
    1.000000000000000     
     9.7266779999999997    0.0000000000000000    0.0000000000000000
     0.0000000000000000    8.4235500000000005    0.0000000000000000
     0.0000000000000000    0.0000000000000000   45.0000000000000000
   Fe   Mn
   273    15
Direct
  0.6874562320001919  0.4585025976038935  0.6982296496640467
  0.3124364861524339  0.8683025807651309  0.1688915006425457
  0.6871106889736919  0.1215119778476453  0.4348401918525546
  0.6876853414293582  0.4555598915119188  0.4784990741512065
  0.4374446269030958  0.6238511545591200  0.6538727127433729
  0.8128638863362706  0.7066557647605847  0.5651400497743361
  0.1883445847729484  0.6216421630313191  0.4347490033916562
  0.6875235439980414  0.9520384951224423  0.2136040312335917
  0.1869764372356747  0.2929766574475605  0.8734223658513963
  0.6877220455664140  0.6253409130857586  0.7864341468099169
  0.8124960948700498  0.2037068219101974  0.3461978151916620
  0.9373573768034302  0.9552217821954101  0.4785642093978396
  0.6875275589388822  0.7855297016723438  0.2577173062487690
  0.1874269552539655  0.7851105811222324  0.1266785189275341
  0.1874103271921692  0.4562080677136665  0.5651127672916868
  0.6868363561678353  0.6216078199700511  0.4347854223394999
  0.3126099937202170  0.5355827094024269  0.2577124953407486
  0.4375832224630506  0.4595402117831951  0.8311534916412279
  0.5623886241553453  0.3757412787500277  0.7865884125272053
  0.5622995256266096  0.0426218842581328  0.7422253072545957
  0.4374762014107417  0.2924656385400825  0.7423863532069020
  0.0623389208023879  0.2023015336833602  0.2135145353682018
  0.1871861348624718  0.6194934264469607  0.3017812153494832
  0.5626054422978358  0.0351501604899001  0.1267159931142775
  0.1876722090456919  0.6245226482925309  0.6538039044121677
  0.9375162324773151  0.7852027624161779  0.1266718509315153
  0.5622716355588080  0.0429037737897153  0.8734858901491758
  0.9375692102189405  0.9585059854332649  0.6981014070168885
  0.0623006541823532  0.3693183407565094  0.3017946261046373
  0.9374675477010137  0.9593869671350437  0.8311556551328105
  0.8124857672466061  0.2053146853401633  0.4785252452446716
  0.3124335535812383  0.0423151272693291  0.7423153582810960
  0.4375882254203415  0.4521828073301693  0.2135169383743312
  0.6876640193498212  0.2849684977489487  0.1267131489891068
  0.5625403440904828  0.8683063691382202  0.1688833090590353
  0.3122895902419497  0.2087077439328618  0.6982780082779497
  0.4378686202094197  0.2855238611905601  0.2577159827680490
  0.9373367386479124  0.7856724290002265  0.2577098977315471
  0.6875879398869613  0.7851533628213386  0.1266938951405256
  0.0627880520956083  0.7050302847473808  0.4786060713763265
  0.0624125375312236  0.0419734476940439  0.7423080665463511
  0.8125353924598212  0.2021112235785503  0.2135893562614537
  0.5622867030403252  0.7083444804176562  0.6982310330596180
  0.6879563093808791  0.2906355548641767  0.6097543054791226
  0.3125033544714121  0.0352746493064853  0.1266523720783267
  0.9374979627791691  0.2921356209186249  0.7423374162914580
  0.5628701821991685  0.8696402418259496  0.3018708524244273
  0.8125914857416037  0.7035077734590331  0.3462525500800225
  0.0626782832013117  0.2096611059143818  0.8313717210329949
  0.8132806893488149  0.5406345277378635  0.6098153775710773
  0.8124736803726595  0.3694415025039374  0.3018195216805257
  0.9374341989713535  0.4587200065596357  0.6981880060429487
  0.9375294659486652  0.7876801957723546  0.3902055139181893
  0.4375203530303526  0.4588941308723424  0.6981003460830641
  0.6873573777680930  0.2919645684938002  0.7423754556803847
  0.9376212982702264  0.1184845219560472  0.1688914808841507
  0.3126973220308084  0.3723537588382497  0.5212482339294165
  0.3124084118866079  0.7050779777731517  0.4786231433961289
  0.1876252709989641  0.7906027248460884  0.6098425545138596
  0.1880912014325009  0.1215543279202751  0.4347440362207763
  0.8125563436946269  0.3684482026356234  0.1688874915120842
  0.8124584638792482  0.2094814347596419  0.8312698910138301
  0.3123402799576663  0.3759362227953926  0.7865138621315892
  0.0624165533362012  0.0351632663731882  0.1266763119816341
  0.3124812709459260  0.7031210883771896  0.3462432991225363
  0.6871661921292167  0.9532480373734727  0.3462096695275954
  0.8125979031683488  0.7088964762865680  0.6982961818288526
  0.4374464346843059  0.7905580686352964  0.6098053994778549
  0.6874965862279236  0.1184830729827810  0.1689042138202927
  0.1875727795839003  0.2903389834348393  0.6098015531753734
  0.9375647581942047  0.1257580319185368  0.7864796394592559
  0.6874669820095404  0.4591631533944606  0.8312528981329597
  0.4375174172795052  0.7852058686570792  0.1266660734709287
  0.0629133143718070  0.7085358669759775  0.6981273336208610
  0.8124910287734909  0.5354762782446332  0.2577663576401895
  0.8124780250608572  0.7092255087283525  0.8312289362939284
  0.3124574700745895  0.0405348137831581  0.6098328876767773
  0.0626239270725076  0.3724557734956922  0.5213728624504494
  0.3125740371570248  0.2060918757576187  0.5650481703387691
  0.3125067343141293  0.8757926277996686  0.7863934143922067
  0.5623601365734411  0.2081304496517335  0.6983351167277588
  0.1875967323277173  0.4529735834868074  0.3462283713265893
  0.4373523033398730  0.6195899332148538  0.3018239081526184
  0.5630232524202947  0.7065565598608438  0.5651388616423603
  0.4374741063232028  0.9580552735445887  0.6981648577521230
  0.0622073164126071  0.8694062724201079  0.3018416383902757
  0.3125623883308880  0.3745537844021921  0.6538141346880114
  0.1878518735404725  0.6222882149826605  0.5213948806231271
  0.1871641986718068  0.9579046978060588  0.6980623830790578
  0.1871759018731471  0.6259010492766625  0.7864482421701871
  0.0626871213719564  0.5403352876073844  0.6098888899564679
  0.9374386033537971  0.7927073625809319  0.8733524694170834
  0.5625088757850263  0.7020940599994024  0.2135771518490238
  0.9372866166793212  0.6226646324963733  0.5212402724232382
  0.8124243563535389  0.3757352832545118  0.7864877389825981
  0.0623778219275083  0.5373146369975653  0.3902294340736984
  0.0625900610184498  0.0374319773291692  0.3901485467710675
  0.6878230191665626  0.2930231852066238  0.8734842158880309
  0.5622700777929891  0.5353530812241495  0.2577354313483023
  0.3123321155654480  0.7086779857291005  0.6982515957089483
  0.0628923016165622  0.5419828987336542  0.7423550499680155
  0.9374329648192926  0.7917536134502299  0.7422456688502507
  0.8127664656649156  0.5352988014713177  0.1267155991043132
  0.8120169389867393  0.8723342571504884  0.5212581044112961
  0.5625383596722767  0.3726100623458016  0.5212202641391440
  0.5625561070484471  0.3683693918465468  0.1688415818332843
  0.1875174776518421  0.2924797647810897  0.7423093079599815
  0.6874940625984053  0.9592806736801505  0.8312281208147927
  0.4372848825932539  0.1226296049468147  0.5212655323471012
  0.0623814045618874  0.7034446315532938  0.3462824867662908
  0.8123710044250707  0.5420896642389840  0.7423398124066096
  0.1875795728346724  0.1192553246580808  0.3018031262271167
  0.5625615445338358  0.8756676316569422  0.7864945566089391
  0.5620244181500806  0.5424265236455126  0.7423097841733404
  0.4375584517213933  0.6215132855791230  0.4348508582479070
  0.1875404288679199  0.1187914956787671  0.1687492567447205
  0.4376113904148828  0.4534229188336936  0.3463312739942025
  0.6874358195051627  0.6245067076474400  0.6538497353353541
  0.8122106969144991  0.2061287574752576  0.5650654291322411
  0.6876850280516276  0.9553676612233747  0.4785020648137367
  0.9375429467929401  0.4592390287436172  0.8312720560572208
  0.6874910200914874  0.4534324690221155  0.3461547249819207
  0.0624953273118491  0.8757370686293252  0.7864379928379500
  0.3124712250427362  0.2024585815341459  0.2135768807488794
  0.4374330284178616  0.4552641629240333  0.4785725595139963
  0.5627536787261043  0.3713239787755892  0.4348085159784826
  0.3129209057428747  0.8744711586249193  0.6537414284292089
  0.0628374040912481  0.3713370449523413  0.4348350013964671
  0.3126798731195934  0.5431159422570522  0.8733911266340745
  0.0628669858081468  0.8714272589100558  0.4350153514866323
  0.8125170427771600  0.0375955654949873  0.3901051041740989
  0.9374943668361816  0.4538347877034970  0.3461532174102582
  0.9377026705875638  0.6196920888002450  0.3018726070821271
  0.4373320838698032  0.4565142393061551  0.5651133570382298
  0.6872279991606828  0.4563432534488092  0.5650463245622167
  0.4372151355056729  0.1238634520581994  0.6537469335800375
  0.9371889659767267  0.2903590969326856  0.6097546632842078
  0.4377059631734584  0.9532198281053952  0.3463211671246634
  0.6874850953658896  0.7926483503137914  0.8733582762376222
  0.0627221827123612  0.2081854029072422  0.6982059094721038
  0.1873553257427183  0.4594608438082290  0.8311996380902462
  0.1871530506188154  0.1245269896586837  0.6537973906943114
  0.3119330085212872  0.7071342185016120  0.5651484839696786
  0.6875544607919396  0.6197453219905631  0.3017559416041383
  0.8124777196052487  0.5372003289081919  0.3901379036264143
  0.5623487227569657  0.5428132300607407  0.8734004355245508
  0.4375814301383739  0.7856118601259630  0.2577372381595225
  0.5625604077128818  0.0357760845525796  0.2577509164356934
  0.4373979520707972  0.1184275887191995  0.1688539901862606
  0.6876856387238945  0.1223025215019232  0.5212929980796175
  0.4376076497083718  0.2924926816852345  0.8734475758175715
  0.3123073406100181  0.3713698374546158  0.4347949458624648
  0.5624293940898089  0.2034960226447454  0.3462790977747576
  0.3126244187788492  0.2032374422959822  0.3462764709474670
  0.0623832116584791  0.7094643549536840  0.8311564576190804
  0.3125267080532777  0.7093318415583401  0.8311549869157769
  0.9375018462308442  0.2876115574962801  0.3902043085002332
  0.8126563165988169  0.0406360533669618  0.6097703409043344
  0.6875657124604793  0.2854392961536013  0.2577439858581655
  0.8125555711225019  0.0358218263870533  0.2577541737589318
  0.3127142926468616  0.8720520458065237  0.5212347573738429
  0.3126759077764586  0.0428863989266455  0.8734399941065887
  0.1875153444819604  0.7925916197713561  0.8733153475903523
  0.0626082945867124  0.2050777219384799  0.4785912286092630
  0.1875611258053037  0.4585810224496835  0.6981821190493661
  0.3127341539904935  0.2091346928053039  0.8312862574792885
  0.1874572108812769  0.2855379855436270  0.2577251811524157
  0.9376483891334046  0.1229208980794431  0.5212656838445803
  0.0627541137741918  0.8746250173731002  0.6536398105090736
  0.1874942460504766  0.4523379081648086  0.2135994501726554
  0.9374514677407628  0.2928967327652252  0.8734976078524519
  0.6877096441626109  0.9561732907554101  0.5650350615178130
  0.5622131718975473  0.8739946784774556  0.6536093141136715
  0.5626551189684056  0.2020226443528240  0.2135303093015179
  0.5624880972061591  0.7094057469051663  0.8311780085810974
  0.6875148604283555  0.4520749361594318  0.2135820153779641
  0.0623583085320721  0.0426981640965482  0.8733899946336775
  0.5621038077086149  0.2093963428317558  0.8314308709789009
  0.3124692722161362  0.5352292855739460  0.1266530137915634
  0.4373639241858027  0.1214150391839401  0.4348038505714294
  0.9374402885526443  0.4520906635037966  0.2135344366383316
  0.1876229844146006  0.1225581440506161  0.5213387813120314
  0.1873069293042095  0.1259393511838501  0.7864549757906564
  0.9375801542555854  0.1242319352628894  0.6537717715405267
  0.1874303485455581  0.6184957183769795  0.1688234497156831
  0.6873547801073981  0.7903080637574125  0.6097692736368361
  0.3125424876236415  0.0358021841582458  0.2577939318569597
  0.8124966295710525  0.7019592108484584  0.2136126587327054
  0.6876807935151495  0.1239889491255450  0.6536522605683138
  0.9374839035512785  0.6247296288055030  0.6537402131737979
  0.3122652861549503  0.2053628099841650  0.4785316529025712
  0.8123216438282256  0.3749931680217536  0.6537968948005041
  0.1877425963850800  0.9530453617284133  0.3462323732371481
  0.1875304394803513  0.7918889997541017  0.7422170116252813
  0.8123918620558251  0.7054296172965785  0.4785609907789952
  0.3118309826587981  0.5402167178016799  0.6098698344878933
  0.4374925186556826  0.6256366038084485  0.7864283168950783
  0.5625808180969982  0.7031717471338593  0.3462353472432286
  0.0624381370128830  0.5429392819118076  0.8733921229970769
  0.4374266824498235  0.7923364165255778  0.7424021938093855
  0.0626745759008641  0.0405126951330708  0.6097244668652063
  0.8123087536749548  0.8754393528591810  0.7864295845534905
  0.9375657845819839  0.6255471413187315  0.7864632256139098
  0.4374830222838764  0.2852598736418813  0.1266761405609254
  0.8120716331594485  0.3724281912540972  0.5213209787954275
  0.5629321029931623  0.8712670519007543  0.4348616781872989
  0.9371627765137570  0.2855556454744674  0.2577057317892163
  0.6876597380560225  0.1258690295380540  0.7865309844890527
  0.0623659187530103  0.3687169090629722  0.1688492863130984
  0.6876518725590961  0.9583308774403612  0.6980886811286131
  0.8123712420052708  0.8696040943692609  0.3018164825621495
  0.9373503939220681  0.9538799846714215  0.3462584526756317
  0.0624240655487550  0.0355195803380076  0.2577317951320104
  0.5626153516387639  0.5372115278679335  0.3902168677349456
  0.4374023674429841  0.2901545100890371  0.6097453720952545
  0.3125785381461909  0.5425348658898109  0.7423767611620944
  0.5625071574455871  0.7051299392861995  0.4786186205860760
  0.8119527801590650  0.8712691028813533  0.4346421089217239
  0.3125497588360327  0.3686003592876411  0.1688577152354720
  0.9374640930679050  0.1191965100861700  0.3018856865271190
  0.4375304987341117  0.2871665232272766  0.3902317925473012
  0.1874694894391175  0.2850190797715668  0.1266792242120902
  0.9376300492132252  0.9519951273535189  0.2136081505938253
  0.8124649378153664  0.5430352892827706  0.8734001500804269
  0.1873915035816207  0.9594241569054877  0.8311650727043460
  0.6877892316087081  0.6222926846437475  0.5213064865421598
  0.8125968610802736  0.0427739170343768  0.8734070383556889
  0.5628677271952118  0.3698424284758879  0.3018785896700960
  0.8121241896459386  0.3712002832029784  0.4347828520124224
  0.1874320038439810  0.4554153160268835  0.4785821811554942
  0.9374645253151458  0.2851550151620533  0.1266786720105667
  0.1871518653470800  0.7873673409042444  0.3901605547491432
  0.5626901497076048  0.2052155662588077  0.4785934392531752
  0.3125538835220770  0.5370437923015891  0.3901861501605995
  0.8125999611103790  0.8683668424352226  0.1688916057221278
  0.0623689450987676  0.5351994163856580  0.1266504517391168
  0.1874342784113104  0.9523634785895606  0.2135781685842337
  0.5625005915485403  0.0369684519205327  0.3901381073165658
  0.3125605451134896  0.7024894697155443  0.2135190774874487
  0.6879173639399424  0.2875097545397577  0.3901322393897785
  0.4375565586292022  0.1199249199764083  0.3018078453064780
  0.8120127045484443  0.8746973346269691  0.6537906270749565
  0.4374885669339586  0.9596895443656803  0.8312356116513163
  0.5626531168023282  0.8724907319151129  0.5213021744033370
  0.6873338902038000  0.1193692619886817  0.3018390626759604
  0.3125054275769465  0.8695477965823776  0.3018915012144426
  0.4376857213041793  0.6183036407007173  0.1687581253690599
  0.9373360201795637  0.6183349747171089  0.1687735331502971
  0.9374820294234500  0.4549225129712373  0.4785995128888310
  0.5625561634280006  0.3740568151172389  0.6536985728419972
  0.0628726563605320  0.7064033082950972  0.5650932574964695
  0.0624236604154053  0.7022061438654411  0.2135950117042736
  0.4373007657868882  0.6225622867032470  0.5213630131355592
  0.1876906908575552  0.9563099328453264  0.5651015576574010
  0.0624666654852651  0.8684487461329859  0.1688667217757162
  0.4374357025012257  0.7921411882830528  0.8733504342430841
  0.0629519974052368  0.2066177746608567  0.5651074882909122
  0.5624461053301839  0.5353522281931601  0.1267106642328436
  0.9369709563948850  0.9560003045246258  0.5649656020486790
  0.6877600296868053  0.7874886392946350  0.3901588876309912
  0.3124308178151715  0.0367620314331098  0.3902579586732330
  0.0627583450144829  0.3762715417309124  0.7865957600917003
  0.8125401253445367  0.0350097334559067  0.1266802901592461
  0.9376938892846233  0.7905950403771633  0.6096515449832117
  0.4374194802478450  0.9520872471369806  0.2135778890780991
  0.1875993695960915  0.9555812099268796  0.4786505313291839
  0.4375999799479877  0.9552079616262225  0.4786139117794316
  0.6875118825834035  0.7923077809969666  0.7423029544794856
  0.0627286154722469  0.5357875639097279  0.2577855791728745
  0.6875607337214827  0.6185372510946116  0.1688820816172096
  0.0625645400518230  0.2034139108862675  0.3462357060634099
  0.1870773425580925  0.2874421082443351  0.3901513421838320
  0.3123768018698921  0.8713004673652286  0.4347554218160009
  0.5625823378989717  0.0403685321289158  0.6100116623607463
  0.1875053405928801  0.7857411827323304  0.2576391734488375
  0.9375425388508027  0.6212616175870964  0.4346082411882983
  0.4365398551561965  0.9555795225387019  0.5650299978422147
  0.3122948996588167  0.3695280548924200  0.3018642883170042
  0.4372624449399977  0.1258638444542804  0.7862296364630166
  0.4375012164180440  0.7871965555575446  0.3901082847459688
  0.9373546856870565  0.4561013673396382  0.5650432358996285
  0.8126042640062821  0.0417475722044035  0.7425183207790681
  0.5625038522300392  0.5402769049426011  0.6098927208595093
  0.8129227378421978  0.2091312745917964  0.6981075361058837
  0.0622442495228614  0.3747099764190746  0.6536796715205127
  0.5629750211093174  0.2079174371199054  0.5650642976301402
  0.9373897281528547  0.1219622208626786  0.4346708530957737
  0.0626580115860127  0.8725559845418768  0.5212781282027740
 
  0.00000000E+00  0.00000000E+00  0.00000000E+00
  0.00000000E+00  0.00000000E+00  0.00000000E+00
  0.00000000E+00  0.00000000E+00  0.00000000E+00
  0.00000000E+00  0.00000000E+00  0.00000000E+00
  0.00000000E+00  0.00000000E+00  0.00000000E+00
  0.00000000E+00  0.00000000E+00  0.00000000E+00
  0.00000000E+00  0.00000000E+00  0.00000000E+00
  0.00000000E+00  0.00000000E+00  0.00000000E+00
  0.00000000E+00  0.00000000E+00  0.00000000E+00
  0.00000000E+00  0.00000000E+00  0.00000000E+00
  0.00000000E+00  0.00000000E+00  0.00000000E+00
  0.00000000E+00  0.00000000E+00  0.00000000E+00
  0.00000000E+00  0.00000000E+00  0.00000000E+00
  0.00000000E+00  0.00000000E+00  0.00000000E+00
  0.00000000E+00  0.00000000E+00  0.00000000E+00
  0.00000000E+00  0.00000000E+00  0.00000000E+00
  0.00000000E+00  0.00000000E+00  0.00000000E+00
  0.00000000E+00  0.00000000E+00  0.00000000E+00
  0.00000000E+00  0.00000000E+00  0.00000000E+00
  0.00000000E+00  0.00000000E+00  0.00000000E+00
  0.00000000E+00  0.00000000E+00  0.00000000E+00
  0.00000000E+00  0.00000000E+00  0.00000000E+00
  0.00000000E+00  0.00000000E+00  0.00000000E+00
  0.00000000E+00  0.00000000E+00  0.00000000E+00
  0.00000000E+00  0.00000000E+00  0.00000000E+00
  0.00000000E+00  0.00000000E+00  0.00000000E+00
  0.00000000E+00  0.00000000E+00  0.00000000E+00
  0.00000000E+00  0.00000000E+00  0.00000000E+00
  0.00000000E+00  0.00000000E+00  0.00000000E+00
  0.00000000E+00  0.00000000E+00  0.00000000E+00
  0.00000000E+00  0.00000000E+00  0.00000000E+00
  0.00000000E+00  0.00000000E+00  0.00000000E+00
  0.00000000E+00  0.00000000E+00  0.00000000E+00
  0.00000000E+00  0.00000000E+00  0.00000000E+00
  0.00000000E+00  0.00000000E+00  0.00000000E+00
  0.00000000E+00  0.00000000E+00  0.00000000E+00
  0.00000000E+00  0.00000000E+00  0.00000000E+00
  0.00000000E+00  0.00000000E+00  0.00000000E+00
  0.00000000E+00  0.00000000E+00  0.00000000E+00
  0.00000000E+00  0.00000000E+00  0.00000000E+00
  0.00000000E+00  0.00000000E+00  0.00000000E+00
  0.00000000E+00  0.00000000E+00  0.00000000E+00
  0.00000000E+00  0.00000000E+00  0.00000000E+00
  0.00000000E+00  0.00000000E+00  0.00000000E+00
  0.00000000E+00  0.00000000E+00  0.00000000E+00
  0.00000000E+00  0.00000000E+00  0.00000000E+00
  0.00000000E+00  0.00000000E+00  0.00000000E+00
  0.00000000E+00  0.00000000E+00  0.00000000E+00
  0.00000000E+00  0.00000000E+00  0.00000000E+00
  0.00000000E+00  0.00000000E+00  0.00000000E+00
  0.00000000E+00  0.00000000E+00  0.00000000E+00
  0.00000000E+00  0.00000000E+00  0.00000000E+00
  0.00000000E+00  0.00000000E+00  0.00000000E+00
  0.00000000E+00  0.00000000E+00  0.00000000E+00
  0.00000000E+00  0.00000000E+00  0.00000000E+00
  0.00000000E+00  0.00000000E+00  0.00000000E+00
  0.00000000E+00  0.00000000E+00  0.00000000E+00
  0.00000000E+00  0.00000000E+00  0.00000000E+00
  0.00000000E+00  0.00000000E+00  0.00000000E+00
  0.00000000E+00  0.00000000E+00  0.00000000E+00
  0.00000000E+00  0.00000000E+00  0.00000000E+00
  0.00000000E+00  0.00000000E+00  0.00000000E+00
  0.00000000E+00  0.00000000E+00  0.00000000E+00
  0.00000000E+00  0.00000000E+00  0.00000000E+00
  0.00000000E+00  0.00000000E+00  0.00000000E+00
  0.00000000E+00  0.00000000E+00  0.00000000E+00
  0.00000000E+00  0.00000000E+00  0.00000000E+00
  0.00000000E+00  0.00000000E+00  0.00000000E+00
  0.00000000E+00  0.00000000E+00  0.00000000E+00
  0.00000000E+00  0.00000000E+00  0.00000000E+00
  0.00000000E+00  0.00000000E+00  0.00000000E+00
  0.00000000E+00  0.00000000E+00  0.00000000E+00
  0.00000000E+00  0.00000000E+00  0.00000000E+00
  0.00000000E+00  0.00000000E+00  0.00000000E+00
  0.00000000E+00  0.00000000E+00  0.00000000E+00
  0.00000000E+00  0.00000000E+00  0.00000000E+00
  0.00000000E+00  0.00000000E+00  0.00000000E+00
  0.00000000E+00  0.00000000E+00  0.00000000E+00
  0.00000000E+00  0.00000000E+00  0.00000000E+00
  0.00000000E+00  0.00000000E+00  0.00000000E+00
  0.00000000E+00  0.00000000E+00  0.00000000E+00
  0.00000000E+00  0.00000000E+00  0.00000000E+00
  0.00000000E+00  0.00000000E+00  0.00000000E+00
  0.00000000E+00  0.00000000E+00  0.00000000E+00
  0.00000000E+00  0.00000000E+00  0.00000000E+00
  0.00000000E+00  0.00000000E+00  0.00000000E+00
  0.00000000E+00  0.00000000E+00  0.00000000E+00
  0.00000000E+00  0.00000000E+00  0.00000000E+00
  0.00000000E+00  0.00000000E+00  0.00000000E+00
  0.00000000E+00  0.00000000E+00  0.00000000E+00
  0.00000000E+00  0.00000000E+00  0.00000000E+00
  0.00000000E+00  0.00000000E+00  0.00000000E+00
  0.00000000E+00  0.00000000E+00  0.00000000E+00
  0.00000000E+00  0.00000000E+00  0.00000000E+00
  0.00000000E+00  0.00000000E+00  0.00000000E+00
  0.00000000E+00  0.00000000E+00  0.00000000E+00
  0.00000000E+00  0.00000000E+00  0.00000000E+00
  0.00000000E+00  0.00000000E+00  0.00000000E+00
  0.00000000E+00  0.00000000E+00  0.00000000E+00
  0.00000000E+00  0.00000000E+00  0.00000000E+00
  0.00000000E+00  0.00000000E+00  0.00000000E+00
  0.00000000E+00  0.00000000E+00  0.00000000E+00
  0.00000000E+00  0.00000000E+00  0.00000000E+00
  0.00000000E+00  0.00000000E+00  0.00000000E+00
  0.00000000E+00  0.00000000E+00  0.00000000E+00
  0.00000000E+00  0.00000000E+00  0.00000000E+00
  0.00000000E+00  0.00000000E+00  0.00000000E+00
  0.00000000E+00  0.00000000E+00  0.00000000E+00
  0.00000000E+00  0.00000000E+00  0.00000000E+00
  0.00000000E+00  0.00000000E+00  0.00000000E+00
  0.00000000E+00  0.00000000E+00  0.00000000E+00
  0.00000000E+00  0.00000000E+00  0.00000000E+00
  0.00000000E+00  0.00000000E+00  0.00000000E+00
  0.00000000E+00  0.00000000E+00  0.00000000E+00
  0.00000000E+00  0.00000000E+00  0.00000000E+00
  0.00000000E+00  0.00000000E+00  0.00000000E+00
  0.00000000E+00  0.00000000E+00  0.00000000E+00
  0.00000000E+00  0.00000000E+00  0.00000000E+00
  0.00000000E+00  0.00000000E+00  0.00000000E+00
  0.00000000E+00  0.00000000E+00  0.00000000E+00
  0.00000000E+00  0.00000000E+00  0.00000000E+00
  0.00000000E+00  0.00000000E+00  0.00000000E+00
  0.00000000E+00  0.00000000E+00  0.00000000E+00
  0.00000000E+00  0.00000000E+00  0.00000000E+00
  0.00000000E+00  0.00000000E+00  0.00000000E+00
  0.00000000E+00  0.00000000E+00  0.00000000E+00
  0.00000000E+00  0.00000000E+00  0.00000000E+00
  0.00000000E+00  0.00000000E+00  0.00000000E+00
  0.00000000E+00  0.00000000E+00  0.00000000E+00
  0.00000000E+00  0.00000000E+00  0.00000000E+00
  0.00000000E+00  0.00000000E+00  0.00000000E+00
  0.00000000E+00  0.00000000E+00  0.00000000E+00
  0.00000000E+00  0.00000000E+00  0.00000000E+00
  0.00000000E+00  0.00000000E+00  0.00000000E+00
  0.00000000E+00  0.00000000E+00  0.00000000E+00
  0.00000000E+00  0.00000000E+00  0.00000000E+00
  0.00000000E+00  0.00000000E+00  0.00000000E+00
  0.00000000E+00  0.00000000E+00  0.00000000E+00
  0.00000000E+00  0.00000000E+00  0.00000000E+00
  0.00000000E+00  0.00000000E+00  0.00000000E+00
  0.00000000E+00  0.00000000E+00  0.00000000E+00
  0.00000000E+00  0.00000000E+00  0.00000000E+00
  0.00000000E+00  0.00000000E+00  0.00000000E+00
  0.00000000E+00  0.00000000E+00  0.00000000E+00
  0.00000000E+00  0.00000000E+00  0.00000000E+00
  0.00000000E+00  0.00000000E+00  0.00000000E+00
  0.00000000E+00  0.00000000E+00  0.00000000E+00
  0.00000000E+00  0.00000000E+00  0.00000000E+00
  0.00000000E+00  0.00000000E+00  0.00000000E+00
  0.00000000E+00  0.00000000E+00  0.00000000E+00
  0.00000000E+00  0.00000000E+00  0.00000000E+00
  0.00000000E+00  0.00000000E+00  0.00000000E+00
  0.00000000E+00  0.00000000E+00  0.00000000E+00
  0.00000000E+00  0.00000000E+00  0.00000000E+00
  0.00000000E+00  0.00000000E+00  0.00000000E+00
  0.00000000E+00  0.00000000E+00  0.00000000E+00
  0.00000000E+00  0.00000000E+00  0.00000000E+00
  0.00000000E+00  0.00000000E+00  0.00000000E+00
  0.00000000E+00  0.00000000E+00  0.00000000E+00
  0.00000000E+00  0.00000000E+00  0.00000000E+00
  0.00000000E+00  0.00000000E+00  0.00000000E+00
  0.00000000E+00  0.00000000E+00  0.00000000E+00
  0.00000000E+00  0.00000000E+00  0.00000000E+00
  0.00000000E+00  0.00000000E+00  0.00000000E+00
  0.00000000E+00  0.00000000E+00  0.00000000E+00
  0.00000000E+00  0.00000000E+00  0.00000000E+00
  0.00000000E+00  0.00000000E+00  0.00000000E+00
  0.00000000E+00  0.00000000E+00  0.00000000E+00
  0.00000000E+00  0.00000000E+00  0.00000000E+00
  0.00000000E+00  0.00000000E+00  0.00000000E+00
  0.00000000E+00  0.00000000E+00  0.00000000E+00
  0.00000000E+00  0.00000000E+00  0.00000000E+00
  0.00000000E+00  0.00000000E+00  0.00000000E+00
  0.00000000E+00  0.00000000E+00  0.00000000E+00
  0.00000000E+00  0.00000000E+00  0.00000000E+00
  0.00000000E+00  0.00000000E+00  0.00000000E+00
  0.00000000E+00  0.00000000E+00  0.00000000E+00
  0.00000000E+00  0.00000000E+00  0.00000000E+00
  0.00000000E+00  0.00000000E+00  0.00000000E+00
  0.00000000E+00  0.00000000E+00  0.00000000E+00
  0.00000000E+00  0.00000000E+00  0.00000000E+00
  0.00000000E+00  0.00000000E+00  0.00000000E+00
  0.00000000E+00  0.00000000E+00  0.00000000E+00
  0.00000000E+00  0.00000000E+00  0.00000000E+00
  0.00000000E+00  0.00000000E+00  0.00000000E+00
  0.00000000E+00  0.00000000E+00  0.00000000E+00
  0.00000000E+00  0.00000000E+00  0.00000000E+00
  0.00000000E+00  0.00000000E+00  0.00000000E+00
  0.00000000E+00  0.00000000E+00  0.00000000E+00
  0.00000000E+00  0.00000000E+00  0.00000000E+00
  0.00000000E+00  0.00000000E+00  0.00000000E+00
  0.00000000E+00  0.00000000E+00  0.00000000E+00
  0.00000000E+00  0.00000000E+00  0.00000000E+00
  0.00000000E+00  0.00000000E+00  0.00000000E+00
  0.00000000E+00  0.00000000E+00  0.00000000E+00
  0.00000000E+00  0.00000000E+00  0.00000000E+00
  0.00000000E+00  0.00000000E+00  0.00000000E+00
  0.00000000E+00  0.00000000E+00  0.00000000E+00
  0.00000000E+00  0.00000000E+00  0.00000000E+00
  0.00000000E+00  0.00000000E+00  0.00000000E+00
  0.00000000E+00  0.00000000E+00  0.00000000E+00
  0.00000000E+00  0.00000000E+00  0.00000000E+00
  0.00000000E+00  0.00000000E+00  0.00000000E+00
  0.00000000E+00  0.00000000E+00  0.00000000E+00
  0.00000000E+00  0.00000000E+00  0.00000000E+00
  0.00000000E+00  0.00000000E+00  0.00000000E+00
  0.00000000E+00  0.00000000E+00  0.00000000E+00
  0.00000000E+00  0.00000000E+00  0.00000000E+00
  0.00000000E+00  0.00000000E+00  0.00000000E+00
  0.00000000E+00  0.00000000E+00  0.00000000E+00
  0.00000000E+00  0.00000000E+00  0.00000000E+00
  0.00000000E+00  0.00000000E+00  0.00000000E+00
  0.00000000E+00  0.00000000E+00  0.00000000E+00
  0.00000000E+00  0.00000000E+00  0.00000000E+00
  0.00000000E+00  0.00000000E+00  0.00000000E+00
  0.00000000E+00  0.00000000E+00  0.00000000E+00
  0.00000000E+00  0.00000000E+00  0.00000000E+00
  0.00000000E+00  0.00000000E+00  0.00000000E+00
  0.00000000E+00  0.00000000E+00  0.00000000E+00
  0.00000000E+00  0.00000000E+00  0.00000000E+00
  0.00000000E+00  0.00000000E+00  0.00000000E+00
  0.00000000E+00  0.00000000E+00  0.00000000E+00
  0.00000000E+00  0.00000000E+00  0.00000000E+00
  0.00000000E+00  0.00000000E+00  0.00000000E+00
  0.00000000E+00  0.00000000E+00  0.00000000E+00
  0.00000000E+00  0.00000000E+00  0.00000000E+00
  0.00000000E+00  0.00000000E+00  0.00000000E+00
  0.00000000E+00  0.00000000E+00  0.00000000E+00
  0.00000000E+00  0.00000000E+00  0.00000000E+00
  0.00000000E+00  0.00000000E+00  0.00000000E+00
  0.00000000E+00  0.00000000E+00  0.00000000E+00
  0.00000000E+00  0.00000000E+00  0.00000000E+00
  0.00000000E+00  0.00000000E+00  0.00000000E+00
  0.00000000E+00  0.00000000E+00  0.00000000E+00
  0.00000000E+00  0.00000000E+00  0.00000000E+00
  0.00000000E+00  0.00000000E+00  0.00000000E+00
  0.00000000E+00  0.00000000E+00  0.00000000E+00
  0.00000000E+00  0.00000000E+00  0.00000000E+00
  0.00000000E+00  0.00000000E+00  0.00000000E+00
  0.00000000E+00  0.00000000E+00  0.00000000E+00
  0.00000000E+00  0.00000000E+00  0.00000000E+00
  0.00000000E+00  0.00000000E+00  0.00000000E+00
  0.00000000E+00  0.00000000E+00  0.00000000E+00
  0.00000000E+00  0.00000000E+00  0.00000000E+00
  0.00000000E+00  0.00000000E+00  0.00000000E+00
  0.00000000E+00  0.00000000E+00  0.00000000E+00
  0.00000000E+00  0.00000000E+00  0.00000000E+00