FeMn_288_15                             
    1.000000000000000     
     9.7266779999999997    0.0000000000000000    0.0000000000000000
     0.0000000000000000    8.4235500000000005    0.0000000000000000
     0.0000000000000000    0.0000000000000000   45.0000000000000000
   Fe   Mn
   273    15
Direct
  0.6874727341818220  0.4584877318287042  0.6982334135208480
  0.3124500060134721  0.8683206751009298  0.1688982942805773
  0.6871087641909219  0.1215201620487999  0.4348458952071690
  0.6876816121178763  0.4555630221400763  0.4784999959013617
  0.4374518850779747  0.6238523636041878  0.6538728474820843
  0.8128820813485010  0.7066574460697844  0.5651310009780547
  0.1883517659485092  0.6216426776708858  0.4347540831183961
  0.6875200637462010  0.9520587812195783  0.2135969368363777
  0.1869557762604314  0.2929952025728299  0.8734155547303489
  0.6877284261938849  0.6253163489130996  0.7864398714406138
  0.8125107681781355  0.2036967435971276  0.3461967167505903
  0.9373535662293883  0.9552566697839837  0.4785621447397301
  0.6875161520295522  0.7855084283166602  0.2577116954046738
  0.1874496311439018  0.7851253922686624  0.1266772141383389
  0.1874005995772121  0.4562048523568176  0.5651104724462225
  0.6868361529580072  0.6216106016347765  0.4347956760797601
  0.3126151581171763  0.5355422074243944  0.2577117776727254
  0.4375701738023853  0.4595518666620259  0.8311423879998221
  0.5623972525393139  0.3757171713762276  0.7865940209032569
  0.5623161474513387  0.0426628887703042  0.7422343803382505
  0.4374954841505241  0.2924762241299824  0.7423912224374402
  0.0623340728388487  0.2023030818103246  0.2135059990649535
  0.1871844906223036  0.6195013778891357  0.3017792495136347
  0.5625883985487977  0.0351625522423331  0.1267183403577818
  0.1876819870121346  0.6244795560419216  0.6538056335595597
  0.9375179641978811  0.7852144727717589  0.1266753953470439
  0.5622968867150759  0.0428875655657835  0.8734790059108029
  0.9375516398849337  0.9585429087052604  0.6981072374580196
  0.0623183694341107  0.3693236674997756  0.3017933446111866
  0.9374763596242960  0.9594071011177097  0.8311467351885427
  0.8125064192683806  0.2053113196187193  0.4785258187820843
  0.3124509746110962  0.0423506038154814  0.7423195720765702
  0.4375840004397991  0.4521590130477572  0.2135130884965080
  0.6876494958599204  0.2849120920257037  0.1267184348376461
  0.5625482494253057  0.8683317581613799  0.1688870665257275
  0.3122992835664008  0.2087426878958372  0.6982762017372689
  0.4378724283303172  0.2855066335537454  0.2577101518973439
  0.9373393043695225  0.7856522476838357  0.2577067769208961
  0.6875562874663683  0.7851715417408480  0.1266967788476136
  0.0628022092875309  0.7050239340743351  0.4786026831867292
  0.0623778607946625  0.0420292670075657  0.7423164625978353
  0.8125312739069247  0.2021074723067990  0.2135832315207048
  0.5622968953496733  0.7083449616225294  0.6982287554551816
  0.6879772133011764  0.2906396318831630  0.6097465308008160
  0.3125214358310802  0.0352828281327726  0.1266506065806099
  0.9374701227741336  0.2921596903339454  0.7423453621946104
  0.5628661786271650  0.8696365752448065  0.3018654254861561
  0.8126133479299784  0.7034952208985142  0.3462504332771288
  0.0626676815184596  0.2096420257699380  0.8313585091919431
  0.8132789361177374  0.5405959016341790  0.6098098722393669
  0.8124735851310373  0.3694439711451788  0.3018128709134992
  0.9374255399116055  0.4586968281722012  0.6981900398545824
  0.9375411715168175  0.7876742764808472  0.3902110241915647
  0.4375282218061587  0.4588924922700708  0.6980978439821522
  0.6873820529904059  0.2919845985680848  0.7423810449276349
  0.9376071326393766  0.1184964392130061  0.1688970191194892
  0.3127229184002811  0.3723498436760161  0.5212443371232285
  0.3124317484281505  0.7050632463570691  0.4786246379459433
  0.1876324125109735  0.7905889792175217  0.6098306789452319
  0.1880920186635927  0.1215684007396732  0.4347516608229647
  0.8125521665679156  0.3684012733895767  0.1688915649877318
  0.8124798419546886  0.2094607009391243  0.8312515327547102
  0.3123330326578980  0.3759300514598380  0.7865243605526598
  0.0624320045477775  0.0351863945213370  0.1266768747576571
  0.3124596185082823  0.7031029551282545  0.3462411735287635
  0.6871688532139314  0.9532309036172415  0.3462088039692209
  0.8125887040836641  0.7088805214077729  0.6982997448597559
  0.4374479461617481  0.7905587253305236  0.6098034061172434
  0.6874965457577163  0.1184815017185151  0.1689064359771862
  0.1875593460024511  0.2903232178192437  0.6097965565159497
  0.9375576708069040  0.1257895819896972  0.7864907487043304
  0.6874729995980174  0.4591596223552272  0.8312392849079977
  0.4375228913779766  0.7852213956624963  0.1266623415894954
  0.0629039728872783  0.7085160830084389  0.6981288849484788
  0.8124732852689721  0.5354568618285603  0.2577613181324540
  0.8124852371573964  0.7092506325595848  0.8312237551999181
  0.3124583014602840  0.0405619773173688  0.6098281785011015
  0.0626018270324901  0.3724419283425327  0.5213709230259810
  0.3125587057751950  0.2061086121592093  0.5650453257471593
  0.3125152069124474  0.8757950969397095  0.7864083670803724
  0.5623811263704198  0.2081594454299517  0.6983403188614955
  0.1875941230922509  0.4529740254620059  0.3462282109476649
  0.4373408923053295  0.6195822089454174  0.3018175125372654
  0.5630345054683573  0.7065615255170109  0.5651351294740862
  0.4374949353587343  0.9580855652619811  0.6981631042145526
  0.0622148581101574  0.8694094323389342  0.3018438639805830
  0.3125393615238729  0.3745594681369247  0.6538155624241240
  0.1878579459576493  0.6223120527667655  0.5213971638905247
  0.1871660990366557  0.9579405186294712  0.6980614387278706
  0.1871620661633064  0.6258666737182528  0.7864596498700356
  0.0626823737789523  0.5402863365547687  0.6098858452651456
  0.9374411669087963  0.7927562669342991  0.8733474528031978
  0.5625058148844830  0.7021058906422311  0.2135732407903910
  0.9372795417696227  0.6226714716933921  0.5212488790822716
  0.8124408901979709  0.3757145084017410  0.7864939780856736
  0.0623945338128718  0.5373049083402512  0.3902355882567669
  0.0626062489434114  0.0374083618912637  0.3901546047706963
  0.6878487327234390  0.2930379899123808  0.8734768070588322
  0.5622610390958754  0.5353326583824792  0.2577306394330131
  0.3123401966503100  0.7086714226531649  0.6982517859757621
  0.0628697007944435  0.5419657855775326  0.7423626084585109
  0.9374190600914102  0.7917686396692929  0.7422533313633274
  0.8127568494151580  0.5352477918979504  0.1267201514908687
  0.8120108983715770  0.8723004696520537  0.5212602662577103
  0.5625302083244366  0.3725437136965712  0.5212179406333446
  0.5625587099517145  0.3683351021584541  0.1688458919784412
  0.1874989148414139  0.2924987429356487  0.7423161939789007
  0.6875087544966146  0.9592818672171683  0.8312162539013611
  0.4373059089616830  0.1226476508969988  0.5212671840730231
  0.0623882381488798  0.7034439554196609  0.3462825522342454
  0.8123664711159634  0.5420820520658962  0.7423449009411814
  0.1875805060747294  0.1192648795339570  0.3018029099239737
  0.5625644603716620  0.8756770843403088  0.7865055226034441
  0.5620513194979054  0.5424216245269035  0.7423139008852104
  0.4375417101269030  0.6215139434577469  0.4348569924241886
  0.1875460283778884  0.1188018675127794  0.1687528089267837
  0.4375996801091380  0.4534040593388191  0.3463350983075194
  0.6874145872756741  0.6244847786356590  0.6538525255966949
  0.8122106227549069  0.2061273070125851  0.5650630533423728
  0.6876852471188870  0.9553333009722580  0.4785027456109013
  0.9375582259285180  0.4592189850027444  0.8312557959624967
  0.6874956352014293  0.4534247109641892  0.3461515038998941
  0.0624767176430278  0.8757514137277190  0.7864528841186208
  0.3124816306020090  0.2024607090870950  0.2135678879871060
  0.4374114068551483  0.4552590863156994  0.4785730538605656
  0.5627529987984498  0.3713426562059791  0.4348157632329876
  0.3129543976719392  0.8744871328060813  0.6537384351436007
  0.0628590230862378  0.3713484675201127  0.4348448631020174
  0.3126616894007751  0.5431902333117318  0.8733839215233060
  0.0628910153817823  0.8714473869163625  0.4350227733048503
  0.8125185761616119  0.0375866972974716  0.3901123496612227
  0.9375138757113409  0.4538271352265731  0.3461490022019554
  0.9377102694643601  0.6196916808842985  0.3018737758184033
  0.4373327705933233  0.4564952997120815  0.5651095218784012
  0.6872453125887912  0.4563341943128195  0.5650440216074494
  0.4372142338628029  0.1238864296722477  0.6537498110013008
  0.9371925146777875  0.2903435538158734  0.6097479194643541
  0.4376890469494190  0.9532212732155292  0.3463209364714128
  0.6875019467789999  0.7926788654933157  0.8733567795428081
  0.0627007932385912  0.2082331998775762  0.6982064597652788
  0.1873494433084422  0.4594708872157359  0.8311882998382739
  0.1871558189087932  0.1245696344822163  0.6537947678989277
  0.3119201702303043  0.7071392092180820  0.5651399467402916
  0.6875580225268498  0.6197342752816845  0.3017510338053022
  0.8124739434891239  0.5371826995774835  0.3901431833036302
  0.5623555839256021  0.5428995565249293  0.8733940581244429
  0.4375678897777802  0.7855838818265969  0.2577338591068210
  0.5625545388577836  0.0357653794948517  0.2577450246579520
  0.4374090520823456  0.1184317815515310  0.1688583780374983
  0.6876672715750989  0.1223077880233063  0.5212948658104526
  0.4375932098171376  0.2925387268267508  0.8734425666802901
  0.3122859511517331  0.3713924891490604  0.4348037478467427
  0.5624155288550811  0.2034804881149126  0.3462790440468826
  0.3126110752480393  0.2032229024552163  0.3462797793150306
  0.0623898945414153  0.7094833803028976  0.8311502162940858
  0.3125149817262498  0.7093586873010961  0.8311506300611240
  0.9375086461891273  0.2876016984596978  0.3902123685858310
  0.8126629386456125  0.0406760676079935  0.6097594535387374
  0.6875450743466286  0.2854248326277271  0.2577386100100596
  0.8125397058197712  0.0358160445121704  0.2577488806747417
  0.3127219703276636  0.8720229951866335  0.5212336055476813
  0.3126299910715828  0.0428648689369435  0.8734335889590260
  0.1875045926442937  0.7926188167711792  0.8733100569709173
  0.0626218412393695  0.2050864221048869  0.4785909536858505
  0.1875538686847172  0.4585680326601614  0.6981816397999157
  0.3127152119530591  0.2091266299046069  0.8312722799463399
  0.1874715452051081  0.2855034476140891  0.2577215764022595
  0.9376413466186269  0.1229294888093255  0.5212684882973394
  0.0627630200703239  0.8746392095267579  0.6536356122666248
  0.1874974746568367  0.4523215771435425  0.2135949382361146
  0.9374612882258955  0.2928937729457305  0.8734878519535660
  0.6877193837557274  0.9561898785152497  0.5650277845521057
  0.5621982343150279  0.8740156402687727  0.6536095112774398
  0.5626560832552066  0.2020190235114016  0.2135224728690625
  0.5624854467263902  0.7094315371385101  0.8311698022904378
  0.6875174688220673  0.4520587173283586  0.2135783857794307
  0.0623517912946203  0.0426803607115736  0.8733851171451116
  0.5621115227241262  0.2093959620057492  0.8314121903908420
  0.3124875814601312  0.5351810272287175  0.1266521898556374
  0.4373507040710859  0.1214240101897381  0.4348092220075709
  0.9374388762789342  0.4520784492954111  0.2135306895937364
  0.1876325431422747  0.1225557533111112  0.5213391487156035
  0.1872901822146573  0.1259522889241906  0.7864694395925030
  0.9375726699004046  0.1242682721282047  0.6537659119951704
  0.1874273115518557  0.6184766168932926  0.1688306401981429
  0.6873435793995798  0.7903129382581960  0.6097625364135267
  0.3125536918860519  0.0357903034819525  0.2577895130533706
  0.8124976432525890  0.7019678821279501  0.2136120414588814
  0.6876774586779444  0.1240074292792823  0.6536489323179171
  0.9374758907091978  0.6246770209035981  0.6537384766433225
  0.3122272059896241  0.2053913940904219  0.4785305817108915
  0.8123410185250260  0.3749844638439975  0.6537971459735769
  0.1877392937387532  0.9530380894398889  0.3462332071595898
  0.1875247705865793  0.7918860416850015  0.7422248985836600
  0.8123396090756632  0.7054298000070038  0.4785652960033877
  0.3118333865700181  0.5401893943123863  0.6098688159850894
  0.4375036394325112  0.6256221680586448  0.7864381884340438
  0.5625796064613747  0.7031489967018415  0.3462336692765743
  0.0624430877948608  0.5430018522456777  0.8733853765498971
  0.4374496475168007  0.7923448538179855  0.7424110693134300
  0.0626745638568480  0.0405403599114459  0.6097117649193035
  0.8123078081098418  0.8754548676496975  0.7864410616615181
  0.9375678338843703  0.6255103231223192  0.7864739268606328
  0.4374894987651202  0.2852060974663778  0.1266780915126521
  0.8120717703952254  0.3724082389133778  0.5213229043985795
  0.5629280916526421  0.8712720998440230  0.4348725470123474
  0.9371588787210441  0.2855389004133337  0.2577015218447771
  0.6876603379447439  0.1258810688684310  0.7865383714283408
  0.0623551573957533  0.3686749592223626  0.1688539796292166
  0.6876473256093681  0.9583602654914131  0.6980916348142345
  0.8123821421569873  0.8696080461848901  0.3018128504193547
  0.9373652504528498  0.9538642891076229  0.3462572238306657
  0.0624341286992624  0.0355025827124922  0.2577280087403319
  0.5626079720015345  0.5371909605616823  0.3902262189095474
  0.4374015601876391  0.2901567191482088  0.6097418415760540
  0.3125840086245758  0.5425254146028007  0.7423827136284524
  0.5625276526578884  0.7051411236738343  0.4786157920105145
  0.8119492591624963  0.8712838404600263  0.4346530380154086
  0.3125572630127832  0.3685554645364109  0.1688615521578458
  0.9374780191622070  0.1192043537453873  0.3018847529536485
  0.4375200120949613  0.2871670733565503  0.3902426993273734
  0.1874812302845497  0.2849625920660132  0.1266788728119058
  0.9376246116754943  0.9520132277952957  0.2136024687372646
  0.8124771517208731  0.5430974421191647  0.8733984512977262
  0.1873817568054643  0.9594255182254229  0.8311591690718497
  0.6878290872582777  0.6223171981068131  0.5213022807489354
  0.8126258760942220  0.0427544250597690  0.8734063526209914
  0.5628668934227480  0.3698352955496019  0.3018714946886511
  0.8121197826338629  0.3712080405038686  0.4347926775515432
  0.1874502090411058  0.4553684843113183  0.4785756639322943
  0.9374680909171118  0.2851023661787948  0.1266806663491692
  0.1871482548205493  0.7873598663821022  0.3901715867660728
  0.5626918804069793  0.2052271537455486  0.4786028330086985
  0.3125421401395291  0.5370216982692481  0.3901969402792244
  0.8125842055441861  0.8683896707653476  0.1688989518895370
  0.0623764856321739  0.5351369070936696  0.1266522710262397
  0.1874386848634714  0.9523826218415810  0.2135697830599072
  0.5625020501310473  0.0369691892770383  0.3901462797509996
  0.3125580946296710  0.7024904043497486  0.2135183684912510
  0.6879108923441362  0.2874970915726494  0.3901418918649715
  0.4375517165965851  0.1199294341368876  0.3018022955759498
  0.8119842054968285  0.8747234766513896  0.6537902123494880
  0.4374752204863772  0.9596813204596941  0.8312192881711860
  0.5626576557060423  0.8724971937179600  0.5212985668012428
  0.6873314724357129  0.1193841211088633  0.3018324734996155
  0.3124985010039911  0.8695521353533586  0.3018886788991378
  0.4376966177480013  0.6182953899581760  0.1687615153916720
  0.9373310420356944  0.6183183693427540  0.1687821304133806
  0.9374932386779361  0.4548797835541992  0.4785981921143365
  0.5625582320477505  0.3740739737199266  0.6536997942374381
  0.0628611006891406  0.7064119638968535  0.5650908057275792
  0.0624285705077358  0.7022180786003971  0.2135926021374794
  0.4372645780508743  0.6225755296423938  0.5213583629707851
  0.1876925312612567  0.9563412078855833  0.5650992674912929
  0.0624604965181242  0.8684748886200925  0.1688776818875894
  0.4374211432331984  0.7921558665027946  0.8733385865768333
  0.0629432236507498  0.2066054885758791  0.5651047604903675
  0.5624347675927492  0.5353129525040142  0.1267121359895477
  0.9369616051173736  0.9560363439061813  0.5649639204427311
  0.6877674770067118  0.7874805655304804  0.3901689905243114
  0.3124128323573545  0.0367684317957970  0.3902660495953274
  0.0627417044874711  0.3762460405847720  0.7866091123039344
  0.8125247918453816  0.0350231034150751  0.1266845368728148
  0.9377027254465317  0.7905899923366109  0.6096349823441897
  0.4374251006297689  0.9520999401315259  0.2135681348341377
  0.1875998292134379  0.9556094815029986  0.4786454058003708
  0.4376032868861572  0.9551818221791430  0.4786148282601088
  0.6875113651609415  0.7923292353923247  0.7423099139849669
  0.0627381936176287  0.5357526299201940  0.2577826188256040
  0.6875565256536912  0.6185355903165713  0.1688875506702406
  0.0625794853710400  0.2034114789356739  0.3462345740642958
  0.1870861148366689  0.2874339177968289  0.3901619312552785
  0.3123555385382030  0.8713115694488133  0.4347648010230833
  0.5625806570890707  0.0404032984031349  0.6100052252855500
  0.1875286106145195  0.7857101670032600  0.2576343493177960
  0.9375559411623826  0.6212591611409067  0.4346116693841464
  0.4365291156125215  0.9556041539104515  0.5650254391847463
  0.3122761216366315  0.3695304883195347  0.3018570964771668
  0.4372820658055345  0.1258703387345034  0.7862369620620175
  0.4374785639744926  0.7871978955465917  0.3901230338397408
  0.9373434368217443  0.4560920446375550  0.5650426561909807
  0.8126015138715125  0.0418348768413500  0.7425274210513566
  0.5625069776775868  0.5402669372951544  0.6098916300404393
  0.8129182208589038  0.2091632505035506  0.6981158573476345
  0.0622369511768577  0.3746930908557222  0.6536772950246684
  0.5629919413567820  0.2078916057711349  0.5650606645552894
  0.9374100974767919  0.1219608956447264  0.4346748469028479
  0.0626424235826366  0.8725436774845601  0.5212869759431671
 
  0.00000000E+00  0.00000000E+00  0.00000000E+00
  0.00000000E+00  0.00000000E+00  0.00000000E+00
  0.00000000E+00  0.00000000E+00  0.00000000E+00
  0.00000000E+00  0.00000000E+00  0.00000000E+00
  0.00000000E+00  0.00000000E+00  0.00000000E+00
  0.00000000E+00  0.00000000E+00  0.00000000E+00
  0.00000000E+00  0.00000000E+00  0.00000000E+00
  0.00000000E+00  0.00000000E+00  0.00000000E+00
  0.00000000E+00  0.00000000E+00  0.00000000E+00
  0.00000000E+00  0.00000000E+00  0.00000000E+00
  0.00000000E+00  0.00000000E+00  0.00000000E+00
  0.00000000E+00  0.00000000E+00  0.00000000E+00
  0.00000000E+00  0.00000000E+00  0.00000000E+00
  0.00000000E+00  0.00000000E+00  0.00000000E+00
  0.00000000E+00  0.00000000E+00  0.00000000E+00
  0.00000000E+00  0.00000000E+00  0.00000000E+00
  0.00000000E+00  0.00000000E+00  0.00000000E+00
  0.00000000E+00  0.00000000E+00  0.00000000E+00
  0.00000000E+00  0.00000000E+00  0.00000000E+00
  0.00000000E+00  0.00000000E+00  0.00000000E+00
  0.00000000E+00  0.00000000E+00  0.00000000E+00
  0.00000000E+00  0.00000000E+00  0.00000000E+00
  0.00000000E+00  0.00000000E+00  0.00000000E+00
  0.00000000E+00  0.00000000E+00  0.00000000E+00
  0.00000000E+00  0.00000000E+00  0.00000000E+00
  0.00000000E+00  0.00000000E+00  0.00000000E+00
  0.00000000E+00  0.00000000E+00  0.00000000E+00
  0.00000000E+00  0.00000000E+00  0.00000000E+00
  0.00000000E+00  0.00000000E+00  0.00000000E+00
  0.00000000E+00  0.00000000E+00  0.00000000E+00
  0.00000000E+00  0.00000000E+00  0.00000000E+00
  0.00000000E+00  0.00000000E+00  0.00000000E+00
  0.00000000E+00  0.00000000E+00  0.00000000E+00
  0.00000000E+00  0.00000000E+00  0.00000000E+00
  0.00000000E+00  0.00000000E+00  0.00000000E+00
  0.00000000E+00  0.00000000E+00  0.00000000E+00
  0.00000000E+00  0.00000000E+00  0.00000000E+00
  0.00000000E+00  0.00000000E+00  0.00000000E+00
  0.00000000E+00  0.00000000E+00  0.00000000E+00
  0.00000000E+00  0.00000000E+00  0.00000000E+00
  0.00000000E+00  0.00000000E+00  0.00000000E+00
  0.00000000E+00  0.00000000E+00  0.00000000E+00
  0.00000000E+00  0.00000000E+00  0.00000000E+00
  0.00000000E+00  0.00000000E+00  0.00000000E+00
  0.00000000E+00  0.00000000E+00  0.00000000E+00
  0.00000000E+00  0.00000000E+00  0.00000000E+00
  0.00000000E+00  0.00000000E+00  0.00000000E+00
  0.00000000E+00  0.00000000E+00  0.00000000E+00
  0.00000000E+00  0.00000000E+00  0.00000000E+00
  0.00000000E+00  0.00000000E+00  0.00000000E+00
  0.00000000E+00  0.00000000E+00  0.00000000E+00
  0.00000000E+00  0.00000000E+00  0.00000000E+00
  0.00000000E+00  0.00000000E+00  0.00000000E+00
  0.00000000E+00  0.00000000E+00  0.00000000E+00
  0.00000000E+00  0.00000000E+00  0.00000000E+00
  0.00000000E+00  0.00000000E+00  0.00000000E+00
  0.00000000E+00  0.00000000E+00  0.00000000E+00
  0.00000000E+00  0.00000000E+00  0.00000000E+00
  0.00000000E+00  0.00000000E+00  0.00000000E+00
  0.00000000E+00  0.00000000E+00  0.00000000E+00
  0.00000000E+00  0.00000000E+00  0.00000000E+00
  0.00000000E+00  0.00000000E+00  0.00000000E+00
  0.00000000E+00  0.00000000E+00  0.00000000E+00
  0.00000000E+00  0.00000000E+00  0.00000000E+00
  0.00000000E+00  0.00000000E+00  0.00000000E+00
  0.00000000E+00  0.00000000E+00  0.00000000E+00
  0.00000000E+00  0.00000000E+00  0.00000000E+00
  0.00000000E+00  0.00000000E+00  0.00000000E+00
  0.00000000E+00  0.00000000E+00  0.00000000E+00
  0.00000000E+00  0.00000000E+00  0.00000000E+00
  0.00000000E+00  0.00000000E+00  0.00000000E+00
  0.00000000E+00  0.00000000E+00  0.00000000E+00
  0.00000000E+00  0.00000000E+00  0.00000000E+00
  0.00000000E+00  0.00000000E+00  0.00000000E+00
  0.00000000E+00  0.00000000E+00  0.00000000E+00
  0.00000000E+00  0.00000000E+00  0.00000000E+00
  0.00000000E+00  0.00000000E+00  0.00000000E+00
  0.00000000E+00  0.00000000E+00  0.00000000E+00
  0.00000000E+00  0.00000000E+00  0.00000000E+00
  0.00000000E+00  0.00000000E+00  0.00000000E+00
  0.00000000E+00  0.00000000E+00  0.00000000E+00
  0.00000000E+00  0.00000000E+00  0.00000000E+00
  0.00000000E+00  0.00000000E+00  0.00000000E+00
  0.00000000E+00  0.00000000E+00  0.00000000E+00
  0.00000000E+00  0.00000000E+00  0.00000000E+00
  0.00000000E+00  0.00000000E+00  0.00000000E+00
  0.00000000E+00  0.00000000E+00  0.00000000E+00
  0.00000000E+00  0.00000000E+00  0.00000000E+00
  0.00000000E+00  0.00000000E+00  0.00000000E+00
  0.00000000E+00  0.00000000E+00  0.00000000E+00
  0.00000000E+00  0.00000000E+00  0.00000000E+00
  0.00000000E+00  0.00000000E+00  0.00000000E+00
  0.00000000E+00  0.00000000E+00  0.00000000E+00
  0.00000000E+00  0.00000000E+00  0.00000000E+00
  0.00000000E+00  0.00000000E+00  0.00000000E+00
  0.00000000E+00  0.00000000E+00  0.00000000E+00
  0.00000000E+00  0.00000000E+00  0.00000000E+00
  0.00000000E+00  0.00000000E+00  0.00000000E+00
  0.00000000E+00  0.00000000E+00  0.00000000E+00
  0.00000000E+00  0.00000000E+00  0.00000000E+00
  0.00000000E+00  0.00000000E+00  0.00000000E+00
  0.00000000E+00  0.00000000E+00  0.00000000E+00
  0.00000000E+00  0.00000000E+00  0.00000000E+00
  0.00000000E+00  0.00000000E+00  0.00000000E+00
  0.00000000E+00  0.00000000E+00  0.00000000E+00
  0.00000000E+00  0.00000000E+00  0.00000000E+00
  0.00000000E+00  0.00000000E+00  0.00000000E+00
  0.00000000E+00  0.00000000E+00  0.00000000E+00
  0.00000000E+00  0.00000000E+00  0.00000000E+00
  0.00000000E+00  0.00000000E+00  0.00000000E+00
  0.00000000E+00  0.00000000E+00  0.00000000E+00
  0.00000000E+00  0.00000000E+00  0.00000000E+00
  0.00000000E+00  0.00000000E+00  0.00000000E+00
  0.00000000E+00  0.00000000E+00  0.00000000E+00
  0.00000000E+00  0.00000000E+00  0.00000000E+00
  0.00000000E+00  0.00000000E+00  0.00000000E+00
  0.00000000E+00  0.00000000E+00  0.00000000E+00
  0.00000000E+00  0.00000000E+00  0.00000000E+00
  0.00000000E+00  0.00000000E+00  0.00000000E+00
  0.00000000E+00  0.00000000E+00  0.00000000E+00
  0.00000000E+00  0.00000000E+00  0.00000000E+00
  0.00000000E+00  0.00000000E+00  0.00000000E+00
  0.00000000E+00  0.00000000E+00  0.00000000E+00
  0.00000000E+00  0.00000000E+00  0.00000000E+00
  0.00000000E+00  0.00000000E+00  0.00000000E+00
  0.00000000E+00  0.00000000E+00  0.00000000E+00
  0.00000000E+00  0.00000000E+00  0.00000000E+00
  0.00000000E+00  0.00000000E+00  0.00000000E+00
  0.00000000E+00  0.00000000E+00  0.00000000E+00
  0.00000000E+00  0.00000000E+00  0.00000000E+00
  0.00000000E+00  0.00000000E+00  0.00000000E+00
  0.00000000E+00  0.00000000E+00  0.00000000E+00
  0.00000000E+00  0.00000000E+00  0.00000000E+00
  0.00000000E+00  0.00000000E+00  0.00000000E+00
  0.00000000E+00  0.00000000E+00  0.00000000E+00
  0.00000000E+00  0.00000000E+00  0.00000000E+00
  0.00000000E+00  0.00000000E+00  0.00000000E+00
  0.00000000E+00  0.00000000E+00  0.00000000E+00
  0.00000000E+00  0.00000000E+00  0.00000000E+00
  0.00000000E+00  0.00000000E+00  0.00000000E+00
  0.00000000E+00  0.00000000E+00  0.00000000E+00
  0.00000000E+00  0.00000000E+00  0.00000000E+00
  0.00000000E+00  0.00000000E+00  0.00000000E+00
  0.00000000E+00  0.00000000E+00  0.00000000E+00
  0.00000000E+00  0.00000000E+00  0.00000000E+00
  0.00000000E+00  0.00000000E+00  0.00000000E+00
  0.00000000E+00  0.00000000E+00  0.00000000E+00
  0.00000000E+00  0.00000000E+00  0.00000000E+00
  0.00000000E+00  0.00000000E+00  0.00000000E+00
  0.00000000E+00  0.00000000E+00  0.00000000E+00
  0.00000000E+00  0.00000000E+00  0.00000000E+00
  0.00000000E+00  0.00000000E+00  0.00000000E+00
  0.00000000E+00  0.00000000E+00  0.00000000E+00
  0.00000000E+00  0.00000000E+00  0.00000000E+00
  0.00000000E+00  0.00000000E+00  0.00000000E+00
  0.00000000E+00  0.00000000E+00  0.00000000E+00
  0.00000000E+00  0.00000000E+00  0.00000000E+00
  0.00000000E+00  0.00000000E+00  0.00000000E+00
  0.00000000E+00  0.00000000E+00  0.00000000E+00
  0.00000000E+00  0.00000000E+00  0.00000000E+00
  0.00000000E+00  0.00000000E+00  0.00000000E+00
  0.00000000E+00  0.00000000E+00  0.00000000E+00
  0.00000000E+00  0.00000000E+00  0.00000000E+00
  0.00000000E+00  0.00000000E+00  0.00000000E+00
  0.00000000E+00  0.00000000E+00  0.00000000E+00
  0.00000000E+00  0.00000000E+00  0.00000000E+00
  0.00000000E+00  0.00000000E+00  0.00000000E+00
  0.00000000E+00  0.00000000E+00  0.00000000E+00
  0.00000000E+00  0.00000000E+00  0.00000000E+00
  0.00000000E+00  0.00000000E+00  0.00000000E+00
  0.00000000E+00  0.00000000E+00  0.00000000E+00
  0.00000000E+00  0.00000000E+00  0.00000000E+00
  0.00000000E+00  0.00000000E+00  0.00000000E+00
  0.00000000E+00  0.00000000E+00  0.00000000E+00
  0.00000000E+00  0.00000000E+00  0.00000000E+00
  0.00000000E+00  0.00000000E+00  0.00000000E+00
  0.00000000E+00  0.00000000E+00  0.00000000E+00
  0.00000000E+00  0.00000000E+00  0.00000000E+00
  0.00000000E+00  0.00000000E+00  0.00000000E+00
  0.00000000E+00  0.00000000E+00  0.00000000E+00
  0.00000000E+00  0.00000000E+00  0.00000000E+00
  0.00000000E+00  0.00000000E+00  0.00000000E+00
  0.00000000E+00  0.00000000E+00  0.00000000E+00
  0.00000000E+00  0.00000000E+00  0.00000000E+00
  0.00000000E+00  0.00000000E+00  0.00000000E+00
  0.00000000E+00  0.00000000E+00  0.00000000E+00
  0.00000000E+00  0.00000000E+00  0.00000000E+00
  0.00000000E+00  0.00000000E+00  0.00000000E+00
  0.00000000E+00  0.00000000E+00  0.00000000E+00
  0.00000000E+00  0.00000000E+00  0.00000000E+00
  0.00000000E+00  0.00000000E+00  0.00000000E+00
  0.00000000E+00  0.00000000E+00  0.00000000E+00
  0.00000000E+00  0.00000000E+00  0.00000000E+00
  0.00000000E+00  0.00000000E+00  0.00000000E+00
  0.00000000E+00  0.00000000E+00  0.00000000E+00
  0.00000000E+00  0.00000000E+00  0.00000000E+00
  0.00000000E+00  0.00000000E+00  0.00000000E+00
  0.00000000E+00  0.00000000E+00  0.00000000E+00
  0.00000000E+00  0.00000000E+00  0.00000000E+00
  0.00000000E+00  0.00000000E+00  0.00000000E+00
  0.00000000E+00  0.00000000E+00  0.00000000E+00
  0.00000000E+00  0.00000000E+00  0.00000000E+00
  0.00000000E+00  0.00000000E+00  0.00000000E+00
  0.00000000E+00  0.00000000E+00  0.00000000E+00
  0.00000000E+00  0.00000000E+00  0.00000000E+00
  0.00000000E+00  0.00000000E+00  0.00000000E+00
  0.00000000E+00  0.00000000E+00  0.00000000E+00
  0.00000000E+00  0.00000000E+00  0.00000000E+00
  0.00000000E+00  0.00000000E+00  0.00000000E+00
  0.00000000E+00  0.00000000E+00  0.00000000E+00
  0.00000000E+00  0.00000000E+00  0.00000000E+00
  0.00000000E+00  0.00000000E+00  0.00000000E+00
  0.00000000E+00  0.00000000E+00  0.00000000E+00
  0.00000000E+00  0.00000000E+00  0.00000000E+00
  0.00000000E+00  0.00000000E+00  0.00000000E+00
  0.00000000E+00  0.00000000E+00  0.00000000E+00
  0.00000000E+00  0.00000000E+00  0.00000000E+00
  0.00000000E+00  0.00000000E+00  0.00000000E+00
  0.00000000E+00  0.00000000E+00  0.00000000E+00
  0.00000000E+00  0.00000000E+00  0.00000000E+00
  0.00000000E+00  0.00000000E+00  0.00000000E+00
  0.00000000E+00  0.00000000E+00  0.00000000E+00
  0.00000000E+00  0.00000000E+00  0.00000000E+00
  0.00000000E+00  0.00000000E+00  0.00000000E+00
  0.00000000E+00  0.00000000E+00  0.00000000E+00
  0.00000000E+00  0.00000000E+00  0.00000000E+00
  0.00000000E+00  0.00000000E+00  0.00000000E+00
  0.00000000E+00  0.00000000E+00  0.00000000E+00
  0.00000000E+00  0.00000000E+00  0.00000000E+00
  0.00000000E+00  0.00000000E+00  0.00000000E+00
  0.00000000E+00  0.00000000E+00  0.00000000E+00
  0.00000000E+00  0.00000000E+00  0.00000000E+00
  0.00000000E+00  0.00000000E+00  0.00000000E+00
  0.00000000E+00  0.00000000E+00  0.00000000E+00
  0.00000000E+00  0.00000000E+00  0.00000000E+00
  0.00000000E+00  0.00000000E+00  0.00000000E+00
  0.00000000E+00  0.00000000E+00  0.00000000E+00
  0.00000000E+00  0.00000000E+00  0.00000000E+00
  0.00000000E+00  0.00000000E+00  0.00000000E+00
  0.00000000E+00  0.00000000E+00  0.00000000E+00
  0.00000000E+00  0.00000000E+00  0.00000000E+00
  0.00000000E+00  0.00000000E+00  0.00000000E+00
  0.00000000E+00  0.00000000E+00  0.00000000E+00
  0.00000000E+00  0.00000000E+00  0.00000000E+00
  0.00000000E+00  0.00000000E+00  0.00000000E+00
  0.00000000E+00  0.00000000E+00  0.00000000E+00
  0.00000000E+00  0.00000000E+00  0.00000000E+00