CuInSe2gb                               
   1.00000000000000     
     9.7266780392896699    0.0000000000000000    0.0000000000000000
     0.0000000000000000    8.4235502764570693    0.0000000000000000
     0.0000000000000000    0.0000000000000000   45.0000000000000000
   Fe   Mn
   274    14
Direct
  0.0614023074309517  0.0335209422266351  0.1245032308715756
  0.3136938812195024  0.8737972959840329  0.6550424856826871
  0.1864562625916195  0.1249837025775235  0.7884263631915814
  0.4400104967592103  0.2881707942525249  0.3893025793497913
  0.3148236832863393  0.7115975362727950  0.8335352637941197
  0.8160979830404078  0.2126329326927960  0.8337464773537978
  0.1891690205123512  0.9622484552361024  0.8339088254481040
  0.5617774035984360  0.2062236842529631  0.5657109572459111
  0.0635365525805959  0.0412968375593535  0.7441717923909037
  0.8113239513995137  0.8722059776975258  0.5216158819763496
  0.1883375426027046  0.2913383169709332  0.7442083024551602
  0.9372320164317043  0.4538977962160621  0.3449327443470001
  0.9391772392129857  0.2875971284130756  0.3891988062790508
  0.8125020875286901  0.0449708016925283  0.8756719281988012
  0.1858865747808879  0.7890020083727702  0.6105848634678650
  0.5642887172679887  0.0380711757813350  0.3893059192931920
  0.9412171920994488  0.9622635017030251  0.8339083600511302
  0.3136378508797976  0.5447842143608443  0.8757614946059535
  0.6885537418753016  0.2913834506669430  0.7442274124602929
  0.1851410995616103  0.6162176697884071  0.1662151983357639
  0.8117678379613745  0.2052336815451705  0.4783178367087701
  0.8107729942994250  0.5389504306807152  0.6106533446788244
  0.3123819942863992  0.8716120430365965  0.4342409030332394
  0.8120725676830632  0.0372070066485398  0.2558489465186332
  0.6870800238161713  0.9538486415648116  0.3449405380705135
  0.9338260654435857  0.1163252563068703  0.1666082365515940
  0.0621571969472537  0.8722031611616698  0.5216104151526809
  0.5618211945750534  0.5375677077515398  0.2558072888474052
  0.6867930137957983  0.7945981178581032  0.8757377960136733
  0.5589880061768752  0.3664631814196730  0.1662703935285311
  0.4384546774767923  0.7918012466578045  0.7442517786905346
  0.8118129246845309  0.7061075817678387  0.5656674946745402
  0.5611991177992924  0.8744706162420434  0.7883688097301762
  0.6863311593895789  0.1220080757434792  0.5215707413339447
  0.8135660670356573  0.3738382804875697  0.6550464245844477
  0.9405091621101339  0.4622365880298572  0.8338507481944409
  0.0615732915854676  0.2072567861031471  0.6998278890984045
  0.4366550237208794  0.9569556010864838  0.6997649660143962
  0.3144628308502364  0.2114908266377150  0.8338313638444275
  0.4385729035305143  0.6239252070264986  0.6549960620593226
  0.3108323750285878  0.5391344158808119  0.6105975888667264
  0.9367571791886825  0.4557392208110180  0.5657043319617001
  0.6885320181122484  0.7914243031499800  0.7442349854068632
  0.9342103679806251  0.7833607041976425  0.1246098242779867
  0.6896318688021560  0.7878570597070634  0.3892450798638853
  0.9385782647700388  0.7910104102728975  0.7442182125061706
  0.0623476986110589  0.2039004740667195  0.3449691108704805
  0.6874481715882947  0.4539035207184238  0.3448897738898472
  0.4360703650853860  0.1249091437270053  0.7885388814822948
  0.0631806663497465  0.2029518536932251  0.2115495834176614
  0.0578802360733567  0.3666882512268466  0.1662485945133978
  0.9368158743460331  0.7874313861874985  0.2557066228276783
  0.5615225398812750  0.2070845853156946  0.6998141169374259
  0.6867361765904534  0.9572422407030625  0.6998665110010255
  0.8108853328200253  0.8748501849589362  0.7883552117038894
  0.4367516384685534  0.9561385172200458  0.5657098079832961
  0.8111611533978602  0.3749782752527668  0.7883856725142226
  0.6870139668813940  0.2872980270615328  0.2559015743667102
  0.1867016895351417  0.4561262538763443  0.5656673213824066
  0.0586211731541804  0.8668160051566273  0.1664199351837854
  0.1859091188114839  0.2890502701802934  0.6107017381625516
  0.0617811399026717  0.2062396455636639  0.5657023313267532
  0.3118229567831870  0.2071861479798318  0.6998020817975835
  0.5641680481206724  0.5453299136126922  0.8756717131946593
  0.0616241074958800  0.7059481183741927  0.5656568519329203
  0.6858814775274261  0.6249054242350405  0.7883619902305589
  0.3145123492023494  0.5375766762247969  0.3893144589417925
  0.1868585642049533  0.6222667695456059  0.5216148617105899
  0.5624975712295160  0.8715870540202875  0.4341889897585282
  0.4366781646044846  0.4561532309189200  0.5657208471936145
  0.4384001651480330  0.2918177640131726  0.7442074108881106
  0.8162372354315207  0.8724936705298115  0.3002657859686317
  0.8121013791284093  0.7034680397243054  0.3450165041433061
  0.4402126967564409  0.4612963094480587  0.8337736374403595
  0.6872908007852017  0.9548942688369418  0.4782938961407868
  0.6868051250569578  0.4572712162017774  0.6998436977860900
  0.5617506321751936  0.8723913074212951  0.5215509704908348
  0.5636475393384246  0.3737938170300855  0.6549900086761054
  0.8136119705814924  0.8737906797193461  0.6550430226457995
  0.8122189818781416  0.3710881249554920  0.4340203771944203
  0.8117320282797548  0.5368050504232570  0.2558777902954876
  0.6904713875512720  0.4616918024588120  0.8337115411591999
  0.1847614755256335  0.7822283460085478  0.1242326657215033
  0.6894125048686176  0.2876385623591254  0.3892052123837286
  0.3135114540278606  0.3738647075789607  0.6549619338429689
  0.3122104463562069  0.2037432437402397  0.3449661173410648
  0.8135429013557769  0.5412383503395076  0.7441561124147964
  0.6904148585758961  0.9614261311364277  0.8337712872506570
  0.5635875381115369  0.8739502586617529  0.6550504375000800
  0.3117952773917050  0.7061408942003595  0.5657054138776931
  0.3091633887219097  0.5336623853059771  0.1241887836351797
  0.6888063213757352  0.9538079287062791  0.2117562770904892
  0.3117298147960787  0.2063416459971889  0.5656861576661648
  0.1869714337438931  0.9549667867395162  0.4782818169259448
  0.6870148693485542  0.9562040604772847  0.5657607866804596
  0.4357638036939911  0.7891064965354991  0.6105626909310401
  0.6824663926812956  0.6149410763383505  0.1662467781780116
  0.3158142173904467  0.8720303531950057  0.3003055714332323
  0.3121131474493929  0.7050995091863029  0.4783117200714924
  0.9357981212449681  0.2887750459035804  0.6105640740925312
  0.4411266022546228  0.6216592316226017  0.3002933553852896
  0.8090561158218471  0.8657665396895147  0.1665638105081061
  0.5645050248976554  0.2025534918344531  0.2118321013628729
  0.9344865173290555  0.6151278562362159  0.1665916076201385
  0.4371755484360375  0.9547665341592920  0.4782775262907015
  0.5611917970614978  0.3743527967424898  0.7884359387014374
  0.0616292987240909  0.3726731443740747  0.5215311153846275
  0.3087923043020272  0.3657239811437814  0.1661782890454933
  0.6913474195063979  0.1215609687751360  0.3003073741423012
  0.4404746474275962  0.9611623246595602  0.8337639931246176
  0.1852391244895703  0.2829456387404646  0.1244749251086638
  0.1869893774948959  0.2867887631818317  0.2557917098621534
  0.3123534791532775  0.3712585255957917  0.4341768884710094
  0.5610109606581751  0.0346903161395900  0.1244750040300800
  0.4357844986305369  0.2890026538969468  0.6105950248148546
  0.1870532988464310  0.4538394847242098  0.3448929534805345
  0.4337556194834251  0.2825742008095625  0.1244738645415896
  0.6868332539364880  0.7874704021689123  0.2559151133145254
  0.4367701816328853  0.1227003800418981  0.5215312022394825
  0.1893737343817474  0.2940134188230715  0.8759373104530360
  0.1886566645849649  0.1238360287431429  0.6550653091679745
  0.9386626516916128  0.1238172420769970  0.6550254147011259
  0.8144384457363638  0.5373492280665433  0.3892506764184984
  0.0644836770826068  0.0380376550340011  0.3893027737026900
  0.1838920344207718  0.1152351407781794  0.1666891459596888
  0.0608091062073919  0.5388548736115432  0.6106271196538463
  0.9369274862466045  0.2869219157006075  0.2558530889718740
  0.5608207719640844  0.5391401140087693  0.6105757982676219
  0.9368844703463474  0.9557671699044596  0.5656868154011494
  0.6910441633230879  0.6220285370624034  0.3003340991071778
  0.9373443958737074  0.6214267990045350  0.4341051810175439
  0.9359626272102453  0.6260091603930890  0.7883961238653657
  0.5616083939066983  0.7069954595543777  0.6997617233606501
  0.0643884412021942  0.7132602673048175  0.8338445569809319
  0.9411621513252673  0.1221875103101518  0.3002666506894298
  0.9357325661730653  0.7888202868296136  0.6106514118702987
  0.4369852100835638  0.7875484295817454  0.2560122446102747
  0.3111458067617978  0.3743698153658037  0.7883821837361604
  0.4386528130376795  0.4532305829451393  0.2116556000363690
  0.1870230206085316  0.1220814932331504  0.5215596245355090
  0.8117581127426006  0.7073458966880455  0.6998384553690231
  0.0607401237725222  0.0392504187335710  0.6105680553135857
  0.5647025797871179  0.2113686780010544  0.8335305340666473
  0.3117242246820939  0.8724677991316021  0.5216025019212273
  0.6857380632176798  0.2827685406803512  0.1242261243573710
  0.1882943646553441  0.9547980791494258  0.2118084738659065
  0.6857501654808817  0.2890778442709421  0.6106723466658747
  0.3108277694962968  0.0390902176792319  0.6106174965355313
  0.9362147174093850  0.1258401668669063  0.7885051135569376
  0.4377672755324347  0.7938767311536020  0.8757511396317120
  0.8136210706963469  0.0414483937387807  0.7441139451910973
  0.9367141684061204  0.4571711164390209  0.6998277601582683
  0.1886965354984468  0.6238903479908584  0.6550153048431535
  0.3117880112862441  0.7071636577586260  0.6998181906441414
  0.9344260110616037  0.2823695465811349  0.1243644862098182
  0.4370356287700266  0.4546818501618530  0.4782800087964784
  0.0621322602136372  0.7047152433784127  0.4783125572769625
  0.9373084882474568  0.1211870170369997  0.4344461447715584
  0.4413673022063537  0.1213335690277089  0.3002870317659947
  0.1869714868609642  0.1211089614705207  0.4340630510982532
  0.5642013282466580  0.0448585243839074  0.8757460780401957
  0.1863926579827511  0.9562377402210672  0.5657442839119068
  0.6857358072510928  0.7831742222918343  0.1245498415641615
  0.5624374931194730  0.7037366781953521  0.3449746045689156
  0.3147683009338740  0.0378536214046677  0.3892341156676049
  0.6850422679643819  0.1158958286480389  0.1668159817882534
  0.8142636347912625  0.2029328941576862  0.2116785194553726
  0.0615721123590808  0.5372731258557107  0.2556599333733462
  0.5622821949245689  0.7050378223709058  0.4782863916817297
  0.0624656937449351  0.8716317970716386  0.4341033611749817
  0.5659477992341556  0.3715414932212799  0.3003652221764705
  0.4370779383100161  0.9539370276164150  0.3449136019735578
  0.1866929663010022  0.9572899878179398  0.6998274520442022
  0.4340102874659402  0.6158772024631475  0.1662295327658879
  0.9385875340906241  0.4535578101300631  0.2117329164573106
  0.0609150773024089  0.5323573580419565  0.1242771454094319
  0.8118109678763649  0.3728112452387687  0.5215109959046552
  0.9412434087218486  0.6224526951089588  0.3001521991670550
  0.3120664827209443  0.0370466424105818  0.2558284534339368
  0.6858615298620235  0.7889128197706354  0.6106044723027355
  0.1898708388054053  0.4621797279969493  0.8338736986430544
  0.4347415060323683  0.1142061016843892  0.1665410560301944
  0.3114188303741241  0.3724904268998664  0.5215650198679961
  0.4360579887896816  0.6247651204023515  0.7885769009390646
  0.0616469972486345  0.0374055263953638  0.2557684511429302
  0.5616947008994618  0.7061614165879250  0.5656928107873909
  0.9386136064050771  0.2911784194121821  0.7442103615642508
  0.6858213727643879  0.1250545330502124  0.7883385494062156
  0.1878105451058987  0.4536438114787438  0.2115887237654109
  0.9391613825449334  0.7877545356553486  0.3892528955336316
  0.6870887881349910  0.2944959510722552  0.8758320953459351
  0.5569239573854438  0.8652380136667973  0.1663008966669196
  0.4366465993705577  0.4570448980383293  0.6998247593602894
  0.9374156862370608  0.9536872937834253  0.3448872494060038
  0.6864641723341781  0.6221611739130024  0.5215453226367149
  0.0636816523605560  0.8737959778021592  0.6550467499795335
  0.0614208278341199  0.8751017259588646  0.7885168694558490
  0.0636842448941454  0.3738557569829978  0.6550448298004291
  0.6870088767856658  0.4548198682217134  0.4781744793809068
  0.1869358104423327  0.7875845416813531  0.2559389816150029
  0.4373619586182914  0.1212397497197070  0.4342085467158510
  0.8113852228276144  0.0339997203048764  0.1245219291440239
  0.9366919417350228  0.6222488046561776  0.5215262267746470
  0.4386658652490958  0.1237316480271016  0.6550325098616964
  0.8120419824644961  0.5330431025838290  0.1240861829127380
  0.4375253728028983  0.4539607920685024  0.3449526081167935
  0.8122479024030220  0.2036573805102641  0.3449565110485819
  0.3126227698903713  0.7037536208572295  0.3449145829102816
  0.6885604978957074  0.1239354841911000  0.6550428199805987
  0.5661375054282912  0.8718898260743594  0.3002959804997304
  0.0633898486179829  0.5409618645904102  0.7441465720477993
  0.9387545825483353  0.9542498221097013  0.2116405441191649
  0.8140857621095950  0.7028990201097779  0.2117225582185261
  0.0658933027678802  0.8722877270008514  0.3003033847393359
  0.1909506848173066  0.1220803470153449  0.3001463990337957
  0.0621817067186249  0.7035186733424179  0.3448620260910700
  0.8109894383829546  0.0390996849929154  0.6105835807603370
  0.0624193105922422  0.3709857896180027  0.4340386861288880
  0.5624429044091686  0.2038028462794100  0.3449364578469125
  0.8158927647977638  0.3724696029609988  0.3002393793628567
  0.5622886027038830  0.0376771792993294  0.2558627581444047
  0.5640875444739509  0.5375307499925688  0.3892709483508173
  0.0623857618018572  0.2050290158371158  0.4783664937284510
  0.3115091695050216  0.8743080279634270  0.7882568963326596
  0.9367123281048126  0.9573794101252341  0.6997858390505286
  0.0663021759308829  0.3723486037617484  0.3003129046970106
  0.6885797030291173  0.6238603288921228  0.6550423423341840
  0.6866683446893390  0.4560974773872606  0.5656564721726504
  0.4387360240252495  0.9540036397597086  0.2118138274531469
  0.3120709307704324  0.2047891541868722  0.4782399683127215
  0.8129899025376619  0.5445407468245627  0.8757000208801898
  0.6876126071933495  0.6212891315199299  0.4341302990954214
  0.8117966004462888  0.2071777397927944  0.6998416631973654
  0.8120814485440223  0.7048823269894643  0.4783192906438664
  0.8121883510432178  0.8716578030174961  0.4341673200512745
  0.9372434742393621  0.9542611512089366  0.4783834926072089
  0.5621717481606091  0.2048082420368283  0.4782994448721930
  0.1869702442785685  0.6212094862907838  0.4342256665429511
  0.3133915132074429  0.0416137725854605  0.7442094863504496
  0.9385875937633220  0.6239700775147305  0.6549939870020894
  0.5647658239324223  0.7115290869802495  0.8335573803102656
  0.3163774940169986  0.3718494826918797  0.3003173669746512
  0.3133580000873644  0.5412611262897394  0.7442457727985980
  0.1872427699865924  0.4547696782394431  0.4782463971115987
  0.3150379125918038  0.0459098046686292  0.8757353917690499
  0.1865179235248696  0.4572435215561889  0.6998538355183398
  0.5619777353883321  0.3725261491005429  0.5215688930016903
  0.1891239892334998  0.2878875175376739  0.3892651341285417
  0.3133194279003294  0.2031816058366131  0.2116114989826662
  0.0640178808230033  0.7025632413657048  0.2115727137109896
  0.5621803398999039  0.3712150169663067  0.4341834253659063
  0.4367561797549369  0.6223680594150277  0.5214660181713118
  0.8153484111381692  0.7129184435053328  0.8335336494127287
  0.0613634093761974  0.3754927046732834  0.7884256190364493
  0.4375160760436762  0.2944141383544269  0.8758797218198603
  0.3113920156283604  0.0341529781217743  0.1241183993928887
  0.6875264139190150  0.1214054980990528  0.4341345113077703
  0.1872235277171291  0.9536869554010498  0.3449271208291526
  0.0644122422917850  0.2120407308448312  0.8338114654642088
  0.5608471817285418  0.0390920746278418  0.6106196273965370
  0.6884372169488370  0.4532059469659412  0.2117571358176528
  0.1883817569348472  0.7913193955770815  0.7441820493739483
  0.1909948420031662  0.6220470716808675  0.3002137350252399
  0.4399206637397356  0.7877057610581600  0.3892930832141605
  0.4369538426759895  0.2873140892104665  0.2558011185668780
  0.0651798910380927  0.5443746214445818  0.8758057502459451
  0.5637659651849460  0.0416237002652367  0.7442370343224392
  0.1885986766889179  0.7940626296601233  0.8759271974796362
  0.9370947763770238  0.4546171327208676  0.4782411242724577
  0.5636677353583865  0.5415954679251713  0.7441564326021279
  0.8116027962163975  0.2062956510323841  0.5657003246513614
  0.1863809307651298  0.6251471380238963  0.7884220067146472
  0.0649395695685416  0.5379293980734676  0.3893055108071993
  0.0615658114772966  0.7074524339956235  0.6997792041026901
  0.3117173243623628  0.5373666052823308  0.2556062807585328
  0.3130261376601398  0.7026375110357065  0.2117906071820534
  0.3088675387399398  0.8655064150317936  0.1659355305666317
  0.4369754020348178  0.6213878326247291  0.4341709459797429
  0.8150208731668640  0.0381386001298314  0.3891917044993518
  0.9365923470150060  0.2950888087970176  0.8757765911588148
  0.9373200086400967  0.7923830576135465  0.8757171457244738
  0.0654112584696817  0.0438136675020951  0.8756064294174568
  0.5626074813755972  0.5324188918121531  0.1244823519841432
  0.8077100737468875  0.3664835493968150  0.1658233071556697
  0.4345399130385953  0.7844877321230374  0.1242232713869593
  0.9366996712209762  0.1222898375773647  0.5213697632954031
  0.1899614794907596  0.7872463569462596  0.3891919611160513
  0.5646761161759090  0.7028953368208904  0.2118247265766414
 
  0.00000000E+00  0.00000000E+00  0.00000000E+00
  0.00000000E+00  0.00000000E+00  0.00000000E+00
  0.00000000E+00  0.00000000E+00  0.00000000E+00
  0.00000000E+00  0.00000000E+00  0.00000000E+00
  0.00000000E+00  0.00000000E+00  0.00000000E+00
  0.00000000E+00  0.00000000E+00  0.00000000E+00
  0.00000000E+00  0.00000000E+00  0.00000000E+00
  0.00000000E+00  0.00000000E+00  0.00000000E+00
  0.00000000E+00  0.00000000E+00  0.00000000E+00
  0.00000000E+00  0.00000000E+00  0.00000000E+00
  0.00000000E+00  0.00000000E+00  0.00000000E+00
  0.00000000E+00  0.00000000E+00  0.00000000E+00
  0.00000000E+00  0.00000000E+00  0.00000000E+00
  0.00000000E+00  0.00000000E+00  0.00000000E+00
  0.00000000E+00  0.00000000E+00  0.00000000E+00
  0.00000000E+00  0.00000000E+00  0.00000000E+00
  0.00000000E+00  0.00000000E+00  0.00000000E+00
  0.00000000E+00  0.00000000E+00  0.00000000E+00
  0.00000000E+00  0.00000000E+00  0.00000000E+00
  0.00000000E+00  0.00000000E+00  0.00000000E+00
  0.00000000E+00  0.00000000E+00  0.00000000E+00
  0.00000000E+00  0.00000000E+00  0.00000000E+00
  0.00000000E+00  0.00000000E+00  0.00000000E+00
  0.00000000E+00  0.00000000E+00  0.00000000E+00
  0.00000000E+00  0.00000000E+00  0.00000000E+00
  0.00000000E+00  0.00000000E+00  0.00000000E+00
  0.00000000E+00  0.00000000E+00  0.00000000E+00
  0.00000000E+00  0.00000000E+00  0.00000000E+00
  0.00000000E+00  0.00000000E+00  0.00000000E+00
  0.00000000E+00  0.00000000E+00  0.00000000E+00
  0.00000000E+00  0.00000000E+00  0.00000000E+00
  0.00000000E+00  0.00000000E+00  0.00000000E+00
  0.00000000E+00  0.00000000E+00  0.00000000E+00
  0.00000000E+00  0.00000000E+00  0.00000000E+00
  0.00000000E+00  0.00000000E+00  0.00000000E+00
  0.00000000E+00  0.00000000E+00  0.00000000E+00
  0.00000000E+00  0.00000000E+00  0.00000000E+00
  0.00000000E+00  0.00000000E+00  0.00000000E+00
  0.00000000E+00  0.00000000E+00  0.00000000E+00
  0.00000000E+00  0.00000000E+00  0.00000000E+00
  0.00000000E+00  0.00000000E+00  0.00000000E+00
  0.00000000E+00  0.00000000E+00  0.00000000E+00
  0.00000000E+00  0.00000000E+00  0.00000000E+00
  0.00000000E+00  0.00000000E+00  0.00000000E+00
  0.00000000E+00  0.00000000E+00  0.00000000E+00
  0.00000000E+00  0.00000000E+00  0.00000000E+00
  0.00000000E+00  0.00000000E+00  0.00000000E+00
  0.00000000E+00  0.00000000E+00  0.00000000E+00
  0.00000000E+00  0.00000000E+00  0.00000000E+00
  0.00000000E+00  0.00000000E+00  0.00000000E+00
  0.00000000E+00  0.00000000E+00  0.00000000E+00
  0.00000000E+00  0.00000000E+00  0.00000000E+00
  0.00000000E+00  0.00000000E+00  0.00000000E+00
  0.00000000E+00  0.00000000E+00  0.00000000E+00
  0.00000000E+00  0.00000000E+00  0.00000000E+00
  0.00000000E+00  0.00000000E+00  0.00000000E+00
  0.00000000E+00  0.00000000E+00  0.00000000E+00
  0.00000000E+00  0.00000000E+00  0.00000000E+00
  0.00000000E+00  0.00000000E+00  0.00000000E+00
  0.00000000E+00  0.00000000E+00  0.00000000E+00
  0.00000000E+00  0.00000000E+00  0.00000000E+00
  0.00000000E+00  0.00000000E+00  0.00000000E+00
  0.00000000E+00  0.00000000E+00  0.00000000E+00
  0.00000000E+00  0.00000000E+00  0.00000000E+00
  0.00000000E+00  0.00000000E+00  0.00000000E+00
  0.00000000E+00  0.00000000E+00  0.00000000E+00
  0.00000000E+00  0.00000000E+00  0.00000000E+00
  0.00000000E+00  0.00000000E+00  0.00000000E+00
  0.00000000E+00  0.00000000E+00  0.00000000E+00
  0.00000000E+00  0.00000000E+00  0.00000000E+00
  0.00000000E+00  0.00000000E+00  0.00000000E+00
  0.00000000E+00  0.00000000E+00  0.00000000E+00
  0.00000000E+00  0.00000000E+00  0.00000000E+00
  0.00000000E+00  0.00000000E+00  0.00000000E+00
  0.00000000E+00  0.00000000E+00  0.00000000E+00
  0.00000000E+00  0.00000000E+00  0.00000000E+00
  0.00000000E+00  0.00000000E+00  0.00000000E+00
  0.00000000E+00  0.00000000E+00  0.00000000E+00
  0.00000000E+00  0.00000000E+00  0.00000000E+00
  0.00000000E+00  0.00000000E+00  0.00000000E+00
  0.00000000E+00  0.00000000E+00  0.00000000E+00
  0.00000000E+00  0.00000000E+00  0.00000000E+00
  0.00000000E+00  0.00000000E+00  0.00000000E+00
  0.00000000E+00  0.00000000E+00  0.00000000E+00
  0.00000000E+00  0.00000000E+00  0.00000000E+00
  0.00000000E+00  0.00000000E+00  0.00000000E+00
  0.00000000E+00  0.00000000E+00  0.00000000E+00
  0.00000000E+00  0.00000000E+00  0.00000000E+00
  0.00000000E+00  0.00000000E+00  0.00000000E+00
  0.00000000E+00  0.00000000E+00  0.00000000E+00
  0.00000000E+00  0.00000000E+00  0.00000000E+00
  0.00000000E+00  0.00000000E+00  0.00000000E+00
  0.00000000E+00  0.00000000E+00  0.00000000E+00
  0.00000000E+00  0.00000000E+00  0.00000000E+00
  0.00000000E+00  0.00000000E+00  0.00000000E+00
  0.00000000E+00  0.00000000E+00  0.00000000E+00
  0.00000000E+00  0.00000000E+00  0.00000000E+00
  0.00000000E+00  0.00000000E+00  0.00000000E+00
  0.00000000E+00  0.00000000E+00  0.00000000E+00
  0.00000000E+00  0.00000000E+00  0.00000000E+00
  0.00000000E+00  0.00000000E+00  0.00000000E+00
  0.00000000E+00  0.00000000E+00  0.00000000E+00
  0.00000000E+00  0.00000000E+00  0.00000000E+00
  0.00000000E+00  0.00000000E+00  0.00000000E+00
  0.00000000E+00  0.00000000E+00  0.00000000E+00
  0.00000000E+00  0.00000000E+00  0.00000000E+00
  0.00000000E+00  0.00000000E+00  0.00000000E+00
  0.00000000E+00  0.00000000E+00  0.00000000E+00
  0.00000000E+00  0.00000000E+00  0.00000000E+00
  0.00000000E+00  0.00000000E+00  0.00000000E+00
  0.00000000E+00  0.00000000E+00  0.00000000E+00
  0.00000000E+00  0.00000000E+00  0.00000000E+00
  0.00000000E+00  0.00000000E+00  0.00000000E+00
  0.00000000E+00  0.00000000E+00  0.00000000E+00
  0.00000000E+00  0.00000000E+00  0.00000000E+00
  0.00000000E+00  0.00000000E+00  0.00000000E+00
  0.00000000E+00  0.00000000E+00  0.00000000E+00
  0.00000000E+00  0.00000000E+00  0.00000000E+00
  0.00000000E+00  0.00000000E+00  0.00000000E+00
  0.00000000E+00  0.00000000E+00  0.00000000E+00
  0.00000000E+00  0.00000000E+00  0.00000000E+00
  0.00000000E+00  0.00000000E+00  0.00000000E+00
  0.00000000E+00  0.00000000E+00  0.00000000E+00
  0.00000000E+00  0.00000000E+00  0.00000000E+00
  0.00000000E+00  0.00000000E+00  0.00000000E+00
  0.00000000E+00  0.00000000E+00  0.00000000E+00
  0.00000000E+00  0.00000000E+00  0.00000000E+00
  0.00000000E+00  0.00000000E+00  0.00000000E+00
  0.00000000E+00  0.00000000E+00  0.00000000E+00
  0.00000000E+00  0.00000000E+00  0.00000000E+00
  0.00000000E+00  0.00000000E+00  0.00000000E+00
  0.00000000E+00  0.00000000E+00  0.00000000E+00
  0.00000000E+00  0.00000000E+00  0.00000000E+00
  0.00000000E+00  0.00000000E+00  0.00000000E+00
  0.00000000E+00  0.00000000E+00  0.00000000E+00
  0.00000000E+00  0.00000000E+00  0.00000000E+00
  0.00000000E+00  0.00000000E+00  0.00000000E+00
  0.00000000E+00  0.00000000E+00  0.00000000E+00
  0.00000000E+00  0.00000000E+00  0.00000000E+00
  0.00000000E+00  0.00000000E+00  0.00000000E+00
  0.00000000E+00  0.00000000E+00  0.00000000E+00
  0.00000000E+00  0.00000000E+00  0.00000000E+00
  0.00000000E+00  0.00000000E+00  0.00000000E+00
  0.00000000E+00  0.00000000E+00  0.00000000E+00
  0.00000000E+00  0.00000000E+00  0.00000000E+00
  0.00000000E+00  0.00000000E+00  0.00000000E+00
  0.00000000E+00  0.00000000E+00  0.00000000E+00
  0.00000000E+00  0.00000000E+00  0.00000000E+00
  0.00000000E+00  0.00000000E+00  0.00000000E+00
  0.00000000E+00  0.00000000E+00  0.00000000E+00
  0.00000000E+00  0.00000000E+00  0.00000000E+00
  0.00000000E+00  0.00000000E+00  0.00000000E+00
  0.00000000E+00  0.00000000E+00  0.00000000E+00
  0.00000000E+00  0.00000000E+00  0.00000000E+00
  0.00000000E+00  0.00000000E+00  0.00000000E+00
  0.00000000E+00  0.00000000E+00  0.00000000E+00
  0.00000000E+00  0.00000000E+00  0.00000000E+00
  0.00000000E+00  0.00000000E+00  0.00000000E+00
  0.00000000E+00  0.00000000E+00  0.00000000E+00
  0.00000000E+00  0.00000000E+00  0.00000000E+00
  0.00000000E+00  0.00000000E+00  0.00000000E+00
  0.00000000E+00  0.00000000E+00  0.00000000E+00
  0.00000000E+00  0.00000000E+00  0.00000000E+00
  0.00000000E+00  0.00000000E+00  0.00000000E+00
  0.00000000E+00  0.00000000E+00  0.00000000E+00
  0.00000000E+00  0.00000000E+00  0.00000000E+00
  0.00000000E+00  0.00000000E+00  0.00000000E+00
  0.00000000E+00  0.00000000E+00  0.00000000E+00
  0.00000000E+00  0.00000000E+00  0.00000000E+00
  0.00000000E+00  0.00000000E+00  0.00000000E+00
  0.00000000E+00  0.00000000E+00  0.00000000E+00
  0.00000000E+00  0.00000000E+00  0.00000000E+00
  0.00000000E+00  0.00000000E+00  0.00000000E+00
  0.00000000E+00  0.00000000E+00  0.00000000E+00
  0.00000000E+00  0.00000000E+00  0.00000000E+00
  0.00000000E+00  0.00000000E+00  0.00000000E+00
  0.00000000E+00  0.00000000E+00  0.00000000E+00
  0.00000000E+00  0.00000000E+00  0.00000000E+00
  0.00000000E+00  0.00000000E+00  0.00000000E+00
  0.00000000E+00  0.00000000E+00  0.00000000E+00
  0.00000000E+00  0.00000000E+00  0.00000000E+00
  0.00000000E+00  0.00000000E+00  0.00000000E+00
  0.00000000E+00  0.00000000E+00  0.00000000E+00
  0.00000000E+00  0.00000000E+00  0.00000000E+00
  0.00000000E+00  0.00000000E+00  0.00000000E+00
  0.00000000E+00  0.00000000E+00  0.00000000E+00
  0.00000000E+00  0.00000000E+00  0.00000000E+00
  0.00000000E+00  0.00000000E+00  0.00000000E+00
  0.00000000E+00  0.00000000E+00  0.00000000E+00
  0.00000000E+00  0.00000000E+00  0.00000000E+00
  0.00000000E+00  0.00000000E+00  0.00000000E+00
  0.00000000E+00  0.00000000E+00  0.00000000E+00
  0.00000000E+00  0.00000000E+00  0.00000000E+00
  0.00000000E+00  0.00000000E+00  0.00000000E+00
  0.00000000E+00  0.00000000E+00  0.00000000E+00
  0.00000000E+00  0.00000000E+00  0.00000000E+00
  0.00000000E+00  0.00000000E+00  0.00000000E+00
  0.00000000E+00  0.00000000E+00  0.00000000E+00
  0.00000000E+00  0.00000000E+00  0.00000000E+00
  0.00000000E+00  0.00000000E+00  0.00000000E+00
  0.00000000E+00  0.00000000E+00  0.00000000E+00
  0.00000000E+00  0.00000000E+00  0.00000000E+00
  0.00000000E+00  0.00000000E+00  0.00000000E+00
  0.00000000E+00  0.00000000E+00  0.00000000E+00
  0.00000000E+00  0.00000000E+00  0.00000000E+00
  0.00000000E+00  0.00000000E+00  0.00000000E+00
  0.00000000E+00  0.00000000E+00  0.00000000E+00
  0.00000000E+00  0.00000000E+00  0.00000000E+00
  0.00000000E+00  0.00000000E+00  0.00000000E+00
  0.00000000E+00  0.00000000E+00  0.00000000E+00
  0.00000000E+00  0.00000000E+00  0.00000000E+00
  0.00000000E+00  0.00000000E+00  0.00000000E+00
  0.00000000E+00  0.00000000E+00  0.00000000E+00
  0.00000000E+00  0.00000000E+00  0.00000000E+00
  0.00000000E+00  0.00000000E+00  0.00000000E+00
  0.00000000E+00  0.00000000E+00  0.00000000E+00
  0.00000000E+00  0.00000000E+00  0.00000000E+00
  0.00000000E+00  0.00000000E+00  0.00000000E+00
  0.00000000E+00  0.00000000E+00  0.00000000E+00
  0.00000000E+00  0.00000000E+00  0.00000000E+00
  0.00000000E+00  0.00000000E+00  0.00000000E+00
  0.00000000E+00  0.00000000E+00  0.00000000E+00
  0.00000000E+00  0.00000000E+00  0.00000000E+00
  0.00000000E+00  0.00000000E+00  0.00000000E+00
  0.00000000E+00  0.00000000E+00  0.00000000E+00
  0.00000000E+00  0.00000000E+00  0.00000000E+00
  0.00000000E+00  0.00000000E+00  0.00000000E+00
  0.00000000E+00  0.00000000E+00  0.00000000E+00
  0.00000000E+00  0.00000000E+00  0.00000000E+00
  0.00000000E+00  0.00000000E+00  0.00000000E+00
  0.00000000E+00  0.00000000E+00  0.00000000E+00
  0.00000000E+00  0.00000000E+00  0.00000000E+00
  0.00000000E+00  0.00000000E+00  0.00000000E+00
  0.00000000E+00  0.00000000E+00  0.00000000E+00
  0.00000000E+00  0.00000000E+00  0.00000000E+00
  0.00000000E+00  0.00000000E+00  0.00000000E+00
  0.00000000E+00  0.00000000E+00  0.00000000E+00
  0.00000000E+00  0.00000000E+00  0.00000000E+00
  0.00000000E+00  0.00000000E+00  0.00000000E+00
  0.00000000E+00  0.00000000E+00  0.00000000E+00
  0.00000000E+00  0.00000000E+00  0.00000000E+00
  0.00000000E+00  0.00000000E+00  0.00000000E+00
  0.00000000E+00  0.00000000E+00  0.00000000E+00
  0.00000000E+00  0.00000000E+00  0.00000000E+00
  0.00000000E+00  0.00000000E+00  0.00000000E+00
  0.00000000E+00  0.00000000E+00  0.00000000E+00
  0.00000000E+00  0.00000000E+00  0.00000000E+00