CuInSe2gb                               
   1.00000000000000     
     9.7266780392896699    0.0000000000000000    0.0000000000000000
     0.0000000000000000    8.4235502764570693    0.0000000000000000
     0.0000000000000000    0.0000000000000000   45.0000000000000000
   Fe   Mn
   281     7
Direct
  0.0626295050260002  0.0318206425692744  0.1250705310141654
  0.0633565647275761  0.8710798362644697  0.5211325405261089
  0.1890749346510687  0.1194427340945977  0.7881134238484512
  0.4363858127468409  0.2894386980503765  0.3893542134230866
  0.3074271335236118  0.7119576939733360  0.8328307887215689
  0.8072287056125838  0.2123626614080686  0.8326562732307775
  0.1861486707758059  0.7894867633482923  0.3893098737685966
  0.5629660367593389  0.2070386322045337  0.5652068926424203
  0.0584785263144735  0.0383089564729264  0.7436557216790176
  0.8134861860360976  0.8713419630288791  0.5212883522406652
  0.1846889086387820  0.2891783406348855  0.7437068415061815
  0.9392732712191314  0.4538969206586872  0.3453704019974059
  0.9362755297801553  0.2894605613843726  0.3893524292450493
  0.8100699088122603  0.0393701561687541  0.8751706167572347
  0.1884191002266365  0.7899062028471632  0.6105108052313191
  0.5617812043891821  0.0387245198101542  0.3893348216391886
  0.9322371454841061  0.9621969619658176  0.8327880020518470
  0.3102258236851702  0.5395285262924385  0.8751941349423211
  0.6843452510153952  0.2887597398561715  0.7437235968775485
  0.1926376530414359  0.6147058902524567  0.1672952684032134
  0.8134521917408838  0.2051560120061672  0.4786702733178316
  0.8135734500893005  0.5396001543909652  0.6105697106033470
  0.3132289325995930  0.8693442372828948  0.4345216447232698
  0.8155020311701642  0.0407574824522590  0.2564423692239775
  0.6897375736263807  0.9547961893197949  0.3455922704271531
  0.9404728706671506  0.1139503440079430  0.1671488130598005
  0.9384407441153801  0.1210924201666175  0.5212179936348679
  0.5655724938898109  0.5408219141169943  0.2563746213260042
  0.6868741160589679  0.7929168538541884  0.8751184921333415
  0.5681856933296333  0.3658437458762229  0.1672917682723984
  0.4338479889584509  0.7887013003659453  0.7437399866450826
  0.8134687997682456  0.7073647127969014  0.5653827137576706
  0.5639187202329364  0.8691380626591247  0.7879961964326787
  0.6885586602549736  0.1213026691755805  0.5212611650609066
  0.8115569853993539  0.3740161209267160  0.6544964323042373
  0.9323001999173777  0.4622188839084908  0.8327555508914052
  0.0635540516974405  0.2071070815580061  0.6994567672993361
  0.4375806709310492  0.9574800263842288  0.6993625023876668
  0.3069028390922156  0.2114704766112989  0.8329955698377793
  0.4349707739005245  0.6239693242966304  0.6545664327140485
  0.3136294812378300  0.5396528902062933  0.6104955592069705
  0.9383162863606961  0.4569047894515398  0.5654065723692914
  0.6841061536209634  0.7890076171053653  0.7437400327192580
  0.9393305959427792  0.7876118294924666  0.1249651916518354
  0.6863564510119419  0.7891021857673107  0.3894061926586492
  0.9346915652443496  0.7892474050245873  0.7436902428368709
  0.0658671325781416  0.2037889668492376  0.3454674666622590
  0.8108357951390753  0.0391523753019619  0.3893947515644200
  0.4396394865136151  0.1192832335670767  0.7880953431472283
  0.0607625034947873  0.2079158883398385  0.2122520266391816
  0.0681424056661319  0.3657430973249990  0.1672317257608331
  0.9408682393543162  0.7911560693814605  0.2564575843391855
  0.5628251033818412  0.2074931075440277  0.6992696308411840
  0.6880625589965045  0.9570168550535252  0.6991594347247850
  0.4393538216003005  0.7870768617487846  0.1249318289691711
  0.4385604360753948  0.9568828087405545  0.5653379247283254
  0.8142199802926542  0.3691046522875217  0.7879334275711177
  0.6909932507903392  0.2906188579481862  0.2562961850375020
  0.1880014335736699  0.4572701477888029  0.5652194286599155
  0.0674227807226527  0.8653935651437893  0.1674132764886138
  0.1884434071987576  0.2895431443056609  0.6104580784683192
  0.5654893753119252  0.7037401860021041  0.3452085127502295
  0.3126582657150798  0.2073867612872241  0.6993655061972377
  0.5603218159284989  0.5390692208348288  0.8752211271817345
  0.0628497814245463  0.7074467491493593  0.5651148804432249
  0.6891522228819599  0.6192995822725545  0.7879245041690982
  0.3112171584483142  0.5398150923353342  0.3893982597077667
  0.1884472171616662  0.6208346958676262  0.5211906270454795
  0.5630758532796797  0.8693393341713666  0.4345963422413027
  0.4383085424991494  0.4571882327446807  0.5652388441074049
  0.4341432565699696  0.2892804954669069  0.7437544047849477
  0.8078291986900265  0.8745718700274444  0.3004526021211473
  0.8154876460533090  0.7034119645979047  0.3452341422967686
  0.4324090132852418  0.4619771277173557  0.8328234121103040
  0.6884863163562115  0.9552020292182645  0.4787352612570048
  0.6877995819427031  0.4571407889060466  0.6993317055606298
  0.5637831407211342  0.8709992847353036  0.5211946576256379
  0.5618477914785629  0.3740729773559464  0.6546241508452111
  0.8110976981235009  0.8736110270161813  0.6547638882526046
  0.8128449905246501  0.3698284578160269  0.4346036791328540
  0.8158168489047520  0.5405921904382152  0.2563513478320464
  0.6820794304539214  0.4619090890117689  0.8328403154827215
  0.1905274297064632  0.7875491127336668  0.1249927000198807
  0.0604836874487446  0.0393165361313158  0.8752783554743241
  0.3110361661526704  0.3733680160195309  0.6544687911873125
  0.3150933065342810  0.2043763825178403  0.3455407421496848
  0.8090501947973900  0.5392168363479594  0.7437719790212411
  0.6823076192392445  0.9618430733725719  0.8327841803482061
  0.5617733807606362  0.8739765354357789  0.6545421342632507
  0.3131495152703323  0.7070683285865269  0.5654209315888653
  0.3129103741564193  0.5326927393684999  0.1249002901255496
  0.6866915711054050  0.9574549681846084  0.2122492873353715
  0.3130551474955005  0.2076619540511543  0.5651161725325077
  0.1886853022148038  0.9550644222994602  0.4786084327622175
  0.6878417884840715  0.9573160487286824  0.5652247251327188
  0.4383897222323873  0.7900066081591299  0.6105630010493897
  0.6924538615377588  0.6135836406220190  0.1674031287009650
  0.3074822904066891  0.8735856657810914  0.3008571000728886
  0.3131324901314771  0.7052330198352055  0.4787020043939602
  0.9383214956035205  0.2894649487990308  0.6105180339405285
  0.4323996732210335  0.6250593399665938  0.3007030523349479
  0.8173377936840033  0.8650932811744435  0.1674955078084939
  0.5608054495199628  0.2077079944972809  0.2122493923706880
  0.9419778697335043  0.6135025273425856  0.1673797223051473
  0.9371593457403620  0.7925639180236675  0.8751475774568240
  0.5638953541438795  0.3689194379232602  0.7878721613740425
  0.0633440850503155  0.3710601764177072  0.5212464791311124
  0.5636024129977639  0.3711219611600644  0.5211974375539900
  0.6842578834132748  0.1248866859253685  0.3006558235319319
  0.4322889827520901  0.9619420336162804  0.8329995856912946
  0.1910550441694277  0.2873645156407886  0.1250151373602374
  0.8138964360078437  0.8693515216770411  0.7880297666998171
  0.3128249743916612  0.3696394842088188  0.4345142468983205
  0.5627155658919759  0.0320692591530517  0.1250606173876130
  0.4382495747821485  0.2900186553568282  0.6105819936112631
  0.1904409842990662  0.4531588776788309  0.3452126852311008
  0.4392988121929156  0.2872430934862102  0.1248784375777453
  0.6905241425635907  0.7909941655244094  0.2566695564635457
  0.4384927873564873  0.1207600608094109  0.5212015629707994
  0.1870490101883991  0.2926626679858188  0.8752594866466011
  0.1864167129321855  0.1225504644378602  0.6545929671596123
  0.9362391693117320  0.1232255806025395  0.6544961757498227
  0.3108782779877536  0.2070696585586842  0.2121735952565698
  0.0612614453785202  0.0391450083888328  0.3893843166439638
  0.1928362631711629  0.1146924216412958  0.1672220744728795
  0.0632212516096084  0.5395433869064430  0.6104131612107289
  0.9406736760599960  0.2909422991100081  0.2563585147920716
  0.5632627218863367  0.5396471705340306  0.6104753415957321
  0.9385593613934958  0.9569129257257909  0.5651687455741439
  0.6825480709800387  0.6254393535357864  0.3007181563292308
  0.9380432903837561  0.6201757029383325  0.4345209862223805
  0.9388203754227209  0.6193318221572209  0.7879517009924067
  0.5628394209833940  0.7072511205056666  0.6992718243546298
  0.0572578305039000  0.7118002202022129  0.8327882027018249
  0.9342171675899332  0.1249308031206836  0.3006062344531520
  0.9383332424218992  0.7892742485932833  0.6104634992662905
  0.4413997626535159  0.7909526981523611  0.2564819670533012
  0.3141806648817650  0.3690659688404547  0.7879711076325526
  0.4367246720408777  0.4580867752997406  0.2123614942393322
  0.1888018341718794  0.1208168581698469  0.5211327757705194
  0.8130198852909684  0.7073884358408200  0.6992190844417778
  0.0635790092277030  0.0399821308005441  0.6105966900335910
  0.5570933078747998  0.2122268790298441  0.8327306257023476
  0.3133898390252047  0.8711691292494331  0.5212796788216532
  0.6912094050203508  0.2872100373197421  0.1249189447386900
  0.1867102124750079  0.9577739053737975  0.2122734767772286
  0.6885803112596132  0.2896434022978971  0.6105341272386897
  0.3130940529964066  0.0399393880007900  0.6104510080002959
  0.9389793448801361  0.1198006244219465  0.7881703301076964
  0.4373400938157632  0.7928070424264950  0.8753010067926452
  0.8090380038846574  0.0392588404090103  0.7435671406533839
  0.9380193473759193  0.4570714562934869  0.6991760827546668
  0.1868823398846540  0.6236207442116724  0.6545309672300067
  0.3125325807019110  0.7080727195564390  0.6992044581469569
  0.9394504574882769  0.2875068852319670  0.1248621929825466
  0.4383898026705769  0.4553898857545389  0.4786752537996292
  0.0632864956798967  0.7052159113391807  0.4786582120070040
  0.9382671712835622  0.1198638334962363  0.4346307839792227
  0.4327605022794728  0.1246044940038272  0.3005688471803220
  0.1878075521500696  0.1199408042152237  0.4346412194145666
  0.5602838062922959  0.0391641385378541  0.8751682800332796
  0.1881368913037101  0.9567608021590287  0.5651988662198880
  0.6906107115093529  0.7875201668010228  0.1250269119621369
  0.5627654224475276  0.5329602228865223  0.1249596687598698
  0.3114826895746409  0.0390481234389478  0.3894242576465837
  0.6929033018662808  0.1147509736854028  0.1673009823391418
  0.8107383844496743  0.2076355157013410  0.2122014037335538
  0.0662260850769457  0.5399112917517808  0.2562851280967123
  0.5632960719670208  0.7050223134011961  0.4786440574471715
  0.0634178133845537  0.2070722155350554  0.5652261151424764
  0.5570826997058725  0.3741091961377747  0.3006287883737959
  0.4399815350036993  0.9541186442122740  0.3453624768442470
  0.1822252973867222  0.9618968299015280  0.8328077819799228
  0.4416668010163096  0.6137785550874975  0.1673785101138247
  0.9367238168137931  0.4578236590223332  0.2123753459623224
  0.0625253392982696  0.5328186602392542  0.1249462812338042
  0.8134906285662686  0.3710057265223780  0.5212851781066197
  0.9323918237241385  0.6248609693066223  0.3006883734919346
  0.3155771584591600  0.0419656952653602  0.2567182423414481
  0.6887872711151356  0.7895182325454441  0.6105182771309650
  0.1823692301007108  0.4624851958420447  0.8326643230215853
  0.4415551763424398  0.1137596885934559  0.1670550081018704
  0.3135159278365188  0.3712233497048143  0.5212234951142236
  0.4388182611418573  0.6189113369069377  0.7879371813963384
  0.0660209689954647  0.0413864958827206  0.2564894970829822
  0.5636826999465685  0.7067832614876910  0.5652131046184491
  0.9341238524704512  0.2887607781863253  0.7436874933686167
  0.6893456171773805  0.1194006271999675  0.7879833933562496
  0.1853653681413868  0.4580360623078078  0.2123838080936695
  0.9365441231747902  0.7890487268881455  0.3893922889421030
  0.6870831639115788  0.2929926737421808  0.8751786908073439
  0.3173186808436588  0.8650497449719656  0.1673803121700128
  0.4383417489125211  0.4573345942042457  0.6991949010067549
  0.9408936189475109  0.9537574070683069  0.3453694473867532
  0.6885357093499170  0.6209037543954762  0.5212554325142992
  0.0619818342638423  0.8745878832544743  0.6545535668379953
  0.0639727667564615  0.8696134557370896  0.7880043867369001
  0.0605708345895756  0.3743051511456021  0.6548282947685286
  0.6884377911854396  0.4553986036507098  0.4786284400446728
  0.1906113378615704  0.7909635157179574  0.2563273812483626
  0.4378671870182084  0.1196651497244330  0.4345974949784127
  0.8129116030447443  0.0325664490388406  0.1247609654026044
  0.9385475090309733  0.6209820814229295  0.5212745955456464
  0.0629242657227566  0.8697406082154771  0.4345347467651511
  0.8126124483106134  0.5329575677480322  0.1249444914552529
  0.4404156656042573  0.4540530894722174  0.3453142332441043
  0.8154493539040752  0.2035762920939366  0.3452855521439213
  0.3155203851014035  0.7033466612979564  0.3453366580949626
  0.6863544330790923  0.1238444060649885  0.6544868913445987
  0.5570455446879226  0.8740059357345168  0.3005041791532099
  0.0592407504083420  0.5392846830887559  0.7436160479474008
  0.9358007475090403  0.9575520461625877  0.2122977899700401
  0.8110731704729021  0.7079246054119560  0.2121784011353493
  0.0571953379580298  0.8737929013638848  0.3006837950414399
  0.1841275565863613  0.1241418993881605  0.3005660936872689
  0.0652650646801359  0.7036854842185774  0.3453592252533166
  0.8134159213020083  0.0397491543952472  0.6106012956357760
  0.0630511980710081  0.3695204740589870  0.4346271691432125
  0.5656446734241526  0.2034371202850149  0.3453731787288702
  0.8071547431089156  0.3738903623282082  0.3006768089550331
  0.4384578899276722  0.9549859510734590  0.4786094766512887
  0.5606744998358429  0.5378268502932880  0.3893181184574127
  0.0631211200247427  0.2053638846275047  0.4786448320165533
  0.3137013655823510  0.8689810616840504  0.7879846882267733
  0.9378724247596433  0.9572774270405430  0.6992391005729109
  0.0570247237604027  0.3748508922880941  0.3007402559668689
  0.6863547698691382  0.6233839144831373  0.6544815037725930
  0.6882294909286123  0.4571262001402879  0.5654353671750305
  0.4359807070087088  0.9575572578558188  0.2122792231718511
  0.3135356632563878  0.2052485321020285  0.4785872705143649
  0.4365456307204447  0.1227929668837003  0.6544496616723852
  0.6881588572302908  0.6199842574847126  0.4345287871609221
  0.8127981430125656  0.2074649162287209  0.6992647902465665
  0.8132745592819995  0.7051688851744439  0.4787562299292533
  0.8130232803602107  0.8694978731420394  0.4345557094052698
  0.9382434106806090  0.9552503910617796  0.4786675320641787
  0.5633027276194799  0.2050396969628446  0.4786592675578292
  0.1880172422230905  0.6192105751889613  0.4344704387564008
  0.3090973529034504  0.0389075046184493  0.7437455511094149
  0.9364899949970611  0.6238336372458296  0.6544498316390447
  0.5573751323853838  0.7125308243930735  0.8329367870976575
  0.3070938923730879  0.3745245391271532  0.3006357283608979
  0.5607547026559885  0.7074706417093195  0.2122206677414599
  0.1882982759449836  0.4552249305403960  0.4786409963480304
  0.3101479480694690  0.0395119351794177  0.8752590541391623
  0.1879607597107493  0.4573002644071110  0.6991784078365432
  0.8103792202150135  0.5390403449552986  0.8751124556467395
  0.1864225762601960  0.2893469432282837  0.3894125903222765
  0.4378940242254261  0.6201380217984944  0.4344941862728777
  0.0609094950833667  0.7078610490962779  0.2121925567605849
  0.5632771089958292  0.3692068205090880  0.4346524527671696
  0.4385344918327980  0.6210126948422203  0.5212034601943732
  0.8073526118124682  0.7122815849579449  0.8327470886741311
  0.0639173005516531  0.3690655171755183  0.7879829298991466
  0.4374262032774626  0.2924436113553101  0.8752758531476367
  0.3126487637138252  0.0326238953688608  0.1247577166685203
  0.6877194364416996  0.1203754722687290  0.4345535318294153
  0.1899766981841664  0.9537651704028134  0.3453960719266596
  0.0572996372882506  0.2123873644015183  0.8328748977208195
  0.5632764464690933  0.0397743047625824  0.6105795776478548
  0.6852837322296742  0.4579946715973974  0.2123554424957686
  0.1846439576610728  0.7890128061774817  0.7438617567589746
  0.1823726090634421  0.6245652163863855  0.3006927296713617
  0.4364421431144286  0.7893485925414729  0.3894562973751938
  0.4406008094106916  0.2909138034588338  0.2563564934198446
  0.0603661559763251  0.5392502264008496  0.8751916943987187
  0.5592080075323829  0.0389431717405771  0.7436932487867828
  0.1871765127365409  0.7924162804558516  0.8752885293835478
  0.9380830327564870  0.4552997682720065  0.4786913019160882
  0.8108314167769360  0.5380732805874019  0.3893406644139151
  0.8132902196801298  0.2071627429297063  0.5654397643962762
  0.1893135883380937  0.6192221196146787  0.7880939420846336
  0.0611898113159716  0.5398131774599442  0.3894350932708158
  0.0632940619821842  0.7074936773910495  0.6993306330809048
  0.3154126967929741  0.5404513243883389  0.2561903267532015
  0.3111719599417993  0.7079684763929186  0.2121578317242248
  0.5673638918279228  0.8654409869110947  0.1674002265102034
  0.5588330280713667  0.5392650415291671  0.7435394072108332
  0.6904399640968426  0.4539962291618935  0.3452344221282342
  0.9371652566328565  0.2928044384977072  0.8751537165284801
  0.5658709044423872  0.0404368749924950  0.2563418507194200
  0.6860544233329450  0.2889189873937672  0.3892290194897318
  0.3181962175849233  0.3642612339654368  0.1667518334318555
  0.8180415906153685  0.3646797372305429  0.1667402252083242
  0.1881770300197521  0.9564815023547154  0.6996485605190809
  0.3125957176501271  0.8737510678360365  0.6538182782363632
  0.1919380998517372  0.2910285701661117  0.2564429432921498
  0.3086986342911397  0.5387247275414374  0.7437620597554968
 
  0.00000000E+00  0.00000000E+00  0.00000000E+00
  0.00000000E+00  0.00000000E+00  0.00000000E+00
  0.00000000E+00  0.00000000E+00  0.00000000E+00
  0.00000000E+00  0.00000000E+00  0.00000000E+00
  0.00000000E+00  0.00000000E+00  0.00000000E+00
  0.00000000E+00  0.00000000E+00  0.00000000E+00
  0.00000000E+00  0.00000000E+00  0.00000000E+00
  0.00000000E+00  0.00000000E+00  0.00000000E+00
  0.00000000E+00  0.00000000E+00  0.00000000E+00
  0.00000000E+00  0.00000000E+00  0.00000000E+00
  0.00000000E+00  0.00000000E+00  0.00000000E+00
  0.00000000E+00  0.00000000E+00  0.00000000E+00
  0.00000000E+00  0.00000000E+00  0.00000000E+00
  0.00000000E+00  0.00000000E+00  0.00000000E+00
  0.00000000E+00  0.00000000E+00  0.00000000E+00
  0.00000000E+00  0.00000000E+00  0.00000000E+00
  0.00000000E+00  0.00000000E+00  0.00000000E+00
  0.00000000E+00  0.00000000E+00  0.00000000E+00
  0.00000000E+00  0.00000000E+00  0.00000000E+00
  0.00000000E+00  0.00000000E+00  0.00000000E+00
  0.00000000E+00  0.00000000E+00  0.00000000E+00
  0.00000000E+00  0.00000000E+00  0.00000000E+00
  0.00000000E+00  0.00000000E+00  0.00000000E+00
  0.00000000E+00  0.00000000E+00  0.00000000E+00
  0.00000000E+00  0.00000000E+00  0.00000000E+00
  0.00000000E+00  0.00000000E+00  0.00000000E+00
  0.00000000E+00  0.00000000E+00  0.00000000E+00
  0.00000000E+00  0.00000000E+00  0.00000000E+00
  0.00000000E+00  0.00000000E+00  0.00000000E+00
  0.00000000E+00  0.00000000E+00  0.00000000E+00
  0.00000000E+00  0.00000000E+00  0.00000000E+00
  0.00000000E+00  0.00000000E+00  0.00000000E+00
  0.00000000E+00  0.00000000E+00  0.00000000E+00
  0.00000000E+00  0.00000000E+00  0.00000000E+00
  0.00000000E+00  0.00000000E+00  0.00000000E+00
  0.00000000E+00  0.00000000E+00  0.00000000E+00
  0.00000000E+00  0.00000000E+00  0.00000000E+00
  0.00000000E+00  0.00000000E+00  0.00000000E+00
  0.00000000E+00  0.00000000E+00  0.00000000E+00
  0.00000000E+00  0.00000000E+00  0.00000000E+00
  0.00000000E+00  0.00000000E+00  0.00000000E+00
  0.00000000E+00  0.00000000E+00  0.00000000E+00
  0.00000000E+00  0.00000000E+00  0.00000000E+00
  0.00000000E+00  0.00000000E+00  0.00000000E+00
  0.00000000E+00  0.00000000E+00  0.00000000E+00
  0.00000000E+00  0.00000000E+00  0.00000000E+00
  0.00000000E+00  0.00000000E+00  0.00000000E+00
  0.00000000E+00  0.00000000E+00  0.00000000E+00
  0.00000000E+00  0.00000000E+00  0.00000000E+00
  0.00000000E+00  0.00000000E+00  0.00000000E+00
  0.00000000E+00  0.00000000E+00  0.00000000E+00
  0.00000000E+00  0.00000000E+00  0.00000000E+00
  0.00000000E+00  0.00000000E+00  0.00000000E+00
  0.00000000E+00  0.00000000E+00  0.00000000E+00
  0.00000000E+00  0.00000000E+00  0.00000000E+00
  0.00000000E+00  0.00000000E+00  0.00000000E+00
  0.00000000E+00  0.00000000E+00  0.00000000E+00
  0.00000000E+00  0.00000000E+00  0.00000000E+00
  0.00000000E+00  0.00000000E+00  0.00000000E+00
  0.00000000E+00  0.00000000E+00  0.00000000E+00
  0.00000000E+00  0.00000000E+00  0.00000000E+00
  0.00000000E+00  0.00000000E+00  0.00000000E+00
  0.00000000E+00  0.00000000E+00  0.00000000E+00
  0.00000000E+00  0.00000000E+00  0.00000000E+00
  0.00000000E+00  0.00000000E+00  0.00000000E+00
  0.00000000E+00  0.00000000E+00  0.00000000E+00
  0.00000000E+00  0.00000000E+00  0.00000000E+00
  0.00000000E+00  0.00000000E+00  0.00000000E+00
  0.00000000E+00  0.00000000E+00  0.00000000E+00
  0.00000000E+00  0.00000000E+00  0.00000000E+00
  0.00000000E+00  0.00000000E+00  0.00000000E+00
  0.00000000E+00  0.00000000E+00  0.00000000E+00
  0.00000000E+00  0.00000000E+00  0.00000000E+00
  0.00000000E+00  0.00000000E+00  0.00000000E+00
  0.00000000E+00  0.00000000E+00  0.00000000E+00
  0.00000000E+00  0.00000000E+00  0.00000000E+00
  0.00000000E+00  0.00000000E+00  0.00000000E+00
  0.00000000E+00  0.00000000E+00  0.00000000E+00
  0.00000000E+00  0.00000000E+00  0.00000000E+00
  0.00000000E+00  0.00000000E+00  0.00000000E+00
  0.00000000E+00  0.00000000E+00  0.00000000E+00
  0.00000000E+00  0.00000000E+00  0.00000000E+00
  0.00000000E+00  0.00000000E+00  0.00000000E+00
  0.00000000E+00  0.00000000E+00  0.00000000E+00
  0.00000000E+00  0.00000000E+00  0.00000000E+00
  0.00000000E+00  0.00000000E+00  0.00000000E+00
  0.00000000E+00  0.00000000E+00  0.00000000E+00
  0.00000000E+00  0.00000000E+00  0.00000000E+00
  0.00000000E+00  0.00000000E+00  0.00000000E+00
  0.00000000E+00  0.00000000E+00  0.00000000E+00
  0.00000000E+00  0.00000000E+00  0.00000000E+00
  0.00000000E+00  0.00000000E+00  0.00000000E+00
  0.00000000E+00  0.00000000E+00  0.00000000E+00
  0.00000000E+00  0.00000000E+00  0.00000000E+00
  0.00000000E+00  0.00000000E+00  0.00000000E+00
  0.00000000E+00  0.00000000E+00  0.00000000E+00
  0.00000000E+00  0.00000000E+00  0.00000000E+00
  0.00000000E+00  0.00000000E+00  0.00000000E+00
  0.00000000E+00  0.00000000E+00  0.00000000E+00
  0.00000000E+00  0.00000000E+00  0.00000000E+00
  0.00000000E+00  0.00000000E+00  0.00000000E+00
  0.00000000E+00  0.00000000E+00  0.00000000E+00
  0.00000000E+00  0.00000000E+00  0.00000000E+00
  0.00000000E+00  0.00000000E+00  0.00000000E+00
  0.00000000E+00  0.00000000E+00  0.00000000E+00
  0.00000000E+00  0.00000000E+00  0.00000000E+00
  0.00000000E+00  0.00000000E+00  0.00000000E+00
  0.00000000E+00  0.00000000E+00  0.00000000E+00
  0.00000000E+00  0.00000000E+00  0.00000000E+00
  0.00000000E+00  0.00000000E+00  0.00000000E+00
  0.00000000E+00  0.00000000E+00  0.00000000E+00
  0.00000000E+00  0.00000000E+00  0.00000000E+00
  0.00000000E+00  0.00000000E+00  0.00000000E+00
  0.00000000E+00  0.00000000E+00  0.00000000E+00
  0.00000000E+00  0.00000000E+00  0.00000000E+00
  0.00000000E+00  0.00000000E+00  0.00000000E+00
  0.00000000E+00  0.00000000E+00  0.00000000E+00
  0.00000000E+00  0.00000000E+00  0.00000000E+00
  0.00000000E+00  0.00000000E+00  0.00000000E+00
  0.00000000E+00  0.00000000E+00  0.00000000E+00
  0.00000000E+00  0.00000000E+00  0.00000000E+00
  0.00000000E+00  0.00000000E+00  0.00000000E+00
  0.00000000E+00  0.00000000E+00  0.00000000E+00
  0.00000000E+00  0.00000000E+00  0.00000000E+00
  0.00000000E+00  0.00000000E+00  0.00000000E+00
  0.00000000E+00  0.00000000E+00  0.00000000E+00
  0.00000000E+00  0.00000000E+00  0.00000000E+00
  0.00000000E+00  0.00000000E+00  0.00000000E+00
  0.00000000E+00  0.00000000E+00  0.00000000E+00
  0.00000000E+00  0.00000000E+00  0.00000000E+00
  0.00000000E+00  0.00000000E+00  0.00000000E+00
  0.00000000E+00  0.00000000E+00  0.00000000E+00
  0.00000000E+00  0.00000000E+00  0.00000000E+00
  0.00000000E+00  0.00000000E+00  0.00000000E+00
  0.00000000E+00  0.00000000E+00  0.00000000E+00
  0.00000000E+00  0.00000000E+00  0.00000000E+00
  0.00000000E+00  0.00000000E+00  0.00000000E+00
  0.00000000E+00  0.00000000E+00  0.00000000E+00
  0.00000000E+00  0.00000000E+00  0.00000000E+00
  0.00000000E+00  0.00000000E+00  0.00000000E+00
  0.00000000E+00  0.00000000E+00  0.00000000E+00
  0.00000000E+00  0.00000000E+00  0.00000000E+00
  0.00000000E+00  0.00000000E+00  0.00000000E+00
  0.00000000E+00  0.00000000E+00  0.00000000E+00
  0.00000000E+00  0.00000000E+00  0.00000000E+00
  0.00000000E+00  0.00000000E+00  0.00000000E+00
  0.00000000E+00  0.00000000E+00  0.00000000E+00
  0.00000000E+00  0.00000000E+00  0.00000000E+00
  0.00000000E+00  0.00000000E+00  0.00000000E+00
  0.00000000E+00  0.00000000E+00  0.00000000E+00
  0.00000000E+00  0.00000000E+00  0.00000000E+00
  0.00000000E+00  0.00000000E+00  0.00000000E+00
  0.00000000E+00  0.00000000E+00  0.00000000E+00
  0.00000000E+00  0.00000000E+00  0.00000000E+00
  0.00000000E+00  0.00000000E+00  0.00000000E+00
  0.00000000E+00  0.00000000E+00  0.00000000E+00
  0.00000000E+00  0.00000000E+00  0.00000000E+00
  0.00000000E+00  0.00000000E+00  0.00000000E+00
  0.00000000E+00  0.00000000E+00  0.00000000E+00
  0.00000000E+00  0.00000000E+00  0.00000000E+00
  0.00000000E+00  0.00000000E+00  0.00000000E+00
  0.00000000E+00  0.00000000E+00  0.00000000E+00
  0.00000000E+00  0.00000000E+00  0.00000000E+00
  0.00000000E+00  0.00000000E+00  0.00000000E+00
  0.00000000E+00  0.00000000E+00  0.00000000E+00
  0.00000000E+00  0.00000000E+00  0.00000000E+00
  0.00000000E+00  0.00000000E+00  0.00000000E+00
  0.00000000E+00  0.00000000E+00  0.00000000E+00
  0.00000000E+00  0.00000000E+00  0.00000000E+00
  0.00000000E+00  0.00000000E+00  0.00000000E+00
  0.00000000E+00  0.00000000E+00  0.00000000E+00
  0.00000000E+00  0.00000000E+00  0.00000000E+00
  0.00000000E+00  0.00000000E+00  0.00000000E+00
  0.00000000E+00  0.00000000E+00  0.00000000E+00
  0.00000000E+00  0.00000000E+00  0.00000000E+00
  0.00000000E+00  0.00000000E+00  0.00000000E+00
  0.00000000E+00  0.00000000E+00  0.00000000E+00
  0.00000000E+00  0.00000000E+00  0.00000000E+00
  0.00000000E+00  0.00000000E+00  0.00000000E+00
  0.00000000E+00  0.00000000E+00  0.00000000E+00
  0.00000000E+00  0.00000000E+00  0.00000000E+00
  0.00000000E+00  0.00000000E+00  0.00000000E+00
  0.00000000E+00  0.00000000E+00  0.00000000E+00
  0.00000000E+00  0.00000000E+00  0.00000000E+00
  0.00000000E+00  0.00000000E+00  0.00000000E+00
  0.00000000E+00  0.00000000E+00  0.00000000E+00
  0.00000000E+00  0.00000000E+00  0.00000000E+00
  0.00000000E+00  0.00000000E+00  0.00000000E+00
  0.00000000E+00  0.00000000E+00  0.00000000E+00
  0.00000000E+00  0.00000000E+00  0.00000000E+00
  0.00000000E+00  0.00000000E+00  0.00000000E+00
  0.00000000E+00  0.00000000E+00  0.00000000E+00
  0.00000000E+00  0.00000000E+00  0.00000000E+00
  0.00000000E+00  0.00000000E+00  0.00000000E+00
  0.00000000E+00  0.00000000E+00  0.00000000E+00
  0.00000000E+00  0.00000000E+00  0.00000000E+00
  0.00000000E+00  0.00000000E+00  0.00000000E+00
  0.00000000E+00  0.00000000E+00  0.00000000E+00
  0.00000000E+00  0.00000000E+00  0.00000000E+00
  0.00000000E+00  0.00000000E+00  0.00000000E+00
  0.00000000E+00  0.00000000E+00  0.00000000E+00
  0.00000000E+00  0.00000000E+00  0.00000000E+00
  0.00000000E+00  0.00000000E+00  0.00000000E+00
  0.00000000E+00  0.00000000E+00  0.00000000E+00
  0.00000000E+00  0.00000000E+00  0.00000000E+00
  0.00000000E+00  0.00000000E+00  0.00000000E+00
  0.00000000E+00  0.00000000E+00  0.00000000E+00
  0.00000000E+00  0.00000000E+00  0.00000000E+00
  0.00000000E+00  0.00000000E+00  0.00000000E+00
  0.00000000E+00  0.00000000E+00  0.00000000E+00
  0.00000000E+00  0.00000000E+00  0.00000000E+00
  0.00000000E+00  0.00000000E+00  0.00000000E+00
  0.00000000E+00  0.00000000E+00  0.00000000E+00
  0.00000000E+00  0.00000000E+00  0.00000000E+00
  0.00000000E+00  0.00000000E+00  0.00000000E+00
  0.00000000E+00  0.00000000E+00  0.00000000E+00
  0.00000000E+00  0.00000000E+00  0.00000000E+00
  0.00000000E+00  0.00000000E+00  0.00000000E+00
  0.00000000E+00  0.00000000E+00  0.00000000E+00
  0.00000000E+00  0.00000000E+00  0.00000000E+00
  0.00000000E+00  0.00000000E+00  0.00000000E+00
  0.00000000E+00  0.00000000E+00  0.00000000E+00
  0.00000000E+00  0.00000000E+00  0.00000000E+00
  0.00000000E+00  0.00000000E+00  0.00000000E+00
  0.00000000E+00  0.00000000E+00  0.00000000E+00
  0.00000000E+00  0.00000000E+00  0.00000000E+00
  0.00000000E+00  0.00000000E+00  0.00000000E+00
  0.00000000E+00  0.00000000E+00  0.00000000E+00
  0.00000000E+00  0.00000000E+00  0.00000000E+00
  0.00000000E+00  0.00000000E+00  0.00000000E+00
  0.00000000E+00  0.00000000E+00  0.00000000E+00
  0.00000000E+00  0.00000000E+00  0.00000000E+00
  0.00000000E+00  0.00000000E+00  0.00000000E+00
  0.00000000E+00  0.00000000E+00  0.00000000E+00
  0.00000000E+00  0.00000000E+00  0.00000000E+00
  0.00000000E+00  0.00000000E+00  0.00000000E+00
  0.00000000E+00  0.00000000E+00  0.00000000E+00
  0.00000000E+00  0.00000000E+00  0.00000000E+00
  0.00000000E+00  0.00000000E+00  0.00000000E+00
  0.00000000E+00  0.00000000E+00  0.00000000E+00
  0.00000000E+00  0.00000000E+00  0.00000000E+00
  0.00000000E+00  0.00000000E+00  0.00000000E+00
  0.00000000E+00  0.00000000E+00  0.00000000E+00
  0.00000000E+00  0.00000000E+00  0.00000000E+00
  0.00000000E+00  0.00000000E+00  0.00000000E+00
  0.00000000E+00  0.00000000E+00  0.00000000E+00
  0.00000000E+00  0.00000000E+00  0.00000000E+00