FeMn_288_15                             
    1.000000000000000     
     9.7266779999999997    0.0000000000000000    0.0000000000000000
     0.0000000000000000    8.4235500000000005    0.0000000000000000
     0.0000000000000000    0.0000000000000000   45.0000000000000000
   Fe   Mn
   273    15
Direct
  0.9372302874711949  0.1262502782840164  0.6544700714453402
  0.9379496212318144  0.7818775380367701  0.2564830498028091
  0.4377026833615049  0.7822038945096241  0.2565846683839359
  0.6878078794237339  0.9573256632562289  0.5654929301122863
  0.5623850567999484  0.3768478473809503  0.6544259519785990
  0.6875731999899990  0.2822247283927990  0.2565620370967454
  0.1875150946443397  0.1226658482167786  0.5214913300708103
  0.6878133170757728  0.2807312899855173  0.1251779016962473
  0.3126640970917651  0.2067015339201386  0.5654655315603657
  0.0624316282360164  0.2070940359492117  0.5654516738569632
  0.4374368961502897  0.1268394675218897  0.6545398579882349
  0.8122638320713307  0.0362561792972294  0.3897287760283480
  0.1876401609858472  0.9649620057000979  0.8326231087529231
  0.4379382737173000  0.7814145023913653  0.1250346207356015
  0.3117998553215093  0.8728177077702214  0.5215698103408336
  0.0626681306635887  0.3801307249112421  0.7876315256554718
  0.3123501162904976  0.3642890018017877  0.1673665049323580
  0.1873947698602207  0.2860610025975313  0.3895761051127372
  0.1872132144330233  0.6208452430494724  0.4347836115767056
  0.9378436590452494  0.2804904479940142  0.1250760163689586
  0.6876491831410619  0.9484135928983708  0.2123624187241846
  0.9381077435503635  0.7810040856657975  0.1253516419038780
  0.3123638658507426  0.3794367688936316  0.7877550333382577
  0.1872544399018643  0.7812788289643728  0.1252772981844462
  0.9372793489132790  0.6206554920605181  0.4344732678634574
  0.5622921985770375  0.5360801737814395  0.3896321603246426
  0.0623119220529110  0.7111170353097652  0.6992197969393934
  0.4375632798845900  0.6226362981963780  0.5215177673002866
  0.5629540714264402  0.5306030977861805  0.1252342843143027
  0.8126453363755940  0.5457856607660221  0.7434104661607072
  0.4375015726700108  0.1127095617761909  0.1673623199673862
  0.8122996256577647  0.3764644178275389  0.6545155356290735
  0.3127054595293300  0.0305100510456686  0.1251381594742065
  0.9376573010976215  0.4573805161482494  0.5655382464564704
  0.1876465389480436  0.2915492529522714  0.6104208202941063
  0.5624023616863038  0.7046197917158608  0.4785800295951535
  0.3123216503639420  0.2012120342781390  0.3454582744306506
  0.5625515839120063  0.6980513085376631  0.2124945819064460
  0.8126124463744232  0.5309179684150399  0.1252430409928855
  0.9373485187296421  0.1299388150545438  0.7875532340440110
  0.5623842487236066  0.8667342732726139  0.3007933177921207
  0.4378020800000220  0.7919574028041083  0.6104220379096361
  0.4373594306754350  0.6266887621510016  0.6545571470362700
  0.4378888596913819  0.2808824444377112  0.1252797351849220
  0.0625997082933678  0.7011250614504296  0.3454727072662538
  0.1876926627286817  0.6264224995373443  0.6545173055364720
  0.9374662498879620  0.1209179034519926  0.4345237119177260
  0.4375348738002822  0.6293808019136489  0.7876206872416580
  0.3122957177791766  0.7014643007713629  0.3454572718119202
  0.9377006892805279  0.6165105396841206  0.3008778596987276
  0.5622450860603635  0.1975681516983126  0.2123225059520667
  0.5622510056143473  0.2142332163794904  0.8325896193711918
  0.1874240618308833  0.4483872857189262  0.2124399461860332
  0.5623604031632501  0.3795327291233029  0.7876645831835960
  0.4378248515279590  0.2822740437734239  0.2566160909818691
  0.4372138852986019  0.7860937995222050  0.3896198305990178
  0.4374092382976025  0.9638539217928463  0.8326453187218150
  0.6874878624129388  0.4612444716683244  0.6991226487599650
  0.0628254194944941  0.5321365348947483  0.2567367938425852
  0.1865354038349697  0.2807327490788193  0.1252281134869262
  0.0627677853878368  0.5416528520641877  0.6102826754611661
  0.0623449945383739  0.3712483317931193  0.4344366324583747
  0.6879184436243323  0.1208895071272587  0.4343979302941243
  0.6878574442250179  0.4510789637683501  0.3454020522363554
  0.1875696308239622  0.1165368536135564  0.3008133665791535
  0.9376901288228373  0.1144188913956034  0.1673091475089929
  0.6879670021968942  0.6208464426060932  0.4343630833544500
  0.4372520210760896  0.9571200139039722  0.5655129232924520
  0.9376867273432717  0.4550650091684341  0.4785550713119085
  0.5626913680623112  0.2112724488876847  0.6991918303626288
  0.5622181109730543  0.8767013015626789  0.6544454963400622
  0.3128273344752343  0.8638029354241390  0.1671916908637501
  0.1876895439872240  0.1136830048669452  0.1674528759102565
  0.3125789540321204  0.0418799445129935  0.6104027881075252
  0.1871455392768660  0.7861079476262789  0.3895976986779751
  0.6873450760309869  0.7859598226890329  0.3896536979492720
  0.1874914678245381  0.9513690561193558  0.3454071211556712
  0.8123611907477521  0.2049348726936385  0.4785661392385821
  0.6874991397714081  0.6140896564860290  0.1675180058731972
  0.6873768486756666  0.7972563546850457  0.8747223255925907
  0.8125786843383794  0.0474206884623129  0.8747680856149220
  0.0622931285558693  0.3730844181652463  0.5215515572080539
  0.8120314764950514  0.8665028614150937  0.3010374004652773
  0.8123571121976704  0.2139079834899779  0.8327263723964928
  0.3124162113440125  0.2050216066033083  0.4785227553921840
  0.0628672455498527  0.0309233473819255  0.1251605126375392
  0.6878352091303144  0.9551693118005213  0.4786602701851997
  0.4379055200995517  0.2971082464454158  0.8747201861939016
  0.9374916503547527  0.6299104561547078  0.7876708059995030
  0.8124772428016982  0.8704532073442471  0.4345070798206021
  0.5625982044925574  0.5322613725890701  0.2566170323965016
  0.4374354461783205  0.7972880282512913  0.8747700828622499
  0.5625839898424893  0.0415884488376991  0.6103600458851580
  0.3124794334344190  0.5365979864123189  0.3896851777822887
  0.0625226774900183  0.3669672089415940  0.3009384075414564
  0.3128221818247079  0.2113472516554176  0.6991688303893492
  0.5622833210534499  0.3669740555237072  0.3009280966800448
  0.8124284120130822  0.5477009345981092  0.8747155655587333
  0.0624497931922811  0.5361875933757937  0.3896725466450731
  0.8123369502999079  0.3664297944546399  0.3008324489114498
  0.0625810600239156  0.5470545834517362  0.8747450185535298
  0.9376555212508429  0.4609746887468161  0.6991336436429714
  0.3126634175841030  0.3708009904130696  0.4343774112842709
  0.3127634557099591  0.3728917984048775  0.5215126710481705
  0.0620559020554063  0.7051824822521283  0.4786738200690953
  0.4373716000983858  0.6205547462202446  0.4343525927371034
  0.0624468946043979  0.5458742874466397  0.7433958820331164
  0.0625585806043791  0.8762962615500856  0.6545624428533550
  0.1877918726080393  0.7819879569750655  0.2566086440213166
  0.1876526409676845  0.7915320638254348  0.6104385971205372
  0.9372856499378599  0.1226237548627960  0.5214845476282396
  0.6870806760696154  0.7959263096864023  0.7434313414458302
  0.0623528666421616  0.2047941547921366  0.4785714370900859
  0.5621726978514253  0.7135761626907847  0.8326486197112259
  0.1874787656275977  0.7955900276751746  0.7434728136678229
  0.9372516437910995  0.7970181736626391  0.8746593505296800
  0.0625972697206796  0.0321270753481730  0.2565784620195298
  0.3125825707590830  0.5477216909514674  0.8747430896570628
  0.5621044058074777  0.0300932399400556  0.1249563086683192
  0.5623301234431366  0.3728576178065154  0.5215622869149970
  0.4372331512248526  0.9548605436910742  0.4786078009085166
  0.1881410855330627  0.6128315759158361  0.1673079993006359
  0.8129245110110698  0.7013813337067674  0.3454143138807071
  0.4373006049166559  0.7955457877744486  0.7434031998521556
  0.1879518150265304  0.7969735554506139  0.8746991783005708
  0.8124212386121433  0.5357420191399181  0.3896589426761621
  0.8127229082486185  0.5319096048010500  0.2564385193723057
  0.9376801404590989  0.6137537158944097  0.1674095342586351
  0.4373707802739532  0.1296502429072594  0.7876432743776335
  0.9376892075108785  0.9610800253784790  0.6991319659432883
  0.8123389455001554  0.8799136834406888  0.7876645707173235
  0.3126420771102872  0.5320964791861292  0.2565128243128421
  0.6874362531716626  0.9613511365568668  0.6991861666574392
  0.1875892657383742  0.9477783753242924  0.2122631561608063
  0.3123002119060869  0.0456461086891414  0.7433296457884565
  0.0622914204212176  0.0357063484600514  0.3896502332938002
  0.6872611379739836  0.2958471145674690  0.7433847822733525
  0.9377575423829438  0.2968938239413489  0.8748440684434613
  0.9368538696935093  0.6222461005196984  0.5214840867407883
  0.4372239500189964  0.9476278020873874  0.2123068772843106
  0.3119797705826727  0.8707339698388419  0.4344670842329523
  0.4374145104700938  0.6131614714398337  0.1674279545265695
  0.3125517305740119  0.0359418680616207  0.3896670594975240
  0.3123931262909198  0.3764823673845195  0.6545623906407310
  0.8129269156938057  0.8723857463975627  0.5214937045679637
  0.6875021191400179  0.2916435549948559  0.6103553382954157
  0.4376030828597042  0.2917985925675657  0.6104005688589090
  0.8124635078358157  0.0310596468322425  0.1251154276380588
  0.0625737470599427  0.8708553654975950  0.4343921543741203
  0.5625867764276435  0.8798011394941277  0.7877406479649470
  0.0624090237727762  0.7143349410600449  0.8326285901875752
  0.4371588648863475  0.4568582034713559  0.5654627308115580
  0.1876990986860329  0.6297623947715801  0.7877271668356491
  0.9377159673664419  0.9483085334904884  0.2122312032713106
  0.3132693153266582  0.7070147537270016  0.5655573546666525
  0.1874532925184946  0.6165569309065536  0.3008760076050751
  0.3125267481796795  0.5418594568467807  0.6103491153841679
  0.9376619664400682  0.2820497800879466  0.2566371108962063
  0.1877613128144121  0.1265730527100133  0.6544701606984936
  0.3125109084051976  0.1971480568083640  0.2124639294586883
  0.4376617900483542  0.1232187966993256  0.5214632925724696
  0.0627272373626535  0.8734633003589951  0.5214736474547056
  0.4371274798575970  0.6164141130761941  0.3008723182088541
  0.6875264148149173  0.4485483535492097  0.2122724626307774
  0.3123912866032164  0.8767832514887525  0.6546176774869074
  0.8123060257677858  0.6984043274149035  0.2122167314762984
  0.8121698180062118  0.2071221724978704  0.5655214778765923
  0.3124583230220914  0.0472442358443356  0.8748059313889843
  0.0630352710860010  0.1981099804389295  0.2122069641491697
  0.9376821346733483  0.2918809152198669  0.6104420432336036
  0.6873961068333738  0.7818734310698209  0.2566487743009347
  0.9377871642443137  0.2861287641977230  0.3896972678988622
  0.0622895704450271  0.0458051029574304  0.7434081230369100
  0.4372459095803530  0.2956951420016287  0.7433676475299407
  0.1875699562812076  0.9548838600440751  0.4784797471042874
  0.9373586061535344  0.2957464882341314  0.7434458336098907
  0.8129294454366085  0.0319514341093876  0.2565994015421964
  0.0625856989332274  0.8637814707934894  0.1674600060706737
  0.9377106804231153  0.4642446855297317  0.8325937171017534
  0.4370923094474357  0.2860972524591392  0.3897151732987333
  0.6875988077286296  0.6165859078536097  0.3008025140153426
  0.1875035191439434  0.9569004783379005  0.5654543690769815
  0.3127381720098857  0.3668232262158400  0.3008313847352279
  0.1873127219435637  0.4544264258503277  0.4785824348233181
  0.5625466220530424  0.7114088013674790  0.6992116545528958
  0.5621548316008894  0.5458022357145279  0.7433437148346704
  0.8127121608289033  0.8643725332763069  0.1672646365604747
  0.5625541306989630  0.3704565205276923  0.4346563241870386
  0.3127922833529846  0.8662063992695908  0.3008693954994730
  0.6872370837499814  0.6266053642897353  0.6545195523499563
  0.8117232057750852  0.7139800411553842  0.8326046277126472
  0.6879866103921618  0.6229924273841595  0.5214976207049379
  0.6873249291184086  0.6295239972680172  0.7876113102392142
  0.6869926784590356  0.9637839037982425  0.8325496597803986
  0.9371934981558732  0.9648530677995943  0.8325951851842645
  0.5623915445698421  0.5473741130697726  0.8747483716324519
  0.0627996340047345  0.2009784998138999  0.3455152449178807
  0.4376376478319857  0.4481764914228200  0.2123117875317230
  0.1876759387625266  0.9608450226158020  0.6991732325016877
  0.0626444042988740  0.0476620713141925  0.8748809005045893
  0.8122243912604658  0.8763539639638307  0.6545626488736318
  0.4371404082697669  0.4548899169566942  0.4785748733717309
  0.9375269346200641  0.4509686653780249  0.3455250276047079
  0.9374275990149976  0.4485972221981472  0.2124691873612504
  0.1877863469045385  0.1297244836918726  0.7875848432424362
  0.6878112831218447  0.9517223098730133  0.3454753399369634
  0.6875030106158545  0.1230827358194786  0.5215760973818403
  0.8126730104231671  0.0419421609116293  0.6104903370184113
  0.1875382106718954  0.4507768231440217  0.3454581690283188
  0.3128984229046116  0.7140762440946845  0.8325775654082677
  0.9378835141170554  0.7860594901445905  0.3896418863030507
  0.5625057815749821  0.2012583787438590  0.3454811940682520
  0.9373966918727508  0.7919058180633084  0.6104304829857625
  0.6876617668835953  0.7917995471095430  0.6103958569570371
  0.5628410053219205  0.0322382239625094  0.2564810347302167
  0.5621028436404262  0.3640199760108673  0.1671797839346882
  0.5623203759549498  0.0472918724464137  0.8747178273606924
  0.6879286556825788  0.1133089829383567  0.1672820117709607
  0.0632204180938889  0.3641482187239027  0.1673073058431636
  0.0624866430721690  0.8800871622987014  0.7877689089909299
  0.6877530559817671  0.4549056772531488  0.4786566474378555
  0.0626343719444299  0.0417780070083524  0.6104342378577822
  0.6872977693344080  0.4642879119728474  0.8325681791345462
  0.5625126824431843  0.8704987325376945  0.4347819852324631
  0.6873908519465063  0.4568009837076993  0.5653997156590829
  0.0624329397925709  0.6985888942756182  0.2124186840093810
  0.9372408448110268  0.9574731189346689  0.5653951498452915
  0.6869770554462337  0.7811138014432968  0.1250893236795278
  0.8131902107043809  0.3637154988355726  0.1673012370069284
  0.3126049690657546  0.8797643197423334  0.7876518764271166
  0.3127253613451826  0.0322196202082393  0.2565707484802013
  0.1874113752467559  0.2968807314869411  0.8748494724831734
  0.3127883092360242  0.6978963890853729  0.2121955722904818
  0.4378169902140118  0.9513714860113713  0.3454202673528358
  0.3122308079497979  0.2140483512913949  0.8326748362272861
  0.8127101633944387  0.3728606744105402  0.5214358013794879
  0.0622698265775749  0.3761541392107655  0.6546000946381663
  0.3130452684663154  0.7054013861657908  0.4785823270712285
  0.3120234129002383  0.5456799942336791  0.7434197162481017
  0.4371033510273270  0.1168708192101510  0.3008197372253311
  0.4376490244951836  0.4613878999666949  0.6991325626836526
  0.9372247045474847  0.9550701476152930  0.4784500345369253
  0.8119740253967105  0.7072519033824941  0.5654942413559593
  0.8131629403675649  0.2014420716543718  0.3454583000632318
  0.6875563235673467  0.1298717714836242  0.7876209402189200
  0.5623599882747380  0.7068804086206718  0.5654819531556100
  0.4377631950800622  0.4517604709417868  0.3454113714882375
  0.9376109318377374  0.9514113924672717  0.3454774676366761
  0.8125548529193436  0.7111592674272258  0.6991745252662678
  0.6869859834314670  0.1266171748254412  0.6545312737178912
  0.5625828628006552  0.0356812682629717  0.3895811162236868
  0.4372226235304579  0.4642927634772256  0.8325816253025998
  0.1877351852470065  0.4568494067981128  0.5654661555850969
  0.0623067445497201  0.2112921178549869  0.6991930044667822
  0.6868909355886167  0.2970960640169644  0.8747044158135997
  0.0619776089675024  0.5301093403384102  0.1251703583989195
  0.9377528201746538  0.1165835074755726  0.3007797489323685
  0.8126531934727349  0.3798613586761534  0.7876511418180768
  0.5626919491280400  0.2049537454717052  0.4786421475776040
  0.1876463778985706  0.2825085276911174  0.2566980869644634
  0.5626742341870450  0.5412645783027575  0.6104157643554923
  0.8122526575906185  0.3711256498785669  0.4345823577197245
  0.5625254265960860  0.2065564219491137  0.5654639357628652
  0.9372297660621431  0.7954563583747154  0.7434315898065778
  0.8121819472509019  0.2111183600738391  0.6991511306621715
  0.4374150672813340  0.9613522394590875  0.6990820138734818
  0.1871607713193534  0.1208844016303796  0.4345002467978591
  0.8124275861395204  0.0456215642597959  0.7433638058174391
  0.8126662305954020  0.5418392848365445  0.6104114536734866
  0.1873344172543235  0.2957644931972874  0.7433554819224847
  0.1874128855660726  0.4614076707018617  0.6991549794629950
  0.8123241191955312  0.7050855226647993  0.4785403925661006
  0.1869518983856412  0.4642875878886603  0.8326085415189827
  0.0624345731982759  0.8663242094204220  0.3008652041235984
  0.0617899627089941  0.7071900909378485  0.5655894971626447
  0.5628081358382863  0.8639849061305784  0.1667335015193555
  0.6876563831275881  0.1172288534611352  0.3008350413475330
  0.4375180858490264  0.1210563049771691  0.4343412931051178
  0.5622756363434028  0.0459867559397081  0.7434939571847473
  0.3125573733061689  0.5300285642595609  0.1254630174052971
  0.6872285321489735  0.2855193066510174  0.3896313481302134
  0.5628177263607159  0.7013661708618080  0.3455063982981330
  0.9372175067282447  0.6262503651992185  0.6544909811377327
  0.0623968154008071  0.2141879323432275  0.8332108974577686
  0.3125840492960325  0.7112048842926035  0.6992163645767198
  0.1874968331737723  0.6228075236648046  0.5213009815676500
  0.8122949255120619  0.1981521578466097  0.2124643608397243
  0.5625164762489815  0.8726750229338222  0.5214315112137928
 
  0.00000000E+00  0.00000000E+00  0.00000000E+00
  0.00000000E+00  0.00000000E+00  0.00000000E+00
  0.00000000E+00  0.00000000E+00  0.00000000E+00
  0.00000000E+00  0.00000000E+00  0.00000000E+00
  0.00000000E+00  0.00000000E+00  0.00000000E+00
  0.00000000E+00  0.00000000E+00  0.00000000E+00
  0.00000000E+00  0.00000000E+00  0.00000000E+00
  0.00000000E+00  0.00000000E+00  0.00000000E+00
  0.00000000E+00  0.00000000E+00  0.00000000E+00
  0.00000000E+00  0.00000000E+00  0.00000000E+00
  0.00000000E+00  0.00000000E+00  0.00000000E+00
  0.00000000E+00  0.00000000E+00  0.00000000E+00
  0.00000000E+00  0.00000000E+00  0.00000000E+00
  0.00000000E+00  0.00000000E+00  0.00000000E+00
  0.00000000E+00  0.00000000E+00  0.00000000E+00
  0.00000000E+00  0.00000000E+00  0.00000000E+00
  0.00000000E+00  0.00000000E+00  0.00000000E+00
  0.00000000E+00  0.00000000E+00  0.00000000E+00
  0.00000000E+00  0.00000000E+00  0.00000000E+00
  0.00000000E+00  0.00000000E+00  0.00000000E+00
  0.00000000E+00  0.00000000E+00  0.00000000E+00
  0.00000000E+00  0.00000000E+00  0.00000000E+00
  0.00000000E+00  0.00000000E+00  0.00000000E+00
  0.00000000E+00  0.00000000E+00  0.00000000E+00
  0.00000000E+00  0.00000000E+00  0.00000000E+00
  0.00000000E+00  0.00000000E+00  0.00000000E+00
  0.00000000E+00  0.00000000E+00  0.00000000E+00
  0.00000000E+00  0.00000000E+00  0.00000000E+00
  0.00000000E+00  0.00000000E+00  0.00000000E+00
  0.00000000E+00  0.00000000E+00  0.00000000E+00
  0.00000000E+00  0.00000000E+00  0.00000000E+00
  0.00000000E+00  0.00000000E+00  0.00000000E+00
  0.00000000E+00  0.00000000E+00  0.00000000E+00
  0.00000000E+00  0.00000000E+00  0.00000000E+00
  0.00000000E+00  0.00000000E+00  0.00000000E+00
  0.00000000E+00  0.00000000E+00  0.00000000E+00
  0.00000000E+00  0.00000000E+00  0.00000000E+00
  0.00000000E+00  0.00000000E+00  0.00000000E+00
  0.00000000E+00  0.00000000E+00  0.00000000E+00
  0.00000000E+00  0.00000000E+00  0.00000000E+00
  0.00000000E+00  0.00000000E+00  0.00000000E+00
  0.00000000E+00  0.00000000E+00  0.00000000E+00
  0.00000000E+00  0.00000000E+00  0.00000000E+00
  0.00000000E+00  0.00000000E+00  0.00000000E+00
  0.00000000E+00  0.00000000E+00  0.00000000E+00
  0.00000000E+00  0.00000000E+00  0.00000000E+00
  0.00000000E+00  0.00000000E+00  0.00000000E+00
  0.00000000E+00  0.00000000E+00  0.00000000E+00
  0.00000000E+00  0.00000000E+00  0.00000000E+00
  0.00000000E+00  0.00000000E+00  0.00000000E+00
  0.00000000E+00  0.00000000E+00  0.00000000E+00
  0.00000000E+00  0.00000000E+00  0.00000000E+00
  0.00000000E+00  0.00000000E+00  0.00000000E+00
  0.00000000E+00  0.00000000E+00  0.00000000E+00
  0.00000000E+00  0.00000000E+00  0.00000000E+00
  0.00000000E+00  0.00000000E+00  0.00000000E+00
  0.00000000E+00  0.00000000E+00  0.00000000E+00
  0.00000000E+00  0.00000000E+00  0.00000000E+00
  0.00000000E+00  0.00000000E+00  0.00000000E+00
  0.00000000E+00  0.00000000E+00  0.00000000E+00
  0.00000000E+00  0.00000000E+00  0.00000000E+00
  0.00000000E+00  0.00000000E+00  0.00000000E+00
  0.00000000E+00  0.00000000E+00  0.00000000E+00
  0.00000000E+00  0.00000000E+00  0.00000000E+00
  0.00000000E+00  0.00000000E+00  0.00000000E+00
  0.00000000E+00  0.00000000E+00  0.00000000E+00
  0.00000000E+00  0.00000000E+00  0.00000000E+00
  0.00000000E+00  0.00000000E+00  0.00000000E+00
  0.00000000E+00  0.00000000E+00  0.00000000E+00
  0.00000000E+00  0.00000000E+00  0.00000000E+00
  0.00000000E+00  0.00000000E+00  0.00000000E+00
  0.00000000E+00  0.00000000E+00  0.00000000E+00
  0.00000000E+00  0.00000000E+00  0.00000000E+00
  0.00000000E+00  0.00000000E+00  0.00000000E+00
  0.00000000E+00  0.00000000E+00  0.00000000E+00
  0.00000000E+00  0.00000000E+00  0.00000000E+00
  0.00000000E+00  0.00000000E+00  0.00000000E+00
  0.00000000E+00  0.00000000E+00  0.00000000E+00
  0.00000000E+00  0.00000000E+00  0.00000000E+00
  0.00000000E+00  0.00000000E+00  0.00000000E+00
  0.00000000E+00  0.00000000E+00  0.00000000E+00
  0.00000000E+00  0.00000000E+00  0.00000000E+00
  0.00000000E+00  0.00000000E+00  0.00000000E+00
  0.00000000E+00  0.00000000E+00  0.00000000E+00
  0.00000000E+00  0.00000000E+00  0.00000000E+00
  0.00000000E+00  0.00000000E+00  0.00000000E+00
  0.00000000E+00  0.00000000E+00  0.00000000E+00
  0.00000000E+00  0.00000000E+00  0.00000000E+00
  0.00000000E+00  0.00000000E+00  0.00000000E+00
  0.00000000E+00  0.00000000E+00  0.00000000E+00
  0.00000000E+00  0.00000000E+00  0.00000000E+00
  0.00000000E+00  0.00000000E+00  0.00000000E+00
  0.00000000E+00  0.00000000E+00  0.00000000E+00
  0.00000000E+00  0.00000000E+00  0.00000000E+00
  0.00000000E+00  0.00000000E+00  0.00000000E+00
  0.00000000E+00  0.00000000E+00  0.00000000E+00
  0.00000000E+00  0.00000000E+00  0.00000000E+00
  0.00000000E+00  0.00000000E+00  0.00000000E+00
  0.00000000E+00  0.00000000E+00  0.00000000E+00
  0.00000000E+00  0.00000000E+00  0.00000000E+00
  0.00000000E+00  0.00000000E+00  0.00000000E+00
  0.00000000E+00  0.00000000E+00  0.00000000E+00
  0.00000000E+00  0.00000000E+00  0.00000000E+00
  0.00000000E+00  0.00000000E+00  0.00000000E+00
  0.00000000E+00  0.00000000E+00  0.00000000E+00
  0.00000000E+00  0.00000000E+00  0.00000000E+00
  0.00000000E+00  0.00000000E+00  0.00000000E+00
  0.00000000E+00  0.00000000E+00  0.00000000E+00
  0.00000000E+00  0.00000000E+00  0.00000000E+00
  0.00000000E+00  0.00000000E+00  0.00000000E+00
  0.00000000E+00  0.00000000E+00  0.00000000E+00
  0.00000000E+00  0.00000000E+00  0.00000000E+00
  0.00000000E+00  0.00000000E+00  0.00000000E+00
  0.00000000E+00  0.00000000E+00  0.00000000E+00
  0.00000000E+00  0.00000000E+00  0.00000000E+00
  0.00000000E+00  0.00000000E+00  0.00000000E+00
  0.00000000E+00  0.00000000E+00  0.00000000E+00
  0.00000000E+00  0.00000000E+00  0.00000000E+00
  0.00000000E+00  0.00000000E+00  0.00000000E+00
  0.00000000E+00  0.00000000E+00  0.00000000E+00
  0.00000000E+00  0.00000000E+00  0.00000000E+00
  0.00000000E+00  0.00000000E+00  0.00000000E+00
  0.00000000E+00  0.00000000E+00  0.00000000E+00
  0.00000000E+00  0.00000000E+00  0.00000000E+00
  0.00000000E+00  0.00000000E+00  0.00000000E+00
  0.00000000E+00  0.00000000E+00  0.00000000E+00
  0.00000000E+00  0.00000000E+00  0.00000000E+00
  0.00000000E+00  0.00000000E+00  0.00000000E+00
  0.00000000E+00  0.00000000E+00  0.00000000E+00
  0.00000000E+00  0.00000000E+00  0.00000000E+00
  0.00000000E+00  0.00000000E+00  0.00000000E+00
  0.00000000E+00  0.00000000E+00  0.00000000E+00
  0.00000000E+00  0.00000000E+00  0.00000000E+00
  0.00000000E+00  0.00000000E+00  0.00000000E+00
  0.00000000E+00  0.00000000E+00  0.00000000E+00
  0.00000000E+00  0.00000000E+00  0.00000000E+00
  0.00000000E+00  0.00000000E+00  0.00000000E+00
  0.00000000E+00  0.00000000E+00  0.00000000E+00
  0.00000000E+00  0.00000000E+00  0.00000000E+00
  0.00000000E+00  0.00000000E+00  0.00000000E+00
  0.00000000E+00  0.00000000E+00  0.00000000E+00
  0.00000000E+00  0.00000000E+00  0.00000000E+00
  0.00000000E+00  0.00000000E+00  0.00000000E+00
  0.00000000E+00  0.00000000E+00  0.00000000E+00
  0.00000000E+00  0.00000000E+00  0.00000000E+00
  0.00000000E+00  0.00000000E+00  0.00000000E+00
  0.00000000E+00  0.00000000E+00  0.00000000E+00
  0.00000000E+00  0.00000000E+00  0.00000000E+00
  0.00000000E+00  0.00000000E+00  0.00000000E+00
  0.00000000E+00  0.00000000E+00  0.00000000E+00
  0.00000000E+00  0.00000000E+00  0.00000000E+00
  0.00000000E+00  0.00000000E+00  0.00000000E+00
  0.00000000E+00  0.00000000E+00  0.00000000E+00
  0.00000000E+00  0.00000000E+00  0.00000000E+00
  0.00000000E+00  0.00000000E+00  0.00000000E+00
  0.00000000E+00  0.00000000E+00  0.00000000E+00
  0.00000000E+00  0.00000000E+00  0.00000000E+00
  0.00000000E+00  0.00000000E+00  0.00000000E+00
  0.00000000E+00  0.00000000E+00  0.00000000E+00
  0.00000000E+00  0.00000000E+00  0.00000000E+00
  0.00000000E+00  0.00000000E+00  0.00000000E+00
  0.00000000E+00  0.00000000E+00  0.00000000E+00
  0.00000000E+00  0.00000000E+00  0.00000000E+00
  0.00000000E+00  0.00000000E+00  0.00000000E+00
  0.00000000E+00  0.00000000E+00  0.00000000E+00
  0.00000000E+00  0.00000000E+00  0.00000000E+00
  0.00000000E+00  0.00000000E+00  0.00000000E+00
  0.00000000E+00  0.00000000E+00  0.00000000E+00
  0.00000000E+00  0.00000000E+00  0.00000000E+00
  0.00000000E+00  0.00000000E+00  0.00000000E+00
  0.00000000E+00  0.00000000E+00  0.00000000E+00
  0.00000000E+00  0.00000000E+00  0.00000000E+00
  0.00000000E+00  0.00000000E+00  0.00000000E+00
  0.00000000E+00  0.00000000E+00  0.00000000E+00
  0.00000000E+00  0.00000000E+00  0.00000000E+00
  0.00000000E+00  0.00000000E+00  0.00000000E+00
  0.00000000E+00  0.00000000E+00  0.00000000E+00
  0.00000000E+00  0.00000000E+00  0.00000000E+00
  0.00000000E+00  0.00000000E+00  0.00000000E+00
  0.00000000E+00  0.00000000E+00  0.00000000E+00
  0.00000000E+00  0.00000000E+00  0.00000000E+00
  0.00000000E+00  0.00000000E+00  0.00000000E+00
  0.00000000E+00  0.00000000E+00  0.00000000E+00
  0.00000000E+00  0.00000000E+00  0.00000000E+00
  0.00000000E+00  0.00000000E+00  0.00000000E+00
  0.00000000E+00  0.00000000E+00  0.00000000E+00
  0.00000000E+00  0.00000000E+00  0.00000000E+00
  0.00000000E+00  0.00000000E+00  0.00000000E+00
  0.00000000E+00  0.00000000E+00  0.00000000E+00
  0.00000000E+00  0.00000000E+00  0.00000000E+00
  0.00000000E+00  0.00000000E+00  0.00000000E+00
  0.00000000E+00  0.00000000E+00  0.00000000E+00
  0.00000000E+00  0.00000000E+00  0.00000000E+00
  0.00000000E+00  0.00000000E+00  0.00000000E+00
  0.00000000E+00  0.00000000E+00  0.00000000E+00
  0.00000000E+00  0.00000000E+00  0.00000000E+00
  0.00000000E+00  0.00000000E+00  0.00000000E+00
  0.00000000E+00  0.00000000E+00  0.00000000E+00
  0.00000000E+00  0.00000000E+00  0.00000000E+00
  0.00000000E+00  0.00000000E+00  0.00000000E+00
  0.00000000E+00  0.00000000E+00  0.00000000E+00
  0.00000000E+00  0.00000000E+00  0.00000000E+00
  0.00000000E+00  0.00000000E+00  0.00000000E+00
  0.00000000E+00  0.00000000E+00  0.00000000E+00
  0.00000000E+00  0.00000000E+00  0.00000000E+00
  0.00000000E+00  0.00000000E+00  0.00000000E+00
  0.00000000E+00  0.00000000E+00  0.00000000E+00
  0.00000000E+00  0.00000000E+00  0.00000000E+00
  0.00000000E+00  0.00000000E+00  0.00000000E+00
  0.00000000E+00  0.00000000E+00  0.00000000E+00
  0.00000000E+00  0.00000000E+00  0.00000000E+00
  0.00000000E+00  0.00000000E+00  0.00000000E+00
  0.00000000E+00  0.00000000E+00  0.00000000E+00
  0.00000000E+00  0.00000000E+00  0.00000000E+00
  0.00000000E+00  0.00000000E+00  0.00000000E+00
  0.00000000E+00  0.00000000E+00  0.00000000E+00
  0.00000000E+00  0.00000000E+00  0.00000000E+00
  0.00000000E+00  0.00000000E+00  0.00000000E+00
  0.00000000E+00  0.00000000E+00  0.00000000E+00
  0.00000000E+00  0.00000000E+00  0.00000000E+00
  0.00000000E+00  0.00000000E+00  0.00000000E+00
  0.00000000E+00  0.00000000E+00  0.00000000E+00
  0.00000000E+00  0.00000000E+00  0.00000000E+00
  0.00000000E+00  0.00000000E+00  0.00000000E+00
  0.00000000E+00  0.00000000E+00  0.00000000E+00
  0.00000000E+00  0.00000000E+00  0.00000000E+00
  0.00000000E+00  0.00000000E+00  0.00000000E+00
  0.00000000E+00  0.00000000E+00  0.00000000E+00
  0.00000000E+00  0.00000000E+00  0.00000000E+00
  0.00000000E+00  0.00000000E+00  0.00000000E+00
  0.00000000E+00  0.00000000E+00  0.00000000E+00
  0.00000000E+00  0.00000000E+00  0.00000000E+00
  0.00000000E+00  0.00000000E+00  0.00000000E+00
  0.00000000E+00  0.00000000E+00  0.00000000E+00
  0.00000000E+00  0.00000000E+00  0.00000000E+00
  0.00000000E+00  0.00000000E+00  0.00000000E+00
  0.00000000E+00  0.00000000E+00  0.00000000E+00
  0.00000000E+00  0.00000000E+00  0.00000000E+00
  0.00000000E+00  0.00000000E+00  0.00000000E+00
  0.00000000E+00  0.00000000E+00  0.00000000E+00
  0.00000000E+00  0.00000000E+00  0.00000000E+00
  0.00000000E+00  0.00000000E+00  0.00000000E+00
  0.00000000E+00  0.00000000E+00  0.00000000E+00
  0.00000000E+00  0.00000000E+00  0.00000000E+00
  0.00000000E+00  0.00000000E+00  0.00000000E+00
  0.00000000E+00  0.00000000E+00  0.00000000E+00
  0.00000000E+00  0.00000000E+00  0.00000000E+00