FeMn_288_15                             
    1.000000000000000     
     9.7266779999999997    0.0000000000000000    0.0000000000000000
     0.0000000000000000    8.4235500000000005    0.0000000000000000
     0.0000000000000000    0.0000000000000000   45.0000000000000000
   Fe   Mn
   273    15
Direct
  0.9378784663481455  0.1254385449787279  0.6547138900948362
  0.9373112397597408  0.7813201431749549  0.2562753372116580
  0.4371891679589714  0.7815313251724280  0.2563885672488225
  0.6878285379050514  0.9580124498360824  0.5656208510750877
  0.5630319978718181  0.3758142250628126  0.6545794175198562
  0.6870994876614548  0.2816941097427590  0.2564195102676892
  0.1872913820875865  0.1226095226701707  0.5214519938972146
  0.6883080454082422  0.2808611294996488  0.1251144326787021
  0.3125138858633651  0.2073022116894515  0.5656962005058389
  0.0627011209974769  0.2075959765496793  0.5656423159835179
  0.4379648238433551  0.1262392176323333  0.6547740653823885
  0.8123370767265781  0.0363645940895079  0.3895350922550637
  0.1882173348254153  0.9636949001659014  0.8327846722764740
  0.4378566300444322  0.7814000105183166  0.1249580400796234
  0.3114789065329191  0.8715990193387686  0.5215425307452796
  0.0618652780470994  0.3818130168810536  0.7876760997981975
  0.3117956500868384  0.3651339595497269  0.1672108067738867
  0.1878800627638447  0.2860859687364837  0.3894692476442064
  0.1873791215336345  0.6203459147658626  0.4346116939480895
  0.9381688949761966  0.2800504946490583  0.1249870761249775
  0.6883416842963653  0.9467389781816715  0.2121613690947200
  0.9384839555147694  0.7809147415786056  0.1252663116167102
  0.3116043692243748  0.3809304329120454  0.7878061842848649
  0.1870771542044455  0.7810155408823540  0.1251587502241455
  0.9372285167986596  0.6201314274689651  0.4344007035364854
  0.5625442385558524  0.5365590826733148  0.3894830282670508
  0.0618560999929037  0.7109301552870421  0.6995084091255344
  0.4377943733044735  0.6225048048352956  0.5214515636510012
  0.5637233448132956  0.5284780779577775  0.1253389672273895
  0.8130801806076801  0.5461236240015770  0.7435665594460873
  0.4367283572969348  0.1136993582063275  0.1672236240543250
  0.8130647746628460  0.3753471803092742  0.6547197314542257
  0.3128699549346761  0.0288005261278563  0.1251070602588989
  0.9379283083635483  0.4577103933289254  0.5657884596229602
  0.1872151436635985  0.2914008093063057  0.6106147742276408
  0.5628432897038197  0.7039165771101767  0.4786760636217486
  0.3119281569723185  0.2019953668586923  0.3452418364403863
  0.5633010966527734  0.6966517481667924  0.2124568077598571
  0.8132059752357987  0.5290941593063191  0.1252262919545011
  0.9365673928318728  0.1313875772428750  0.7876675952217558
  0.5630175677131100  0.8664611542818308  0.3005143588381431
  0.4376154841103910  0.7920217882395271  0.6105682924025033
  0.4381714556221070  0.6258076722213167  0.6547500131488678
  0.4381021307070951  0.2813141120815404  0.1252681792509276
  0.0620597278335792  0.7018469964789651  0.3452384588374453
  0.1881066063747864  0.6257009239683149  0.6546965691511306
  0.9372170994987155  0.1206285277414562  0.4344213675779595
  0.4368494497502714  0.6312122758298265  0.7878061552739282
  0.3118531497459844  0.7022368577834505  0.3452785836706290
  0.9382064110323427  0.6162576937434103  0.3005614356506721
  0.5628226713300987  0.1964415329699714  0.2123350096218999
  0.5630321543174707  0.2135785481042215  0.8327637742562288
  0.1880383168180842  0.4467902942032904  0.2121920196376448
  0.5617792335022788  0.3811270869246079  0.7877214736713689
  0.4370769962699308  0.2818765915771894  0.2564149902512373
  0.4372932170608335  0.7859959680079396  0.3894347532491552
  0.4380719470906441  0.9630080826035966  0.8328113362635302
  0.6872023880596626  0.4612944064695826  0.6994112485406980
  0.0622854346722433  0.5318747987074672  0.2565263552599363
  0.1868375068760444  0.2806529619802146  0.1251751199857741
  0.0624179543393637  0.5414505200511807  0.6104685881894516
  0.0622911820804812  0.3704084786801649  0.4343187014093574
  0.6878760995529934  0.1199645067504413  0.4342303095474598
  0.6873257756785447  0.4517488533645606  0.3451077381216374
  0.1879029235522407  0.1164450958641545  0.3005193925259059
  0.9371257000194119  0.1157992010481046  0.1671304599654348
  0.6879404824516787  0.6202791585701355  0.4341944620268186
  0.4374458208912110  0.9578198848541700  0.5656100764578615
  0.9376658230636576  0.4555678625248591  0.4785235290999594
  0.5622490646002570  0.2111677512348774  0.6994318320843079
  0.5628321777739991  0.8761744975307649  0.6547524743458789
  0.3122417259125464  0.8642093669439102  0.1669864036337381
  0.1871416949866815  0.1144699272939135  0.1672527916359541
  0.3123531659267589  0.0419372196787250  0.6105870640971049
  0.1873340463739682  0.7864038247478574  0.3894285425753395
  0.6877544487516163  0.7859185482890323  0.3894644836972642
  0.1871101580841730  0.9520798212997880  0.3451988511005251
  0.8128365862073225  0.2053465704963141  0.4785865625347391
  0.6870124716697800  0.6151375101892418  0.1673311923597265
  0.6870366113013930  0.7977754821120675  0.8747811015981238
  0.8119682859708077  0.0483819272324578  0.8747823957410029
  0.0625657192009701  0.3726864309941328  0.5215678840850613
  0.8123764107926567  0.8660825558764493  0.3007224997529561
  0.8131426142461976  0.2132620373618695  0.8327828651826226
  0.3120479320656501  0.2051428340032554  0.4785026302649324
  0.0631276075472272  0.0289758801907369  0.1252017640470730
  0.6878145937534502  0.9557202508467514  0.4786441724338394
  0.4380221855860599  0.2977347190730713  0.8747100061768709
  0.9367503193279567  0.6315376804764575  0.7878047794847869
  0.8124689389319457  0.8698424725009797  0.4344160260870375
  0.5620503840460027  0.5318318928956316  0.2564353594965252
  0.4372199963889115  0.7977432046914761  0.8748095495705361
  0.5622791185396468  0.0418338801929229  0.6105408825713574
  0.3129321978888026  0.5368977963608109  0.3895022497643948
  0.0630453078391776  0.3666898085264552  0.3006886638758979
  0.3122111435015905  0.2111659526630832  0.6993763764658465
  0.5627134873003088  0.3668621755059371  0.3007278050846010
  0.8119335862967155  0.5490782137568813  0.8746726799793694
  0.0626509128689703  0.5363826390990255  0.3895141179639687
  0.8126602233454956  0.3662913080816397  0.3005631200942667
  0.0621334559242124  0.5483780429618208  0.8747024497366104
  0.9371014512730637  0.4610848862072958  0.6993970475537838
  0.3126043760633073  0.3701069905424378  0.4342474023062013
  0.3119123237055911  0.3724818096313082  0.5215025753981607
  0.0608668469229668  0.7054058007430233  0.4788169279843847
  0.4371195338892661  0.6198102755305287  0.4341695731241393
  0.0629132391925099  0.5461281184302066  0.7435557301395497
  0.0629663517965559  0.8754092807378208  0.6547351264284037
  0.1873758692548596  0.7814985982938463  0.2564003200138988
  0.1874550047508317  0.7917603137561193  0.6106357939752796
  0.9369794632474472  0.1226119184861170  0.5215153434900606
  0.6877384200592181  0.7961960308309277  0.7435996035265473
  0.0627599911746961  0.2055390170415337  0.4786138956760750
  0.5629317153031725  0.7132740566417591  0.8327435469192829
  0.1878446191991904  0.7960337053044862  0.7436030061389417
  0.9366375248084220  0.7973285155550038  0.8746800806792964
  0.0621080969367020  0.0316872139853971  0.2564947781318502
  0.3123053013104035  0.5490654698399986  0.8746743518894483
  0.5627214020454739  0.0285463255372202  0.1250365286246486
  0.5628030354500647  0.3730792107643676  0.5215469455761568
  0.4371036632021820  0.9563676231129431  0.4785941245784057
  0.1871357290015750  0.6138579847734582  0.1671528044315793
  0.8122429514241212  0.7021281636037078  0.3451987835455818
  0.4380357313712045  0.7959166949556130  0.7436560379518495
  0.1876825597919792  0.7972177931099138  0.8746865854266648
  0.8127148499958092  0.5358244116303565  0.3895195058108300
  0.8122787478490410  0.5313808437202595  0.2562744528635473
  0.9369280891958585  0.6147220308245331  0.1671798622561634
  0.4366100498689352  0.1313254555150028  0.7878974660593353
  0.9371986637007904  0.9612811732435141  0.6994300020870353
  0.8117188538349982  0.8815538749944213  0.7877901806510377
  0.3121788312393330  0.5316541329805140  0.2563325154418981
  0.6871913940968812  0.9618524246621529  0.6994483482335444
  0.1879783766836904  0.9457821055562474  0.2120293785776453
  0.3126829092433207  0.0461140467218070  0.7435139888600022
  0.0625260986766370  0.0357041068378913  0.3894541533401029
  0.6877823137830325  0.2962146719941789  0.7435470113098555
  0.9371741074718426  0.2973529202017392  0.8748875421631384
  0.9377663809109555  0.6230051266360456  0.5214090353877839
  0.4379628751898623  0.9458602806185258  0.2121719857908644
  0.3117520228893302  0.8700962325381102  0.4343223117576366
  0.4374477556437377  0.6142387497865266  0.1673293854149900
  0.3128278928707656  0.0360017387614537  0.3894904337920279
  0.3128969416583957  0.3754832806972657  0.6547848316954376
  0.8129060972253218  0.8718112708094794  0.5214087390536178
  0.6870913911705875  0.2915454352362707  0.6105504040607806
  0.4372687652075609  0.2915910778543402  0.6105897729229537
  0.8130066542264909  0.0293584087128823  0.1252290173292986
  0.0624218691247971  0.8701859862669100  0.4342369768011748
  0.5619000656742524  0.8812168250933430  0.7878543998720920
  0.0629768609930839  0.7136034185413906  0.8326748356869216
  0.4371721681167366  0.4571509903520635  0.5655557277960330
  0.1868086340188712  0.6314738571055369  0.7878746730801846
  0.9382425371003630  0.9464088874729915  0.2119721059450213
  0.3133827127805892  0.7077339815830989  0.5656669754511088
  0.1875447225091755  0.6162082419687526  0.3005345526842763
  0.3122865633496163  0.5419776935423372  0.6106041232757995
  0.9368606483096481  0.2816220312398773  0.2564246328359204
  0.1882842074955118  0.1257200154482534  0.6547231930267157
  0.3129985007579896  0.1959833319923982  0.2124148155979459
  0.4386455118853139  0.1218859484310269  0.5213518017066732
  0.0628240288620138  0.8720522512647874  0.5215259612918126
  0.4376052585144029  0.6162190315820018  0.3005545977774193
  0.6884559047003899  0.4467285850734654  0.2120604225662662
  0.3129284875830033  0.8760777720887467  0.6548932471728778
  0.8129175515568513  0.6971432463193564  0.2122011667508285
  0.8123623029066929  0.2077004879006807  0.5656857265991450
  0.3122069094112175  0.0480564845363317  0.8748134279291682
  0.0635950116226012  0.1969700199322578  0.2121750439924787
  0.9374852406026746  0.2917705240475852  0.6106823822565048
  0.6868146947801678  0.7814150199077545  0.2565042477735117
  0.9380755771511593  0.2862095457285698  0.3895575452492818
  0.0628620696794367  0.0462886374265591  0.7436419652652114
  0.4379798616416810  0.2960130234428255  0.7435665594562705
  0.1881375764441547  0.9556733057004515  0.4784958638270477
  0.9380010751068724  0.2961558780762766  0.7436275144044141
  0.8124234360255619  0.0315822695600068  0.2564086896225607
  0.0620379097782309  0.8645295474327762  0.1672643190228340
  0.9384427793100951  0.4635285493127952  0.8326720576613369
  0.4373947244829187  0.2863760777131491  0.3895583363558204
  0.6880666265222624  0.6163606922459637  0.3004603849928916
  0.1875937786216156  0.9575021252089690  0.5656358002462192
  0.3130312802354858  0.3666381741845867  0.3006642170701174
  0.1874869263304326  0.4543165998761947  0.4786685809251928
  0.5620415654331598  0.7115905054126488  0.6994178267751612
  0.5628608464214783  0.5461505188633784  0.7435329252642500
  0.8119851829736667  0.8649372948706584  0.1672007142446285
  0.5621125328592524  0.3700062269861744  0.4345648433431363
  0.3131544566989391  0.8661517372586082  0.3006105768500758
  0.6879638905366421  0.6258499907941548  0.6547600147104902
  0.8125186533423425  0.7133069851683386  0.8327183868746342
  0.6867525298164884  0.6226442050274177  0.5214283825507789
  0.6867837404794945  0.6312645523653101  0.7878108918679744
  0.6876609530576662  0.9629033112584072  0.8327084865460007
  0.9376041795363950  0.9635330131981998  0.8327262330679382
  0.5620554762953160  0.5487236962036751  0.8747531603801852
  0.0622788652026425  0.2017327519091812  0.3452383704402742
  0.4381776266203264  0.4467183338624359  0.2121691983791640
  0.1872643405805413  0.9614276869056210  0.6994959062548852
  0.0621399157435229  0.0488434841432046  0.8749272605539870
  0.8129192670585597  0.8755029034850225  0.6548584142671970
  0.4374043508425814  0.4555450406401757  0.4785204311210539
  0.9371060708564078  0.4514746281188567  0.3452674248117865
  0.9378837499633034  0.4465220495567399  0.2121267044478575
  0.1870185821811864  0.1311240840988140  0.7877352269485873
  0.6872204548581954  0.9527792072345972  0.3452053453651981
  0.6868686018626299  0.1224980666306021  0.5215549911614422
  0.8123639891946333  0.0420321315010974  0.6107182164074892
  0.1869358854953340  0.4515015712806170  0.3451774686587810
  0.3134815312391246  0.7134023763226348  0.8327087754609906
  0.9381639588380548  0.7861162879534012  0.3894635081166793
  0.5617836490175039  0.2022649711894350  0.3452836843133857
  0.9371015571404545  0.7922369869933109  0.6106376553770463
  0.6873486485641038  0.7920300786501169  0.6106179601421132
  0.5621469219289696  0.0318753768222968  0.2563375930773162
  0.5617065628361281  0.3644558473716509  0.1671585697923219
  0.5620260613085551  0.0483486370457059  0.8747494752478647
  0.6875282233134330  0.1147962344140403  0.1671549026380454
  0.0627177166258100  0.3642854994767954  0.1671482519850580
  0.0615957586259460  0.8814956808075159  0.7878131249952723
  0.6873338454180572  0.4556701882045552  0.4786676903973018
  0.0622761515917908  0.0419625481639721  0.6106860696374413
  0.6880344649934916  0.4634569903957625  0.8327206154327460
  0.5623962143783989  0.8700958912189495  0.4345764486269574
  0.6875050238375189  0.4568983067349657  0.5654904513162288
  0.0628267095865322  0.6973559297016948  0.2123814705975437
  0.9373998624255471  0.9579950567621311  0.5656017043242131
  0.6877843370812148  0.7810807132813583  0.1250397094736672
  0.8124675433830483  0.3644243697478559  0.1670876161585645
  0.3119510444413074  0.8812074484032548  0.7877519030185430
  0.3121445530509264  0.0319765983611016  0.2564005909900922
  0.1870922168289723  0.2974182428355071  0.8749245675350180
  0.3134428324799152  0.6967773849200355  0.2122282755215827
  0.4374217718503442  0.9524872612780186  0.3452263275915598
  0.3128061780557784  0.2134373210863432  0.8327607041596619
  0.8126079923082862  0.3716183789216273  0.5214682740402276
  0.0627167251110596  0.3748006072901273  0.6548354065976423
  0.3133034439010149  0.7059727507095517  0.4786571252021062
  0.3126430155501269  0.5460159425946458  0.7435464229764779
  0.4376702136496344  0.1168380836091200  0.3005217777236098
  0.4370521810112873  0.4616672845886124  0.6994146312912706
  0.9367149122082956  0.9548425474901818  0.4784846909656579
  0.8119868402753314  0.7079361600787571  0.5656703037853950
  0.8127450334257912  0.2023691323555432  0.3452491709524680
  0.6868780277433727  0.1314407690867716  0.7878465366003524
  0.5625035145252582  0.7074254069642627  0.5655086040757167
  0.4372785370815932  0.4525072049555850  0.3451816769515610
  0.9370572242670140  0.9522903256554370  0.3452536999131036
  0.8120071462998627  0.7112398685214911  0.6994502516918117
  0.6878278350406177  0.1259392645554922  0.6547636126094161
  0.5632426031627245  0.0358853733211277  0.3893427288867636
  0.4378685252441707  0.4634788628371693  0.8327667408788739
  0.1878021739604607  0.4572959762260122  0.5655350191700554
  0.0618742777235063  0.2111323081456862  0.6993828511551654
  0.6863718327681109  0.2975230880095252  0.8747010355930555
  0.0620025703038117  0.5284284957612723  0.1252166391399444
  0.9382416608500930  0.1165505178125519  0.3004910725754729
  0.8120473375179078  0.3813671344664240  0.7877459952084009
  0.5621234190457089  0.2045043040280780  0.4786152201277648
  0.1872640452247731  0.2820914455283631  0.2564497844283138
  0.5622465674123535  0.5414184100248780  0.6106436192310493
  0.8123814089799083  0.3705100713540721  0.4344834448334488
  0.5627394377218865  0.2071114764321684  0.5656312512544812
  0.9377048868935621  0.7959453395090783  0.7435363074685544
  0.8118072960142780  0.2110449083820672  0.6993865018682653
  0.4367326977829812  0.9618398297944104  0.6993639734354948
  0.1873651198145178  0.1204144357224126  0.4344733139451294
  0.8130835410230320  0.0464173619935843  0.7435944879174701
  0.8123757059247645  0.5418284019731121  0.6105756436080068
  0.1877039263243143  0.2961844731346823  0.7435501539710273
  0.1869566074143352  0.4614280175440537  0.6994354729701064
  0.8129592769226501  0.7058451896831749  0.4785401156114908
  0.1874650817877656  0.4634781650191408  0.8327093453058074
  0.0630327195853172  0.8660865985132566  0.3006011256807207
  0.0620428716337337  0.7078333305751345  0.5657342398060131
  0.5622341987773221  0.8652258402115595  0.1666506665710833
  0.6879409445266045  0.1171595258776875  0.3005168971606001
  0.4372322956508315  0.1203182240066982  0.4342221321337273
  0.5632558875870028  0.0464579983123223  0.7436264007782786
  0.3129095078725904  0.5287472330138049  0.1255441902638586
  0.6876595109223943  0.2855389739621119  0.3894200666578020
  0.5620819069676115  0.7025471385446632  0.3453114912143872
  0.9378843682149215  0.6252361044212214  0.6547020587799088
  0.0631632576161187  0.2131704081838241  0.8332662601179801
  0.3119802871987496  0.7113735760479845  0.6994194708740795
  0.1873982676186562  0.6229386789916986  0.5214147144647648
  0.8131374336187462  0.1970939664235549  0.2123878235371343
  0.5625098136080759  0.8720308731895337  0.5214891384321916
 
  0.00000000E+00  0.00000000E+00  0.00000000E+00
  0.00000000E+00  0.00000000E+00  0.00000000E+00
  0.00000000E+00  0.00000000E+00  0.00000000E+00
  0.00000000E+00  0.00000000E+00  0.00000000E+00
  0.00000000E+00  0.00000000E+00  0.00000000E+00
  0.00000000E+00  0.00000000E+00  0.00000000E+00
  0.00000000E+00  0.00000000E+00  0.00000000E+00
  0.00000000E+00  0.00000000E+00  0.00000000E+00
  0.00000000E+00  0.00000000E+00  0.00000000E+00
  0.00000000E+00  0.00000000E+00  0.00000000E+00
  0.00000000E+00  0.00000000E+00  0.00000000E+00
  0.00000000E+00  0.00000000E+00  0.00000000E+00
  0.00000000E+00  0.00000000E+00  0.00000000E+00
  0.00000000E+00  0.00000000E+00  0.00000000E+00
  0.00000000E+00  0.00000000E+00  0.00000000E+00
  0.00000000E+00  0.00000000E+00  0.00000000E+00
  0.00000000E+00  0.00000000E+00  0.00000000E+00
  0.00000000E+00  0.00000000E+00  0.00000000E+00
  0.00000000E+00  0.00000000E+00  0.00000000E+00
  0.00000000E+00  0.00000000E+00  0.00000000E+00
  0.00000000E+00  0.00000000E+00  0.00000000E+00
  0.00000000E+00  0.00000000E+00  0.00000000E+00
  0.00000000E+00  0.00000000E+00  0.00000000E+00
  0.00000000E+00  0.00000000E+00  0.00000000E+00
  0.00000000E+00  0.00000000E+00  0.00000000E+00
  0.00000000E+00  0.00000000E+00  0.00000000E+00
  0.00000000E+00  0.00000000E+00  0.00000000E+00
  0.00000000E+00  0.00000000E+00  0.00000000E+00
  0.00000000E+00  0.00000000E+00  0.00000000E+00
  0.00000000E+00  0.00000000E+00  0.00000000E+00
  0.00000000E+00  0.00000000E+00  0.00000000E+00
  0.00000000E+00  0.00000000E+00  0.00000000E+00
  0.00000000E+00  0.00000000E+00  0.00000000E+00
  0.00000000E+00  0.00000000E+00  0.00000000E+00
  0.00000000E+00  0.00000000E+00  0.00000000E+00
  0.00000000E+00  0.00000000E+00  0.00000000E+00
  0.00000000E+00  0.00000000E+00  0.00000000E+00
  0.00000000E+00  0.00000000E+00  0.00000000E+00
  0.00000000E+00  0.00000000E+00  0.00000000E+00
  0.00000000E+00  0.00000000E+00  0.00000000E+00
  0.00000000E+00  0.00000000E+00  0.00000000E+00
  0.00000000E+00  0.00000000E+00  0.00000000E+00
  0.00000000E+00  0.00000000E+00  0.00000000E+00
  0.00000000E+00  0.00000000E+00  0.00000000E+00
  0.00000000E+00  0.00000000E+00  0.00000000E+00
  0.00000000E+00  0.00000000E+00  0.00000000E+00
  0.00000000E+00  0.00000000E+00  0.00000000E+00
  0.00000000E+00  0.00000000E+00  0.00000000E+00
  0.00000000E+00  0.00000000E+00  0.00000000E+00
  0.00000000E+00  0.00000000E+00  0.00000000E+00
  0.00000000E+00  0.00000000E+00  0.00000000E+00
  0.00000000E+00  0.00000000E+00  0.00000000E+00
  0.00000000E+00  0.00000000E+00  0.00000000E+00
  0.00000000E+00  0.00000000E+00  0.00000000E+00
  0.00000000E+00  0.00000000E+00  0.00000000E+00
  0.00000000E+00  0.00000000E+00  0.00000000E+00
  0.00000000E+00  0.00000000E+00  0.00000000E+00
  0.00000000E+00  0.00000000E+00  0.00000000E+00
  0.00000000E+00  0.00000000E+00  0.00000000E+00
  0.00000000E+00  0.00000000E+00  0.00000000E+00
  0.00000000E+00  0.00000000E+00  0.00000000E+00
  0.00000000E+00  0.00000000E+00  0.00000000E+00
  0.00000000E+00  0.00000000E+00  0.00000000E+00
  0.00000000E+00  0.00000000E+00  0.00000000E+00
  0.00000000E+00  0.00000000E+00  0.00000000E+00
  0.00000000E+00  0.00000000E+00  0.00000000E+00
  0.00000000E+00  0.00000000E+00  0.00000000E+00
  0.00000000E+00  0.00000000E+00  0.00000000E+00
  0.00000000E+00  0.00000000E+00  0.00000000E+00
  0.00000000E+00  0.00000000E+00  0.00000000E+00
  0.00000000E+00  0.00000000E+00  0.00000000E+00
  0.00000000E+00  0.00000000E+00  0.00000000E+00
  0.00000000E+00  0.00000000E+00  0.00000000E+00
  0.00000000E+00  0.00000000E+00  0.00000000E+00
  0.00000000E+00  0.00000000E+00  0.00000000E+00
  0.00000000E+00  0.00000000E+00  0.00000000E+00
  0.00000000E+00  0.00000000E+00  0.00000000E+00
  0.00000000E+00  0.00000000E+00  0.00000000E+00
  0.00000000E+00  0.00000000E+00  0.00000000E+00
  0.00000000E+00  0.00000000E+00  0.00000000E+00
  0.00000000E+00  0.00000000E+00  0.00000000E+00
  0.00000000E+00  0.00000000E+00  0.00000000E+00
  0.00000000E+00  0.00000000E+00  0.00000000E+00
  0.00000000E+00  0.00000000E+00  0.00000000E+00
  0.00000000E+00  0.00000000E+00  0.00000000E+00
  0.00000000E+00  0.00000000E+00  0.00000000E+00
  0.00000000E+00  0.00000000E+00  0.00000000E+00
  0.00000000E+00  0.00000000E+00  0.00000000E+00
  0.00000000E+00  0.00000000E+00  0.00000000E+00
  0.00000000E+00  0.00000000E+00  0.00000000E+00
  0.00000000E+00  0.00000000E+00  0.00000000E+00
  0.00000000E+00  0.00000000E+00  0.00000000E+00
  0.00000000E+00  0.00000000E+00  0.00000000E+00
  0.00000000E+00  0.00000000E+00  0.00000000E+00
  0.00000000E+00  0.00000000E+00  0.00000000E+00
  0.00000000E+00  0.00000000E+00  0.00000000E+00
  0.00000000E+00  0.00000000E+00  0.00000000E+00
  0.00000000E+00  0.00000000E+00  0.00000000E+00
  0.00000000E+00  0.00000000E+00  0.00000000E+00
  0.00000000E+00  0.00000000E+00  0.00000000E+00
  0.00000000E+00  0.00000000E+00  0.00000000E+00
  0.00000000E+00  0.00000000E+00  0.00000000E+00
  0.00000000E+00  0.00000000E+00  0.00000000E+00
  0.00000000E+00  0.00000000E+00  0.00000000E+00
  0.00000000E+00  0.00000000E+00  0.00000000E+00
  0.00000000E+00  0.00000000E+00  0.00000000E+00
  0.00000000E+00  0.00000000E+00  0.00000000E+00
  0.00000000E+00  0.00000000E+00  0.00000000E+00
  0.00000000E+00  0.00000000E+00  0.00000000E+00
  0.00000000E+00  0.00000000E+00  0.00000000E+00
  0.00000000E+00  0.00000000E+00  0.00000000E+00
  0.00000000E+00  0.00000000E+00  0.00000000E+00
  0.00000000E+00  0.00000000E+00  0.00000000E+00
  0.00000000E+00  0.00000000E+00  0.00000000E+00
  0.00000000E+00  0.00000000E+00  0.00000000E+00
  0.00000000E+00  0.00000000E+00  0.00000000E+00
  0.00000000E+00  0.00000000E+00  0.00000000E+00
  0.00000000E+00  0.00000000E+00  0.00000000E+00
  0.00000000E+00  0.00000000E+00  0.00000000E+00
  0.00000000E+00  0.00000000E+00  0.00000000E+00
  0.00000000E+00  0.00000000E+00  0.00000000E+00
  0.00000000E+00  0.00000000E+00  0.00000000E+00
  0.00000000E+00  0.00000000E+00  0.00000000E+00
  0.00000000E+00  0.00000000E+00  0.00000000E+00
  0.00000000E+00  0.00000000E+00  0.00000000E+00
  0.00000000E+00  0.00000000E+00  0.00000000E+00
  0.00000000E+00  0.00000000E+00  0.00000000E+00
  0.00000000E+00  0.00000000E+00  0.00000000E+00
  0.00000000E+00  0.00000000E+00  0.00000000E+00
  0.00000000E+00  0.00000000E+00  0.00000000E+00
  0.00000000E+00  0.00000000E+00  0.00000000E+00
  0.00000000E+00  0.00000000E+00  0.00000000E+00
  0.00000000E+00  0.00000000E+00  0.00000000E+00
  0.00000000E+00  0.00000000E+00  0.00000000E+00
  0.00000000E+00  0.00000000E+00  0.00000000E+00
  0.00000000E+00  0.00000000E+00  0.00000000E+00
  0.00000000E+00  0.00000000E+00  0.00000000E+00
  0.00000000E+00  0.00000000E+00  0.00000000E+00
  0.00000000E+00  0.00000000E+00  0.00000000E+00
  0.00000000E+00  0.00000000E+00  0.00000000E+00
  0.00000000E+00  0.00000000E+00  0.00000000E+00
  0.00000000E+00  0.00000000E+00  0.00000000E+00
  0.00000000E+00  0.00000000E+00  0.00000000E+00
  0.00000000E+00  0.00000000E+00  0.00000000E+00
  0.00000000E+00  0.00000000E+00  0.00000000E+00
  0.00000000E+00  0.00000000E+00  0.00000000E+00
  0.00000000E+00  0.00000000E+00  0.00000000E+00
  0.00000000E+00  0.00000000E+00  0.00000000E+00
  0.00000000E+00  0.00000000E+00  0.00000000E+00
  0.00000000E+00  0.00000000E+00  0.00000000E+00
  0.00000000E+00  0.00000000E+00  0.00000000E+00
  0.00000000E+00  0.00000000E+00  0.00000000E+00
  0.00000000E+00  0.00000000E+00  0.00000000E+00
  0.00000000E+00  0.00000000E+00  0.00000000E+00
  0.00000000E+00  0.00000000E+00  0.00000000E+00
  0.00000000E+00  0.00000000E+00  0.00000000E+00
  0.00000000E+00  0.00000000E+00  0.00000000E+00
  0.00000000E+00  0.00000000E+00  0.00000000E+00
  0.00000000E+00  0.00000000E+00  0.00000000E+00
  0.00000000E+00  0.00000000E+00  0.00000000E+00
  0.00000000E+00  0.00000000E+00  0.00000000E+00
  0.00000000E+00  0.00000000E+00  0.00000000E+00
  0.00000000E+00  0.00000000E+00  0.00000000E+00
  0.00000000E+00  0.00000000E+00  0.00000000E+00
  0.00000000E+00  0.00000000E+00  0.00000000E+00
  0.00000000E+00  0.00000000E+00  0.00000000E+00
  0.00000000E+00  0.00000000E+00  0.00000000E+00
  0.00000000E+00  0.00000000E+00  0.00000000E+00
  0.00000000E+00  0.00000000E+00  0.00000000E+00
  0.00000000E+00  0.00000000E+00  0.00000000E+00
  0.00000000E+00  0.00000000E+00  0.00000000E+00
  0.00000000E+00  0.00000000E+00  0.00000000E+00
  0.00000000E+00  0.00000000E+00  0.00000000E+00
  0.00000000E+00  0.00000000E+00  0.00000000E+00
  0.00000000E+00  0.00000000E+00  0.00000000E+00
  0.00000000E+00  0.00000000E+00  0.00000000E+00
  0.00000000E+00  0.00000000E+00  0.00000000E+00
  0.00000000E+00  0.00000000E+00  0.00000000E+00
  0.00000000E+00  0.00000000E+00  0.00000000E+00
  0.00000000E+00  0.00000000E+00  0.00000000E+00
  0.00000000E+00  0.00000000E+00  0.00000000E+00
  0.00000000E+00  0.00000000E+00  0.00000000E+00
  0.00000000E+00  0.00000000E+00  0.00000000E+00
  0.00000000E+00  0.00000000E+00  0.00000000E+00
  0.00000000E+00  0.00000000E+00  0.00000000E+00
  0.00000000E+00  0.00000000E+00  0.00000000E+00
  0.00000000E+00  0.00000000E+00  0.00000000E+00
  0.00000000E+00  0.00000000E+00  0.00000000E+00
  0.00000000E+00  0.00000000E+00  0.00000000E+00
  0.00000000E+00  0.00000000E+00  0.00000000E+00
  0.00000000E+00  0.00000000E+00  0.00000000E+00
  0.00000000E+00  0.00000000E+00  0.00000000E+00
  0.00000000E+00  0.00000000E+00  0.00000000E+00
  0.00000000E+00  0.00000000E+00  0.00000000E+00
  0.00000000E+00  0.00000000E+00  0.00000000E+00
  0.00000000E+00  0.00000000E+00  0.00000000E+00
  0.00000000E+00  0.00000000E+00  0.00000000E+00
  0.00000000E+00  0.00000000E+00  0.00000000E+00
  0.00000000E+00  0.00000000E+00  0.00000000E+00
  0.00000000E+00  0.00000000E+00  0.00000000E+00
  0.00000000E+00  0.00000000E+00  0.00000000E+00
  0.00000000E+00  0.00000000E+00  0.00000000E+00
  0.00000000E+00  0.00000000E+00  0.00000000E+00
  0.00000000E+00  0.00000000E+00  0.00000000E+00
  0.00000000E+00  0.00000000E+00  0.00000000E+00
  0.00000000E+00  0.00000000E+00  0.00000000E+00
  0.00000000E+00  0.00000000E+00  0.00000000E+00
  0.00000000E+00  0.00000000E+00  0.00000000E+00
  0.00000000E+00  0.00000000E+00  0.00000000E+00
  0.00000000E+00  0.00000000E+00  0.00000000E+00
  0.00000000E+00  0.00000000E+00  0.00000000E+00
  0.00000000E+00  0.00000000E+00  0.00000000E+00
  0.00000000E+00  0.00000000E+00  0.00000000E+00
  0.00000000E+00  0.00000000E+00  0.00000000E+00
  0.00000000E+00  0.00000000E+00  0.00000000E+00
  0.00000000E+00  0.00000000E+00  0.00000000E+00
  0.00000000E+00  0.00000000E+00  0.00000000E+00
  0.00000000E+00  0.00000000E+00  0.00000000E+00
  0.00000000E+00  0.00000000E+00  0.00000000E+00
  0.00000000E+00  0.00000000E+00  0.00000000E+00
  0.00000000E+00  0.00000000E+00  0.00000000E+00
  0.00000000E+00  0.00000000E+00  0.00000000E+00
  0.00000000E+00  0.00000000E+00  0.00000000E+00
  0.00000000E+00  0.00000000E+00  0.00000000E+00
  0.00000000E+00  0.00000000E+00  0.00000000E+00
  0.00000000E+00  0.00000000E+00  0.00000000E+00
  0.00000000E+00  0.00000000E+00  0.00000000E+00
  0.00000000E+00  0.00000000E+00  0.00000000E+00
  0.00000000E+00  0.00000000E+00  0.00000000E+00
  0.00000000E+00  0.00000000E+00  0.00000000E+00
  0.00000000E+00  0.00000000E+00  0.00000000E+00
  0.00000000E+00  0.00000000E+00  0.00000000E+00
  0.00000000E+00  0.00000000E+00  0.00000000E+00
  0.00000000E+00  0.00000000E+00  0.00000000E+00
  0.00000000E+00  0.00000000E+00  0.00000000E+00
  0.00000000E+00  0.00000000E+00  0.00000000E+00
  0.00000000E+00  0.00000000E+00  0.00000000E+00
  0.00000000E+00  0.00000000E+00  0.00000000E+00
  0.00000000E+00  0.00000000E+00  0.00000000E+00
  0.00000000E+00  0.00000000E+00  0.00000000E+00
  0.00000000E+00  0.00000000E+00  0.00000000E+00
  0.00000000E+00  0.00000000E+00  0.00000000E+00
  0.00000000E+00  0.00000000E+00  0.00000000E+00
  0.00000000E+00  0.00000000E+00  0.00000000E+00
  0.00000000E+00  0.00000000E+00  0.00000000E+00
  0.00000000E+00  0.00000000E+00  0.00000000E+00
  0.00000000E+00  0.00000000E+00  0.00000000E+00