CuInSe2gb                               
   1.00000000000000     
     9.7266780392896699    0.0000000000000000    0.0000000000000000
     0.0000000000000000    8.4235502764570693    0.0000000000000000
     0.0000000000000000    0.0000000000000000   45.0000000000000000
   Fe   Mn
   274    14
Direct
  0.0616239841443028  0.0332245532163878  0.1244266145965335
  0.3137110203809702  0.8741879625633902  0.6550458425226536
  0.1860868190550200  0.1251204390380159  0.7883710169479464
  0.4401611546588347  0.2880585543398592  0.3892870052333928
  0.3148871900632820  0.7115840567551862  0.8335306081858405
  0.8158538460423060  0.2127692334249957  0.8336128779219959
  0.1891347259602873  0.9623735294188626  0.8338436261381442
  0.5616780893292875  0.2062563491893902  0.5657863590449650
  0.0635207614407086  0.0415363700903715  0.7440453005222363
  0.8113895926091270  0.8725205218580324  0.5217261215451462
  0.1883414859327414  0.2915020301910269  0.7441425282670829
  0.9370340681047729  0.4538487460625933  0.3447935297759079
  0.9394375394165142  0.2876270476183490  0.3891695654208551
  0.8123009418367461  0.0456012638823144  0.8755759475090067
  0.1859998726068519  0.7892112330667012  0.6106368549025867
  0.5643586945210456  0.0380068104049385  0.3892769024027464
  0.9410765200997968  0.9624586845131625  0.8337608697073658
  0.3134867460587329  0.5448361434392296  0.8757292482603617
  0.6884830960628908  0.2914764990352336  0.7441424281673263
  0.1845704107739271  0.6155630281261087  0.1663780594054232
  0.8121878877083881  0.2052927316057913  0.4784409888404305
  0.8108257285703581  0.5388532042609674  0.6107183710557325
  0.3130569088602659  0.8716847038278607  0.4342308962855737
  0.8119759930522399  0.0369580524000206  0.2559600834644633
  0.6871706167967907  0.9537309070378915  0.3448879445134600
  0.9339657067924336  0.1159586534378348  0.1667101611618393
  0.0623249465633533  0.8724977445117218  0.5216057978073158
  0.5614825146874930  0.5367041090829456  0.2557712234951421
  0.6866651919162650  0.7946774080459600  0.8756580738334040
  0.5590564193002652  0.3661564603400720  0.1663297038499152
  0.4385027240496651  0.7917394285291551  0.7441999962458941
  0.8117991018830052  0.7062187109859067  0.5657635486996372
  0.5610624696179766  0.8743291938193608  0.7883164255187677
  0.6865776625922856  0.1221816894270867  0.5216818557549482
  0.8138514956247437  0.3738876385096470  0.6550802125127647
  0.9403515392922470  0.4624891197846025  0.8337410451743982
  0.0616233458993758  0.2072996974492984  0.6997545555608971
  0.4368020084110288  0.9571582236272653  0.6997274817045357
  0.3144875812640822  0.2119191791585037  0.8338458163083189
  0.4386845324815126  0.6242803984715989  0.6549715920645796
  0.3110231320727163  0.5391367180921001  0.6106161070984367
  0.9368342176752005  0.4560523396760496  0.5658057941826924
  0.6884963945758978  0.7914910907124267  0.7441823847837287
  0.9339107602774328  0.7832680847901612  0.1247510248346129
  0.6898674767154093  0.7877307016883591  0.3892109244128665
  0.9386010633333369  0.7911672327028746  0.7441170776175416
  0.0623561772588194  0.2042782516346975  0.3448131110170474
  0.6874102727639014  0.4534197730269248  0.3447950156988315
  0.4359040498601166  0.1246804527329344  0.7885712904954414
  0.0633729180068809  0.2027073903189751  0.2115257133507144
  0.0577927195373511  0.3657913829554172  0.1662938272199335
  0.9365563388076844  0.7871925557626129  0.2558285608219474
  0.5620510889520700  0.2073816692580618  0.6997557987247063
  0.6873709625427066  0.9574125743623336  0.6998126927452083
  0.8107249068368803  0.8750541138094439  0.7883086972126268
  0.4367502825030211  0.9561833897250209  0.5658263381935014
  0.8108642536770928  0.3749632548424942  0.7883170512559440
  0.6866201168772209  0.2868077919584867  0.2559063202058577
  0.1867634704869076  0.4560681965452871  0.5657462559087317
  0.0585597790699215  0.8661720759945337  0.1665199677448457
  0.1859944977000010  0.2890242328255719  0.6106732609309401
  0.0618474555230594  0.2063442635952586  0.5657736502224547
  0.3115763706219595  0.2072240851995371  0.6997573202634543
  0.5637926151752797  0.5452232567776231  0.8756700742774211
  0.0616891899073619  0.7060143618997986  0.5657397888379218
  0.6857778024511419  0.6250456303707339  0.7883791586494130
  0.3146274986289492  0.5373419822480997  0.3892523109848862
  0.1871254097557200  0.6225043863784383  0.5217155432311487
  0.5626175199113832  0.8714650944072050  0.4341663777564269
  0.4367498210640247  0.4561372729664976  0.5658132434426280
  0.4385113457353857  0.2917615405971413  0.7442502854873849
  0.8159972789455960  0.8721386680595926  0.3002334809134998
  0.8119629728985915  0.7032617156458142  0.3448855997316767
  0.4399567462922280  0.4613494422787905  0.8337636675404876
  0.6875695268629856  0.9549858648980950  0.4783864660850798
  0.6873883149239524  0.4571640484051564  0.6997468942594468
  0.5618402621725826  0.8725767096428444  0.5216672833330313
  0.5638448034015181  0.3739303126047348  0.6549799166651451
  0.8138678708964995  0.8741172008921261  0.6550645316909318
  0.8119780549571953  0.3710627969509481  0.4340338497680105
  0.8117172565099202  0.5365138082755160  0.2559463416739392
  0.6904091993973026  0.4618194900772581  0.8337100166148352
  0.1858604785952980  0.7833396538956355  0.1242345816162879
  0.6892995169059235  0.2876712542975357  0.3891953767418371
  0.3134667924398611  0.3739876641636183  0.6549567079571972
  0.3122413928373710  0.2038560222915919  0.3449398236169528
  0.8136221230100337  0.5414514633388260  0.7440301242569840
  0.6905465779781058  0.9618156872751709  0.8337217521882377
  0.5637587072416040  0.8741951148185707  0.6550564300858107
  0.3118241411333606  0.7063562010408940  0.5657329621422026
  0.3104043394584173  0.5331893920354579  0.1241261916560464
  0.6886960701855300  0.9535221762197422  0.2117939602815980
  0.3118463844975370  0.2064117373332860  0.5657914263453587
  0.1874468969806293  0.9553928990836458  0.4784208846772404
  0.6870120171241317  0.9561983882296361  0.5658311664289574
  0.4358087854093737  0.7894759017441686  0.6105720692287664
  0.6829299110135787  0.6147334489348332  0.1664351289073189
  0.3155652082841449  0.8720552156603446  0.3001638676039193
  0.3121434467756727  0.7053823169108252  0.4782952721344064
  0.9359161945952202  0.2889054500270300  0.6106259872851600
  0.4408048588129722  0.6215676873179833  0.3002525034552642
  0.8086776472710150  0.8656989711523265  0.1666804555811864
  0.5638947749188478  0.2024938984233245  0.2117322703680572
  0.9344261271533596  0.6151173839951060  0.1666174659007769
  0.4374009806404449  0.9549348968123142  0.4783546825028323
  0.5609416230947736  0.3742882541012088  0.7884360782114829
  0.0617792115034695  0.3728125581455906  0.5216265853955379
  0.3089488030968537  0.3656638970936387  0.1662190031943294
  0.6913072912934066  0.1217247870030284  0.3002723451963012
  0.4405593352199124  0.9613947825069203  0.8337442813297288
  0.1849819601517260  0.2827965804337411  0.1245572411256673
  0.1863132579232966  0.2865676967579801  0.2558612246974809
  0.3128793321283199  0.3712087352576487  0.4341604776134334
  0.5608820473216233  0.0335171976050400  0.1245050924217766
  0.4357668192496445  0.2891830784382364  0.6105669213615026
  0.1870492767471790  0.4536337108003545  0.3448266378580463
  0.4348806853642493  0.2830572003834723  0.1245233211872460
  0.6865491901802665  0.7872445880617964  0.2559692913247585
  0.4367479262028015  0.1227747322269361  0.5216089627313484
  0.1893430445698362  0.2943657352452471  0.8758878984185979
  0.1885997011751018  0.1241721315830202  0.6550646984365681
  0.9388621894176765  0.1239795001290606  0.6550766807502711
  0.8144480699358454  0.5373882877830873  0.3891869799431773
  0.0647525898871401  0.0381157818601735  0.3892314104515641
  0.1839803808973846  0.1152612898849614  0.1665941620254670
  0.0609402349099202  0.5388534414714998  0.6106772516818582
  0.9368615328886680  0.2867413037829743  0.2558164329441064
  0.5606876693274956  0.5392608295253097  0.6106082393138501
  0.9368587244995159  0.9560017175547501  0.5657373670092908
  0.6911027411932567  0.6217070101173797  0.3003115020415189
  0.9376239308312726  0.6213937046951884  0.4341010534293748
  0.9356407053335947  0.6261692698034748  0.7883181434743672
  0.5619960680415144  0.7071748028861101  0.6997418576614223
  0.0644256453454665  0.7133532531954635  0.8336396006166013
  0.9409448592176926  0.1223755412332970  0.3001671329479662
  0.9358547547289051  0.7889633277868120  0.6107039536361323
  0.4368513249456274  0.7871840209816617  0.2559402629892085
  0.3107529777148667  0.3743501853096747  0.7884168929890460
  0.4384805757993342  0.4532983806126858  0.2115761238197105
  0.1870375584965134  0.1223956155128549  0.5216714915531118
  0.8119939404904917  0.7078309718514619  0.6997908666350778
  0.0608382361431966  0.0394741299009099  0.6106025077596430
  0.5647406278990426  0.2118859610177061  0.8335229052069910
  0.3118613540260644  0.8724757760533536  0.5217443951615054
  0.6857670425979510  0.2826173781076102  0.1246738226530304
  0.1884096203127968  0.9540923963229693  0.2116740467693893
  0.6858733617829824  0.2890662084971762  0.6106362835330907
  0.3108053853330150  0.0394323533900729  0.6106410303028659
  0.9358009471568470  0.1261360043419388  0.7884137044923968
  0.4375471508697479  0.7936155905663311  0.8757394062752246
  0.8136764024186860  0.0417047012932168  0.7440196819228655
  0.9367261808925037  0.4573100925947324  0.6997488873272610
  0.1887767746510661  0.6241355021956819  0.6550553710965727
  0.3116040963297102  0.7074827229284858  0.6997860719961633
  0.9349425168671650  0.2826483368847760  0.1245668799126175
  0.4373161731857266  0.4547398567629138  0.4783169882218786
  0.0625087983029411  0.7046503553327031  0.4784002867035734
  0.9374621639861884  0.1212047490456227  0.4344178395440980
  0.4410450935834619  0.1213030940887905  0.3002402731873764
  0.1876715718211450  0.1211289666536091  0.4340217258642863
  0.5641778412128778  0.0455010086577276  0.8757336019106284
  0.1865398558549201  0.9563927738910527  0.5658211341564435
  0.6852140904169262  0.7840234097088984  0.1246926556660247
  0.5624923908607915  0.7036602025238378  0.3449633884201797
  0.3146860288155459  0.0377885428283401  0.3892352436878018
  0.6842907086722716  0.1153283059630984  0.1667954365654905
  0.8141960202014092  0.2027261243411118  0.2116118108698528
  0.0612382222774074  0.5366218265750575  0.2556787536980960
  0.5624909817201326  0.7052183936415779  0.4783092236134404
  0.4349862717147390  0.7834905046602917  0.1242342981717047
  0.5657233768787299  0.3711834455260045  0.3002484168309520
  0.4370149158842527  0.9538115289088879  0.3448602794752625
  0.1862329295558094  0.9574479875270329  0.6997919622719673
  0.4338187012632019  0.6150582246083474  0.1662376383104842
  0.9384826087613881  0.4523520211581603  0.2117222262067822
  0.0609656428190515  0.5325078729807877  0.1243691945079056
  0.8119496065903512  0.3728311654582951  0.5216511562163756
  0.9409047685330852  0.6223599679149623  0.3000673772159825
  0.3117503591574922  0.0369332558931220  0.2558472548680972
  0.6858544913025025  0.7891351226521636  0.6106611117289540
  0.1898375817739015  0.4623972376043193  0.8338558171927593
  0.4345248586921330  0.1148030289794047  0.1667088738027480
  0.3116049742633303  0.3725656135588817  0.5216815963509452
  0.4358669474291653  0.6247366518099007  0.7885772963650051
  0.0613916998404404  0.0371429300370358  0.2558636705181600
  0.5616621596822932  0.7062941867027616  0.5657607500712049
  0.9385569828045759  0.2913595091543335  0.7440793101572577
  0.6857594110400123  0.1252111491321862  0.7882789104158539
  0.1877955362314075  0.4526371360977797  0.2114917678101045
  0.9392188452615824  0.7874615105628526  0.3892092787176019
  0.6868143285690254  0.2947537090532762  0.8758044063660523
  0.5580660477987837  0.8652915057765425  0.1664632582829730
  0.8084593836482165  0.3658819432912930  0.1664704052837822
  0.9375736325225963  0.9536420684249155  0.3448061052270376
  0.6867431768871831  0.6224590951035345  0.5216353094990026
  0.0636401184639746  0.8741126130679329  0.6550673818775612
  0.0609938538346217  0.8752430099547588  0.7884683767339001
  0.0637235385890087  0.3739048290407004  0.6550701535931905
  0.6871391712489079  0.4549048266338411  0.4782085429497850
  0.1862629417502706  0.7874509031958021  0.2558814299807370
  0.4376054091324276  0.1213440708747253  0.4342065100398212
  0.8111656704786582  0.0331480380615533  0.1245719079973052
  0.9367568620203170  0.6224492771384227  0.5216526160315267
  0.4386404786173707  0.1242678077819903  0.6550403189261595
  0.8123212620343089  0.5325033014532723  0.1244373042792328
  0.4373897999698218  0.4535974091548132  0.3448887547311018
  0.8121890908410366  0.2036127644250998  0.3448744965292287
  0.3124551896346826  0.7035915978949004  0.3448168297633770
  0.6887703627167959  0.1243132684604950  0.6550765313991220
  0.5659194637028737  0.8717144569654947  0.3002373599804172
  0.0633170766291788  0.5411280168782902  0.7440704422772626
  0.9387658098098585  0.9537198368542589  0.2117062850819964
  0.8140164457894594  0.7029899598117874  0.2117036058733600
  0.0655548571644947  0.8720111750602011  0.3002747710004359
  0.1905825466745941  0.1222084268217445  0.3000758335277587
  0.0621007908582264  0.7036859424490061  0.3448448827590554
  0.8111455058175318  0.0392277128540209  0.6106131607218768
  0.0628778814354738  0.3710643971960225  0.4340536242170200
  0.5624380888424793  0.2037050906575009  0.3449046861196606
  0.8158358124275782  0.3720698356560611  0.3001411479194397
  0.5622301103296280  0.0374170445878948  0.2559535589277470
  0.5642147129885846  0.5372247276460647  0.3892337399711919
  0.0626515982113419  0.2050951641542926  0.4784116787189651
  0.3111496084219665  0.8740376875083745  0.7882341908504678
  0.9369020677891340  0.9576564341628454  0.6997031043168022
  0.0659490106072681  0.3718373857199260  0.3001570797106769
  0.6884934367013777  0.6241152618062206  0.6550951256539993
  0.6865929984684929  0.4561796818322798  0.5657324010100749
  0.4384583317996195  0.9537910471860235  0.2117799650256577
  0.3122039977081745  0.2049509394879777  0.4783400433206346
  0.8126259786826506  0.5448134160250394  0.8755653708458432
  0.6880614477109130  0.6210798014937640  0.4341051981203072
  0.8119283254794353  0.2072207844149534  0.6997776969034120
  0.8124973412784570  0.7051651807534877  0.4783286886509944
  0.8117900659681816  0.8713445854780432  0.4341716058207815
  0.9372881742600883  0.9546333904809630  0.4784525114067797
  0.5625100326163391  0.2049733317452129  0.4783517048670397
  0.1873131423764120  0.6208770918582273  0.4341748831368020
  0.3134672787378692  0.0415042703423401  0.7441402199220546
  0.9387091172579564  0.6241491709166436  0.6550718290696084
  0.5647571265579387  0.7114937532634940  0.8335238055798069
  0.3157647096396582  0.3714233169324550  0.3002703130681815
  0.3133985856014449  0.5413534966599087  0.7442761843094944
  0.1875877797064402  0.4549760690584412  0.4783223750279254
  0.3148896318810609  0.0462364692874994  0.8757203676278179
  0.1859526961835336  0.4573258771627028  0.6997825128262890
  0.5619914784535845  0.3725700742460656  0.5216614068551609
  0.1892005456221741  0.2878720233583189  0.3892451313684651
  0.3133685451729062  0.2031201282594185  0.2114848607851173
  0.0645241408072092  0.7026152876347549  0.2114381837139689
  0.5624825924160690  0.3712092799452429  0.4341745773023299
  0.4368492582801757  0.6225849376843035  0.5215384501156726
  0.8152341717871244  0.7128330320936592  0.8333569732746138
  0.0610487385443495  0.3755412924341410  0.7883906550581630
  0.4373607526711828  0.2945385323526182  0.8758993649460275
  0.3110979957983548  0.0330760196467019  0.1241570664639337
  0.6876204833703473  0.1216786142616130  0.4341281960669919
  0.1870880561584591  0.9536096146286334  0.3448731077970943
  0.0644850097771558  0.2123641151410240  0.8336944904112881
  0.5608344148912041  0.0393346763916139  0.6106473157112225
  0.6885032355824600  0.4525319673099441  0.2116609224977145
  0.1881889416983371  0.7914724450304605  0.7441392204149135
  0.1906728594949600  0.6218160517282809  0.3001838121671159
  0.4399709411445301  0.7874206878987405  0.3892856368915315
  0.4366884629190779  0.2867747107894287  0.2557887901069502
  0.0650397389618972  0.5447673654677146  0.8756630555989801
  0.5637858280717325  0.0414895137544346  0.7441665714285354
  0.1884813657398147  0.7937054461773175  0.8757906949776169
  0.9373309888274636  0.4547684853607961  0.4783074130247263
  0.5637029362015545  0.5417320069504659  0.7441831596725590
  0.8116437362609519  0.2065133253077016  0.5658018959363059
  0.1859222788825434  0.6253309255549661  0.7884574640739394
  0.0650298437932679  0.5380143358906979  0.3893147849908286
  0.0615942574834962  0.7078943807555017  0.6997489192249704
  0.3112817830581298  0.5365401730865239  0.2556304789170123
  0.3126711369995765  0.7024737579082685  0.2118255300793470
  0.3081163972841993  0.8658384735714890  0.1658384173228720
  0.4371754716955911  0.6211024781325288  0.4340750320106792
  0.8154023880114837  0.0378630217464544  0.3891831000044986
  0.9361037895951164  0.2954916603795892  0.8756364421127201
  0.9369670280135806  0.7922997733944648  0.8755760202482223
  0.0653009391412756  0.0443341503414421  0.8755113984997283
  0.5616451971812386  0.5326378216499913  0.1245496934137607
  0.4366658803473250  0.4570904424302393  0.6997765889022594
  0.0622934160213172  0.8714864911477531  0.4341351589723755
  0.9370416142873399  0.1227615641506553  0.5215230892294603
  0.1902317298365929  0.7869106789706199  0.3890263495118895
  0.5646249347568600  0.7028269092843096  0.2118377889208864
 
  0.00000000E+00  0.00000000E+00  0.00000000E+00
  0.00000000E+00  0.00000000E+00  0.00000000E+00
  0.00000000E+00  0.00000000E+00  0.00000000E+00
  0.00000000E+00  0.00000000E+00  0.00000000E+00
  0.00000000E+00  0.00000000E+00  0.00000000E+00
  0.00000000E+00  0.00000000E+00  0.00000000E+00
  0.00000000E+00  0.00000000E+00  0.00000000E+00
  0.00000000E+00  0.00000000E+00  0.00000000E+00
  0.00000000E+00  0.00000000E+00  0.00000000E+00
  0.00000000E+00  0.00000000E+00  0.00000000E+00
  0.00000000E+00  0.00000000E+00  0.00000000E+00
  0.00000000E+00  0.00000000E+00  0.00000000E+00
  0.00000000E+00  0.00000000E+00  0.00000000E+00
  0.00000000E+00  0.00000000E+00  0.00000000E+00
  0.00000000E+00  0.00000000E+00  0.00000000E+00
  0.00000000E+00  0.00000000E+00  0.00000000E+00
  0.00000000E+00  0.00000000E+00  0.00000000E+00
  0.00000000E+00  0.00000000E+00  0.00000000E+00
  0.00000000E+00  0.00000000E+00  0.00000000E+00
  0.00000000E+00  0.00000000E+00  0.00000000E+00
  0.00000000E+00  0.00000000E+00  0.00000000E+00
  0.00000000E+00  0.00000000E+00  0.00000000E+00
  0.00000000E+00  0.00000000E+00  0.00000000E+00
  0.00000000E+00  0.00000000E+00  0.00000000E+00
  0.00000000E+00  0.00000000E+00  0.00000000E+00
  0.00000000E+00  0.00000000E+00  0.00000000E+00
  0.00000000E+00  0.00000000E+00  0.00000000E+00
  0.00000000E+00  0.00000000E+00  0.00000000E+00
  0.00000000E+00  0.00000000E+00  0.00000000E+00
  0.00000000E+00  0.00000000E+00  0.00000000E+00
  0.00000000E+00  0.00000000E+00  0.00000000E+00
  0.00000000E+00  0.00000000E+00  0.00000000E+00
  0.00000000E+00  0.00000000E+00  0.00000000E+00
  0.00000000E+00  0.00000000E+00  0.00000000E+00
  0.00000000E+00  0.00000000E+00  0.00000000E+00
  0.00000000E+00  0.00000000E+00  0.00000000E+00
  0.00000000E+00  0.00000000E+00  0.00000000E+00
  0.00000000E+00  0.00000000E+00  0.00000000E+00
  0.00000000E+00  0.00000000E+00  0.00000000E+00
  0.00000000E+00  0.00000000E+00  0.00000000E+00
  0.00000000E+00  0.00000000E+00  0.00000000E+00
  0.00000000E+00  0.00000000E+00  0.00000000E+00
  0.00000000E+00  0.00000000E+00  0.00000000E+00
  0.00000000E+00  0.00000000E+00  0.00000000E+00
  0.00000000E+00  0.00000000E+00  0.00000000E+00
  0.00000000E+00  0.00000000E+00  0.00000000E+00
  0.00000000E+00  0.00000000E+00  0.00000000E+00
  0.00000000E+00  0.00000000E+00  0.00000000E+00
  0.00000000E+00  0.00000000E+00  0.00000000E+00
  0.00000000E+00  0.00000000E+00  0.00000000E+00
  0.00000000E+00  0.00000000E+00  0.00000000E+00
  0.00000000E+00  0.00000000E+00  0.00000000E+00
  0.00000000E+00  0.00000000E+00  0.00000000E+00
  0.00000000E+00  0.00000000E+00  0.00000000E+00
  0.00000000E+00  0.00000000E+00  0.00000000E+00
  0.00000000E+00  0.00000000E+00  0.00000000E+00
  0.00000000E+00  0.00000000E+00  0.00000000E+00
  0.00000000E+00  0.00000000E+00  0.00000000E+00
  0.00000000E+00  0.00000000E+00  0.00000000E+00
  0.00000000E+00  0.00000000E+00  0.00000000E+00
  0.00000000E+00  0.00000000E+00  0.00000000E+00
  0.00000000E+00  0.00000000E+00  0.00000000E+00
  0.00000000E+00  0.00000000E+00  0.00000000E+00
  0.00000000E+00  0.00000000E+00  0.00000000E+00
  0.00000000E+00  0.00000000E+00  0.00000000E+00
  0.00000000E+00  0.00000000E+00  0.00000000E+00
  0.00000000E+00  0.00000000E+00  0.00000000E+00
  0.00000000E+00  0.00000000E+00  0.00000000E+00
  0.00000000E+00  0.00000000E+00  0.00000000E+00
  0.00000000E+00  0.00000000E+00  0.00000000E+00
  0.00000000E+00  0.00000000E+00  0.00000000E+00
  0.00000000E+00  0.00000000E+00  0.00000000E+00
  0.00000000E+00  0.00000000E+00  0.00000000E+00
  0.00000000E+00  0.00000000E+00  0.00000000E+00
  0.00000000E+00  0.00000000E+00  0.00000000E+00
  0.00000000E+00  0.00000000E+00  0.00000000E+00
  0.00000000E+00  0.00000000E+00  0.00000000E+00
  0.00000000E+00  0.00000000E+00  0.00000000E+00
  0.00000000E+00  0.00000000E+00  0.00000000E+00
  0.00000000E+00  0.00000000E+00  0.00000000E+00
  0.00000000E+00  0.00000000E+00  0.00000000E+00
  0.00000000E+00  0.00000000E+00  0.00000000E+00
  0.00000000E+00  0.00000000E+00  0.00000000E+00
  0.00000000E+00  0.00000000E+00  0.00000000E+00
  0.00000000E+00  0.00000000E+00  0.00000000E+00
  0.00000000E+00  0.00000000E+00  0.00000000E+00
  0.00000000E+00  0.00000000E+00  0.00000000E+00
  0.00000000E+00  0.00000000E+00  0.00000000E+00
  0.00000000E+00  0.00000000E+00  0.00000000E+00
  0.00000000E+00  0.00000000E+00  0.00000000E+00
  0.00000000E+00  0.00000000E+00  0.00000000E+00
  0.00000000E+00  0.00000000E+00  0.00000000E+00
  0.00000000E+00  0.00000000E+00  0.00000000E+00
  0.00000000E+00  0.00000000E+00  0.00000000E+00
  0.00000000E+00  0.00000000E+00  0.00000000E+00
  0.00000000E+00  0.00000000E+00  0.00000000E+00
  0.00000000E+00  0.00000000E+00  0.00000000E+00
  0.00000000E+00  0.00000000E+00  0.00000000E+00
  0.00000000E+00  0.00000000E+00  0.00000000E+00
  0.00000000E+00  0.00000000E+00  0.00000000E+00
  0.00000000E+00  0.00000000E+00  0.00000000E+00
  0.00000000E+00  0.00000000E+00  0.00000000E+00
  0.00000000E+00  0.00000000E+00  0.00000000E+00
  0.00000000E+00  0.00000000E+00  0.00000000E+00
  0.00000000E+00  0.00000000E+00  0.00000000E+00
  0.00000000E+00  0.00000000E+00  0.00000000E+00
  0.00000000E+00  0.00000000E+00  0.00000000E+00
  0.00000000E+00  0.00000000E+00  0.00000000E+00
  0.00000000E+00  0.00000000E+00  0.00000000E+00
  0.00000000E+00  0.00000000E+00  0.00000000E+00
  0.00000000E+00  0.00000000E+00  0.00000000E+00
  0.00000000E+00  0.00000000E+00  0.00000000E+00
  0.00000000E+00  0.00000000E+00  0.00000000E+00
  0.00000000E+00  0.00000000E+00  0.00000000E+00
  0.00000000E+00  0.00000000E+00  0.00000000E+00
  0.00000000E+00  0.00000000E+00  0.00000000E+00
  0.00000000E+00  0.00000000E+00  0.00000000E+00
  0.00000000E+00  0.00000000E+00  0.00000000E+00
  0.00000000E+00  0.00000000E+00  0.00000000E+00
  0.00000000E+00  0.00000000E+00  0.00000000E+00
  0.00000000E+00  0.00000000E+00  0.00000000E+00
  0.00000000E+00  0.00000000E+00  0.00000000E+00
  0.00000000E+00  0.00000000E+00  0.00000000E+00
  0.00000000E+00  0.00000000E+00  0.00000000E+00
  0.00000000E+00  0.00000000E+00  0.00000000E+00
  0.00000000E+00  0.00000000E+00  0.00000000E+00
  0.00000000E+00  0.00000000E+00  0.00000000E+00
  0.00000000E+00  0.00000000E+00  0.00000000E+00
  0.00000000E+00  0.00000000E+00  0.00000000E+00
  0.00000000E+00  0.00000000E+00  0.00000000E+00
  0.00000000E+00  0.00000000E+00  0.00000000E+00
  0.00000000E+00  0.00000000E+00  0.00000000E+00
  0.00000000E+00  0.00000000E+00  0.00000000E+00
  0.00000000E+00  0.00000000E+00  0.00000000E+00
  0.00000000E+00  0.00000000E+00  0.00000000E+00
  0.00000000E+00  0.00000000E+00  0.00000000E+00
  0.00000000E+00  0.00000000E+00  0.00000000E+00
  0.00000000E+00  0.00000000E+00  0.00000000E+00
  0.00000000E+00  0.00000000E+00  0.00000000E+00
  0.00000000E+00  0.00000000E+00  0.00000000E+00
  0.00000000E+00  0.00000000E+00  0.00000000E+00
  0.00000000E+00  0.00000000E+00  0.00000000E+00
  0.00000000E+00  0.00000000E+00  0.00000000E+00
  0.00000000E+00  0.00000000E+00  0.00000000E+00
  0.00000000E+00  0.00000000E+00  0.00000000E+00
  0.00000000E+00  0.00000000E+00  0.00000000E+00
  0.00000000E+00  0.00000000E+00  0.00000000E+00
  0.00000000E+00  0.00000000E+00  0.00000000E+00
  0.00000000E+00  0.00000000E+00  0.00000000E+00
  0.00000000E+00  0.00000000E+00  0.00000000E+00
  0.00000000E+00  0.00000000E+00  0.00000000E+00
  0.00000000E+00  0.00000000E+00  0.00000000E+00
  0.00000000E+00  0.00000000E+00  0.00000000E+00
  0.00000000E+00  0.00000000E+00  0.00000000E+00
  0.00000000E+00  0.00000000E+00  0.00000000E+00
  0.00000000E+00  0.00000000E+00  0.00000000E+00
  0.00000000E+00  0.00000000E+00  0.00000000E+00
  0.00000000E+00  0.00000000E+00  0.00000000E+00
  0.00000000E+00  0.00000000E+00  0.00000000E+00
  0.00000000E+00  0.00000000E+00  0.00000000E+00
  0.00000000E+00  0.00000000E+00  0.00000000E+00
  0.00000000E+00  0.00000000E+00  0.00000000E+00
  0.00000000E+00  0.00000000E+00  0.00000000E+00
  0.00000000E+00  0.00000000E+00  0.00000000E+00
  0.00000000E+00  0.00000000E+00  0.00000000E+00
  0.00000000E+00  0.00000000E+00  0.00000000E+00
  0.00000000E+00  0.00000000E+00  0.00000000E+00
  0.00000000E+00  0.00000000E+00  0.00000000E+00
  0.00000000E+00  0.00000000E+00  0.00000000E+00
  0.00000000E+00  0.00000000E+00  0.00000000E+00
  0.00000000E+00  0.00000000E+00  0.00000000E+00
  0.00000000E+00  0.00000000E+00  0.00000000E+00
  0.00000000E+00  0.00000000E+00  0.00000000E+00
  0.00000000E+00  0.00000000E+00  0.00000000E+00
  0.00000000E+00  0.00000000E+00  0.00000000E+00
  0.00000000E+00  0.00000000E+00  0.00000000E+00
  0.00000000E+00  0.00000000E+00  0.00000000E+00
  0.00000000E+00  0.00000000E+00  0.00000000E+00
  0.00000000E+00  0.00000000E+00  0.00000000E+00
  0.00000000E+00  0.00000000E+00  0.00000000E+00
  0.00000000E+00  0.00000000E+00  0.00000000E+00
  0.00000000E+00  0.00000000E+00  0.00000000E+00
  0.00000000E+00  0.00000000E+00  0.00000000E+00
  0.00000000E+00  0.00000000E+00  0.00000000E+00
  0.00000000E+00  0.00000000E+00  0.00000000E+00
  0.00000000E+00  0.00000000E+00  0.00000000E+00
  0.00000000E+00  0.00000000E+00  0.00000000E+00
  0.00000000E+00  0.00000000E+00  0.00000000E+00
  0.00000000E+00  0.00000000E+00  0.00000000E+00
  0.00000000E+00  0.00000000E+00  0.00000000E+00
  0.00000000E+00  0.00000000E+00  0.00000000E+00
  0.00000000E+00  0.00000000E+00  0.00000000E+00
  0.00000000E+00  0.00000000E+00  0.00000000E+00
  0.00000000E+00  0.00000000E+00  0.00000000E+00
  0.00000000E+00  0.00000000E+00  0.00000000E+00
  0.00000000E+00  0.00000000E+00  0.00000000E+00
  0.00000000E+00  0.00000000E+00  0.00000000E+00
  0.00000000E+00  0.00000000E+00  0.00000000E+00
  0.00000000E+00  0.00000000E+00  0.00000000E+00
  0.00000000E+00  0.00000000E+00  0.00000000E+00
  0.00000000E+00  0.00000000E+00  0.00000000E+00
  0.00000000E+00  0.00000000E+00  0.00000000E+00
  0.00000000E+00  0.00000000E+00  0.00000000E+00
  0.00000000E+00  0.00000000E+00  0.00000000E+00
  0.00000000E+00  0.00000000E+00  0.00000000E+00
  0.00000000E+00  0.00000000E+00  0.00000000E+00
  0.00000000E+00  0.00000000E+00  0.00000000E+00
  0.00000000E+00  0.00000000E+00  0.00000000E+00
  0.00000000E+00  0.00000000E+00  0.00000000E+00
  0.00000000E+00  0.00000000E+00  0.00000000E+00
  0.00000000E+00  0.00000000E+00  0.00000000E+00
  0.00000000E+00  0.00000000E+00  0.00000000E+00
  0.00000000E+00  0.00000000E+00  0.00000000E+00
  0.00000000E+00  0.00000000E+00  0.00000000E+00
  0.00000000E+00  0.00000000E+00  0.00000000E+00
  0.00000000E+00  0.00000000E+00  0.00000000E+00
  0.00000000E+00  0.00000000E+00  0.00000000E+00
  0.00000000E+00  0.00000000E+00  0.00000000E+00
  0.00000000E+00  0.00000000E+00  0.00000000E+00
  0.00000000E+00  0.00000000E+00  0.00000000E+00
  0.00000000E+00  0.00000000E+00  0.00000000E+00
  0.00000000E+00  0.00000000E+00  0.00000000E+00
  0.00000000E+00  0.00000000E+00  0.00000000E+00
  0.00000000E+00  0.00000000E+00  0.00000000E+00
  0.00000000E+00  0.00000000E+00  0.00000000E+00
  0.00000000E+00  0.00000000E+00  0.00000000E+00
  0.00000000E+00  0.00000000E+00  0.00000000E+00
  0.00000000E+00  0.00000000E+00  0.00000000E+00
  0.00000000E+00  0.00000000E+00  0.00000000E+00
  0.00000000E+00  0.00000000E+00  0.00000000E+00
  0.00000000E+00  0.00000000E+00  0.00000000E+00
  0.00000000E+00  0.00000000E+00  0.00000000E+00
  0.00000000E+00  0.00000000E+00  0.00000000E+00
  0.00000000E+00  0.00000000E+00  0.00000000E+00
  0.00000000E+00  0.00000000E+00  0.00000000E+00
  0.00000000E+00  0.00000000E+00  0.00000000E+00
  0.00000000E+00  0.00000000E+00  0.00000000E+00
  0.00000000E+00  0.00000000E+00  0.00000000E+00
  0.00000000E+00  0.00000000E+00  0.00000000E+00
  0.00000000E+00  0.00000000E+00  0.00000000E+00
  0.00000000E+00  0.00000000E+00  0.00000000E+00
  0.00000000E+00  0.00000000E+00  0.00000000E+00
  0.00000000E+00  0.00000000E+00  0.00000000E+00
  0.00000000E+00  0.00000000E+00  0.00000000E+00
  0.00000000E+00  0.00000000E+00  0.00000000E+00
  0.00000000E+00  0.00000000E+00  0.00000000E+00
  0.00000000E+00  0.00000000E+00  0.00000000E+00