CuInSe2gb                               
   1.00000000000000     
     9.7266780392896699    0.0000000000000000    0.0000000000000000
     0.0000000000000000    8.4235502764570693    0.0000000000000000
     0.0000000000000000    0.0000000000000000   45.0000000000000000
   Fe   Mn
   274    14
Direct
  0.0625943258483265  0.0301098832010502  0.1242435731365111
  0.3162347187723332  0.8748266854543457  0.6550463219301034
  0.1837079168195261  0.1232756104048641  0.7885927709216518
  0.4412708666150981  0.2878330750990238  0.3891401371214925
  0.3181461402637931  0.7139030625393996  0.8332194459239151
  0.8183019064316535  0.2152503380142319  0.8336481662639302
  0.1916148771483555  0.9635291082905397  0.8335845151684272
  0.5620932956070503  0.2070919059915880  0.5655327027224827
  0.0656838495598111  0.0404753053785663  0.7441550784688069
  0.8117047293121518  0.8713868501707653  0.5214344782177313
  0.1906654604668788  0.2910790671752858  0.7443648304759763
  0.9336592816234242  0.4523222490965518  0.3449217842705537
  0.9411933600139590  0.2865648627432179  0.3890009562983591
  0.8128737695870351  0.0407733342355128  0.8757875968398364
  0.1837124101966922  0.7882168468755543  0.6109153649141088
  0.5663873728409812  0.0378625498558146  0.3890528440303973
  0.9425968683726982  0.9650188554544710  0.8339283308435242
  0.3131858400683225  0.5407816530356928  0.8760717051464262
  0.6901689872686585  0.2913787716163375  0.7442460223036700
  0.1823397879637152  0.6135724854540284  0.1667287907322353
  0.8122304838048712  0.2057453503067724  0.4786735294714997
  0.8090039607882780  0.5384254700919253  0.6110533169587223
  0.3119627638046464  0.8703322388020865  0.4345067310265487
  0.8090149564343461  0.0381239050385516  0.2558628708453956
  0.6826970955198269  0.9518231096711618  0.3446947321034959
  0.9312689437524493  0.1144046539540325  0.1668547776621013
  0.0618958538322873  0.8717250641514923  0.5214145650837260
  0.5581904130245910  0.5378209009903355  0.2556216908664204
  0.6844516217001287  0.7977917647815679  0.8759740584534890
  0.5563867609827567  0.3645370016293364  0.1666240746509694
  0.4396105700313642  0.7920566060297921  0.7444600203603884
  0.8113073657727797  0.7066436174708074  0.5654673386515552
  0.5591780478886976  0.8736272543503202  0.7886353356115344
  0.6867470644918126  0.1217724241312997  0.5214243113138510
  0.8162593245953177  0.3747216638545721  0.6550002084554470
  0.9424046968598682  0.4645280248806029  0.8337643685022994
  0.0606173284011221  0.2078198283340783  0.6997091830850561
  0.4355073494847465  0.9576345544231463  0.6997576675271350
  0.3169212399343851  0.2128187743960973  0.8334593020379263
  0.4412895840617617  0.6248458639013573  0.6550319364770507
  0.3089849680884493  0.5382276542799509  0.6109929523909224
  0.9364681870937528  0.4564054579403924  0.5655904790883570
  0.6900373467952921  0.7915753952330997  0.7442898570425552
  0.9349701993324360  0.7880748281136812  0.1244627266710465
  0.6914845298660424  0.7877577076953902  0.3890535207446317
  0.9403664819814995  0.7908591787983886  0.7444820939707053
  0.0585742930548051  0.2025789650069706  0.3448882854612164
  0.6835844853857651  0.4525339411176391  0.3449294096894394
  0.4337430714609443  0.1229117204376350  0.7889625649295652
  0.0659787632647830  0.2031905057570870  0.2109980172920180
  0.0554114399857826  0.3652453175503908  0.1667072919427143
  0.9336807702940920  0.7874071220153011  0.2556413823460783
  0.5604523332373651  0.2071583710468708  0.6998141180833369
  0.6851441017602707  0.9571574239389677  0.6997962478099052
  0.8089411757967985  0.8738210369864146  0.7883997348347620
  0.4368614782751481  0.9571889180215630  0.5654191374462837
  0.8088036250592928  0.3750183378830578  0.7885442684830397
  0.6842150309042326  0.2884128439869778  0.2558904151845788
  0.1874001725173003  0.4571399576858850  0.5655391185055989
  0.0567849477016779  0.8651683600541584  0.1667307118130850
  0.1841613354812828  0.2885061745574646  0.6110527178107422
  0.0621317094322407  0.2070623214526297  0.5653856961409885
  0.3107477186601402  0.2072643634541909  0.6998408514143841
  0.5623545251260076  0.5408936134376948  0.8760041489072161
  0.0619703592101375  0.7062782474932096  0.5655616325980287
  0.6830124578143211  0.6224077246228378  0.7886244096041444
  0.3158598634127847  0.5382812439213001  0.3889064218939642
  0.1869768971439505  0.6214452325728290  0.5214460298682670
  0.5624645283837966  0.8704793239833857  0.4344139704700605
  0.4367309078995542  0.4568568889432417  0.5655480221051595
  0.4397607384922096  0.2916748615885215  0.7442470611258595
  0.8203992509821029  0.8733433098075831  0.3002752814062329
  0.8085334747543346  0.7025256250580085  0.3449322330613391
  0.4423974541057540  0.4628208428260576  0.8333720516943014
  0.6875185999252986  0.9557187929193995  0.4787206942759646
  0.6848596437232614  0.4576836903113713  0.6997444950499189
  0.5620221794147081  0.8722251255989311  0.5214578260669489
  0.5661005174687657  0.3745499106813555  0.6549518535286450
  0.8160895612630623  0.8748128631362844  0.6550513039551750
  0.8117671624722810  0.3714148758923392  0.4342042458743094
  0.8086800008001160  0.5371188294271992  0.2558318231869480
  0.6922218633533814  0.4622537295477751  0.8333299031594577
  0.1860467529659188  0.7873692900625308  0.1241000390953430
  0.6912527145989807  0.2873622543786196  0.3890222124016792
  0.3160965745247157  0.3742371089379113  0.6549862361583344
  0.3086976803562710  0.2026941527174011  0.3446910744885111
  0.8157704357333915  0.5403054331324035  0.7442057389859873
  0.6916215173356837  0.9623869636295770  0.8334752884346995
  0.5660951182077224  0.8745153959439921  0.6549797653755365
  0.3113702052561958  0.7070123953665195  0.5655369707028312
  0.3116119797192735  0.5301222374907782  0.1241507039389038
  0.6908687569698407  0.9551749259369667  0.2117802734461962
  0.3114484009066502  0.2066657557906227  0.5655262086091026
  0.1874163110826524  0.9557316739850421  0.4786875611490592
  0.6873437547077468  0.9568668679345642  0.5655337346653940
  0.4338982500839210  0.7883154072620802  0.6110024391050277
  0.6823568899418870  0.6115922426070418  0.1662807295018798
  0.3190767087753190  0.8729760966153112  0.2999659846128788
  0.3122908301564522  0.7057840433393129  0.4786337627600352
  0.9336822048887248  0.2878788219505261  0.6108906373827098
  0.4458386837578820  0.6229282701534410  0.3001041903144752
  0.8073217723983045  0.8631725780740165  0.1668396267615691
  0.5667757453738760  0.2027743654592388  0.2114197957808703
  0.9329000947638934  0.6128180339630139  0.1666834908852880
  0.4373162441075094  0.9557438576331930  0.4786679369114650
  0.5587733698000203  0.3734330813043583  0.7887653556475880
  0.0615544427534922  0.3723325017057260  0.5214241024092652
  0.3069567323726909  0.3636654082641150  0.1666704610418512
  0.3165704975411798  0.7031468318274100  0.2115140385892058
  0.4428914034280575  0.9632957401841153  0.8333527604239500
  0.1850630144900835  0.2868838785262551  0.1242287972254458
  0.1839621285627995  0.2880320191422936  0.2558520109843671
  0.3126189132895844  0.3704294323572082  0.4344426763053131
  0.5628965819746901  0.0319042161450142  0.1243123039868919
  0.4339843869673145  0.2883368390855731  0.6109865819098521
  0.1836331037811914  0.4525363621647178  0.3449056613946133
  0.4342023318627967  0.2863664645301469  0.1242562158319588
  0.6831701346680648  0.7884447667897035  0.2557860473697010
  0.4368556854461405  0.1217284936031910  0.5214848955145015
  0.1885305548416118  0.2968381074481624  0.8761920513696749
  0.1913129773468069  0.1249009882053819  0.6551616928262951
  0.9412139128206647  0.1248383200540138  0.6549636031940689
  0.8163825368034869  0.5377088878572784  0.3890626948704520
  0.0664256361414052  0.0381496565794695  0.3891490233776252
  0.1831811068051608  0.1124873683406264  0.1664613835533887
  0.0586718966980140  0.5381472700377211  0.6109854958329034
  0.9336467948655032  0.2881365141192713  0.2557663928451003
  0.5589727811612818  0.5383961544138153  0.6109820797547182
  0.9368815131616249  0.9572839806784786  0.5655321500620102
  0.6941358092380143  0.6235190773802766  0.3000170289082822
  0.9374454477938082  0.6203570692121932  0.4344826184419775
  0.9331872900134349  0.6243762650186706  0.7883734582934729
  0.5605252443196493  0.7071214060319532  0.6997635587995926
  0.0660830666789807  0.7168289744003910  0.8339550250655053
  0.9449383482963496  0.1226861523070651  0.3000495559728444
  0.9336791253210537  0.7876707106640612  0.6109211280338507
  0.4333383472361185  0.7878697035717476  0.2554794166816595
  0.3088297494282546  0.3739484654119384  0.7887885024973844
  0.4406031064401711  0.4534844220162318  0.2111113334373900
  0.1869107052831805  0.1220026178518389  0.5213899515567869
  0.8101241222278420  0.7073859207064523  0.6997254297307337
  0.0587644600026706  0.0380686728973094  0.6108867734851633
  0.5661037306429352  0.2135459768441969  0.8332458254025930
  0.3117235791371532  0.8719463939669164  0.5214456588602057
  0.6863998813940300  0.2864356534073629  0.1239603800669327
  0.1911851047255178  0.9554242486118596  0.2116621698707572
  0.6838850349343127  0.2884763751924360  0.6110265189468121
  0.3091186655981513  0.0384291090116462  0.6110700257274120
  0.9340710584515013  0.1246124726960211  0.7886439130467761
  0.4365902845872757  0.7978354602677543  0.8762141612160442
  0.8155207405891602  0.0406223220870685  0.7441919563189844
  0.9352487394935907  0.4580030013541146  0.6996497212913053
  0.1911843743142693  0.6251512775453677  0.6550580928008607
  0.3102741141452635  0.7070380871825424  0.6997529256997457
  0.9345655683127390  0.2867733252055892  0.1241610733702088
  0.4374727303816633  0.4559332140705101  0.4785669854213729
  0.0623123907089402  0.7057762766071551  0.4785950491364924
  0.9369473809547445  0.1198207664262090  0.4346070460122267
  0.4437515747359678  0.1235622452189533  0.3002243996691334
  0.1869034884487065  0.1199686631324206  0.4342949716751251
  0.5627990178968876  0.0406424173340963  0.8760597533177882
  0.1868622436018964  0.9570483976733741  0.5655484927426124
  0.6845999170490193  0.7878331787282484  0.1244925094489476
  0.5589234423338870  0.7021917246390792  0.3449104129709828
  0.3165405613939046  0.0369393814668827  0.3887942997042992
  0.6824868540532562  0.1136343945835094  0.1667243687691834
  0.8158779971130540  0.2024848100661540  0.2111971187209333
  0.0589936802632385  0.5370415530675977  0.2555134798185421
  0.5625123437129219  0.7055995448074383  0.4786776429205816
  0.4353131578108945  0.7869751061108343  0.1242516091964450
  0.5696812412712738  0.3721700300858012  0.3001267868912904
  0.4335409352693393  0.9526820063218981  0.3449362425473756
  0.1852336338123471  0.9573764828955511  0.6997899328524090
  0.4316460648750735  0.6127526673497140  0.1662635410472883
  0.9402722998537894  0.4545220579521846  0.2117472008082525
  0.0624454095805380  0.5304376740440014  0.1241420938590773
  0.8120151956407785  0.3720920716384737  0.5213633686621965
  0.9445085028576706  0.6234784899056917  0.2998807178534372
  0.3089571566332737  0.0374692088560517  0.2557963488330662
  0.6839086580030561  0.7880212866387275  0.6109489032365354
  0.1917392134766743  0.4633413620406410  0.8335188137530536
  0.4332191394622853  0.1121448971256574  0.1665418892691234
  0.3118158747564475  0.3719277300147051  0.5213840519852239
  0.4330578943630884  0.6229715214879102  0.7889293960875051
  0.0589736093412948  0.0371333381238739  0.2557772972070742
  0.5622627230999275  0.7069171051440922  0.5655455038436920
  0.9399652962486579  0.2909320578309653  0.7444844816346394
  0.6823293857473839  0.1227744213430108  0.7885944832417657
  0.1897942928898400  0.4540511687341207  0.2113224485136868
  0.9412871106188688  0.7878427859070245  0.3888505915353772
  0.6854517162039785  0.2991100835268360  0.8760447415320876
  0.5568622039765543  0.8622119225310870  0.1664781265031362
  0.4356093605479749  0.4574870621576718  0.6997503097787429
  0.9340695188621275  0.9518647673091429  0.3447516945614713
  0.6866683791384279  0.6214780007362172  0.5213486264642230
  0.0664146650287633  0.8747684119921796  0.6549334237576874
  0.0590748589056087  0.8742327339127565  0.7884541287164283
  0.0662229744821751  0.3747475160930271  0.6549217018835092
  0.6872384388106714  0.4557813172344646  0.4786366390066543
  0.1842739702398120  0.7875089091314667  0.2554759422104312
  0.4369983109567434  0.1206630509864701  0.4344045997724932
  0.8136729915985192  0.0311909256325990  0.1241042717545968
  0.9368719084410871  0.6219385850059229  0.5214375287833493
  0.4411985340683218  0.1245412483961181  0.6549400380729257
  0.8132948818456373  0.5298873868695931  0.1240958629166983
  0.4336765221142944  0.4526414786723367  0.3450319999416715
  0.8087978213910129  0.2024934214987511  0.3448971138942627
  0.3088511027734157  0.7011756067567664  0.3448276022716423
  0.6911780802850488  0.1249066285226887  0.6550144292538403
  0.5695561439558008  0.8742213562801410  0.3001614858472795
  0.0654824707764948  0.5409747962604462  0.7443385673217058
  0.9409730580321607  0.9538599356967831  0.2112700974669107
  0.8172610889942153  0.7031535461305723  0.2113209334255908
  0.0697558264375603  0.8724487263278269  0.2999869377343536
  0.1952601931093207  0.1237792731818655  0.3000750225755394
  0.0585408084706712  0.7023211877649019  0.3449104244753257
  0.8090150277897248  0.0383567496179993  0.6110147434613704
  0.0629978831589804  0.3716372101844806  0.4342482427707920
  0.5583827061904379  0.2023381108465900  0.3447643620069092
  0.8194037789936250  0.3727546606894755  0.2999947921118513
  0.5589892339168718  0.0373050262089936  0.2554419151136860
  0.5664076835983738  0.5377234437421271  0.3890797251578128
  0.0625503938601605  0.2059210550565337  0.4786713661585224
  0.3100561187758477  0.8732426206314008  0.7884476338351496
  0.9352718767446133  0.9581255607390271  0.6996686771957690
  0.0689991663916128  0.3745288141071006  0.2999887022669675
  0.6910066972579519  0.6250212024739619  0.6552197074586095
  0.6865879740376004  0.4568610063444439  0.5654278990109500
  0.4414448194220872  0.9551917327261735  0.2118695258565786
  0.3124615939022690  0.2057664272769683  0.4787214486597082
  0.8120448294178135  0.5403558815063001  0.8758735105854747
  0.6879329163012864  0.6207221098649991  0.4344206629354049
  0.8108200565787473  0.2073954526297331  0.6998580153071221
  0.8125224226143950  0.7058434298788879  0.4786761286191622
  0.8117405305870112  0.8711411156027093  0.4342720807975523
  0.9373101029180487  0.9552828709244846  0.4787392620731892
  0.5622075809077660  0.2057292506802821  0.4786907097451200
  0.1873360984466922  0.6201349266531376  0.4344593420144381
  0.3151003728337029  0.0418759133078881  0.7441002451555129
  0.9412563472349492  0.6251769492390985  0.6549174290367483
  0.5664008831754646  0.7136876566326424  0.8333491638651809
  0.3192837496290097  0.3739736663068277  0.3000257005055094
  0.3152232030622866  0.5413571369333683  0.7442602946859387
  0.1874777253475881  0.4556064680160382  0.4787086023959355
  0.3142926417573736  0.0410362769984510  0.8758924341271646
  0.1853578127217018  0.4577678325362527  0.6996406812310730
  0.5618943582107205  0.3720391181283191  0.5213949582932844
  0.1910665296396973  0.2875884306497071  0.3889289788116312
  0.3158615373562666  0.2033416703794532  0.2112470116832691
  0.0671006686868263  0.7028365484637549  0.2111867731467727
  0.5620362979176776  0.3711124083303997  0.4343498901362053
  0.4367162065374477  0.6219751953694712  0.5214150899661719
  0.8171809092193093  0.7154864126387588  0.8333478748154641
  0.0589772004402431  0.3750082381591235  0.7884337065049939
  0.4365243568637198  0.2983903433245612  0.8763730035653656
  0.3116738534537098  0.0301915446965990  0.1241267830640789
  0.6876588464660169  0.1199040522897605  0.4343966010785232
  0.1837731893424714  0.9520298803675098  0.3449415609747695
  0.0667007471556318  0.2154162485504375  0.8340563461071613
  0.5591882431967433  0.0386821347298395  0.6111178247929350
  0.6891824034436910  0.4543237716455586  0.2116385589262472
  0.1896867570448378  0.7917435371444126  0.7444071798781123
  0.1944024631417571  0.6227882906934317  0.3000579519861475
  0.4415241072694657  0.7876175972548086  0.3890597647332046
  0.4329842807787651  0.2878270070606352  0.2556723060616239
  0.0632672665122982  0.5408153287441712  0.8758947829511625
  0.5656286240506567  0.0412194145109693  0.7442332948033119
  0.1878660882050353  0.7973068624736340  0.8760747251696024
  0.9373514425658409  0.4557066773691158  0.4786606512595954
  0.5652567249405918  0.5414486575411469  0.7441169442470302
  0.8112168277054472  0.2070415257034556  0.5654853351017848
  0.1843590716828825  0.6226342500046425  0.7885085237866015
  0.0671185037128731  0.5385017974747607  0.3890961686794268
  0.0606043252960786  0.7076236719643606  0.6996443107087300
  0.3085293328371042  0.5371038896263973  0.2557160989608501
  0.6955999387707149  0.1229298970518070  0.3003797865724092
  0.3054826311324980  0.8646559976249890  0.1660164740028163
  0.4367494235093966  0.6207487105632942  0.4344127071255163
  0.8178875046641912  0.0392154495640534  0.3891610453458258
  0.9348839639231008  0.2980398825005079  0.8755776273176498
  0.9370683680968031  0.7954802984711881  0.8755829490648034
  0.0653678900151655  0.0390268207446419  0.8757681935234302
  0.5623208031205204  0.5292452140676301  0.1244962008295470
  0.8054037169127405  0.3655254337432053  0.1658550155976423
  0.0620532350187312  0.8713132783425521  0.4344659550101776
  0.9366167317061170  0.1218523861725778  0.5215389666458747
  0.1931716479326206  0.7877245187951555  0.3887592722927168
  0.5663594023188908  0.7029293101011717  0.2118757961086913
 
  0.00000000E+00  0.00000000E+00  0.00000000E+00
  0.00000000E+00  0.00000000E+00  0.00000000E+00
  0.00000000E+00  0.00000000E+00  0.00000000E+00
  0.00000000E+00  0.00000000E+00  0.00000000E+00
  0.00000000E+00  0.00000000E+00  0.00000000E+00
  0.00000000E+00  0.00000000E+00  0.00000000E+00
  0.00000000E+00  0.00000000E+00  0.00000000E+00
  0.00000000E+00  0.00000000E+00  0.00000000E+00
  0.00000000E+00  0.00000000E+00  0.00000000E+00
  0.00000000E+00  0.00000000E+00  0.00000000E+00
  0.00000000E+00  0.00000000E+00  0.00000000E+00
  0.00000000E+00  0.00000000E+00  0.00000000E+00
  0.00000000E+00  0.00000000E+00  0.00000000E+00
  0.00000000E+00  0.00000000E+00  0.00000000E+00
  0.00000000E+00  0.00000000E+00  0.00000000E+00
  0.00000000E+00  0.00000000E+00  0.00000000E+00
  0.00000000E+00  0.00000000E+00  0.00000000E+00
  0.00000000E+00  0.00000000E+00  0.00000000E+00
  0.00000000E+00  0.00000000E+00  0.00000000E+00
  0.00000000E+00  0.00000000E+00  0.00000000E+00
  0.00000000E+00  0.00000000E+00  0.00000000E+00
  0.00000000E+00  0.00000000E+00  0.00000000E+00
  0.00000000E+00  0.00000000E+00  0.00000000E+00
  0.00000000E+00  0.00000000E+00  0.00000000E+00
  0.00000000E+00  0.00000000E+00  0.00000000E+00
  0.00000000E+00  0.00000000E+00  0.00000000E+00
  0.00000000E+00  0.00000000E+00  0.00000000E+00
  0.00000000E+00  0.00000000E+00  0.00000000E+00
  0.00000000E+00  0.00000000E+00  0.00000000E+00
  0.00000000E+00  0.00000000E+00  0.00000000E+00
  0.00000000E+00  0.00000000E+00  0.00000000E+00
  0.00000000E+00  0.00000000E+00  0.00000000E+00
  0.00000000E+00  0.00000000E+00  0.00000000E+00
  0.00000000E+00  0.00000000E+00  0.00000000E+00
  0.00000000E+00  0.00000000E+00  0.00000000E+00
  0.00000000E+00  0.00000000E+00  0.00000000E+00
  0.00000000E+00  0.00000000E+00  0.00000000E+00
  0.00000000E+00  0.00000000E+00  0.00000000E+00
  0.00000000E+00  0.00000000E+00  0.00000000E+00
  0.00000000E+00  0.00000000E+00  0.00000000E+00
  0.00000000E+00  0.00000000E+00  0.00000000E+00
  0.00000000E+00  0.00000000E+00  0.00000000E+00
  0.00000000E+00  0.00000000E+00  0.00000000E+00
  0.00000000E+00  0.00000000E+00  0.00000000E+00
  0.00000000E+00  0.00000000E+00  0.00000000E+00
  0.00000000E+00  0.00000000E+00  0.00000000E+00
  0.00000000E+00  0.00000000E+00  0.00000000E+00
  0.00000000E+00  0.00000000E+00  0.00000000E+00
  0.00000000E+00  0.00000000E+00  0.00000000E+00
  0.00000000E+00  0.00000000E+00  0.00000000E+00
  0.00000000E+00  0.00000000E+00  0.00000000E+00
  0.00000000E+00  0.00000000E+00  0.00000000E+00
  0.00000000E+00  0.00000000E+00  0.00000000E+00
  0.00000000E+00  0.00000000E+00  0.00000000E+00
  0.00000000E+00  0.00000000E+00  0.00000000E+00
  0.00000000E+00  0.00000000E+00  0.00000000E+00
  0.00000000E+00  0.00000000E+00  0.00000000E+00
  0.00000000E+00  0.00000000E+00  0.00000000E+00
  0.00000000E+00  0.00000000E+00  0.00000000E+00
  0.00000000E+00  0.00000000E+00  0.00000000E+00
  0.00000000E+00  0.00000000E+00  0.00000000E+00
  0.00000000E+00  0.00000000E+00  0.00000000E+00
  0.00000000E+00  0.00000000E+00  0.00000000E+00
  0.00000000E+00  0.00000000E+00  0.00000000E+00
  0.00000000E+00  0.00000000E+00  0.00000000E+00
  0.00000000E+00  0.00000000E+00  0.00000000E+00
  0.00000000E+00  0.00000000E+00  0.00000000E+00
  0.00000000E+00  0.00000000E+00  0.00000000E+00
  0.00000000E+00  0.00000000E+00  0.00000000E+00
  0.00000000E+00  0.00000000E+00  0.00000000E+00
  0.00000000E+00  0.00000000E+00  0.00000000E+00
  0.00000000E+00  0.00000000E+00  0.00000000E+00
  0.00000000E+00  0.00000000E+00  0.00000000E+00
  0.00000000E+00  0.00000000E+00  0.00000000E+00
  0.00000000E+00  0.00000000E+00  0.00000000E+00
  0.00000000E+00  0.00000000E+00  0.00000000E+00
  0.00000000E+00  0.00000000E+00  0.00000000E+00
  0.00000000E+00  0.00000000E+00  0.00000000E+00
  0.00000000E+00  0.00000000E+00  0.00000000E+00
  0.00000000E+00  0.00000000E+00  0.00000000E+00
  0.00000000E+00  0.00000000E+00  0.00000000E+00
  0.00000000E+00  0.00000000E+00  0.00000000E+00
  0.00000000E+00  0.00000000E+00  0.00000000E+00
  0.00000000E+00  0.00000000E+00  0.00000000E+00
  0.00000000E+00  0.00000000E+00  0.00000000E+00
  0.00000000E+00  0.00000000E+00  0.00000000E+00
  0.00000000E+00  0.00000000E+00  0.00000000E+00
  0.00000000E+00  0.00000000E+00  0.00000000E+00
  0.00000000E+00  0.00000000E+00  0.00000000E+00
  0.00000000E+00  0.00000000E+00  0.00000000E+00
  0.00000000E+00  0.00000000E+00  0.00000000E+00
  0.00000000E+00  0.00000000E+00  0.00000000E+00
  0.00000000E+00  0.00000000E+00  0.00000000E+00
  0.00000000E+00  0.00000000E+00  0.00000000E+00
  0.00000000E+00  0.00000000E+00  0.00000000E+00
  0.00000000E+00  0.00000000E+00  0.00000000E+00
  0.00000000E+00  0.00000000E+00  0.00000000E+00
  0.00000000E+00  0.00000000E+00  0.00000000E+00
  0.00000000E+00  0.00000000E+00  0.00000000E+00
  0.00000000E+00  0.00000000E+00  0.00000000E+00
  0.00000000E+00  0.00000000E+00  0.00000000E+00
  0.00000000E+00  0.00000000E+00  0.00000000E+00
  0.00000000E+00  0.00000000E+00  0.00000000E+00
  0.00000000E+00  0.00000000E+00  0.00000000E+00
  0.00000000E+00  0.00000000E+00  0.00000000E+00
  0.00000000E+00  0.00000000E+00  0.00000000E+00
  0.00000000E+00  0.00000000E+00  0.00000000E+00
  0.00000000E+00  0.00000000E+00  0.00000000E+00
  0.00000000E+00  0.00000000E+00  0.00000000E+00
  0.00000000E+00  0.00000000E+00  0.00000000E+00
  0.00000000E+00  0.00000000E+00  0.00000000E+00
  0.00000000E+00  0.00000000E+00  0.00000000E+00
  0.00000000E+00  0.00000000E+00  0.00000000E+00
  0.00000000E+00  0.00000000E+00  0.00000000E+00
  0.00000000E+00  0.00000000E+00  0.00000000E+00
  0.00000000E+00  0.00000000E+00  0.00000000E+00
  0.00000000E+00  0.00000000E+00  0.00000000E+00
  0.00000000E+00  0.00000000E+00  0.00000000E+00
  0.00000000E+00  0.00000000E+00  0.00000000E+00
  0.00000000E+00  0.00000000E+00  0.00000000E+00
  0.00000000E+00  0.00000000E+00  0.00000000E+00
  0.00000000E+00  0.00000000E+00  0.00000000E+00
  0.00000000E+00  0.00000000E+00  0.00000000E+00
  0.00000000E+00  0.00000000E+00  0.00000000E+00
  0.00000000E+00  0.00000000E+00  0.00000000E+00
  0.00000000E+00  0.00000000E+00  0.00000000E+00
  0.00000000E+00  0.00000000E+00  0.00000000E+00
  0.00000000E+00  0.00000000E+00  0.00000000E+00
  0.00000000E+00  0.00000000E+00  0.00000000E+00
  0.00000000E+00  0.00000000E+00  0.00000000E+00
  0.00000000E+00  0.00000000E+00  0.00000000E+00
  0.00000000E+00  0.00000000E+00  0.00000000E+00
  0.00000000E+00  0.00000000E+00  0.00000000E+00
  0.00000000E+00  0.00000000E+00  0.00000000E+00
  0.00000000E+00  0.00000000E+00  0.00000000E+00
  0.00000000E+00  0.00000000E+00  0.00000000E+00
  0.00000000E+00  0.00000000E+00  0.00000000E+00
  0.00000000E+00  0.00000000E+00  0.00000000E+00
  0.00000000E+00  0.00000000E+00  0.00000000E+00
  0.00000000E+00  0.00000000E+00  0.00000000E+00
  0.00000000E+00  0.00000000E+00  0.00000000E+00
  0.00000000E+00  0.00000000E+00  0.00000000E+00
  0.00000000E+00  0.00000000E+00  0.00000000E+00
  0.00000000E+00  0.00000000E+00  0.00000000E+00
  0.00000000E+00  0.00000000E+00  0.00000000E+00
  0.00000000E+00  0.00000000E+00  0.00000000E+00
  0.00000000E+00  0.00000000E+00  0.00000000E+00
  0.00000000E+00  0.00000000E+00  0.00000000E+00
  0.00000000E+00  0.00000000E+00  0.00000000E+00
  0.00000000E+00  0.00000000E+00  0.00000000E+00
  0.00000000E+00  0.00000000E+00  0.00000000E+00
  0.00000000E+00  0.00000000E+00  0.00000000E+00
  0.00000000E+00  0.00000000E+00  0.00000000E+00
  0.00000000E+00  0.00000000E+00  0.00000000E+00
  0.00000000E+00  0.00000000E+00  0.00000000E+00
  0.00000000E+00  0.00000000E+00  0.00000000E+00
  0.00000000E+00  0.00000000E+00  0.00000000E+00
  0.00000000E+00  0.00000000E+00  0.00000000E+00
  0.00000000E+00  0.00000000E+00  0.00000000E+00
  0.00000000E+00  0.00000000E+00  0.00000000E+00
  0.00000000E+00  0.00000000E+00  0.00000000E+00
  0.00000000E+00  0.00000000E+00  0.00000000E+00
  0.00000000E+00  0.00000000E+00  0.00000000E+00
  0.00000000E+00  0.00000000E+00  0.00000000E+00
  0.00000000E+00  0.00000000E+00  0.00000000E+00
  0.00000000E+00  0.00000000E+00  0.00000000E+00
  0.00000000E+00  0.00000000E+00  0.00000000E+00
  0.00000000E+00  0.00000000E+00  0.00000000E+00
  0.00000000E+00  0.00000000E+00  0.00000000E+00
  0.00000000E+00  0.00000000E+00  0.00000000E+00
  0.00000000E+00  0.00000000E+00  0.00000000E+00
  0.00000000E+00  0.00000000E+00  0.00000000E+00
  0.00000000E+00  0.00000000E+00  0.00000000E+00
  0.00000000E+00  0.00000000E+00  0.00000000E+00
  0.00000000E+00  0.00000000E+00  0.00000000E+00
  0.00000000E+00  0.00000000E+00  0.00000000E+00
  0.00000000E+00  0.00000000E+00  0.00000000E+00
  0.00000000E+00  0.00000000E+00  0.00000000E+00
  0.00000000E+00  0.00000000E+00  0.00000000E+00
  0.00000000E+00  0.00000000E+00  0.00000000E+00
  0.00000000E+00  0.00000000E+00  0.00000000E+00
  0.00000000E+00  0.00000000E+00  0.00000000E+00
  0.00000000E+00  0.00000000E+00  0.00000000E+00
  0.00000000E+00  0.00000000E+00  0.00000000E+00
  0.00000000E+00  0.00000000E+00  0.00000000E+00
  0.00000000E+00  0.00000000E+00  0.00000000E+00
  0.00000000E+00  0.00000000E+00  0.00000000E+00
  0.00000000E+00  0.00000000E+00  0.00000000E+00
  0.00000000E+00  0.00000000E+00  0.00000000E+00
  0.00000000E+00  0.00000000E+00  0.00000000E+00
  0.00000000E+00  0.00000000E+00  0.00000000E+00
  0.00000000E+00  0.00000000E+00  0.00000000E+00
  0.00000000E+00  0.00000000E+00  0.00000000E+00
  0.00000000E+00  0.00000000E+00  0.00000000E+00
  0.00000000E+00  0.00000000E+00  0.00000000E+00
  0.00000000E+00  0.00000000E+00  0.00000000E+00
  0.00000000E+00  0.00000000E+00  0.00000000E+00
  0.00000000E+00  0.00000000E+00  0.00000000E+00
  0.00000000E+00  0.00000000E+00  0.00000000E+00
  0.00000000E+00  0.00000000E+00  0.00000000E+00
  0.00000000E+00  0.00000000E+00  0.00000000E+00
  0.00000000E+00  0.00000000E+00  0.00000000E+00
  0.00000000E+00  0.00000000E+00  0.00000000E+00
  0.00000000E+00  0.00000000E+00  0.00000000E+00
  0.00000000E+00  0.00000000E+00  0.00000000E+00
  0.00000000E+00  0.00000000E+00  0.00000000E+00
  0.00000000E+00  0.00000000E+00  0.00000000E+00
  0.00000000E+00  0.00000000E+00  0.00000000E+00
  0.00000000E+00  0.00000000E+00  0.00000000E+00
  0.00000000E+00  0.00000000E+00  0.00000000E+00
  0.00000000E+00  0.00000000E+00  0.00000000E+00
  0.00000000E+00  0.00000000E+00  0.00000000E+00
  0.00000000E+00  0.00000000E+00  0.00000000E+00
  0.00000000E+00  0.00000000E+00  0.00000000E+00
  0.00000000E+00  0.00000000E+00  0.00000000E+00
  0.00000000E+00  0.00000000E+00  0.00000000E+00
  0.00000000E+00  0.00000000E+00  0.00000000E+00
  0.00000000E+00  0.00000000E+00  0.00000000E+00
  0.00000000E+00  0.00000000E+00  0.00000000E+00
  0.00000000E+00  0.00000000E+00  0.00000000E+00
  0.00000000E+00  0.00000000E+00  0.00000000E+00
  0.00000000E+00  0.00000000E+00  0.00000000E+00
  0.00000000E+00  0.00000000E+00  0.00000000E+00
  0.00000000E+00  0.00000000E+00  0.00000000E+00
  0.00000000E+00  0.00000000E+00  0.00000000E+00
  0.00000000E+00  0.00000000E+00  0.00000000E+00
  0.00000000E+00  0.00000000E+00  0.00000000E+00
  0.00000000E+00  0.00000000E+00  0.00000000E+00
  0.00000000E+00  0.00000000E+00  0.00000000E+00
  0.00000000E+00  0.00000000E+00  0.00000000E+00
  0.00000000E+00  0.00000000E+00  0.00000000E+00
  0.00000000E+00  0.00000000E+00  0.00000000E+00
  0.00000000E+00  0.00000000E+00  0.00000000E+00
  0.00000000E+00  0.00000000E+00  0.00000000E+00
  0.00000000E+00  0.00000000E+00  0.00000000E+00
  0.00000000E+00  0.00000000E+00  0.00000000E+00
  0.00000000E+00  0.00000000E+00  0.00000000E+00
  0.00000000E+00  0.00000000E+00  0.00000000E+00
  0.00000000E+00  0.00000000E+00  0.00000000E+00
  0.00000000E+00  0.00000000E+00  0.00000000E+00
  0.00000000E+00  0.00000000E+00  0.00000000E+00
  0.00000000E+00  0.00000000E+00  0.00000000E+00
  0.00000000E+00  0.00000000E+00  0.00000000E+00
  0.00000000E+00  0.00000000E+00  0.00000000E+00
  0.00000000E+00  0.00000000E+00  0.00000000E+00
  0.00000000E+00  0.00000000E+00  0.00000000E+00
  0.00000000E+00  0.00000000E+00  0.00000000E+00