FeMn_288_15                             
    1.000000000000000     
     9.7266779999999997    0.0000000000000000    0.0000000000000000
     0.0000000000000000    8.4235500000000005    0.0000000000000000
     0.0000000000000000    0.0000000000000000   45.0000000000000000
   Fe   Mn
   273    15
Direct
  0.3124921311476964  0.5286388631420448  0.1248301750172993
  0.9377153247747798  0.1208279761022733  0.4344103237894351
  0.8120068062569645  0.3808766670020181  0.7879681615657246
  0.3123537046027846  0.7112962795686222  0.6995705727451628
  0.0621622348062849  0.7018846388917598  0.3451584130872414
  0.1874105437230629  0.1311947503201091  0.7881462381638628
  0.4376755901938422  0.4465332611924044  0.2116761301916870
  0.6870195085607658  0.2863783411981438  0.3894656531427085
  0.9373709815873850  0.9522851694968991  0.3453244058866934
  0.9373265446415618  0.7812853243585318  0.2561009026408547
  0.1875580272559277  0.7912111267822153  0.6105967209956736
  0.0625479922792134  0.2156514129473906  0.8333137157247809
  0.4371738567667161  0.2990774285306084  0.8751942390618216
  0.4373875642047688  0.7862891883587301  0.3895150705964163
  0.8126668026475268  0.8707885698317814  0.4343352186488348
  0.0625185778744744  0.8731931139544489  0.5216242105725907
  0.9375897239583304  0.2962063233443974  0.7438449651141382
  0.6879113321094988  0.4573141899957278  0.5656860657961325
  0.9376900738129498  0.1122773247910537  0.1669090363758047
  0.6874592169504891  0.1211569326062175  0.4343222738809934
  0.1877195840239543  0.2961713022805385  0.7438064359083599
  0.4379111825728268  0.9461763585925911  0.2117856182383814
  0.5624713078997441  0.2152372558453054  0.8330604760241602
  0.1877866765684895  0.7959629297339947  0.7438359079043290
  0.1874988747336397  0.6204741834270129  0.4345960886416147
  0.8121039929635565  0.2013583643681896  0.3450771153329672
  0.5624910272549531  0.7150179697400821  0.8330956202489834
  0.8122856841434030  0.5363160209126723  0.3894198073961962
  0.9376026768795304  0.6262646604893894  0.6548484593261592
  0.4376693536621575  0.4650727243189894  0.8330122506968767
  0.3125407993336942  0.8709394919608229  0.4342792639089230
  0.8125388601414952  0.3761390532283146  0.6548967716800596
  0.8125582122937755  0.8730615440200206  0.5214498273807018
  0.8126598833509279  0.8623165897870162  0.1668830818062534
  0.6874184282827596  0.2821488427311885  0.2561172781436151
  0.9375534219347760  0.9654254183878181  0.8330537179230648
  0.4372082799710598  0.9613324481357973  0.6996429529343559
  0.3126509170899767  0.2152720669999507  0.8329827950252499
  0.3132311625795515  0.0289689061968705  0.1245438259000703
  0.8125862567101287  0.2110986797596213  0.6996233605272485
  0.8123940230568285  0.2152900846396071  0.8330096115439808
  0.1870638070145637  0.4517201313902976  0.3451656745104234
  0.0625045542839549  0.3664772571062169  0.3004107285380218
  0.8127547625218378  0.5421562582848484  0.6106594432965331
  0.4373828251902132  0.1259682208718290  0.6549492132723876
  0.3129789949580356  0.5497371337869569  0.8753130797316946
  0.9380254701218836  0.4466207163272364  0.2116544204752193
  0.3127478086833750  0.5462902657346805  0.7438329265558635
  0.8129071252950900  0.5285642005784682  0.1246867637806789
  0.6873350428974229  0.2990531231848482  0.8751891766833616
  0.8120425782350897  0.7019059201112766  0.3451362318102454
  0.3121881435867745  0.8730786681472872  0.5215073757803523
  0.3127663893451481  0.6968609204385319  0.2117955458942362
  0.3123101160455865  0.8812162492568085  0.7881206742236267
  0.5625807849071700  0.3667153548865649  0.3004443893685640
  0.8127287301482586  0.7152757167699747  0.8332827181833543
  0.1878930529501450  0.4466841088819777  0.2117648544602412
  0.0624604141780382  0.0417578782548923  0.6107520817891819
  0.8120566782833232  0.0492215297770917  0.8753064129957522
  0.1878429241931450  0.7779750880293992  0.1247708373974089
  0.3124417496566363  0.2051997625227092  0.4784240373572644
  0.6871653734350258  0.9517219346751667  0.3450878265633430
  0.6876138378343175  0.7994648381324274  0.8753208440533339
  0.5625914883674018  0.8730242952015344  0.5214909926558431
  0.9371973321374841  0.2984536895588723  0.8752803953304896
  0.8121696439147927  0.0315751894523123  0.2559691268446179
  0.1873242575269325  0.4567376650892910  0.5657225888011109
  0.6872893983710383  0.7813207372998247  0.2560316858516252
  0.5624698539939237  0.7073613304783288  0.5656412517920907
  0.0628349286978724  0.6965601257133367  0.2117281500830044
  0.9374506479482450  0.2818081786797016  0.2560820666061203
  0.6876506744630518  0.2961806693489701  0.7438748694172769
  0.5622292086337700  0.0496137391534939  0.8752525774421592
  0.4373565575403591  0.6311967918093909  0.7881341568713345
  0.1875314376007880  0.9654550838320773  0.8330345601740272
  0.3123833417285979  0.5366018838247842  0.3893765169399931
  0.4368864645636870  0.7994170543619976  0.8753094210404584
  0.4373650012235299  0.1167064268432957  0.3005352807782088
  0.1874548095965452  0.9614082854218834  0.6996035534165382
  0.1871752623541036  0.9563806397736636  0.5657245350574538
  0.0624476319634021  0.0364405538495727  0.3895363982854541
  0.1875513186609066  0.9518522194740284  0.3452324812862030
  0.4372995956811983  0.9515656696834403  0.3451754351491118
  0.9373414137112942  0.4552559435938950  0.4784736093289412
  0.1876121520977947  0.6262397505731804  0.6548205218423333
  0.9371090436546329  0.6222154570019550  0.5215375441934955
  0.1874606728988229  0.1265793599898958  0.6549203069769232
  0.5626722952060133  0.5314269711429813  0.2559408063475275
  0.6873636936405031  0.4650880909780881  0.8330156129296913
  0.1879179654355088  0.9465389142894035  0.2117755694600321
  0.0623374630452561  0.3810992648004905  0.7881630054293234
  0.9374101832921490  0.4515396174708355  0.3450883672324723
  0.3128394622751957  0.7051117032785668  0.4785177273626290
  0.4374901425741444  0.2864451109734436  0.3894027648095685
  0.3124423952284479  0.0492041944702457  0.8752954099203236
  0.4375167794573562  0.7964046732137871  0.7439086354512268
  0.3125731707832834  0.3663258110598626  0.3004492729956680
  0.4378275988341636  0.6257596403802289  0.6549069471939321
  0.0627878231035215  0.5359433632750070  0.3893132073408858
  0.5633311326147452  0.5289861459265740  0.1247930924674125
  0.0620980298336139  0.3728282653148696  0.5215788485932240
  0.1875478254641469  0.7815463680408172  0.2560938285423011
  0.1872763841660210  0.2815311558646281  0.2560297773216611
  0.8125174910935824  0.7050519858609731  0.4784809853756016
  0.6877993089564367  0.9469415578371886  0.2117495801896752
  0.3124912642909511  0.1969369255075208  0.2118826096471529
  0.0621324026739509  0.8707344026084853  0.4344109947237739
  0.9374622411685721  0.6127548018224326  0.1669036099756363
  0.6871673242689849  0.6311552546827047  0.7881300109619990
  0.0628001638770240  0.8763994132709164  0.6548609297884264
  0.9377194245539927  0.2920240755395498  0.6107216355346043
  0.5624641567895682  0.7109366303299177  0.6996605684423830
  0.4379472843097801  0.7789764457389312  0.1247283081117132
  0.0624069786404398  0.7067143036021079  0.5656285833687739
  0.5624687598973701  0.0289913012293360  0.1245289014744151
  0.6875321141277552  0.9652311805103578  0.8330295265355120
  0.3127919859840596  0.3702689798082590  0.4343860134133411
  0.9376725783957685  0.7914227934482714  0.6106210488912782
  0.8127892075670159  0.1971604843426020  0.2116932417391495
  0.5622576718774930  0.5367073671017635  0.3894207795938979
  0.1874256247632163  0.4615901423933849  0.6995385540172789
  0.1876500608140998  0.2915077211528199  0.6107515692033778
  0.5618090321849536  0.8663092002715510  0.3004298616668540
  0.1874636895777627  0.6163810619430509  0.3003908990326439
  0.0622217401451437  0.0493641871543597  0.8752771151192789
  0.1870277442076038  0.4655458932911834  0.8331411686293069
  0.4373737914193813  0.7918959047640816  0.6106738009775361
  0.6878213949879032  0.7781557272377251  0.1247652213642510
  0.8128809851674542  0.8761924995770699  0.6548400814057254
  0.3121938837132429  0.5314675886231834  0.2560679943093733
  0.0625851297757776  0.7145632975698697  0.8331974733570314
  0.3122724853588565  0.7153249848875296  0.8332707892423961
  0.4379456122717837  0.2781523297385645  0.1245387849279102
  0.4374680491776268  0.1232201559233651  0.5215174092407070
  0.1873273942381254  0.9547039313197299  0.4784848996049962
  0.8127576323935135  0.3727053434657423  0.5216579658327545
  0.1874185715257018  0.2985216730271908  0.8752854202347572
  0.3121363314207558  0.0358131608913239  0.3893719303271851
  0.3121097244918487  0.5415272422574523  0.6106261165401463
  0.8124683999869700  0.7112858591743286  0.6995539801813471
  0.8123908958638006  0.5319487650810357  0.2561070836598691
  0.5624669376436703  0.2017182899974696  0.3452231634494980
  0.5626553785407973  0.7017464196957707  0.3451686555797443
  0.5626651188317910  0.2071153211240233  0.5657008841592124
  0.3126276884069965  0.8763812399610562  0.6548624454058660
  0.4370906768960185  0.2913300615008006  0.6106618029075565
  0.4374542195537209  0.7813126437371012  0.2560895561807144
  0.6874853389684786  0.4515710978598554  0.3451579258598091
  0.9377258767866803  0.4571774680411840  0.5657020837191812
  0.9380154430368184  0.4655445292709661  0.8331490702095120
  0.6874426033589893  0.9611335002894595  0.6996208826041391
  0.8126760252034766  0.0362479462981729  0.3894183522319578
  0.9375705996378245  0.7959602016775168  0.7438505353959705
  0.8122200475829128  0.8811392287330450  0.7881389788836055
  0.0624416566329440  0.7115046896731231  0.6994920773425817
  0.4370758621698571  0.4572785288786700  0.5657328565623367
  0.3122581417789395  0.2114491208757242  0.6996484564174542
  0.1872160122255840  0.1206562118009786  0.4343745468348251
  0.5622929031103181  0.3709452950719351  0.4343662312577147
  0.5626067287361044  0.0463339194449540  0.7438624520187755
  0.6874112257010145  0.4605864333070598  0.6996078816577745
  0.8127426277864976  0.6968655866685690  0.2117555129862309
  0.0622248610550511  0.7050384852966919  0.4785392077129439
  0.4375044961106337  0.2960057891917774  0.7439214691417172
  0.4377160940824190  0.6127193503899196  0.1669277214449060
  0.4374827881599991  0.4610416386990759  0.6995080820383286
  0.4374636239764162  0.9652154511023218  0.8330457585443636
  0.0631448957150817  0.8670689076612669  0.3004734755386780
  0.0625338208150789  0.2116487711734226  0.6994995210888030
  0.8127033822838287  0.3629168929761884  0.1668967655791075
  0.9374052979878995  0.4614707400752681  0.6995248456342298
  0.4373914505288200  0.9549333805433274  0.4785262139400586
  0.9378860924635973  0.2785811906556698  0.1247465455514571
  0.4373101189662746  0.4552113056378604  0.4785058264588248
  0.5622414734227761  0.8625463252494424  0.1667449426705242
  0.4373745126325633  0.2813311008948031  0.2561436939022477
  0.5620686054697864  0.7050542224644908  0.4784742242844827
  0.0625156161185143  0.3631222337269041  0.1669883721529573
  0.4373130477694865  0.1310985812061983  0.7881721406700066
  0.4373660490198156  0.4518392471363213  0.3451493881495624
  0.8114929274692180  0.5497734963968095  0.8753107820449538
  0.5623755053104943  0.2107439964614439  0.6995070125407578
  0.1876090976336421  0.1226318743149778  0.5215977665099472
  0.0625673451965381  0.0458806673339088  0.7438721384417103
  0.6876907151964825  0.4467954290547166  0.2117704033142155
  0.1874973694549433  0.4547288146127234  0.4785549862473408
  0.8122746098938143  0.0460957031970459  0.7439403703274512
  0.5625670522418803  0.2051941221204425  0.4784520217273613
  0.5626361492456414  0.3758021987410891  0.6548448774970560
  0.5621982600559821  0.5491517300283215  0.8752967689860687
  0.3127648605917251  0.7069185878164526  0.5657328512112617
  0.4371160692509872  0.6207335941265925  0.4342813128455304
  0.8126898357060222  0.0417012733343779  0.6106308339535793
  0.5622644938464140  0.8810951560717339  0.7882232884796697
  0.8134817986985746  0.0289211931922936  0.1247712831838978
  0.6874957353411896  0.4549129484812401  0.4785702098025992
  0.4371606737191266  0.6161691972056349  0.3003254440590951
  0.9372201968077688  0.1311898383665042  0.7880868373095703
  0.0624324297631686  0.2049557955227060  0.4786014652933015
  0.3125176878335598  0.3625300524327111  0.1668503384770066
  0.9362904019133853  0.7993078353873281  0.8752935736700613
  0.8127806042571772  0.3661869212999558  0.3004305652518058
  0.6874114714750751  0.1127953676992720  0.1669307642101778
  0.9376683879044629  0.6170283791222448  0.3003910789056565
  0.3125967154444785  0.3808892839460371  0.7879898085820124
  0.4376976569380868  0.6224201979738618  0.5216102290675269
  0.5624723537233596  0.0362590036603108  0.3894715611634801
  0.4371061856891906  0.1207220050123970  0.4343070223938289
  0.5621338295719298  0.3727456730364300  0.5215651654777427
  0.6871937889885446  0.7864777645226213  0.3894616499762869
  0.6877165613684016  0.1258388569679233  0.6548816605602725
  0.1870332657754635  0.6130833671446650  0.1669226511556335
  0.6875698441857213  0.6257525139303368  0.6548879997622615
  0.5626692430120589  0.3621491002747301  0.1669141298799204
  0.0624276150965677  0.8622303003745279  0.1667588734968573
  0.3128481009709385  0.3761624447083418  0.6549262832874648
  0.6874572355232672  0.6229333439367898  0.5214296093929478
  0.1874115242704642  0.1169608785738481  0.3004789250873852
  0.5628383744003510  0.6966885712618565  0.2116303483311298
  0.1879242178943147  0.2785035850599214  0.1246798802064316
  0.0621105430945318  0.0315746975266880  0.2560609128642444
  0.9377283052663808  0.9467477615021106  0.2116907858673392
  0.6877314910137712  0.2921898119630617  0.6106287402653017
  0.9375580758897283  0.6204399499357237  0.4342634132547895
  0.9371979626535061  0.6310890577544986  0.7881880418930971
  0.5628689554558108  0.1970393802982121  0.2118603844912197
  0.0626549157318012  0.3763349929244941  0.6548934988989006
  0.6874816470207794  0.9549529809517365  0.4783325286655670
  0.6872319969450282  0.1309772316328293  0.7882140254298577
  0.8125612433318973  0.5463380317889103  0.7438567510118744
  0.9372698575049542  0.9567351423871284  0.5657149231051046
  0.9375830703409440  0.9615783691696379  0.6996349672911059
  0.9372319699116056  0.1227120847994474  0.5215874117717197
  0.6879853984846936  0.9568630869823989  0.5655722057008189
  0.8124571830821938  0.3708562885142795  0.4344528066121668
  0.1876149656407687  0.1130855502486385  0.1668880845089772
  0.0624066095757761  0.8815153484646358  0.7879415622070537
  0.3127893678536326  0.2071187969809013  0.5656840901315818
  0.6880393216602543  0.6125849262292853  0.1668410797199314
  0.5622601447728788  0.3811591176953624  0.7881500335256447
  0.9380511420887317  0.7787882202568052  0.1246830586884406
  0.5622799079158284  0.5420176841671759  0.6106547129845338
  0.0628956879099715  0.1965811031823116  0.2117879670751825
  0.8122725118657458  0.2051717535756980  0.4785442160017672
  0.5624605283749821  0.8759725385620448  0.6549066665944056
  0.3130718641350196  0.0460430460888556  0.7439182462136343
  0.5623767277993061  0.8710420478443209  0.4344491037302718
  0.9375930135251574  0.1165344263714519  0.3003419628204993
  0.6872028316244233  0.1164254019180872  0.3003866373884604
  0.9374147564194535  0.7861693529259769  0.3894634724371925
  0.1883076551370645  0.7992850132088660  0.8753027991993894
  0.3130778241633838  0.8627755224282048  0.1669329216016734
  0.6874141342742741  0.1230496718789275  0.5215052410864816
  0.0621707550762612  0.5317170151925060  0.2559351291143395
  0.8118899450792538  0.2073931052928909  0.5657603169369643
  0.3126826047010144  0.3726015995666194  0.5216080424948997
  0.3121479005188094  0.0417337815012488  0.6106938593768638
  0.6879191381230167  0.2786420628032676  0.1247269001607987
  0.6876433404932480  0.7965402405832860  0.7438793282754506
  0.9377534703644564  0.1263373820952993  0.6549017386460899
  0.8123112944811162  0.7068848343981272  0.5655558941187105
  0.0624872105820697  0.3704154671408872  0.4343180697978146
  0.5625723347408904  0.5465837978821830  0.7439137827859412
  0.5626167895095382  0.0317284518311017  0.2561950906212915
  0.3127987756389052  0.2015005655340909  0.3452084467322823
  0.0628582482510361  0.5286003591657297  0.1247272854256551
  0.0625189763083161  0.5412625958624728  0.6105769032879128
  0.0622602742137739  0.0290309326340742  0.1247593355265100
  0.1877402772327808  0.7860396901852250  0.3894758730215882
  0.9375282419614080  0.9546605717298026  0.4785194818502060
  0.3127846899377557  0.8667079728714879  0.3004732660239012
  0.1874851962593410  0.6310285441277055  0.7881884128052269
  0.1877594547758865  0.2863661191619239  0.3894589667401029
  0.0624515437691033  0.2015551357416230  0.3451126897228562
  0.3124948176118762  0.0317039721424922  0.2559426628239191
  0.6872748168216151  0.6158703415104011  0.3003909805354328
  0.1875058211631492  0.6226000598652986  0.5214197272981344
  0.6874264331264524  0.7915800679205124  0.6107276218319072
  0.0622768691082831  0.5492395790948490  0.8750739412245199
  0.6873864024929331  0.6207923187871031  0.4343498069502461
  0.0627163358306214  0.2072694677709752  0.5656751880371242
  0.5625693321510130  0.0426937919704048  0.6109185137850945
  0.0627075143778933  0.5459964711797530  0.7439876059170251
  0.3123731589978159  0.7017322019356466  0.3452487486149260
  0.8128009543042561  0.8671885273242408  0.3003705021197406
  0.4376294840926905  0.1126113691742051  0.1663442294364665
  0.4372848199293989  0.9563312318408808  0.5655176724830018
  0.9374073150720128  0.2864799147342899  0.3894880517446107
 
  0.00000000E+00  0.00000000E+00  0.00000000E+00
  0.00000000E+00  0.00000000E+00  0.00000000E+00
  0.00000000E+00  0.00000000E+00  0.00000000E+00
  0.00000000E+00  0.00000000E+00  0.00000000E+00
  0.00000000E+00  0.00000000E+00  0.00000000E+00
  0.00000000E+00  0.00000000E+00  0.00000000E+00
  0.00000000E+00  0.00000000E+00  0.00000000E+00
  0.00000000E+00  0.00000000E+00  0.00000000E+00
  0.00000000E+00  0.00000000E+00  0.00000000E+00
  0.00000000E+00  0.00000000E+00  0.00000000E+00
  0.00000000E+00  0.00000000E+00  0.00000000E+00
  0.00000000E+00  0.00000000E+00  0.00000000E+00
  0.00000000E+00  0.00000000E+00  0.00000000E+00
  0.00000000E+00  0.00000000E+00  0.00000000E+00
  0.00000000E+00  0.00000000E+00  0.00000000E+00
  0.00000000E+00  0.00000000E+00  0.00000000E+00
  0.00000000E+00  0.00000000E+00  0.00000000E+00
  0.00000000E+00  0.00000000E+00  0.00000000E+00
  0.00000000E+00  0.00000000E+00  0.00000000E+00
  0.00000000E+00  0.00000000E+00  0.00000000E+00
  0.00000000E+00  0.00000000E+00  0.00000000E+00
  0.00000000E+00  0.00000000E+00  0.00000000E+00
  0.00000000E+00  0.00000000E+00  0.00000000E+00
  0.00000000E+00  0.00000000E+00  0.00000000E+00
  0.00000000E+00  0.00000000E+00  0.00000000E+00
  0.00000000E+00  0.00000000E+00  0.00000000E+00
  0.00000000E+00  0.00000000E+00  0.00000000E+00
  0.00000000E+00  0.00000000E+00  0.00000000E+00
  0.00000000E+00  0.00000000E+00  0.00000000E+00
  0.00000000E+00  0.00000000E+00  0.00000000E+00
  0.00000000E+00  0.00000000E+00  0.00000000E+00
  0.00000000E+00  0.00000000E+00  0.00000000E+00
  0.00000000E+00  0.00000000E+00  0.00000000E+00
  0.00000000E+00  0.00000000E+00  0.00000000E+00
  0.00000000E+00  0.00000000E+00  0.00000000E+00
  0.00000000E+00  0.00000000E+00  0.00000000E+00
  0.00000000E+00  0.00000000E+00  0.00000000E+00
  0.00000000E+00  0.00000000E+00  0.00000000E+00
  0.00000000E+00  0.00000000E+00  0.00000000E+00
  0.00000000E+00  0.00000000E+00  0.00000000E+00
  0.00000000E+00  0.00000000E+00  0.00000000E+00
  0.00000000E+00  0.00000000E+00  0.00000000E+00
  0.00000000E+00  0.00000000E+00  0.00000000E+00
  0.00000000E+00  0.00000000E+00  0.00000000E+00
  0.00000000E+00  0.00000000E+00  0.00000000E+00
  0.00000000E+00  0.00000000E+00  0.00000000E+00
  0.00000000E+00  0.00000000E+00  0.00000000E+00
  0.00000000E+00  0.00000000E+00  0.00000000E+00
  0.00000000E+00  0.00000000E+00  0.00000000E+00
  0.00000000E+00  0.00000000E+00  0.00000000E+00
  0.00000000E+00  0.00000000E+00  0.00000000E+00
  0.00000000E+00  0.00000000E+00  0.00000000E+00
  0.00000000E+00  0.00000000E+00  0.00000000E+00
  0.00000000E+00  0.00000000E+00  0.00000000E+00
  0.00000000E+00  0.00000000E+00  0.00000000E+00
  0.00000000E+00  0.00000000E+00  0.00000000E+00
  0.00000000E+00  0.00000000E+00  0.00000000E+00
  0.00000000E+00  0.00000000E+00  0.00000000E+00
  0.00000000E+00  0.00000000E+00  0.00000000E+00
  0.00000000E+00  0.00000000E+00  0.00000000E+00
  0.00000000E+00  0.00000000E+00  0.00000000E+00
  0.00000000E+00  0.00000000E+00  0.00000000E+00
  0.00000000E+00  0.00000000E+00  0.00000000E+00
  0.00000000E+00  0.00000000E+00  0.00000000E+00
  0.00000000E+00  0.00000000E+00  0.00000000E+00
  0.00000000E+00  0.00000000E+00  0.00000000E+00
  0.00000000E+00  0.00000000E+00  0.00000000E+00
  0.00000000E+00  0.00000000E+00  0.00000000E+00
  0.00000000E+00  0.00000000E+00  0.00000000E+00
  0.00000000E+00  0.00000000E+00  0.00000000E+00
  0.00000000E+00  0.00000000E+00  0.00000000E+00
  0.00000000E+00  0.00000000E+00  0.00000000E+00
  0.00000000E+00  0.00000000E+00  0.00000000E+00
  0.00000000E+00  0.00000000E+00  0.00000000E+00
  0.00000000E+00  0.00000000E+00  0.00000000E+00
  0.00000000E+00  0.00000000E+00  0.00000000E+00
  0.00000000E+00  0.00000000E+00  0.00000000E+00
  0.00000000E+00  0.00000000E+00  0.00000000E+00
  0.00000000E+00  0.00000000E+00  0.00000000E+00
  0.00000000E+00  0.00000000E+00  0.00000000E+00
  0.00000000E+00  0.00000000E+00  0.00000000E+00
  0.00000000E+00  0.00000000E+00  0.00000000E+00
  0.00000000E+00  0.00000000E+00  0.00000000E+00
  0.00000000E+00  0.00000000E+00  0.00000000E+00
  0.00000000E+00  0.00000000E+00  0.00000000E+00
  0.00000000E+00  0.00000000E+00  0.00000000E+00
  0.00000000E+00  0.00000000E+00  0.00000000E+00
  0.00000000E+00  0.00000000E+00  0.00000000E+00
  0.00000000E+00  0.00000000E+00  0.00000000E+00
  0.00000000E+00  0.00000000E+00  0.00000000E+00
  0.00000000E+00  0.00000000E+00  0.00000000E+00
  0.00000000E+00  0.00000000E+00  0.00000000E+00
  0.00000000E+00  0.00000000E+00  0.00000000E+00
  0.00000000E+00  0.00000000E+00  0.00000000E+00
  0.00000000E+00  0.00000000E+00  0.00000000E+00
  0.00000000E+00  0.00000000E+00  0.00000000E+00
  0.00000000E+00  0.00000000E+00  0.00000000E+00
  0.00000000E+00  0.00000000E+00  0.00000000E+00
  0.00000000E+00  0.00000000E+00  0.00000000E+00
  0.00000000E+00  0.00000000E+00  0.00000000E+00
  0.00000000E+00  0.00000000E+00  0.00000000E+00
  0.00000000E+00  0.00000000E+00  0.00000000E+00
  0.00000000E+00  0.00000000E+00  0.00000000E+00
  0.00000000E+00  0.00000000E+00  0.00000000E+00
  0.00000000E+00  0.00000000E+00  0.00000000E+00
  0.00000000E+00  0.00000000E+00  0.00000000E+00
  0.00000000E+00  0.00000000E+00  0.00000000E+00
  0.00000000E+00  0.00000000E+00  0.00000000E+00
  0.00000000E+00  0.00000000E+00  0.00000000E+00
  0.00000000E+00  0.00000000E+00  0.00000000E+00
  0.00000000E+00  0.00000000E+00  0.00000000E+00
  0.00000000E+00  0.00000000E+00  0.00000000E+00
  0.00000000E+00  0.00000000E+00  0.00000000E+00
  0.00000000E+00  0.00000000E+00  0.00000000E+00
  0.00000000E+00  0.00000000E+00  0.00000000E+00
  0.00000000E+00  0.00000000E+00  0.00000000E+00
  0.00000000E+00  0.00000000E+00  0.00000000E+00
  0.00000000E+00  0.00000000E+00  0.00000000E+00
  0.00000000E+00  0.00000000E+00  0.00000000E+00
  0.00000000E+00  0.00000000E+00  0.00000000E+00
  0.00000000E+00  0.00000000E+00  0.00000000E+00
  0.00000000E+00  0.00000000E+00  0.00000000E+00
  0.00000000E+00  0.00000000E+00  0.00000000E+00
  0.00000000E+00  0.00000000E+00  0.00000000E+00
  0.00000000E+00  0.00000000E+00  0.00000000E+00
  0.00000000E+00  0.00000000E+00  0.00000000E+00
  0.00000000E+00  0.00000000E+00  0.00000000E+00
  0.00000000E+00  0.00000000E+00  0.00000000E+00
  0.00000000E+00  0.00000000E+00  0.00000000E+00
  0.00000000E+00  0.00000000E+00  0.00000000E+00
  0.00000000E+00  0.00000000E+00  0.00000000E+00
  0.00000000E+00  0.00000000E+00  0.00000000E+00
  0.00000000E+00  0.00000000E+00  0.00000000E+00
  0.00000000E+00  0.00000000E+00  0.00000000E+00
  0.00000000E+00  0.00000000E+00  0.00000000E+00
  0.00000000E+00  0.00000000E+00  0.00000000E+00
  0.00000000E+00  0.00000000E+00  0.00000000E+00
  0.00000000E+00  0.00000000E+00  0.00000000E+00
  0.00000000E+00  0.00000000E+00  0.00000000E+00
  0.00000000E+00  0.00000000E+00  0.00000000E+00
  0.00000000E+00  0.00000000E+00  0.00000000E+00
  0.00000000E+00  0.00000000E+00  0.00000000E+00
  0.00000000E+00  0.00000000E+00  0.00000000E+00
  0.00000000E+00  0.00000000E+00  0.00000000E+00
  0.00000000E+00  0.00000000E+00  0.00000000E+00
  0.00000000E+00  0.00000000E+00  0.00000000E+00
  0.00000000E+00  0.00000000E+00  0.00000000E+00
  0.00000000E+00  0.00000000E+00  0.00000000E+00
  0.00000000E+00  0.00000000E+00  0.00000000E+00
  0.00000000E+00  0.00000000E+00  0.00000000E+00
  0.00000000E+00  0.00000000E+00  0.00000000E+00
  0.00000000E+00  0.00000000E+00  0.00000000E+00
  0.00000000E+00  0.00000000E+00  0.00000000E+00
  0.00000000E+00  0.00000000E+00  0.00000000E+00
  0.00000000E+00  0.00000000E+00  0.00000000E+00
  0.00000000E+00  0.00000000E+00  0.00000000E+00
  0.00000000E+00  0.00000000E+00  0.00000000E+00
  0.00000000E+00  0.00000000E+00  0.00000000E+00
  0.00000000E+00  0.00000000E+00  0.00000000E+00
  0.00000000E+00  0.00000000E+00  0.00000000E+00
  0.00000000E+00  0.00000000E+00  0.00000000E+00
  0.00000000E+00  0.00000000E+00  0.00000000E+00
  0.00000000E+00  0.00000000E+00  0.00000000E+00
  0.00000000E+00  0.00000000E+00  0.00000000E+00
  0.00000000E+00  0.00000000E+00  0.00000000E+00
  0.00000000E+00  0.00000000E+00  0.00000000E+00
  0.00000000E+00  0.00000000E+00  0.00000000E+00
  0.00000000E+00  0.00000000E+00  0.00000000E+00
  0.00000000E+00  0.00000000E+00  0.00000000E+00
  0.00000000E+00  0.00000000E+00  0.00000000E+00
  0.00000000E+00  0.00000000E+00  0.00000000E+00
  0.00000000E+00  0.00000000E+00  0.00000000E+00
  0.00000000E+00  0.00000000E+00  0.00000000E+00
  0.00000000E+00  0.00000000E+00  0.00000000E+00
  0.00000000E+00  0.00000000E+00  0.00000000E+00
  0.00000000E+00  0.00000000E+00  0.00000000E+00
  0.00000000E+00  0.00000000E+00  0.00000000E+00
  0.00000000E+00  0.00000000E+00  0.00000000E+00
  0.00000000E+00  0.00000000E+00  0.00000000E+00
  0.00000000E+00  0.00000000E+00  0.00000000E+00
  0.00000000E+00  0.00000000E+00  0.00000000E+00
  0.00000000E+00  0.00000000E+00  0.00000000E+00
  0.00000000E+00  0.00000000E+00  0.00000000E+00
  0.00000000E+00  0.00000000E+00  0.00000000E+00
  0.00000000E+00  0.00000000E+00  0.00000000E+00
  0.00000000E+00  0.00000000E+00  0.00000000E+00
  0.00000000E+00  0.00000000E+00  0.00000000E+00
  0.00000000E+00  0.00000000E+00  0.00000000E+00
  0.00000000E+00  0.00000000E+00  0.00000000E+00
  0.00000000E+00  0.00000000E+00  0.00000000E+00
  0.00000000E+00  0.00000000E+00  0.00000000E+00
  0.00000000E+00  0.00000000E+00  0.00000000E+00
  0.00000000E+00  0.00000000E+00  0.00000000E+00
  0.00000000E+00  0.00000000E+00  0.00000000E+00
  0.00000000E+00  0.00000000E+00  0.00000000E+00
  0.00000000E+00  0.00000000E+00  0.00000000E+00
  0.00000000E+00  0.00000000E+00  0.00000000E+00
  0.00000000E+00  0.00000000E+00  0.00000000E+00
  0.00000000E+00  0.00000000E+00  0.00000000E+00
  0.00000000E+00  0.00000000E+00  0.00000000E+00
  0.00000000E+00  0.00000000E+00  0.00000000E+00
  0.00000000E+00  0.00000000E+00  0.00000000E+00
  0.00000000E+00  0.00000000E+00  0.00000000E+00
  0.00000000E+00  0.00000000E+00  0.00000000E+00
  0.00000000E+00  0.00000000E+00  0.00000000E+00
  0.00000000E+00  0.00000000E+00  0.00000000E+00
  0.00000000E+00  0.00000000E+00  0.00000000E+00
  0.00000000E+00  0.00000000E+00  0.00000000E+00
  0.00000000E+00  0.00000000E+00  0.00000000E+00
  0.00000000E+00  0.00000000E+00  0.00000000E+00
  0.00000000E+00  0.00000000E+00  0.00000000E+00
  0.00000000E+00  0.00000000E+00  0.00000000E+00
  0.00000000E+00  0.00000000E+00  0.00000000E+00
  0.00000000E+00  0.00000000E+00  0.00000000E+00
  0.00000000E+00  0.00000000E+00  0.00000000E+00
  0.00000000E+00  0.00000000E+00  0.00000000E+00
  0.00000000E+00  0.00000000E+00  0.00000000E+00
  0.00000000E+00  0.00000000E+00  0.00000000E+00
  0.00000000E+00  0.00000000E+00  0.00000000E+00
  0.00000000E+00  0.00000000E+00  0.00000000E+00
  0.00000000E+00  0.00000000E+00  0.00000000E+00
  0.00000000E+00  0.00000000E+00  0.00000000E+00
  0.00000000E+00  0.00000000E+00  0.00000000E+00
  0.00000000E+00  0.00000000E+00  0.00000000E+00
  0.00000000E+00  0.00000000E+00  0.00000000E+00
  0.00000000E+00  0.00000000E+00  0.00000000E+00
  0.00000000E+00  0.00000000E+00  0.00000000E+00
  0.00000000E+00  0.00000000E+00  0.00000000E+00
  0.00000000E+00  0.00000000E+00  0.00000000E+00
  0.00000000E+00  0.00000000E+00  0.00000000E+00
  0.00000000E+00  0.00000000E+00  0.00000000E+00
  0.00000000E+00  0.00000000E+00  0.00000000E+00
  0.00000000E+00  0.00000000E+00  0.00000000E+00
  0.00000000E+00  0.00000000E+00  0.00000000E+00
  0.00000000E+00  0.00000000E+00  0.00000000E+00
  0.00000000E+00  0.00000000E+00  0.00000000E+00
  0.00000000E+00  0.00000000E+00  0.00000000E+00
  0.00000000E+00  0.00000000E+00  0.00000000E+00
  0.00000000E+00  0.00000000E+00  0.00000000E+00
  0.00000000E+00  0.00000000E+00  0.00000000E+00
  0.00000000E+00  0.00000000E+00  0.00000000E+00
  0.00000000E+00  0.00000000E+00  0.00000000E+00
  0.00000000E+00  0.00000000E+00  0.00000000E+00
  0.00000000E+00  0.00000000E+00  0.00000000E+00
  0.00000000E+00  0.00000000E+00  0.00000000E+00
  0.00000000E+00  0.00000000E+00  0.00000000E+00
  0.00000000E+00  0.00000000E+00  0.00000000E+00