FeMn_288_15                             
    1.000000000000000     
     9.7266779999999997    0.0000000000000000    0.0000000000000000
     0.0000000000000000    8.4235500000000005    0.0000000000000000
     0.0000000000000000    0.0000000000000000   45.0000000000000000
   Fe   Mn
   273    15
Direct
  0.3127523555453923  0.5279743397510483  0.1245692632927894
  0.9373969159607006  0.1207893640344816  0.4344859463062627
  0.8115905754253591  0.3813959641878679  0.7882158592515303
  0.3120727767918045  0.7109357745298319  0.6996157406276921
  0.0619805481258180  0.7020683389317559  0.3450123941522755
  0.1866058411809129  0.1316059974530460  0.7884416089995498
  0.4379411460218181  0.4459670688371970  0.2115714486429149
  0.6877678826495937  0.2862680265370970  0.3892636068118382
  0.9371932492857866  0.9527962752794336  0.3451262445673541
  0.9369737224072564  0.7814339002616205  0.2560193738567743
  0.1875864842767513  0.7916742196286846  0.6106052946035528
  0.0626812071652286  0.2149649725151736  0.8333271095188232
  0.4371328369324995  0.2996807322047381  0.8753471201949719
  0.4377282288800914  0.7860824437616781  0.3893183626995249
  0.8124518932540564  0.8704806785197887  0.4344757469175052
  0.0623340531719669  0.8733621419426961  0.5216538279125792
  0.9379454965038081  0.2962872377829284  0.7439475111162565
  0.6878756032209483  0.4572613564038239  0.5656389753947284
  0.9374974645881354  0.1128152492055441  0.1669548609548276
  0.6876762418141651  0.1211698566330000  0.4344765749322655
  0.1877439831050326  0.2963448781444015  0.7439006488743579
  0.4382307128745461  0.9461195989299565  0.2117439822873763
  0.5629137906721996  0.2150937950997415  0.8330240518253195
  0.1877348181083615  0.7959330908687966  0.7439333233615824
  0.1876335200706238  0.6203724826305330  0.4347231222337526
  0.8121976917328798  0.2019344768258532  0.3450050098457596
  0.5628801652405234  0.7151407903195636  0.8331380498308560
  0.8124864660775918  0.5357964052112966  0.3892028547165330
  0.9376710326357910  0.6259112735292648  0.6549302182389618
  0.4377627179841705  0.4650912581905959  0.8330878583672027
  0.3126445425017387  0.8705178609068506  0.4344543883215079
  0.8128915602683250  0.3758971722824875  0.6548923505887401
  0.8123199205266305  0.8723093725777684  0.5215453538485054
  0.8122358618412022  0.8629380334523969  0.1668215432841630
  0.6870538598497296  0.2820539784439582  0.2560222053753073
  0.9378488556483086  0.9648284266345237  0.8329864922650805
  0.4370434425366847  0.9613210925898061  0.6997409114597486
  0.3127301297855331  0.2147099548543903  0.8329958274402516
  0.3135017720972108  0.0281398651702811  0.1246140919897203
  0.8120473681247070  0.2111615449451348  0.6998096739188584
  0.8127524016315778  0.2147081044736045  0.8329556204312163
  0.1867083633700496  0.4521631596978936  0.3449997063078167
  0.0624406227772650  0.3667851828413894  0.3001764280170306
  0.8122859903940193  0.5425465947973415  0.6107027154107196
  0.4379890575273537  0.1255445548147502  0.6549319538019446
  0.3124465163039884  0.5505231103252877  0.8751870845581915
  0.9384473441376068  0.4460471360999239  0.2115362752190603
  0.3130742928087064  0.5464637804853223  0.7439370641550948
  0.8131835010029316  0.5276979063256722  0.1244171847407720
  0.6874184369293264  0.2999467533234952  0.8753791890649240
  0.8116555143629837  0.7025002737587203  0.3449599923572167
  0.3124667853296134  0.8734282675251098  0.5215314361676953
  0.3129515971729438  0.6962920391412865  0.2116534423719079
  0.3119415145448617  0.8816293081491656  0.7883877434679220
  0.5628652448013427  0.3672956884869495  0.3002151063582225
  0.8131947654090821  0.7149660544595738  0.8332605108189431
  0.1880643565406303  0.4459852295625610  0.2116063125145838
  0.0620663634903908  0.0422278206375270  0.6107385968952921
  0.8125430899375494  0.0497242409622540  0.8752742677911375
  0.1882337538711036  0.7774727548118884  0.1246089426887672
  0.3124409216780110  0.2051404391817021  0.4785465034677551
  0.6869022653389056  0.9521422684967584  0.3448917319642007
  0.6877768012081599  0.8000350452232076  0.8754858457474685
  0.5627185812254450  0.8725252134955934  0.5215342287012377
  0.9376602616535328  0.2994103299969846  0.8754768508178385
  0.8119318372313092  0.0310970324767533  0.2559007193533935
  0.1872337385914163  0.4565626137758941  0.5656781951293519
  0.6869972016818481  0.7811816089918305  0.2559950908513335
  0.5623694854004496  0.7079565011379779  0.5655768438568991
  0.0627152444331358  0.6958454215954512  0.2115746230473529
  0.9373335489144208  0.2817383183915883  0.2560774169866786
  0.6882364360445086  0.2966001769727207  0.7439180467805122
  0.5620516777730252  0.0497770913894536  0.8752040343641714
  0.4373690416157427  0.6320504689908248  0.7883862225085176
  0.1875354317349511  0.9650363912138391  0.8330112597592978
  0.3125277036140585  0.5366365189184901  0.3890916922355598
  0.4368187449880755  0.8000198287908463  0.8754725558437481
  0.4375278149059729  0.1165526081966303  0.3002841251910299
  0.1872390081139378  0.9613465839158383  0.6997822319131178
  0.1872033496990501  0.9567946079599978  0.5656867411504913
  0.0619039757183287  0.0369416600382947  0.3893744962911298
  0.1874608834345099  0.9522702322935765  0.3450481711012550
  0.4368845334203103  0.9516892187548863  0.3450073634891059
  0.9376831360648736  0.4559295494700063  0.4785806745729986
  0.1879866310860718  0.6258800356600966  0.6548275965712690
  0.9366999265950275  0.6221028376625809  0.5215741565708386
  0.1877115812382822  0.1264020776452592  0.6549754780662431
  0.5623488089758721  0.5311576013338482  0.2559029750851228
  0.6878331667744881  0.4649332694229870  0.8330328913826462
  0.1882441580671941  0.9462838590942840  0.2116682614256929
  0.0618102917572800  0.3812413503352803  0.7883854589730729
  0.9371792919050306  0.4516857495802943  0.3449772872205721
  0.3127106969870339  0.7058876941944705  0.4786468008503275
  0.4377093719547213  0.2865658702696801  0.3891763336133991
  0.3116630640266062  0.0496862598959642  0.8753267191694045
  0.4379810974661740  0.7965100838220540  0.7440201270620456
  0.3127286008476857  0.3665574191337956  0.3001984167757636
  0.4382649580616288  0.6251545896782192  0.6549424575006846
  0.0625552661099001  0.5352005811140939  0.3890638975660147
  0.5631777184184174  0.5279818118946596  0.1245510577153696
  0.0618790947110064  0.3721390802978071  0.5216959686659711
  0.1869353053827642  0.7815495092549392  0.2560760088424213
  0.1871165591635455  0.2812522345701594  0.2559421556699910
  0.8125900685016293  0.7056126269670809  0.4785569073594599
  0.6881777773188477  0.9468531690190912  0.2116263305925486
  0.3126445069512923  0.1960463486437381  0.2118743532220501
  0.0618126182991546  0.8702029841548372  0.4346055461088676
  0.9372290728731667  0.6128781334806036  0.1669488521536116
  0.6871295296445166  0.6321627737106245  0.7884413600744863
  0.0630414297408456  0.8759395158378492  0.6549373891877976
  0.9374915410193645  0.2917221034377490  0.6107310378847582
  0.5623362052624796  0.7104872667605531  0.6997381042793760
  0.4381342366017738  0.7782959828429756  0.1246024725142958
  0.0622859978315554  0.7068430329762524  0.5655477685286462
  0.5627620466477975  0.0282170972501703  0.1245238948709780
  0.6879381663361841  0.9647238756680967  0.8330794494532588
  0.3132533587767540  0.3700281003695692  0.4345465195973223
  0.9367470489862358  0.7919113289941784  0.6106271951790804
  0.8129825399411652  0.1968018327573045  0.2115032686447103
  0.5622917321113492  0.5367849253980872  0.3891867873226643
  0.1871251996842578  0.4618198136457050  0.6996889882406040
  0.1873264252137240  0.2912660077462679  0.6107462079441712
  0.5625390473958199  0.8659685115790604  0.3001845208524315
  0.1874266117946967  0.6165489793733523  0.3001510366488880
  0.0618481648939362  0.0501995915407778  0.8753929050028905
  0.1869265637511564  0.4654540424156614  0.8332714483037175
  0.4378220718445991  0.7919663485149157  0.6107524708704097
  0.6879531261678080  0.7778395574414561  0.1246185669260527
  0.8126854531798395  0.8755601366057798  0.6548250035270196
  0.3119350151064271  0.5312177644916941  0.2559901660330844
  0.0625889260327197  0.7138737255536612  0.8332974465738955
  0.3123372147374274  0.7149394497828608  0.8332875851863428
  0.4381004727942354  0.2777199913574969  0.1246503083323480
  0.4376809159701366  0.1230327620639975  0.5216805739150832
  0.1872551966592923  0.9544358397274154  0.4786763355958900
  0.8127298117203320  0.3723233611593426  0.5217268505806141
  0.1862864012733416  0.2991754271501509  0.8754380867472682
  0.3123346843336560  0.0362093000696740  0.3891880865195519
  0.3122203287379043  0.5416983047853291  0.6106623739672234
  0.8122450322349755  0.7107466619690391  0.6996465111562559
  0.8121290133897954  0.5320454624905968  0.2560567216136178
  0.5625318585544262  0.2022148011027730  0.3450969450217081
  0.5622704420166338  0.7018168084854705  0.3449989620013026
  0.5626609252328901  0.2069668035321660  0.5656327204942173
  0.3131392324823086  0.8759425862378704  0.6549229127696597
  0.4372145172993954  0.2911297219036665  0.6107001390192294
  0.4371013393145693  0.7809809254197563  0.2560969792149421
  0.6873710920869645  0.4520440916116529  0.3449732671365773
  0.9378237150997398  0.4572382843626471  0.5656855811588778
  0.9385468668774014  0.4654447424007476  0.8332056451875879
  0.6872109566325496  0.9611887494329240  0.6997149170737422
  0.8131036171023580  0.0365369865676884  0.3891420406717129
  0.9380116602513309  0.7957535896120070  0.7439712147709686
  0.8121590023305223  0.8815673339716190  0.7884691501663492
  0.0620283571585240  0.7111642508131061  0.6996422144606710
  0.4371967052162533  0.4572387740686478  0.5657383838986296
  0.3120864083799137  0.2115342664690845  0.6998441174207739
  0.1869930802668707  0.1203043163074696  0.4345049141635565
  0.5627600226913643  0.3709828412208917  0.4345405992512370
  0.5631312748576504  0.0463701954725535  0.7439298559418422
  0.6871712295961149  0.4602837302988870  0.6997746677515817
  0.8131713649239533  0.6962708731212577  0.2117192466717028
  0.0623690527295374  0.7051366701614906  0.4786663909722843
  0.4380115409153066  0.2963469284975094  0.7440148624139524
  0.4372949305240357  0.6129920781516518  0.1670208831367207
  0.4374637417372421  0.4608193402238686  0.6995941977168799
  0.4377496059920779  0.9647887139853399  0.8331486695411613
  0.0625252360234417  0.8671616919261197  0.3002874051650622
  0.0621504123516189  0.2118253332700059  0.6996903279773187
  0.8123041333393353  0.3628298322742869  0.1668501552910510
  0.9369009753567246  0.4614988841428475  0.6996806639014501
  0.4372249750483617  0.9549226255167661  0.4786564126054932
  0.9380494248919649  0.2785445611302221  0.1247099434042370
  0.4370867766561289  0.4559899048855879  0.4786292293671248
  0.5619453160275395  0.8637297253999500  0.1666591288180525
  0.4365417832967334  0.2810845810233304  0.2559754631797306
  0.5620045762281154  0.7061534048238736  0.4785470406877776
  0.0623518516135044  0.3631569583834407  0.1669246282253370
  0.4372900594150825  0.1318133621593923  0.7883927427314544
  0.4370905337949401  0.4523311936204039  0.3449979913852966
  0.8117025409899598  0.5505604673728455  0.8752253509752324
  0.5623513469074006  0.2108424774430485  0.6995843466221719
  0.1875796733419793  0.1222449872904232  0.5217113095558050
  0.0626247299176928  0.0458234230035119  0.7440256914433588
  0.6882512788037417  0.4461817084571070  0.2116742871570848
  0.1873591629062773  0.4553661660372373  0.4786823315748807
  0.8129203978671529  0.0462738897513842  0.7440487905439855
  0.5623549268267022  0.2053323751315149  0.4784862933480943
  0.5630025366842242  0.3752425748711501  0.6548767033522913
  0.5622192239065078  0.5495325888764798  0.8753925681843385
  0.3131596641655298  0.7069281113135907  0.5657082846235509
  0.4375001983153032  0.6203812579955107  0.4344306340100743
  0.8122028728096097  0.0419027281371597  0.6106964855979730
  0.5622916146409874  0.8813912298294434  0.7884289857059603
  0.8133249251040953  0.0278985390426727  0.1246337701328598
  0.6875200074854073  0.4556613185215838  0.4786529276308262
  0.4381517469083518  0.6160664901509583  0.3001232547222810
  0.9371761873893711  0.1314525200472284  0.7884253115708274
  0.0625813493848300  0.2051728646687975  0.4787216921789519
  0.3124515375877882  0.3627458249199261  0.1667374830987917
  0.9364741409011366  0.8003096962137879  0.8754476077292358
  0.8129475822751067  0.3665005718721187  0.3002201601981777
  0.6867628325125882  0.1132580149794049  0.1669981850723521
  0.9375754208034878  0.6173021225006116  0.3001840419566286
  0.3125873136884569  0.3813023412866460  0.7881806107827990
  0.4379810524949459  0.6225449236088737  0.5216798191903249
  0.5628289135241136  0.0365502678036008  0.3892500576979054
  0.4373861461530349  0.1205539935124158  0.4344360577074612
  0.5622172773540686  0.3723235859037629  0.5217376283439021
  0.6872949665323165  0.7865409290166299  0.3892661592554316
  0.6881163245882677  0.1255670371233046  0.6548059736955767
  0.1865022670144349  0.6132618387491831  0.1670103626754608
  0.6880595671118143  0.6253390704952386  0.6548552103565556
  0.5622255761023325  0.3622440976304219  0.1668546722747229
  0.0621536526739447  0.8627674091683831  0.1666508351714535
  0.3131696093075877  0.3759790715688694  0.6549343599332234
  0.6875636035844569  0.6226375259106578  0.5214663687843638
  0.1874221976656358  0.1167867155145424  0.3002737494222423
  0.5634304806865670  0.6961931268438959  0.2115541771350694
  0.1885867325989102  0.2783515987994030  0.1246702740332403
  0.0619799838612209  0.0314894317827019  0.2559829482632557
  0.9380124309947754  0.9460572081527076  0.2116115221370852
  0.6874543234633090  0.2915916123243968  0.6106849083986025
  0.9372981239523325  0.6199829056902315  0.4343775687234048
  0.9365245949553197  0.6319559478809310  0.7885296722262117
  0.5632568426437280  0.1964751415128462  0.2118222116183813
  0.0627475147154977  0.3762125186846701  0.6549090251166951
  0.6876051102673917  0.9547349395091448  0.4784372439370617
  0.6871498498034186  0.1317555451028356  0.7884957154510375
  0.8128325527544780  0.5462954574974889  0.7439533634628660
  0.9370520158964228  0.9573153532521889  0.5656352091714278
  0.9369946628651497  0.9613423474189160  0.6998089257986986
  0.9371439119856750  0.1220143759202310  0.5217352919480384
  0.6880876567671907  0.9572139507504194  0.5655207626797584
  0.8120344654360635  0.3706295661229415  0.4345612017334098
  0.1876304494176514  0.1133307841310005  0.1669392856139660
  0.0617839860231282  0.8821399827238721  0.7882021376568754
  0.3131147199838458  0.2068034991051778  0.5655994840287650
  0.6880629939262437  0.6125076899300521  0.1669503420524482
  0.5621651458038571  0.3815684117056666  0.7883187969883070
  0.9383196273919436  0.7778623928850672  0.1246055886317593
  0.5622625856281195  0.5424855821510489  0.6107254645518688
  0.0633759310776475  0.1960611936489866  0.2116031224248107
  0.8124323719701436  0.2055730612686349  0.4785197992103240
  0.5631712600809982  0.8753135808456811  0.6548076897310515
  0.3131843045733885  0.0461148115475177  0.7440158775044121
  0.5626070323863372  0.8707524432962992  0.4346372130604474
  0.9378600493837695  0.1160105928758213  0.3001327594649826
  0.6877508617474646  0.1160338303228948  0.3001839443837536
  0.9374541683446286  0.7865083046607482  0.3892310235657942
  0.1874634162757714  0.8004293091145933  0.8753884539871316
  0.3128054430909587  0.8639964862901045  0.1668767866532751
  0.6872293563850661  0.1224018304748182  0.5217014568095898
  0.0615938280872955  0.5319107193696357  0.2558281414175574
  0.8118830327114813  0.2071308577021706  0.5657119649493560
  0.3127463520340286  0.3718807370716267  0.5217356443740450
  0.3122555324918896  0.0417847373591882  0.6106620497387347
  0.6878446589647113  0.2783324446770774  0.1245993123330897
  0.6882360141617344  0.7964567057444958  0.7440180608918791
  0.9379815322486336  0.1263324002401577  0.6549157243778450
  0.8121913072219014  0.7075330840979679  0.5654606323168689
  0.0618121001197182  0.3699995313998685  0.4344227251360989
  0.5631654100069301  0.5465859529060348  0.7440264374518830
  0.5620200202946487  0.0317521644394194  0.2559785538145019
  0.3123601670392965  0.2021171929163859  0.3450504774460285
  0.0631818132783366  0.5279737610429498  0.1245286590124340
  0.0624167222138536  0.5414185376582394  0.6105843447777917
  0.0625104583772367  0.0276673921556602  0.1246933499829346
  0.1879917191050714  0.7858174594126904  0.3893025101187194
  0.9376120213911412  0.9546400476010604  0.4786253720173458
  0.3129696919995594  0.8666204950016954  0.3002303162477332
  0.1872615502661583  0.6318220762451887  0.7884840957543533
  0.1872966257339892  0.2865544032314152  0.3891764986026552
  0.0617853802818290  0.2023042774227714  0.3449450335721821
  0.3119726048918725  0.0317611754372849  0.2556763731170107
  0.6877351824064832  0.6160537689715985  0.3001770703754090
  0.1873656311758267  0.6225251932072834  0.5213794140676486
  0.6871062492426178  0.7915640953458335  0.6108108598236894
  0.0616934760057390  0.5493421016272331  0.8749710075048915
  0.6871498102629459  0.6207095987666902  0.4345030587765107
  0.0625168573374448  0.2070322920534602  0.5655976894781872
  0.5627044396421517  0.0426645235503355  0.6109767701064250
  0.0629141237181364  0.5460306858451015  0.7442119084240165
  0.3123725335430740  0.7017680036036671  0.3451026669866879
  0.8131187716732263  0.8673943986777896  0.3002579545615625
  0.4373289211542584  0.1129425489445967  0.1659683972109154
  0.4375306078897942  0.9565683266156320  0.5654161006339129
  0.9375849203443983  0.2865132447734086  0.3893020560721704
 
  0.00000000E+00  0.00000000E+00  0.00000000E+00
  0.00000000E+00  0.00000000E+00  0.00000000E+00
  0.00000000E+00  0.00000000E+00  0.00000000E+00
  0.00000000E+00  0.00000000E+00  0.00000000E+00
  0.00000000E+00  0.00000000E+00  0.00000000E+00
  0.00000000E+00  0.00000000E+00  0.00000000E+00
  0.00000000E+00  0.00000000E+00  0.00000000E+00
  0.00000000E+00  0.00000000E+00  0.00000000E+00
  0.00000000E+00  0.00000000E+00  0.00000000E+00
  0.00000000E+00  0.00000000E+00  0.00000000E+00
  0.00000000E+00  0.00000000E+00  0.00000000E+00
  0.00000000E+00  0.00000000E+00  0.00000000E+00
  0.00000000E+00  0.00000000E+00  0.00000000E+00
  0.00000000E+00  0.00000000E+00  0.00000000E+00
  0.00000000E+00  0.00000000E+00  0.00000000E+00
  0.00000000E+00  0.00000000E+00  0.00000000E+00
  0.00000000E+00  0.00000000E+00  0.00000000E+00
  0.00000000E+00  0.00000000E+00  0.00000000E+00
  0.00000000E+00  0.00000000E+00  0.00000000E+00
  0.00000000E+00  0.00000000E+00  0.00000000E+00
  0.00000000E+00  0.00000000E+00  0.00000000E+00
  0.00000000E+00  0.00000000E+00  0.00000000E+00
  0.00000000E+00  0.00000000E+00  0.00000000E+00
  0.00000000E+00  0.00000000E+00  0.00000000E+00
  0.00000000E+00  0.00000000E+00  0.00000000E+00
  0.00000000E+00  0.00000000E+00  0.00000000E+00
  0.00000000E+00  0.00000000E+00  0.00000000E+00
  0.00000000E+00  0.00000000E+00  0.00000000E+00
  0.00000000E+00  0.00000000E+00  0.00000000E+00
  0.00000000E+00  0.00000000E+00  0.00000000E+00
  0.00000000E+00  0.00000000E+00  0.00000000E+00
  0.00000000E+00  0.00000000E+00  0.00000000E+00
  0.00000000E+00  0.00000000E+00  0.00000000E+00
  0.00000000E+00  0.00000000E+00  0.00000000E+00
  0.00000000E+00  0.00000000E+00  0.00000000E+00
  0.00000000E+00  0.00000000E+00  0.00000000E+00
  0.00000000E+00  0.00000000E+00  0.00000000E+00
  0.00000000E+00  0.00000000E+00  0.00000000E+00
  0.00000000E+00  0.00000000E+00  0.00000000E+00
  0.00000000E+00  0.00000000E+00  0.00000000E+00
  0.00000000E+00  0.00000000E+00  0.00000000E+00
  0.00000000E+00  0.00000000E+00  0.00000000E+00
  0.00000000E+00  0.00000000E+00  0.00000000E+00
  0.00000000E+00  0.00000000E+00  0.00000000E+00
  0.00000000E+00  0.00000000E+00  0.00000000E+00
  0.00000000E+00  0.00000000E+00  0.00000000E+00
  0.00000000E+00  0.00000000E+00  0.00000000E+00
  0.00000000E+00  0.00000000E+00  0.00000000E+00
  0.00000000E+00  0.00000000E+00  0.00000000E+00
  0.00000000E+00  0.00000000E+00  0.00000000E+00
  0.00000000E+00  0.00000000E+00  0.00000000E+00
  0.00000000E+00  0.00000000E+00  0.00000000E+00
  0.00000000E+00  0.00000000E+00  0.00000000E+00
  0.00000000E+00  0.00000000E+00  0.00000000E+00
  0.00000000E+00  0.00000000E+00  0.00000000E+00
  0.00000000E+00  0.00000000E+00  0.00000000E+00
  0.00000000E+00  0.00000000E+00  0.00000000E+00
  0.00000000E+00  0.00000000E+00  0.00000000E+00
  0.00000000E+00  0.00000000E+00  0.00000000E+00
  0.00000000E+00  0.00000000E+00  0.00000000E+00
  0.00000000E+00  0.00000000E+00  0.00000000E+00
  0.00000000E+00  0.00000000E+00  0.00000000E+00
  0.00000000E+00  0.00000000E+00  0.00000000E+00
  0.00000000E+00  0.00000000E+00  0.00000000E+00
  0.00000000E+00  0.00000000E+00  0.00000000E+00
  0.00000000E+00  0.00000000E+00  0.00000000E+00
  0.00000000E+00  0.00000000E+00  0.00000000E+00
  0.00000000E+00  0.00000000E+00  0.00000000E+00
  0.00000000E+00  0.00000000E+00  0.00000000E+00
  0.00000000E+00  0.00000000E+00  0.00000000E+00
  0.00000000E+00  0.00000000E+00  0.00000000E+00
  0.00000000E+00  0.00000000E+00  0.00000000E+00
  0.00000000E+00  0.00000000E+00  0.00000000E+00
  0.00000000E+00  0.00000000E+00  0.00000000E+00
  0.00000000E+00  0.00000000E+00  0.00000000E+00
  0.00000000E+00  0.00000000E+00  0.00000000E+00
  0.00000000E+00  0.00000000E+00  0.00000000E+00
  0.00000000E+00  0.00000000E+00  0.00000000E+00
  0.00000000E+00  0.00000000E+00  0.00000000E+00
  0.00000000E+00  0.00000000E+00  0.00000000E+00
  0.00000000E+00  0.00000000E+00  0.00000000E+00
  0.00000000E+00  0.00000000E+00  0.00000000E+00
  0.00000000E+00  0.00000000E+00  0.00000000E+00
  0.00000000E+00  0.00000000E+00  0.00000000E+00
  0.00000000E+00  0.00000000E+00  0.00000000E+00
  0.00000000E+00  0.00000000E+00  0.00000000E+00
  0.00000000E+00  0.00000000E+00  0.00000000E+00
  0.00000000E+00  0.00000000E+00  0.00000000E+00
  0.00000000E+00  0.00000000E+00  0.00000000E+00
  0.00000000E+00  0.00000000E+00  0.00000000E+00
  0.00000000E+00  0.00000000E+00  0.00000000E+00
  0.00000000E+00  0.00000000E+00  0.00000000E+00
  0.00000000E+00  0.00000000E+00  0.00000000E+00
  0.00000000E+00  0.00000000E+00  0.00000000E+00
  0.00000000E+00  0.00000000E+00  0.00000000E+00
  0.00000000E+00  0.00000000E+00  0.00000000E+00
  0.00000000E+00  0.00000000E+00  0.00000000E+00
  0.00000000E+00  0.00000000E+00  0.00000000E+00
  0.00000000E+00  0.00000000E+00  0.00000000E+00
  0.00000000E+00  0.00000000E+00  0.00000000E+00
  0.00000000E+00  0.00000000E+00  0.00000000E+00
  0.00000000E+00  0.00000000E+00  0.00000000E+00
  0.00000000E+00  0.00000000E+00  0.00000000E+00
  0.00000000E+00  0.00000000E+00  0.00000000E+00
  0.00000000E+00  0.00000000E+00  0.00000000E+00
  0.00000000E+00  0.00000000E+00  0.00000000E+00
  0.00000000E+00  0.00000000E+00  0.00000000E+00
  0.00000000E+00  0.00000000E+00  0.00000000E+00
  0.00000000E+00  0.00000000E+00  0.00000000E+00
  0.00000000E+00  0.00000000E+00  0.00000000E+00
  0.00000000E+00  0.00000000E+00  0.00000000E+00
  0.00000000E+00  0.00000000E+00  0.00000000E+00
  0.00000000E+00  0.00000000E+00  0.00000000E+00
  0.00000000E+00  0.00000000E+00  0.00000000E+00
  0.00000000E+00  0.00000000E+00  0.00000000E+00
  0.00000000E+00  0.00000000E+00  0.00000000E+00
  0.00000000E+00  0.00000000E+00  0.00000000E+00
  0.00000000E+00  0.00000000E+00  0.00000000E+00
  0.00000000E+00  0.00000000E+00  0.00000000E+00
  0.00000000E+00  0.00000000E+00  0.00000000E+00
  0.00000000E+00  0.00000000E+00  0.00000000E+00
  0.00000000E+00  0.00000000E+00  0.00000000E+00
  0.00000000E+00  0.00000000E+00  0.00000000E+00
  0.00000000E+00  0.00000000E+00  0.00000000E+00
  0.00000000E+00  0.00000000E+00  0.00000000E+00
  0.00000000E+00  0.00000000E+00  0.00000000E+00
  0.00000000E+00  0.00000000E+00  0.00000000E+00
  0.00000000E+00  0.00000000E+00  0.00000000E+00
  0.00000000E+00  0.00000000E+00  0.00000000E+00
  0.00000000E+00  0.00000000E+00  0.00000000E+00
  0.00000000E+00  0.00000000E+00  0.00000000E+00
  0.00000000E+00  0.00000000E+00  0.00000000E+00
  0.00000000E+00  0.00000000E+00  0.00000000E+00
  0.00000000E+00  0.00000000E+00  0.00000000E+00
  0.00000000E+00  0.00000000E+00  0.00000000E+00
  0.00000000E+00  0.00000000E+00  0.00000000E+00
  0.00000000E+00  0.00000000E+00  0.00000000E+00
  0.00000000E+00  0.00000000E+00  0.00000000E+00
  0.00000000E+00  0.00000000E+00  0.00000000E+00
  0.00000000E+00  0.00000000E+00  0.00000000E+00
  0.00000000E+00  0.00000000E+00  0.00000000E+00
  0.00000000E+00  0.00000000E+00  0.00000000E+00
  0.00000000E+00  0.00000000E+00  0.00000000E+00
  0.00000000E+00  0.00000000E+00  0.00000000E+00
  0.00000000E+00  0.00000000E+00  0.00000000E+00
  0.00000000E+00  0.00000000E+00  0.00000000E+00
  0.00000000E+00  0.00000000E+00  0.00000000E+00
  0.00000000E+00  0.00000000E+00  0.00000000E+00
  0.00000000E+00  0.00000000E+00  0.00000000E+00
  0.00000000E+00  0.00000000E+00  0.00000000E+00
  0.00000000E+00  0.00000000E+00  0.00000000E+00
  0.00000000E+00  0.00000000E+00  0.00000000E+00
  0.00000000E+00  0.00000000E+00  0.00000000E+00
  0.00000000E+00  0.00000000E+00  0.00000000E+00
  0.00000000E+00  0.00000000E+00  0.00000000E+00
  0.00000000E+00  0.00000000E+00  0.00000000E+00
  0.00000000E+00  0.00000000E+00  0.00000000E+00
  0.00000000E+00  0.00000000E+00  0.00000000E+00
  0.00000000E+00  0.00000000E+00  0.00000000E+00
  0.00000000E+00  0.00000000E+00  0.00000000E+00
  0.00000000E+00  0.00000000E+00  0.00000000E+00
  0.00000000E+00  0.00000000E+00  0.00000000E+00
  0.00000000E+00  0.00000000E+00  0.00000000E+00
  0.00000000E+00  0.00000000E+00  0.00000000E+00
  0.00000000E+00  0.00000000E+00  0.00000000E+00
  0.00000000E+00  0.00000000E+00  0.00000000E+00
  0.00000000E+00  0.00000000E+00  0.00000000E+00
  0.00000000E+00  0.00000000E+00  0.00000000E+00
  0.00000000E+00  0.00000000E+00  0.00000000E+00
  0.00000000E+00  0.00000000E+00  0.00000000E+00
  0.00000000E+00  0.00000000E+00  0.00000000E+00
  0.00000000E+00  0.00000000E+00  0.00000000E+00
  0.00000000E+00  0.00000000E+00  0.00000000E+00
  0.00000000E+00  0.00000000E+00  0.00000000E+00
  0.00000000E+00  0.00000000E+00  0.00000000E+00
  0.00000000E+00  0.00000000E+00  0.00000000E+00
  0.00000000E+00  0.00000000E+00  0.00000000E+00
  0.00000000E+00  0.00000000E+00  0.00000000E+00
  0.00000000E+00  0.00000000E+00  0.00000000E+00
  0.00000000E+00  0.00000000E+00  0.00000000E+00
  0.00000000E+00  0.00000000E+00  0.00000000E+00
  0.00000000E+00  0.00000000E+00  0.00000000E+00
  0.00000000E+00  0.00000000E+00  0.00000000E+00
  0.00000000E+00  0.00000000E+00  0.00000000E+00
  0.00000000E+00  0.00000000E+00  0.00000000E+00
  0.00000000E+00  0.00000000E+00  0.00000000E+00
  0.00000000E+00  0.00000000E+00  0.00000000E+00
  0.00000000E+00  0.00000000E+00  0.00000000E+00
  0.00000000E+00  0.00000000E+00  0.00000000E+00
  0.00000000E+00  0.00000000E+00  0.00000000E+00
  0.00000000E+00  0.00000000E+00  0.00000000E+00
  0.00000000E+00  0.00000000E+00  0.00000000E+00
  0.00000000E+00  0.00000000E+00  0.00000000E+00
  0.00000000E+00  0.00000000E+00  0.00000000E+00
  0.00000000E+00  0.00000000E+00  0.00000000E+00
  0.00000000E+00  0.00000000E+00  0.00000000E+00
  0.00000000E+00  0.00000000E+00  0.00000000E+00
  0.00000000E+00  0.00000000E+00  0.00000000E+00
  0.00000000E+00  0.00000000E+00  0.00000000E+00
  0.00000000E+00  0.00000000E+00  0.00000000E+00
  0.00000000E+00  0.00000000E+00  0.00000000E+00
  0.00000000E+00  0.00000000E+00  0.00000000E+00
  0.00000000E+00  0.00000000E+00  0.00000000E+00
  0.00000000E+00  0.00000000E+00  0.00000000E+00
  0.00000000E+00  0.00000000E+00  0.00000000E+00
  0.00000000E+00  0.00000000E+00  0.00000000E+00
  0.00000000E+00  0.00000000E+00  0.00000000E+00
  0.00000000E+00  0.00000000E+00  0.00000000E+00
  0.00000000E+00  0.00000000E+00  0.00000000E+00
  0.00000000E+00  0.00000000E+00  0.00000000E+00
  0.00000000E+00  0.00000000E+00  0.00000000E+00
  0.00000000E+00  0.00000000E+00  0.00000000E+00
  0.00000000E+00  0.00000000E+00  0.00000000E+00
  0.00000000E+00  0.00000000E+00  0.00000000E+00
  0.00000000E+00  0.00000000E+00  0.00000000E+00
  0.00000000E+00  0.00000000E+00  0.00000000E+00
  0.00000000E+00  0.00000000E+00  0.00000000E+00
  0.00000000E+00  0.00000000E+00  0.00000000E+00
  0.00000000E+00  0.00000000E+00  0.00000000E+00
  0.00000000E+00  0.00000000E+00  0.00000000E+00
  0.00000000E+00  0.00000000E+00  0.00000000E+00
  0.00000000E+00  0.00000000E+00  0.00000000E+00
  0.00000000E+00  0.00000000E+00  0.00000000E+00
  0.00000000E+00  0.00000000E+00  0.00000000E+00
  0.00000000E+00  0.00000000E+00  0.00000000E+00
  0.00000000E+00  0.00000000E+00  0.00000000E+00
  0.00000000E+00  0.00000000E+00  0.00000000E+00
  0.00000000E+00  0.00000000E+00  0.00000000E+00
  0.00000000E+00  0.00000000E+00  0.00000000E+00
  0.00000000E+00  0.00000000E+00  0.00000000E+00
  0.00000000E+00  0.00000000E+00  0.00000000E+00
  0.00000000E+00  0.00000000E+00  0.00000000E+00
  0.00000000E+00  0.00000000E+00  0.00000000E+00
  0.00000000E+00  0.00000000E+00  0.00000000E+00
  0.00000000E+00  0.00000000E+00  0.00000000E+00
  0.00000000E+00  0.00000000E+00  0.00000000E+00
  0.00000000E+00  0.00000000E+00  0.00000000E+00
  0.00000000E+00  0.00000000E+00  0.00000000E+00
  0.00000000E+00  0.00000000E+00  0.00000000E+00
  0.00000000E+00  0.00000000E+00  0.00000000E+00
  0.00000000E+00  0.00000000E+00  0.00000000E+00
  0.00000000E+00  0.00000000E+00  0.00000000E+00
  0.00000000E+00  0.00000000E+00  0.00000000E+00
  0.00000000E+00  0.00000000E+00  0.00000000E+00
  0.00000000E+00  0.00000000E+00  0.00000000E+00
  0.00000000E+00  0.00000000E+00  0.00000000E+00
  0.00000000E+00  0.00000000E+00  0.00000000E+00