CuInSe2gb                               
   1.00000000000000     
     9.7266780392896699    0.0000000000000000    0.0000000000000000
     0.0000000000000000    8.4235502764570693    0.0000000000000000
     0.0000000000000000    0.0000000000000000   45.0000000000000000
   Fe   Mn
   281     7
Direct
  0.0577999692485589  0.7009135465719288  0.2111032829811147
  0.3160194456212254  0.7204055500369461  0.8757409572696860
  0.6883335786792045  0.9579619437678313  0.6114299382689209
  0.4383566764562866  0.4579827700696972  0.6114665721330168
  0.4364647564129094  0.2869046040372951  0.2555106308721996
  0.0609515373717777  0.3867541013244594  0.8341421554247723
  0.3111491929797218  0.8866714136491282  0.8342312157515818
  0.4423973928036727  0.6265158797230628  0.7003911988997856
  0.0637301579303418  0.2132238952065514  0.7445132141693449
  0.1826006297109826  0.4513541575952497  0.2112400540029752
  0.5638916911092660  0.2089983672005314  0.4778634726720579
  0.0640456942788634  0.8747251117365794  0.5668841523581836
  0.5656771326250720  0.2199031179736571  0.8756806495823327
  0.8100879513549258  0.5301701151073096  0.1245337105307232
  0.4329611776958395  0.9509561451059628  0.2111829351075371
  0.5642620063654359  0.3745866552681570  0.5667568828540207
  0.8118081816224911  0.0420852620700377  0.3883876153715998
  0.6859362114915886  0.7909270500809287  0.5221444084040963
  0.4389109104511367  0.4590103314932447  0.4778039873204992
  0.4379880780241963  0.9628173515365120  0.7444852270989101
  0.4390890377808888  0.6246585103002970  0.5668304938934213
  0.5675184053661485  0.8764404972677186  0.7003538786665826
  0.3100624117498927  0.0308160874002973  0.1244900028971771
  0.6869087925995143  0.9577277481269505  0.3440275762683353
  0.6867796798073367  0.7792618510946883  0.1245308431446663
  0.0574631172532465  0.3733993899459483  0.2995541502188239
  0.6889087851055995  0.4712478152272618  0.8754828004337077
  0.4329840726505190  0.4512655343718657  0.2111384465407953
  0.8108660004116330  0.3756143657632179  0.4330211775058329
  0.5633452189946782  0.7081007953452172  0.6114830467547073
  0.5628820505171319  0.5412821486421718  0.6557731122687270
  0.8143249295570241  0.8639647550488790  0.1660017365615420
  0.5610113551055185  0.5370944117638666  0.2555382053587718
  0.6869554542333337  0.4579879180518459  0.3440993778404428
  0.1884571956201559  0.6126991521195534  0.1662045694645672
  0.1918188982649326  0.7992183782511029  0.7887341271854897
  0.4425881890826084  0.1265789492638537  0.7004158640382033
  0.9326552626039333  0.6231890872976905  0.2997205937072055
  0.3154075154112504  0.2200266647378030  0.8757054917680269
  0.3140179743808328  0.8747492943424626  0.5667883449204956
  0.8153659822754270  0.2199944894733552  0.8756979139277156
  0.8129004933688082  0.5415810377023451  0.6557802589442376
  0.5598079929789418  0.5301558882375080  0.1243999429454287
  0.5669390277593267  0.0495756451091028  0.7889507034061871
  0.1865543081578560  0.2868892858456105  0.2554598352621521
  0.8106091806926725  0.8753180298008555  0.4330601402726372
  0.5672109178933951  0.3765153460854676  0.7004729783958145
  0.0603107167842567  0.0296616028966807  0.1244198170060219
  0.3129540474250384  0.5411609513110783  0.6557830533866587
  0.5618608929252942  0.2076945731175139  0.3441860681376339
  0.1883298572404830  0.9579349719360469  0.6114153543357975
  0.3073612135890962  0.3735057680737351  0.2995466218529980
  0.4379479200082409  0.7915857724852166  0.6558125708566208
  0.1917893106503393  0.2984334336366997  0.7888930310530062
  0.0644019104522474  0.3635158675980432  0.1660118996942001
  0.6922114009973239  0.6266070052213613  0.7003580105999568
  0.3115528020459423  0.5419015807773006  0.3884356513713610
  0.0654131047024410  0.7199999467650690  0.8758836603232776
  0.9362406944853667  0.6368220782828067  0.8342703182217730
  0.3173577914667133  0.5498262515781676  0.7889578987604041
  0.3073791957305514  0.2007245750064723  0.2111113953987514
  0.0640259243505175  0.7088207753218938  0.4778616268964895
  0.5576162865764827  0.2010687260427770  0.2110474088317554
  0.3137230325426549  0.2134203670835157  0.7444121846610601
  0.0674087024926313  0.3768905671346239  0.7003885296006022
  0.1862662447454891  0.6367181043862673  0.8340415482389949
  0.0668788920683627  0.0491773104480999  0.7889399027470960
  0.4390865682468477  0.1247050316072738  0.5668313104266932
  0.9381958443526468  0.2917230892193007  0.6557190501709073
  0.8074781246426659  0.2016134134017625  0.2111325688898632
  0.9328064330119207  0.9515775206286184  0.2112159677863113
  0.9390684927416215  0.6249811767830654  0.5667810426160715
  0.8108546500424946  0.3865790398695750  0.8341841099440045
  0.1921571116259426  0.6266315103941369  0.7003586770744418
  0.8111184992365692  0.8866004779846396  0.8342565132110679
  0.6879956097462371  0.2913406227529574  0.6558188762990591
  0.3135996502616388  0.2080676071154345  0.6114895054641062
  0.4382129714781731  0.4626335712598282  0.7444211070403756
  0.4365894849663994  0.7914884141066648  0.3883857691319341
  0.6876808975431512  0.9627767761071762  0.7445148023327327
  0.8076110046622553  0.7010933624950456  0.2111422345077795
  0.8130897541338822  0.7081064207543027  0.6114050241945922
  0.4370761944986398  0.7792736631906001  0.1246679873353681
  0.3131284168030592  0.7129958225114593  0.7444182799031517
  0.3171915526105075  0.0495968974108961  0.7889910079804914
  0.8116307976254532  0.5419333417565755  0.3884633402403276
  0.6860142132114265  0.2911405747234967  0.5221738734744070
  0.6920354633049004  0.7994175626747825  0.7889046973918725
  0.1867056386023902  0.7876464291141643  0.2555213117547917
  0.6887877461619323  0.1127565372385999  0.1661615504949456
  0.6888732968779051  0.9593112441954625  0.4778924298440662
  0.9368059203253202  0.9583068335554857  0.3440900897569409
  0.8109353949991948  0.0403978011443405  0.5221111745741535
  0.6855490185988085  0.6252690695124731  0.4332207099295626
  0.3141729980555931  0.8634205882138630  0.1659411897194587
  0.8131348360171580  0.2134043182825539  0.7445069356090764
  0.4390986867963010  0.9715243822593446  0.8755213571059440
  0.5642975646202952  0.8744136419098656  0.5667644802247653
  0.8102089673969114  0.0298315525832442  0.1243845544092724
  0.4323244555033947  0.6235159645918811  0.2996114714941615
  0.8151856592209826  0.7204402016394990  0.8758568340458717
  0.6881444893867931  0.4579606627889183  0.6113999541601666
  0.5612177768792310  0.3868697238352380  0.8340835955107710
  0.8073907227583326  0.3731021124888585  0.2995680669195430
  0.1866595420054981  0.2917106038537177  0.3883757779848793
  0.8165966820857864  0.5494839563728584  0.7890821387519583
  0.1862949832504618  0.7907701170888484  0.5221764616735911
  0.3075535611921190  0.8735573122808721  0.2996552072210820
  0.1824819281983027  0.9513189599145528  0.2111834041699251
  0.1885684025725056  0.4628832221049137  0.7444454617379326
  0.4360074885738899  0.2906780804705667  0.5220714982651108
  0.0621033960697311  0.7089197474869851  0.3442126934678632
  0.1881249489208531  0.7911285606553116  0.6557283371298059
  0.4417994987392926  0.7994555078107843  0.7887849578320079
  0.6848665641849125  0.1251244981782276  0.4330747686849580
  0.9362333276026247  0.7902556165248732  0.5222157305317092
  0.6887670911504956  0.6137044538866839  0.1661063198814764
  0.8117695461799155  0.7087948958840586  0.3442715081470544
  0.9383011755603615  0.4626631315816155  0.7444658434382602
  0.1864080644287390  0.4582667391181902  0.3441074213202988
  0.5673728763488057  0.5492239171913492  0.7889857977508792
  0.5646491393462768  0.3636726508312696  0.1657985543562534
  0.5615464541331634  0.7084717495891003  0.3442904802030761
  0.5579434036796503  0.3734832261868331  0.2995930036299746
  0.1889288260274190  0.4711643421358116  0.8755835274236424
  0.1889897876498567  0.1130410221680871  0.1660373609278533
  0.4418511953086441  0.2987963065118570  0.7888261551196940
  0.6862214712605603  0.7872553178503080  0.2555124436390439
  0.9366829798247883  0.1366933193664000  0.8341130162468352
  0.4390196960089727  0.9592692970989286  0.4777991800386880
  0.5654765760916522  0.7201781952518680  0.8757228534821438
  0.1886171078709074  0.4590461837091440  0.4778513068941780
  0.9361493020074512  0.2795318474967785  0.1245544110017448
  0.3115958449740446  0.0416544735535045  0.3884349471196322
  0.0628561899312927  0.0411532699170016  0.6557681172754134
  0.5611096773004144  0.3752702791187704  0.4330850728466913
  0.6875486121397100  0.4624684073043673  0.7445070725353227
  0.5634732239524209  0.2134502777241874  0.7444407343282008
  0.9425923361413402  0.1269784211208640  0.7003904360597630
  0.5630664020409185  0.0411954685198488  0.6558127625350079
  0.5611712022840092  0.5408927992265844  0.5221125633323112
  0.1827741540482300  0.1235119259903757  0.2995402854800496
  0.4382759532707452  0.1126670953626597  0.1661001468431847
  0.6821601081724434  0.6233002418218718  0.2996248518089661
  0.9324362202810679  0.1229258218654066  0.2996270222123235
  0.8139453521200729  0.3748860751170651  0.5668713257174919
  0.0577994590713252  0.8731764778949807  0.2995867759106702
  0.1889815622684660  0.6248540248562340  0.5668972377568164
  0.9411371671133509  0.7991633709437090  0.7889244627969602
  0.3112120185273059  0.3867145371151826  0.8341827425912670
  0.9392863917658900  0.4714078625763426  0.8756025340396333
  0.4365738370576956  0.6371499273675748  0.8341058343581571
  0.0618723448948574  0.2083857822705510  0.3441969816420937
  0.1888759583229807  0.9710504758462893  0.8755003635866279
  0.9365146799062755  0.7793556079176407  0.1245274597746232
  0.6863882366030832  0.7916693913864550  0.3884002402002252
  0.9380184468104085  0.7914673110229123  0.6557839505246963
  0.9390828340335801  0.1126416715944932  0.1660346214325599
  0.4376647730864060  0.2914425377949887  0.6558459801426773
  0.0582696294769508  0.2009326060616932  0.2110702451202117
  0.6829085538121277  0.9514364422162328  0.2112909735296396
  0.1825758115594300  0.6233733115217780  0.2996916870233003
  0.8171315799034757  0.8766096009008879  0.7003670041281922
  0.9425103514464116  0.6268388098337182  0.7004173093886976
  0.1923534395004871  0.1268497097184427  0.7004028755375777
  0.9392323998113777  0.4588466471068140  0.4778027346131983
  0.8131700784367286  0.2079062362987799  0.6114300208708565
  0.1864450957094332  0.6252809733742983  0.4330899033649956
  0.4325856920949512  0.1236871097413582  0.2997002124427013
  0.6824909466821968  0.1230862545436189  0.2996639174378087
  0.5613560655473916  0.5415658322046774  0.3884510809660698
  0.8118526788462059  0.2078364291371893  0.3442371101226855
  0.4391820967247204  0.4713916259277353  0.8754940519293906
  0.5611963704345705  0.8866661814779229  0.8342103732987500
  0.3140516340870679  0.2094061726541202  0.4778671002749857
  0.1885171161282564  0.9591234414176053  0.4778668643567681
  0.0609505198813302  0.8869498750600896  0.8342055033320893
  0.0609057563256243  0.5405521038538478  0.5220300210527451
  0.9390916483105419  0.9588725204370022  0.4778365802503161
  0.0633351954764922  0.7080800640679136  0.6114048236800477
  0.5608921538654014  0.0408683612979159  0.5220762362199076
  0.6920242296438160  0.2987795620231161  0.7887729560420537
  0.8144234456074173  0.3635318770735968  0.1659497355970132
  0.4356809209221717  0.1246383210307653  0.4330852247926980
  0.0639725811366694  0.2091302727996008  0.4778742778839989
  0.3131181747954464  0.0413175784959486  0.6558063480110659
  0.4359723206068027  0.7905771382561526  0.5220985723399357
  0.1866965341343687  0.1368020431839764  0.8341093676122432
  0.1865902313320408  0.2788319509549968  0.1244161906810942
  0.9368136374857544  0.4583608050003815  0.3441117913060910
  0.5650767654015685  0.8636686473104674  0.1659670739823952
  0.3075742173672708  0.7007599082350813  0.2110911718588783
  0.9383229849472479  0.6136245073277768  0.1661876490707292
  0.1884058836989207  0.4579921599301612  0.6114277465308084
  0.0673321259766020  0.8767098605476618  0.7002749251466860
  0.0629289894506842  0.5414221745511926  0.6558702145255656
  0.3105802332754731  0.5303834496297043  0.1240800680009516
  0.9362392456376445  0.7921674607495605  0.3884421393871964
  0.9416354489386441  0.2987088814458720  0.7888358954160768
  0.1878813845465703  0.2915226365181684  0.6558452439487518
  0.9384730002815483  0.9579751525475931  0.6114985976435979
  0.8134838987247419  0.7130478970586549  0.7445537594578037
  0.6864869406982758  0.2872293768784792  0.2554249389029895
  0.0639276507187388  0.7129790382889324  0.7444326846362791
  0.6826956624073564  0.4510571374134200  0.2112075648499318
  0.8138298799926030  0.2089092626410193  0.4778391553606094
  0.5639762091977232  0.7091817194233135  0.4778686718976169
  0.0638090439988499  0.8636512134736651  0.1659905964254602
  0.9361221839616126  0.2906200986839758  0.5221796267573533
  0.6875451274933803  0.7914789752486444  0.6557975370095946
  0.0611539814398752  0.8749956938759337  0.4329949030032579
  0.0656596022524823  0.2195384036934410  0.8758114486823182
  0.8130223295386956  0.0411407565031685  0.6557573490149285
  0.5600990262698200  0.0296768216744490  0.1244066054596829
  0.3106702373861083  0.3749390879237054  0.4331038408233825
  0.3142106459827216  0.3747098569586007  0.5667804824642231
  0.3140562562038129  0.7092649139662607  0.4778768253399728
  0.0612081618780444  0.0406015178413661  0.5220436519499017
  0.3172463088920676  0.8766289163924618  0.7004131825678626
  0.0618802364510434  0.5369158585397505  0.2555587459298563
  0.6865961774018110  0.1372823329641373  0.8340876382552045
  0.8114911986323540  0.0364915274380457  0.2555379394486971
  0.1869199326644930  0.1251262018543287  0.4330188341114249
  0.6922829195649436  0.1264438597158982  0.7003555273944878
  0.1862474596661296  0.2908763642882686  0.5222133533274841
  0.4367853568501203  0.7877402131269299  0.2554222009128208
  0.4389144266138201  0.6125388895379158  0.1660146908706109
  0.0631273409965566  0.2080189175654047  0.6114196934628643
  0.1864156575487027  0.7916303746226734  0.3883820339820299
  0.3111691768229530  0.5408110563861134  0.5220887935606604
  0.8172738545028023  0.3766934479110348  0.7003370126156092
  0.6863850112935860  0.2919334455236097  0.3884157932643564
  0.1892897786697437  0.1246961868028364  0.5668337982072729
  0.6889675863318409  0.9716877255302176  0.8755211524520949
  0.6888202597314264  0.1248021244698268  0.5668732807342303
  0.4367642073122151  0.9586276002265579  0.3441522049824504
  0.1883609425344488  0.9628586578509779  0.7445151849927862
  0.9368001779725437  0.7877918962692495  0.2555226477213931
  0.5612643320457444  0.8751041424564443  0.4330323345295145
  0.3109357150307286  0.8748754573492959  0.4330386499390187
  0.8110685559492000  0.5405107674127262  0.5221259211027691
  0.9327389825497315  0.4514205964207607  0.2113464117187324
  0.3116605859656654  0.5366047959020155  0.2556342188952352
  0.5613010104706997  0.0414631129323893  0.3884178027030651
  0.9383333448542402  0.4577792541576740  0.6114802562043885
  0.0615486918949413  0.0418779148681892  0.3884221870079199
  0.0614458292536995  0.5417397410081115  0.3884496995051122
  0.4367013660458473  0.2914312248455773  0.3884665921469674
  0.6888636778233886  0.4592494575637652  0.4779000013434777
  0.0641018113948726  0.3748206934317468  0.5668866721859678
  0.5577510704149139  0.7009916494311600  0.2111171827920870
  0.9367065702646519  0.2870845736121875  0.2555363398203138
  0.8166227459205110  0.0493825649037633  0.7889321960806648
  0.1866283651541110  0.9584246416775344  0.3441302564618684
  0.5577144410526428  0.8735358708826652  0.2996709227967887
  0.0612387976971705  0.3751715062417060  0.4330526351887252
  0.3113672193585633  0.7079241743308169  0.3441974620795606
  0.3115716822434590  0.2078097470942246  0.3441411158075184
  0.9390761895986729  0.1249599659764386  0.5668097845919797
  0.4382237652066192  0.9579944749661083  0.6114692922795905
  0.5609310347865700  0.0372008354807456  0.2555380523302143
  0.1860532437931521  0.7791613591803607  0.1245883907633871
  0.0619510253682808  0.0368348655635781  0.2555124467547882
  0.6890394097672412  0.6247135652964593  0.5668730285597491
  0.0606244947673540  0.5298963072039734  0.1244264278486331
  0.3111469430199237  0.0410220274860529  0.5220929361432055
  0.6873616593648864  0.2799050750643119  0.1245832293528442
  0.8137881509007726  0.7089673937908717  0.4778007132946783
  0.4366491163045461  0.1368268482534212  0.8339822738535813
  0.3175249799546081  0.3762891208785698  0.7003709043441644
  0.6868675990074080  0.6370346159517281  0.8340882202856552
  0.5632050672250819  0.7127365237606078  0.7444839585147560
  0.9362497812762920  0.2921671146031373  0.3883602422270220
  0.9392981312123779  0.9711651628616718  0.8755103512654460
  0.5634949811363336  0.2082216853563234  0.6114306204660460
  0.8140709281879862  0.8747618349010102  0.5668991506820620
  0.8074644620778254  0.8732908866948248  0.2995862884816116
  0.3114385759500735  0.0370900559329115  0.2555594046343421
  0.4367005691658381  0.2796145835772124  0.1241711109724169
  0.3133703397110128  0.7079627037698408  0.6114556003712985
  0.4355400338402675  0.6248831943260422  0.4330892364206873
  0.9357077285192901  0.6249804697042286  0.4331181239935791
  0.4370260003774551  0.4584440444281016  0.3441580213132565
  0.0672635407870372  0.5492614301208192  0.7888013550726852
  0.9357020963210380  0.1250653086228477  0.4331041116490194
  0.3149581790425464  0.3633867259578321  0.1655785821162194
  0.9375493868022690  0.9630897982000906  0.7446277481028422
  0.8120283008217181  0.5366981213310417  0.2554203450442283
 
  0.00000000E+00  0.00000000E+00  0.00000000E+00
  0.00000000E+00  0.00000000E+00  0.00000000E+00
  0.00000000E+00  0.00000000E+00  0.00000000E+00
  0.00000000E+00  0.00000000E+00  0.00000000E+00
  0.00000000E+00  0.00000000E+00  0.00000000E+00
  0.00000000E+00  0.00000000E+00  0.00000000E+00
  0.00000000E+00  0.00000000E+00  0.00000000E+00
  0.00000000E+00  0.00000000E+00  0.00000000E+00
  0.00000000E+00  0.00000000E+00  0.00000000E+00
  0.00000000E+00  0.00000000E+00  0.00000000E+00
  0.00000000E+00  0.00000000E+00  0.00000000E+00
  0.00000000E+00  0.00000000E+00  0.00000000E+00
  0.00000000E+00  0.00000000E+00  0.00000000E+00
  0.00000000E+00  0.00000000E+00  0.00000000E+00
  0.00000000E+00  0.00000000E+00  0.00000000E+00
  0.00000000E+00  0.00000000E+00  0.00000000E+00
  0.00000000E+00  0.00000000E+00  0.00000000E+00
  0.00000000E+00  0.00000000E+00  0.00000000E+00
  0.00000000E+00  0.00000000E+00  0.00000000E+00
  0.00000000E+00  0.00000000E+00  0.00000000E+00
  0.00000000E+00  0.00000000E+00  0.00000000E+00
  0.00000000E+00  0.00000000E+00  0.00000000E+00
  0.00000000E+00  0.00000000E+00  0.00000000E+00
  0.00000000E+00  0.00000000E+00  0.00000000E+00
  0.00000000E+00  0.00000000E+00  0.00000000E+00
  0.00000000E+00  0.00000000E+00  0.00000000E+00
  0.00000000E+00  0.00000000E+00  0.00000000E+00
  0.00000000E+00  0.00000000E+00  0.00000000E+00
  0.00000000E+00  0.00000000E+00  0.00000000E+00
  0.00000000E+00  0.00000000E+00  0.00000000E+00
  0.00000000E+00  0.00000000E+00  0.00000000E+00
  0.00000000E+00  0.00000000E+00  0.00000000E+00
  0.00000000E+00  0.00000000E+00  0.00000000E+00
  0.00000000E+00  0.00000000E+00  0.00000000E+00
  0.00000000E+00  0.00000000E+00  0.00000000E+00
  0.00000000E+00  0.00000000E+00  0.00000000E+00
  0.00000000E+00  0.00000000E+00  0.00000000E+00
  0.00000000E+00  0.00000000E+00  0.00000000E+00
  0.00000000E+00  0.00000000E+00  0.00000000E+00
  0.00000000E+00  0.00000000E+00  0.00000000E+00
  0.00000000E+00  0.00000000E+00  0.00000000E+00
  0.00000000E+00  0.00000000E+00  0.00000000E+00
  0.00000000E+00  0.00000000E+00  0.00000000E+00
  0.00000000E+00  0.00000000E+00  0.00000000E+00
  0.00000000E+00  0.00000000E+00  0.00000000E+00
  0.00000000E+00  0.00000000E+00  0.00000000E+00
  0.00000000E+00  0.00000000E+00  0.00000000E+00
  0.00000000E+00  0.00000000E+00  0.00000000E+00
  0.00000000E+00  0.00000000E+00  0.00000000E+00
  0.00000000E+00  0.00000000E+00  0.00000000E+00
  0.00000000E+00  0.00000000E+00  0.00000000E+00
  0.00000000E+00  0.00000000E+00  0.00000000E+00
  0.00000000E+00  0.00000000E+00  0.00000000E+00
  0.00000000E+00  0.00000000E+00  0.00000000E+00
  0.00000000E+00  0.00000000E+00  0.00000000E+00
  0.00000000E+00  0.00000000E+00  0.00000000E+00
  0.00000000E+00  0.00000000E+00  0.00000000E+00
  0.00000000E+00  0.00000000E+00  0.00000000E+00
  0.00000000E+00  0.00000000E+00  0.00000000E+00
  0.00000000E+00  0.00000000E+00  0.00000000E+00
  0.00000000E+00  0.00000000E+00  0.00000000E+00
  0.00000000E+00  0.00000000E+00  0.00000000E+00
  0.00000000E+00  0.00000000E+00  0.00000000E+00
  0.00000000E+00  0.00000000E+00  0.00000000E+00
  0.00000000E+00  0.00000000E+00  0.00000000E+00
  0.00000000E+00  0.00000000E+00  0.00000000E+00
  0.00000000E+00  0.00000000E+00  0.00000000E+00
  0.00000000E+00  0.00000000E+00  0.00000000E+00
  0.00000000E+00  0.00000000E+00  0.00000000E+00
  0.00000000E+00  0.00000000E+00  0.00000000E+00
  0.00000000E+00  0.00000000E+00  0.00000000E+00
  0.00000000E+00  0.00000000E+00  0.00000000E+00
  0.00000000E+00  0.00000000E+00  0.00000000E+00
  0.00000000E+00  0.00000000E+00  0.00000000E+00
  0.00000000E+00  0.00000000E+00  0.00000000E+00
  0.00000000E+00  0.00000000E+00  0.00000000E+00
  0.00000000E+00  0.00000000E+00  0.00000000E+00
  0.00000000E+00  0.00000000E+00  0.00000000E+00
  0.00000000E+00  0.00000000E+00  0.00000000E+00
  0.00000000E+00  0.00000000E+00  0.00000000E+00
  0.00000000E+00  0.00000000E+00  0.00000000E+00
  0.00000000E+00  0.00000000E+00  0.00000000E+00
  0.00000000E+00  0.00000000E+00  0.00000000E+00
  0.00000000E+00  0.00000000E+00  0.00000000E+00
  0.00000000E+00  0.00000000E+00  0.00000000E+00
  0.00000000E+00  0.00000000E+00  0.00000000E+00
  0.00000000E+00  0.00000000E+00  0.00000000E+00
  0.00000000E+00  0.00000000E+00  0.00000000E+00
  0.00000000E+00  0.00000000E+00  0.00000000E+00
  0.00000000E+00  0.00000000E+00  0.00000000E+00
  0.00000000E+00  0.00000000E+00  0.00000000E+00
  0.00000000E+00  0.00000000E+00  0.00000000E+00
  0.00000000E+00  0.00000000E+00  0.00000000E+00
  0.00000000E+00  0.00000000E+00  0.00000000E+00
  0.00000000E+00  0.00000000E+00  0.00000000E+00
  0.00000000E+00  0.00000000E+00  0.00000000E+00
  0.00000000E+00  0.00000000E+00  0.00000000E+00
  0.00000000E+00  0.00000000E+00  0.00000000E+00
  0.00000000E+00  0.00000000E+00  0.00000000E+00
  0.00000000E+00  0.00000000E+00  0.00000000E+00
  0.00000000E+00  0.00000000E+00  0.00000000E+00
  0.00000000E+00  0.00000000E+00  0.00000000E+00
  0.00000000E+00  0.00000000E+00  0.00000000E+00
  0.00000000E+00  0.00000000E+00  0.00000000E+00
  0.00000000E+00  0.00000000E+00  0.00000000E+00
  0.00000000E+00  0.00000000E+00  0.00000000E+00
  0.00000000E+00  0.00000000E+00  0.00000000E+00
  0.00000000E+00  0.00000000E+00  0.00000000E+00
  0.00000000E+00  0.00000000E+00  0.00000000E+00
  0.00000000E+00  0.00000000E+00  0.00000000E+00
  0.00000000E+00  0.00000000E+00  0.00000000E+00
  0.00000000E+00  0.00000000E+00  0.00000000E+00
  0.00000000E+00  0.00000000E+00  0.00000000E+00
  0.00000000E+00  0.00000000E+00  0.00000000E+00
  0.00000000E+00  0.00000000E+00  0.00000000E+00
  0.00000000E+00  0.00000000E+00  0.00000000E+00
  0.00000000E+00  0.00000000E+00  0.00000000E+00
  0.00000000E+00  0.00000000E+00  0.00000000E+00
  0.00000000E+00  0.00000000E+00  0.00000000E+00
  0.00000000E+00  0.00000000E+00  0.00000000E+00
  0.00000000E+00  0.00000000E+00  0.00000000E+00
  0.00000000E+00  0.00000000E+00  0.00000000E+00
  0.00000000E+00  0.00000000E+00  0.00000000E+00
  0.00000000E+00  0.00000000E+00  0.00000000E+00
  0.00000000E+00  0.00000000E+00  0.00000000E+00
  0.00000000E+00  0.00000000E+00  0.00000000E+00
  0.00000000E+00  0.00000000E+00  0.00000000E+00
  0.00000000E+00  0.00000000E+00  0.00000000E+00
  0.00000000E+00  0.00000000E+00  0.00000000E+00
  0.00000000E+00  0.00000000E+00  0.00000000E+00
  0.00000000E+00  0.00000000E+00  0.00000000E+00
  0.00000000E+00  0.00000000E+00  0.00000000E+00
  0.00000000E+00  0.00000000E+00  0.00000000E+00
  0.00000000E+00  0.00000000E+00  0.00000000E+00
  0.00000000E+00  0.00000000E+00  0.00000000E+00
  0.00000000E+00  0.00000000E+00  0.00000000E+00
  0.00000000E+00  0.00000000E+00  0.00000000E+00
  0.00000000E+00  0.00000000E+00  0.00000000E+00
  0.00000000E+00  0.00000000E+00  0.00000000E+00
  0.00000000E+00  0.00000000E+00  0.00000000E+00
  0.00000000E+00  0.00000000E+00  0.00000000E+00
  0.00000000E+00  0.00000000E+00  0.00000000E+00
  0.00000000E+00  0.00000000E+00  0.00000000E+00
  0.00000000E+00  0.00000000E+00  0.00000000E+00
  0.00000000E+00  0.00000000E+00  0.00000000E+00
  0.00000000E+00  0.00000000E+00  0.00000000E+00
  0.00000000E+00  0.00000000E+00  0.00000000E+00
  0.00000000E+00  0.00000000E+00  0.00000000E+00
  0.00000000E+00  0.00000000E+00  0.00000000E+00
  0.00000000E+00  0.00000000E+00  0.00000000E+00
  0.00000000E+00  0.00000000E+00  0.00000000E+00
  0.00000000E+00  0.00000000E+00  0.00000000E+00
  0.00000000E+00  0.00000000E+00  0.00000000E+00
  0.00000000E+00  0.00000000E+00  0.00000000E+00
  0.00000000E+00  0.00000000E+00  0.00000000E+00
  0.00000000E+00  0.00000000E+00  0.00000000E+00
  0.00000000E+00  0.00000000E+00  0.00000000E+00
  0.00000000E+00  0.00000000E+00  0.00000000E+00
  0.00000000E+00  0.00000000E+00  0.00000000E+00
  0.00000000E+00  0.00000000E+00  0.00000000E+00
  0.00000000E+00  0.00000000E+00  0.00000000E+00
  0.00000000E+00  0.00000000E+00  0.00000000E+00
  0.00000000E+00  0.00000000E+00  0.00000000E+00
  0.00000000E+00  0.00000000E+00  0.00000000E+00
  0.00000000E+00  0.00000000E+00  0.00000000E+00
  0.00000000E+00  0.00000000E+00  0.00000000E+00
  0.00000000E+00  0.00000000E+00  0.00000000E+00
  0.00000000E+00  0.00000000E+00  0.00000000E+00
  0.00000000E+00  0.00000000E+00  0.00000000E+00
  0.00000000E+00  0.00000000E+00  0.00000000E+00
  0.00000000E+00  0.00000000E+00  0.00000000E+00
  0.00000000E+00  0.00000000E+00  0.00000000E+00
  0.00000000E+00  0.00000000E+00  0.00000000E+00
  0.00000000E+00  0.00000000E+00  0.00000000E+00
  0.00000000E+00  0.00000000E+00  0.00000000E+00
  0.00000000E+00  0.00000000E+00  0.00000000E+00
  0.00000000E+00  0.00000000E+00  0.00000000E+00
  0.00000000E+00  0.00000000E+00  0.00000000E+00
  0.00000000E+00  0.00000000E+00  0.00000000E+00
  0.00000000E+00  0.00000000E+00  0.00000000E+00
  0.00000000E+00  0.00000000E+00  0.00000000E+00
  0.00000000E+00  0.00000000E+00  0.00000000E+00
  0.00000000E+00  0.00000000E+00  0.00000000E+00
  0.00000000E+00  0.00000000E+00  0.00000000E+00
  0.00000000E+00  0.00000000E+00  0.00000000E+00
  0.00000000E+00  0.00000000E+00  0.00000000E+00
  0.00000000E+00  0.00000000E+00  0.00000000E+00
  0.00000000E+00  0.00000000E+00  0.00000000E+00
  0.00000000E+00  0.00000000E+00  0.00000000E+00
  0.00000000E+00  0.00000000E+00  0.00000000E+00
  0.00000000E+00  0.00000000E+00  0.00000000E+00
  0.00000000E+00  0.00000000E+00  0.00000000E+00
  0.00000000E+00  0.00000000E+00  0.00000000E+00
  0.00000000E+00  0.00000000E+00  0.00000000E+00
  0.00000000E+00  0.00000000E+00  0.00000000E+00
  0.00000000E+00  0.00000000E+00  0.00000000E+00
  0.00000000E+00  0.00000000E+00  0.00000000E+00
  0.00000000E+00  0.00000000E+00  0.00000000E+00
  0.00000000E+00  0.00000000E+00  0.00000000E+00
  0.00000000E+00  0.00000000E+00  0.00000000E+00
  0.00000000E+00  0.00000000E+00  0.00000000E+00
  0.00000000E+00  0.00000000E+00  0.00000000E+00
  0.00000000E+00  0.00000000E+00  0.00000000E+00
  0.00000000E+00  0.00000000E+00  0.00000000E+00
  0.00000000E+00  0.00000000E+00  0.00000000E+00
  0.00000000E+00  0.00000000E+00  0.00000000E+00
  0.00000000E+00  0.00000000E+00  0.00000000E+00
  0.00000000E+00  0.00000000E+00  0.00000000E+00
  0.00000000E+00  0.00000000E+00  0.00000000E+00
  0.00000000E+00  0.00000000E+00  0.00000000E+00
  0.00000000E+00  0.00000000E+00  0.00000000E+00
  0.00000000E+00  0.00000000E+00  0.00000000E+00
  0.00000000E+00  0.00000000E+00  0.00000000E+00
  0.00000000E+00  0.00000000E+00  0.00000000E+00
  0.00000000E+00  0.00000000E+00  0.00000000E+00
  0.00000000E+00  0.00000000E+00  0.00000000E+00
  0.00000000E+00  0.00000000E+00  0.00000000E+00
  0.00000000E+00  0.00000000E+00  0.00000000E+00
  0.00000000E+00  0.00000000E+00  0.00000000E+00
  0.00000000E+00  0.00000000E+00  0.00000000E+00
  0.00000000E+00  0.00000000E+00  0.00000000E+00
  0.00000000E+00  0.00000000E+00  0.00000000E+00
  0.00000000E+00  0.00000000E+00  0.00000000E+00
  0.00000000E+00  0.00000000E+00  0.00000000E+00
  0.00000000E+00  0.00000000E+00  0.00000000E+00
  0.00000000E+00  0.00000000E+00  0.00000000E+00
  0.00000000E+00  0.00000000E+00  0.00000000E+00
  0.00000000E+00  0.00000000E+00  0.00000000E+00
  0.00000000E+00  0.00000000E+00  0.00000000E+00
  0.00000000E+00  0.00000000E+00  0.00000000E+00
  0.00000000E+00  0.00000000E+00  0.00000000E+00
  0.00000000E+00  0.00000000E+00  0.00000000E+00
  0.00000000E+00  0.00000000E+00  0.00000000E+00
  0.00000000E+00  0.00000000E+00  0.00000000E+00
  0.00000000E+00  0.00000000E+00  0.00000000E+00
  0.00000000E+00  0.00000000E+00  0.00000000E+00
  0.00000000E+00  0.00000000E+00  0.00000000E+00
  0.00000000E+00  0.00000000E+00  0.00000000E+00
  0.00000000E+00  0.00000000E+00  0.00000000E+00
  0.00000000E+00  0.00000000E+00  0.00000000E+00
  0.00000000E+00  0.00000000E+00  0.00000000E+00
  0.00000000E+00  0.00000000E+00  0.00000000E+00
  0.00000000E+00  0.00000000E+00  0.00000000E+00
  0.00000000E+00  0.00000000E+00  0.00000000E+00
  0.00000000E+00  0.00000000E+00  0.00000000E+00
  0.00000000E+00  0.00000000E+00  0.00000000E+00
  0.00000000E+00  0.00000000E+00  0.00000000E+00