CuInSe2gb                               
   1.00000000000000     
     9.7266780392896699    0.0000000000000000    0.0000000000000000
     0.0000000000000000    8.4235502764570693    0.0000000000000000
     0.0000000000000000    0.0000000000000000   45.0000000000000000
   Fe   Mn
   281     7
Direct
  0.0540178228198040  0.7010825183632360  0.2112007267555517
  0.3182081954008425  0.7237072432149693  0.8762608041094598
  0.6884326804246217  0.9587677481544772  0.6114921643199543
  0.4384215989901578  0.4584051486169017  0.6115838400892386
  0.4406495400606581  0.2872673609487715  0.2550833613975204
  0.0585688069318290  0.3885446115083513  0.8335605550489023
  0.3086224827251450  0.8877132947096728  0.8335008951411070
  0.4469654191892060  0.6262524885074755  0.7004028847875342
  0.0597746589581277  0.2126305417896076  0.7449235991996211
  0.1788641016554615  0.4516889871118670  0.2113629422413273
  0.5678835377236048  0.2106877252182628  0.4774648160579256
  0.0667023682215155  0.8751308567154058  0.5668780722927004
  0.5683148749075894  0.2238373494660265  0.8761449163563417
  0.8088055056322209  0.5276791056616535  0.1239457957582881
  0.4289041850892729  0.9515676387133502  0.2113633707128973
  0.5665540103154113  0.3750200262452307  0.5668449253059229
  0.8110734972837049  0.0415853200366404  0.3882589784375823
  0.6819930392946063  0.7889675366800979  0.5223716154033067
  0.4427125593756596  0.4608771506053124  0.4774583810332297
  0.4337739192090609  0.9626521432023665  0.7448061287269842
  0.4414585191340035  0.6249805836941194  0.5668404351022638
  0.5715065299711550  0.8764585263454852  0.7005680407602283
  0.3077247084334404  0.0263605669997254  0.1238723053181206
  0.6897405896570831  0.9589214890438966  0.3439940289210923
  0.6861172634958268  0.7826175900390567  0.1241550406356941
  0.0527074199537627  0.3737137134439322  0.2996133083819157
  0.6898199560259883  0.4678838459518203  0.8760988679807943
  0.4293818983425219  0.4512890616014733  0.2114532352444972
  0.8085287226243284  0.3747945810017486  0.4331044205167264
  0.5633396721604628  0.7083416809099400  0.6115863749244118
  0.5597245069201520  0.5406233481111828  0.6558992457894240
  0.8169186370803098  0.8623556258282257  0.1665808803090565
  0.5653788880846253  0.5373251959307294  0.2551038802622709
  0.6894825968539786  0.4588325757511784  0.3439152984920563
  0.1913605076725115  0.6114716068047292  0.1665416185081671
  0.1945908598598459  0.7994703093211349  0.7888430628489198
  0.4472098752986055  0.1259833396039763  0.7004202278267362
  0.9278754111617374  0.6235790256073609  0.2996089775520284
  0.3174447985791727  0.2235918104189866  0.8761391966751555
  0.3165704072374715  0.8747737997172035  0.5668616346609706
  0.8174674278927709  0.2237823880900240  0.8762064113943945
  0.8095757077354200  0.5408535748183216  0.6558332846136082
  0.5588388054773933  0.5276317004220122  0.1238351388497421
  0.5693043863216234  0.0498291361806354  0.7889720157908722
  0.1903610713245467  0.2871578478438006  0.2551018888938822
  0.8087232656385472  0.8753185700227992  0.4330073070854972
  0.5723398736800177  0.3762656813912270  0.7003899304010458
  0.0578522957011722  0.0262093085978702  0.1239614697264480
  0.3097160452427080  0.5406371730374174  0.6559129379374883
  0.5648189851163611  0.2088248476542804  0.3440118945960107
  0.1882869142741821  0.9586136168593719  0.6114935954651822
  0.3026851972888990  0.3740803643690425  0.2995519492533855
  0.4347324767280851  0.7905259758947019  0.6559695910710103
  0.1949240578413361  0.2989892396208634  0.7887901197858145
  0.0675065600894044  0.3625146559744208  0.1666010564555508
  0.6970199583660196  0.6264124331408358  0.7004418225251839
  0.3114156817809130  0.5413060492159947  0.3884500690116709
  0.0675650571129620  0.7231754672836622  0.8762093309720282
  0.9337624840382966  0.6375739724352011  0.8339628637464978
  0.3197884326857066  0.5496073942138003  0.7889117646042588
  0.3048294640253671  0.2005619710013891  0.2111680874117380
  0.0679624498312285  0.7105266185872215  0.4774186703575358
  0.5541452002339119  0.2009050301719623  0.2111335317536482
  0.3096888153685056  0.2123227342176453  0.7449336170354374
  0.0719128153806105  0.3764616512838844  0.7005461561651510
  0.1832355791257473  0.6377606271280080  0.8336047985218129
  0.0695017162941874  0.0495811433103047  0.7890000762617513
  0.4415691829513915  0.1249326924989698  0.5669025378844487
  0.9346256701820519  0.2907544856411120  0.6558434471366510
  0.8043186133996022  0.2011094663579351  0.2112330300801318
  0.9289274919326603  0.9515124832873830  0.2112535397743580
  0.9414841208754581  0.6252486727817679  0.5668233101911615
  0.8084362426413839  0.3877305443030429  0.8335506561742658
  0.1972165512784626  0.6261500144412540  0.7003065275441668
  0.8086428853242991  0.8877275630117425  0.8335705719090737
  0.6849659256522509  0.2906689998455501  0.6560519250582586
  0.3130125754411910  0.2082306700275116  0.6115289489351944
  0.4346083892122263  0.4627166044300707  0.7448774003789929
  0.4362912550384143  0.7910596922992476  0.3883879113960655
  0.6844560494361159  0.9625838275403993  0.7448879449436118
  0.8040367678278738  0.7008954607933516  0.2112896376835330
  0.8135384749315469  0.7084121314606695  0.6116173722711082
  0.4368109404143947  0.7831609074622599  0.1242126032906293
  0.3096515883487695  0.7119663731644267  0.7448010647751538
  0.3201690130309546  0.0494615652255665  0.7888692868827847
  0.8114094333696578  0.5416467984231264  0.3882561660018969
  0.6821038361098262  0.2888073937597805  0.5223830225689993
  0.6950113262512970  0.7992512232291549  0.7888820601250026
  0.1907398702583482  0.7872834409734362  0.2552278226876896
  0.6916183783091590  0.1121874064733339  0.1664317166987823
  0.6928407890516334  0.9606894924395886  0.4774124203606874
  0.9402483004319903  0.9593021414562215  0.3440901495304795
  0.8072371015850078  0.0393433014417047  0.5225811992263625
  0.6836420224547295  0.6249800735541422  0.4329916966152448
  0.3167965277430407  0.8619963339343966  0.1666159941856976
  0.8106978914787523  0.2115361469853566  0.7446107638912730
  0.4396066570075930  0.9677456105628064  0.8760706013848473
  0.5664925220604748  0.8748923381995136  0.5668684671092288
  0.8081727570486693  0.0270053742744461  0.1239207730045423
  0.4280127504279459  0.6237403280072977  0.2994592214242212
  0.8168428601718738  0.7237630175951405  0.8763293630454997
  0.6883442278701302  0.4584590349533845  0.6115016964292362
  0.5583773425969017  0.3875658734319120  0.8334404601920857
  0.8030669712699123  0.3735067773509080  0.2995171864174984
  0.1863524650397585  0.2913515618021451  0.3884138874986389
  0.8199033981608252  0.5495882396399934  0.7889295568825920
  0.1822056588626123  0.7893509102720949  0.5225426678156415
  0.3030860179821689  0.8741115251180966  0.2995275353948696
  0.1790494863398280  0.9510597503373426  0.2112234602193279
  0.1845053316811712  0.4625850542842573  0.7449629855953759
  0.4323055296240861  0.2889611249541687  0.5223531757256975
  0.0647506577957908  0.7087440402437601  0.3439126929258252
  0.1848785301633488  0.7905927773987171  0.6558721292886581
  0.4447059678059066  0.7992857883785321  0.7888364594416868
  0.6837401769360850  0.1249332185701592  0.4329186875194205
  0.9321321176396042  0.7890293874297138  0.5225348872686248
  0.6918025559939170  0.6125177368457297  0.1667100868833265
  0.8141078053370070  0.7086358358982809  0.3438646265390750
  0.9342937813381987  0.4626868735296697  0.7449258966499740
  0.1898310409276407  0.4588174108265262  0.3440014999346194
  0.5698704305181282  0.5498719495172532  0.7890266014106260
  0.5664612003635934  0.3624539080348119  0.1664547215579077
  0.5641419305965171  0.7083939566816148  0.3438876310966888
  0.5526678208311971  0.3738199512251180  0.2995902874970224
  0.1896160103251641  0.4680076948221496  0.8760969411759622
  0.1925428038924828  0.1119794581994373  0.1665832758163535
  0.4446303174548231  0.2991012415764034  0.7888128280105781
  0.6910230695973959  0.7874267149053575  0.2553981116719530
  0.9337128728825128  0.1377881985973498  0.8335550336441094
  0.4426730264552831  0.9606949363705007  0.4773252181243165
  0.5675219139555027  0.7247428126542115  0.8762317472673904
  0.1927482958004815  0.4608861435391001  0.4774790986279480
  0.9355347854452962  0.2824276936493774  0.1242254494164213
  0.3113314695335321  0.0410744023795945  0.3884677082428807
  0.0601898307537219  0.0404078990224582  0.6560547924580551
  0.5585089474714973  0.3748632250353298  0.4330728147973915
  0.6842514034323595  0.4627698837401876  0.7449613537648498
  0.5601019664940661  0.2125685914380522  0.7448297564846561
  0.9471314236970841  0.1263402684194711  0.7003669835331349
  0.5596915604691959  0.0405954396723282  0.6558584347692843
  0.5569553532750831  0.5391372188004991  0.5224645274362326
  0.1780188316960524  0.1236069083892605  0.2995172751138861
  0.4415352444132444  0.1123147283014741  0.1664829931798410
  0.6776736189032913  0.6236740152098555  0.2996149715007346
  0.9282357144576964  0.1234482884472154  0.2996420279466867
  0.8166458213010582  0.3749932968473569  0.5668830932423357
  0.0529200648557479  0.8738490093705104  0.2995488804196793
  0.1916958515652243  0.6249635171322849  0.5668941005250162
  0.9447636879853305  0.7994469126975844  0.7888337406742094
  0.3085345252450352  0.3875129830230871  0.8335347624863334
  0.9397558633224772  0.4683988321041145  0.8761043563155300
  0.4336786082495476  0.6377441261527232  0.8335289817337895
  0.0645179354270853  0.2082654158000380  0.3437246335121889
  0.1897584907143081  0.9679689829971306  0.8761061136992735
  0.9355493351382730  0.7819190781788971  0.1241727900100993
  0.6868863872993390  0.7916387128651025  0.3885033508915414
  0.9348251873083558  0.7906827120598255  0.6559084529367784
  0.9413895397977378  0.1121064750298869  0.1664149076152181
  0.4350675938408651  0.2908232881249256  0.6560699611646379
  0.0543575671142155  0.2011285687029049  0.2112206432427468
  0.6789719483401647  0.9514576407480492  0.2113161630734868
  0.1786012057770053  0.6236639940961994  0.2994201651356626
  0.8221445942932286  0.8761883459422171  0.7004133113584428
  0.9468703862254625  0.6263570000982271  0.7004864060697815
  0.1971660274617131  0.1263190881347416  0.7003325499836444
  0.9426214946772978  0.4606014901649621  0.4772134812073774
  0.8134733044730914  0.2084637304207151  0.6115880483111299
  0.1835938096190874  0.6250101902426232  0.4331234212454021
  0.4279521656958608  0.1237631785947033  0.2995436656828023
  0.6783354476326261  0.1235532355546617  0.2993927487454082
  0.5617723130454672  0.5413301806148588  0.3885727518222921
  0.8143551198145197  0.2080360876346345  0.3438982197400284
  0.4398959696874986  0.4680400972700924  0.8759287512852661
  0.5585061416865492  0.8875475008495666  0.8334571770104587
  0.3176930486234403  0.2103886226096729  0.4773198935603568
  0.1927226310800764  0.9607902787553370  0.4774512390355012
  0.0586383803276650  0.8876647139967261  0.8334699288123132
  0.0572657686949110  0.5392723085622486  0.5225098349670636
  0.9426712225580012  0.9606504256529248  0.4773147373367855
  0.0632865916672221  0.7081724388245559  0.6116139436531162
  0.5573512452662694  0.0390300854139939  0.5224443307744880
  0.6950880658280050  0.2990682769603344  0.7887865037413401
  0.8175555874380659  0.3615951198991881  0.1666600638684400
  0.4334282505786489  0.1246697446712564  0.4331131804459259
  0.0679122623337945  0.2106033234024820  0.4774271766364747
  0.3097846774293699  0.0406356998356122  0.6559097659352440
  0.4323369917535504  0.7890331144052964  0.5224297758396532
  0.1835490796321229  0.1379197010233771  0.8336103625628524
  0.1860476172298134  0.2827271645079505  0.1242293145771693
  0.9398600717951417  0.4594350334771731  0.3440072788031442
  0.5673006413229486  0.8620545609770908  0.1665760573361255
  0.3042215670727375  0.7009332318926843  0.2111641431475162
  0.9413463576031678  0.6122900595434162  0.1666188408052723
  0.1882341143844757  0.4586361865319372  0.6115161481934394
  0.0723066008903976  0.8765005892652801  0.7003348282367042
  0.0598402770379726  0.5405703000905768  0.6559052790970721
  0.3080865470720606  0.5261085171435874  0.1239724877137663
  0.9366775658550541  0.7913212258467685  0.3885186911137656
  0.9449242569124127  0.2987199815524684  0.7887710793474428
  0.1846769482559887  0.2905861414396889  0.6559142566043550
  0.9381701029067709  0.9584225900930494  0.6115100184960213
  0.8099563844035537  0.7120177138935920  0.7448304247752757
  0.6911106520827269  0.2874145816020223  0.2552211411307447
  0.0592350869722078  0.7122207132558874  0.7449940725613766
  0.6789843607363195  0.4516726951571663  0.2112059839607305
  0.8178683160639246  0.2107137817162271  0.4774757768700172
  0.5676772265213483  0.7105804453778511  0.4774525145155855
  0.0668302935992724  0.8625017065843552  0.1665384029957219
  0.9324416818625774  0.2887837417715405  0.5224185972238049
  0.6846644523302684  0.7904403555036226  0.6558973478101726
  0.0585931733060667  0.8747806546918923  0.4330423061383961
  0.0681579661655732  0.2230477534669056  0.8761629437930457
  0.8097909039513613  0.0406193703608172  0.6559440973255068
  0.5590317842720597  0.0266674957859394  0.1240055556351120
  0.3087551477803995  0.3752353514420170  0.4330013847969785
  0.3162689799951987  0.3746835031732663  0.5667935764257009
  0.3177001659249747  0.7104181158776700  0.4773002263063052
  0.0571029893881991  0.0392806871882520  0.5225223608108664
  0.3220701381694113  0.8762997560425997  0.7005291097571339
  0.0650771818307790  0.5378667995917686  0.2551038629850889
  0.6833577483410409  0.1376038539971290  0.8335170677776224
  0.8151179420775594  0.0379091534179529  0.2551596833448402
  0.1833849381400441  0.1251066306276247  0.4331501958193756
  0.6973854435526088  0.1263048594592538  0.7004320916862189
  0.1823558234538289  0.2892923455742217  0.5225110164497266
  0.4409590384335016  0.7875554138632973  0.2552452605839925
  0.4416008178541259  0.6111601647461093  0.1664932028174451
  0.0635254623009768  0.2085132400907452  0.6115543204976007
  0.1861108332502366  0.7912980584335608  0.3883277771752423
  0.3070146575729022  0.5389638945704928  0.5224844823823380
  0.8217692096831037  0.3764551944034065  0.7003022286028056
  0.6864633451644381  0.2912148440731975  0.3883918427895315
  0.1914731908337414  0.1250129075697117  0.5668899427847662
  0.6898608920398288  0.9683573884422312  0.8760853628265224
  0.6916811325158884  0.1250480338090140  0.5668960635721010
  0.4398033555838609  0.9586705636154418  0.3440528702100851
  0.1838839225024152  0.9625372982380421  0.7447558338240080
  0.9407830370037674  0.7876009530623946  0.2551559913599872
  0.5585148044194141  0.8747466701936568  0.4330645135362370
  0.3082843526302654  0.8750323477504838  0.4331077305978231
  0.8073018538831356  0.5392645649563141  0.5225244829688870
  0.9293587779537015  0.4513056763965508  0.2112398982165374
  0.3155165314645866  0.5375945223463930  0.2550545635497318
  0.5615552839245634  0.0413563387511889  0.3884342095058347
  0.9383246874919006  0.4583207159868684  0.6115877736560738
  0.0616849949410346  0.0414734848357630  0.3884053859752095
  0.0613075213447143  0.5416320907481390  0.3883591480799709
  0.4365968951933649  0.2915034036193448  0.3883883229966972
  0.6928950050742561  0.4606338703132042  0.4774544826504135
  0.0666439685019593  0.3749962414269888  0.5668966546493515
  0.5545277395621382  0.7006459070377903  0.2111222603544466
  0.9404902299860104  0.2872255985961698  0.2551839862658169
  0.8193065918663718  0.0496683608769067  0.7890512232222459
  0.1894034117865570  0.9586906325853130  0.3439038226137734
  0.5528126697776190  0.8739893526872917  0.2995529916025536
  0.0586364676684047  0.3747071571552651  0.4328627027692400
  0.3148573839444144  0.7090311633992149  0.3439721088120765
  0.3149294050214947  0.2097017239138520  0.3439782195554767
  0.9415033936631154  0.1252394085767623  0.5668088042693579
  0.4385179372649304  0.9587861368853698  0.6115650493050644
  0.5654563036563742  0.0377054350507779  0.2550645191288881
  0.1860050905376679  0.7829435754759529  0.1242383494043380
  0.0658912978476457  0.0376592093572589  0.2551378702012471
  0.6916935465598720  0.6249641608419727  0.5668990520322370
  0.0572437243723269  0.5269286446693321  0.1240881869167365
  0.3070594001766442  0.0387093680008419  0.5223560124531137
  0.6873439580652234  0.2820896671420453  0.1242226970001800
  0.8178588600585638  0.7107611501712191  0.4774520866087553
  0.4335347968511357  0.1376327338617013  0.8335455959782357
  0.3222795243578541  0.3764118352624528  0.7004073254019025
  0.6836140248954198  0.6377409580394138  0.8335240685825410
  0.5598771259581146  0.7120546618671513  0.7448711191209593
  0.9368318385859460  0.2913743460181084  0.3885631554454606
  0.9397463823033768  0.9683543719876970  0.8761415203479123
  0.5629612285272904  0.2080502042319970  0.6114231025844622
  0.8166541348516357  0.8751943106403256  0.5668887730952675
  0.8033079879564675  0.8734436190280426  0.2994314561747592
  0.3152801825645931  0.0377327250427145  0.2551580993482447
  0.4361889011041664  0.2831026863854751  0.1240301385201095
  0.3133234486692052  0.7085903590738282  0.6115513993149521
  0.4337032670905805  0.6250123562313885  0.4329340554238998
  0.9331728963381498  0.6254015104878385  0.4330910961353377
  0.4401139675486567  0.4581760354352951  0.3440822871635552
  0.0706641348798908  0.5494488141625100  0.7887763999517331
  0.9332041576376389  0.1252632598957485  0.4331156366947975
  0.3184168281466476  0.3627518103824244  0.1657696323405720
  0.9333566822827073  0.9620918101687383  0.7446974657539078
  0.8162869008973707  0.5379326136066656  0.2552833027094571
 
  0.00000000E+00  0.00000000E+00  0.00000000E+00
  0.00000000E+00  0.00000000E+00  0.00000000E+00
  0.00000000E+00  0.00000000E+00  0.00000000E+00
  0.00000000E+00  0.00000000E+00  0.00000000E+00
  0.00000000E+00  0.00000000E+00  0.00000000E+00
  0.00000000E+00  0.00000000E+00  0.00000000E+00
  0.00000000E+00  0.00000000E+00  0.00000000E+00
  0.00000000E+00  0.00000000E+00  0.00000000E+00
  0.00000000E+00  0.00000000E+00  0.00000000E+00
  0.00000000E+00  0.00000000E+00  0.00000000E+00
  0.00000000E+00  0.00000000E+00  0.00000000E+00
  0.00000000E+00  0.00000000E+00  0.00000000E+00
  0.00000000E+00  0.00000000E+00  0.00000000E+00
  0.00000000E+00  0.00000000E+00  0.00000000E+00
  0.00000000E+00  0.00000000E+00  0.00000000E+00
  0.00000000E+00  0.00000000E+00  0.00000000E+00
  0.00000000E+00  0.00000000E+00  0.00000000E+00
  0.00000000E+00  0.00000000E+00  0.00000000E+00
  0.00000000E+00  0.00000000E+00  0.00000000E+00
  0.00000000E+00  0.00000000E+00  0.00000000E+00
  0.00000000E+00  0.00000000E+00  0.00000000E+00
  0.00000000E+00  0.00000000E+00  0.00000000E+00
  0.00000000E+00  0.00000000E+00  0.00000000E+00
  0.00000000E+00  0.00000000E+00  0.00000000E+00
  0.00000000E+00  0.00000000E+00  0.00000000E+00
  0.00000000E+00  0.00000000E+00  0.00000000E+00
  0.00000000E+00  0.00000000E+00  0.00000000E+00
  0.00000000E+00  0.00000000E+00  0.00000000E+00
  0.00000000E+00  0.00000000E+00  0.00000000E+00
  0.00000000E+00  0.00000000E+00  0.00000000E+00
  0.00000000E+00  0.00000000E+00  0.00000000E+00
  0.00000000E+00  0.00000000E+00  0.00000000E+00
  0.00000000E+00  0.00000000E+00  0.00000000E+00
  0.00000000E+00  0.00000000E+00  0.00000000E+00
  0.00000000E+00  0.00000000E+00  0.00000000E+00
  0.00000000E+00  0.00000000E+00  0.00000000E+00
  0.00000000E+00  0.00000000E+00  0.00000000E+00
  0.00000000E+00  0.00000000E+00  0.00000000E+00
  0.00000000E+00  0.00000000E+00  0.00000000E+00
  0.00000000E+00  0.00000000E+00  0.00000000E+00
  0.00000000E+00  0.00000000E+00  0.00000000E+00
  0.00000000E+00  0.00000000E+00  0.00000000E+00
  0.00000000E+00  0.00000000E+00  0.00000000E+00
  0.00000000E+00  0.00000000E+00  0.00000000E+00
  0.00000000E+00  0.00000000E+00  0.00000000E+00
  0.00000000E+00  0.00000000E+00  0.00000000E+00
  0.00000000E+00  0.00000000E+00  0.00000000E+00
  0.00000000E+00  0.00000000E+00  0.00000000E+00
  0.00000000E+00  0.00000000E+00  0.00000000E+00
  0.00000000E+00  0.00000000E+00  0.00000000E+00
  0.00000000E+00  0.00000000E+00  0.00000000E+00
  0.00000000E+00  0.00000000E+00  0.00000000E+00
  0.00000000E+00  0.00000000E+00  0.00000000E+00
  0.00000000E+00  0.00000000E+00  0.00000000E+00
  0.00000000E+00  0.00000000E+00  0.00000000E+00
  0.00000000E+00  0.00000000E+00  0.00000000E+00
  0.00000000E+00  0.00000000E+00  0.00000000E+00
  0.00000000E+00  0.00000000E+00  0.00000000E+00
  0.00000000E+00  0.00000000E+00  0.00000000E+00
  0.00000000E+00  0.00000000E+00  0.00000000E+00
  0.00000000E+00  0.00000000E+00  0.00000000E+00
  0.00000000E+00  0.00000000E+00  0.00000000E+00
  0.00000000E+00  0.00000000E+00  0.00000000E+00
  0.00000000E+00  0.00000000E+00  0.00000000E+00
  0.00000000E+00  0.00000000E+00  0.00000000E+00
  0.00000000E+00  0.00000000E+00  0.00000000E+00
  0.00000000E+00  0.00000000E+00  0.00000000E+00
  0.00000000E+00  0.00000000E+00  0.00000000E+00
  0.00000000E+00  0.00000000E+00  0.00000000E+00
  0.00000000E+00  0.00000000E+00  0.00000000E+00
  0.00000000E+00  0.00000000E+00  0.00000000E+00
  0.00000000E+00  0.00000000E+00  0.00000000E+00
  0.00000000E+00  0.00000000E+00  0.00000000E+00
  0.00000000E+00  0.00000000E+00  0.00000000E+00
  0.00000000E+00  0.00000000E+00  0.00000000E+00
  0.00000000E+00  0.00000000E+00  0.00000000E+00
  0.00000000E+00  0.00000000E+00  0.00000000E+00
  0.00000000E+00  0.00000000E+00  0.00000000E+00
  0.00000000E+00  0.00000000E+00  0.00000000E+00
  0.00000000E+00  0.00000000E+00  0.00000000E+00
  0.00000000E+00  0.00000000E+00  0.00000000E+00
  0.00000000E+00  0.00000000E+00  0.00000000E+00
  0.00000000E+00  0.00000000E+00  0.00000000E+00
  0.00000000E+00  0.00000000E+00  0.00000000E+00
  0.00000000E+00  0.00000000E+00  0.00000000E+00
  0.00000000E+00  0.00000000E+00  0.00000000E+00
  0.00000000E+00  0.00000000E+00  0.00000000E+00
  0.00000000E+00  0.00000000E+00  0.00000000E+00
  0.00000000E+00  0.00000000E+00  0.00000000E+00
  0.00000000E+00  0.00000000E+00  0.00000000E+00
  0.00000000E+00  0.00000000E+00  0.00000000E+00
  0.00000000E+00  0.00000000E+00  0.00000000E+00
  0.00000000E+00  0.00000000E+00  0.00000000E+00
  0.00000000E+00  0.00000000E+00  0.00000000E+00
  0.00000000E+00  0.00000000E+00  0.00000000E+00
  0.00000000E+00  0.00000000E+00  0.00000000E+00
  0.00000000E+00  0.00000000E+00  0.00000000E+00
  0.00000000E+00  0.00000000E+00  0.00000000E+00
  0.00000000E+00  0.00000000E+00  0.00000000E+00
  0.00000000E+00  0.00000000E+00  0.00000000E+00
  0.00000000E+00  0.00000000E+00  0.00000000E+00
  0.00000000E+00  0.00000000E+00  0.00000000E+00
  0.00000000E+00  0.00000000E+00  0.00000000E+00
  0.00000000E+00  0.00000000E+00  0.00000000E+00
  0.00000000E+00  0.00000000E+00  0.00000000E+00
  0.00000000E+00  0.00000000E+00  0.00000000E+00
  0.00000000E+00  0.00000000E+00  0.00000000E+00
  0.00000000E+00  0.00000000E+00  0.00000000E+00
  0.00000000E+00  0.00000000E+00  0.00000000E+00
  0.00000000E+00  0.00000000E+00  0.00000000E+00
  0.00000000E+00  0.00000000E+00  0.00000000E+00
  0.00000000E+00  0.00000000E+00  0.00000000E+00
  0.00000000E+00  0.00000000E+00  0.00000000E+00
  0.00000000E+00  0.00000000E+00  0.00000000E+00
  0.00000000E+00  0.00000000E+00  0.00000000E+00
  0.00000000E+00  0.00000000E+00  0.00000000E+00
  0.00000000E+00  0.00000000E+00  0.00000000E+00
  0.00000000E+00  0.00000000E+00  0.00000000E+00
  0.00000000E+00  0.00000000E+00  0.00000000E+00
  0.00000000E+00  0.00000000E+00  0.00000000E+00
  0.00000000E+00  0.00000000E+00  0.00000000E+00
  0.00000000E+00  0.00000000E+00  0.00000000E+00
  0.00000000E+00  0.00000000E+00  0.00000000E+00
  0.00000000E+00  0.00000000E+00  0.00000000E+00
  0.00000000E+00  0.00000000E+00  0.00000000E+00
  0.00000000E+00  0.00000000E+00  0.00000000E+00
  0.00000000E+00  0.00000000E+00  0.00000000E+00
  0.00000000E+00  0.00000000E+00  0.00000000E+00
  0.00000000E+00  0.00000000E+00  0.00000000E+00
  0.00000000E+00  0.00000000E+00  0.00000000E+00
  0.00000000E+00  0.00000000E+00  0.00000000E+00
  0.00000000E+00  0.00000000E+00  0.00000000E+00
  0.00000000E+00  0.00000000E+00  0.00000000E+00
  0.00000000E+00  0.00000000E+00  0.00000000E+00
  0.00000000E+00  0.00000000E+00  0.00000000E+00
  0.00000000E+00  0.00000000E+00  0.00000000E+00
  0.00000000E+00  0.00000000E+00  0.00000000E+00
  0.00000000E+00  0.00000000E+00  0.00000000E+00
  0.00000000E+00  0.00000000E+00  0.00000000E+00
  0.00000000E+00  0.00000000E+00  0.00000000E+00
  0.00000000E+00  0.00000000E+00  0.00000000E+00
  0.00000000E+00  0.00000000E+00  0.00000000E+00
  0.00000000E+00  0.00000000E+00  0.00000000E+00
  0.00000000E+00  0.00000000E+00  0.00000000E+00
  0.00000000E+00  0.00000000E+00  0.00000000E+00
  0.00000000E+00  0.00000000E+00  0.00000000E+00
  0.00000000E+00  0.00000000E+00  0.00000000E+00
  0.00000000E+00  0.00000000E+00  0.00000000E+00
  0.00000000E+00  0.00000000E+00  0.00000000E+00
  0.00000000E+00  0.00000000E+00  0.00000000E+00
  0.00000000E+00  0.00000000E+00  0.00000000E+00
  0.00000000E+00  0.00000000E+00  0.00000000E+00
  0.00000000E+00  0.00000000E+00  0.00000000E+00
  0.00000000E+00  0.00000000E+00  0.00000000E+00
  0.00000000E+00  0.00000000E+00  0.00000000E+00
  0.00000000E+00  0.00000000E+00  0.00000000E+00
  0.00000000E+00  0.00000000E+00  0.00000000E+00
  0.00000000E+00  0.00000000E+00  0.00000000E+00
  0.00000000E+00  0.00000000E+00  0.00000000E+00
  0.00000000E+00  0.00000000E+00  0.00000000E+00
  0.00000000E+00  0.00000000E+00  0.00000000E+00
  0.00000000E+00  0.00000000E+00  0.00000000E+00
  0.00000000E+00  0.00000000E+00  0.00000000E+00
  0.00000000E+00  0.00000000E+00  0.00000000E+00
  0.00000000E+00  0.00000000E+00  0.00000000E+00
  0.00000000E+00  0.00000000E+00  0.00000000E+00
  0.00000000E+00  0.00000000E+00  0.00000000E+00
  0.00000000E+00  0.00000000E+00  0.00000000E+00
  0.00000000E+00  0.00000000E+00  0.00000000E+00
  0.00000000E+00  0.00000000E+00  0.00000000E+00
  0.00000000E+00  0.00000000E+00  0.00000000E+00
  0.00000000E+00  0.00000000E+00  0.00000000E+00
  0.00000000E+00  0.00000000E+00  0.00000000E+00
  0.00000000E+00  0.00000000E+00  0.00000000E+00
  0.00000000E+00  0.00000000E+00  0.00000000E+00
  0.00000000E+00  0.00000000E+00  0.00000000E+00
  0.00000000E+00  0.00000000E+00  0.00000000E+00
  0.00000000E+00  0.00000000E+00  0.00000000E+00
  0.00000000E+00  0.00000000E+00  0.00000000E+00
  0.00000000E+00  0.00000000E+00  0.00000000E+00
  0.00000000E+00  0.00000000E+00  0.00000000E+00
  0.00000000E+00  0.00000000E+00  0.00000000E+00
  0.00000000E+00  0.00000000E+00  0.00000000E+00
  0.00000000E+00  0.00000000E+00  0.00000000E+00
  0.00000000E+00  0.00000000E+00  0.00000000E+00
  0.00000000E+00  0.00000000E+00  0.00000000E+00
  0.00000000E+00  0.00000000E+00  0.00000000E+00
  0.00000000E+00  0.00000000E+00  0.00000000E+00
  0.00000000E+00  0.00000000E+00  0.00000000E+00
  0.00000000E+00  0.00000000E+00  0.00000000E+00
  0.00000000E+00  0.00000000E+00  0.00000000E+00
  0.00000000E+00  0.00000000E+00  0.00000000E+00
  0.00000000E+00  0.00000000E+00  0.00000000E+00
  0.00000000E+00  0.00000000E+00  0.00000000E+00
  0.00000000E+00  0.00000000E+00  0.00000000E+00
  0.00000000E+00  0.00000000E+00  0.00000000E+00
  0.00000000E+00  0.00000000E+00  0.00000000E+00
  0.00000000E+00  0.00000000E+00  0.00000000E+00
  0.00000000E+00  0.00000000E+00  0.00000000E+00
  0.00000000E+00  0.00000000E+00  0.00000000E+00
  0.00000000E+00  0.00000000E+00  0.00000000E+00
  0.00000000E+00  0.00000000E+00  0.00000000E+00
  0.00000000E+00  0.00000000E+00  0.00000000E+00
  0.00000000E+00  0.00000000E+00  0.00000000E+00
  0.00000000E+00  0.00000000E+00  0.00000000E+00
  0.00000000E+00  0.00000000E+00  0.00000000E+00
  0.00000000E+00  0.00000000E+00  0.00000000E+00
  0.00000000E+00  0.00000000E+00  0.00000000E+00
  0.00000000E+00  0.00000000E+00  0.00000000E+00
  0.00000000E+00  0.00000000E+00  0.00000000E+00
  0.00000000E+00  0.00000000E+00  0.00000000E+00
  0.00000000E+00  0.00000000E+00  0.00000000E+00
  0.00000000E+00  0.00000000E+00  0.00000000E+00
  0.00000000E+00  0.00000000E+00  0.00000000E+00
  0.00000000E+00  0.00000000E+00  0.00000000E+00
  0.00000000E+00  0.00000000E+00  0.00000000E+00
  0.00000000E+00  0.00000000E+00  0.00000000E+00
  0.00000000E+00  0.00000000E+00  0.00000000E+00
  0.00000000E+00  0.00000000E+00  0.00000000E+00
  0.00000000E+00  0.00000000E+00  0.00000000E+00
  0.00000000E+00  0.00000000E+00  0.00000000E+00
  0.00000000E+00  0.00000000E+00  0.00000000E+00
  0.00000000E+00  0.00000000E+00  0.00000000E+00
  0.00000000E+00  0.00000000E+00  0.00000000E+00
  0.00000000E+00  0.00000000E+00  0.00000000E+00
  0.00000000E+00  0.00000000E+00  0.00000000E+00
  0.00000000E+00  0.00000000E+00  0.00000000E+00
  0.00000000E+00  0.00000000E+00  0.00000000E+00
  0.00000000E+00  0.00000000E+00  0.00000000E+00
  0.00000000E+00  0.00000000E+00  0.00000000E+00
  0.00000000E+00  0.00000000E+00  0.00000000E+00
  0.00000000E+00  0.00000000E+00  0.00000000E+00
  0.00000000E+00  0.00000000E+00  0.00000000E+00
  0.00000000E+00  0.00000000E+00  0.00000000E+00
  0.00000000E+00  0.00000000E+00  0.00000000E+00
  0.00000000E+00  0.00000000E+00  0.00000000E+00
  0.00000000E+00  0.00000000E+00  0.00000000E+00
  0.00000000E+00  0.00000000E+00  0.00000000E+00
  0.00000000E+00  0.00000000E+00  0.00000000E+00
  0.00000000E+00  0.00000000E+00  0.00000000E+00
  0.00000000E+00  0.00000000E+00  0.00000000E+00
  0.00000000E+00  0.00000000E+00  0.00000000E+00
  0.00000000E+00  0.00000000E+00  0.00000000E+00
  0.00000000E+00  0.00000000E+00  0.00000000E+00
  0.00000000E+00  0.00000000E+00  0.00000000E+00
  0.00000000E+00  0.00000000E+00  0.00000000E+00
  0.00000000E+00  0.00000000E+00  0.00000000E+00