CuInSe2gb                               
   1.00000000000000     
     9.7266780392896699    0.0000000000000000    0.0000000000000000
     0.0000000000000000    8.4235502764570693    0.0000000000000000
     0.0000000000000000    0.0000000000000000   45.0000000000000000
   Fe   Mn
   281     7
Direct
  0.0578075402303833  0.7009188365110566  0.2110125310696543
  0.3160199630128046  0.7204148660838242  0.8757636213349321
  0.6878452006014454  0.9577298074208039  0.6114117602050738
  0.4383419077541251  0.4579011377338799  0.6114564758173037
  0.4367531284586824  0.2869017373489322  0.2555108576006467
  0.0609583711667756  0.3866471107133760  0.8341650802709566
  0.3112324937008696  0.8867605296765393  0.8342509397180529
  0.4422058641844174  0.6263753692838869  0.7003794907993081
  0.0637687846402512  0.2133150696312938  0.7445772240036680
  0.1825587809338622  0.4511685231299797  0.2111479509427058
  0.5639638340430054  0.2090802380940453  0.4778498669726761
  0.0639913172553129  0.8748910698901200  0.5668632727078767
  0.5657239964703105  0.2197748880440191  0.8757047836447912
  0.8100430742257333  0.5303128259777323  0.1243916651689277
  0.4330830339754310  0.9511960473190144  0.2111901423114355
  0.5642526973115197  0.3744234012119979  0.5667244338859418
  0.8117225794662625  0.0420704638033084  0.3883838264528471
  0.6860039986051870  0.7907305547629844  0.5221130854838776
  0.4387651468902663  0.4591445425269932  0.4778129962127116
  0.4379271423054380  0.9628292124531918  0.7444413066817495
  0.4391246439240485  0.6245610826796012  0.5668420633659139
  0.5672964914974953  0.8765125119277757  0.7003491637359665
  0.3107408153554376  0.0306210239148142  0.1241190673740220
  0.6864950002164338  0.9578371290409410  0.3440190649671766
  0.6875510957774259  0.7799136696152555  0.1245777114308554
  0.0575261852415851  0.3733547455339152  0.2995896045210563
  0.6888729363832771  0.4713840390734351  0.8754746201104144
  0.4329019838653445  0.4511587125279589  0.2111457808622964
  0.8108369384057433  0.3752989678585671  0.4329977825994652
  0.5632887895140739  0.7083161578540199  0.6115262560306374
  0.5629001705475271  0.5413890348178304  0.6557943558844289
  0.8145247397561807  0.8636374874065431  0.1659436816518217
  0.5610560076145720  0.5369902667125094  0.2555361748926706
  0.6866246688590857  0.4580365450858359  0.3441100121569745
  0.1889125539858999  0.6131541548700069  0.1660959899528315
  0.1917101661725132  0.7991641314499807  0.7887354446521194
  0.4423744957632353  0.1262443141481680  0.7004348570841900
  0.9330207543583854  0.6232737724017373  0.2997137983649699
  0.3153578454374362  0.2198251331463948  0.8757133308502497
  0.3140599676327476  0.8746263485692592  0.5667615793848504
  0.8153465274054102  0.2200054675674749  0.8757038191526597
  0.8127307860459559  0.5415639087255659  0.6558492781811288
  0.5600467850568295  0.5298318913346879  0.1244655892410388
  0.5669024198220658  0.0494933340370383  0.7889587900725819
  0.1865718928019578  0.2868232352119983  0.2554948981510849
  0.8108284361928143  0.8752041646293246  0.4330459244937039
  0.5671061933837912  0.3765727590532095  0.7004512745886273
  0.0610186990871766  0.0300573449082877  0.1244054572473585
  0.3130957454333829  0.5413939492710015  0.6557974386546416
  0.5617765631259252  0.2081307165124763  0.3441507684988181
  0.1888384892468236  0.9578460989672788  0.6114881448455671
  0.3075648942077302  0.3735952312664454  0.2996041942669756
  0.4379286827031418  0.7915177029009075  0.6558286919953772
  0.1917152670123072  0.2984585270324824  0.7888850144366681
  0.0638932787800227  0.3633434669073558  0.1659857120391577
  0.6919937765662104  0.6267133758716099  0.7004623490161609
  0.3116994498326215  0.5417351805092629  0.3884278592803851
  0.0654397549898463  0.7199053784719830  0.8758833963950781
  0.9363857949207576  0.6369163527224714  0.8342543371985821
  0.3173480688618938  0.5496369447719958  0.7889434935417661
  0.3074379625218138  0.2008431618160502  0.2110824895598170
  0.0639259524199534  0.7090227998263521  0.4778811660316487
  0.5576570627975724  0.2011358252763988  0.2110836547000150
  0.3138535741656662  0.2134781761575663  0.7444244372189839
  0.0672946224670753  0.3767047006419172  0.7003892499086831
  0.1862769710082283  0.6368217415697239  0.8340670836749990
  0.0668390611006458  0.0493782810460074  0.7889423337293994
  0.4390669512968129  0.1246931472714722  0.5667867559116315
  0.9380055367152131  0.2914978428871851  0.6557673463179426
  0.8076531130409351  0.2014897730375201  0.2111107298137292
  0.9327296378656132  0.9512375310516162  0.2112323311084307
  0.9390974497257930  0.6249792176033354  0.5667426051317307
  0.8108509791902818  0.3866978912364722  0.8341963053021305
  0.1921389156517363  0.6268609166119258  0.7003595555165821
  0.8110988621014407  0.8866399450175401  0.8342905670496871
  0.6883098127736634  0.2915201717151049  0.6557784891590646
  0.3135329914950027  0.2078407300928372  0.6114979559136294
  0.4381986991681396  0.4625236973546614  0.7444416128757737
  0.4367018553472009  0.7916238361794593  0.3883877009425445
  0.6876825550728765  0.9627948528340412  0.7445584245299663
  0.8075186463008894  0.7011866191879486  0.2111151008614148
  0.8131407497122274  0.7077370497293611  0.6114193217208114
  0.4367643396411279  0.7794177100224474  0.1241862576656393
  0.3130467748680377  0.7129077067484366  0.7444206628323541
  0.3172111391863190  0.0493857805111264  0.7890120125591250
  0.8115481946860013  0.5418590052164229  0.3884516919628876
  0.6861812732544580  0.2910227757931412  0.5221176540369076
  0.6919182141417108  0.7993454608127825  0.7888889973324309
  0.1865353703389561  0.7878465099775324  0.2555558644740231
  0.6888229042663737  0.1139309367596790  0.1661877719985768
  0.6889097596329609  0.9591742839545261  0.4778706705569974
  0.9369052598714326  0.9583298885598945  0.3440974545011612
  0.8112100479513843  0.0406147870558632  0.5220919905565901
  0.6850526220230634  0.6252416578753460  0.4330470798636195
  0.4367781420008550  0.4584775838486123  0.3441601115764065
  0.8131487179325521  0.2134731880652353  0.7445141650144765
  0.4390356791896212  0.9714913233775649  0.8755108367988421
  0.5641441765964011  0.8745087622908979  0.5667746911941898
  0.8105210925234008  0.0299369410776647  0.1245278683264532
  0.4324041481879518  0.6235600068972679  0.2996858553620877
  0.8151812866368592  0.7204392639414480  0.8758549026922030
  0.6876479965185600  0.4578923413393797  0.6114175785326947
  0.5611783651447286  0.3868120868391975  0.8340884042704194
  0.8076167377273604  0.3731752635590609  0.2996379187673078
  0.1864301353639001  0.2916586983656037  0.3883810565053693
  0.8165021339291112  0.5495650637567765  0.7890991694230822
  0.1862663387763816  0.7906097865012017  0.5221721894676639
  0.3077875040674829  0.8734349854421299  0.2996703392327215
  0.1824754759277432  0.9516049740135406  0.2112885316343799
  0.1886317855985111  0.4630007906842633  0.7445162853154709
  0.4360203232291483  0.2909636316798543  0.5220660065312688
  0.0621322429327429  0.7086502741424118  0.3442267318395799
  0.1882816164506494  0.7911917875246448  0.6557278952565625
  0.4417917829432482  0.7995153297446407  0.7888400453568201
  0.6850581432388912  0.1251270164711310  0.4330851098089639
  0.9363432991471515  0.7905933982219897  0.5220988608040034
  0.6884893301534289  0.6128085232595556  0.1661141629759338
  0.8117227496311233  0.7085184606179274  0.3441972054367996
  0.9383931743884635  0.4628050403601850  0.7444760047178558
  0.1868043923490501  0.4581930501625975  0.3441010090060738
  0.5672257355675946  0.5494166549984529  0.7889939424738082
  0.5648170076691981  0.3636773771326352  0.1659274518187372
  0.5614254495540515  0.7082989321989404  0.3442805537739163
  0.5580129483284355  0.3734205164869381  0.2995870753614444
  0.1888283051391458  0.4713495060015979  0.8755760729319345
  0.1885190236516397  0.1126094044221287  0.1661860978809977
  0.4416617889071020  0.2989050452026824  0.7888191053817785
  0.6860134360464187  0.7872536811811115  0.2555178285224487
  0.9368013495270930  0.1366500595730177  0.8341296558486204
  0.4388660900581507  0.9591127979044324  0.4777684381274979
  0.5655197377701027  0.7200742837934173  0.8757200897724151
  0.1886452287981144  0.4591077109598234  0.4777934155800917
  0.9364341690553698  0.2795705466511070  0.1245475504683125
  0.3114582177724649  0.0418057658275239  0.3884026164070554
  0.0628522675954674  0.0408980644381001  0.6557469881953625
  0.5610395366304011  0.3752128692726752  0.4330346562176968
  0.6877719896847493  0.4624424070209860  0.7445367459231859
  0.5635488392290876  0.2135593628544958  0.7444325404611811
  0.9424621632071757  0.1266108104985453  0.7004353373105491
  0.5630594638284355  0.0411924069314961  0.6557912418469403
  0.5611054334233321  0.5407763564450726  0.5220617014634074
  0.1826132756928598  0.1232951494185232  0.2995575129913641
  0.4389238132303762  0.1123329512905042  0.1660358262362781
  0.6823449927155077  0.6234481487781145  0.2997103488132433
  0.9325300534766571  0.1228955425896323  0.2996192562607157
  0.8138834956708548  0.3747182602896661  0.5668342337058155
  0.0578086545179431  0.8731795963953353  0.2995915958689263
  0.1888413369325170  0.6247140605669197  0.5668954534371632
  0.9411084774239791  0.7989482762419325  0.7889411740820637
  0.3113061040778924  0.3867340204093969  0.8341878716955718
  0.9391867384435482  0.4715391860573085  0.8755716045092897
  0.4366465673719362  0.6370967323872624  0.8341444123499154
  0.0616484250534792  0.2085857483794264  0.3441739779234243
  0.1888544531700524  0.9710754104173804  0.8755012651100389
  0.9362434049569591  0.7797786968901234  0.1245363086246808
  0.6863210627557571  0.7918794015464167  0.3884169832816624
  0.9381917273185714  0.7912263798603488  0.6557742561086647
  0.9387971396008483  0.1139945411702458  0.1661836419629195
  0.4376387411614651  0.2914500108531787  0.6557917740641638
  0.0580389161842475  0.2011421717064650  0.2111113296701801
  0.6827319213277713  0.9513347724462219  0.2112459839257363
  0.1825590190194671  0.6233933805411058  0.2996758138151948
  0.8169708657466083  0.8764737698209167  0.7002885031821975
  0.9423247529848270  0.6266030965575964  0.7004185782462797
  0.1923571227515101  0.1270714415521152  0.7003769478982759
  0.9391580869113496  0.4587656032024350  0.4778378236942614
  0.8128353994942356  0.2074538056826674  0.6114475306557543
  0.1868790922919678  0.6253025009829528  0.4330255336700144
  0.4326044994633504  0.1233694984045349  0.2996593699734673
  0.6824892623810002  0.1228040132475087  0.2995990443434682
  0.5613766439761484  0.5416872587066563  0.3884354553359808
  0.8119279914349553  0.2083620030688098  0.3442983111202988
  0.4391560353508151  0.4714571920089857  0.8754915586446248
  0.5611557991226008  0.8864976381303856  0.8342494714817467
  0.3140126819108434  0.2092994692484748  0.4778363067363727
  0.1885228103362388  0.9589824937928927  0.4777684442013279
  0.0610018175537137  0.8868327610010780  0.8342197958059372
  0.0611356080050725  0.5405446927991946  0.5219839794148091
  0.9390426038592601  0.9586735886934472  0.4778443853695703
  0.0634803538502502  0.7080106008375284  0.6114270752614331
  0.5610067904397695  0.0408390092100600  0.5220639765841900
  0.6918430479024679  0.2987704248349753  0.7888010130720258
  0.8142292260040286  0.3636917624809888  0.1660576651937082
  0.4356018482759008  0.1249145475650719  0.4330057749834312
  0.0638977017709071  0.2088625165945380  0.4778509774742085
  0.3129692547352997  0.0413654841906522  0.6557461892762950
  0.4361135025999880  0.7904503140939743  0.5220407841215254
  0.1866418984175240  0.1368016396240297  0.8341182330472020
  0.1858117437631142  0.2794674254421543  0.1246201305948922
  0.9368297350393339  0.4583442186753587  0.3440704057712776
  0.5646822897703822  0.8638646380701731  0.1659207396883638
  0.3075105717437367  0.7005503759894672  0.2111734742769810
  0.9385266150620134  0.6128731847140532  0.1661352283119929
  0.1889893568795661  0.4578820603515373  0.6114364124480826
  0.0674741080934572  0.8764148908417769  0.7002898130346251
  0.0629668307161002  0.5415749098271802  0.6559100574383969
  0.3101124479652470  0.5309036826553100  0.1244393295531627
  0.9363118462409712  0.7921466756076609  0.3884273832568055
  0.9415792435173024  0.2986325727029536  0.7888310914108269
  0.1877271988457283  0.2915602598902563  0.6558415601620666
  0.9385120812053012  0.9579549243101576  0.6115236875366354
  0.8134870417016851  0.7128402018322518  0.7446235338008422
  0.6862891250712987  0.2873692015360139  0.2554751533261428
  0.0639756592936590  0.7129497517395709  0.7445049811482198
  0.6826579890443669  0.4514070970005308  0.2112679543819550
  0.8138608214561125  0.2088383818695976  0.4778200468040351
  0.5638068317105347  0.7092966611973442  0.4778735665164098
  0.0640402728277633  0.8638815151482309  0.1660620676244097
  0.9362973806873743  0.2905145469496480  0.5221357455805664
  0.6875839352989150  0.7912807146050460  0.6558440659413443
  0.0614409981660446  0.8747531700283755  0.4330135658422142
  0.0656290649780063  0.2194076641662641  0.8758061011885711
  0.8130853986638874  0.0410533244110166  0.6557609562543911
  0.5600770736729584  0.0302605730964087  0.1243963431375214
  0.3107817857548049  0.3750799075683965  0.4330630737874811
  0.3141222545869024  0.3744359652883154  0.5667344554344930
  0.3139849116571962  0.7092926523477875  0.4778560069018867
  0.0611799384131411  0.0406508615091919  0.5220368108336331
  0.3173939448876191  0.8766954341661533  0.7004297826843437
  0.0617386949115261  0.5367933842159529  0.2555101555357041
  0.6866974183330384  0.1372105787439674  0.8341277409995848
  0.8113375643172949  0.0368140105957391  0.2556171276689880
  0.1868756669192079  0.1250874019530477  0.4330381453280074
  0.6922560508260607  0.1264396506973938  0.7003467097727277
  0.1864964615861620  0.2905676516332729  0.5220732877681366
  0.4365770657929235  0.7874648081633845  0.2555443734610952
  0.4382276762384728  0.6129063469697446  0.1661600564693304
  0.0634785045326985  0.2076748605215039  0.6114170538547261
  0.1864332074478582  0.7915947045296901  0.3883537771694103
  0.3114531480927000  0.5408707259674150  0.5220743538538061
  0.8170641589357112  0.3766348434038393  0.7003196893661304
  0.6864060123213060  0.2919647022596260  0.3883834445289178
  0.1892601789809155  0.1249053764215309  0.5667519163781687
  0.6889326565832421  0.9716766290707126  0.8755160656724134
  0.6889459846960653  0.1248797830157550  0.5668285117455749
  0.4367308866272911  0.9584333296519018  0.3441728221112801
  0.1884106150480065  0.9627267255955393  0.7445399255075650
  0.9366843951992424  0.7875058245845922  0.2554920901800000
  0.5611332339823663  0.8751704759960910  0.4330114283380680
  0.3107392837480690  0.8751743582704856  0.4330806159523905
  0.8111455643129605  0.5403320877019140  0.5220746501436153
  0.9327820062704890  0.4513939346528281  0.2112808650956441
  0.3116446137469329  0.5368379784852408  0.2555295910762203
  0.5613330336734241  0.0416399797674484  0.3884090355841985
  0.3139278058587316  0.3634510632574373  0.1659685202052599
  0.0614468381685816  0.0419746594165091  0.3883894589990385
  0.0613910323172323  0.5416654415810055  0.3884435255661508
  0.4365019442096660  0.2918189555138098  0.3884194325344809
  0.6888348490992603  0.4590701892947947  0.4778981624052904
  0.0642728319988104  0.3747206486186043  0.5668200507217837
  0.5577566862073767  0.7007958259848294  0.2111419273787053
  0.9366854703179351  0.2871747159421074  0.2555753629115984
  0.8165988793218208  0.0492957393472561  0.7889213109267643
  0.1869763006753740  0.9583362841087213  0.3441502457893621
  0.5577111689687047  0.8733090190041118  0.2996696865771110
  0.0613606742463754  0.3747798454861976  0.4329952086519845
  0.3120403947470836  0.7080887079972937  0.3441507566192631
  0.3117637524816326  0.2079678186118634  0.3441727345129203
  0.9390472609243806  0.1250739250270773  0.5667829742529725
  0.4381225837249333  0.9579703239679166  0.6114875655363751
  0.5608280140362026  0.0369976515295054  0.2555603519356380
  0.1867869482549772  0.7790859886588946  0.1243335407202125
  0.0619195464728099  0.0371083571511572  0.2555670645600340
  0.6893254156401192  0.6245086398248663  0.5668866756932541
  0.0602727483554726  0.5298814749753534  0.1244246621349647
  0.3112169983293245  0.0410531942300255  0.5220581914369995
  0.6866614355705077  0.2795720143739179  0.1245388325186829
  0.8137959490028625  0.7091681309517939  0.4778343712077984
  0.4367257090641324  0.1368002642160057  0.8340106204988986
  0.3174840362793281  0.3763140742422373  0.7003542628593524
  0.6867989110469531  0.6370491766160528  0.8341126099489212
  0.5633428750918813  0.7126805973001974  0.7444859045648682
  0.9362168215513139  0.2920606346343763  0.3884061584380801
  0.9392586979839961  0.9712925179118662  0.8755278429962526
  0.5636313901407000  0.2077906539871794  0.6114526264032071
  0.8141287386499505  0.8749220950424693  0.5668831735918143
  0.8075176539762646  0.8733338418250187  0.2995746777633896
  0.3112433674728354  0.0367616725309950  0.2556127764209232
  0.4371999574884556  0.2796943482935808  0.1246353194787886
  0.3132288773909900  0.7083535433008343  0.6114801835321989
  0.4356460100364750  0.6249982852893846  0.4330312942268303
  0.9358053139797002  0.6253126286300876  0.4330926170531744
  0.3149569588790262  0.8634018952806758  0.1656228619467223
  0.0671604745165196  0.5494777965987887  0.7887970327745424
  0.9358224263668868  0.1252643624302239  0.4330796577117513
  0.9382513749809369  0.4579661056808444  0.6115236244631428
  0.9376804947384101  0.9631690659031904  0.7446409912213403
  0.8118393590766150  0.5366176301201715  0.2553913894599046
 
  0.00000000E+00  0.00000000E+00  0.00000000E+00
  0.00000000E+00  0.00000000E+00  0.00000000E+00
  0.00000000E+00  0.00000000E+00  0.00000000E+00
  0.00000000E+00  0.00000000E+00  0.00000000E+00
  0.00000000E+00  0.00000000E+00  0.00000000E+00
  0.00000000E+00  0.00000000E+00  0.00000000E+00
  0.00000000E+00  0.00000000E+00  0.00000000E+00
  0.00000000E+00  0.00000000E+00  0.00000000E+00
  0.00000000E+00  0.00000000E+00  0.00000000E+00
  0.00000000E+00  0.00000000E+00  0.00000000E+00
  0.00000000E+00  0.00000000E+00  0.00000000E+00
  0.00000000E+00  0.00000000E+00  0.00000000E+00
  0.00000000E+00  0.00000000E+00  0.00000000E+00
  0.00000000E+00  0.00000000E+00  0.00000000E+00
  0.00000000E+00  0.00000000E+00  0.00000000E+00
  0.00000000E+00  0.00000000E+00  0.00000000E+00
  0.00000000E+00  0.00000000E+00  0.00000000E+00
  0.00000000E+00  0.00000000E+00  0.00000000E+00
  0.00000000E+00  0.00000000E+00  0.00000000E+00
  0.00000000E+00  0.00000000E+00  0.00000000E+00
  0.00000000E+00  0.00000000E+00  0.00000000E+00
  0.00000000E+00  0.00000000E+00  0.00000000E+00
  0.00000000E+00  0.00000000E+00  0.00000000E+00
  0.00000000E+00  0.00000000E+00  0.00000000E+00
  0.00000000E+00  0.00000000E+00  0.00000000E+00
  0.00000000E+00  0.00000000E+00  0.00000000E+00
  0.00000000E+00  0.00000000E+00  0.00000000E+00
  0.00000000E+00  0.00000000E+00  0.00000000E+00
  0.00000000E+00  0.00000000E+00  0.00000000E+00
  0.00000000E+00  0.00000000E+00  0.00000000E+00
  0.00000000E+00  0.00000000E+00  0.00000000E+00
  0.00000000E+00  0.00000000E+00  0.00000000E+00
  0.00000000E+00  0.00000000E+00  0.00000000E+00
  0.00000000E+00  0.00000000E+00  0.00000000E+00
  0.00000000E+00  0.00000000E+00  0.00000000E+00
  0.00000000E+00  0.00000000E+00  0.00000000E+00
  0.00000000E+00  0.00000000E+00  0.00000000E+00
  0.00000000E+00  0.00000000E+00  0.00000000E+00
  0.00000000E+00  0.00000000E+00  0.00000000E+00
  0.00000000E+00  0.00000000E+00  0.00000000E+00
  0.00000000E+00  0.00000000E+00  0.00000000E+00
  0.00000000E+00  0.00000000E+00  0.00000000E+00
  0.00000000E+00  0.00000000E+00  0.00000000E+00
  0.00000000E+00  0.00000000E+00  0.00000000E+00
  0.00000000E+00  0.00000000E+00  0.00000000E+00
  0.00000000E+00  0.00000000E+00  0.00000000E+00
  0.00000000E+00  0.00000000E+00  0.00000000E+00
  0.00000000E+00  0.00000000E+00  0.00000000E+00
  0.00000000E+00  0.00000000E+00  0.00000000E+00
  0.00000000E+00  0.00000000E+00  0.00000000E+00
  0.00000000E+00  0.00000000E+00  0.00000000E+00
  0.00000000E+00  0.00000000E+00  0.00000000E+00
  0.00000000E+00  0.00000000E+00  0.00000000E+00
  0.00000000E+00  0.00000000E+00  0.00000000E+00
  0.00000000E+00  0.00000000E+00  0.00000000E+00
  0.00000000E+00  0.00000000E+00  0.00000000E+00
  0.00000000E+00  0.00000000E+00  0.00000000E+00
  0.00000000E+00  0.00000000E+00  0.00000000E+00
  0.00000000E+00  0.00000000E+00  0.00000000E+00
  0.00000000E+00  0.00000000E+00  0.00000000E+00
  0.00000000E+00  0.00000000E+00  0.00000000E+00
  0.00000000E+00  0.00000000E+00  0.00000000E+00
  0.00000000E+00  0.00000000E+00  0.00000000E+00
  0.00000000E+00  0.00000000E+00  0.00000000E+00
  0.00000000E+00  0.00000000E+00  0.00000000E+00
  0.00000000E+00  0.00000000E+00  0.00000000E+00
  0.00000000E+00  0.00000000E+00  0.00000000E+00
  0.00000000E+00  0.00000000E+00  0.00000000E+00
  0.00000000E+00  0.00000000E+00  0.00000000E+00
  0.00000000E+00  0.00000000E+00  0.00000000E+00
  0.00000000E+00  0.00000000E+00  0.00000000E+00
  0.00000000E+00  0.00000000E+00  0.00000000E+00
  0.00000000E+00  0.00000000E+00  0.00000000E+00
  0.00000000E+00  0.00000000E+00  0.00000000E+00
  0.00000000E+00  0.00000000E+00  0.00000000E+00
  0.00000000E+00  0.00000000E+00  0.00000000E+00
  0.00000000E+00  0.00000000E+00  0.00000000E+00
  0.00000000E+00  0.00000000E+00  0.00000000E+00
  0.00000000E+00  0.00000000E+00  0.00000000E+00
  0.00000000E+00  0.00000000E+00  0.00000000E+00
  0.00000000E+00  0.00000000E+00  0.00000000E+00
  0.00000000E+00  0.00000000E+00  0.00000000E+00
  0.00000000E+00  0.00000000E+00  0.00000000E+00
  0.00000000E+00  0.00000000E+00  0.00000000E+00
  0.00000000E+00  0.00000000E+00  0.00000000E+00
  0.00000000E+00  0.00000000E+00  0.00000000E+00
  0.00000000E+00  0.00000000E+00  0.00000000E+00
  0.00000000E+00  0.00000000E+00  0.00000000E+00
  0.00000000E+00  0.00000000E+00  0.00000000E+00
  0.00000000E+00  0.00000000E+00  0.00000000E+00
  0.00000000E+00  0.00000000E+00  0.00000000E+00
  0.00000000E+00  0.00000000E+00  0.00000000E+00
  0.00000000E+00  0.00000000E+00  0.00000000E+00
  0.00000000E+00  0.00000000E+00  0.00000000E+00
  0.00000000E+00  0.00000000E+00  0.00000000E+00
  0.00000000E+00  0.00000000E+00  0.00000000E+00
  0.00000000E+00  0.00000000E+00  0.00000000E+00
  0.00000000E+00  0.00000000E+00  0.00000000E+00
  0.00000000E+00  0.00000000E+00  0.00000000E+00
  0.00000000E+00  0.00000000E+00  0.00000000E+00
  0.00000000E+00  0.00000000E+00  0.00000000E+00
  0.00000000E+00  0.00000000E+00  0.00000000E+00
  0.00000000E+00  0.00000000E+00  0.00000000E+00
  0.00000000E+00  0.00000000E+00  0.00000000E+00
  0.00000000E+00  0.00000000E+00  0.00000000E+00
  0.00000000E+00  0.00000000E+00  0.00000000E+00
  0.00000000E+00  0.00000000E+00  0.00000000E+00
  0.00000000E+00  0.00000000E+00  0.00000000E+00
  0.00000000E+00  0.00000000E+00  0.00000000E+00
  0.00000000E+00  0.00000000E+00  0.00000000E+00
  0.00000000E+00  0.00000000E+00  0.00000000E+00
  0.00000000E+00  0.00000000E+00  0.00000000E+00
  0.00000000E+00  0.00000000E+00  0.00000000E+00
  0.00000000E+00  0.00000000E+00  0.00000000E+00
  0.00000000E+00  0.00000000E+00  0.00000000E+00
  0.00000000E+00  0.00000000E+00  0.00000000E+00
  0.00000000E+00  0.00000000E+00  0.00000000E+00
  0.00000000E+00  0.00000000E+00  0.00000000E+00
  0.00000000E+00  0.00000000E+00  0.00000000E+00
  0.00000000E+00  0.00000000E+00  0.00000000E+00
  0.00000000E+00  0.00000000E+00  0.00000000E+00
  0.00000000E+00  0.00000000E+00  0.00000000E+00
  0.00000000E+00  0.00000000E+00  0.00000000E+00
  0.00000000E+00  0.00000000E+00  0.00000000E+00
  0.00000000E+00  0.00000000E+00  0.00000000E+00
  0.00000000E+00  0.00000000E+00  0.00000000E+00
  0.00000000E+00  0.00000000E+00  0.00000000E+00
  0.00000000E+00  0.00000000E+00  0.00000000E+00
  0.00000000E+00  0.00000000E+00  0.00000000E+00
  0.00000000E+00  0.00000000E+00  0.00000000E+00
  0.00000000E+00  0.00000000E+00  0.00000000E+00
  0.00000000E+00  0.00000000E+00  0.00000000E+00
  0.00000000E+00  0.00000000E+00  0.00000000E+00
  0.00000000E+00  0.00000000E+00  0.00000000E+00
  0.00000000E+00  0.00000000E+00  0.00000000E+00
  0.00000000E+00  0.00000000E+00  0.00000000E+00
  0.00000000E+00  0.00000000E+00  0.00000000E+00
  0.00000000E+00  0.00000000E+00  0.00000000E+00
  0.00000000E+00  0.00000000E+00  0.00000000E+00
  0.00000000E+00  0.00000000E+00  0.00000000E+00
  0.00000000E+00  0.00000000E+00  0.00000000E+00
  0.00000000E+00  0.00000000E+00  0.00000000E+00
  0.00000000E+00  0.00000000E+00  0.00000000E+00
  0.00000000E+00  0.00000000E+00  0.00000000E+00
  0.00000000E+00  0.00000000E+00  0.00000000E+00
  0.00000000E+00  0.00000000E+00  0.00000000E+00
  0.00000000E+00  0.00000000E+00  0.00000000E+00
  0.00000000E+00  0.00000000E+00  0.00000000E+00
  0.00000000E+00  0.00000000E+00  0.00000000E+00
  0.00000000E+00  0.00000000E+00  0.00000000E+00
  0.00000000E+00  0.00000000E+00  0.00000000E+00
  0.00000000E+00  0.00000000E+00  0.00000000E+00
  0.00000000E+00  0.00000000E+00  0.00000000E+00
  0.00000000E+00  0.00000000E+00  0.00000000E+00
  0.00000000E+00  0.00000000E+00  0.00000000E+00
  0.00000000E+00  0.00000000E+00  0.00000000E+00
  0.00000000E+00  0.00000000E+00  0.00000000E+00
  0.00000000E+00  0.00000000E+00  0.00000000E+00
  0.00000000E+00  0.00000000E+00  0.00000000E+00
  0.00000000E+00  0.00000000E+00  0.00000000E+00
  0.00000000E+00  0.00000000E+00  0.00000000E+00
  0.00000000E+00  0.00000000E+00  0.00000000E+00
  0.00000000E+00  0.00000000E+00  0.00000000E+00
  0.00000000E+00  0.00000000E+00  0.00000000E+00
  0.00000000E+00  0.00000000E+00  0.00000000E+00
  0.00000000E+00  0.00000000E+00  0.00000000E+00
  0.00000000E+00  0.00000000E+00  0.00000000E+00
  0.00000000E+00  0.00000000E+00  0.00000000E+00
  0.00000000E+00  0.00000000E+00  0.00000000E+00
  0.00000000E+00  0.00000000E+00  0.00000000E+00
  0.00000000E+00  0.00000000E+00  0.00000000E+00
  0.00000000E+00  0.00000000E+00  0.00000000E+00
  0.00000000E+00  0.00000000E+00  0.00000000E+00
  0.00000000E+00  0.00000000E+00  0.00000000E+00
  0.00000000E+00  0.00000000E+00  0.00000000E+00
  0.00000000E+00  0.00000000E+00  0.00000000E+00
  0.00000000E+00  0.00000000E+00  0.00000000E+00
  0.00000000E+00  0.00000000E+00  0.00000000E+00
  0.00000000E+00  0.00000000E+00  0.00000000E+00
  0.00000000E+00  0.00000000E+00  0.00000000E+00
  0.00000000E+00  0.00000000E+00  0.00000000E+00
  0.00000000E+00  0.00000000E+00  0.00000000E+00
  0.00000000E+00  0.00000000E+00  0.00000000E+00
  0.00000000E+00  0.00000000E+00  0.00000000E+00
  0.00000000E+00  0.00000000E+00  0.00000000E+00
  0.00000000E+00  0.00000000E+00  0.00000000E+00
  0.00000000E+00  0.00000000E+00  0.00000000E+00
  0.00000000E+00  0.00000000E+00  0.00000000E+00
  0.00000000E+00  0.00000000E+00  0.00000000E+00
  0.00000000E+00  0.00000000E+00  0.00000000E+00
  0.00000000E+00  0.00000000E+00  0.00000000E+00
  0.00000000E+00  0.00000000E+00  0.00000000E+00
  0.00000000E+00  0.00000000E+00  0.00000000E+00
  0.00000000E+00  0.00000000E+00  0.00000000E+00
  0.00000000E+00  0.00000000E+00  0.00000000E+00
  0.00000000E+00  0.00000000E+00  0.00000000E+00
  0.00000000E+00  0.00000000E+00  0.00000000E+00
  0.00000000E+00  0.00000000E+00  0.00000000E+00
  0.00000000E+00  0.00000000E+00  0.00000000E+00
  0.00000000E+00  0.00000000E+00  0.00000000E+00
  0.00000000E+00  0.00000000E+00  0.00000000E+00
  0.00000000E+00  0.00000000E+00  0.00000000E+00
  0.00000000E+00  0.00000000E+00  0.00000000E+00
  0.00000000E+00  0.00000000E+00  0.00000000E+00
  0.00000000E+00  0.00000000E+00  0.00000000E+00
  0.00000000E+00  0.00000000E+00  0.00000000E+00
  0.00000000E+00  0.00000000E+00  0.00000000E+00
  0.00000000E+00  0.00000000E+00  0.00000000E+00
  0.00000000E+00  0.00000000E+00  0.00000000E+00
  0.00000000E+00  0.00000000E+00  0.00000000E+00
  0.00000000E+00  0.00000000E+00  0.00000000E+00
  0.00000000E+00  0.00000000E+00  0.00000000E+00
  0.00000000E+00  0.00000000E+00  0.00000000E+00
  0.00000000E+00  0.00000000E+00  0.00000000E+00
  0.00000000E+00  0.00000000E+00  0.00000000E+00
  0.00000000E+00  0.00000000E+00  0.00000000E+00
  0.00000000E+00  0.00000000E+00  0.00000000E+00
  0.00000000E+00  0.00000000E+00  0.00000000E+00
  0.00000000E+00  0.00000000E+00  0.00000000E+00
  0.00000000E+00  0.00000000E+00  0.00000000E+00
  0.00000000E+00  0.00000000E+00  0.00000000E+00
  0.00000000E+00  0.00000000E+00  0.00000000E+00
  0.00000000E+00  0.00000000E+00  0.00000000E+00
  0.00000000E+00  0.00000000E+00  0.00000000E+00
  0.00000000E+00  0.00000000E+00  0.00000000E+00
  0.00000000E+00  0.00000000E+00  0.00000000E+00
  0.00000000E+00  0.00000000E+00  0.00000000E+00
  0.00000000E+00  0.00000000E+00  0.00000000E+00
  0.00000000E+00  0.00000000E+00  0.00000000E+00
  0.00000000E+00  0.00000000E+00  0.00000000E+00
  0.00000000E+00  0.00000000E+00  0.00000000E+00
  0.00000000E+00  0.00000000E+00  0.00000000E+00
  0.00000000E+00  0.00000000E+00  0.00000000E+00
  0.00000000E+00  0.00000000E+00  0.00000000E+00
  0.00000000E+00  0.00000000E+00  0.00000000E+00
  0.00000000E+00  0.00000000E+00  0.00000000E+00
  0.00000000E+00  0.00000000E+00  0.00000000E+00
  0.00000000E+00  0.00000000E+00  0.00000000E+00
  0.00000000E+00  0.00000000E+00  0.00000000E+00
  0.00000000E+00  0.00000000E+00  0.00000000E+00
  0.00000000E+00  0.00000000E+00  0.00000000E+00
  0.00000000E+00  0.00000000E+00  0.00000000E+00
  0.00000000E+00  0.00000000E+00  0.00000000E+00
  0.00000000E+00  0.00000000E+00  0.00000000E+00
  0.00000000E+00  0.00000000E+00  0.00000000E+00
  0.00000000E+00  0.00000000E+00  0.00000000E+00
  0.00000000E+00  0.00000000E+00  0.00000000E+00