CuInSe2gb                               
   1.00000000000000     
     9.7266780392896699    0.0000000000000000    0.0000000000000000
     0.0000000000000000    8.4235502764570693    0.0000000000000000
     0.0000000000000000    0.0000000000000000   45.0000000000000000
   Fe   Mn
   281     7
Direct
  0.0541082077380323  0.7011263320155900  0.2112143152684986
  0.3184298304737409  0.7236661077717047  0.8762671459785433
  0.6882983904504272  0.9587129865571901  0.6115409105790645
  0.4384291590611943  0.4585607313315906  0.6115483284300132
  0.4408098389851425  0.2872279525069776  0.2551057743431764
  0.0584951444285097  0.3885777669801962  0.8335196375710210
  0.3085173407218854  0.8875770182312425  0.8335152491566176
  0.4469471485222925  0.6263386877584002  0.7004134131969011
  0.0599058254446838  0.2128087604636134  0.7449030795117980
  0.1792746672928506  0.4509333646851650  0.2112672486339220
  0.5677806631665232  0.2107072386558570  0.4774625016132649
  0.0666778453801777  0.8751222965572509  0.5669134414625830
  0.5682419099920839  0.2238597073511388  0.8761394191412653
  0.8077990958423250  0.5275092888773412  0.1238814854131186
  0.4291562765036350  0.9514750064640681  0.2113838649516440
  0.5665502294193960  0.3749887407682285  0.5668566941346462
  0.8111267020653434  0.0419409375858988  0.3882698666401384
  0.6822833821533500  0.7890634974740472  0.5225033272299395
  0.4428558165386403  0.4608663451994763  0.4774633365585187
  0.4342783928955640  0.9625796339967253  0.7449112134024577
  0.4415814074334813  0.6250718257465920  0.5668516846768648
  0.5716760414440852  0.8763104669362408  0.7005725716744894
  0.3094553354982531  0.0264761445321131  0.1239980964946020
  0.6897074474452735  0.9589864335266550  0.3439625186580383
  0.6874078730876916  0.7821677051575134  0.1242501781170483
  0.0528804819524281  0.3737484885136199  0.2995389390024952
  0.6898667432112585  0.4677938293123290  0.8760798781843554
  0.4285061815250970  0.4513860792025313  0.2113433225664831
  0.8087748179933129  0.3753360394900317  0.4330585508484331
  0.5636533182343204  0.7087132560788122  0.6115735361386275
  0.5595081100496567  0.5405202185592191  0.6558302363200905
  0.8174191866595050  0.8619617971329955  0.1665696801978482
  0.5654778109651568  0.5377147838918618  0.2551537509676968
  0.6896976116715908  0.4588333727467077  0.3439579775543813
  0.1923873680079067  0.6122018037023729  0.1665063620512388
  0.1944837407405854  0.7994059242057262  0.7888379531431166
  0.4471804914541296  0.1261943346346423  0.7003620474617743
  0.9279333671390673  0.6235128326000479  0.2996251818982387
  0.3175206800893410  0.2235757563542126  0.8761435608281324
  0.3164492678568527  0.8749631238062531  0.5668478672783360
  0.8175683963561086  0.2239466334559697  0.8762202331238385
  0.8096082419886037  0.5407565488947779  0.6558620312750378
  0.5586193266856657  0.5270104865673182  0.1240070255186166
  0.5692422705840096  0.0497057200464474  0.7890266031047802
  0.1905359455838816  0.2871412268771965  0.2552439048162429
  0.8086930723560387  0.8753756411350184  0.4330442369031559
  0.5723172611538025  0.3759555787871640  0.7004573431994224
  0.0579978811948314  0.0277556455054501  0.1240245092397492
  0.3096554613186286  0.5406087335309180  0.6558909627047677
  0.5648179662144510  0.2089481735892885  0.3439746275029691
  0.1881940950670308  0.9581725691701953  0.6113104289582572
  0.3029807998489815  0.3737920610972343  0.2995597927739568
  0.4347841234825270  0.7907215129248011  0.6559842682135456
  0.1949025907188146  0.2990163035807827  0.7887884098551630
  0.0668441879891811  0.3623557303098836  0.1665533464534870
  0.6965908625105055  0.6260999620234656  0.7005552932277515
  0.3112674154490547  0.5412252680784081  0.3884250948617372
  0.0676210515391570  0.7234156973786499  0.8762034643208237
  0.9337084796570271  0.6376474071450268  0.8339394025619014
  0.3196802438790012  0.5498007626485828  0.7889449633459655
  0.3047671641919937  0.2006350682408989  0.2111416121594037
  0.0679139441429947  0.7106063140862071  0.4773944860502253
  0.5544410884616402  0.2007807498573446  0.2111579632751711
  0.3096503442617672  0.2122348166918540  0.7449102277438799
  0.0718771108245822  0.3766062742089056  0.7006063950768904
  0.1833152135380006  0.6375717577058190  0.8335953950266348
  0.0693928660277705  0.0494974450768888  0.7890406455101293
  0.4416690204033386  0.1249653765392432  0.5669152797865755
  0.9347319226586425  0.2907104558920013  0.6558222285329012
  0.8044430603432596  0.2011072402362594  0.2112198044501257
  0.9292073147383884  0.9515622153650328  0.2112304611046659
  0.9416186681702607  0.6250004998379892  0.5668046695768887
  0.8084311035598934  0.3875471107424818  0.8335295916260244
  0.1971773524457687  0.6260252533665810  0.7004009554994232
  0.8085864837965655  0.8876808804039800  0.8335521394539326
  0.6850538553547291  0.2907647811298685  0.6560758750824730
  0.3130386426429253  0.2079310603999107  0.6114259629703429
  0.4345881205209038  0.4627554439868674  0.7448896356933565
  0.4361250347443526  0.7911390392136231  0.3883974094999795
  0.6846444691326433  0.9626771143030857  0.7448446280601482
  0.8036159550145137  0.7008847062328151  0.2113351641194325
  0.8138688124174376  0.7082077843609235  0.6116054402335219
  0.4361004551939516  0.7832669675946934  0.1240101837545985
  0.3097535030741028  0.7119425237596546  0.7447505881152748
  0.3199635240935894  0.0495483045206387  0.7888766252309398
  0.8111966958709504  0.5419216193387314  0.3883185062818326
  0.6820814425630526  0.2887280497304293  0.5223047002395864
  0.6950909818399515  0.7993368309767731  0.7888908329104155
  0.1907167531775888  0.7875315890401254  0.2552605035338755
  0.6916666264646153  0.1123897041496495  0.1666572090360142
  0.6925654095910520  0.9607088714115058  0.4773764912951306
  0.9401824835884033  0.9591535177304172  0.3440547402209896
  0.8073108224592757  0.0391318656216282  0.5225125945787777
  0.6836960710741464  0.6247659973605993  0.4329961234249108
  0.4399528321481457  0.4588842412810361  0.3440570045249948
  0.8104658246791079  0.2115310414034066  0.7446436318998152
  0.4395907219727912  0.9678745240807727  0.8760885295375750
  0.5665765583275675  0.8750009931035163  0.5667701583792857
  0.8091738873088685  0.0280822516669820  0.1240085715012891
  0.4283842419771335  0.6233571251788497  0.2994294575677205
  0.8170107396886332  0.7239135925636955  0.8763475488529303
  0.6883180116895236  0.4583733132386293  0.6115427742259523
  0.5583640312849096  0.3876180447557322  0.8334778430299062
  0.8030013857839062  0.3734226681182922  0.2995050050066635
  0.1860676555911707  0.2911977191985484  0.3883575839129798
  0.8199236888707856  0.5495141289627959  0.7889319759775477
  0.1822649018111655  0.7893588855688322  0.5225410573673168
  0.3027483990846872  0.8738382663093266  0.2996171050064923
  0.1786101015801888  0.9515727338862167  0.2113474740581658
  0.1844089872972453  0.4625184896944523  0.7449159605465205
  0.4325327743345320  0.2885865394271330  0.5223042044571374
  0.0650031463726086  0.7083807828360680  0.3438964800058669
  0.1850753167896353  0.7905934744158412  0.6559062287424541
  0.4445721756633317  0.7991831956589098  0.7888901362359158
  0.6838708419891268  0.1248430531212252  0.4328979160727310
  0.9319229694926321  0.7887349921220463  0.5224313746633388
  0.6920286303176002  0.6120951632661592  0.1665409587059140
  0.8147555033184469  0.7086544044504975  0.3438990398264032
  0.9342425552876658  0.4627169645924349  0.7449509743688015
  0.1899928278925651  0.4589779493223763  0.3440222110884198
  0.5698450080633616  0.5496431374162564  0.7890746916370551
  0.5670417575684177  0.3620142194043980  0.1665445312916642
  0.5651082567230409  0.7089480038837659  0.3440067831288655
  0.5529426888656511  0.3737828618966606  0.2995723135984186
  0.1895429075869312  0.4679480622616126  0.8760909480202946
  0.1914159949694368  0.1115472073240953  0.1664851213702857
  0.4446036594354282  0.2989242830697694  0.7888396499359683
  0.6911434572338652  0.7872774671791447  0.2553991580182149
  0.9337795446876281  0.1379006977743105  0.8335869509635996
  0.4427227563891924  0.9606012350144463  0.4774189560889032
  0.5674780710498084  0.7247194257358214  0.8762252240505487
  0.1927974348186451  0.4607712250032477  0.4774474713324408
  0.9354822047457860  0.2822970813849771  0.1241885349687933
  0.3114354498551365  0.0414429855943642  0.3884271090490274
  0.0601653491134194  0.0405498311093497  0.6560966958341254
  0.5586186629946032  0.3750167027561706  0.4330633361030769
  0.6838000695053399  0.4627871877129160  0.7450359040808843
  0.5599618778842951  0.2123464092276794  0.7448811771131042
  0.9472050681298918  0.1257083335216769  0.7004926352169738
  0.5596752211686427  0.0406128615709784  0.6558382452626991
  0.5573131840818578  0.5392077247748607  0.5224759921038040
  0.1779949269575610  0.1237280478492012  0.2995564135611459
  0.4416789126065384  0.1114313189179529  0.1664896990987427
  0.6777777525671583  0.6236526528474320  0.2995784384678937
  0.9280349649765371  0.1234953847168571  0.2996049087792660
  0.8166715683653870  0.3751156268359893  0.5669048521930325
  0.0530046825903302  0.8737597399306162  0.2995677270056890
  0.1916342496060452  0.6248305439547693  0.5668643090490667
  0.9446252632808017  0.7997449454385641  0.7888908363989875
  0.3084146313949978  0.3875418216061662  0.8335473778853142
  0.9396555862422551  0.4683388813056352  0.8761286305079025
  0.4335977006681604  0.6377882375823583  0.8335221416583729
  0.0645909428573974  0.2085406627339754  0.3437529623049273
  0.1897408492962286  0.9679823591119672  0.8761250282113393
  0.9356860341214533  0.7825341264723771  0.1242130383458424
  0.6865961553364094  0.7914914831658276  0.3884066844168682
  0.9347612010026499  0.7906264777164870  0.6558786492492817
  0.9416516020483503  0.1121521100088624  0.1665151547920207
  0.4351353494519857  0.2909136315461852  0.6560918027313902
  0.0543850599806271  0.2007302956302747  0.2112057504336616
  0.6788330023265249  0.9514323424394749  0.2112641099692562
  0.1784381215059127  0.6235769929608983  0.2994029864266190
  0.8219374632655818  0.8758504097447624  0.7005712989919548
  0.9467802767829631  0.6263659163993766  0.7005221671722059
  0.1966854720562320  0.1258641702355188  0.7003899508702377
  0.9425484086876627  0.4604994964769538  0.4772092694958581
  0.8136341404428763  0.2085120473218896  0.6115777273133467
  0.1834659416485625  0.6248423826453721  0.4331158873678062
  0.4281238584645906  0.1237571753888997  0.2994395351025225
  0.6780260625736678  0.1237165525949166  0.2994579114443566
  0.5614378198092560  0.5415361596258584  0.3884745721932984
  0.8143744203032617  0.2080136138773140  0.3438797754160955
  0.4395240867808851  0.4675158941438903  0.8759216775006929
  0.5585416533883086  0.8875997991994244  0.8334857839905264
  0.3176853453068280  0.2106196120371928  0.4773031993529836
  0.1927369022814535  0.9607574456471274  0.4774687193328300
  0.0585562687208161  0.8877375064712905  0.8334926202926612
  0.0573560457381936  0.5390731583170737  0.5224900683731412
  0.9426797839071128  0.9604847492000316  0.4772759269919767
  0.0631031434418695  0.7082862137861154  0.6116298933129289
  0.5575281828987012  0.0388986302066900  0.5223872498133395
  0.6952156632399150  0.2989567265628327  0.7887722914944014
  0.8166316705492074  0.3624253799342155  0.1666649227668658
  0.4338425541866556  0.1248641714990817  0.4329431189532472
  0.0679769437246841  0.2106838008467863  0.4774361544642218
  0.3098345007897542  0.0406404546893587  0.6559747617271176
  0.4322110409562899  0.7893628267754420  0.5224339648556694
  0.1837099412258278  0.1378208812422692  0.8335964023374174
  0.1856166540438512  0.2830804400117742  0.1242535225278161
  0.9398522321795418  0.4595853163779407  0.3440806718275262
  0.5666565600628707  0.8625513959362104  0.1664718271786248
  0.3038383994872254  0.7008807945933537  0.2112519847969284
  0.9412927247067983  0.6121101077321027  0.1664749891561355
  0.1879115528449319  0.4583423396082567  0.6114593753241141
  0.0723140723203756  0.8765380099852481  0.7004015196400553
  0.0598340463572347  0.5405477554582027  0.6558931581583586
  0.3072061361557243  0.5270333059681082  0.1238819161693992
  0.9365857344111598  0.7913244468691844  0.3884542918236095
  0.9448140851401247  0.2987386938195487  0.7887795669327005
  0.1847244363305511  0.2906032467301639  0.6559263803780165
  0.9380850317744284  0.9581838785749534  0.6114969690923726
  0.8100319437909038  0.7123010364168122  0.7448002446355861
  0.6909460556343580  0.2874898993854336  0.2552818162514305
  0.0591157507437297  0.7124340402591306  0.7449918869785390
  0.6790000979784794  0.4513497904014023  0.2112881675006489
  0.8178493356801253  0.2106613820344387  0.4774799658974788
  0.5676982606398949  0.7105366805030217  0.4774535456528698
  0.0673841071333198  0.8625982424320064  0.1665806811696944
  0.9323582860808393  0.2887612898406664  0.5224374678941035
  0.6846317189699677  0.7903224510342101  0.6559250682665964
  0.0584625098122654  0.8749695061456029  0.4329078194112451
  0.0681691725334325  0.2233367330092026  0.8761574665488900
  0.8095746389016202  0.0403251651131547  0.6559132485478104
  0.5596265396552266  0.0278541355474388  0.1239025656515983
  0.3088522523600447  0.3751585711149052  0.4328932818567540
  0.3166803243567587  0.3750931064800048  0.5668771677200324
  0.3175614669788109  0.7104340560408381  0.4772598707918225
  0.0574018976941614  0.0391936373236925  0.5224361019892485
  0.3219158698784800  0.8764078458916192  0.7005485906948299
  0.0653353558646388  0.5377886899404799  0.2551019631216855
  0.6834894910028549  0.1377659966359064  0.8335148499262343
  0.8154178976572046  0.0375482531527395  0.2550596139866185
  0.1834241511310149  0.1249888876995693  0.4331029821600657
  0.6972629199403707  0.1262998556233986  0.7004111624277011
  0.1826989484670435  0.2893509908311003  0.5224074498024253
  0.4403690695645437  0.7874219268382683  0.2551903875743082
  0.4413325158935668  0.6120338024177743  0.1665187972257507
  0.0633242601313741  0.2088226380936477  0.6115289356776485
  0.1861313572199393  0.7912575808166183  0.3882949049367903
  0.3070153825585444  0.5389123441095246  0.5224255126818675
  0.8221000184726401  0.3764326516629891  0.7003632449032485
  0.6864511223764957  0.2911908131179871  0.3884097915794037
  0.1916863183054751  0.1248021237635290  0.5668406947446081
  0.6897000818032081  0.9682910823151478  0.8760964770502323
  0.6915328111783802  0.1248606728624471  0.5669000917842895
  0.4399519923341351  0.9588339442615357  0.3440180323788911
  0.1842524669569449  0.9626851972425998  0.7448249780981968
  0.9404444784544854  0.7874256467477685  0.2551238278840390
  0.5587688705843634  0.8752051392190503  0.4330121963218680
  0.3087630604114748  0.8750226438345102  0.4329740016254043
  0.8072976854037301  0.5391922035376000  0.5225323483827504
  0.9288433921461716  0.4514352630230204  0.2113169752121943
  0.3154146619449661  0.5378441017575161  0.2552084875021571
  0.5612891918844340  0.0416865590077345  0.3884487667777365
  0.3169373342313609  0.3620996439779824  0.1666002004537235
  0.0613600697476271  0.0414759988733466  0.3884419977429878
  0.0615346591656546  0.5416947146411591  0.3883868857257142
  0.4361987550414457  0.2910872059601785  0.3883766578253014
  0.6926986512400952  0.4607710501934197  0.4773148209014155
  0.0666645177057981  0.3751704540946423  0.5668193525454321
  0.5540007851537742  0.7009832480672002  0.2111472155340664
  0.9406976570368056  0.2874949886889919  0.2552221845005205
  0.8192357936606383  0.0496365691282976  0.7890760258255733
  0.1898066472297876  0.9588994974640789  0.3439455740919616
  0.5529404444288928  0.8737853826302944  0.2996225493555530
  0.0585769289272313  0.3749795963885310  0.4329142291457250
  0.3148128726952601  0.7088693385079592  0.3439300319900136
  0.3146017199019595  0.2088483131825349  0.3438920430226700
  0.9415514774307777  0.1251506652991029  0.5668045447009922
  0.4384092130004736  0.9586833205626545  0.6115507624762473
  0.5651001861782724  0.0375407961306987  0.2551164686139888
  0.1866375055958588  0.7824946353894879  0.1242236375163550
  0.0654610140507211  0.0375259434321567  0.2551458160143403
  0.6915234855356099  0.6249537237277406  0.5668850675372711
  0.0572954651784224  0.5265118838649534  0.1240403857463728
  0.3072230964473168  0.0384940908776428  0.5222571662926880
  0.6860276761912746  0.2826053582148642  0.1241798743925572
  0.8177301605095102  0.7105741785925260  0.4774291125359221
  0.4335415812591249  0.1376244056835891  0.8335132120375174
  0.3222948754422313  0.3763408367981531  0.7004337710998623
  0.6837773855263177  0.6378373244229233  0.8335077516705998
  0.5598353136081148  0.7119426787249732  0.7448505409046398
  0.9364821283864476  0.2914533576263587  0.3885325377970139
  0.9397220792621321  0.9683603471755440  0.8761249655155390
  0.5628829588008659  0.2079281814219464  0.6113107574918992
  0.8166519979882385  0.8750919367962587  0.5668980730950972
  0.8031019058321087  0.8735292407935111  0.2994673957578253
  0.3155594510121787  0.0374907317740049  0.2551831058539866
  0.4366204710442820  0.2831152173067135  0.1242344488661591
  0.3134509876446323  0.7086837668380808  0.6115773085925533
  0.4336904070224791  0.6252240157407920  0.4330149165661882
  0.9330442888838247  0.6248023411593784  0.4331538986129059
  0.3182641952311849  0.8624326101213056  0.1657904030191481
  0.0706330160940440  0.5492498450573292  0.7888258004392322
  0.9333875647567783  0.1246382761253171  0.4330296762831906
  0.9384022802690273  0.4569978645757569  0.6116882129018484
  0.9336013223775809  0.9626036425649505  0.7445456622341254
  0.8161016536746467  0.5382506235476197  0.2554032070018178
 
  0.00000000E+00  0.00000000E+00  0.00000000E+00
  0.00000000E+00  0.00000000E+00  0.00000000E+00
  0.00000000E+00  0.00000000E+00  0.00000000E+00
  0.00000000E+00  0.00000000E+00  0.00000000E+00
  0.00000000E+00  0.00000000E+00  0.00000000E+00
  0.00000000E+00  0.00000000E+00  0.00000000E+00
  0.00000000E+00  0.00000000E+00  0.00000000E+00
  0.00000000E+00  0.00000000E+00  0.00000000E+00
  0.00000000E+00  0.00000000E+00  0.00000000E+00
  0.00000000E+00  0.00000000E+00  0.00000000E+00
  0.00000000E+00  0.00000000E+00  0.00000000E+00
  0.00000000E+00  0.00000000E+00  0.00000000E+00
  0.00000000E+00  0.00000000E+00  0.00000000E+00
  0.00000000E+00  0.00000000E+00  0.00000000E+00
  0.00000000E+00  0.00000000E+00  0.00000000E+00
  0.00000000E+00  0.00000000E+00  0.00000000E+00
  0.00000000E+00  0.00000000E+00  0.00000000E+00
  0.00000000E+00  0.00000000E+00  0.00000000E+00
  0.00000000E+00  0.00000000E+00  0.00000000E+00
  0.00000000E+00  0.00000000E+00  0.00000000E+00
  0.00000000E+00  0.00000000E+00  0.00000000E+00
  0.00000000E+00  0.00000000E+00  0.00000000E+00
  0.00000000E+00  0.00000000E+00  0.00000000E+00
  0.00000000E+00  0.00000000E+00  0.00000000E+00
  0.00000000E+00  0.00000000E+00  0.00000000E+00
  0.00000000E+00  0.00000000E+00  0.00000000E+00
  0.00000000E+00  0.00000000E+00  0.00000000E+00
  0.00000000E+00  0.00000000E+00  0.00000000E+00
  0.00000000E+00  0.00000000E+00  0.00000000E+00
  0.00000000E+00  0.00000000E+00  0.00000000E+00
  0.00000000E+00  0.00000000E+00  0.00000000E+00
  0.00000000E+00  0.00000000E+00  0.00000000E+00
  0.00000000E+00  0.00000000E+00  0.00000000E+00
  0.00000000E+00  0.00000000E+00  0.00000000E+00
  0.00000000E+00  0.00000000E+00  0.00000000E+00
  0.00000000E+00  0.00000000E+00  0.00000000E+00
  0.00000000E+00  0.00000000E+00  0.00000000E+00
  0.00000000E+00  0.00000000E+00  0.00000000E+00
  0.00000000E+00  0.00000000E+00  0.00000000E+00
  0.00000000E+00  0.00000000E+00  0.00000000E+00
  0.00000000E+00  0.00000000E+00  0.00000000E+00
  0.00000000E+00  0.00000000E+00  0.00000000E+00
  0.00000000E+00  0.00000000E+00  0.00000000E+00
  0.00000000E+00  0.00000000E+00  0.00000000E+00
  0.00000000E+00  0.00000000E+00  0.00000000E+00
  0.00000000E+00  0.00000000E+00  0.00000000E+00
  0.00000000E+00  0.00000000E+00  0.00000000E+00
  0.00000000E+00  0.00000000E+00  0.00000000E+00
  0.00000000E+00  0.00000000E+00  0.00000000E+00
  0.00000000E+00  0.00000000E+00  0.00000000E+00
  0.00000000E+00  0.00000000E+00  0.00000000E+00
  0.00000000E+00  0.00000000E+00  0.00000000E+00
  0.00000000E+00  0.00000000E+00  0.00000000E+00
  0.00000000E+00  0.00000000E+00  0.00000000E+00
  0.00000000E+00  0.00000000E+00  0.00000000E+00
  0.00000000E+00  0.00000000E+00  0.00000000E+00
  0.00000000E+00  0.00000000E+00  0.00000000E+00
  0.00000000E+00  0.00000000E+00  0.00000000E+00
  0.00000000E+00  0.00000000E+00  0.00000000E+00
  0.00000000E+00  0.00000000E+00  0.00000000E+00
  0.00000000E+00  0.00000000E+00  0.00000000E+00
  0.00000000E+00  0.00000000E+00  0.00000000E+00
  0.00000000E+00  0.00000000E+00  0.00000000E+00
  0.00000000E+00  0.00000000E+00  0.00000000E+00
  0.00000000E+00  0.00000000E+00  0.00000000E+00
  0.00000000E+00  0.00000000E+00  0.00000000E+00
  0.00000000E+00  0.00000000E+00  0.00000000E+00
  0.00000000E+00  0.00000000E+00  0.00000000E+00
  0.00000000E+00  0.00000000E+00  0.00000000E+00
  0.00000000E+00  0.00000000E+00  0.00000000E+00
  0.00000000E+00  0.00000000E+00  0.00000000E+00
  0.00000000E+00  0.00000000E+00  0.00000000E+00
  0.00000000E+00  0.00000000E+00  0.00000000E+00
  0.00000000E+00  0.00000000E+00  0.00000000E+00
  0.00000000E+00  0.00000000E+00  0.00000000E+00
  0.00000000E+00  0.00000000E+00  0.00000000E+00
  0.00000000E+00  0.00000000E+00  0.00000000E+00
  0.00000000E+00  0.00000000E+00  0.00000000E+00
  0.00000000E+00  0.00000000E+00  0.00000000E+00
  0.00000000E+00  0.00000000E+00  0.00000000E+00
  0.00000000E+00  0.00000000E+00  0.00000000E+00
  0.00000000E+00  0.00000000E+00  0.00000000E+00
  0.00000000E+00  0.00000000E+00  0.00000000E+00
  0.00000000E+00  0.00000000E+00  0.00000000E+00
  0.00000000E+00  0.00000000E+00  0.00000000E+00
  0.00000000E+00  0.00000000E+00  0.00000000E+00
  0.00000000E+00  0.00000000E+00  0.00000000E+00
  0.00000000E+00  0.00000000E+00  0.00000000E+00
  0.00000000E+00  0.00000000E+00  0.00000000E+00
  0.00000000E+00  0.00000000E+00  0.00000000E+00
  0.00000000E+00  0.00000000E+00  0.00000000E+00
  0.00000000E+00  0.00000000E+00  0.00000000E+00
  0.00000000E+00  0.00000000E+00  0.00000000E+00
  0.00000000E+00  0.00000000E+00  0.00000000E+00
  0.00000000E+00  0.00000000E+00  0.00000000E+00
  0.00000000E+00  0.00000000E+00  0.00000000E+00
  0.00000000E+00  0.00000000E+00  0.00000000E+00
  0.00000000E+00  0.00000000E+00  0.00000000E+00
  0.00000000E+00  0.00000000E+00  0.00000000E+00
  0.00000000E+00  0.00000000E+00  0.00000000E+00
  0.00000000E+00  0.00000000E+00  0.00000000E+00
  0.00000000E+00  0.00000000E+00  0.00000000E+00
  0.00000000E+00  0.00000000E+00  0.00000000E+00
  0.00000000E+00  0.00000000E+00  0.00000000E+00
  0.00000000E+00  0.00000000E+00  0.00000000E+00
  0.00000000E+00  0.00000000E+00  0.00000000E+00
  0.00000000E+00  0.00000000E+00  0.00000000E+00
  0.00000000E+00  0.00000000E+00  0.00000000E+00
  0.00000000E+00  0.00000000E+00  0.00000000E+00
  0.00000000E+00  0.00000000E+00  0.00000000E+00
  0.00000000E+00  0.00000000E+00  0.00000000E+00
  0.00000000E+00  0.00000000E+00  0.00000000E+00
  0.00000000E+00  0.00000000E+00  0.00000000E+00
  0.00000000E+00  0.00000000E+00  0.00000000E+00
  0.00000000E+00  0.00000000E+00  0.00000000E+00
  0.00000000E+00  0.00000000E+00  0.00000000E+00
  0.00000000E+00  0.00000000E+00  0.00000000E+00
  0.00000000E+00  0.00000000E+00  0.00000000E+00
  0.00000000E+00  0.00000000E+00  0.00000000E+00
  0.00000000E+00  0.00000000E+00  0.00000000E+00
  0.00000000E+00  0.00000000E+00  0.00000000E+00
  0.00000000E+00  0.00000000E+00  0.00000000E+00
  0.00000000E+00  0.00000000E+00  0.00000000E+00
  0.00000000E+00  0.00000000E+00  0.00000000E+00
  0.00000000E+00  0.00000000E+00  0.00000000E+00
  0.00000000E+00  0.00000000E+00  0.00000000E+00
  0.00000000E+00  0.00000000E+00  0.00000000E+00
  0.00000000E+00  0.00000000E+00  0.00000000E+00
  0.00000000E+00  0.00000000E+00  0.00000000E+00
  0.00000000E+00  0.00000000E+00  0.00000000E+00
  0.00000000E+00  0.00000000E+00  0.00000000E+00
  0.00000000E+00  0.00000000E+00  0.00000000E+00
  0.00000000E+00  0.00000000E+00  0.00000000E+00
  0.00000000E+00  0.00000000E+00  0.00000000E+00
  0.00000000E+00  0.00000000E+00  0.00000000E+00
  0.00000000E+00  0.00000000E+00  0.00000000E+00
  0.00000000E+00  0.00000000E+00  0.00000000E+00
  0.00000000E+00  0.00000000E+00  0.00000000E+00
  0.00000000E+00  0.00000000E+00  0.00000000E+00
  0.00000000E+00  0.00000000E+00  0.00000000E+00
  0.00000000E+00  0.00000000E+00  0.00000000E+00
  0.00000000E+00  0.00000000E+00  0.00000000E+00
  0.00000000E+00  0.00000000E+00  0.00000000E+00
  0.00000000E+00  0.00000000E+00  0.00000000E+00
  0.00000000E+00  0.00000000E+00  0.00000000E+00
  0.00000000E+00  0.00000000E+00  0.00000000E+00
  0.00000000E+00  0.00000000E+00  0.00000000E+00
  0.00000000E+00  0.00000000E+00  0.00000000E+00
  0.00000000E+00  0.00000000E+00  0.00000000E+00
  0.00000000E+00  0.00000000E+00  0.00000000E+00
  0.00000000E+00  0.00000000E+00  0.00000000E+00
  0.00000000E+00  0.00000000E+00  0.00000000E+00
  0.00000000E+00  0.00000000E+00  0.00000000E+00
  0.00000000E+00  0.00000000E+00  0.00000000E+00
  0.00000000E+00  0.00000000E+00  0.00000000E+00
  0.00000000E+00  0.00000000E+00  0.00000000E+00
  0.00000000E+00  0.00000000E+00  0.00000000E+00
  0.00000000E+00  0.00000000E+00  0.00000000E+00
  0.00000000E+00  0.00000000E+00  0.00000000E+00
  0.00000000E+00  0.00000000E+00  0.00000000E+00
  0.00000000E+00  0.00000000E+00  0.00000000E+00
  0.00000000E+00  0.00000000E+00  0.00000000E+00
  0.00000000E+00  0.00000000E+00  0.00000000E+00
  0.00000000E+00  0.00000000E+00  0.00000000E+00
  0.00000000E+00  0.00000000E+00  0.00000000E+00
  0.00000000E+00  0.00000000E+00  0.00000000E+00
  0.00000000E+00  0.00000000E+00  0.00000000E+00
  0.00000000E+00  0.00000000E+00  0.00000000E+00
  0.00000000E+00  0.00000000E+00  0.00000000E+00
  0.00000000E+00  0.00000000E+00  0.00000000E+00
  0.00000000E+00  0.00000000E+00  0.00000000E+00
  0.00000000E+00  0.00000000E+00  0.00000000E+00
  0.00000000E+00  0.00000000E+00  0.00000000E+00
  0.00000000E+00  0.00000000E+00  0.00000000E+00
  0.00000000E+00  0.00000000E+00  0.00000000E+00
  0.00000000E+00  0.00000000E+00  0.00000000E+00
  0.00000000E+00  0.00000000E+00  0.00000000E+00
  0.00000000E+00  0.00000000E+00  0.00000000E+00
  0.00000000E+00  0.00000000E+00  0.00000000E+00
  0.00000000E+00  0.00000000E+00  0.00000000E+00
  0.00000000E+00  0.00000000E+00  0.00000000E+00
  0.00000000E+00  0.00000000E+00  0.00000000E+00
  0.00000000E+00  0.00000000E+00  0.00000000E+00
  0.00000000E+00  0.00000000E+00  0.00000000E+00
  0.00000000E+00  0.00000000E+00  0.00000000E+00
  0.00000000E+00  0.00000000E+00  0.00000000E+00
  0.00000000E+00  0.00000000E+00  0.00000000E+00
  0.00000000E+00  0.00000000E+00  0.00000000E+00
  0.00000000E+00  0.00000000E+00  0.00000000E+00
  0.00000000E+00  0.00000000E+00  0.00000000E+00
  0.00000000E+00  0.00000000E+00  0.00000000E+00
  0.00000000E+00  0.00000000E+00  0.00000000E+00
  0.00000000E+00  0.00000000E+00  0.00000000E+00
  0.00000000E+00  0.00000000E+00  0.00000000E+00
  0.00000000E+00  0.00000000E+00  0.00000000E+00
  0.00000000E+00  0.00000000E+00  0.00000000E+00
  0.00000000E+00  0.00000000E+00  0.00000000E+00
  0.00000000E+00  0.00000000E+00  0.00000000E+00
  0.00000000E+00  0.00000000E+00  0.00000000E+00
  0.00000000E+00  0.00000000E+00  0.00000000E+00
  0.00000000E+00  0.00000000E+00  0.00000000E+00
  0.00000000E+00  0.00000000E+00  0.00000000E+00
  0.00000000E+00  0.00000000E+00  0.00000000E+00
  0.00000000E+00  0.00000000E+00  0.00000000E+00
  0.00000000E+00  0.00000000E+00  0.00000000E+00
  0.00000000E+00  0.00000000E+00  0.00000000E+00
  0.00000000E+00  0.00000000E+00  0.00000000E+00
  0.00000000E+00  0.00000000E+00  0.00000000E+00
  0.00000000E+00  0.00000000E+00  0.00000000E+00
  0.00000000E+00  0.00000000E+00  0.00000000E+00
  0.00000000E+00  0.00000000E+00  0.00000000E+00
  0.00000000E+00  0.00000000E+00  0.00000000E+00
  0.00000000E+00  0.00000000E+00  0.00000000E+00
  0.00000000E+00  0.00000000E+00  0.00000000E+00
  0.00000000E+00  0.00000000E+00  0.00000000E+00
  0.00000000E+00  0.00000000E+00  0.00000000E+00
  0.00000000E+00  0.00000000E+00  0.00000000E+00
  0.00000000E+00  0.00000000E+00  0.00000000E+00
  0.00000000E+00  0.00000000E+00  0.00000000E+00
  0.00000000E+00  0.00000000E+00  0.00000000E+00
  0.00000000E+00  0.00000000E+00  0.00000000E+00
  0.00000000E+00  0.00000000E+00  0.00000000E+00
  0.00000000E+00  0.00000000E+00  0.00000000E+00
  0.00000000E+00  0.00000000E+00  0.00000000E+00
  0.00000000E+00  0.00000000E+00  0.00000000E+00
  0.00000000E+00  0.00000000E+00  0.00000000E+00
  0.00000000E+00  0.00000000E+00  0.00000000E+00
  0.00000000E+00  0.00000000E+00  0.00000000E+00
  0.00000000E+00  0.00000000E+00  0.00000000E+00
  0.00000000E+00  0.00000000E+00  0.00000000E+00
  0.00000000E+00  0.00000000E+00  0.00000000E+00
  0.00000000E+00  0.00000000E+00  0.00000000E+00
  0.00000000E+00  0.00000000E+00  0.00000000E+00
  0.00000000E+00  0.00000000E+00  0.00000000E+00
  0.00000000E+00  0.00000000E+00  0.00000000E+00
  0.00000000E+00  0.00000000E+00  0.00000000E+00
  0.00000000E+00  0.00000000E+00  0.00000000E+00
  0.00000000E+00  0.00000000E+00  0.00000000E+00
  0.00000000E+00  0.00000000E+00  0.00000000E+00
  0.00000000E+00  0.00000000E+00  0.00000000E+00
  0.00000000E+00  0.00000000E+00  0.00000000E+00
  0.00000000E+00  0.00000000E+00  0.00000000E+00
  0.00000000E+00  0.00000000E+00  0.00000000E+00
  0.00000000E+00  0.00000000E+00  0.00000000E+00
  0.00000000E+00  0.00000000E+00  0.00000000E+00
  0.00000000E+00  0.00000000E+00  0.00000000E+00
  0.00000000E+00  0.00000000E+00  0.00000000E+00