CuInSe2gb                               
   1.00000000000000     
     9.7266780392896699    0.0000000000000000    0.0000000000000000
     0.0000000000000000    8.4235502764570693    0.0000000000000000
     0.0000000000000000    0.0000000000000000   45.0000000000000000
   Fe   Mn
   274    14
Direct
  0.0620663161809101  0.0306147024636721  0.1241446969130199
  0.3163185488057422  0.8745666587986178  0.6551054392587803
  0.1838522888006937  0.1230741995154457  0.7886313766504989
  0.4416586732161847  0.2875632975026889  0.3891004779478411
  0.3180273757278102  0.7136416801590633  0.8331555763219335
  0.8179273184017199  0.2148210219839418  0.8335933408595015
  0.1914472792205180  0.9630717847944232  0.8335724223833285
  0.5620426652418076  0.2071279672606497  0.5655320965529651
  0.0654447765635786  0.0404073723078993  0.7441979350502620
  0.8116240421886144  0.8714532743898664  0.5213652379311102
  0.1905353566148542  0.2910734813142069  0.7443458062272336
  0.9336104206447343  0.4524416432930273  0.3448680537881313
  0.9409221562060861  0.2863388257438439  0.3889223869681164
  0.8126464378300042  0.0405863601262495  0.8757864311538337
  0.1836875810882036  0.7879842230786616  0.6109329375874193
  0.5665434805833078  0.0375803915906032  0.3890586497065671
  0.9422169421166960  0.9646828513546438  0.8338844408142646
  0.3133170823703625  0.5405061859256656  0.8760507699141672
  0.6902843499915985  0.2914228980583420  0.7442352682134853
  0.1822095397498867  0.6141393689769999  0.1664771556599213
  0.8122601199913061  0.2058459918618522  0.4786817987606796
  0.8090076114153630  0.5384413799364997  0.6110544209383940
  0.3119561491160902  0.8709073006829336  0.4344354214202705
  0.5631270250678158  0.5310332183877625  0.1241802638988514
  0.6831869418149110  0.9522201584114486  0.3447550659040853
  0.9305128361244164  0.1153875708583218  0.1667600624889712
  0.0618936194519393  0.8716383069086077  0.5214159388429752
  0.5580652119654607  0.5380773865837900  0.2555268130549748
  0.6846314972522834  0.7973988290605970  0.8759043650833341
  0.5578041967528736  0.3644580003883699  0.1666246598634650
  0.4395940599568406  0.7920102283657039  0.7444460357250048
  0.8113334523560447  0.7065336689659977  0.5654888046251172
  0.5591938682791034  0.8733463865476571  0.7885947243053302
  0.6867093833334279  0.1218890488718728  0.5214033310057591
  0.8161450050513748  0.3747917769111797  0.6550174101797933
  0.9420425899535544  0.4642044281452779  0.8337254373119665
  0.0605819003634211  0.2075529748666036  0.6997166757650563
  0.4354584389752749  0.9576616127152229  0.6997291557726135
  0.3169668091514199  0.2128025830383832  0.8334735877098812
  0.4411776227596290  0.6248182183746996  0.6549995571390335
  0.3090561395516034  0.5383190588581455  0.6109807567958366
  0.9365102858868203  0.4564627294852326  0.5655910664283809
  0.6900296325411703  0.7915962491606934  0.7442821326596477
  0.9346875312275206  0.7879217726401326  0.1243957203455919
  0.6915561842312759  0.7878495266277922  0.3890666946285524
  0.9403557942499499  0.7909421353347454  0.7445014198569199
  0.0589849548682990  0.2029887575058754  0.3450615022794780
  0.6837131454004048  0.4523838543521888  0.3450401731578059
  0.4340819744041644  0.1225555865633670  0.7889601578417169
  0.0652369904856719  0.2031023853046055  0.2111825574967715
  0.0554189462176830  0.3652877663345773  0.1666733064279678
  0.9336053505273721  0.7877839995878769  0.2555681922435479
  0.5604277294210029  0.2070043460307578  0.6997862326717136
  0.6851217403352831  0.9571025295438912  0.6997953204084609
  0.8090310923155701  0.8735801214924124  0.7883666118028386
  0.4368335192066123  0.9571723547981104  0.5653846607276428
  0.8089685934355868  0.3746663084699785  0.7885200444120937
  0.6842351462314950  0.2877111772513810  0.2559167661020089
  0.1874425961130432  0.4571359499192535  0.5655059375567696
  0.0569134595740612  0.8644713172212891  0.1665988451360151
  0.1840101329181334  0.2887072863066792  0.6110583813574124
  0.0622299130021330  0.2072393196375333  0.5653975901520043
  0.3105968211290391  0.2071732564128797  0.6998067292703066
  0.5624975185730140  0.5407369277759200  0.8759798539272781
  0.0620366143333467  0.7065084954849967  0.5655687869712861
  0.6833048737755867  0.6225031046941693  0.7885824778431276
  0.3158754694439122  0.5383197933953336  0.3889653177538523
  0.1868333280878333  0.6217225319179200  0.5214429665134307
  0.5623208459292739  0.8704203205222824  0.4344339252551980
  0.4366439333098893  0.4568556836956365  0.5655491428722839
  0.4398465479151409  0.2916763135872624  0.7442701218321700
  0.8208636043468769  0.8732253633559067  0.3002222928921626
  0.8084756940827283  0.7024235290506079  0.3450886362522302
  0.4423164291697693  0.4627374620746452  0.8333749966258910
  0.6874075643059296  0.9558475489660960  0.4786820930826920
  0.6848318640752272  0.4576127473720850  0.6997952634151641
  0.5619662438120567  0.8721441896127604  0.5214437305513043
  0.5660954737204029  0.3743611796691247  0.6550063811233697
  0.8159685178741837  0.8748157521177394  0.6550715420014311
  0.8116425483872433  0.3712827216940804  0.4342422021301274
  0.8090806479308823  0.5374971201785075  0.2559412403955900
  0.6919720537860478  0.4620694935249182  0.8333188007101858
  0.1860802041229830  0.7875614043395031  0.1239774751548294
  0.6913126755955442  0.2873279815177743  0.3890822592771241
  0.3158856830372861  0.3739599514895928  0.6550010814470191
  0.3087046261247833  0.2026437820373162  0.3446946501654286
  0.8157595966108263  0.5402334199397005  0.7442211536635424
  0.6916724217528144  0.9622669627919997  0.8335168810623221
  0.5659013664653852  0.8741200118447576  0.6550258635243884
  0.3113080345342766  0.7071534597932184  0.5655197347322646
  0.3131403517371120  0.5315520387620886  0.1241307841234851
  0.6894297631106781  0.9551274299201568  0.2113182979693626
  0.3114713527234266  0.2065630747036152  0.5655246413218183
  0.1874600699293403  0.9558147455707831  0.4787170547412188
  0.6873991432132057  0.9569653409926246  0.5655171501676324
  0.4339428666898001  0.7882989882988926  0.6110042226967483
  0.6820583854654712  0.6134116025777493  0.1665014709892486
  0.3188479429068956  0.8734534330878981  0.3001436437255809
  0.3123190952967470  0.7057707779187188  0.4786211961992405
  0.9336921698842130  0.2878753478660838  0.6109057330263646
  0.4454241793833280  0.6240939860334501  0.3003265567487613
  0.8070229168571970  0.8634110514409142  0.1667656173751677
  0.5663607038787144  0.2031115480652757  0.2111674191592188
  0.9321309052397103  0.6131298295361383  0.1666726968044754
  0.4372337291916563  0.9558818257457657  0.4786660633124645
  0.5592001226292019  0.3731329562177578  0.7886773500284907
  0.0615415949905905  0.3724379464480905  0.5214060315233046
  0.3069172559143293  0.3634228640301206  0.1667371749622850
  0.6951188714987079  0.1231302489024448  0.3003593797832884
  0.4429185600532276  0.9631362962421507  0.8333158607460203
  0.1853963157443166  0.2864348424114787  0.1242844076554183
  0.1843611408349132  0.2889688674254612  0.2559598879495796
  0.3124592220026485  0.3704817364560724  0.4344576430119301
  0.5630856392889326  0.0322927415789409  0.1243103010149175
  0.4340511764705239  0.2883158195216731  0.6109589165144566
  0.1837379866239328  0.4524939074556089  0.3449015802925635
  0.4349364323921194  0.2866841023098934  0.1242086147728368
  0.6842770170876415  0.7884849281252984  0.2559009476191290
  0.4367328123853395  0.1217765369581769  0.5214480680469260
  0.1886171415244841  0.2965803318577259  0.8761217624666950
  0.1912558513868879  0.1248863827091234  0.6551385899102090
  0.9411501256903897  0.1247775842897429  0.6549784648937949
  0.8161785108774583  0.5375269637928726  0.3888588708764932
  0.0665324039824526  0.0381814480534227  0.3891478900221371
  0.1832404392177010  0.1124761398800028  0.1664614509740041
  0.0586893180773636  0.5381217819994174  0.6109982619501007
  0.9337903422384357  0.2873041202450804  0.2558227693672251
  0.5588559444587277  0.5383285889750473  0.6110073404292202
  0.9367269033542182  0.9571434314394527  0.5655155471078903
  0.6954150409763626  0.6235701806845571  0.3002123348836870
  0.9374593059804773  0.6202266275446182  0.4344313985224582
  0.9334522599556242  0.6241979933625361  0.7883877627414946
  0.5604618820201522  0.7071565276459943  0.6997647152674273
  0.0660989616812431  0.7165692509369339  0.8339239632890307
  0.9448731226191521  0.1224844889321738  0.3000739613468633
  0.9335925148802797  0.7875942171000527  0.6109110419565444
  0.4336652422818619  0.7874269624119431  0.2556409638684561
  0.3091341017209141  0.3738141587891290  0.7887613583997801
  0.4396466696792088  0.4540015879812877  0.2113529314212073
  0.1868575710121422  0.1219252457249440  0.5213885922265907
  0.8102564073412517  0.7071888096956220  0.6997384997956291
  0.0587486369790787  0.0379106658898472  0.6108935032260244
  0.5661412518938864  0.2132893688363016  0.8332008858976669
  0.3117314117975747  0.8719006223678729  0.5214136884262162
  0.6859072972701606  0.2871491771116303  0.1240301825157439
  0.1905339965737183  0.9550531473064258  0.2117572805850646
  0.6839537017880446  0.2885432996155258  0.6110295570519032
  0.3090585133883956  0.0382891741672831  0.6110398402380216
  0.9342308652929571  0.1244688873360775  0.7885765672054619
  0.4365033878213347  0.7974615292506468  0.8761584386193880
  0.8154169361138477  0.0407153440616518  0.7442223054758396
  0.9351981135270082  0.4580684401047687  0.6996673605157490
  0.1911854357699245  0.6250967260070105  0.6550767638009126
  0.3103036083023811  0.7069236126318537  0.6997542364360956
  0.9352382498989139  0.2866336919090126  0.1241502172469844
  0.4375148160924219  0.4560663188288410  0.4785384028004525
  0.0623615557062209  0.7057384526624422  0.4785482442210129
  0.9368435076731985  0.1195311970693192  0.4346112775802309
  0.4438450475857134  0.1233943047153737  0.3003809585388626
  0.1870185745563867  0.1204039968327748  0.4342328308705577
  0.5628087104836854  0.0405059055985058  0.8760229726005453
  0.1869804185271918  0.9571299000665793  0.5655176143315955
  0.6850821583826175  0.7873821962627908  0.1243385147553482
  0.5589887288600095  0.7020153592937888  0.3448884748663003
  0.3162683648945936  0.0368302029589007  0.3888962034193546
  0.6822876211951390  0.1137328687043651  0.1667504119743315
  0.8157663981846563  0.2028714953250544  0.2112582900884478
  0.0602743291334367  0.5378026863274213  0.2556900580747850
  0.5625309695284204  0.7057049856443987  0.4786672738709971
  0.4348803162541877  0.7858975163047164  0.1241685245941255
  0.5691426897966243  0.3721184762933764  0.3000121374225345
  0.4335397402194259  0.9526561371485639  0.3449367401064657
  0.1851531091604944  0.9575129099282279  0.6997892439880388
  0.4300226528927935  0.6158210271536710  0.1665474381963890
  0.9400499678515173  0.4544351053768966  0.2117057303870985
  0.0622959218083346  0.5309106062056419  0.1241464423905722
  0.8118360143968619  0.3721039579430773  0.5213994120966149
  0.9447806287597261  0.6226096798255324  0.2998710692868343
  0.3099918328560308  0.0372145366698260  0.2556247502324701
  0.6838237253001235  0.7882257739709064  0.6109507151314356
  0.1915977989544058  0.4631105767928084  0.8334828449411980
  0.4326507454610279  0.1129267944001258  0.1665612896158682
  0.3117496309726948  0.3720094619091660  0.5213748754463213
  0.4332807652867815  0.6227929989910251  0.7889417001133440
  0.0587650699344300  0.0371567727756503  0.2557158691888365
  0.5623492170664974  0.7070260233580790  0.5655391035957696
  0.9399343688609261  0.2905378356977231  0.7444888905557708
  0.6824327617956486  0.1227219027607502  0.7885716016902583
  0.1901049233272021  0.4539247303940144  0.2110608269511267
  0.9412786722689119  0.7875735396166741  0.3889738452479505
  0.6856982561706660  0.2987124682734605  0.8760328130626959
  0.5565044907891479  0.8634685819662753  0.1665354471929595
  0.4354981384690709  0.4576721481339540  0.6997600757061789
  0.9339197595959847  0.9514702729889399  0.3448437325674945
  0.6865499193042743  0.6214682255316346  0.5213455501377739
  0.0662588907031798  0.8744826268915097  0.6549452958314680
  0.0591442774787003  0.8740128818599893  0.7885006443148410
  0.0661116842964606  0.3740316930051942  0.6549743491702047
  0.6872366592674026  0.4557727511898913  0.4786278499587540
  0.1837753127059524  0.7874491599353317  0.2554945091126166
  0.4367700233820621  0.1209048684954764  0.4343249747338677
  0.8134989924883420  0.0310327460525139  0.1240884175346160
  0.9367822792399614  0.6220009828811763  0.5214050687188739
  0.4414340527191217  0.1245225113758436  0.6549378334274445
  0.8121697648633287  0.5299624970843281  0.1239460063153239
  0.4340398052464792  0.4527583182536127  0.3450628493936215
  0.8091000241028289  0.2024235330593113  0.3450121027227349
  0.3090608781957986  0.7021969945325666  0.3447543932834168
  0.6911805101559286  0.1246546931241905  0.6550094127109548
  0.5705900019707191  0.8731529118415147  0.3002401631135587
  0.0653372587187858  0.5408743229248194  0.7443508687519726
  0.9404828283036474  0.9544610597769134  0.2111893959301638
  0.8152843342622661  0.7034206356575380  0.2112072825162161
  0.0696355003083436  0.8736943706665847  0.3001727017950596
  0.1951031118371455  0.1231894528078547  0.3000212503334216
  0.0585461256178746  0.7021082374449129  0.3448787183078123
  0.8090058753235325  0.0383486405734407  0.6109943785611326
  0.0625892193638508  0.3719413816900787  0.4343030823520785
  0.5587744181581962  0.2026607215119737  0.3447953599016580
  0.8197678448951909  0.3725374254763497  0.2999709126735492
  0.5608289206728155  0.0373276540054385  0.2556341224552951
  0.5664484948864938  0.5376058333674505  0.3890789192800650
  0.0625239472371345  0.2058968920368320  0.4786579974179628
  0.3103829988944153  0.8728617430112475  0.7884451642166388
  0.9352873266210966  0.9581049887978491  0.6996843475457906
  0.0694772837012734  0.3742047474451813  0.3001792124428803
  0.6912993325268278  0.6248231690047861  0.6552102585194681
  0.6867785933010737  0.4569935125413380  0.5654179874731613
  0.4403717931575833  0.9557303492737338  0.2119196505203633
  0.3123475369905198  0.2057933233441549  0.4786970829998612
  0.8122064920035851  0.5401642242770910  0.8758688752139221
  0.6877265582296848  0.6205026995213567  0.4344665276147096
  0.8108429522614278  0.2073968690382376  0.6998298812595978
  0.8124659730756458  0.7058731941959236  0.4786389048378339
  0.8114282220050262  0.8711935251676842  0.4342517233811859
  0.9374058524225194  0.9553859547774683  0.4787273421233832
  0.5621692233083324  0.2058444695437972  0.4786689176096681
  0.1869054058419081  0.6198507987270030  0.4343964010798939
  0.3151535156925642  0.0417777263169680  0.7441131242923343
  0.9413116726164026  0.6251448518056292  0.6549094208780021
  0.5662370155014270  0.7133463240425554  0.8332692901358169
  0.3200246597339134  0.3726163720606087  0.3002126412910673
  0.3152010065987756  0.5414315225012307  0.7442564481509565
  0.1873015711910158  0.4558808302645810  0.4786665243652510
  0.3143461908543708  0.0410086214466854  0.8758744240910052
  0.1852363914380296  0.4578676606560991  0.6996902719738610
  0.5617916487410023  0.3720337797732334  0.5213773622949496
  0.1910922776696913  0.2874503894462790  0.3888659221073764
  0.3154994248539844  0.2035215625813900  0.2111582680204235
  0.0672406402500228  0.7025968575623353  0.2110839545216676
  0.5619314763385722  0.3710150878655714  0.4343267677088561
  0.4367662363742646  0.6221512863957778  0.5213768775159719
  0.8168682363145586  0.7151165147102070  0.8333344268445531
  0.0591013240946319  0.3746759010419561  0.7884703836386657
  0.4365501325667930  0.2981740591422069  0.8763352363142618
  0.3115276569379900  0.0313251060183037  0.1241258728892073
  0.6878602053301499  0.1196824848508809  0.4343715256010909
  0.1837242479593511  0.9521430490150127  0.3449289739542705
  0.0667254209480601  0.2148330039434324  0.8339913382037392
  0.5591065072205987  0.0385908421069591  0.6111165835112130
  0.6895081089271201  0.4548293667333726  0.2117941326985100
  0.1896526785330123  0.7916755087603239  0.7444119172455886
  0.1944316351299925  0.6229967022783173  0.3003690306423585
  0.4413401185154088  0.7875557270767055  0.3891157697963568
  0.4341291889671035  0.2884570984878924  0.2558807951454438
  0.0633537025613765  0.5406630604296812  0.8758644078628821
  0.5653442610650538  0.0413192095008662  0.7442332292842040
  0.1876812961842953  0.7973676636048734  0.8760181043679240
  0.9372729666803480  0.4557947121390997  0.4786741225076138
  0.5650720815215667  0.5413592356990069  0.7440961422166076
  0.8112259140234707  0.2070718432125605  0.5654938683361344
  0.1846103264378557  0.6225900477440955  0.7885366972283853
  0.0675116066902355  0.5386957090596419  0.3890784561145894
  0.0606608454887520  0.7074118640412702  0.6996744097555820
  0.3097053261901780  0.5374231771205813  0.2555941378177092
  0.3148064800199216  0.7020535872420112  0.2120838628365344
  0.3055166897714743  0.8641511258014191  0.1656188148170106
  0.4368174618578264  0.6210356475951223  0.4343975360114814
  0.8179220810928415  0.0392965839235239  0.3890863132439443
  0.9349304451494287  0.2977347607248108  0.8755856797824402
  0.9370289220360195  0.7952733309388563  0.8755392404302069
  0.0652956356261958  0.0387341305972898  0.8757337814172697
  0.8102814042623144  0.0381330527163451  0.2559777704275404
  0.8060782499423819  0.3652097647407277  0.1658814029179593
  0.0620077213823994  0.8711505121270803  0.4343937544450443
  0.9364776331195638  0.1217880591126340  0.5215203685191598
  0.1928181311345181  0.7874575521380284  0.3889176530631033
  0.5664905135122000  0.7026022109600424  0.2119979155949242
 
  0.00000000E+00  0.00000000E+00  0.00000000E+00
  0.00000000E+00  0.00000000E+00  0.00000000E+00
  0.00000000E+00  0.00000000E+00  0.00000000E+00
  0.00000000E+00  0.00000000E+00  0.00000000E+00
  0.00000000E+00  0.00000000E+00  0.00000000E+00
  0.00000000E+00  0.00000000E+00  0.00000000E+00
  0.00000000E+00  0.00000000E+00  0.00000000E+00
  0.00000000E+00  0.00000000E+00  0.00000000E+00
  0.00000000E+00  0.00000000E+00  0.00000000E+00
  0.00000000E+00  0.00000000E+00  0.00000000E+00
  0.00000000E+00  0.00000000E+00  0.00000000E+00
  0.00000000E+00  0.00000000E+00  0.00000000E+00
  0.00000000E+00  0.00000000E+00  0.00000000E+00
  0.00000000E+00  0.00000000E+00  0.00000000E+00
  0.00000000E+00  0.00000000E+00  0.00000000E+00
  0.00000000E+00  0.00000000E+00  0.00000000E+00
  0.00000000E+00  0.00000000E+00  0.00000000E+00
  0.00000000E+00  0.00000000E+00  0.00000000E+00
  0.00000000E+00  0.00000000E+00  0.00000000E+00
  0.00000000E+00  0.00000000E+00  0.00000000E+00
  0.00000000E+00  0.00000000E+00  0.00000000E+00
  0.00000000E+00  0.00000000E+00  0.00000000E+00
  0.00000000E+00  0.00000000E+00  0.00000000E+00
  0.00000000E+00  0.00000000E+00  0.00000000E+00
  0.00000000E+00  0.00000000E+00  0.00000000E+00
  0.00000000E+00  0.00000000E+00  0.00000000E+00
  0.00000000E+00  0.00000000E+00  0.00000000E+00
  0.00000000E+00  0.00000000E+00  0.00000000E+00
  0.00000000E+00  0.00000000E+00  0.00000000E+00
  0.00000000E+00  0.00000000E+00  0.00000000E+00
  0.00000000E+00  0.00000000E+00  0.00000000E+00
  0.00000000E+00  0.00000000E+00  0.00000000E+00
  0.00000000E+00  0.00000000E+00  0.00000000E+00
  0.00000000E+00  0.00000000E+00  0.00000000E+00
  0.00000000E+00  0.00000000E+00  0.00000000E+00
  0.00000000E+00  0.00000000E+00  0.00000000E+00
  0.00000000E+00  0.00000000E+00  0.00000000E+00
  0.00000000E+00  0.00000000E+00  0.00000000E+00
  0.00000000E+00  0.00000000E+00  0.00000000E+00
  0.00000000E+00  0.00000000E+00  0.00000000E+00
  0.00000000E+00  0.00000000E+00  0.00000000E+00
  0.00000000E+00  0.00000000E+00  0.00000000E+00
  0.00000000E+00  0.00000000E+00  0.00000000E+00
  0.00000000E+00  0.00000000E+00  0.00000000E+00
  0.00000000E+00  0.00000000E+00  0.00000000E+00
  0.00000000E+00  0.00000000E+00  0.00000000E+00
  0.00000000E+00  0.00000000E+00  0.00000000E+00
  0.00000000E+00  0.00000000E+00  0.00000000E+00
  0.00000000E+00  0.00000000E+00  0.00000000E+00
  0.00000000E+00  0.00000000E+00  0.00000000E+00
  0.00000000E+00  0.00000000E+00  0.00000000E+00
  0.00000000E+00  0.00000000E+00  0.00000000E+00
  0.00000000E+00  0.00000000E+00  0.00000000E+00
  0.00000000E+00  0.00000000E+00  0.00000000E+00
  0.00000000E+00  0.00000000E+00  0.00000000E+00
  0.00000000E+00  0.00000000E+00  0.00000000E+00
  0.00000000E+00  0.00000000E+00  0.00000000E+00
  0.00000000E+00  0.00000000E+00  0.00000000E+00
  0.00000000E+00  0.00000000E+00  0.00000000E+00
  0.00000000E+00  0.00000000E+00  0.00000000E+00
  0.00000000E+00  0.00000000E+00  0.00000000E+00
  0.00000000E+00  0.00000000E+00  0.00000000E+00
  0.00000000E+00  0.00000000E+00  0.00000000E+00
  0.00000000E+00  0.00000000E+00  0.00000000E+00
  0.00000000E+00  0.00000000E+00  0.00000000E+00
  0.00000000E+00  0.00000000E+00  0.00000000E+00
  0.00000000E+00  0.00000000E+00  0.00000000E+00
  0.00000000E+00  0.00000000E+00  0.00000000E+00
  0.00000000E+00  0.00000000E+00  0.00000000E+00
  0.00000000E+00  0.00000000E+00  0.00000000E+00
  0.00000000E+00  0.00000000E+00  0.00000000E+00
  0.00000000E+00  0.00000000E+00  0.00000000E+00
  0.00000000E+00  0.00000000E+00  0.00000000E+00
  0.00000000E+00  0.00000000E+00  0.00000000E+00
  0.00000000E+00  0.00000000E+00  0.00000000E+00
  0.00000000E+00  0.00000000E+00  0.00000000E+00
  0.00000000E+00  0.00000000E+00  0.00000000E+00
  0.00000000E+00  0.00000000E+00  0.00000000E+00
  0.00000000E+00  0.00000000E+00  0.00000000E+00
  0.00000000E+00  0.00000000E+00  0.00000000E+00
  0.00000000E+00  0.00000000E+00  0.00000000E+00
  0.00000000E+00  0.00000000E+00  0.00000000E+00
  0.00000000E+00  0.00000000E+00  0.00000000E+00
  0.00000000E+00  0.00000000E+00  0.00000000E+00
  0.00000000E+00  0.00000000E+00  0.00000000E+00
  0.00000000E+00  0.00000000E+00  0.00000000E+00
  0.00000000E+00  0.00000000E+00  0.00000000E+00
  0.00000000E+00  0.00000000E+00  0.00000000E+00
  0.00000000E+00  0.00000000E+00  0.00000000E+00
  0.00000000E+00  0.00000000E+00  0.00000000E+00
  0.00000000E+00  0.00000000E+00  0.00000000E+00
  0.00000000E+00  0.00000000E+00  0.00000000E+00
  0.00000000E+00  0.00000000E+00  0.00000000E+00
  0.00000000E+00  0.00000000E+00  0.00000000E+00
  0.00000000E+00  0.00000000E+00  0.00000000E+00
  0.00000000E+00  0.00000000E+00  0.00000000E+00
  0.00000000E+00  0.00000000E+00  0.00000000E+00
  0.00000000E+00  0.00000000E+00  0.00000000E+00
  0.00000000E+00  0.00000000E+00  0.00000000E+00
  0.00000000E+00  0.00000000E+00  0.00000000E+00
  0.00000000E+00  0.00000000E+00  0.00000000E+00
  0.00000000E+00  0.00000000E+00  0.00000000E+00
  0.00000000E+00  0.00000000E+00  0.00000000E+00
  0.00000000E+00  0.00000000E+00  0.00000000E+00
  0.00000000E+00  0.00000000E+00  0.00000000E+00
  0.00000000E+00  0.00000000E+00  0.00000000E+00
  0.00000000E+00  0.00000000E+00  0.00000000E+00
  0.00000000E+00  0.00000000E+00  0.00000000E+00
  0.00000000E+00  0.00000000E+00  0.00000000E+00
  0.00000000E+00  0.00000000E+00  0.00000000E+00
  0.00000000E+00  0.00000000E+00  0.00000000E+00
  0.00000000E+00  0.00000000E+00  0.00000000E+00
  0.00000000E+00  0.00000000E+00  0.00000000E+00
  0.00000000E+00  0.00000000E+00  0.00000000E+00
  0.00000000E+00  0.00000000E+00  0.00000000E+00
  0.00000000E+00  0.00000000E+00  0.00000000E+00
  0.00000000E+00  0.00000000E+00  0.00000000E+00
  0.00000000E+00  0.00000000E+00  0.00000000E+00
  0.00000000E+00  0.00000000E+00  0.00000000E+00
  0.00000000E+00  0.00000000E+00  0.00000000E+00
  0.00000000E+00  0.00000000E+00  0.00000000E+00
  0.00000000E+00  0.00000000E+00  0.00000000E+00
  0.00000000E+00  0.00000000E+00  0.00000000E+00
  0.00000000E+00  0.00000000E+00  0.00000000E+00
  0.00000000E+00  0.00000000E+00  0.00000000E+00
  0.00000000E+00  0.00000000E+00  0.00000000E+00
  0.00000000E+00  0.00000000E+00  0.00000000E+00
  0.00000000E+00  0.00000000E+00  0.00000000E+00
  0.00000000E+00  0.00000000E+00  0.00000000E+00
  0.00000000E+00  0.00000000E+00  0.00000000E+00
  0.00000000E+00  0.00000000E+00  0.00000000E+00
  0.00000000E+00  0.00000000E+00  0.00000000E+00
  0.00000000E+00  0.00000000E+00  0.00000000E+00
  0.00000000E+00  0.00000000E+00  0.00000000E+00
  0.00000000E+00  0.00000000E+00  0.00000000E+00
  0.00000000E+00  0.00000000E+00  0.00000000E+00
  0.00000000E+00  0.00000000E+00  0.00000000E+00
  0.00000000E+00  0.00000000E+00  0.00000000E+00
  0.00000000E+00  0.00000000E+00  0.00000000E+00
  0.00000000E+00  0.00000000E+00  0.00000000E+00
  0.00000000E+00  0.00000000E+00  0.00000000E+00
  0.00000000E+00  0.00000000E+00  0.00000000E+00
  0.00000000E+00  0.00000000E+00  0.00000000E+00
  0.00000000E+00  0.00000000E+00  0.00000000E+00
  0.00000000E+00  0.00000000E+00  0.00000000E+00
  0.00000000E+00  0.00000000E+00  0.00000000E+00
  0.00000000E+00  0.00000000E+00  0.00000000E+00
  0.00000000E+00  0.00000000E+00  0.00000000E+00
  0.00000000E+00  0.00000000E+00  0.00000000E+00
  0.00000000E+00  0.00000000E+00  0.00000000E+00
  0.00000000E+00  0.00000000E+00  0.00000000E+00
  0.00000000E+00  0.00000000E+00  0.00000000E+00
  0.00000000E+00  0.00000000E+00  0.00000000E+00
  0.00000000E+00  0.00000000E+00  0.00000000E+00
  0.00000000E+00  0.00000000E+00  0.00000000E+00
  0.00000000E+00  0.00000000E+00  0.00000000E+00
  0.00000000E+00  0.00000000E+00  0.00000000E+00
  0.00000000E+00  0.00000000E+00  0.00000000E+00
  0.00000000E+00  0.00000000E+00  0.00000000E+00
  0.00000000E+00  0.00000000E+00  0.00000000E+00
  0.00000000E+00  0.00000000E+00  0.00000000E+00
  0.00000000E+00  0.00000000E+00  0.00000000E+00
  0.00000000E+00  0.00000000E+00  0.00000000E+00
  0.00000000E+00  0.00000000E+00  0.00000000E+00
  0.00000000E+00  0.00000000E+00  0.00000000E+00
  0.00000000E+00  0.00000000E+00  0.00000000E+00
  0.00000000E+00  0.00000000E+00  0.00000000E+00
  0.00000000E+00  0.00000000E+00  0.00000000E+00
  0.00000000E+00  0.00000000E+00  0.00000000E+00
  0.00000000E+00  0.00000000E+00  0.00000000E+00
  0.00000000E+00  0.00000000E+00  0.00000000E+00
  0.00000000E+00  0.00000000E+00  0.00000000E+00
  0.00000000E+00  0.00000000E+00  0.00000000E+00
  0.00000000E+00  0.00000000E+00  0.00000000E+00
  0.00000000E+00  0.00000000E+00  0.00000000E+00
  0.00000000E+00  0.00000000E+00  0.00000000E+00
  0.00000000E+00  0.00000000E+00  0.00000000E+00
  0.00000000E+00  0.00000000E+00  0.00000000E+00
  0.00000000E+00  0.00000000E+00  0.00000000E+00
  0.00000000E+00  0.00000000E+00  0.00000000E+00
  0.00000000E+00  0.00000000E+00  0.00000000E+00
  0.00000000E+00  0.00000000E+00  0.00000000E+00
  0.00000000E+00  0.00000000E+00  0.00000000E+00
  0.00000000E+00  0.00000000E+00  0.00000000E+00
  0.00000000E+00  0.00000000E+00  0.00000000E+00
  0.00000000E+00  0.00000000E+00  0.00000000E+00
  0.00000000E+00  0.00000000E+00  0.00000000E+00
  0.00000000E+00  0.00000000E+00  0.00000000E+00
  0.00000000E+00  0.00000000E+00  0.00000000E+00
  0.00000000E+00  0.00000000E+00  0.00000000E+00
  0.00000000E+00  0.00000000E+00  0.00000000E+00
  0.00000000E+00  0.00000000E+00  0.00000000E+00
  0.00000000E+00  0.00000000E+00  0.00000000E+00
  0.00000000E+00  0.00000000E+00  0.00000000E+00
  0.00000000E+00  0.00000000E+00  0.00000000E+00
  0.00000000E+00  0.00000000E+00  0.00000000E+00
  0.00000000E+00  0.00000000E+00  0.00000000E+00
  0.00000000E+00  0.00000000E+00  0.00000000E+00
  0.00000000E+00  0.00000000E+00  0.00000000E+00
  0.00000000E+00  0.00000000E+00  0.00000000E+00
  0.00000000E+00  0.00000000E+00  0.00000000E+00
  0.00000000E+00  0.00000000E+00  0.00000000E+00
  0.00000000E+00  0.00000000E+00  0.00000000E+00
  0.00000000E+00  0.00000000E+00  0.00000000E+00
  0.00000000E+00  0.00000000E+00  0.00000000E+00
  0.00000000E+00  0.00000000E+00  0.00000000E+00
  0.00000000E+00  0.00000000E+00  0.00000000E+00
  0.00000000E+00  0.00000000E+00  0.00000000E+00
  0.00000000E+00  0.00000000E+00  0.00000000E+00
  0.00000000E+00  0.00000000E+00  0.00000000E+00
  0.00000000E+00  0.00000000E+00  0.00000000E+00
  0.00000000E+00  0.00000000E+00  0.00000000E+00
  0.00000000E+00  0.00000000E+00  0.00000000E+00
  0.00000000E+00  0.00000000E+00  0.00000000E+00
  0.00000000E+00  0.00000000E+00  0.00000000E+00
  0.00000000E+00  0.00000000E+00  0.00000000E+00
  0.00000000E+00  0.00000000E+00  0.00000000E+00
  0.00000000E+00  0.00000000E+00  0.00000000E+00
  0.00000000E+00  0.00000000E+00  0.00000000E+00
  0.00000000E+00  0.00000000E+00  0.00000000E+00
  0.00000000E+00  0.00000000E+00  0.00000000E+00
  0.00000000E+00  0.00000000E+00  0.00000000E+00
  0.00000000E+00  0.00000000E+00  0.00000000E+00
  0.00000000E+00  0.00000000E+00  0.00000000E+00
  0.00000000E+00  0.00000000E+00  0.00000000E+00
  0.00000000E+00  0.00000000E+00  0.00000000E+00
  0.00000000E+00  0.00000000E+00  0.00000000E+00
  0.00000000E+00  0.00000000E+00  0.00000000E+00
  0.00000000E+00  0.00000000E+00  0.00000000E+00
  0.00000000E+00  0.00000000E+00  0.00000000E+00
  0.00000000E+00  0.00000000E+00  0.00000000E+00
  0.00000000E+00  0.00000000E+00  0.00000000E+00
  0.00000000E+00  0.00000000E+00  0.00000000E+00
  0.00000000E+00  0.00000000E+00  0.00000000E+00
  0.00000000E+00  0.00000000E+00  0.00000000E+00
  0.00000000E+00  0.00000000E+00  0.00000000E+00
  0.00000000E+00  0.00000000E+00  0.00000000E+00
  0.00000000E+00  0.00000000E+00  0.00000000E+00
  0.00000000E+00  0.00000000E+00  0.00000000E+00
  0.00000000E+00  0.00000000E+00  0.00000000E+00
  0.00000000E+00  0.00000000E+00  0.00000000E+00
  0.00000000E+00  0.00000000E+00  0.00000000E+00
  0.00000000E+00  0.00000000E+00  0.00000000E+00
  0.00000000E+00  0.00000000E+00  0.00000000E+00
  0.00000000E+00  0.00000000E+00  0.00000000E+00
  0.00000000E+00  0.00000000E+00  0.00000000E+00
  0.00000000E+00  0.00000000E+00  0.00000000E+00