CuInSe2gb                               
   1.00000000000000     
     9.7266780392896699    0.0000000000000000    0.0000000000000000
     0.0000000000000000    8.4235502764570693    0.0000000000000000
     0.0000000000000000    0.0000000000000000   45.0000000000000000
   Fe   Mn
   281     7
Direct
  0.0617651180146661  0.7084789674545007  0.2121825518887769
  0.3131798197792338  0.7127245085348517  0.8750617146072749
  0.6878160856381910  0.9588185267705388  0.6107916635663697
  0.4376165327853875  0.4588725009206558  0.6108069814796300
  0.4374555169629185  0.2923078498773892  0.2563291946268924
  0.0629563317655883  0.3800130975665384  0.8330514853229959
  0.3120927221095438  0.8797106246583445  0.8329688255324849
  0.4380512168280984  0.6243326700655433  0.6994889848738763
  0.0621561172297498  0.2074640637817491  0.7437947588038279
  0.1867976602245421  0.4582120247597615  0.2120771933839446
  0.5628869197332870  0.2082013437939876  0.4778177112708954
  0.0623175191989386  0.8747414674890048  0.5664069913581643
  0.5628408935059164  0.2130424181425762  0.8750419555570060
  0.8126485390271411  0.5385926667186319  0.1251537547264610
  0.4368359569344422  0.9582442600084043  0.2120697259884064
  0.5623603903932591  0.3750130746831297  0.5663874814991338
  0.8126158626224205  0.0411984288807100  0.3890967385428034
  0.6876913179229361  0.7911939026297538  0.5220069387733192
  0.4378856298570595  0.4581214514872874  0.4778695111054924
  0.4373030657187530  0.9574694414174310  0.7436857611135897
  0.4374790272182619  0.6250080529014479  0.5664064723327686
  0.0626358591185509  0.5385634053360282  0.1251653691455281
  0.3126706586771202  0.0384398432380900  0.1251748831609359
  0.6872838078170248  0.9567608496721548  0.3449411165957870
  0.6875352690820453  0.7882992310915757  0.1250684806079742
  0.0620233714034316  0.3751248530942348  0.3005834895793501
  0.6868893437061241  0.4623120815468184  0.8748855825411451
  0.4368427278770134  0.4582111272152911  0.2120657370557167
  0.8125020220410738  0.3746696943316543  0.4334574373880662
  0.8130399054662167  0.3747431707056731  0.6993684573531175
  0.5618432934306218  0.5428295373964122  0.6550668331124184
  0.9374761335901066  0.1246530541989459  0.4334803769519004
  0.5624426211406550  0.5423513143601105  0.2563204758653391
  0.6873851043346537  0.4567699222795568  0.3449153931577010
  0.1881468048144907  0.6201833366828570  0.1672493921169244
  0.1881903596728296  0.7911763099297375  0.7878326911038371
  0.4383036476156051  0.1245816132264678  0.6993706997920138
  0.9370724266981723  0.6251225609636474  0.3005567599850659
  0.3123797331745935  0.2128448727563899  0.8751389332345949
  0.3122304275524201  0.8747945832353050  0.5663543407243854
  0.8130708391350859  0.2121387416296036  0.8751065614649077
  0.8118621889652665  0.5432198755555266  0.6550144187872248
  0.5626607046555376  0.5385743498536768  0.1251541291940561
  0.5631646462205784  0.8701452383622469  0.1672679100440886
  0.1873810587772957  0.2922486167579513  0.2563233132201601
  0.8125582217881860  0.8746773271545230  0.4335170536134625
  0.5633459618736203  0.3745134718559329  0.6994267426641182
  0.0626638834043624  0.0385486480592242  0.1251695515699022
  0.3115149048727403  0.5430418625408747  0.6549684772324188
  0.5624038824107308  0.2067326818087141  0.3448995696625428
  0.1872685807327221  0.9589080978636181  0.6107832362137398
  0.3120476564167461  0.3751953936584186  0.3005702504350852
  0.4370187232960681  0.7926875303964663  0.6550564705234719
  0.6872075028842363  0.4576493016100461  0.7437587770689534
  0.0631679365816071  0.3702043869345306  0.1672510172209112
  0.6880808310907073  0.6246330262483477  0.6993539676345472
  0.3126042134256500  0.5412526287232987  0.3891229073181888
  0.0636680129765400  0.7129213297850095  0.8750419766081360
  0.9368543994445780  0.6309418271232247  0.8330948656379285
  0.3132654405078762  0.5422568996361282  0.7879364468575133
  0.3118222061309438  0.2085006490471583  0.2121827517582258
  0.0629234085515817  0.7083222610143795  0.4778768143429780
  0.5618457513744479  0.2085179152278780  0.2121700217145061
  0.3121966519197482  0.2076736449451889  0.7436978629419737
  0.0629497508323229  0.3747174553855600  0.6993804505359671
  0.1873858275424494  0.6295464575791918  0.8326995469988621
  0.0628236507699863  0.0419805433853041  0.7879407358323764
  0.4374785974607172  0.1247565681315991  0.5663978677857626
  0.9369464734293431  0.2933626701894215  0.6549686659472150
  0.8118331375162905  0.2084454111224963  0.2121849869640192
  0.9368286773475959  0.9583229783040804  0.2120720415404098
  0.9374225968372744  0.6247915256023004  0.5663970726206652
  0.8121936378641407  0.3807834753374946  0.8331229093677358
  0.1880163414689338  0.6252012389004928  0.6992736884400160
  0.5630470048785935  0.8743150855517249  0.6994519288922353
  0.6870055626166028  0.2931783056161913  0.6551111301799560
  0.3126490341551793  0.2087407368516093  0.6108691828010867
  0.4371457056881027  0.4577506047931407  0.7437262028775292
  0.4376504066275236  0.7911586998490951  0.3890990820996890
  0.6871555477543917  0.9573514070242400  0.7437017161317921
  0.8117881092713080  0.7085418913302542  0.2121582186243557
  0.8131776022398215  0.7089378471211242  0.6108237277858127
  0.4375995917643311  0.7882729713561250  0.1250761208853151
  0.3120053486579467  0.7080234835465421  0.7437310185830250
  0.3129565346657194  0.0420842719032882  0.7879943701644017
  0.8125474165589053  0.5412040003363482  0.3891267539126965
  0.6875086262959225  0.2911103134507590  0.5219859828304335
  0.6878953466871164  0.7912384701341435  0.7878883538329140
  0.1873673380037692  0.7923105594857475  0.2563362161872771
  0.6882237269631575  0.1201620731330606  0.1672622440010021
  0.6878065613905707  0.9582074845405089  0.4778272552940886
  0.9372795217281379  0.9567179160689531  0.3449299590569478
  0.8127901002826380  0.0411563862099927  0.5219767526095711
  0.6874410475804827  0.6247711368765556  0.4334917651773300
  0.4373724673875572  0.4567715434813166  0.3449134186775311
  0.8119066130481919  0.2069997451599492  0.7436543361802073
  0.4373697107903415  0.9630268125367443  0.8749817383089140
  0.5623930239574387  0.8749837907053636  0.5664142838492887
  0.8126431611801012  0.0385025600214895  0.1251719006191261
  0.4371173206777538  0.6251104511028538  0.3005352964382970
  0.5623252926957554  0.2069577169360882  0.7438380045571638
  0.6878776810804249  0.4585302895478456  0.6108527633992433
  0.5614442412216355  0.3799933819210633  0.8327678870101322
  0.8120267947334978  0.3751758718784945  0.3005847338436563
  0.1875981199351793  0.2911259575075961  0.3890983774330831
  0.8131285886782003  0.5429346149156575  0.7880395302045872
  0.1873469261041218  0.7910319474742417  0.5220115395660595
  0.3119360527209694  0.8751558780852863  0.3005882530394606
  0.1868507843234511  0.9582707989121603  0.2120816920523148
  0.1869971523975475  0.4576428947669529  0.7436769197065007
  0.4375413599503811  0.2913212891949390  0.5219849063570975
  0.0624641602596505  0.7067665094538623  0.3449173543806690
  0.1870199948818652  0.7932527346460498  0.6550361330633168
  0.4382131489618206  0.7915460604925565  0.7878548771278695
  0.6874090170134930  0.1247364964954879  0.4334338580584590
  0.9375502151727199  0.7911637198513823  0.5220714047214395
  0.6881633050160058  0.6201501343692334  0.1672326271965406
  0.8124406685065350  0.7067403497228294  0.3449313831174485
  0.9371884768676559  0.4573004054560852  0.7436522338925278
  0.1873672421286910  0.4567832564920644  0.3449292435680590
  0.5627082246098881  0.5421024870498347  0.7878589099911992
  0.5631920711042983  0.3701816962984866  0.1672553843535578
  0.5624285838044240  0.7067874023591219  0.3449144995988643
  0.5620166595769172  0.3751350793686078  0.3005832512768234
  0.1873036980121868  0.4623951318945361  0.8750360314676633
  0.1881622501806628  0.1201589387327071  0.1672350368958612
  0.4378008723377367  0.2912889806060157  0.7879513218786495
  0.6873488256473727  0.7922643224741629  0.2563532979134998
  0.9367494309295286  0.1303147836365596  0.8328933780634075
  0.4377787514806880  0.9580953601427109  0.4778286505507744
  0.5618406515807325  0.7126976775733672  0.8750789960566225
  0.1878034140855599  0.4581828086827541  0.4778464440177450
  0.9374976286473080  0.2883242940925572  0.1250562399680512
  0.3125148446076544  0.0412160407109547  0.3891063931406741
  0.0616014229349056  0.0433912476920683  0.6549660371220511
  0.5624688620689613  0.3747050464477644  0.4334456003748605
  0.9375012770383540  0.6247334795009754  0.4334668107570658
  0.3131708307789423  0.3701690591499802  0.1672634322781012
  0.9378604462404263  0.1249651038497994  0.6993125094466658
  0.5615122789583121  0.0433749927972922  0.6550511975981578
  0.5626398205597086  0.5416610853182999  0.5219686184476465
  0.1870287612352387  0.1250961086749656  0.3005247731640962
  0.4382092632896265  0.1202044150875656  0.1672522872039954
  0.6870928562187181  0.6251127060919363  0.3005356334695501
  0.9371253835217550  0.1250738212879486  0.3005536709027107
  0.8123267647425663  0.3747015052359342  0.5664219103433433
  0.0620012519208133  0.8752049222417221  0.3005688667868633
  0.1875214993944126  0.6248703590361041  0.5664067822639071
  0.9377104192615245  0.7909355536918375  0.7878033996560139
  0.3118914694384691  0.3793737524392234  0.8330782367315579
  0.9379273601887725  0.4621750386806903  0.8750198428965081
  0.4369439910703524  0.6295866418867678  0.8327915518812553
  0.0623841175394510  0.2067917029615765  0.3449065263345716
  0.1876443233074802  0.9623123264565144  0.8749109305976982
  0.9375642989067902  0.7883244105488345  0.1250855735535333
  0.6876038123104300  0.7911885725059356  0.3890989958382991
  0.9367588861788011  0.7931565960016056  0.6550248141925846
  0.9382122330235868  0.1201856646302680  0.1672252664802857
  0.4366137276474734  0.2929418963022588  0.6550172470424340
  0.0617763400158468  0.2084535142601498  0.2121615813332852
  0.6868694458222662  0.9582700601468622  0.2120802309818171
  0.5629323957123603  0.7085818314220587  0.6108561513622425
  0.8134231495551008  0.8743320882063996  0.6993403048447302
  0.9382843062665590  0.6244872867261102  0.6993416219766869
  0.1878045860342656  0.1247532673396298  0.6994812056266165
  0.9378833632733495  0.4582710052696832  0.4778488634852813
  0.8130963494422673  0.2091375208560690  0.6108791603075496
  0.1874482942416649  0.6247538158915834  0.4335038848488124
  0.4370522478437329  0.1251309819606104  0.3005539478253809
  0.6870885051816050  0.1251517428376994  0.3005434189272115
  0.5625499428517297  0.5412467568245650  0.3890954778016060
  0.8124358542627421  0.2067764905334508  0.3449045404540487
  0.4381363188813311  0.4628576058638127  0.8748711166420373
  0.5623310891033051  0.8796753364427683  0.8331885103311211
  0.3127583446612129  0.2082971260918614  0.4778127445746443
  0.1878745018524635  0.9583061658242250  0.4778713046558485
  0.0618315046249031  0.8795275597447474  0.8330239173853410
  0.0625284796420689  0.5411663320607493  0.5220512742532273
  0.9378505099364045  0.9583076150716466  0.4778865479118226
  0.0628844285775673  0.7085815375297377  0.6107774674585948
  0.5624403272394231  0.0412922099539191  0.5220158164943831
  0.6879611010368457  0.2914026172807522  0.7879231956661911
  0.8131636913953509  0.3701443467323953  0.1672650521216169
  0.4374743313340582  0.1247187552596855  0.4334313121881067
  0.0629039418912553  0.2083377896807164  0.4778197140542826
  0.3118733319243297  0.0434692381958908  0.6549907803017143
  0.4375271968665375  0.7914154827807646  0.5220250895705481
  0.1872346281684076  0.1306112512191582  0.8328536776528541
  0.1875211714234600  0.2882658960969781  0.1250641234691236
  0.9373604123516079  0.4567227250702888  0.3449204898238100
  0.3132107714063426  0.8701368123037317  0.1672584448823277
  0.3118267978349847  0.7085256240048710  0.2121752682438079
  0.9381931126689331  0.6201560974980040  0.1672567274691964
  0.1873664398207677  0.4588367638347696  0.6108417766901013
  0.0632547357782798  0.8751459153065132  0.6993269241597574
  0.0617520448700865  0.5431942913806556  0.6549874917706583
  0.3126413523650445  0.5386021454382323  0.1251684733446380
  0.9376686742610487  0.7912592144884882  0.3891016561151125
  0.9377342462646154  0.2918059630992763  0.7879969194152502
  0.1867958440659081  0.2930974585447746  0.6550398480695986
  0.9375785168658248  0.9584896198837323  0.6108611754600741
  0.8124201881702110  0.7076370584023152  0.7436971040454547
  0.6874217358164884  0.2922411555920545  0.2563141565253101
  0.0622120556429749  0.7075012782468758  0.7437277233761397
  0.6868186087821424  0.4582134605640992  0.2120544187562737
  0.8128646466919417  0.2083072514455807  0.4778282192193617
  0.5628713726807839  0.7079043943042648  0.4778772812635156
  0.0631613277528052  0.8701734268875674  0.1672697160760568
  0.9374452907966354  0.2911209809835805  0.5220725707551004
  0.6865934703107534  0.7929270839826098  0.6549881871519998
  0.0624146929823745  0.8746871884662518  0.4334887836449168
  0.0634514085282028  0.2127339188996085  0.8751543990546039
  0.8116623689104547  0.0433783071833401  0.6550415323944999
  0.5626190620259020  0.0385397380621061  0.1251773869136588
  0.3124256021429913  0.3746400204675312  0.4334724038272861
  0.3126492687210174  0.3749082468701700  0.5664330866251718
  0.3127930065222778  0.7082477108427599  0.4778247377651802
  0.0624940836994040  0.0412807707903162  0.5220782887819870
  0.3129676671700268  0.8746400897698998  0.6993673799315381
  0.0625132317855369  0.5423466915472147  0.2563243260374867
  0.6876323513424550  0.1304327698259443  0.8329277224154438
  0.8125140257345411  0.0423783211056370  0.2563116430569118
  0.1873749700469102  0.1247088811926544  0.4334841520488100
  0.6878934274933096  0.1247682200259546  0.6995264084246410
  0.1875682834765499  0.2912037377779449  0.5220148908762304
  0.4374632889081266  0.7922769516079806  0.2563410647719871
  0.8125083406905385  0.5424261775070451  0.2562977587163559
  0.0630608828513256  0.2093764182465913  0.6108125200555969
  0.1876054269711480  0.7911877101211410  0.3891091660940112
  0.3125751054192979  0.5413005724479117  0.5220478138227665
  0.8131858486348407  0.8701355708815296  0.1672661139757874
  0.6876455661392387  0.2911440414883614  0.3890885781666498
  0.1876203509607215  0.1247368309058373  0.5664098146054021
  0.6864568078426619  0.9628863647340745  0.8751794598504072
  0.6873421455328859  0.1247492402371158  0.5664035802633927
  0.4373113479015980  0.9567148283330955  0.3449302111654876
  0.1870372030885276  0.9576509813901051  0.7437111602861046
  0.9374133164643587  0.7923159976644816  0.2563434331993343
  0.5624564314507999  0.8747862655778492  0.4334698811158828
  0.3125065228258129  0.8747258336778825  0.4335084078719637
  0.8125116521078749  0.5411089777987553  0.5220559711000620
  0.9368402071404327  0.4581846345568925  0.2120602195322921
  0.3124878752829980  0.5423937255188872  0.2563006092887041
  0.5624692257418714  0.0411237986866715  0.3891124260087028
  0.9376121394344847  0.4592422497915515  0.6107813373859464
  0.0624688440922495  0.0410385311235704  0.3891117886714315
  0.0625389976869696  0.5411054672672104  0.3891197238261725
  0.4376206627221596  0.2911558396311421  0.3890954068183758
  0.6878413986646815  0.4581394686052169  0.4778408051157174
  0.0623490114671485  0.3746558363901577  0.5664078818977705
  0.5617507404558073  0.7084462148308711  0.2121649720880887
  0.9375109505957518  0.2922213966162910  0.2563198369654683
  0.1870695530070543  0.6251701272052553  0.3005461298658031
  0.1873980544753532  0.9566982015846919  0.3449330518704506
  0.5619583763137108  0.8752032096592082  0.3005676300461049
  0.0624606421260953  0.3746608138510625  0.4334996608444740
  0.3124186809162330  0.7067708582382061  0.3449261532295892
  0.3124734898087062  0.2067402559183242  0.3449048283300472
  0.9374875018724020  0.1247079493315933  0.5664363540527545
  0.8133728785984932  0.0426768453356630  0.7878444909543880
  0.5624687688660671  0.0424244070421180  0.2563103787647376
  0.1875759711263422  0.7883489848257441  0.1250875419238210
  0.0625133499663050  0.0423569637277920  0.2563060980346658
  0.6876481851105980  0.6249441414024580  0.5663960300972745
  0.4382125853922954  0.6202011048424508  0.1672296010454551
  0.3125271515964407  0.0411366840556154  0.5219846676439683
  0.6875035774536589  0.2882512179204248  0.1250819471367534
  0.8128070196606879  0.7083068884716496  0.4778790205002721
  0.4373174808410077  0.1300968024446981  0.8328710134745732
  0.3132909979784297  0.3743704714623918  0.6993230455352148
  0.6877139371825274  0.6311050292574855  0.8329474133263434
  0.5620863773465601  0.7078674374047779  0.7437485857190804
  0.9376106486012289  0.2910774295208862  0.3890858900699272
  0.9384553272117167  0.9626017443347117  0.8751425437504712
  0.9370632222316777  0.9572781475649648  0.7436366639984624
  0.8124833995168229  0.8748753169195596  0.5663836998207679
  0.8120110374598860  0.8750856460072045  0.3005902362103061
  0.3124811548949130  0.0423437061450989  0.2563075464168563
  0.4374781656233999  0.2883168942635451  0.1250827717945647
  0.3125286119871780  0.7089117477682304  0.6108455866008845
  0.4375236104212540  0.6248319339822870  0.4334720600973358
  0.1882864070623226  0.2904218282046756  0.7876057260464854
  0.5631586468438089  0.0414629680902462  0.7877144307101505
  0.0629456020397830  0.5422984809668079  0.7876562812773461
  0.8117583027961932  0.8799159594126478  0.8334486618179552
  0.8127397620344836  0.7130293660259355  0.8751949748573281
  0.5633948992838459  0.2094317610202989  0.6107842231648960
  0.4371665793645914  0.9580595859784061  0.6108844349703357
 
  0.00000000E+00  0.00000000E+00  0.00000000E+00
  0.00000000E+00  0.00000000E+00  0.00000000E+00
  0.00000000E+00  0.00000000E+00  0.00000000E+00
  0.00000000E+00  0.00000000E+00  0.00000000E+00
  0.00000000E+00  0.00000000E+00  0.00000000E+00
  0.00000000E+00  0.00000000E+00  0.00000000E+00
  0.00000000E+00  0.00000000E+00  0.00000000E+00
  0.00000000E+00  0.00000000E+00  0.00000000E+00
  0.00000000E+00  0.00000000E+00  0.00000000E+00
  0.00000000E+00  0.00000000E+00  0.00000000E+00
  0.00000000E+00  0.00000000E+00  0.00000000E+00
  0.00000000E+00  0.00000000E+00  0.00000000E+00
  0.00000000E+00  0.00000000E+00  0.00000000E+00
  0.00000000E+00  0.00000000E+00  0.00000000E+00
  0.00000000E+00  0.00000000E+00  0.00000000E+00
  0.00000000E+00  0.00000000E+00  0.00000000E+00
  0.00000000E+00  0.00000000E+00  0.00000000E+00
  0.00000000E+00  0.00000000E+00  0.00000000E+00
  0.00000000E+00  0.00000000E+00  0.00000000E+00
  0.00000000E+00  0.00000000E+00  0.00000000E+00
  0.00000000E+00  0.00000000E+00  0.00000000E+00
  0.00000000E+00  0.00000000E+00  0.00000000E+00
  0.00000000E+00  0.00000000E+00  0.00000000E+00
  0.00000000E+00  0.00000000E+00  0.00000000E+00
  0.00000000E+00  0.00000000E+00  0.00000000E+00
  0.00000000E+00  0.00000000E+00  0.00000000E+00
  0.00000000E+00  0.00000000E+00  0.00000000E+00
  0.00000000E+00  0.00000000E+00  0.00000000E+00
  0.00000000E+00  0.00000000E+00  0.00000000E+00
  0.00000000E+00  0.00000000E+00  0.00000000E+00
  0.00000000E+00  0.00000000E+00  0.00000000E+00
  0.00000000E+00  0.00000000E+00  0.00000000E+00
  0.00000000E+00  0.00000000E+00  0.00000000E+00
  0.00000000E+00  0.00000000E+00  0.00000000E+00
  0.00000000E+00  0.00000000E+00  0.00000000E+00
  0.00000000E+00  0.00000000E+00  0.00000000E+00
  0.00000000E+00  0.00000000E+00  0.00000000E+00
  0.00000000E+00  0.00000000E+00  0.00000000E+00
  0.00000000E+00  0.00000000E+00  0.00000000E+00
  0.00000000E+00  0.00000000E+00  0.00000000E+00
  0.00000000E+00  0.00000000E+00  0.00000000E+00
  0.00000000E+00  0.00000000E+00  0.00000000E+00
  0.00000000E+00  0.00000000E+00  0.00000000E+00
  0.00000000E+00  0.00000000E+00  0.00000000E+00
  0.00000000E+00  0.00000000E+00  0.00000000E+00
  0.00000000E+00  0.00000000E+00  0.00000000E+00
  0.00000000E+00  0.00000000E+00  0.00000000E+00
  0.00000000E+00  0.00000000E+00  0.00000000E+00
  0.00000000E+00  0.00000000E+00  0.00000000E+00
  0.00000000E+00  0.00000000E+00  0.00000000E+00
  0.00000000E+00  0.00000000E+00  0.00000000E+00
  0.00000000E+00  0.00000000E+00  0.00000000E+00
  0.00000000E+00  0.00000000E+00  0.00000000E+00
  0.00000000E+00  0.00000000E+00  0.00000000E+00
  0.00000000E+00  0.00000000E+00  0.00000000E+00
  0.00000000E+00  0.00000000E+00  0.00000000E+00
  0.00000000E+00  0.00000000E+00  0.00000000E+00
  0.00000000E+00  0.00000000E+00  0.00000000E+00
  0.00000000E+00  0.00000000E+00  0.00000000E+00
  0.00000000E+00  0.00000000E+00  0.00000000E+00
  0.00000000E+00  0.00000000E+00  0.00000000E+00
  0.00000000E+00  0.00000000E+00  0.00000000E+00
  0.00000000E+00  0.00000000E+00  0.00000000E+00
  0.00000000E+00  0.00000000E+00  0.00000000E+00
  0.00000000E+00  0.00000000E+00  0.00000000E+00
  0.00000000E+00  0.00000000E+00  0.00000000E+00
  0.00000000E+00  0.00000000E+00  0.00000000E+00
  0.00000000E+00  0.00000000E+00  0.00000000E+00
  0.00000000E+00  0.00000000E+00  0.00000000E+00
  0.00000000E+00  0.00000000E+00  0.00000000E+00
  0.00000000E+00  0.00000000E+00  0.00000000E+00
  0.00000000E+00  0.00000000E+00  0.00000000E+00
  0.00000000E+00  0.00000000E+00  0.00000000E+00
  0.00000000E+00  0.00000000E+00  0.00000000E+00
  0.00000000E+00  0.00000000E+00  0.00000000E+00
  0.00000000E+00  0.00000000E+00  0.00000000E+00
  0.00000000E+00  0.00000000E+00  0.00000000E+00
  0.00000000E+00  0.00000000E+00  0.00000000E+00
  0.00000000E+00  0.00000000E+00  0.00000000E+00
  0.00000000E+00  0.00000000E+00  0.00000000E+00
  0.00000000E+00  0.00000000E+00  0.00000000E+00
  0.00000000E+00  0.00000000E+00  0.00000000E+00
  0.00000000E+00  0.00000000E+00  0.00000000E+00
  0.00000000E+00  0.00000000E+00  0.00000000E+00
  0.00000000E+00  0.00000000E+00  0.00000000E+00
  0.00000000E+00  0.00000000E+00  0.00000000E+00
  0.00000000E+00  0.00000000E+00  0.00000000E+00
  0.00000000E+00  0.00000000E+00  0.00000000E+00
  0.00000000E+00  0.00000000E+00  0.00000000E+00
  0.00000000E+00  0.00000000E+00  0.00000000E+00
  0.00000000E+00  0.00000000E+00  0.00000000E+00
  0.00000000E+00  0.00000000E+00  0.00000000E+00
  0.00000000E+00  0.00000000E+00  0.00000000E+00
  0.00000000E+00  0.00000000E+00  0.00000000E+00
  0.00000000E+00  0.00000000E+00  0.00000000E+00
  0.00000000E+00  0.00000000E+00  0.00000000E+00
  0.00000000E+00  0.00000000E+00  0.00000000E+00
  0.00000000E+00  0.00000000E+00  0.00000000E+00
  0.00000000E+00  0.00000000E+00  0.00000000E+00
  0.00000000E+00  0.00000000E+00  0.00000000E+00
  0.00000000E+00  0.00000000E+00  0.00000000E+00
  0.00000000E+00  0.00000000E+00  0.00000000E+00
  0.00000000E+00  0.00000000E+00  0.00000000E+00
  0.00000000E+00  0.00000000E+00  0.00000000E+00
  0.00000000E+00  0.00000000E+00  0.00000000E+00
  0.00000000E+00  0.00000000E+00  0.00000000E+00
  0.00000000E+00  0.00000000E+00  0.00000000E+00
  0.00000000E+00  0.00000000E+00  0.00000000E+00
  0.00000000E+00  0.00000000E+00  0.00000000E+00
  0.00000000E+00  0.00000000E+00  0.00000000E+00
  0.00000000E+00  0.00000000E+00  0.00000000E+00
  0.00000000E+00  0.00000000E+00  0.00000000E+00
  0.00000000E+00  0.00000000E+00  0.00000000E+00
  0.00000000E+00  0.00000000E+00  0.00000000E+00
  0.00000000E+00  0.00000000E+00  0.00000000E+00
  0.00000000E+00  0.00000000E+00  0.00000000E+00
  0.00000000E+00  0.00000000E+00  0.00000000E+00
  0.00000000E+00  0.00000000E+00  0.00000000E+00
  0.00000000E+00  0.00000000E+00  0.00000000E+00
  0.00000000E+00  0.00000000E+00  0.00000000E+00
  0.00000000E+00  0.00000000E+00  0.00000000E+00
  0.00000000E+00  0.00000000E+00  0.00000000E+00
  0.00000000E+00  0.00000000E+00  0.00000000E+00
  0.00000000E+00  0.00000000E+00  0.00000000E+00
  0.00000000E+00  0.00000000E+00  0.00000000E+00
  0.00000000E+00  0.00000000E+00  0.00000000E+00
  0.00000000E+00  0.00000000E+00  0.00000000E+00
  0.00000000E+00  0.00000000E+00  0.00000000E+00
  0.00000000E+00  0.00000000E+00  0.00000000E+00
  0.00000000E+00  0.00000000E+00  0.00000000E+00
  0.00000000E+00  0.00000000E+00  0.00000000E+00
  0.00000000E+00  0.00000000E+00  0.00000000E+00
  0.00000000E+00  0.00000000E+00  0.00000000E+00
  0.00000000E+00  0.00000000E+00  0.00000000E+00
  0.00000000E+00  0.00000000E+00  0.00000000E+00
  0.00000000E+00  0.00000000E+00  0.00000000E+00
  0.00000000E+00  0.00000000E+00  0.00000000E+00
  0.00000000E+00  0.00000000E+00  0.00000000E+00
  0.00000000E+00  0.00000000E+00  0.00000000E+00
  0.00000000E+00  0.00000000E+00  0.00000000E+00
  0.00000000E+00  0.00000000E+00  0.00000000E+00
  0.00000000E+00  0.00000000E+00  0.00000000E+00
  0.00000000E+00  0.00000000E+00  0.00000000E+00
  0.00000000E+00  0.00000000E+00  0.00000000E+00
  0.00000000E+00  0.00000000E+00  0.00000000E+00
  0.00000000E+00  0.00000000E+00  0.00000000E+00
  0.00000000E+00  0.00000000E+00  0.00000000E+00
  0.00000000E+00  0.00000000E+00  0.00000000E+00
  0.00000000E+00  0.00000000E+00  0.00000000E+00
  0.00000000E+00  0.00000000E+00  0.00000000E+00
  0.00000000E+00  0.00000000E+00  0.00000000E+00
  0.00000000E+00  0.00000000E+00  0.00000000E+00
  0.00000000E+00  0.00000000E+00  0.00000000E+00
  0.00000000E+00  0.00000000E+00  0.00000000E+00
  0.00000000E+00  0.00000000E+00  0.00000000E+00
  0.00000000E+00  0.00000000E+00  0.00000000E+00
  0.00000000E+00  0.00000000E+00  0.00000000E+00
  0.00000000E+00  0.00000000E+00  0.00000000E+00
  0.00000000E+00  0.00000000E+00  0.00000000E+00
  0.00000000E+00  0.00000000E+00  0.00000000E+00
  0.00000000E+00  0.00000000E+00  0.00000000E+00
  0.00000000E+00  0.00000000E+00  0.00000000E+00
  0.00000000E+00  0.00000000E+00  0.00000000E+00
  0.00000000E+00  0.00000000E+00  0.00000000E+00
  0.00000000E+00  0.00000000E+00  0.00000000E+00
  0.00000000E+00  0.00000000E+00  0.00000000E+00
  0.00000000E+00  0.00000000E+00  0.00000000E+00
  0.00000000E+00  0.00000000E+00  0.00000000E+00
  0.00000000E+00  0.00000000E+00  0.00000000E+00
  0.00000000E+00  0.00000000E+00  0.00000000E+00
  0.00000000E+00  0.00000000E+00  0.00000000E+00
  0.00000000E+00  0.00000000E+00  0.00000000E+00
  0.00000000E+00  0.00000000E+00  0.00000000E+00
  0.00000000E+00  0.00000000E+00  0.00000000E+00
  0.00000000E+00  0.00000000E+00  0.00000000E+00
  0.00000000E+00  0.00000000E+00  0.00000000E+00
  0.00000000E+00  0.00000000E+00  0.00000000E+00
  0.00000000E+00  0.00000000E+00  0.00000000E+00
  0.00000000E+00  0.00000000E+00  0.00000000E+00
  0.00000000E+00  0.00000000E+00  0.00000000E+00
  0.00000000E+00  0.00000000E+00  0.00000000E+00
  0.00000000E+00  0.00000000E+00  0.00000000E+00
  0.00000000E+00  0.00000000E+00  0.00000000E+00
  0.00000000E+00  0.00000000E+00  0.00000000E+00
  0.00000000E+00  0.00000000E+00  0.00000000E+00
  0.00000000E+00  0.00000000E+00  0.00000000E+00
  0.00000000E+00  0.00000000E+00  0.00000000E+00
  0.00000000E+00  0.00000000E+00  0.00000000E+00
  0.00000000E+00  0.00000000E+00  0.00000000E+00
  0.00000000E+00  0.00000000E+00  0.00000000E+00
  0.00000000E+00  0.00000000E+00  0.00000000E+00
  0.00000000E+00  0.00000000E+00  0.00000000E+00
  0.00000000E+00  0.00000000E+00  0.00000000E+00
  0.00000000E+00  0.00000000E+00  0.00000000E+00
  0.00000000E+00  0.00000000E+00  0.00000000E+00
  0.00000000E+00  0.00000000E+00  0.00000000E+00
  0.00000000E+00  0.00000000E+00  0.00000000E+00
  0.00000000E+00  0.00000000E+00  0.00000000E+00
  0.00000000E+00  0.00000000E+00  0.00000000E+00
  0.00000000E+00  0.00000000E+00  0.00000000E+00
  0.00000000E+00  0.00000000E+00  0.00000000E+00
  0.00000000E+00  0.00000000E+00  0.00000000E+00
  0.00000000E+00  0.00000000E+00  0.00000000E+00
  0.00000000E+00  0.00000000E+00  0.00000000E+00
  0.00000000E+00  0.00000000E+00  0.00000000E+00
  0.00000000E+00  0.00000000E+00  0.00000000E+00
  0.00000000E+00  0.00000000E+00  0.00000000E+00
  0.00000000E+00  0.00000000E+00  0.00000000E+00
  0.00000000E+00  0.00000000E+00  0.00000000E+00
  0.00000000E+00  0.00000000E+00  0.00000000E+00
  0.00000000E+00  0.00000000E+00  0.00000000E+00
  0.00000000E+00  0.00000000E+00  0.00000000E+00
  0.00000000E+00  0.00000000E+00  0.00000000E+00
  0.00000000E+00  0.00000000E+00  0.00000000E+00
  0.00000000E+00  0.00000000E+00  0.00000000E+00
  0.00000000E+00  0.00000000E+00  0.00000000E+00
  0.00000000E+00  0.00000000E+00  0.00000000E+00
  0.00000000E+00  0.00000000E+00  0.00000000E+00
  0.00000000E+00  0.00000000E+00  0.00000000E+00
  0.00000000E+00  0.00000000E+00  0.00000000E+00
  0.00000000E+00  0.00000000E+00  0.00000000E+00
  0.00000000E+00  0.00000000E+00  0.00000000E+00
  0.00000000E+00  0.00000000E+00  0.00000000E+00
  0.00000000E+00  0.00000000E+00  0.00000000E+00
  0.00000000E+00  0.00000000E+00  0.00000000E+00
  0.00000000E+00  0.00000000E+00  0.00000000E+00
  0.00000000E+00  0.00000000E+00  0.00000000E+00
  0.00000000E+00  0.00000000E+00  0.00000000E+00
  0.00000000E+00  0.00000000E+00  0.00000000E+00
  0.00000000E+00  0.00000000E+00  0.00000000E+00
  0.00000000E+00  0.00000000E+00  0.00000000E+00
  0.00000000E+00  0.00000000E+00  0.00000000E+00
  0.00000000E+00  0.00000000E+00  0.00000000E+00
  0.00000000E+00  0.00000000E+00  0.00000000E+00
  0.00000000E+00  0.00000000E+00  0.00000000E+00
  0.00000000E+00  0.00000000E+00  0.00000000E+00
  0.00000000E+00  0.00000000E+00  0.00000000E+00
  0.00000000E+00  0.00000000E+00  0.00000000E+00
  0.00000000E+00  0.00000000E+00  0.00000000E+00
  0.00000000E+00  0.00000000E+00  0.00000000E+00
  0.00000000E+00  0.00000000E+00  0.00000000E+00
  0.00000000E+00  0.00000000E+00  0.00000000E+00
  0.00000000E+00  0.00000000E+00  0.00000000E+00
  0.00000000E+00  0.00000000E+00  0.00000000E+00
  0.00000000E+00  0.00000000E+00  0.00000000E+00
  0.00000000E+00  0.00000000E+00  0.00000000E+00
  0.00000000E+00  0.00000000E+00  0.00000000E+00