CuInSe2gb                               
   1.00000000000000     
     9.7266780392896699    0.0000000000000000    0.0000000000000000
     0.0000000000000000    8.4235502764570693    0.0000000000000000
     0.0000000000000000    0.0000000000000000   45.0000000000000000
   Fe   Mn
   281     7
Direct
  0.0611024830999853  0.7097724736770866  0.2122414782007999
  0.3129403301369281  0.7170425719868272  0.8755303380658522
  0.6869181247641403  0.9588647987127162  0.6106456070457662
  0.4383606358008975  0.4584891998040301  0.6107211933718844
  0.4377491089440679  0.2941587093550910  0.2564274620375251
  0.0628136856551240  0.3824254750044640  0.8327866978082468
  0.3118857554000699  0.8815399930523510  0.8327448912080556
  0.4383439880408812  0.6233260794213700  0.6997629110259824
  0.0622771594187994  0.2065910827815550  0.7439135625947192
  0.1862180252855964  0.4593603982905510  0.2120938850148745
  0.5631954390011764  0.2081119907872010  0.4774133788197239
  0.0623789442386547  0.8751813553064696  0.5665891114630858
  0.5629693976072417  0.2173884948088317  0.8752422591098304
  0.8127294600502293  0.5416400881911962  0.1250223818348172
  0.4364631804171432  0.9592511292082082  0.2120500525586110
  0.5623086782064564  0.3742730822595461  0.5664932834563952
  0.8126493432983807  0.0417498922989375  0.3890721456128389
  0.6876958446124882  0.7908602134160759  0.5221889061155146
  0.4382817584328099  0.4578353184986956  0.4775026008527690
  0.4357350952727446  0.9568131307477026  0.7435861182995653
  0.4374845913328965  0.6240394148058985  0.5665352857658518
  0.0624895565289487  0.5415199634504104  0.1250198034035808
  0.3124917901348666  0.0418139174501262  0.1250395729515296
  0.6871938951557066  0.9550870103257780  0.3449740303141023
  0.6875358923752767  0.7868396177597905  0.1248877985430412
  0.0615709940742213  0.3751946859057682  0.3005963160596676
  0.6876963411402010  0.4579829601589082  0.8752298425799946
  0.4363106008838402  0.4591944797328003  0.2120041889691756
  0.8124092583635232  0.3754120860906188  0.4334652629768741
  0.8144314875137632  0.3750395049210676  0.6993981779105150
  0.5605485034245568  0.5440348705287258  0.6550277103899755
  0.9374258799092695  0.1245545113000896  0.4333908381150360
  0.5629191451934158  0.5437516302454313  0.2563714736460017
  0.6875474704562107  0.4550411645893805  0.3449693701484257
  0.1886026974686923  0.6177889516287353  0.1673684874246561
  0.1882901624224598  0.7919642032867734  0.7878241986454512
  0.4389986686049092  0.1242516465163483  0.6992927242387050
  0.9368051005811229  0.6252468690294605  0.3004094392095177
  0.3131950491877759  0.2159257249006166  0.8754669764219202
  0.3120864169547628  0.8747401890636582  0.5664849706007937
  0.8126907164320246  0.2163329379058116  0.8753603397442088
  0.8107127471953468  0.5453228139020718  0.6550043197333878
  0.5624368257067002  0.5414188670344289  0.1249766355826184
  0.5637272766104579  0.8674106861829363  0.1672678839268542
  0.1879043368636606  0.2938030264323707  0.2563498406548345
  0.8121376429886504  0.8749806490899035  0.4335181443927009
  0.5635034929449469  0.3753816178150637  0.6996742015226235
  0.0624007088920662  0.0419307952416914  0.1249469577091125
  0.3109888400509864  0.5447257622712900  0.6550849188596675
  0.5627619823909025  0.2051405323831795  0.3450235988835171
  0.1883473323965447  0.9588154006910031  0.6106343382034514
  0.3115643613639582  0.3753996620238668  0.3004335417494204
  0.4358162466578696  0.7946167809683917  0.6549727389750045
  0.6866599037586840  0.4557534712430307  0.7436007199322734
  0.0637729272901058  0.3672640156005461  0.1672101795986759
  0.6891121258634711  0.6241762183171347  0.6995424662668859
  0.3124869355538706  0.5416716422334423  0.3891631747139447
  0.0646553239841061  0.7163944548616674  0.8752990972129004
  0.9370733556637690  0.6331790458816060  0.8332905087569269
  0.3124235707407163  0.5397805080186403  0.7879866602515563
  0.3112624293070861  0.2096455198916618  0.2121752626649804
  0.0629801064209095  0.7087156445440485  0.4777242371749029
  0.5611209489970089  0.2097925725287224  0.2121617539397362
  0.3117924555858614  0.2055953794193714  0.7435300957956618
  0.0649035606155536  0.3741458610322653  0.6996571425032392
  0.1874431122559929  0.6309975560108468  0.8323413799945911
  0.0631969306386120  0.0395692247270999  0.7879462073774296
  0.4375617308732497  0.1245071582214522  0.5665750688828199
  0.9356981180208487  0.2947009821906187  0.6549062226688461
  0.8114035677691431  0.2096820985595893  0.2122181907890618
  0.9364202439925244  0.9589376637317236  0.2119775710826705
  0.9374705985097201  0.6239628129570234  0.5664758183155009
  0.8117236738506105  0.3829979787954611  0.8329756789871489
  0.1893871310303040  0.6250310471308272  0.6993929354868262
  0.5650783402185849  0.8745915154207978  0.6997202821655439
  0.6860601453805061  0.2944607405030256  0.6550030952606265
  0.3135973528630549  0.2085618278559079  0.6107134431165870
  0.4375911867482800  0.4561950206692449  0.7434932604762398
  0.4379798418407285  0.7917106855341659  0.3892247054597853
  0.6868455627891960  0.9558390548568279  0.7436261963630123
  0.8111642757893138  0.7097760724082084  0.2122556919772719
  0.8137307440467431  0.7097059693232444  0.6107074743219618
  0.4375360174786304  0.7865845982613833  0.1249025041995331
  0.3114917195219287  0.7054783777663735  0.7433293529236376
  0.3141865589495979  0.0386955759650176  0.7878782428634988
  0.8126666605389786  0.5417489321070725  0.3891836836032574
  0.6873416604382344  0.2910731628880396  0.5223097652051660
  0.6875118750269059  0.7918896126471440  0.7876986521563474
  0.1876954602803952  0.7939550771104276  0.2563885117025354
  0.6885879811271721  0.1175550889100619  0.1673683410802405
  0.6881500090735774  0.9585947742515558  0.4775610309217048
  0.9370061187651927  0.9552310359086843  0.3449324580355715
  0.8124728325566251  0.0408797660526525  0.5222135985438656
  0.6876218248254629  0.6246805278731103  0.4334365408025668
  0.4372891355517255  0.4551743584202687  0.3449440525321099
  0.8111043048756924  0.2053276381242903  0.7437937223718565
  0.4360674441343672  0.9591732014871625  0.8754172274757908
  0.5626425218648453  0.8750811105063436  0.5665983332129596
  0.8122490314092348  0.0418492945007567  0.1249908480603180
  0.4367414492410512  0.6252063980941798  0.3004206777507362
  0.5619185490250443  0.2060522959309345  0.7444719099060243
  0.6875237805513419  0.4582186978168033  0.6109455676795468
  0.5611388000626795  0.3802196954774954  0.8323342225596438
  0.8118770850313254  0.3754782101131016  0.3003393088755082
  0.1875448736588452  0.2916566301663455  0.3891069551435686
  0.8139642193492667  0.5398030449693426  0.7880273562887158
  0.1872486037981333  0.7909412380995583  0.5222305387948170
  0.3119252636423105  0.8751992041026145  0.3005158919530171
  0.1864177228093203  0.9587960597423703  0.2119855260547882
  0.1857274699559030  0.4555919628021507  0.7435610396122158
  0.4372314338133798  0.2910062289769764  0.5222481129360782
  0.0626044517408724  0.7051906588070834  0.3450020534174374
  0.1858719391829174  0.7950660534872986  0.6550585952503457
  0.4385015542131775  0.7918808703725895  0.7878624837809207
  0.6872167488764789  0.1248541238370248  0.4334034029437485
  0.9373163234154274  0.7910045393019607  0.5222511208216168
  0.6885559063137157  0.6178893993571397  0.1672909199144823
  0.8126112718017576  0.7051408976881401  0.3449079115051967
  0.9358342886278604  0.4555116855092349  0.7434930369128308
  0.1874388965143131  0.4550838599140957  0.3449343271318004
  0.5627000440679913  0.5401662136221519  0.7879919734483168
  0.5638260655939017  0.3675559213639795  0.1672521813047287
  0.5628279648746005  0.7049565427106470  0.3449116672988244
  0.5615889118107709  0.3750755640658173  0.3005530798526848
  0.1882214201008667  0.4590275326332489  0.8753971334005658
  0.1887632683953665  0.1179293965172877  0.1673977007085201
  0.4376163030982186  0.2916615290978850  0.7877030272195280
  0.6877392263721053  0.7938982477274213  0.2563650393261789
  0.9357664732886470  0.1328859369887916  0.8329049326781993
  0.4383181571686703  0.9583295537922784  0.4775806249778706
  0.5601165671558678  0.7155215261196757  0.8751788149224468
  0.1881847199588819  0.4586307301553182  0.4776099512621884
  0.9373204683936709  0.2866913268689332  0.1248645413209246
  0.3126357969833907  0.0417869847500955  0.3891547951343804
  0.0604303708700853  0.0447574572255911  0.6550749919557604
  0.5622418835378549  0.3754749534328155  0.4334471013877077
  0.9374379737867643  0.6246770504022769  0.4333976672770457
  0.3138160062831538  0.3676384373245380  0.1672666603141011
  0.9372632778712243  0.1245683611796606  0.6989709009512280
  0.5604072020176706  0.0448816600907085  0.6550617868536913
  0.5625283438861463  0.5411975671208519  0.5222735485609572
  0.1869053680168193  0.1249385337508037  0.3003775806880730
  0.4388708411912444  0.1176962891674375  0.1673600575925233
  0.6867895941781945  0.6250983652662756  0.3004012321557881
  0.9369421420093390  0.1250782578399827  0.3003591916092842
  0.8123360189076501  0.3746872959667682  0.5663322170659244
  0.0616568492186786  0.8753376695013259  0.3005667282930354
  0.1874869700681313  0.6239387925564973  0.5664256058900740
  0.9387218007501533  0.7919992183322406  0.7877400552126336
  0.3118678051670799  0.3816400324999602  0.8329294509859074
  0.9372839648563277  0.4585583057311430  0.8752093396870645
  0.4370335501710970  0.6314437176066290  0.8326184153957716
  0.0629232917772219  0.2052358694060263  0.3449951901412588
  0.1880724543729750  0.9586160737184383  0.8754057712588950
  0.9374837450694595  0.7865996108634254  0.1249128301342171
  0.6878355008764484  0.7916359086704026  0.3892117240860326
  0.9359632966504211  0.7944567519588583  0.6551182958615005
  0.9388578101931815  0.1176426293493715  0.1673002682784820
  0.4359038553191261  0.2950034739505008  0.6550946883835049
  0.0614187150407875  0.2097926559643925  0.2121440034850028
  0.6863373319176072  0.9589573920117255  0.2121595159747740
  0.5632189795354350  0.7088604345088920  0.6107202000007158
  0.8143117713377002  0.8746408744943616  0.6993819995494326
  0.9392003512401380  0.6236686864215568  0.6996218519484588
  0.1886240498507117  0.1237160357838003  0.6995314676112251
  0.9379896358844837  0.4586313693836557  0.4775657123691766
  0.8129631359125358  0.2082418716034998  0.6109545367513649
  0.1875228153706091  0.6247254475278516  0.4334505963238561
  0.4369219630623145  0.1252854739979626  0.3003461153680423
  0.6868750199616714  0.1250305969360336  0.3003548474592865
  0.5625483527876295  0.5418478153931205  0.3891074132159053
  0.8125198504839678  0.2052333595579915  0.3449357022533724
  0.4373796286670014  0.4585458253677945  0.8752856786982527
  0.5626529485072164  0.8812691473336616  0.8328373030973982
  0.3134779409542382  0.2080130025808549  0.4774837363736799
  0.1879938154142768  0.9590331803471128  0.4776993312145621
  0.0614860966253257  0.8802087106680290  0.8326966173681402
  0.0624763921091789  0.5410136940022717  0.5223050049653333
  0.9378670001116357  0.9590082003263553  0.4777598608698552
  0.0633877721629434  0.7086549524172997  0.6106459995326907
  0.5623770128723484  0.0409152197299152  0.5223074645375609
  0.6884173625542587  0.2922422271349431  0.7876938016754279
  0.8138138983385751  0.3674252879229392  0.1672449584404835
  0.4370951828450563  0.1251852418771125  0.4334017108508017
  0.0629097021643141  0.2088161423169428  0.4776583936310762
  0.3111085543954986  0.0450089915381401  0.6551634010092587
  0.4374552993856927  0.7905830438811497  0.5221687526781436
  0.1867128818401418  0.1335653375689697  0.8328372005597160
  0.1871690947795204  0.2864888438711180  0.1248910153748422
  0.9374938141956082  0.4553179849644304  0.3449927072043946
  0.3136254618138485  0.8675271514603404  0.1672891671479632
  0.3111280069171564  0.7098387270544503  0.2121641807062851
  0.9385895689911868  0.6176754014980419  0.1673010763426866
  0.1874231039850908  0.4581008021438205  0.6109291099660772
  0.0640383118971654  0.8748684440225527  0.6992836526987780
  0.0609400031314059  0.5448384579712036  0.6548589293857459
  0.3122589126658601  0.5417053629827759  0.1250138875926812
  0.9379715955783178  0.7913405868800626  0.3892510945195584
  0.9383469629138803  0.2922978734980339  0.7876981808989333
  0.1857435852578025  0.2944443239859215  0.6550851586806031
  0.9375116652367147  0.9580686962556526  0.6108009120268002
  0.8120814827128434  0.7055952041833861  0.7434635781236566
  0.6878347225028405  0.2941925958559766  0.2563998231680765
  0.0609319883099724  0.7054321754203705  0.7437297914415995
  0.6863470501846046  0.4592105865603293  0.2120511462702845
  0.8132226055296279  0.2080048893419053  0.4774096465988797
  0.5630488826297113  0.7085602514961746  0.4777476674934485
  0.0636374009922299  0.8675931533059069  0.1673131172969509
  0.9371667063096782  0.2909932720414430  0.5222703036767794
  0.6856082658142058  0.7942239145645270  0.6550729732090267
  0.0624506381487855  0.8748289102655696  0.4333829081538030
  0.0651332259468591  0.2147831591647889  0.8752528802617152
  0.8106200115826487  0.0453938532310325  0.6552057617625729
  0.5624661279663546  0.0418308287364241  0.1250370648530557
  0.3123283635405554  0.3755020627596219  0.4335102934792292
  0.3127644344704917  0.3747598509247151  0.5663018764114645
  0.3132079473124995  0.7084800312776847  0.4776352426348018
  0.0624401395632986  0.0408574106174229  0.5223308904159276
  0.3142773617813274  0.8749912260864097  0.6993378564956255
  0.0627414732575432  0.5437362120277478  0.2564049298767547
  0.6873385805404669  0.1327621687841100  0.8329635294591741
  0.8127612197918747  0.0436909165246519  0.2564429957925310
  0.1871987615012284  0.1243910957166458  0.4334220427842820
  0.6889393848934181  0.1237960036009329  0.6993839031342377
  0.1874779547994615  0.2908811775774864  0.5222345855075086
  0.4376439202133449  0.7938495788665636  0.2563943946499802
  0.8130509258590810  0.5437460136632963  0.2563609137064669
  0.0640597107572396  0.2097083088613683  0.6107052905040000
  0.1875350613743069  0.7917365614385315  0.3891743612700422
  0.3123916862366546  0.5411155586702653  0.5222448315567942
  0.8136772104884384  0.8676356169700001  0.1672952292045136
  0.6874760490078998  0.2917207030403169  0.3890270784344644
  0.1868905376832800  0.1239532895252694  0.5665173528888670
  0.6869388492494791  0.9594773246080057  0.8753182177088319
  0.6866919347052298  0.1234869352923284  0.5664389688226782
  0.4370139854895543  0.9549895776109785  0.3449376540451913
  0.1857575724430324  0.9574197634233069  0.7437682642558175
  0.9378400057758109  0.7939585087732072  0.2564086006618805
  0.5624025352052359  0.8752254167153100  0.4333709676545707
  0.3122912533564290  0.8748639638246455  0.4334340948113400
  0.8123105625436290  0.5407699747585551  0.5223299111641249
  0.9363262569663923  0.4590243139558478  0.2120482929128962
  0.3129194465926163  0.5437763705539171  0.2563500005247016
  0.5625079523952505  0.0417192577705642  0.3891842203888215
  0.9385340434368489  0.4596148235043337  0.6107234940755463
  0.0624220607191589  0.0417119327437012  0.3890740595645792
  0.0624851619035919  0.5418585780508161  0.3891100599628062
  0.4376216356622274  0.2917373766433418  0.3889949622592185
  0.6882713532951944  0.4579249792940402  0.4774607442011451
  0.0622843231216618  0.3745247942360310  0.5663795938632786
  0.5612708955400016  0.7097563470498538  0.2122156608575778
  0.9376321991311976  0.2940391931339735  0.2564096059087641
  0.1869693332376855  0.6251174386100395  0.3003685731608493
  0.1869680923769644  0.9553321032944869  0.3449403203905445
  0.5615938892062614  0.8755285647856723  0.3005486311883179
  0.0622115515632358  0.3747921533099398  0.4334225682637851
  0.3127387138959811  0.7052137312063852  0.3449672481011072
  0.3124349530336510  0.2050840693807689  0.3450032237153975
  0.9375592864850903  0.1246915891949825  0.5665404082144503
  0.8139397012846484  0.0415321808529185  0.7877312098568952
  0.5627443736966885  0.0438392876245329  0.2564072351255784
  0.1871950535481033  0.7865809546309618  0.1248961682022826
  0.0627003555628062  0.0439862949415915  0.2564093641026238
  0.6876765393167069  0.6240454191268846  0.5664548475928156
  0.4386037114228795  0.6176170665830121  0.1673251192551145
  0.3123692366444915  0.0406759546772010  0.5222222201646214
  0.6872091833223778  0.2865247417224638  0.1248944007573986
  0.8130886855923883  0.7087765069213264  0.4776667830702813
  0.4364700869531729  0.1328443211948182  0.8328047474585260
  0.3143551734028126  0.3741913894103278  0.6994634296318311
  0.6869229859995541  0.6338277609165549  0.8330819937295764
  0.5618251280402157  0.7060346198533217  0.7436432616404307
  0.9379041601461630  0.2914496274312626  0.3891548105456875
  0.9380115962657266  0.9583972409611891  0.8753704262515513
  0.9368896439948564  0.9557282209858058  0.7435955468071059
  0.8123846132472677  0.8746451158181031  0.5666352343280595
  0.8114992810598328  0.8751581821239673  0.3005489971929605
  0.3129656134364489  0.0439140606242520  0.2564022107230320
  0.4370907030531075  0.2865393677271146  0.1248914079492331
  0.3138152683810774  0.7095965895888376  0.6107426487510096
  0.4371483782386882  0.6246813503121965  0.4334070658604373
  0.1878713122079535  0.2929970846892984  0.7876110150531535
  0.5641523788321334  0.0382241837826603  0.7878600420098247
  0.0644420719176088  0.5388578022834183  0.7878763271715922
  0.8120960291653191  0.8803687495771952  0.8337135936328461
  0.8142133217655457  0.7164295028589143  0.8749606124672947
  0.5649072269750673  0.2098600087354406  0.6105928692850309
  0.4373012161593236  0.9560685456494501  0.6108602517435183
 
  0.00000000E+00  0.00000000E+00  0.00000000E+00
  0.00000000E+00  0.00000000E+00  0.00000000E+00
  0.00000000E+00  0.00000000E+00  0.00000000E+00
  0.00000000E+00  0.00000000E+00  0.00000000E+00
  0.00000000E+00  0.00000000E+00  0.00000000E+00
  0.00000000E+00  0.00000000E+00  0.00000000E+00
  0.00000000E+00  0.00000000E+00  0.00000000E+00
  0.00000000E+00  0.00000000E+00  0.00000000E+00
  0.00000000E+00  0.00000000E+00  0.00000000E+00
  0.00000000E+00  0.00000000E+00  0.00000000E+00
  0.00000000E+00  0.00000000E+00  0.00000000E+00
  0.00000000E+00  0.00000000E+00  0.00000000E+00
  0.00000000E+00  0.00000000E+00  0.00000000E+00
  0.00000000E+00  0.00000000E+00  0.00000000E+00
  0.00000000E+00  0.00000000E+00  0.00000000E+00
  0.00000000E+00  0.00000000E+00  0.00000000E+00
  0.00000000E+00  0.00000000E+00  0.00000000E+00
  0.00000000E+00  0.00000000E+00  0.00000000E+00
  0.00000000E+00  0.00000000E+00  0.00000000E+00
  0.00000000E+00  0.00000000E+00  0.00000000E+00
  0.00000000E+00  0.00000000E+00  0.00000000E+00
  0.00000000E+00  0.00000000E+00  0.00000000E+00
  0.00000000E+00  0.00000000E+00  0.00000000E+00
  0.00000000E+00  0.00000000E+00  0.00000000E+00
  0.00000000E+00  0.00000000E+00  0.00000000E+00
  0.00000000E+00  0.00000000E+00  0.00000000E+00
  0.00000000E+00  0.00000000E+00  0.00000000E+00
  0.00000000E+00  0.00000000E+00  0.00000000E+00
  0.00000000E+00  0.00000000E+00  0.00000000E+00
  0.00000000E+00  0.00000000E+00  0.00000000E+00
  0.00000000E+00  0.00000000E+00  0.00000000E+00
  0.00000000E+00  0.00000000E+00  0.00000000E+00
  0.00000000E+00  0.00000000E+00  0.00000000E+00
  0.00000000E+00  0.00000000E+00  0.00000000E+00
  0.00000000E+00  0.00000000E+00  0.00000000E+00
  0.00000000E+00  0.00000000E+00  0.00000000E+00
  0.00000000E+00  0.00000000E+00  0.00000000E+00
  0.00000000E+00  0.00000000E+00  0.00000000E+00
  0.00000000E+00  0.00000000E+00  0.00000000E+00
  0.00000000E+00  0.00000000E+00  0.00000000E+00
  0.00000000E+00  0.00000000E+00  0.00000000E+00
  0.00000000E+00  0.00000000E+00  0.00000000E+00
  0.00000000E+00  0.00000000E+00  0.00000000E+00
  0.00000000E+00  0.00000000E+00  0.00000000E+00
  0.00000000E+00  0.00000000E+00  0.00000000E+00
  0.00000000E+00  0.00000000E+00  0.00000000E+00
  0.00000000E+00  0.00000000E+00  0.00000000E+00
  0.00000000E+00  0.00000000E+00  0.00000000E+00
  0.00000000E+00  0.00000000E+00  0.00000000E+00
  0.00000000E+00  0.00000000E+00  0.00000000E+00
  0.00000000E+00  0.00000000E+00  0.00000000E+00
  0.00000000E+00  0.00000000E+00  0.00000000E+00
  0.00000000E+00  0.00000000E+00  0.00000000E+00
  0.00000000E+00  0.00000000E+00  0.00000000E+00
  0.00000000E+00  0.00000000E+00  0.00000000E+00
  0.00000000E+00  0.00000000E+00  0.00000000E+00
  0.00000000E+00  0.00000000E+00  0.00000000E+00
  0.00000000E+00  0.00000000E+00  0.00000000E+00
  0.00000000E+00  0.00000000E+00  0.00000000E+00
  0.00000000E+00  0.00000000E+00  0.00000000E+00
  0.00000000E+00  0.00000000E+00  0.00000000E+00
  0.00000000E+00  0.00000000E+00  0.00000000E+00
  0.00000000E+00  0.00000000E+00  0.00000000E+00
  0.00000000E+00  0.00000000E+00  0.00000000E+00
  0.00000000E+00  0.00000000E+00  0.00000000E+00
  0.00000000E+00  0.00000000E+00  0.00000000E+00
  0.00000000E+00  0.00000000E+00  0.00000000E+00
  0.00000000E+00  0.00000000E+00  0.00000000E+00
  0.00000000E+00  0.00000000E+00  0.00000000E+00
  0.00000000E+00  0.00000000E+00  0.00000000E+00
  0.00000000E+00  0.00000000E+00  0.00000000E+00
  0.00000000E+00  0.00000000E+00  0.00000000E+00
  0.00000000E+00  0.00000000E+00  0.00000000E+00
  0.00000000E+00  0.00000000E+00  0.00000000E+00
  0.00000000E+00  0.00000000E+00  0.00000000E+00
  0.00000000E+00  0.00000000E+00  0.00000000E+00
  0.00000000E+00  0.00000000E+00  0.00000000E+00
  0.00000000E+00  0.00000000E+00  0.00000000E+00
  0.00000000E+00  0.00000000E+00  0.00000000E+00
  0.00000000E+00  0.00000000E+00  0.00000000E+00
  0.00000000E+00  0.00000000E+00  0.00000000E+00
  0.00000000E+00  0.00000000E+00  0.00000000E+00
  0.00000000E+00  0.00000000E+00  0.00000000E+00
  0.00000000E+00  0.00000000E+00  0.00000000E+00
  0.00000000E+00  0.00000000E+00  0.00000000E+00
  0.00000000E+00  0.00000000E+00  0.00000000E+00
  0.00000000E+00  0.00000000E+00  0.00000000E+00
  0.00000000E+00  0.00000000E+00  0.00000000E+00
  0.00000000E+00  0.00000000E+00  0.00000000E+00
  0.00000000E+00  0.00000000E+00  0.00000000E+00
  0.00000000E+00  0.00000000E+00  0.00000000E+00
  0.00000000E+00  0.00000000E+00  0.00000000E+00
  0.00000000E+00  0.00000000E+00  0.00000000E+00
  0.00000000E+00  0.00000000E+00  0.00000000E+00
  0.00000000E+00  0.00000000E+00  0.00000000E+00
  0.00000000E+00  0.00000000E+00  0.00000000E+00
  0.00000000E+00  0.00000000E+00  0.00000000E+00
  0.00000000E+00  0.00000000E+00  0.00000000E+00
  0.00000000E+00  0.00000000E+00  0.00000000E+00
  0.00000000E+00  0.00000000E+00  0.00000000E+00
  0.00000000E+00  0.00000000E+00  0.00000000E+00
  0.00000000E+00  0.00000000E+00  0.00000000E+00
  0.00000000E+00  0.00000000E+00  0.00000000E+00
  0.00000000E+00  0.00000000E+00  0.00000000E+00
  0.00000000E+00  0.00000000E+00  0.00000000E+00
  0.00000000E+00  0.00000000E+00  0.00000000E+00
  0.00000000E+00  0.00000000E+00  0.00000000E+00
  0.00000000E+00  0.00000000E+00  0.00000000E+00
  0.00000000E+00  0.00000000E+00  0.00000000E+00
  0.00000000E+00  0.00000000E+00  0.00000000E+00
  0.00000000E+00  0.00000000E+00  0.00000000E+00
  0.00000000E+00  0.00000000E+00  0.00000000E+00
  0.00000000E+00  0.00000000E+00  0.00000000E+00
  0.00000000E+00  0.00000000E+00  0.00000000E+00
  0.00000000E+00  0.00000000E+00  0.00000000E+00
  0.00000000E+00  0.00000000E+00  0.00000000E+00
  0.00000000E+00  0.00000000E+00  0.00000000E+00
  0.00000000E+00  0.00000000E+00  0.00000000E+00
  0.00000000E+00  0.00000000E+00  0.00000000E+00
  0.00000000E+00  0.00000000E+00  0.00000000E+00
  0.00000000E+00  0.00000000E+00  0.00000000E+00
  0.00000000E+00  0.00000000E+00  0.00000000E+00
  0.00000000E+00  0.00000000E+00  0.00000000E+00
  0.00000000E+00  0.00000000E+00  0.00000000E+00
  0.00000000E+00  0.00000000E+00  0.00000000E+00
  0.00000000E+00  0.00000000E+00  0.00000000E+00
  0.00000000E+00  0.00000000E+00  0.00000000E+00
  0.00000000E+00  0.00000000E+00  0.00000000E+00
  0.00000000E+00  0.00000000E+00  0.00000000E+00
  0.00000000E+00  0.00000000E+00  0.00000000E+00
  0.00000000E+00  0.00000000E+00  0.00000000E+00
  0.00000000E+00  0.00000000E+00  0.00000000E+00
  0.00000000E+00  0.00000000E+00  0.00000000E+00
  0.00000000E+00  0.00000000E+00  0.00000000E+00
  0.00000000E+00  0.00000000E+00  0.00000000E+00
  0.00000000E+00  0.00000000E+00  0.00000000E+00
  0.00000000E+00  0.00000000E+00  0.00000000E+00
  0.00000000E+00  0.00000000E+00  0.00000000E+00
  0.00000000E+00  0.00000000E+00  0.00000000E+00
  0.00000000E+00  0.00000000E+00  0.00000000E+00
  0.00000000E+00  0.00000000E+00  0.00000000E+00
  0.00000000E+00  0.00000000E+00  0.00000000E+00
  0.00000000E+00  0.00000000E+00  0.00000000E+00
  0.00000000E+00  0.00000000E+00  0.00000000E+00
  0.00000000E+00  0.00000000E+00  0.00000000E+00
  0.00000000E+00  0.00000000E+00  0.00000000E+00
  0.00000000E+00  0.00000000E+00  0.00000000E+00
  0.00000000E+00  0.00000000E+00  0.00000000E+00
  0.00000000E+00  0.00000000E+00  0.00000000E+00
  0.00000000E+00  0.00000000E+00  0.00000000E+00
  0.00000000E+00  0.00000000E+00  0.00000000E+00
  0.00000000E+00  0.00000000E+00  0.00000000E+00
  0.00000000E+00  0.00000000E+00  0.00000000E+00
  0.00000000E+00  0.00000000E+00  0.00000000E+00
  0.00000000E+00  0.00000000E+00  0.00000000E+00
  0.00000000E+00  0.00000000E+00  0.00000000E+00
  0.00000000E+00  0.00000000E+00  0.00000000E+00
  0.00000000E+00  0.00000000E+00  0.00000000E+00
  0.00000000E+00  0.00000000E+00  0.00000000E+00
  0.00000000E+00  0.00000000E+00  0.00000000E+00
  0.00000000E+00  0.00000000E+00  0.00000000E+00
  0.00000000E+00  0.00000000E+00  0.00000000E+00
  0.00000000E+00  0.00000000E+00  0.00000000E+00
  0.00000000E+00  0.00000000E+00  0.00000000E+00
  0.00000000E+00  0.00000000E+00  0.00000000E+00
  0.00000000E+00  0.00000000E+00  0.00000000E+00
  0.00000000E+00  0.00000000E+00  0.00000000E+00
  0.00000000E+00  0.00000000E+00  0.00000000E+00
  0.00000000E+00  0.00000000E+00  0.00000000E+00
  0.00000000E+00  0.00000000E+00  0.00000000E+00
  0.00000000E+00  0.00000000E+00  0.00000000E+00
  0.00000000E+00  0.00000000E+00  0.00000000E+00
  0.00000000E+00  0.00000000E+00  0.00000000E+00
  0.00000000E+00  0.00000000E+00  0.00000000E+00
  0.00000000E+00  0.00000000E+00  0.00000000E+00
  0.00000000E+00  0.00000000E+00  0.00000000E+00
  0.00000000E+00  0.00000000E+00  0.00000000E+00
  0.00000000E+00  0.00000000E+00  0.00000000E+00
  0.00000000E+00  0.00000000E+00  0.00000000E+00
  0.00000000E+00  0.00000000E+00  0.00000000E+00
  0.00000000E+00  0.00000000E+00  0.00000000E+00
  0.00000000E+00  0.00000000E+00  0.00000000E+00
  0.00000000E+00  0.00000000E+00  0.00000000E+00
  0.00000000E+00  0.00000000E+00  0.00000000E+00
  0.00000000E+00  0.00000000E+00  0.00000000E+00
  0.00000000E+00  0.00000000E+00  0.00000000E+00
  0.00000000E+00  0.00000000E+00  0.00000000E+00
  0.00000000E+00  0.00000000E+00  0.00000000E+00
  0.00000000E+00  0.00000000E+00  0.00000000E+00
  0.00000000E+00  0.00000000E+00  0.00000000E+00
  0.00000000E+00  0.00000000E+00  0.00000000E+00
  0.00000000E+00  0.00000000E+00  0.00000000E+00
  0.00000000E+00  0.00000000E+00  0.00000000E+00
  0.00000000E+00  0.00000000E+00  0.00000000E+00
  0.00000000E+00  0.00000000E+00  0.00000000E+00
  0.00000000E+00  0.00000000E+00  0.00000000E+00
  0.00000000E+00  0.00000000E+00  0.00000000E+00
  0.00000000E+00  0.00000000E+00  0.00000000E+00
  0.00000000E+00  0.00000000E+00  0.00000000E+00
  0.00000000E+00  0.00000000E+00  0.00000000E+00
  0.00000000E+00  0.00000000E+00  0.00000000E+00
  0.00000000E+00  0.00000000E+00  0.00000000E+00
  0.00000000E+00  0.00000000E+00  0.00000000E+00
  0.00000000E+00  0.00000000E+00  0.00000000E+00
  0.00000000E+00  0.00000000E+00  0.00000000E+00
  0.00000000E+00  0.00000000E+00  0.00000000E+00
  0.00000000E+00  0.00000000E+00  0.00000000E+00
  0.00000000E+00  0.00000000E+00  0.00000000E+00
  0.00000000E+00  0.00000000E+00  0.00000000E+00
  0.00000000E+00  0.00000000E+00  0.00000000E+00
  0.00000000E+00  0.00000000E+00  0.00000000E+00
  0.00000000E+00  0.00000000E+00  0.00000000E+00
  0.00000000E+00  0.00000000E+00  0.00000000E+00
  0.00000000E+00  0.00000000E+00  0.00000000E+00
  0.00000000E+00  0.00000000E+00  0.00000000E+00
  0.00000000E+00  0.00000000E+00  0.00000000E+00
  0.00000000E+00  0.00000000E+00  0.00000000E+00
  0.00000000E+00  0.00000000E+00  0.00000000E+00
  0.00000000E+00  0.00000000E+00  0.00000000E+00
  0.00000000E+00  0.00000000E+00  0.00000000E+00
  0.00000000E+00  0.00000000E+00  0.00000000E+00
  0.00000000E+00  0.00000000E+00  0.00000000E+00
  0.00000000E+00  0.00000000E+00  0.00000000E+00
  0.00000000E+00  0.00000000E+00  0.00000000E+00
  0.00000000E+00  0.00000000E+00  0.00000000E+00
  0.00000000E+00  0.00000000E+00  0.00000000E+00
  0.00000000E+00  0.00000000E+00  0.00000000E+00
  0.00000000E+00  0.00000000E+00  0.00000000E+00
  0.00000000E+00  0.00000000E+00  0.00000000E+00
  0.00000000E+00  0.00000000E+00  0.00000000E+00
  0.00000000E+00  0.00000000E+00  0.00000000E+00
  0.00000000E+00  0.00000000E+00  0.00000000E+00
  0.00000000E+00  0.00000000E+00  0.00000000E+00
  0.00000000E+00  0.00000000E+00  0.00000000E+00
  0.00000000E+00  0.00000000E+00  0.00000000E+00
  0.00000000E+00  0.00000000E+00  0.00000000E+00
  0.00000000E+00  0.00000000E+00  0.00000000E+00
  0.00000000E+00  0.00000000E+00  0.00000000E+00
  0.00000000E+00  0.00000000E+00  0.00000000E+00
  0.00000000E+00  0.00000000E+00  0.00000000E+00
  0.00000000E+00  0.00000000E+00  0.00000000E+00
  0.00000000E+00  0.00000000E+00  0.00000000E+00
  0.00000000E+00  0.00000000E+00  0.00000000E+00
  0.00000000E+00  0.00000000E+00  0.00000000E+00
  0.00000000E+00  0.00000000E+00  0.00000000E+00
  0.00000000E+00  0.00000000E+00  0.00000000E+00
  0.00000000E+00  0.00000000E+00  0.00000000E+00