FeMn_288_15                             
    1.000000000000000     
     9.7266779999999997    0.0000000000000000    0.0000000000000000
     0.0000000000000000    8.4235500000000005    0.0000000000000000
     0.0000000000000000    0.0000000000000000   45.0000000000000000
   Fe   Mn
   273    15
Direct
  0.3122220856308926  0.7052627368349664  0.4786572632982067
  0.4376645545239604  0.7775276886976121  0.1242026061224947
  0.0626524488140991  0.0277561390056998  0.1241652978745590
  0.9370427658127453  0.9664726376176702  0.8331445669009863
  0.1879311015612554  0.9513532027153465  0.3452261843173746
  0.3127648070122570  0.2018425835121795  0.3453175395164211
  0.3124747184255784  0.0276789335021635  0.1242302668705126
  0.9373952735053653  0.6312966363828153  0.7883329927823962
  0.5624075739395964  0.6969048717940780  0.2113641540622412
  0.9376278826250404  0.6121556381865930  0.1664738150594610
  0.8126669874596004  0.5499085473303101  0.8756181099079915
  0.8127310909839752  0.5461461582792931  0.7440860707681642
  0.9377696980555984  0.4566837600646796  0.5657431003364550
  0.5629623316333353  0.3754905709924163  0.6548932984874084
  0.4379797083994859  0.6257214944370489  0.6550019179711064
  0.0616645648044906  0.5502758945112018  0.8755936418177683
  0.6873777413385918  0.3000142957673219  0.8753730643407949
  0.8125956214600879  0.8668940512927479  0.3002825646431520
  0.5623626806484850  0.7108686783827556  0.6995320453577751
  0.6874012555239635  0.4546370042270373  0.4786938666446636
  0.4377689592493033  0.9606543983617910  0.6996334479850436
  0.5628935418052209  0.5278431660348399  0.1241910988629480
  0.3125927416875645  0.5415336284303282  0.6107756509426288
  0.8126612262153081  0.0413643894470315  0.6108358851993079
  0.6873054621077974  0.2816810169191902  0.2559106636286032
  0.3124932001477492  0.3711021267948825  0.4344534399775784
  0.8125835413087709  0.6969122402764036  0.2114737131624554
  0.1877311068938063  0.9663525514783623  0.8331619004240948
  0.1881403739212804  0.2819781490826231  0.2559758738838419
  0.8128280474239411  0.2049992517697211  0.4787204205214095
  0.8126285256756107  0.1966993358447393  0.2113410379684100
  0.4374522663072252  0.2914736213656874  0.6107966245130833
  0.1871775268447060  0.8004610753047340  0.8753345828440622
  0.6877512304423995  0.6172155640183407  0.3002930430733712
  0.8125543682639802  0.3754992395601421  0.6548945362713126
  0.3126544172162722  0.0319588809183851  0.2559048356652983
  0.4374119571232413  0.6307657823731957  0.7883528298206260
  0.1876506681186660  0.4549017625172839  0.4786845833129899
  0.3126382738065105  0.8726945947013531  0.5217080612034743
  0.5622892618295633  0.7162818982685604  0.8331400540810033
  0.5628656734094237  0.0460096384185470  0.7441069012920445
  0.4377902011192673  0.4470868680077579  0.2114411619266242
  0.5622559167038018  0.0412154219185748  0.6107736341855216
  0.6875652774246411  0.7911297708687947  0.6107737401309999
  0.0622578648694834  0.2167650495532082  0.8332589091789263
  0.0630400593812865  0.2017702404638737  0.3451720718721277
  0.3121579351497683  0.5367368107544316  0.3893579455058190
  0.5625875736909975  0.5364336673377851  0.3894875846105820
  0.4376370274434034  0.6170566920294223  0.3003330806763910
  0.9375814118168374  0.2911922961278295  0.6108133320129550
  0.4376839410744456  0.1121111407382081  0.1665480922344310
  0.3126361296306128  0.3759727582812225  0.6548487071380878
  0.5623689910505970  0.2068652317896146  0.5657762388789807
  0.9375695010775627  0.9468882206846890  0.2114006010512215
  0.5619288355365905  0.8813786114975384  0.7883239384456938
  0.6875772071501696  0.6312400669228309  0.7884410156066649
  0.6877662122980001  0.6247943060862463  0.6550182529247179
  0.1877613360913535  0.4606830748787556  0.6996088420887474
  0.8123162085212018  0.2111942561941140  0.6996180300375683
  0.0620040998811644  0.7066462559261913  0.5657061428588106
  0.1876173791675666  0.7961026751525200  0.7440232308229832
  0.6874545664263475  0.2778098151402386  0.1241868396031628
  0.1879743322138535  0.7815519473967983  0.2559473423318214
  0.9373776273295041  0.4550158704403516  0.4786893234700194
  0.4375828219534278  0.7961951174375241  0.7440336361517684
  0.6877380191147735  0.1212925203596763  0.4344609551575407
  0.6878257349493930  0.2963252121446962  0.7440613368884028
  0.4372862327516479  0.6224303850851117  0.5216102492966906
  0.9375387840890874  0.1119669451116444  0.1664373858859561
  0.9378075555211346  0.9516860792267974  0.3452733986260156
  0.4373566393839613  0.4662184716529561  0.8330746490942765
  0.8126054029649604  0.5278137844351944  0.1241638582924612
  0.1874675750755340  0.4570141538007789  0.5658145184337269
  0.4376716008229254  0.7911480656310708  0.6107481431361531
  0.6874575250850712  0.1173265193793764  0.3003675669161143
  0.9374125486590354  0.2864601746505175  0.3894419993535263
  0.6874414930969107  0.1260705439174259  0.6549755290756720
  0.3125698603027707  0.2072917656625123  0.5657783543637300
  0.1874324995570504  0.6226704316659264  0.5216686217690423
  0.0624106063908473  0.5413490864582686  0.6107694151998913
  0.3123168848831477  0.2156309764228009  0.8332124359744888
  0.5630322361751532  0.0279348529586802  0.1241917759461690
  0.5622621640148521  0.8714030858111385  0.4343174519830543
  0.5629718606665228  0.3614104799653571  0.1664520760732044
  0.6878190834188077  0.7779349020325251  0.1241886635028448
  0.0625914122261688  0.3666279005685078  0.3003343282037618
  0.9369430986603445  0.7994643622469685  0.8754418808180663
  0.3123555914936231  0.8810746239558934  0.7883104699002991
  0.5616699004018495  0.5504422142655672  0.8753452618555453
  0.1876171109500480  0.4523367491345097  0.3453429435576764
  0.1875405759968178  0.2916010350011771  0.6107451810923169
  0.4375754704330516  0.4607126231174031  0.6996143456657246
  0.1873029988349164  0.1228279540666404  0.5216907397290497
  0.6875285615148163  0.7862923405181660  0.3894277441403979
  0.0625739817038429  0.8710002593586981  0.4343044020714809
  0.3123831515633291  0.7112943090574710  0.6996789428513490
  0.1873688249939655  0.1116775920105214  0.1663795054796607
  0.0621943806462018  0.5458750054825056  0.7440322279732658
  0.8125933440396232  0.3710138002094218  0.4344733267665717
  0.1872360766117488  0.6259790866240703  0.6550080423769911
  0.1874193242762789  0.1257954194708349  0.6548848064874551
  0.4367463429820070  0.9569324613094679  0.5658605730209102
  0.0627997040659490  0.5360554677033138  0.3894446274805925
  0.9374241402370297  0.9607929063529048  0.6996869295158471
  0.4372127040137906  0.9551207239068543  0.4786582993095901
  0.5627879963534064  0.8617795605292233  0.1666215279807107
  0.1871821785997803  0.4656696647497318  0.8331332619907247
  0.1876698048301498  0.4470292065065580  0.2114414147354193
  0.9375386524742841  0.1165415324424930  0.3002966500226373
  0.4374381839025740  0.1210972642475784  0.4345508576951359
  0.4375251600953209  0.9515808590198213  0.3452114550888057
  0.3122179589596463  0.0363938320757824  0.3893393443997466
  0.0623968314657703  0.1968552430178879  0.2113742709462820
  0.4371879289593392  0.3003704511048439  0.8754062888107692
  0.1872437751278407  0.6308321549644466  0.7883918276833946
  0.3121229110847311  0.0508464917923900  0.8754666773137546
  0.9376163993804179  0.4515547021829751  0.3452823606010373
  0.3125593355181693  0.0416166090332747  0.6107714844780214
  0.1871313693857959  0.1314465855998056  0.7883691737331564
  0.1874833507750227  0.9551051717846014  0.4787022769601935
  0.0626542329206174  0.0504732743127415  0.8754146273401051
  0.1874503585680101  0.7777826459180168  0.1241460153650073
  0.4376267343655607  0.2956692089756093  0.7439244518283927
  0.5623076960120142  0.2048422466231310  0.4786903431242776
  0.8126796604498416  0.7164489029398172  0.8332472410336980
  0.1876795175083935  0.6211703100846854  0.4345229590178561
  0.8125253774221238  0.2063330221445213  0.5658108951182176
  0.3126440062452872  0.8667292945066605  0.3002498047739593
  0.1873148810453325  0.2864703540277667  0.3894749953498866
  0.6873888062569682  0.8004819298493560  0.8754009692565570
  0.8126767867984335  0.7018885167853655  0.3451418218116338
  0.3122278684976122  0.2048734025999082  0.4787324805359998
  0.8126102095468872  0.8757127686902959  0.6549512340226038
  0.1874315028553729  0.6165403581072981  0.3003309869913182
  0.9377096778957490  0.2775396716322050  0.1242564170822088
  0.9375869614750453  0.1310861423687397  0.7884172828612867
  0.0623997741482488  0.3617389472153471  0.1664757929707283
  0.0623955090877880  0.0315302959275930  0.2558640467971685
  0.6873719101897235  0.2910072765541780  0.6106933919024816
  0.9372322994852960  0.1227539244131278  0.5217405837507605
  0.6875908743749236  0.7960169606086007  0.7440325687834012
  0.3124107934332890  0.7068972497588428  0.5657813328196795
  0.9371622330592333  0.7917795524679335  0.6106404509560592
  0.0624314042571727  0.2068012415159715  0.5657494613340104
  0.0621986932954934  0.7051275317385451  0.4786388910752231
  0.1880076580069143  0.1167519971009681  0.3003384327428598
  0.4370832807820741  0.8000301613411666  0.8754131650504758
  0.0626149159379162  0.0367139526232172  0.3894440110084375
  0.0626579825186147  0.8725721887351924  0.5216677003739465
  0.8122381255119079  0.8706850807277774  0.4347755894185311
  0.8121975394425910  0.2164788865046825  0.8331844449928888
  0.0626590960695698  0.3807360560623781  0.7882884553007813
  0.3129083883296740  0.6971098297017164  0.2114105432752547
  0.6871313230907802  0.9522624218359285  0.3452682970305769
  0.4377374444855709  0.1259116023369889  0.6549578148906493
  0.3126269430168411  0.5457480333662308  0.7440864859853985
  0.1875769445821223  0.2778402301209517  0.1241450309525510
  0.4374705014664920  0.1316471639452443  0.7883976159482985
  0.4377029379901851  0.1226996902481895  0.5217142496579409
  0.6873403807233246  0.4563983198653571  0.5658548476775392
  0.5625546793448404  0.3676388951459705  0.3003245119718457
  0.4376546437571320  0.6122930147145308  0.1664633878715608
  0.0618514333061479  0.7159157938441666  0.8331994803530068
  0.4378370092648426  0.9472033170525578  0.2114641897953944
  0.5629014631644599  0.8757237943588326  0.6548587591840822
  0.6877562053252353  0.1113828925261683  0.1663652037849149
  0.1873932156645514  0.9469731161260999  0.2114033432672542
  0.9376466165083032  0.6206941043989249  0.4343968882151738
  0.6876124976154060  0.6229372398080375  0.5217337524775212
  0.5628103948502310  0.0322433452056380  0.2558726300763143
  0.3123721480666088  0.7019321727059620  0.3451106651247765
  0.9379522126198165  0.9565412177172798  0.5658427085577843
  0.9375727822845169  0.6169110142598815  0.3003636879832952
  0.5623822235671415  0.3711349324961395  0.4345321816638803
  0.1869687467218566  0.3002777886891758  0.8754426399277146
  0.0625049182408063  0.5322460779256851  0.2560230536695388
  0.8129070918416277  0.5359303888570049  0.3892904916026608
  0.4372489488551931  0.4570131024495724  0.5659708148521359
  0.9371193670938494  0.3003433203396271  0.8755364493777856
  0.8124869364591600  0.3727855446764554  0.5217341904430316
  0.8123720732654917  0.5409561751820814  0.6107580530316263
  0.5625694827921263  0.5411333104056937  0.6108152719294564
  0.9377990447978803  0.9553672193574153  0.4786932579979075
  0.6875034990242165  0.4521214952365104  0.3452780191065923
  0.3123412619420322  0.8620405562309214  0.1664359986038419
  0.5627082953206002  0.7066838210597044  0.5655401082250910
  0.0625610995079571  0.5278198823500818  0.1241519959398285
  0.8125410602500667  0.8618685332363546  0.1665545874891302
  0.5619061875689885  0.0507937666785842  0.8754759794873537
  0.0625219289892333  0.6969055613771518  0.2113615677926087
  0.6872835086711794  0.4658309471731846  0.8331573396736283
  0.4372530888000691  0.9659068296341560  0.8330964160134700
  0.5628533406019816  0.5460635463860740  0.7440045186277326
  0.4372587177866472  0.6206668126184371  0.4345465577916302
  0.5621051736864616  0.2023467168878901  0.3451647631966571
  0.3124636467971804  0.3728308336115718  0.5217506720391735
  0.3125151417924412  0.3616772701534229  0.1665212076278578
  0.4376803510129141  0.1171332332913627  0.3002885520906040
  0.8123379720254074  0.5324374502162369  0.2559521969450687
  0.9375649478908705  0.6228744481126911  0.5217216466962605
  0.5624013664819737  0.2158702207259674  0.8332112761977679
  0.1873921931692603  0.7914308341470504  0.6106697045124378
  0.9379393661642075  0.1265834789121471  0.6550862897704487
  0.1874493515650059  0.9607301047997098  0.6996160365337829
  0.1874124947944680  0.1210973095264366  0.4344639329557149
  0.5627570151344986  0.1965725008594191  0.2113510227525953
  0.9375934672157931  0.2964519105384423  0.7440551248631565
  0.3128717604861628  0.3673033266298733  0.3004983745938353
  0.1876715979929849  0.6118959245661492  0.1664552448692993
  0.6875658865507762  0.7822386080269300  0.2559083491169207
  0.5621623382129270  0.8728988227236417  0.5217188925826955
  0.8124114649173093  0.0318597668340727  0.2558885483946409
  0.6876610109551720  0.9466995264196979  0.2113253080124684
  0.8122294456056025  0.3807386647376308  0.7883087747421132
  0.6875531772779858  0.4467583272907737  0.2113925601787295
  0.8127073616056826  0.0460993794769470  0.7440792001343897
  0.0627037624321965  0.8668441117380131  0.3004281446150253
  0.0625833528843841  0.8618644161544308  0.1665828210736147
  0.1874852200775419  0.9569474239467364  0.5657858890371104
  0.0627799674997026  0.7108949405733430  0.6994896304670412
  0.5626661339451434  0.2107181728998623  0.6996994536934374
  0.5623595327302129  0.7022259211162120  0.3453031395582065
  0.3121908716896122  0.7162455153013463  0.8331518519022802
  0.4375232626766962  0.4523622959494236  0.3452224057726606
  0.8129059623024272  0.7064860390350417  0.5659022915619623
  0.1874459201525577  0.7863448774885382  0.3894271418596517
  0.0628380027505961  0.7018430887043781  0.3452536642710465
  0.9376168016779766  0.6254312845244816  0.6548793568202407
  0.9375100116945547  0.7958593065662762  0.7439882056692366
  0.0627388082401153  0.3727998878412231  0.5217162791918026
  0.0622488382209920  0.8761175337340757  0.6548664261845389
  0.5624360162425032  0.3810106587518328  0.7883796663500102
  0.4374674854718842  0.4545855534128152  0.4786788581805817
  0.0625011933407794  0.2048272634024793  0.4787195978217135
  0.0623255866428397  0.3758388987199048  0.6548945234514009
  0.8123860453625985  0.7109159089799589  0.6995877844006562
  0.6874151384211342  0.6116178393357149  0.1664820423818609
  0.1872271158060862  0.2957769980018310  0.7439855843964941
  0.3128506293337772  0.8708388617126190  0.4344333367246729
  0.4377357935391943  0.7816239955155175  0.2559101429293583
  0.6873354793910159  0.9608697512966693  0.6996476346293240
  0.6873670506821141  0.9550299213317862  0.4788599828759919
  0.5621151362965729  0.3728921533617663  0.5216773150996997
  0.8124235862428206  0.0276135042642113  0.1241830771679861
  0.9373615018581103  0.4469223475010025  0.2114234370506613
  0.5624452837716345  0.8674015659750800  0.3003711248213677
  0.6874181553565191  0.1311288369902751  0.7883099587199311
  0.9375405918561357  0.7776397457716766  0.1242322781679907
  0.6873595924417518  0.6207691611929641  0.4343717020419226
  0.0626420846159127  0.0416262545207872  0.6108103655444843
  0.6876161174699092  0.1231814737233701  0.5217596236989829
  0.3124318300649422  0.5277590458319650  0.1241907301059078
  0.3127211630786855  0.5507628994424635  0.8752985018291322
  0.6877100883914485  0.2858211018255073  0.3894867866334914
  0.0625209241708298  0.2106765450798947  0.6996638593439812
  0.3123534482839981  0.2102431930460587  0.6996126896763345
  0.9373680839281433  0.7860578018876261  0.3893041579609915
  0.6872785665278597  0.4608465872269910  0.6995696360241616
  0.8127330585693316  0.7046384064397865  0.4785879642603973
  0.0628687978608042  0.8811159442071653  0.7883677894963379
  0.0626269145192255  0.3711602998403424  0.4345421692551488
  0.3128392796078456  0.1968336035500981  0.2114478979382195
  0.0621326175558003  0.0460461106075080  0.7441079764109056
  0.9373422043202954  0.1211475483841338  0.4344608508466687
  0.3122222485441679  0.3809740930241231  0.7882907517781466
  0.6871089666906220  0.9662023513743131  0.8332222008819863
  0.8124342390327668  0.3620220486123896  0.1665855355127019
  0.8118969703523741  0.0500362642248278  0.8754255815284356
  0.8124816478746774  0.3670880666663958  0.3003648215135533
  0.4377266674855657  0.2777449626507291  0.1241700059208739
  0.5625313027465376  0.5315794481565098  0.2559605675906200
  0.4372515547703792  0.2863042048573929  0.3894082426006770
  0.8125849165158960  0.0364981710243468  0.3894857365087962
  0.9372871009803759  0.4666045981725821  0.8338466675883450
  0.6872230402432097  0.9571176200603784  0.5661619930857099
  0.3126901447783924  0.8760267107656687  0.6548028716658546
  0.8123787384104280  0.2014899399415061  0.3452886260456895
  0.9372707909139417  0.4607339396862876  0.6996431560001114
  0.8122419071374497  0.8804809920263499  0.7881309708481590
  0.5627429549819413  0.7049292621208298  0.4787941917237382
  0.4377840306606886  0.2814313752954276  0.2558846773506153
  0.5632495959781156  0.0370118877896891  0.3891837708096025
  0.4372837362192268  0.7858003210423080  0.3893220343238200
  0.9372690584290494  0.2815833873691100  0.2558402433685465
  0.9373524704779311  0.7824963694031002  0.2558995617094133
  0.8123214030470641  0.8728268110006202  0.5214960552738728
  0.3126178319536934  0.5321555663031140  0.2558477868725059
  0.3125742269841024  0.0459055778989467  0.7441580094952757
 
  0.00000000E+00  0.00000000E+00  0.00000000E+00
  0.00000000E+00  0.00000000E+00  0.00000000E+00
  0.00000000E+00  0.00000000E+00  0.00000000E+00
  0.00000000E+00  0.00000000E+00  0.00000000E+00
  0.00000000E+00  0.00000000E+00  0.00000000E+00
  0.00000000E+00  0.00000000E+00  0.00000000E+00
  0.00000000E+00  0.00000000E+00  0.00000000E+00
  0.00000000E+00  0.00000000E+00  0.00000000E+00
  0.00000000E+00  0.00000000E+00  0.00000000E+00
  0.00000000E+00  0.00000000E+00  0.00000000E+00
  0.00000000E+00  0.00000000E+00  0.00000000E+00
  0.00000000E+00  0.00000000E+00  0.00000000E+00
  0.00000000E+00  0.00000000E+00  0.00000000E+00
  0.00000000E+00  0.00000000E+00  0.00000000E+00
  0.00000000E+00  0.00000000E+00  0.00000000E+00
  0.00000000E+00  0.00000000E+00  0.00000000E+00
  0.00000000E+00  0.00000000E+00  0.00000000E+00
  0.00000000E+00  0.00000000E+00  0.00000000E+00
  0.00000000E+00  0.00000000E+00  0.00000000E+00
  0.00000000E+00  0.00000000E+00  0.00000000E+00
  0.00000000E+00  0.00000000E+00  0.00000000E+00
  0.00000000E+00  0.00000000E+00  0.00000000E+00
  0.00000000E+00  0.00000000E+00  0.00000000E+00
  0.00000000E+00  0.00000000E+00  0.00000000E+00
  0.00000000E+00  0.00000000E+00  0.00000000E+00
  0.00000000E+00  0.00000000E+00  0.00000000E+00
  0.00000000E+00  0.00000000E+00  0.00000000E+00
  0.00000000E+00  0.00000000E+00  0.00000000E+00
  0.00000000E+00  0.00000000E+00  0.00000000E+00
  0.00000000E+00  0.00000000E+00  0.00000000E+00
  0.00000000E+00  0.00000000E+00  0.00000000E+00
  0.00000000E+00  0.00000000E+00  0.00000000E+00
  0.00000000E+00  0.00000000E+00  0.00000000E+00
  0.00000000E+00  0.00000000E+00  0.00000000E+00
  0.00000000E+00  0.00000000E+00  0.00000000E+00
  0.00000000E+00  0.00000000E+00  0.00000000E+00
  0.00000000E+00  0.00000000E+00  0.00000000E+00
  0.00000000E+00  0.00000000E+00  0.00000000E+00
  0.00000000E+00  0.00000000E+00  0.00000000E+00
  0.00000000E+00  0.00000000E+00  0.00000000E+00
  0.00000000E+00  0.00000000E+00  0.00000000E+00
  0.00000000E+00  0.00000000E+00  0.00000000E+00
  0.00000000E+00  0.00000000E+00  0.00000000E+00
  0.00000000E+00  0.00000000E+00  0.00000000E+00
  0.00000000E+00  0.00000000E+00  0.00000000E+00
  0.00000000E+00  0.00000000E+00  0.00000000E+00
  0.00000000E+00  0.00000000E+00  0.00000000E+00
  0.00000000E+00  0.00000000E+00  0.00000000E+00
  0.00000000E+00  0.00000000E+00  0.00000000E+00
  0.00000000E+00  0.00000000E+00  0.00000000E+00
  0.00000000E+00  0.00000000E+00  0.00000000E+00
  0.00000000E+00  0.00000000E+00  0.00000000E+00
  0.00000000E+00  0.00000000E+00  0.00000000E+00
  0.00000000E+00  0.00000000E+00  0.00000000E+00
  0.00000000E+00  0.00000000E+00  0.00000000E+00
  0.00000000E+00  0.00000000E+00  0.00000000E+00
  0.00000000E+00  0.00000000E+00  0.00000000E+00
  0.00000000E+00  0.00000000E+00  0.00000000E+00
  0.00000000E+00  0.00000000E+00  0.00000000E+00
  0.00000000E+00  0.00000000E+00  0.00000000E+00
  0.00000000E+00  0.00000000E+00  0.00000000E+00
  0.00000000E+00  0.00000000E+00  0.00000000E+00
  0.00000000E+00  0.00000000E+00  0.00000000E+00
  0.00000000E+00  0.00000000E+00  0.00000000E+00
  0.00000000E+00  0.00000000E+00  0.00000000E+00
  0.00000000E+00  0.00000000E+00  0.00000000E+00
  0.00000000E+00  0.00000000E+00  0.00000000E+00
  0.00000000E+00  0.00000000E+00  0.00000000E+00
  0.00000000E+00  0.00000000E+00  0.00000000E+00
  0.00000000E+00  0.00000000E+00  0.00000000E+00
  0.00000000E+00  0.00000000E+00  0.00000000E+00
  0.00000000E+00  0.00000000E+00  0.00000000E+00
  0.00000000E+00  0.00000000E+00  0.00000000E+00
  0.00000000E+00  0.00000000E+00  0.00000000E+00
  0.00000000E+00  0.00000000E+00  0.00000000E+00
  0.00000000E+00  0.00000000E+00  0.00000000E+00
  0.00000000E+00  0.00000000E+00  0.00000000E+00
  0.00000000E+00  0.00000000E+00  0.00000000E+00
  0.00000000E+00  0.00000000E+00  0.00000000E+00
  0.00000000E+00  0.00000000E+00  0.00000000E+00
  0.00000000E+00  0.00000000E+00  0.00000000E+00
  0.00000000E+00  0.00000000E+00  0.00000000E+00
  0.00000000E+00  0.00000000E+00  0.00000000E+00
  0.00000000E+00  0.00000000E+00  0.00000000E+00
  0.00000000E+00  0.00000000E+00  0.00000000E+00
  0.00000000E+00  0.00000000E+00  0.00000000E+00
  0.00000000E+00  0.00000000E+00  0.00000000E+00
  0.00000000E+00  0.00000000E+00  0.00000000E+00
  0.00000000E+00  0.00000000E+00  0.00000000E+00
  0.00000000E+00  0.00000000E+00  0.00000000E+00
  0.00000000E+00  0.00000000E+00  0.00000000E+00
  0.00000000E+00  0.00000000E+00  0.00000000E+00
  0.00000000E+00  0.00000000E+00  0.00000000E+00
  0.00000000E+00  0.00000000E+00  0.00000000E+00
  0.00000000E+00  0.00000000E+00  0.00000000E+00
  0.00000000E+00  0.00000000E+00  0.00000000E+00
  0.00000000E+00  0.00000000E+00  0.00000000E+00
  0.00000000E+00  0.00000000E+00  0.00000000E+00
  0.00000000E+00  0.00000000E+00  0.00000000E+00
  0.00000000E+00  0.00000000E+00  0.00000000E+00
  0.00000000E+00  0.00000000E+00  0.00000000E+00
  0.00000000E+00  0.00000000E+00  0.00000000E+00
  0.00000000E+00  0.00000000E+00  0.00000000E+00
  0.00000000E+00  0.00000000E+00  0.00000000E+00
  0.00000000E+00  0.00000000E+00  0.00000000E+00
  0.00000000E+00  0.00000000E+00  0.00000000E+00
  0.00000000E+00  0.00000000E+00  0.00000000E+00
  0.00000000E+00  0.00000000E+00  0.00000000E+00
  0.00000000E+00  0.00000000E+00  0.00000000E+00
  0.00000000E+00  0.00000000E+00  0.00000000E+00
  0.00000000E+00  0.00000000E+00  0.00000000E+00
  0.00000000E+00  0.00000000E+00  0.00000000E+00
  0.00000000E+00  0.00000000E+00  0.00000000E+00
  0.00000000E+00  0.00000000E+00  0.00000000E+00
  0.00000000E+00  0.00000000E+00  0.00000000E+00
  0.00000000E+00  0.00000000E+00  0.00000000E+00
  0.00000000E+00  0.00000000E+00  0.00000000E+00
  0.00000000E+00  0.00000000E+00  0.00000000E+00
  0.00000000E+00  0.00000000E+00  0.00000000E+00
  0.00000000E+00  0.00000000E+00  0.00000000E+00
  0.00000000E+00  0.00000000E+00  0.00000000E+00
  0.00000000E+00  0.00000000E+00  0.00000000E+00
  0.00000000E+00  0.00000000E+00  0.00000000E+00
  0.00000000E+00  0.00000000E+00  0.00000000E+00
  0.00000000E+00  0.00000000E+00  0.00000000E+00
  0.00000000E+00  0.00000000E+00  0.00000000E+00
  0.00000000E+00  0.00000000E+00  0.00000000E+00
  0.00000000E+00  0.00000000E+00  0.00000000E+00
  0.00000000E+00  0.00000000E+00  0.00000000E+00
  0.00000000E+00  0.00000000E+00  0.00000000E+00
  0.00000000E+00  0.00000000E+00  0.00000000E+00
  0.00000000E+00  0.00000000E+00  0.00000000E+00
  0.00000000E+00  0.00000000E+00  0.00000000E+00
  0.00000000E+00  0.00000000E+00  0.00000000E+00
  0.00000000E+00  0.00000000E+00  0.00000000E+00
  0.00000000E+00  0.00000000E+00  0.00000000E+00
  0.00000000E+00  0.00000000E+00  0.00000000E+00
  0.00000000E+00  0.00000000E+00  0.00000000E+00
  0.00000000E+00  0.00000000E+00  0.00000000E+00
  0.00000000E+00  0.00000000E+00  0.00000000E+00
  0.00000000E+00  0.00000000E+00  0.00000000E+00
  0.00000000E+00  0.00000000E+00  0.00000000E+00
  0.00000000E+00  0.00000000E+00  0.00000000E+00
  0.00000000E+00  0.00000000E+00  0.00000000E+00
  0.00000000E+00  0.00000000E+00  0.00000000E+00
  0.00000000E+00  0.00000000E+00  0.00000000E+00
  0.00000000E+00  0.00000000E+00  0.00000000E+00
  0.00000000E+00  0.00000000E+00  0.00000000E+00
  0.00000000E+00  0.00000000E+00  0.00000000E+00
  0.00000000E+00  0.00000000E+00  0.00000000E+00
  0.00000000E+00  0.00000000E+00  0.00000000E+00
  0.00000000E+00  0.00000000E+00  0.00000000E+00
  0.00000000E+00  0.00000000E+00  0.00000000E+00
  0.00000000E+00  0.00000000E+00  0.00000000E+00
  0.00000000E+00  0.00000000E+00  0.00000000E+00
  0.00000000E+00  0.00000000E+00  0.00000000E+00
  0.00000000E+00  0.00000000E+00  0.00000000E+00
  0.00000000E+00  0.00000000E+00  0.00000000E+00
  0.00000000E+00  0.00000000E+00  0.00000000E+00
  0.00000000E+00  0.00000000E+00  0.00000000E+00
  0.00000000E+00  0.00000000E+00  0.00000000E+00
  0.00000000E+00  0.00000000E+00  0.00000000E+00
  0.00000000E+00  0.00000000E+00  0.00000000E+00
  0.00000000E+00  0.00000000E+00  0.00000000E+00
  0.00000000E+00  0.00000000E+00  0.00000000E+00
  0.00000000E+00  0.00000000E+00  0.00000000E+00
  0.00000000E+00  0.00000000E+00  0.00000000E+00
  0.00000000E+00  0.00000000E+00  0.00000000E+00
  0.00000000E+00  0.00000000E+00  0.00000000E+00
  0.00000000E+00  0.00000000E+00  0.00000000E+00
  0.00000000E+00  0.00000000E+00  0.00000000E+00
  0.00000000E+00  0.00000000E+00  0.00000000E+00
  0.00000000E+00  0.00000000E+00  0.00000000E+00
  0.00000000E+00  0.00000000E+00  0.00000000E+00
  0.00000000E+00  0.00000000E+00  0.00000000E+00
  0.00000000E+00  0.00000000E+00  0.00000000E+00
  0.00000000E+00  0.00000000E+00  0.00000000E+00
  0.00000000E+00  0.00000000E+00  0.00000000E+00
  0.00000000E+00  0.00000000E+00  0.00000000E+00
  0.00000000E+00  0.00000000E+00  0.00000000E+00
  0.00000000E+00  0.00000000E+00  0.00000000E+00
  0.00000000E+00  0.00000000E+00  0.00000000E+00
  0.00000000E+00  0.00000000E+00  0.00000000E+00
  0.00000000E+00  0.00000000E+00  0.00000000E+00
  0.00000000E+00  0.00000000E+00  0.00000000E+00
  0.00000000E+00  0.00000000E+00  0.00000000E+00
  0.00000000E+00  0.00000000E+00  0.00000000E+00
  0.00000000E+00  0.00000000E+00  0.00000000E+00
  0.00000000E+00  0.00000000E+00  0.00000000E+00
  0.00000000E+00  0.00000000E+00  0.00000000E+00
  0.00000000E+00  0.00000000E+00  0.00000000E+00
  0.00000000E+00  0.00000000E+00  0.00000000E+00
  0.00000000E+00  0.00000000E+00  0.00000000E+00
  0.00000000E+00  0.00000000E+00  0.00000000E+00
  0.00000000E+00  0.00000000E+00  0.00000000E+00
  0.00000000E+00  0.00000000E+00  0.00000000E+00
  0.00000000E+00  0.00000000E+00  0.00000000E+00
  0.00000000E+00  0.00000000E+00  0.00000000E+00
  0.00000000E+00  0.00000000E+00  0.00000000E+00
  0.00000000E+00  0.00000000E+00  0.00000000E+00
  0.00000000E+00  0.00000000E+00  0.00000000E+00
  0.00000000E+00  0.00000000E+00  0.00000000E+00
  0.00000000E+00  0.00000000E+00  0.00000000E+00
  0.00000000E+00  0.00000000E+00  0.00000000E+00
  0.00000000E+00  0.00000000E+00  0.00000000E+00
  0.00000000E+00  0.00000000E+00  0.00000000E+00
  0.00000000E+00  0.00000000E+00  0.00000000E+00
  0.00000000E+00  0.00000000E+00  0.00000000E+00
  0.00000000E+00  0.00000000E+00  0.00000000E+00
  0.00000000E+00  0.00000000E+00  0.00000000E+00
  0.00000000E+00  0.00000000E+00  0.00000000E+00
  0.00000000E+00  0.00000000E+00  0.00000000E+00
  0.00000000E+00  0.00000000E+00  0.00000000E+00
  0.00000000E+00  0.00000000E+00  0.00000000E+00
  0.00000000E+00  0.00000000E+00  0.00000000E+00
  0.00000000E+00  0.00000000E+00  0.00000000E+00
  0.00000000E+00  0.00000000E+00  0.00000000E+00
  0.00000000E+00  0.00000000E+00  0.00000000E+00
  0.00000000E+00  0.00000000E+00  0.00000000E+00
  0.00000000E+00  0.00000000E+00  0.00000000E+00
  0.00000000E+00  0.00000000E+00  0.00000000E+00
  0.00000000E+00  0.00000000E+00  0.00000000E+00
  0.00000000E+00  0.00000000E+00  0.00000000E+00
  0.00000000E+00  0.00000000E+00  0.00000000E+00
  0.00000000E+00  0.00000000E+00  0.00000000E+00
  0.00000000E+00  0.00000000E+00  0.00000000E+00
  0.00000000E+00  0.00000000E+00  0.00000000E+00
  0.00000000E+00  0.00000000E+00  0.00000000E+00
  0.00000000E+00  0.00000000E+00  0.00000000E+00
  0.00000000E+00  0.00000000E+00  0.00000000E+00
  0.00000000E+00  0.00000000E+00  0.00000000E+00
  0.00000000E+00  0.00000000E+00  0.00000000E+00
  0.00000000E+00  0.00000000E+00  0.00000000E+00
  0.00000000E+00  0.00000000E+00  0.00000000E+00
  0.00000000E+00  0.00000000E+00  0.00000000E+00
  0.00000000E+00  0.00000000E+00  0.00000000E+00
  0.00000000E+00  0.00000000E+00  0.00000000E+00
  0.00000000E+00  0.00000000E+00  0.00000000E+00
  0.00000000E+00  0.00000000E+00  0.00000000E+00
  0.00000000E+00  0.00000000E+00  0.00000000E+00
  0.00000000E+00  0.00000000E+00  0.00000000E+00
  0.00000000E+00  0.00000000E+00  0.00000000E+00
  0.00000000E+00  0.00000000E+00  0.00000000E+00
  0.00000000E+00  0.00000000E+00  0.00000000E+00
  0.00000000E+00  0.00000000E+00  0.00000000E+00
  0.00000000E+00  0.00000000E+00  0.00000000E+00
  0.00000000E+00  0.00000000E+00  0.00000000E+00