FeMn_288_15                             
    1.000000000000000     
     9.7266779999999997    0.0000000000000000    0.0000000000000000
     0.0000000000000000    8.4235500000000005    0.0000000000000000
     0.0000000000000000    0.0000000000000000   45.0000000000000000
   Fe   Mn
   273    15
Direct
  0.3122980877855199  0.7065165712799978  0.4786821150518260
  0.4375988842518021  0.7766391692148090  0.1237192043383432
  0.0631212078264425  0.0277944830476304  0.1237000035297109
  0.9363983547876013  0.9690759549053184  0.8337012867983273
  0.1874206998177910  0.9513814083305372  0.3451555628429889
  0.3121849588172934  0.2013885295412594  0.3450966569824275
  0.3122735597355455  0.0271956162837217  0.1237934025564733
  0.9378967029590508  0.6295933411411767  0.7886900993355107
  0.5621875567451919  0.6984304135254518  0.2111462768453810
  0.9378969740594199  0.6096822937238352  0.1662534533981134
  0.8127728102712017  0.5488618751072861  0.8763344938132402
  0.8118529627909655  0.5458415465040731  0.7444081969387364
  0.9373507333829270  0.4564634693479053  0.5654652804686466
  0.5619190236220967  0.3762768173100780  0.6551336948219132
  0.4365903421736266  0.6266258952662418  0.6549253529161463
  0.0620839996565963  0.5492360491062717  0.8763166013984977
  0.6868354453802117  0.3019677173468645  0.8763084863594578
  0.8129885975214977  0.8674980955680313  0.3000942421385315
  0.5629591872585836  0.7106734972680379  0.6997994781409856
  0.6872841691077787  0.4556896478105204  0.4786394799813381
  0.4389298050997246  0.9603437284833346  0.6998674590347312
  0.5631190689208071  0.5275163396185856  0.1237091916194759
  0.3127347097704348  0.5411639306484490  0.6108506235443031
  0.8131214442383060  0.0403166701421606  0.6106063342601662
  0.6875611730129231  0.2816544178532431  0.2556616972272383
  0.3121651548198812  0.3709766450373537  0.4346532685466980
  0.8122350763318263  0.6984752973398041  0.2112395030338599
  0.1870048598154309  0.9686690223296947  0.8335781441463012
  0.1885604587570652  0.2827872866595281  0.2557724113150433
  0.8129117080271456  0.2064826157776262  0.4786048364440966
  0.8123724401993518  0.1986836700719389  0.2111819813074325
  0.4376992752801689  0.2910522477747711  0.6107799687532737
  0.1878729895069050  0.8026956590026959  0.8761740206888183
  0.6879595632006876  0.6174313841699294  0.2999472643915271
  0.8116048772054815  0.3764546886383214  0.6550198041769004
  0.3125823914125623  0.0325325521964431  0.2556861816459113
  0.4381995547417246  0.6294382311404978  0.7888147146559200
  0.1876545866082404  0.4565224411682834  0.4786479039046992
  0.3127909911616741  0.8712581447907163  0.5214559884793144
  0.5612598766746612  0.7191463473082602  0.8336350878048072
  0.5624435408233079  0.0456447607424317  0.7442444116898013
  0.4375372954025104  0.4479205377053587  0.2111669931676528
  0.5629621204535593  0.0404453272236100  0.6106664763976913
  0.6885171085675180  0.7908316067672829  0.6108514183879500
  0.0615032592859003  0.2200780155299831  0.8338361101676363
  0.0623637956739657  0.2012025245757616  0.3450832327203066
  0.3129908947922074  0.5374066838632340  0.3891410890479701
  0.5621372110605076  0.5370489264355293  0.3893676262330552
  0.4380978893800811  0.6173747226906282  0.3000597145033065
  0.9381107509624934  0.2907575121167241  0.6108602727639705
  0.4380092107982014  0.1093490762175205  0.1663419213787407
  0.3119235322202468  0.3765469925852750  0.6548995356559713
  0.5625538308271660  0.2067447021189713  0.5655488193807992
  0.9375084852658779  0.9478042063790520  0.2113160592882451
  0.5634187465023642  0.8803034488678493  0.7887184097545820
  0.6881227039952527  0.6293552574049932  0.7887477093457693
  0.6865927709879167  0.6253881383837254  0.6550006910324209
  0.1882867884760774  0.4603894632854178  0.6998681529208268
  0.8135023474085763  0.2110125336186068  0.6997600513465513
  0.0615714982955124  0.7065230984837606  0.5654651667048705
  0.1878884211668179  0.7962167381157930  0.7444050727847916
  0.6871944019524791  0.2774116640234325  0.1236645874996827
  0.1880343855214080  0.7818404148612123  0.2556955212419417
  0.9374264285001666  0.4564352790782045  0.4785933414901731
  0.4363191210302904  0.7963818489881007  0.7443260710007514
  0.6878235167164103  0.1217803653824051  0.4345466358162580
  0.6868887908804016  0.2958471179071176  0.7443796763377329
  0.4372618122752617  0.6214771436046632  0.5213573448950777
  0.9380329910621769  0.1096831004465319  0.1662341445451238
  0.9379029963469184  0.9514014738211026  0.3451805575408819
  0.4367719466621680  0.4688576875439853  0.8335633984131885
  0.8122252231077920  0.5274994967490257  0.1236825573277826
  0.1873357548359221  0.4565197276493754  0.5654262154068499
  0.4380828352672546  0.7909771198743505  0.6108964718890317
  0.6873605449291614  0.1173608566559805  0.3000901080991781
  0.9376907214750347  0.2867162353152443  0.3892147409371680
  0.6867035087288423  0.1266156733525609  0.6549717121293858
  0.3123842908082208  0.2071119287213338  0.5655024595701935
  0.1875120580137092  0.6216677223780859  0.5214743897991844
  0.0627960094241025  0.5406987878934475  0.6107934845393155
  0.3117672951332670  0.2183584587075624  0.8334593187993623
  0.5627975106688665  0.0277698719421302  0.1237228687295713
  0.5622936188547965  0.8709772184165533  0.4346106988611406
  0.5628663378381917  0.3591741857101133  0.1662280037254858
  0.6876757589336161  0.7771691507219411  0.1236843196140036
  0.0627211270401458  0.3668932137763181  0.3000142968434303
  0.9371657316244826  0.8021844876375076  0.8764215090831383
  0.3129390576694582  0.8805341126257914  0.7886549833784555
  0.5610226481229297  0.5494250516519684  0.8761526968897675
  0.1878362041754799  0.4517836713141702  0.3451977109023086
  0.1883156454235219  0.2910237175618954  0.6106131432257133
  0.4379574946983254  0.4604452716462621  0.6998726511105212
  0.1873488872486978  0.1213548460417851  0.5213910696455899
  0.6866344921412767  0.7867781910087440  0.3892100755294877
  0.0622384958298289  0.8708491200699603  0.4344869073136090
  0.3130902320824142  0.7107771580381440  0.6998912345795067
  0.1875771282305321  0.1089604459619743  0.1661747613056122
  0.0619448215034909  0.5451510132401081  0.7442536761237860
  0.8125106147825277  0.3712574205160263  0.4345589535112818
  0.1869556068534171  0.6263928207314312  0.6548760967470665
  0.1869821034860857  0.1258674807610903  0.6548743970043989
  0.4372700303654076  0.9563865387449173  0.5655943543092838
  0.0631997697327416  0.5367034427239389  0.3893147761248802
  0.9379998190153559  0.9601619677950002  0.6998618152332072
  0.4373026002366249  0.9564487570619440  0.4786347948980889
  0.5628664942721412  0.8591788367459594  0.1663378737758272
  0.1862739495465444  0.4682192267952934  0.8337348129969542
  0.1875127795856639  0.4478469272261343  0.2111761567078743
  0.9376058896110367  0.1171093350240115  0.2999888872530111
  0.4374156896002430  0.1215813807660771  0.4347315388277510
  0.4377346959651421  0.9508294582926951  0.3451198567780916
  0.3134988872190060  0.0363474116245363  0.3891393955694888
  0.0624480491962362  0.1985272456045981  0.2112302214563814
  0.4374997832162903  0.3020195769008860  0.8762219885194993
  0.1875732934084834  0.6293928334170803  0.7888636339324481
  0.3128627334788438  0.0500082822267796  0.8762299378428730
  0.9370693201007652  0.4508750750150617  0.3452042359097084
  0.3130408853554241  0.0405604717368847  0.6107836100875161
  0.1876678443012855  0.1296787422319667  0.7887971997757196
  0.1876513345504192  0.9561485789085481  0.4786227191409980
  0.0633644436370156  0.0493625597803243  0.8762149162917027
  0.1875267767784396  0.7772325265428023  0.1236531097055906
  0.4368335949604625  0.2957641229918624  0.7442782582157740
  0.5624433618751905  0.2062758443514799  0.4786463676612351
  0.8124565819740776  0.7197975100358883  0.8337317659398291
  0.1873665072273120  0.6214664371074424  0.4345669877062232
  0.8118546516083718  0.2063582555862674  0.5656272650175290
  0.3130209226434068  0.8667862732892939  0.2999925119381843
  0.1873815814079703  0.2864807976695956  0.3893364274342980
  0.6871414843462615  0.8031932615123089  0.8762532286633593
  0.8125288276124140  0.7016254208469328  0.3451032258579989
  0.3122822610071169  0.2061935651699723  0.4787018666022324
  0.8119597613855851  0.8764868151704499  0.6549924824713381
  0.1867863846886040  0.6172544666014999  0.3001546463403603
  0.9379598499912705  0.2767289207553895  0.1237498398030398
  0.9375076259522565  0.1292692029704968  0.7887880577831551
  0.0625973793371048  0.3590373159734003  0.1661843433069115
  0.0617415451386665  0.0326471204777206  0.2555891645219171
  0.6878757278967371  0.2908063864437356  0.6107355718802823
  0.9370843485465955  0.1217594048735689  0.5213823050287867
  0.6867542904397687  0.7953378350795591  0.7443403508837381
  0.3123914453280116  0.7067798992839082  0.5655207383890110
  0.9372573133613306  0.7912385645524866  0.6107457681672597
  0.0622973410683413  0.2065827521941486  0.5655233007275613
  0.0623107240833366  0.7064422463421502  0.4786208536442369
  0.1881102853139845  0.1175122947336880  0.3002021651867995
  0.4373912880782760  0.8019323834841033  0.8763209728725501
  0.0629920989706916  0.0369727351348302  0.3892811812503625
  0.0626702608282551  0.8713537726843642  0.5213663838414013
  0.8122672113663225  0.8708482737134512  0.4348663348768282
  0.8118663385476103  0.2199855968779849  0.8337432081228177
  0.0636393317762166  0.3804126826339576  0.7885971538370079
  0.3130168079543653  0.6981731071320498  0.2112602856942667
  0.6871734530295688  0.9516226863951334  0.3450101500915328
  0.4362253252012800  0.1258847874232115  0.6550649985747057
  0.3120297368066664  0.5454304763890794  0.7442812936602654
  0.1874163170397137  0.2770733954539860  0.1236643616399772
  0.4382163810688410  0.1294114144852246  0.7888416965062554
  0.4378206573027886  0.1212206242038703  0.5213862570533032
  0.6873297017660314  0.4562247736943602  0.5655985067464941
  0.5630418850384600  0.3679710788819242  0.2998852533123735
  0.4376780728086319  0.6096159367090015  0.1662779831251210
  0.0610776937314231  0.7186767429405361  0.8337585832343943
  0.4374000373201516  0.9484171257237883  0.2111731098100524
  0.5619794876173896  0.8764996546067771  0.6549697989923914
  0.6878803038864909  0.1090297558508385  0.1662037558116886
  0.1871361936134585  0.9480635294373578  0.2111698376483407
  0.9375858827856349  0.6211106837508363  0.4345456339912052
  0.6877593366998269  0.6214981504261665  0.5214188996533543
  0.5622386829364918  0.0331743304740064  0.2555902380583070
  0.3115690601053900  0.7008627183915052  0.3450091613777950
  0.9375662608573077  0.9560774399432529  0.5655040457341597
  0.9373437168378328  0.6170809562293109  0.2999879060247655
  0.5616755519954540  0.3716428198556970  0.4346308841992879
  0.1875088294010637  0.3019247975609851  0.8762563161686868
  0.0620298075628766  0.5326096789696446  0.2557423752480990
  0.8132151033485354  0.5365459239310051  0.3890856376803066
  0.4370933884400178  0.4567933452238631  0.5655583217026413
  0.9376337039737729  0.3026245274814295  0.8763210846592443
  0.8125749537028173  0.3714126791835756  0.5214196579082422
  0.8128076734938945  0.5402171392931163  0.6107611310304155
  0.5635337435166679  0.5407988800273846  0.6108426018292433
  0.9378439741185605  0.9565523651700925  0.4786758814643177
  0.6885170840424426  0.4511061503544539  0.3450825907443473
  0.3124275094082835  0.8596457086464528  0.1661257432060274
  0.5628817924030490  0.7063694093584185  0.5652835157753182
  0.0627445727154359  0.5273585875766792  0.1237147347086894
  0.8126251551530782  0.8591481453976191  0.1662147235699772
  0.5612757199276008  0.0497542285221550  0.8762467296357613
  0.0628631969455238  0.6985922937935960  0.2111666343503215
  0.6871022929557083  0.4680414072912310  0.8338071660979065
  0.4366333970066841  0.9687168764552070  0.8335592163215523
  0.5620305825134857  0.5453185594806720  0.7442058339405607
  0.4373294126234400  0.6212869955548342  0.4346986316028065
  0.5620830204360497  0.2009696580697919  0.3451866460534134
  0.3124857580692507  0.3715039306806802  0.5214849515744796
  0.3125717166164405  0.3592120732335325  0.1663033852080539
  0.4371117324599225  0.1177134285757636  0.3000507122882624
  0.8127191592489653  0.5333623107700430  0.2556651275677378
  0.9375229003428427  0.6214567080626833  0.5214312601357020
  0.5616461837473856  0.2189554452716434  0.8335813585331994
  0.1882157717505125  0.7910828296384818  0.6107700731503902
  0.9373539736383577  0.1266519989467052  0.6550836526163576
  0.1876778720307587  0.9603355954666374  0.6998284818601345
  0.1872087743724163  0.1213585663858415  0.4345386797437882
  0.5628346909702822  0.1984705206712178  0.2112034890698013
  0.9373880188760347  0.2960564863340061  0.7442636585274790
  0.3126915245529241  0.3671559476707607  0.3000299074483612
  0.1880397960675493  0.6090117783641998  0.1662226367534644
  0.6881913579168470  0.7821760464315610  0.2556711821477562
  0.5622941990811499  0.8716096616719620  0.5213236153585270
  0.8129122531302334  0.0321115801292273  0.2556786454632123
  0.6871855030652516  0.9479451888719717  0.2111350353221452
  0.8123580030368780  0.3800243765282287  0.7886212635036688
  0.6876366710918916  0.4476763806510266  0.2111715592396713
  0.8119095258874417  0.0452061050101672  0.7443836799770016
  0.0632326039821217  0.8667286911444394  0.3001708010045423
  0.0629926429073375  0.8589887243993977  0.1662602098748414
  0.1868328910606783  0.9561352546742040  0.5653918800183162
  0.0631477228943378  0.7102469472231442  0.6997074347860108
  0.5633153902123617  0.2100677466546098  0.6998353731912512
  0.5624778825999996  0.7015630894320949  0.3451684976592966
  0.3117979250806371  0.7183299610713315  0.8336303873921538
  0.4377054011341491  0.4522214041723744  0.3451079435172552
  0.8124344537495357  0.7066624374428019  0.5654816661142413
  0.1880973065891235  0.7866875029005314  0.3892041987931963
  0.0622137370322457  0.7017605802456031  0.3451806071724146
  0.9370632620974405  0.6259042012144587  0.6549842159864471
  0.9370202918770402  0.7949905977798125  0.7441813447143153
  0.0626793388556433  0.3715675278464819  0.5214115340568746
  0.0619739071975349  0.8766068817199395  0.6549529359521701
  0.5632166919592594  0.3803290226834911  0.7887870589564329
  0.4376502391874556  0.4558255291780351  0.4786819541857453
  0.0626002061573872  0.2061351223712044  0.4787153089976702
  0.0618467624765466  0.3766386980197413  0.6550004464477632
  0.8137897196958193  0.7098991092654899  0.6999283735604320
  0.6875786948282864  0.6091458807674407  0.1662723430176869
  0.1869696969892698  0.2956738016528008  0.7444086811872627
  0.3127042185551101  0.8710574284864274  0.4345777678427465
  0.4371376623867798  0.7816467654271572  0.2555994658416654
  0.6880306859951926  0.9603130719548443  0.6998407546425000
  0.6873898303450576  0.9564118991125806  0.4787938560320358
  0.5622962097895471  0.3713822577181592  0.5214108040370168
  0.8119403332035723  0.0274368791367893  0.1237641288079531
  0.9371586716625053  0.4480001940582715  0.2112820937802511
  0.5629594895713704  0.8669580678725466  0.3001063370314279
  0.6883468997516223  0.1295187123205391  0.7886915500646304
  0.9373697695606303  0.7764410181709780  0.1237573671020978
  0.6871173257556982  0.6212661485086070  0.4346076378115115
  0.0633776251689587  0.0411599439978292  0.6107197887147582
  0.6879263043975291  0.1221012684892967  0.5214683492630465
  0.3121187400727901  0.5275345080444700  0.1236950780112706
  0.3133813478790876  0.5502223905452329  0.8760918073565086
  0.6876066196010933  0.2856148647958113  0.3892127400333538
  0.0627995233823226  0.2101356598015318  0.6998149813509560
  0.3134163823102021  0.2096609060415142  0.6998267513162322
  0.9371403391456529  0.7861570981919475  0.3890743409395795
  0.6880622343685167  0.4606618216765944  0.6997081186029721
  0.8127587939189979  0.7060363927847161  0.4786225885649303
  0.0628108831270900  0.8804400787516732  0.7888677536432426
  0.0624853386116724  0.3712101498225764  0.4345428650510700
  0.3122736309196227  0.1988141508141858  0.2112501572498855
  0.0619902693976126  0.0456575707439932  0.7442248935624195
  0.9373572986735671  0.1213249650641725  0.4344722234511953
  0.3127874878694955  0.3802354693358603  0.7887143379586389
  0.6864316493772461  0.9682656881756416  0.8337836401136274
  0.8125176190567119  0.3591580688945689  0.1662822396519365
  0.8118114575705666  0.0490054872699404  0.8762686731356634
  0.8125593250097745  0.3667960979736395  0.3002455953215071
  0.4378386076694559  0.2765677338965006  0.1237240857327646
  0.5615471219782988  0.5316300598378499  0.2558336885734260
  0.4378010840556832  0.2860586578062245  0.3891193933125868
  0.8124834891729744  0.0372999992490477  0.3893280739332892
  0.9363352065706345  0.4689944551703701  0.8345069990743866
  0.6863620424038666  0.9575660025540952  0.5659147528457943
  0.3118572517189581  0.8764818529461237  0.6548287808995530
  0.8112674325196211  0.2016450952335946  0.3452317105686107
  0.9386029334510649  0.4602913980136380  0.6997190117782500
  0.8134720325342648  0.8804038706512243  0.7885325867483315
  0.5626835821504191  0.7062212310462597  0.4787000932823087
  0.4385652359965568  0.2816708591191350  0.2557891535738228
  0.5637371850450782  0.0376990325646802  0.3889952344210505
  0.4377205217179891  0.7862957293332503  0.3891016733848054
  0.9388764761409893  0.2814758999639227  0.2555458974799668
  0.9377046825632790  0.7824964116481498  0.2556337374765961
  0.8124263323855108  0.8716068564747161  0.5212402992501426
  0.3118713970626372  0.5331202530730057  0.2556098484774439
  0.3114307929214399  0.0454384895429788  0.7442998833656814
 
  0.00000000E+00  0.00000000E+00  0.00000000E+00
  0.00000000E+00  0.00000000E+00  0.00000000E+00
  0.00000000E+00  0.00000000E+00  0.00000000E+00
  0.00000000E+00  0.00000000E+00  0.00000000E+00
  0.00000000E+00  0.00000000E+00  0.00000000E+00
  0.00000000E+00  0.00000000E+00  0.00000000E+00
  0.00000000E+00  0.00000000E+00  0.00000000E+00
  0.00000000E+00  0.00000000E+00  0.00000000E+00
  0.00000000E+00  0.00000000E+00  0.00000000E+00
  0.00000000E+00  0.00000000E+00  0.00000000E+00
  0.00000000E+00  0.00000000E+00  0.00000000E+00
  0.00000000E+00  0.00000000E+00  0.00000000E+00
  0.00000000E+00  0.00000000E+00  0.00000000E+00
  0.00000000E+00  0.00000000E+00  0.00000000E+00
  0.00000000E+00  0.00000000E+00  0.00000000E+00
  0.00000000E+00  0.00000000E+00  0.00000000E+00
  0.00000000E+00  0.00000000E+00  0.00000000E+00
  0.00000000E+00  0.00000000E+00  0.00000000E+00
  0.00000000E+00  0.00000000E+00  0.00000000E+00
  0.00000000E+00  0.00000000E+00  0.00000000E+00
  0.00000000E+00  0.00000000E+00  0.00000000E+00
  0.00000000E+00  0.00000000E+00  0.00000000E+00
  0.00000000E+00  0.00000000E+00  0.00000000E+00
  0.00000000E+00  0.00000000E+00  0.00000000E+00
  0.00000000E+00  0.00000000E+00  0.00000000E+00
  0.00000000E+00  0.00000000E+00  0.00000000E+00
  0.00000000E+00  0.00000000E+00  0.00000000E+00
  0.00000000E+00  0.00000000E+00  0.00000000E+00
  0.00000000E+00  0.00000000E+00  0.00000000E+00
  0.00000000E+00  0.00000000E+00  0.00000000E+00
  0.00000000E+00  0.00000000E+00  0.00000000E+00
  0.00000000E+00  0.00000000E+00  0.00000000E+00
  0.00000000E+00  0.00000000E+00  0.00000000E+00
  0.00000000E+00  0.00000000E+00  0.00000000E+00
  0.00000000E+00  0.00000000E+00  0.00000000E+00
  0.00000000E+00  0.00000000E+00  0.00000000E+00
  0.00000000E+00  0.00000000E+00  0.00000000E+00
  0.00000000E+00  0.00000000E+00  0.00000000E+00
  0.00000000E+00  0.00000000E+00  0.00000000E+00
  0.00000000E+00  0.00000000E+00  0.00000000E+00
  0.00000000E+00  0.00000000E+00  0.00000000E+00
  0.00000000E+00  0.00000000E+00  0.00000000E+00
  0.00000000E+00  0.00000000E+00  0.00000000E+00
  0.00000000E+00  0.00000000E+00  0.00000000E+00
  0.00000000E+00  0.00000000E+00  0.00000000E+00
  0.00000000E+00  0.00000000E+00  0.00000000E+00
  0.00000000E+00  0.00000000E+00  0.00000000E+00
  0.00000000E+00  0.00000000E+00  0.00000000E+00
  0.00000000E+00  0.00000000E+00  0.00000000E+00
  0.00000000E+00  0.00000000E+00  0.00000000E+00
  0.00000000E+00  0.00000000E+00  0.00000000E+00
  0.00000000E+00  0.00000000E+00  0.00000000E+00
  0.00000000E+00  0.00000000E+00  0.00000000E+00
  0.00000000E+00  0.00000000E+00  0.00000000E+00
  0.00000000E+00  0.00000000E+00  0.00000000E+00
  0.00000000E+00  0.00000000E+00  0.00000000E+00
  0.00000000E+00  0.00000000E+00  0.00000000E+00
  0.00000000E+00  0.00000000E+00  0.00000000E+00
  0.00000000E+00  0.00000000E+00  0.00000000E+00
  0.00000000E+00  0.00000000E+00  0.00000000E+00
  0.00000000E+00  0.00000000E+00  0.00000000E+00
  0.00000000E+00  0.00000000E+00  0.00000000E+00
  0.00000000E+00  0.00000000E+00  0.00000000E+00
  0.00000000E+00  0.00000000E+00  0.00000000E+00
  0.00000000E+00  0.00000000E+00  0.00000000E+00
  0.00000000E+00  0.00000000E+00  0.00000000E+00
  0.00000000E+00  0.00000000E+00  0.00000000E+00
  0.00000000E+00  0.00000000E+00  0.00000000E+00
  0.00000000E+00  0.00000000E+00  0.00000000E+00
  0.00000000E+00  0.00000000E+00  0.00000000E+00
  0.00000000E+00  0.00000000E+00  0.00000000E+00
  0.00000000E+00  0.00000000E+00  0.00000000E+00
  0.00000000E+00  0.00000000E+00  0.00000000E+00
  0.00000000E+00  0.00000000E+00  0.00000000E+00
  0.00000000E+00  0.00000000E+00  0.00000000E+00
  0.00000000E+00  0.00000000E+00  0.00000000E+00
  0.00000000E+00  0.00000000E+00  0.00000000E+00
  0.00000000E+00  0.00000000E+00  0.00000000E+00
  0.00000000E+00  0.00000000E+00  0.00000000E+00
  0.00000000E+00  0.00000000E+00  0.00000000E+00
  0.00000000E+00  0.00000000E+00  0.00000000E+00
  0.00000000E+00  0.00000000E+00  0.00000000E+00
  0.00000000E+00  0.00000000E+00  0.00000000E+00
  0.00000000E+00  0.00000000E+00  0.00000000E+00
  0.00000000E+00  0.00000000E+00  0.00000000E+00
  0.00000000E+00  0.00000000E+00  0.00000000E+00
  0.00000000E+00  0.00000000E+00  0.00000000E+00
  0.00000000E+00  0.00000000E+00  0.00000000E+00
  0.00000000E+00  0.00000000E+00  0.00000000E+00
  0.00000000E+00  0.00000000E+00  0.00000000E+00
  0.00000000E+00  0.00000000E+00  0.00000000E+00
  0.00000000E+00  0.00000000E+00  0.00000000E+00
  0.00000000E+00  0.00000000E+00  0.00000000E+00
  0.00000000E+00  0.00000000E+00  0.00000000E+00
  0.00000000E+00  0.00000000E+00  0.00000000E+00
  0.00000000E+00  0.00000000E+00  0.00000000E+00
  0.00000000E+00  0.00000000E+00  0.00000000E+00
  0.00000000E+00  0.00000000E+00  0.00000000E+00
  0.00000000E+00  0.00000000E+00  0.00000000E+00
  0.00000000E+00  0.00000000E+00  0.00000000E+00
  0.00000000E+00  0.00000000E+00  0.00000000E+00
  0.00000000E+00  0.00000000E+00  0.00000000E+00
  0.00000000E+00  0.00000000E+00  0.00000000E+00
  0.00000000E+00  0.00000000E+00  0.00000000E+00
  0.00000000E+00  0.00000000E+00  0.00000000E+00
  0.00000000E+00  0.00000000E+00  0.00000000E+00
  0.00000000E+00  0.00000000E+00  0.00000000E+00
  0.00000000E+00  0.00000000E+00  0.00000000E+00
  0.00000000E+00  0.00000000E+00  0.00000000E+00
  0.00000000E+00  0.00000000E+00  0.00000000E+00
  0.00000000E+00  0.00000000E+00  0.00000000E+00
  0.00000000E+00  0.00000000E+00  0.00000000E+00
  0.00000000E+00  0.00000000E+00  0.00000000E+00
  0.00000000E+00  0.00000000E+00  0.00000000E+00
  0.00000000E+00  0.00000000E+00  0.00000000E+00
  0.00000000E+00  0.00000000E+00  0.00000000E+00
  0.00000000E+00  0.00000000E+00  0.00000000E+00
  0.00000000E+00  0.00000000E+00  0.00000000E+00
  0.00000000E+00  0.00000000E+00  0.00000000E+00
  0.00000000E+00  0.00000000E+00  0.00000000E+00
  0.00000000E+00  0.00000000E+00  0.00000000E+00
  0.00000000E+00  0.00000000E+00  0.00000000E+00
  0.00000000E+00  0.00000000E+00  0.00000000E+00
  0.00000000E+00  0.00000000E+00  0.00000000E+00
  0.00000000E+00  0.00000000E+00  0.00000000E+00
  0.00000000E+00  0.00000000E+00  0.00000000E+00
  0.00000000E+00  0.00000000E+00  0.00000000E+00
  0.00000000E+00  0.00000000E+00  0.00000000E+00
  0.00000000E+00  0.00000000E+00  0.00000000E+00
  0.00000000E+00  0.00000000E+00  0.00000000E+00
  0.00000000E+00  0.00000000E+00  0.00000000E+00
  0.00000000E+00  0.00000000E+00  0.00000000E+00
  0.00000000E+00  0.00000000E+00  0.00000000E+00
  0.00000000E+00  0.00000000E+00  0.00000000E+00
  0.00000000E+00  0.00000000E+00  0.00000000E+00
  0.00000000E+00  0.00000000E+00  0.00000000E+00
  0.00000000E+00  0.00000000E+00  0.00000000E+00
  0.00000000E+00  0.00000000E+00  0.00000000E+00
  0.00000000E+00  0.00000000E+00  0.00000000E+00
  0.00000000E+00  0.00000000E+00  0.00000000E+00
  0.00000000E+00  0.00000000E+00  0.00000000E+00
  0.00000000E+00  0.00000000E+00  0.00000000E+00
  0.00000000E+00  0.00000000E+00  0.00000000E+00
  0.00000000E+00  0.00000000E+00  0.00000000E+00
  0.00000000E+00  0.00000000E+00  0.00000000E+00
  0.00000000E+00  0.00000000E+00  0.00000000E+00
  0.00000000E+00  0.00000000E+00  0.00000000E+00
  0.00000000E+00  0.00000000E+00  0.00000000E+00
  0.00000000E+00  0.00000000E+00  0.00000000E+00
  0.00000000E+00  0.00000000E+00  0.00000000E+00
  0.00000000E+00  0.00000000E+00  0.00000000E+00
  0.00000000E+00  0.00000000E+00  0.00000000E+00
  0.00000000E+00  0.00000000E+00  0.00000000E+00
  0.00000000E+00  0.00000000E+00  0.00000000E+00
  0.00000000E+00  0.00000000E+00  0.00000000E+00
  0.00000000E+00  0.00000000E+00  0.00000000E+00
  0.00000000E+00  0.00000000E+00  0.00000000E+00
  0.00000000E+00  0.00000000E+00  0.00000000E+00
  0.00000000E+00  0.00000000E+00  0.00000000E+00
  0.00000000E+00  0.00000000E+00  0.00000000E+00
  0.00000000E+00  0.00000000E+00  0.00000000E+00
  0.00000000E+00  0.00000000E+00  0.00000000E+00
  0.00000000E+00  0.00000000E+00  0.00000000E+00
  0.00000000E+00  0.00000000E+00  0.00000000E+00
  0.00000000E+00  0.00000000E+00  0.00000000E+00
  0.00000000E+00  0.00000000E+00  0.00000000E+00
  0.00000000E+00  0.00000000E+00  0.00000000E+00
  0.00000000E+00  0.00000000E+00  0.00000000E+00
  0.00000000E+00  0.00000000E+00  0.00000000E+00
  0.00000000E+00  0.00000000E+00  0.00000000E+00
  0.00000000E+00  0.00000000E+00  0.00000000E+00
  0.00000000E+00  0.00000000E+00  0.00000000E+00
  0.00000000E+00  0.00000000E+00  0.00000000E+00
  0.00000000E+00  0.00000000E+00  0.00000000E+00
  0.00000000E+00  0.00000000E+00  0.00000000E+00
  0.00000000E+00  0.00000000E+00  0.00000000E+00
  0.00000000E+00  0.00000000E+00  0.00000000E+00
  0.00000000E+00  0.00000000E+00  0.00000000E+00
  0.00000000E+00  0.00000000E+00  0.00000000E+00
  0.00000000E+00  0.00000000E+00  0.00000000E+00
  0.00000000E+00  0.00000000E+00  0.00000000E+00
  0.00000000E+00  0.00000000E+00  0.00000000E+00
  0.00000000E+00  0.00000000E+00  0.00000000E+00
  0.00000000E+00  0.00000000E+00  0.00000000E+00
  0.00000000E+00  0.00000000E+00  0.00000000E+00
  0.00000000E+00  0.00000000E+00  0.00000000E+00
  0.00000000E+00  0.00000000E+00  0.00000000E+00
  0.00000000E+00  0.00000000E+00  0.00000000E+00
  0.00000000E+00  0.00000000E+00  0.00000000E+00
  0.00000000E+00  0.00000000E+00  0.00000000E+00
  0.00000000E+00  0.00000000E+00  0.00000000E+00
  0.00000000E+00  0.00000000E+00  0.00000000E+00
  0.00000000E+00  0.00000000E+00  0.00000000E+00
  0.00000000E+00  0.00000000E+00  0.00000000E+00
  0.00000000E+00  0.00000000E+00  0.00000000E+00
  0.00000000E+00  0.00000000E+00  0.00000000E+00
  0.00000000E+00  0.00000000E+00  0.00000000E+00
  0.00000000E+00  0.00000000E+00  0.00000000E+00
  0.00000000E+00  0.00000000E+00  0.00000000E+00
  0.00000000E+00  0.00000000E+00  0.00000000E+00
  0.00000000E+00  0.00000000E+00  0.00000000E+00
  0.00000000E+00  0.00000000E+00  0.00000000E+00
  0.00000000E+00  0.00000000E+00  0.00000000E+00
  0.00000000E+00  0.00000000E+00  0.00000000E+00
  0.00000000E+00  0.00000000E+00  0.00000000E+00
  0.00000000E+00  0.00000000E+00  0.00000000E+00
  0.00000000E+00  0.00000000E+00  0.00000000E+00
  0.00000000E+00  0.00000000E+00  0.00000000E+00
  0.00000000E+00  0.00000000E+00  0.00000000E+00
  0.00000000E+00  0.00000000E+00  0.00000000E+00
  0.00000000E+00  0.00000000E+00  0.00000000E+00
  0.00000000E+00  0.00000000E+00  0.00000000E+00
  0.00000000E+00  0.00000000E+00  0.00000000E+00
  0.00000000E+00  0.00000000E+00  0.00000000E+00
  0.00000000E+00  0.00000000E+00  0.00000000E+00
  0.00000000E+00  0.00000000E+00  0.00000000E+00
  0.00000000E+00  0.00000000E+00  0.00000000E+00
  0.00000000E+00  0.00000000E+00  0.00000000E+00
  0.00000000E+00  0.00000000E+00  0.00000000E+00
  0.00000000E+00  0.00000000E+00  0.00000000E+00
  0.00000000E+00  0.00000000E+00  0.00000000E+00
  0.00000000E+00  0.00000000E+00  0.00000000E+00
  0.00000000E+00  0.00000000E+00  0.00000000E+00
  0.00000000E+00  0.00000000E+00  0.00000000E+00
  0.00000000E+00  0.00000000E+00  0.00000000E+00
  0.00000000E+00  0.00000000E+00  0.00000000E+00
  0.00000000E+00  0.00000000E+00  0.00000000E+00
  0.00000000E+00  0.00000000E+00  0.00000000E+00
  0.00000000E+00  0.00000000E+00  0.00000000E+00
  0.00000000E+00  0.00000000E+00  0.00000000E+00
  0.00000000E+00  0.00000000E+00  0.00000000E+00
  0.00000000E+00  0.00000000E+00  0.00000000E+00
  0.00000000E+00  0.00000000E+00  0.00000000E+00
  0.00000000E+00  0.00000000E+00  0.00000000E+00
  0.00000000E+00  0.00000000E+00  0.00000000E+00
  0.00000000E+00  0.00000000E+00  0.00000000E+00
  0.00000000E+00  0.00000000E+00  0.00000000E+00
  0.00000000E+00  0.00000000E+00  0.00000000E+00
  0.00000000E+00  0.00000000E+00  0.00000000E+00
  0.00000000E+00  0.00000000E+00  0.00000000E+00
  0.00000000E+00  0.00000000E+00  0.00000000E+00
  0.00000000E+00  0.00000000E+00  0.00000000E+00
  0.00000000E+00  0.00000000E+00  0.00000000E+00
  0.00000000E+00  0.00000000E+00  0.00000000E+00
  0.00000000E+00  0.00000000E+00  0.00000000E+00
  0.00000000E+00  0.00000000E+00  0.00000000E+00
  0.00000000E+00  0.00000000E+00  0.00000000E+00