CuInSe2gb                               
   1.00000000000000     
     9.7266780392896699    0.0000000000000000    0.0000000000000000
     0.0000000000000000    8.4235502764570693    0.0000000000000000
     0.0000000000000000    0.0000000000000000   45.0000000000000000
   Fe   Mn
   274    14
Direct
  0.0610904811324535  0.0333284012421583  0.1243838945155537
  0.3136045794349303  0.8740691709299011  0.6550759506913912
  0.1869205190643448  0.1244775764297458  0.7883406104519080
  0.4402332023048891  0.2878967853203879  0.3893854943286134
  0.3148519986816414  0.7112841131497798  0.8333518658824568
  0.8158854899859302  0.2118590386765175  0.8336344279513875
  0.1897133945321404  0.9619199752466557  0.8335336625535110
  0.5617294690996339  0.2060077803514794  0.5658329197135492
  0.0635979204243186  0.0413766939355190  0.7440948673654383
  0.8114652330068370  0.8721838762023143  0.5218194876909090
  0.1885378508360275  0.2915730060139062  0.7440891253914060
  0.9370578912148849  0.4542136715879511  0.3449507919051067
  0.9391330255934116  0.2874541791651806  0.3893282643685151
  0.8134080849152728  0.0441753385535294  0.8755220704385515
  0.1860374244856373  0.7893719407644250  0.6106642580016824
  0.5643559723060868  0.0381004874286759  0.3894056205189149
  0.9410406007545432  0.9621267170522425  0.8336473684932254
  0.3136536282410701  0.5440590370227959  0.8756660635423771
  0.6886948471581047  0.2915350383149096  0.7441042231106932
  0.1846176813994647  0.6166597726364318  0.1663542930085507
  0.8122564819270416  0.2050553313530186  0.4785368002117357
  0.8110843088075981  0.5391099855380610  0.6107359156666112
  0.3129771802589350  0.8708546866804383  0.4343603237546043
  0.8118026786407846  0.0374547114036468  0.2558328244342660
  0.6870716511596554  0.9539688138728428  0.3449446589936107
  0.9335782329156126  0.1164518863323901  0.1665810094114216
  0.0624035975665712  0.8720859801604558  0.5216709019938170
  0.5612132007507237  0.5377989736964763  0.2557379516995318
  0.6881359335624032  0.7935812545299422  0.8755892433502511
  0.5587876587275709  0.3669651057013752  0.1661216061207298
  0.4386190447366712  0.7915164618755265  0.7441114321779740
  0.8118009894003445  0.7057968311321678  0.5658522110962478
  0.5617133169943915  0.8740018721834748  0.7883115946405874
  0.6865161731520085  0.1218258888802454  0.5216571078306559
  0.8136411690906575  0.3741001958234858  0.6550614080959856
  0.9402938328272187  0.4613355761272747  0.8336378264348996
  0.0617453218500705  0.2075406819967334  0.6997659878011765
  0.4367466222287041  0.9573378042159691  0.6997557058200824
  0.3146531481236478  0.2112457443186415  0.8337086582028352
  0.4385499721012472  0.6240598345313403  0.6550442191961050
  0.3111028313060368  0.5393735728507741  0.6106853741943998
  0.9368094549506188  0.4555630754710597  0.5658888922655966
  0.6886158763003812  0.7914413813608919  0.7441182819374935
  0.9340545539031692  0.7836648292076015  0.1246341119292934
  0.6897797115005019  0.7879791923183329  0.3893246670217450
  0.9385955204359816  0.7910858704474354  0.7440706603741285
  0.0623646121933648  0.2043417971276413  0.3449152134825804
  0.6873446819104764  0.4542664281323622  0.3448421002763719
  0.4365931156145945  0.1246704448791578  0.7884115182595369
  0.0628220978264142  0.2032757109630859  0.2114869273003698
  0.0576417986338265  0.3668189223577614  0.1661608848534203
  0.9363542024629188  0.7878940070771657  0.2557243051480291
  0.5616048227412039  0.2073961605225152  0.6997479302377563
  0.6867972785404616  0.9575948200685274  0.6998643003717674
  0.8113387521772634  0.8742310677418818  0.7882310836715672
  0.4367493302976188  0.9558266488986134  0.5658628833616660
  0.8117157236269656  0.3743908746891008  0.7882687719018159
  0.6865714290678003  0.2875076154040290  0.2558486684412626
  0.1867485640944873  0.4558853235606501  0.5658444213867359
  0.0588375349252140  0.8669733301205940  0.1663465140597871
  0.1861666416816058  0.2894446571232395  0.6107975257919347
  0.0618905275483942  0.2059530439216583  0.5658516726008815
  0.3119641998169180  0.2074705056214927  0.6997563855272320
  0.5640303465664361  0.5449844223180607  0.8755856385648788
  0.0617692761820796  0.7057450865469455  0.5658470311607843
  0.6867177684696527  0.6245087036578888  0.7883456004521263
  0.3145506736564773  0.5375521572800644  0.3893919862135275
  0.1872131444388917  0.6221590341528963  0.5217563213655293
  0.5625090724851414  0.8711981598125337  0.4342646722319857
  0.4368483848946743  0.4559363008751076  0.5658825793332618
  0.4385193189604642  0.2917759027980016  0.7441499930273135
  0.8155576372979844  0.8727611288458452  0.3002392164338495
  0.8119425094117263  0.7035442036129868  0.3449844657967516
  0.4401348796457869  0.4610477216875087  0.8336607009823697
  0.6876550487629325  0.9545385945058776  0.4784977941029258
  0.6867037419045346  0.4574330592977463  0.6997652753254632
  0.5617726245161681  0.8722892334462858  0.5217290352539533
  0.5636552130346818  0.3740347727299561  0.6550337688815560
  0.8135718545753876  0.8740994006972321  0.6550684728274881
  0.8122990484903103  0.3706906625981203  0.4341560110344864
  0.8115181627393080  0.5372053993153434  0.2559301550679710
  0.6905606506973342  0.4611769596995355  0.8336691702491287
  0.1853956630540719  0.7837716251500602  0.1241636544026216
  0.6894326010620527  0.2877324629516397  0.3893279470654954
  0.3133566636082117  0.3740936378348289  0.6550150560629118
  0.3121785776930662  0.2039943800829914  0.3450302008074501
  0.8135787466836339  0.5411794497316431  0.7440869618371484
  0.6899481814077055  0.9612523728643976  0.8334729358372174
  0.5635071318272926  0.8742302338095930  0.6550772658441687
  0.3118462460777869  0.7060337983462137  0.5658521006200788
  0.3098991735826634  0.5339056347333152  0.1241215681157595
  0.6880911177209144  0.9541439571604109  0.2116501219280539
  0.3118447540905228  0.2058981222036034  0.5658751145749257
  0.1873932213929649  0.9549515569877046  0.4784777183927832
  0.6870270378396449  0.9558624039495635  0.5659146155829753
  0.4359165240264340  0.7894262752745176  0.6106674792768627
  0.6828257430716876  0.6149895139358814  0.1662994754973404
  0.3153965502084365  0.8724668673372094  0.3002470649160910
  0.3122122616847005  0.7048729741012382  0.4784034858095165
  0.9360190709761687  0.2891462764468941  0.6106497945244389
  0.4406095531559653  0.6220743040404293  0.3002236549129192
  0.8086635699185475  0.8658606091351597  0.1665076076202666
  0.5637161607352673  0.2030339467337861  0.2117217495889185
  0.9343315219389779  0.6151385222648358  0.1665385251401515
  0.4374735457246565  0.9546010298083425  0.4784259705825433
  0.5617421200146054  0.3740803899998310  0.7883525944370616
  0.0619087328681794  0.3725452891251255  0.5216762596722782
  0.3085829835267677  0.3662106798198489  0.1661069612745479
  0.6907178047611113  0.1222196084768237  0.3003352924394999
  0.4405229638408648  0.9609512798866149  0.8335480337139856
  0.1848427772560333  0.2832095933821405  0.1244743372444719
  0.1864933757853102  0.2869790901837010  0.2558311536206294
  0.3129490864108311  0.3710834423373578  0.4343311615183373
  0.5604544202051031  0.0337998185350615  0.1243480325137789
  0.4359659573391403  0.2893897924893173  0.6106429588696530
  0.1869816081376600  0.4539951281667877  0.3449546418720837
  0.4337368292540557  0.2831183101408269  0.1244770775114713
  0.6865503663837056  0.7880765390499100  0.2559241857261795
  0.4368500180835573  0.1223140550543389  0.5217139757369244
  0.1894420064358877  0.2933780495143482  0.8758027188474851
  0.1886133163945793  0.1241229508978411  0.6550788005041215
  0.9386501919439930  0.1239990037725819  0.6550427560565816
  0.8144368832445799  0.5374086833927448  0.3893120737093772
  0.0646069465728322  0.0380057341421623  0.3894208468744318
  0.1836338603756169  0.1153839911314563  0.1665084604810330
  0.0610073637591265  0.5391091523295586  0.6106979706662179
  0.9365547256408032  0.2874429744106721  0.2557851192914721
  0.5609064625178203  0.5394629956564552  0.6106613797003712
  0.9368278766832867  0.9555867341802255  0.5658116190067615
  0.6904331703485195  0.6224329899021505  0.3003696567133772
  0.9380237033095181  0.6211405201373470  0.4342493233461495
  0.9364224080197157  0.6253751063933076  0.7882107261731287
  0.5616795470289274  0.7073777526548215  0.6997294876322384
  0.0649209873686054  0.7125391733844801  0.8335502160695565
  0.9407243392746230  0.1228203552678322  0.3002342400318700
  0.9360270866885515  0.7890656307999425  0.6107535091204244
  0.4367649694068859  0.7877688417118296  0.2559939018135757
  0.3116899404912966  0.3741207969691162  0.7882520153758846
  0.4382656605816797  0.4541348712282258  0.2115335921755968
  0.1872289159954138  0.1220577400979165  0.5217301115236217
  0.8118808767911688  0.7077060597546397  0.6997940251519462
  0.0609338643211594  0.0396267547200160  0.6106462513753905
  0.5646769438315953  0.2110751904745555  0.8334453825330082
  0.3119125489860314  0.8721259426090791  0.5217828174948435
  0.6856713604585244  0.2830576522610286  0.1242044824389234
  0.1881285438481724  0.9549114780449077  0.2116390381781555
  0.6859632698454460  0.2894842053969335  0.6107317207143724
  0.3109601518992249  0.0392855939202252  0.6106965998425179
  0.9366721829763774  0.1248743813206548  0.7884819781963679
  0.4382626102296294  0.7931946919648472  0.8755912450292918
  0.8136999824347184  0.0415048694905152  0.7440342740058749
  0.9368146782196970  0.4574962314370607  0.6998042500366533
  0.1886446310385385  0.6241392763783310  0.6550664230494947
  0.3117497522252642  0.7075055755764404  0.6997971567611257
  0.9342500693505564  0.2832241658546874  0.1242564323155499
  0.4373703621188336  0.4543510831584535  0.4784304341480103
  0.0624835964628236  0.7042036152175937  0.4784680997830097
  0.9378536272210833  0.1210196951291421  0.4345657701734872
  0.4408567191302842  0.1218388191800630  0.3002424725720216
  0.1873584672713574  0.1208660791028307  0.4341537072219441
  0.5643978185741990  0.0436235366564632  0.8755829610057043
  0.1866200469956902  0.9560182137353320  0.5659012930793355
  0.6848873991040481  0.7844784359042538  0.1245315781751773
  0.5622895263891893  0.7039459039726713  0.3449961475163956
  0.3147791375385608  0.0377319604107026  0.3893492359130984
  0.6846318694323462  0.1162647448962252  0.1666071640686445
  0.8136462156386287  0.2031922453662153  0.2115814894715109
  0.0612207411456847  0.5376696813997845  0.2556448736685386
  0.5624979926495889  0.7048730446602431  0.4784444285144175
  0.4344836670343214  0.7841123825890012  0.1240823850251289
  0.5652137561278747  0.3720196416903780  0.3003222509472541
  0.4369160236535117  0.9539460159451031  0.3448992837661717
  0.1866989584300318  0.9575303521180409  0.6998154976505639
  0.4337272745068152  0.6160001204420870  0.1662048996897864
  0.9382980865328295  0.4534171210489958  0.2117074783493247
  0.0603563725791148  0.5328134387959340  0.1242631542511317
  0.8117435323299517  0.3727136577343198  0.5217152906234035
  0.9406330767553364  0.6228507414221754  0.3001223352481810
  0.3116365390530842  0.0373819139413345  0.2558238996782644
  0.6860368990133697  0.7893124029996725  0.6106739644234364
  0.1897109489230627  0.4617045337307098  0.8337740188868354
  0.4342412869907812  0.1150288642027671  0.1665676427123335
  0.3116761102240300  0.3723412900505913  0.5217028160257287
  0.4367372305800292  0.6242299713356323  0.7884013714906327
  0.0614328618242590  0.0377169332579500  0.2557860984936470
  0.5617404999711806  0.7060770727878609  0.5658609547755531
  0.9387172240646693  0.2915191579093461  0.7440979375578874
  0.6863332249233772  0.1245622066082300  0.7882710521416109
  0.1874149759766664  0.4535583887181467  0.2114770326424536
  0.9391571666579484  0.7876131969280666  0.3893249943151275
  0.6874760266036097  0.2938693318935865  0.8757037454307852
  0.5571956460946249  0.8658657514281709  0.1662747332356915
  0.4367786610645675  0.4574359283092899  0.6998459039433793
  0.9375218420316237  0.9537412353564577  0.3449180344042768
  0.6866615611377443  0.6220268424744341  0.5216928155926901
  0.0636159820878477  0.8741450774204989  0.6550821020019010
  0.0619608313002363  0.8745862162411215  0.7883362140603278
  0.0636371572889972  0.3742243332543975  0.6550594718654777
  0.6873052444276588  0.4544471988419344  0.4782621174067448
  0.1863186207945226  0.7878851451721606  0.2559086146385088
  0.4371517311096443  0.1210436810431689  0.4343483327134991
  0.8109732334310747  0.0339900715969863  0.1244272270071048
  0.9367953299582288  0.6221600611241259  0.5216918057545487
  0.4386261587431596  0.1239426000799974  0.6550750104080461
  0.8121529386335168  0.5334017933775740  0.1240015043266475
  0.4374143770888596  0.4540705277918125  0.3449845997707792
  0.8121723638384911  0.2038358516369597  0.3449726110436943
  0.3124509419392311  0.7038146698773912  0.3449346753751413
  0.6885408580137121  0.1241805518443915  0.6550663003200660
  0.5654916591587268  0.8722830608953397  0.3002701730750915
  0.0636859554400249  0.5409034308837632  0.7440732185682379
  0.9384511653778095  0.9543073160151546  0.2115756685194748
  0.8136076833585221  0.7033275824677714  0.2116196652091107
  0.0655675182666967  0.8724891852611049  0.3003113343643443
  0.1903928032808233  0.1227564494671717  0.3001604344542756
  0.0620794342476646  0.7037780344892199  0.3449450378147513
  0.8112389689832485  0.0394191314704457  0.6106462390818791
  0.0626067425030765  0.3707989437111784  0.4342219428609138
  0.5624747526561150  0.2039212030703368  0.3449482355254773
  0.8154181792558074  0.3729580692427178  0.3002118373526145
  0.5620856140820775  0.0380154042065496  0.2558443335975333
  0.5642622771747644  0.5374058622687747  0.3893366510007615
  0.0626880242612370  0.2047307696613142  0.4785370064744536
  0.3121374818739925  0.8738945431506719  0.7882264890684916
  0.9367496242091312  0.9576959243100355  0.6997616376437704
  0.0658971670217157  0.3726326873384869  0.3002977079092007
  0.6885261531411289  0.6241550053174925  0.6550779158113914
  0.6867584826535247  0.4559367761993102  0.5658113279936495
  0.4382401455067212  0.9544761688838689  0.2117382961959903
  0.3123613403080110  0.2045669251735347  0.4784695432884086
  0.8130776797773995  0.5441779631100586  0.8755905604506977
  0.6880565328793774  0.6204788219079953  0.4342443214384475
  0.8117918217127570  0.2075256806194048  0.6997753538803313
  0.8125498192225367  0.7046290533685262  0.4784543760519441
  0.8119473158572701  0.8709724381441279  0.4342650700146775
  0.9372651401657552  0.9543281073001394  0.4784910195842785
  0.5624218609464365  0.2046381376865473  0.4784562655143676
  0.1873717466388155  0.6205715869166615  0.4343345961090875
  0.3134365631490292  0.0415334440731365  0.7440946892993601
  0.9386509069631890  0.6242891396333938  0.6550042912222163
  0.5650850588246618  0.7113679950038888  0.8334766125962202
  0.3155054918172310  0.3724946755403081  0.3003377432341003
  0.3136294114298808  0.5411681773141421  0.7441461954182672
  0.1876124351436969  0.4544405805396536  0.4784318328866107
  0.3150665487636324  0.0449238788712124  0.8755463695597392
  0.1867241591270194  0.4575650525191439  0.6997983168902763
  0.5621595443113468  0.3725242864099331  0.5217313706416409
  0.1892112760323626  0.2878979914937837  0.3894064337092545
  0.3130659377150426  0.2035554662743218  0.2115055454448987
  0.0640101344617189  0.7031565151263232  0.2114459385582154
  0.5623877954110807  0.3708901212216602  0.4342940140533309
  0.4369398811342589  0.6222026611329805  0.5216065898142508
  0.8147229821990090  0.7118145871068023  0.8332701568584172
  0.0617139836131348  0.3748885591104468  0.7882990066592215
  0.4377463595056956  0.2937472079823174  0.8757579553151539
  0.3107891080589375  0.0337036670172659  0.1240410202723283
  0.9380868601288332  0.7923129996096088  0.8756077464164203
  0.1872000696357134  0.9537714637993499  0.3449730883326552
  0.0644930473074818  0.2111945869275444  0.8336322086148308
  0.5610497764967256  0.0394077269042173  0.6106808572848527
  0.6879498809408194  0.4533026224863680  0.2115973541374838
  0.1885807664607665  0.7911803679267264  0.7440659956722256
  0.1905114781535299  0.6224108618879751  0.3002055943785568
  0.4397922342382921  0.7875434685266671  0.3893531750250518
  0.4364796578869563  0.2876559933330330  0.2557418766530530
  0.0648063889146356  0.5445701017081642  0.8756147026414194
  0.5637962719464831  0.0414423790773945  0.7441522085403999
  0.1882292451549170  0.7929294360749422  0.8756729176311553
  0.9372779813988946  0.4543902269351152  0.4784396253315791
  0.5636186119338814  0.5415582508959457  0.7440618154760570
  0.8117053232760504  0.2061945568960792  0.5658659254453222
  0.1866793084181598  0.6246898232187017  0.7883945833522255
  0.0650823609558858  0.5379962806562759  0.3894387319669084
  0.0616925066553966  0.7076751498372655  0.6997554190891951
  0.3113954067956779  0.5374807290448245  0.2556422012927956
  0.3124490051910511  0.7031122366109014  0.2117625125824464
  0.3080563351306578  0.8661867570869927  0.1657790796926615
  0.4367208214954065  0.6206723483775448  0.4342558398204491
  0.8157812167467887  0.0377723482831180  0.3892015105836198
  0.9367756552761872  0.2944340832351954  0.8755514364549524
  0.6873372371704211  0.1214301643832797  0.4343291488114455
  0.0643339759427690  0.0419289701016963  0.8754267737856338
  0.5613003669029668  0.5330903545329272  0.1244399390021900
  0.8076856332914353  0.3665793511996258  0.1657005407443916
  0.0620468895365933  0.8708913526573488  0.4342553379450531
  0.9370380619418024  0.1222474234266272  0.5216128164619407
  0.1901532997582208  0.7868462093985400  0.3891568123296287
  0.5644279983161345  0.7033962814086933  0.2117510830253281
 
  0.00000000E+00  0.00000000E+00  0.00000000E+00
  0.00000000E+00  0.00000000E+00  0.00000000E+00
  0.00000000E+00  0.00000000E+00  0.00000000E+00
  0.00000000E+00  0.00000000E+00  0.00000000E+00
  0.00000000E+00  0.00000000E+00  0.00000000E+00
  0.00000000E+00  0.00000000E+00  0.00000000E+00
  0.00000000E+00  0.00000000E+00  0.00000000E+00
  0.00000000E+00  0.00000000E+00  0.00000000E+00
  0.00000000E+00  0.00000000E+00  0.00000000E+00
  0.00000000E+00  0.00000000E+00  0.00000000E+00
  0.00000000E+00  0.00000000E+00  0.00000000E+00
  0.00000000E+00  0.00000000E+00  0.00000000E+00
  0.00000000E+00  0.00000000E+00  0.00000000E+00
  0.00000000E+00  0.00000000E+00  0.00000000E+00
  0.00000000E+00  0.00000000E+00  0.00000000E+00
  0.00000000E+00  0.00000000E+00  0.00000000E+00
  0.00000000E+00  0.00000000E+00  0.00000000E+00
  0.00000000E+00  0.00000000E+00  0.00000000E+00
  0.00000000E+00  0.00000000E+00  0.00000000E+00
  0.00000000E+00  0.00000000E+00  0.00000000E+00
  0.00000000E+00  0.00000000E+00  0.00000000E+00
  0.00000000E+00  0.00000000E+00  0.00000000E+00
  0.00000000E+00  0.00000000E+00  0.00000000E+00
  0.00000000E+00  0.00000000E+00  0.00000000E+00
  0.00000000E+00  0.00000000E+00  0.00000000E+00
  0.00000000E+00  0.00000000E+00  0.00000000E+00
  0.00000000E+00  0.00000000E+00  0.00000000E+00
  0.00000000E+00  0.00000000E+00  0.00000000E+00
  0.00000000E+00  0.00000000E+00  0.00000000E+00
  0.00000000E+00  0.00000000E+00  0.00000000E+00
  0.00000000E+00  0.00000000E+00  0.00000000E+00
  0.00000000E+00  0.00000000E+00  0.00000000E+00
  0.00000000E+00  0.00000000E+00  0.00000000E+00
  0.00000000E+00  0.00000000E+00  0.00000000E+00
  0.00000000E+00  0.00000000E+00  0.00000000E+00
  0.00000000E+00  0.00000000E+00  0.00000000E+00
  0.00000000E+00  0.00000000E+00  0.00000000E+00
  0.00000000E+00  0.00000000E+00  0.00000000E+00
  0.00000000E+00  0.00000000E+00  0.00000000E+00
  0.00000000E+00  0.00000000E+00  0.00000000E+00
  0.00000000E+00  0.00000000E+00  0.00000000E+00
  0.00000000E+00  0.00000000E+00  0.00000000E+00
  0.00000000E+00  0.00000000E+00  0.00000000E+00
  0.00000000E+00  0.00000000E+00  0.00000000E+00
  0.00000000E+00  0.00000000E+00  0.00000000E+00
  0.00000000E+00  0.00000000E+00  0.00000000E+00
  0.00000000E+00  0.00000000E+00  0.00000000E+00
  0.00000000E+00  0.00000000E+00  0.00000000E+00
  0.00000000E+00  0.00000000E+00  0.00000000E+00
  0.00000000E+00  0.00000000E+00  0.00000000E+00
  0.00000000E+00  0.00000000E+00  0.00000000E+00
  0.00000000E+00  0.00000000E+00  0.00000000E+00
  0.00000000E+00  0.00000000E+00  0.00000000E+00
  0.00000000E+00  0.00000000E+00  0.00000000E+00
  0.00000000E+00  0.00000000E+00  0.00000000E+00
  0.00000000E+00  0.00000000E+00  0.00000000E+00
  0.00000000E+00  0.00000000E+00  0.00000000E+00
  0.00000000E+00  0.00000000E+00  0.00000000E+00
  0.00000000E+00  0.00000000E+00  0.00000000E+00
  0.00000000E+00  0.00000000E+00  0.00000000E+00
  0.00000000E+00  0.00000000E+00  0.00000000E+00
  0.00000000E+00  0.00000000E+00  0.00000000E+00
  0.00000000E+00  0.00000000E+00  0.00000000E+00
  0.00000000E+00  0.00000000E+00  0.00000000E+00
  0.00000000E+00  0.00000000E+00  0.00000000E+00
  0.00000000E+00  0.00000000E+00  0.00000000E+00
  0.00000000E+00  0.00000000E+00  0.00000000E+00
  0.00000000E+00  0.00000000E+00  0.00000000E+00
  0.00000000E+00  0.00000000E+00  0.00000000E+00
  0.00000000E+00  0.00000000E+00  0.00000000E+00
  0.00000000E+00  0.00000000E+00  0.00000000E+00
  0.00000000E+00  0.00000000E+00  0.00000000E+00
  0.00000000E+00  0.00000000E+00  0.00000000E+00
  0.00000000E+00  0.00000000E+00  0.00000000E+00
  0.00000000E+00  0.00000000E+00  0.00000000E+00
  0.00000000E+00  0.00000000E+00  0.00000000E+00
  0.00000000E+00  0.00000000E+00  0.00000000E+00
  0.00000000E+00  0.00000000E+00  0.00000000E+00
  0.00000000E+00  0.00000000E+00  0.00000000E+00
  0.00000000E+00  0.00000000E+00  0.00000000E+00
  0.00000000E+00  0.00000000E+00  0.00000000E+00
  0.00000000E+00  0.00000000E+00  0.00000000E+00
  0.00000000E+00  0.00000000E+00  0.00000000E+00
  0.00000000E+00  0.00000000E+00  0.00000000E+00
  0.00000000E+00  0.00000000E+00  0.00000000E+00
  0.00000000E+00  0.00000000E+00  0.00000000E+00
  0.00000000E+00  0.00000000E+00  0.00000000E+00
  0.00000000E+00  0.00000000E+00  0.00000000E+00
  0.00000000E+00  0.00000000E+00  0.00000000E+00
  0.00000000E+00  0.00000000E+00  0.00000000E+00
  0.00000000E+00  0.00000000E+00  0.00000000E+00
  0.00000000E+00  0.00000000E+00  0.00000000E+00
  0.00000000E+00  0.00000000E+00  0.00000000E+00
  0.00000000E+00  0.00000000E+00  0.00000000E+00
  0.00000000E+00  0.00000000E+00  0.00000000E+00
  0.00000000E+00  0.00000000E+00  0.00000000E+00
  0.00000000E+00  0.00000000E+00  0.00000000E+00
  0.00000000E+00  0.00000000E+00  0.00000000E+00
  0.00000000E+00  0.00000000E+00  0.00000000E+00
  0.00000000E+00  0.00000000E+00  0.00000000E+00
  0.00000000E+00  0.00000000E+00  0.00000000E+00
  0.00000000E+00  0.00000000E+00  0.00000000E+00
  0.00000000E+00  0.00000000E+00  0.00000000E+00
  0.00000000E+00  0.00000000E+00  0.00000000E+00
  0.00000000E+00  0.00000000E+00  0.00000000E+00
  0.00000000E+00  0.00000000E+00  0.00000000E+00
  0.00000000E+00  0.00000000E+00  0.00000000E+00
  0.00000000E+00  0.00000000E+00  0.00000000E+00
  0.00000000E+00  0.00000000E+00  0.00000000E+00
  0.00000000E+00  0.00000000E+00  0.00000000E+00
  0.00000000E+00  0.00000000E+00  0.00000000E+00
  0.00000000E+00  0.00000000E+00  0.00000000E+00
  0.00000000E+00  0.00000000E+00  0.00000000E+00
  0.00000000E+00  0.00000000E+00  0.00000000E+00
  0.00000000E+00  0.00000000E+00  0.00000000E+00
  0.00000000E+00  0.00000000E+00  0.00000000E+00
  0.00000000E+00  0.00000000E+00  0.00000000E+00
  0.00000000E+00  0.00000000E+00  0.00000000E+00
  0.00000000E+00  0.00000000E+00  0.00000000E+00
  0.00000000E+00  0.00000000E+00  0.00000000E+00
  0.00000000E+00  0.00000000E+00  0.00000000E+00
  0.00000000E+00  0.00000000E+00  0.00000000E+00
  0.00000000E+00  0.00000000E+00  0.00000000E+00
  0.00000000E+00  0.00000000E+00  0.00000000E+00
  0.00000000E+00  0.00000000E+00  0.00000000E+00
  0.00000000E+00  0.00000000E+00  0.00000000E+00
  0.00000000E+00  0.00000000E+00  0.00000000E+00
  0.00000000E+00  0.00000000E+00  0.00000000E+00
  0.00000000E+00  0.00000000E+00  0.00000000E+00
  0.00000000E+00  0.00000000E+00  0.00000000E+00
  0.00000000E+00  0.00000000E+00  0.00000000E+00
  0.00000000E+00  0.00000000E+00  0.00000000E+00
  0.00000000E+00  0.00000000E+00  0.00000000E+00
  0.00000000E+00  0.00000000E+00  0.00000000E+00
  0.00000000E+00  0.00000000E+00  0.00000000E+00
  0.00000000E+00  0.00000000E+00  0.00000000E+00
  0.00000000E+00  0.00000000E+00  0.00000000E+00
  0.00000000E+00  0.00000000E+00  0.00000000E+00
  0.00000000E+00  0.00000000E+00  0.00000000E+00
  0.00000000E+00  0.00000000E+00  0.00000000E+00
  0.00000000E+00  0.00000000E+00  0.00000000E+00
  0.00000000E+00  0.00000000E+00  0.00000000E+00
  0.00000000E+00  0.00000000E+00  0.00000000E+00
  0.00000000E+00  0.00000000E+00  0.00000000E+00
  0.00000000E+00  0.00000000E+00  0.00000000E+00
  0.00000000E+00  0.00000000E+00  0.00000000E+00
  0.00000000E+00  0.00000000E+00  0.00000000E+00
  0.00000000E+00  0.00000000E+00  0.00000000E+00
  0.00000000E+00  0.00000000E+00  0.00000000E+00
  0.00000000E+00  0.00000000E+00  0.00000000E+00
  0.00000000E+00  0.00000000E+00  0.00000000E+00
  0.00000000E+00  0.00000000E+00  0.00000000E+00
  0.00000000E+00  0.00000000E+00  0.00000000E+00
  0.00000000E+00  0.00000000E+00  0.00000000E+00
  0.00000000E+00  0.00000000E+00  0.00000000E+00
  0.00000000E+00  0.00000000E+00  0.00000000E+00
  0.00000000E+00  0.00000000E+00  0.00000000E+00
  0.00000000E+00  0.00000000E+00  0.00000000E+00
  0.00000000E+00  0.00000000E+00  0.00000000E+00
  0.00000000E+00  0.00000000E+00  0.00000000E+00
  0.00000000E+00  0.00000000E+00  0.00000000E+00
  0.00000000E+00  0.00000000E+00  0.00000000E+00
  0.00000000E+00  0.00000000E+00  0.00000000E+00
  0.00000000E+00  0.00000000E+00  0.00000000E+00
  0.00000000E+00  0.00000000E+00  0.00000000E+00
  0.00000000E+00  0.00000000E+00  0.00000000E+00
  0.00000000E+00  0.00000000E+00  0.00000000E+00
  0.00000000E+00  0.00000000E+00  0.00000000E+00
  0.00000000E+00  0.00000000E+00  0.00000000E+00
  0.00000000E+00  0.00000000E+00  0.00000000E+00
  0.00000000E+00  0.00000000E+00  0.00000000E+00
  0.00000000E+00  0.00000000E+00  0.00000000E+00
  0.00000000E+00  0.00000000E+00  0.00000000E+00
  0.00000000E+00  0.00000000E+00  0.00000000E+00
  0.00000000E+00  0.00000000E+00  0.00000000E+00
  0.00000000E+00  0.00000000E+00  0.00000000E+00
  0.00000000E+00  0.00000000E+00  0.00000000E+00
  0.00000000E+00  0.00000000E+00  0.00000000E+00
  0.00000000E+00  0.00000000E+00  0.00000000E+00
  0.00000000E+00  0.00000000E+00  0.00000000E+00
  0.00000000E+00  0.00000000E+00  0.00000000E+00
  0.00000000E+00  0.00000000E+00  0.00000000E+00
  0.00000000E+00  0.00000000E+00  0.00000000E+00
  0.00000000E+00  0.00000000E+00  0.00000000E+00
  0.00000000E+00  0.00000000E+00  0.00000000E+00
  0.00000000E+00  0.00000000E+00  0.00000000E+00
  0.00000000E+00  0.00000000E+00  0.00000000E+00
  0.00000000E+00  0.00000000E+00  0.00000000E+00
  0.00000000E+00  0.00000000E+00  0.00000000E+00
  0.00000000E+00  0.00000000E+00  0.00000000E+00
  0.00000000E+00  0.00000000E+00  0.00000000E+00
  0.00000000E+00  0.00000000E+00  0.00000000E+00
  0.00000000E+00  0.00000000E+00  0.00000000E+00
  0.00000000E+00  0.00000000E+00  0.00000000E+00
  0.00000000E+00  0.00000000E+00  0.00000000E+00
  0.00000000E+00  0.00000000E+00  0.00000000E+00
  0.00000000E+00  0.00000000E+00  0.00000000E+00
  0.00000000E+00  0.00000000E+00  0.00000000E+00
  0.00000000E+00  0.00000000E+00  0.00000000E+00
  0.00000000E+00  0.00000000E+00  0.00000000E+00
  0.00000000E+00  0.00000000E+00  0.00000000E+00
  0.00000000E+00  0.00000000E+00  0.00000000E+00
  0.00000000E+00  0.00000000E+00  0.00000000E+00
  0.00000000E+00  0.00000000E+00  0.00000000E+00
  0.00000000E+00  0.00000000E+00  0.00000000E+00
  0.00000000E+00  0.00000000E+00  0.00000000E+00
  0.00000000E+00  0.00000000E+00  0.00000000E+00
  0.00000000E+00  0.00000000E+00  0.00000000E+00
  0.00000000E+00  0.00000000E+00  0.00000000E+00
  0.00000000E+00  0.00000000E+00  0.00000000E+00
  0.00000000E+00  0.00000000E+00  0.00000000E+00
  0.00000000E+00  0.00000000E+00  0.00000000E+00
  0.00000000E+00  0.00000000E+00  0.00000000E+00
  0.00000000E+00  0.00000000E+00  0.00000000E+00
  0.00000000E+00  0.00000000E+00  0.00000000E+00
  0.00000000E+00  0.00000000E+00  0.00000000E+00
  0.00000000E+00  0.00000000E+00  0.00000000E+00
  0.00000000E+00  0.00000000E+00  0.00000000E+00
  0.00000000E+00  0.00000000E+00  0.00000000E+00
  0.00000000E+00  0.00000000E+00  0.00000000E+00
  0.00000000E+00  0.00000000E+00  0.00000000E+00
  0.00000000E+00  0.00000000E+00  0.00000000E+00
  0.00000000E+00  0.00000000E+00  0.00000000E+00
  0.00000000E+00  0.00000000E+00  0.00000000E+00
  0.00000000E+00  0.00000000E+00  0.00000000E+00
  0.00000000E+00  0.00000000E+00  0.00000000E+00
  0.00000000E+00  0.00000000E+00  0.00000000E+00
  0.00000000E+00  0.00000000E+00  0.00000000E+00
  0.00000000E+00  0.00000000E+00  0.00000000E+00
  0.00000000E+00  0.00000000E+00  0.00000000E+00
  0.00000000E+00  0.00000000E+00  0.00000000E+00
  0.00000000E+00  0.00000000E+00  0.00000000E+00
  0.00000000E+00  0.00000000E+00  0.00000000E+00
  0.00000000E+00  0.00000000E+00  0.00000000E+00
  0.00000000E+00  0.00000000E+00  0.00000000E+00
  0.00000000E+00  0.00000000E+00  0.00000000E+00
  0.00000000E+00  0.00000000E+00  0.00000000E+00
  0.00000000E+00  0.00000000E+00  0.00000000E+00
  0.00000000E+00  0.00000000E+00  0.00000000E+00
  0.00000000E+00  0.00000000E+00  0.00000000E+00
  0.00000000E+00  0.00000000E+00  0.00000000E+00
  0.00000000E+00  0.00000000E+00  0.00000000E+00
  0.00000000E+00  0.00000000E+00  0.00000000E+00
  0.00000000E+00  0.00000000E+00  0.00000000E+00
  0.00000000E+00  0.00000000E+00  0.00000000E+00
  0.00000000E+00  0.00000000E+00  0.00000000E+00
  0.00000000E+00  0.00000000E+00  0.00000000E+00