FeMn_288_15                             
    1.000000000000000     
     9.7266779999999997    0.0000000000000000    0.0000000000000000
     0.0000000000000000    8.4235500000000005    0.0000000000000000
     0.0000000000000000    0.0000000000000000   45.0000000000000000
   Fe   Mn
   273    15
Direct
  0.1874555564645763  0.1178117866874581  0.3018892231521055
  0.8125319901840983  0.7100556414045850  0.6981281806177592
  0.1871697609322804  0.1151178411926653  0.1684680748223319
  0.3123582195338003  0.0333368608830399  0.2576513530955857
  0.5626780226221459  0.7069118704444751  0.5652040100576977
  0.1877748701744549  0.2957718442275731  0.8733467549881370
  0.0624933214692523  0.8779874462923623  0.7863338875822170
  0.1875081179348270  0.7865299752883854  0.3902929233233061
  0.6877032385455973  0.9626883287442182  0.8310907635455941
  0.4375210297653792  0.4625794980890118  0.8310882414195470
  0.8122836354183692  0.3682942354478692  0.3019182032094914
  0.1871825642661982  0.9517698037574230  0.3463318141598376
  0.6877555372976165  0.4552908547598788  0.4787852974090904
  0.5624969485302753  0.8783111495439654  0.7863780844601893
  0.3127141593809303  0.6994493580063228  0.2135951090432035
  0.1875995184506783  0.4599831027234794  0.6980566294621576
  0.4374661250438786  0.9598543197034103  0.6981153525407243
  0.8122107288837330  0.7053199682216066  0.4787781850285391
  0.4375775953234799  0.4500435907202346  0.2135479081949517
  0.9374698762186873  0.4575473248095342  0.5652529892993594
  0.5624802366206902  0.2096136839199694  0.6981149762162175
  0.0624056516457778  0.3779034067665490  0.7863517549569663
  0.1875357267248364  0.7918959498589656  0.6097924119166583
  0.0626222347508709  0.0417353056959971  0.6097956277986093
  0.0625756973592679  0.8656794060375050  0.1688021569962701
  0.5622878907131483  0.8709113556123395  0.4351607396673029
  0.1877491251646061  0.2862103691771764  0.3903304791784699
  0.3125993896104056  0.5364884507590334  0.3903959770902662
  0.4374303525044976  0.9520138828277958  0.3462694053899041
  0.5625988450524544  0.3757854969198416  0.6536928042600820
  0.6875853561826293  0.1258661478738322  0.6537239021910316
  0.8127805780023809  0.8706376233662415  0.4348641671951892
  0.0626232559932086  0.2121112158248780  0.8312442628730787
  0.8128749973769378  0.8726801624211632  0.5214147461351477
  0.5624559585760749  0.5359668395803004  0.3902965204562874
  0.3122661529951018  0.2071292788409732  0.5652018696199270
  0.0624842547034455  0.7052570664294784  0.4788182687471420
  0.1880211441808002  0.6171857902939488  0.3018694757213519
  0.0623956792788692  0.2019839333208052  0.3463491229779261
  0.8125529081881412  0.5337991519281161  0.2577697626514614
  0.3126857803069748  0.0457197031152141  0.8733328808919673
  0.6869539680802768  0.4516536083951878  0.3462802727238749
  0.0623863846009012  0.7000823515863531  0.2135014304703713
  0.1877941571324502  0.4575990554135437  0.5652027044845416
  0.9376154289181913  0.7920847001098364  0.6097290815251754
  0.8126736115574725  0.0457086596159688  0.8733417600970445
  0.3131536228141541  0.3681824526024753  0.3019352550917100
  0.4368634459066035  0.7817990505718351  0.1264465781187221
  0.0627051528074335  0.7073372674829215  0.5651329689766710
  0.5626097149555213  0.6996026155499737  0.2136105639512330
  0.9371853179961467  0.9514322556776998  0.3462986388934687
  0.3125035109422171  0.3782748593418214  0.7863724540994005
  0.8128032513013316  0.3760513309313075  0.6537509610795850
  0.3129296134622093  0.0442552513587841  0.7422150989438706
  0.8127032990125133  0.1994076208879381  0.2135040391450393
  0.9381983309142378  0.1178350485961431  0.3017133310649012
  0.3122560692057258  0.7102429856959155  0.6981303138113012
  0.0625137359281900  0.8670390990430192  0.3019105349080330
  0.1877685311202593  0.2917638049846838  0.6096880082506997
  0.5625968182860346  0.0414450769990031  0.6097970841776613
  0.9372771689646966  0.7939409689604175  0.7421495950180994
  0.0625957480680479  0.2102956358085171  0.6981520145727653
  0.3125150334614180  0.7021644955206114  0.3463451955615614
  0.6879812621976082  0.7817936516906988  0.1265786291633636
  0.4373656475212303  0.2915725020110048  0.6098605377834747
  0.4372130507073454  0.4554625822481347  0.4787468078009917
  0.9374950111486507  0.9554804542871219  0.4786819182997402
  0.6876417991726596  0.6256258879206800  0.6537364834309183
  0.0625718664814536  0.5332102793868245  0.2576783555856987
  0.5624636951741272  0.7047720249771151  0.4787566945238430
  0.9375179999730519  0.1260369139866114  0.6536603624530345
  0.3122550998573945  0.2097974421595107  0.6980989906229741
  0.3118738401294800  0.8708352282360186  0.4348180302073251
  0.1878189773873843  0.7836229749635929  0.2576941528629019
  0.3122851776992930  0.3728392945687377  0.5215145577875823
  0.5624264071908748  0.2049334205696618  0.4788393410387315
  0.1877070967806276  0.9622794296986940  0.8311119548166261
  0.8127458660042133  0.2020280592505422  0.3462962370126378
  0.8126651769438138  0.7072577833222086  0.5652361739053172
  0.6874286293771000  0.1209405537425824  0.4348693759791424
  0.8125142520990729  0.8759413383351571  0.6536601807201142
  0.6872244174392066  0.6284420473398890  0.7864449010118695
  0.9376103305160420  0.6261624979472759  0.6536760121064352
  0.6877747086534466  0.1231504084578832  0.5214967087401841
  0.5628501041564100  0.3678893168526989  0.3019907099868469
  0.9375313767259865  0.2957390937058584  0.8733643787698834
  0.4374461599821602  0.2833775887929676  0.2577232778513805
  0.3129898804902334  0.5443458908528279  0.7421893953711604
  0.8125278061329579  0.2126155914968368  0.8312248582618839
  0.9377993625066843  0.2863317018898182  0.3903680593109368
  0.4372413167998306  0.6230040570038258  0.5214881808650436
  0.4375283711045818  0.2956345185800219  0.8732673909693126
  0.9374236036680201  0.4518634448434377  0.3464430311521531
  0.4374055514304208  0.4598855811340294  0.6980941908497597
  0.9369777782626811  0.1205991757592217  0.4349132675624242
  0.5624456677615183  0.0443289900610297  0.7422175049334725
  0.6874066611477789  0.9492190765823444  0.2134305170203502
  0.4371154116498023  0.1146885943051097  0.1686382838485712
  0.4372566898949642  0.9572548771324971  0.5652263167423792
  0.4377905644711481  0.7917156267349836  0.6098441769199648
  0.3123746994798782  0.8783293991102981  0.7863725120089998
  0.9376567625750344  0.9494445754849937  0.2134220933535066
  0.1877503839532405  0.1259750042036579  0.6536064723243945
  0.9376081878578101  0.2919256777950611  0.6097578748013486
  0.5624827033379677  0.0333771799393906  0.2576205558460397
  0.4372306221933298  0.7834231037412980  0.2577533948862215
  0.9375338798216828  0.7957242166605240  0.8733658614087276
  0.8117643396207723  0.0312629920592200  0.1264527663596837
  0.5625269975839715  0.3729488746929031  0.5214352438213883
  0.6876703837402538  0.9553205900515416  0.4787980939317389
  0.5624847481604308  0.7102947371795985  0.6981082375230719
  0.9377217200907985  0.6175373457473506  0.3018391045982688
  0.8123699756848747  0.3653706411927230  0.1688482748957322
  0.5621756313739079  0.1992912298802438  0.2135304401465555
  0.9374233099402255  0.1277350388904001  0.7864222700924132
  0.9375114501645114  0.4552615712517347  0.4788845511958225
  0.9374007698209651  0.6153158965615624  0.1687319005780760
  0.8121438648009325  0.5363374398109376  0.3904672623184010
  0.8125881487568110  0.0420040679920509  0.6098767562671424
  0.6871075967762729  0.4598402521335338  0.6981175407482527
  0.9370418651809407  0.6209117491421086  0.4350637507019660
  0.9374578880899951  0.9571473843185393  0.5651583883103698
  0.8127002519233673  0.5457621633256813  0.8733616298310046
  0.6875504915277966  0.6181778664090882  0.3017624430838513
  0.6878400219519875  0.6229633544476784  0.5214616533332068
  0.8124813038807721  0.8781694770014512  0.7863939794920921
  0.5625957384479223  0.5340844924098072  0.2578138295514802
  0.1877094075848461  0.4622257551492493  0.8311399420827597
  0.6876623615983298  0.4500962203882499  0.2135575398167615
  0.3127155015384435  0.8757599548662243  0.6536552194493795
  0.5629713524310885  0.3653802693393386  0.1688465453148976
  0.3119868208488443  0.2017910225764999  0.3462508573054425
  0.6875169428339855  0.9520782798078528  0.3463732633595359
  0.0625760170963470  0.2072400059424390  0.5651573617785375
  0.9376813693871173  0.7834583546088327  0.2577253089947728
  0.6879979701625933  0.6206711990688953  0.4347470077504177
  0.3124895222689112  0.5326343972950472  0.1266376145820256
  0.6878354776140400  0.7956861469500801  0.8732863008831228
  0.0619681555711201  0.3710776012244615  0.4348997427474982
  0.1876678137982871  0.7943046840812410  0.7421960820292960
  0.6874807501351619  0.6145902112707725  0.1689105718199698
  0.1877059178548688  0.6227899470475144  0.5214543873110797
  0.0625816178119386  0.7121492974573688  0.8312329595295668
  0.0627155117717165  0.3763076924312359  0.6535793777314729
  0.1875205307203919  0.1279137429700420  0.7863702340931943
  0.5625928210874567  0.8754947875746107  0.6537651203077857
  0.3128413864791463  0.8669131165458894  0.3019595866014363
  0.3123452327659961  0.5336045415817759  0.2577733595486136
  0.1877764713260480  0.6153464005205654  0.1687754960145408
  0.9373039778928647  0.1228797049732429  0.5213797417417920
  0.5627094214772448  0.0458788306276078  0.8732943136241510
  0.1879264655087787  0.2834796256007702  0.2577224526452718
  0.4374854880335293  0.7957783990131041  0.8733015245428253
  0.9369206126821115  0.7816999652933778  0.1266271712134705
  0.1877611061892859  0.7958352458210363  0.8733447088826488
  0.0626603853292664  0.0342031672672854  0.2576695885247032
  0.8124366271169965  0.2099846081100921  0.6981378193872592
  0.8120444627459392  0.7018979154801670  0.3463292510075442
  0.8119826762463344  0.5441797222410606  0.7422218390487484
  0.3126338405145722  0.5415437507361320  0.6098447722962399
  0.0626452095911879  0.0460690044316547  0.8732952371809801
  0.9375575452316249  0.9624225550506387  0.8310921124557059
  0.5624491345624809  0.3783099259082957  0.7863642407793250
  0.4374211507915590  0.2942119092953414  0.7421899798311303
  0.3127260505770680  0.7054706221981871  0.4787565815740505
  0.3127084741956101  0.5458219009715862  0.8733349164915681
  0.8125585908991039  0.7126270190580622  0.8312345018264076
  0.9375025080500639  0.1157037167296344  0.1686186617819373
  0.4373754742282616  0.1229859041611587  0.5214689941865814
  0.3125083030450760  0.7072897779941648  0.5652608646636164
  0.4375435473748039  0.4574509038602800  0.5652052794356118
  0.8122748086779014  0.5316562816578690  0.1266339035019270
  0.1874224222825549  0.4522352695636330  0.3463489596145486
  0.6869865939171551  0.7860643486672210  0.3903076867385121
  0.4375461108260653  0.6283403237955409  0.7863776584815270
  0.5624542175858170  0.5443116249594160  0.7422271479212339
  0.1877014700685275  0.9602286471001893  0.6980481810230269
  0.3124091028451125  0.3646934033709560  0.1687327618278082
  0.1875560569401939  0.9552843337147182  0.4786935951397841
  0.5623937139181119  0.5311579409385120  0.1267264299864935
  0.8125797158172172  0.5415521181855787  0.6098151727276833
  0.0621088456534756  0.3651678431404742  0.1686749636721138
  0.0624117975456586  0.0359234864669158  0.3903002246781399
  0.4378409731785974  0.1209640179435459  0.4348384335511366
  0.1870208734001353  0.2820499912279686  0.1264961440250663
  0.0623755950293185  0.8708310577406130  0.4349607074022980
  0.5619421336305114  0.2017649601615819  0.3462754762952667
  0.8125357399494725  0.2053589897704962  0.4787041125638236
  0.4371718366574566  0.6207761792801729  0.4348189019126142
  0.3126858289422243  0.7126174732959084  0.8311932959050664
  0.5623282614451920  0.7022961516832344  0.3463039882126050
  0.9375332094199432  0.4622658939515623  0.8311449684633248
  0.5624078694225887  0.0365604528126857  0.3903465412465141
  0.0626506627383743  0.3730602765488180  0.5214849386020938
  0.1873702497018429  0.6212628291419622  0.4350150500109599
  0.6875601706504811  0.2914911762539330  0.6097743519578120
  0.4375747127794670  0.1283792110475533  0.7863513774625257
  0.6878658998744576  0.2955987177172389  0.8732853240118753
  0.4369373510208195  0.2862967369810842  0.3903610710855072
  0.6876033376040330  0.2942465191809693  0.7421944354298449
  0.4369474015781941  0.6152871368906705  0.1688649561103524
  0.4373715990817995  0.6177523967675779  0.3019306406753675
  0.1874429750159841  0.4552383631164358  0.4787509880204197
  0.6871264213963915  0.2834782691696554  0.2577367970029195
  0.0623588050053505  0.7103088172910499  0.6981392920712669
  0.5624485688609344  0.8655531455577629  0.1686697998028162
  0.3123375822059219  0.3712587077639762  0.4349060772313380
  0.9373864435457532  0.6228277429878625  0.5214689451805604
  0.0621487898099569  0.0315756539589292  0.1264131290544220
  0.1873289349610827  0.2941570196252593  0.7421504191118471
  0.3125063252962671  0.3758706106307548  0.6537170291702172
  0.6874698740253227  0.7917700335724510  0.6098425081453348
  0.8124442650927080  0.0335064590126060  0.2576253829257976
  0.5626931248350084  0.7123789936815956  0.8310725507224569
  0.6877271115593743  0.4573929254638819  0.5651885936869384
  0.8121800608112127  0.8654204427459886  0.1686975701680008
  0.1873796181398380  0.9496241862509286  0.2136017893938947
  0.8128132103947313  0.3710670272075476  0.4350581390137424
  0.5626551509098806  0.2123976378746953  0.8310922749936138
  0.0625966932032088  0.5417602846094355  0.6098057439152197
  0.0626399825739574  0.5461152964058171  0.8733066818938457
  0.1874792854029322  0.6260184183884780  0.6536968977035891
  0.6874387809849770  0.1282520550731941  0.7863810846709823
  0.9374303045466019  0.9601364571365498  0.6980634367932117
  0.6874347684912652  0.7941713055353465  0.7422243048322007
  0.8125187846458074  0.8678649320517650  0.3018852240391530
  0.6870571685080753  0.7835223441478233  0.2577738387556136
  0.4373524852973045  0.4518054825419259  0.3463574491756365
  0.5626297491567284  0.5412527903502173  0.6098790882905978
  0.4373452509165378  0.7864022727173777  0.3902011726445103
  0.4375696662560212  0.6256159654000966  0.6537442020558456
  0.1875084652163071  0.6279982244183303  0.7863706085983173
  0.4372563069840490  0.1173626301528848  0.3017911181056979
  0.8125721141102089  0.3782667690021694  0.7864010296550101
  0.3125943867366918  0.0417596980640354  0.6098491808408976
  0.0624612160507860  0.5365548417331136  0.3903941499082391
  0.1872657156350468  0.4496617311066837  0.2135715282641249
  0.0623981903428335  0.8731428711339254  0.5214492059526794
  0.8123672799118732  0.0361235512847164  0.3903110507005370
  0.6874880585570731  0.2820019871901635  0.1265978238203636
  0.8130834259580901  0.2070036693068964  0.5651662628898620
  0.3124087912911219  0.8727289954248361  0.5214514971319753
  0.0625667574083369  0.8763066245019600  0.6536121434714657
  0.9372122489311536  0.2818215696507270  0.1264902368941207
  0.3125284966027662  0.0311669308935228  0.1262922076134332
  0.3125637650899746  0.2055895647579421  0.4786467550199313
  0.4378649358476191  0.9489503943588604  0.2135119612212665
  0.0622460982779345  0.5320632327821968  0.1265925250795663
  0.6873570596766180  0.1152778144369882  0.1687327830428161
  0.6877136573044811  0.4626134923097799  0.8311330691714802
  0.0624421984979434  0.7018261332252431  0.3462240937637315
  0.9372953225838279  0.2943440255412834  0.7422007420082288
  0.8127824730787038  0.3725991275837044  0.5215050385651284
  0.9377722209073229  0.4501517841823776  0.2135710742932911
  0.4370973534768315  0.9554173214114919  0.4786911089738365
  0.3127255767931961  0.2126320691030093  0.8311804328760263
  0.5623977974317932  0.8679403462310618  0.3019260819306005
  0.8120818242084651  0.0441364671438150  0.7422111572996830
  0.1878523039551507  0.9571577066681901  0.5651268910614949
  0.1877825820410458  0.1230321359735145  0.5213177990974683
  0.3125186680888143  0.0365262368920520  0.3902507813907632
  0.9373615049851544  0.6279094743929835  0.7864051946561399
  0.6870621730153806  0.9598931897535190  0.6981128029225676
  0.4375517424017756  0.9626386656078789  0.8310906666380132
  0.8123236366769526  0.7001223831175190  0.2135285617072983
  0.4375935228340662  0.1257431574669886  0.6537323244427130
  0.4373723599383195  0.7942608777426063  0.7422201117369083
  0.0624144554510139  0.2053624486531772  0.4786873233132207
  0.6880054701421581  0.9571652417876653  0.5652309992247330
  0.5626905060473566  0.5460376393390183  0.8732986700497151
  0.4377451369894251  0.2819697446695126  0.1266085312953759
  0.5629453971605364  0.0311275834006002  0.1264790592110391
  0.1876999532659480  0.7819628610580784  0.1263634718638284
  0.5626772297855137  0.2067751681799976  0.5652328455581584
  0.0628046349636877  0.5445402145514232  0.7424927221206730
  0.5617059088824935  0.3714885239876205  0.4351577165611521
  0.9376272767530101  0.7863390961194926  0.3900988396735590
  0.0622029631163019  0.1993630590636274  0.2135880876694421
  0.3124936022092695  0.8655447732161013  0.1681615714246104
  0.3137179880885204  0.1988551626258213  0.2137516930806724
  0.5625474145112845  0.8731437401622203  0.5213631173000352
  0.1876366399215057  0.1204158533711428  0.4348933726603721
  0.9369712515095082  0.4598691776401529  0.6979279742165587
  0.6878810679188034  0.1176524581761400  0.3017573759678999
  0.9363390923543951  0.2832447131523961  0.2576862611379772
  0.0623528517805749  0.0442893504592378  0.7422993362369082
  0.6875127887443662  0.2858226990007674  0.3901282938997354
  0.0627700873711363  0.3682681241773336  0.3021104829250866
 
  0.00000000E+00  0.00000000E+00  0.00000000E+00
  0.00000000E+00  0.00000000E+00  0.00000000E+00
  0.00000000E+00  0.00000000E+00  0.00000000E+00
  0.00000000E+00  0.00000000E+00  0.00000000E+00
  0.00000000E+00  0.00000000E+00  0.00000000E+00
  0.00000000E+00  0.00000000E+00  0.00000000E+00
  0.00000000E+00  0.00000000E+00  0.00000000E+00
  0.00000000E+00  0.00000000E+00  0.00000000E+00
  0.00000000E+00  0.00000000E+00  0.00000000E+00
  0.00000000E+00  0.00000000E+00  0.00000000E+00
  0.00000000E+00  0.00000000E+00  0.00000000E+00
  0.00000000E+00  0.00000000E+00  0.00000000E+00
  0.00000000E+00  0.00000000E+00  0.00000000E+00
  0.00000000E+00  0.00000000E+00  0.00000000E+00
  0.00000000E+00  0.00000000E+00  0.00000000E+00
  0.00000000E+00  0.00000000E+00  0.00000000E+00
  0.00000000E+00  0.00000000E+00  0.00000000E+00
  0.00000000E+00  0.00000000E+00  0.00000000E+00
  0.00000000E+00  0.00000000E+00  0.00000000E+00
  0.00000000E+00  0.00000000E+00  0.00000000E+00
  0.00000000E+00  0.00000000E+00  0.00000000E+00
  0.00000000E+00  0.00000000E+00  0.00000000E+00
  0.00000000E+00  0.00000000E+00  0.00000000E+00
  0.00000000E+00  0.00000000E+00  0.00000000E+00
  0.00000000E+00  0.00000000E+00  0.00000000E+00
  0.00000000E+00  0.00000000E+00  0.00000000E+00
  0.00000000E+00  0.00000000E+00  0.00000000E+00
  0.00000000E+00  0.00000000E+00  0.00000000E+00
  0.00000000E+00  0.00000000E+00  0.00000000E+00
  0.00000000E+00  0.00000000E+00  0.00000000E+00
  0.00000000E+00  0.00000000E+00  0.00000000E+00
  0.00000000E+00  0.00000000E+00  0.00000000E+00
  0.00000000E+00  0.00000000E+00  0.00000000E+00
  0.00000000E+00  0.00000000E+00  0.00000000E+00
  0.00000000E+00  0.00000000E+00  0.00000000E+00
  0.00000000E+00  0.00000000E+00  0.00000000E+00
  0.00000000E+00  0.00000000E+00  0.00000000E+00
  0.00000000E+00  0.00000000E+00  0.00000000E+00
  0.00000000E+00  0.00000000E+00  0.00000000E+00
  0.00000000E+00  0.00000000E+00  0.00000000E+00
  0.00000000E+00  0.00000000E+00  0.00000000E+00
  0.00000000E+00  0.00000000E+00  0.00000000E+00
  0.00000000E+00  0.00000000E+00  0.00000000E+00
  0.00000000E+00  0.00000000E+00  0.00000000E+00
  0.00000000E+00  0.00000000E+00  0.00000000E+00
  0.00000000E+00  0.00000000E+00  0.00000000E+00
  0.00000000E+00  0.00000000E+00  0.00000000E+00
  0.00000000E+00  0.00000000E+00  0.00000000E+00
  0.00000000E+00  0.00000000E+00  0.00000000E+00
  0.00000000E+00  0.00000000E+00  0.00000000E+00
  0.00000000E+00  0.00000000E+00  0.00000000E+00
  0.00000000E+00  0.00000000E+00  0.00000000E+00
  0.00000000E+00  0.00000000E+00  0.00000000E+00
  0.00000000E+00  0.00000000E+00  0.00000000E+00
  0.00000000E+00  0.00000000E+00  0.00000000E+00
  0.00000000E+00  0.00000000E+00  0.00000000E+00
  0.00000000E+00  0.00000000E+00  0.00000000E+00
  0.00000000E+00  0.00000000E+00  0.00000000E+00
  0.00000000E+00  0.00000000E+00  0.00000000E+00
  0.00000000E+00  0.00000000E+00  0.00000000E+00
  0.00000000E+00  0.00000000E+00  0.00000000E+00
  0.00000000E+00  0.00000000E+00  0.00000000E+00
  0.00000000E+00  0.00000000E+00  0.00000000E+00
  0.00000000E+00  0.00000000E+00  0.00000000E+00
  0.00000000E+00  0.00000000E+00  0.00000000E+00
  0.00000000E+00  0.00000000E+00  0.00000000E+00
  0.00000000E+00  0.00000000E+00  0.00000000E+00
  0.00000000E+00  0.00000000E+00  0.00000000E+00
  0.00000000E+00  0.00000000E+00  0.00000000E+00
  0.00000000E+00  0.00000000E+00  0.00000000E+00
  0.00000000E+00  0.00000000E+00  0.00000000E+00
  0.00000000E+00  0.00000000E+00  0.00000000E+00
  0.00000000E+00  0.00000000E+00  0.00000000E+00
  0.00000000E+00  0.00000000E+00  0.00000000E+00
  0.00000000E+00  0.00000000E+00  0.00000000E+00
  0.00000000E+00  0.00000000E+00  0.00000000E+00
  0.00000000E+00  0.00000000E+00  0.00000000E+00
  0.00000000E+00  0.00000000E+00  0.00000000E+00
  0.00000000E+00  0.00000000E+00  0.00000000E+00
  0.00000000E+00  0.00000000E+00  0.00000000E+00
  0.00000000E+00  0.00000000E+00  0.00000000E+00
  0.00000000E+00  0.00000000E+00  0.00000000E+00
  0.00000000E+00  0.00000000E+00  0.00000000E+00
  0.00000000E+00  0.00000000E+00  0.00000000E+00
  0.00000000E+00  0.00000000E+00  0.00000000E+00
  0.00000000E+00  0.00000000E+00  0.00000000E+00
  0.00000000E+00  0.00000000E+00  0.00000000E+00
  0.00000000E+00  0.00000000E+00  0.00000000E+00
  0.00000000E+00  0.00000000E+00  0.00000000E+00
  0.00000000E+00  0.00000000E+00  0.00000000E+00
  0.00000000E+00  0.00000000E+00  0.00000000E+00
  0.00000000E+00  0.00000000E+00  0.00000000E+00
  0.00000000E+00  0.00000000E+00  0.00000000E+00
  0.00000000E+00  0.00000000E+00  0.00000000E+00
  0.00000000E+00  0.00000000E+00  0.00000000E+00
  0.00000000E+00  0.00000000E+00  0.00000000E+00
  0.00000000E+00  0.00000000E+00  0.00000000E+00
  0.00000000E+00  0.00000000E+00  0.00000000E+00
  0.00000000E+00  0.00000000E+00  0.00000000E+00
  0.00000000E+00  0.00000000E+00  0.00000000E+00
  0.00000000E+00  0.00000000E+00  0.00000000E+00
  0.00000000E+00  0.00000000E+00  0.00000000E+00
  0.00000000E+00  0.00000000E+00  0.00000000E+00
  0.00000000E+00  0.00000000E+00  0.00000000E+00
  0.00000000E+00  0.00000000E+00  0.00000000E+00
  0.00000000E+00  0.00000000E+00  0.00000000E+00
  0.00000000E+00  0.00000000E+00  0.00000000E+00
  0.00000000E+00  0.00000000E+00  0.00000000E+00
  0.00000000E+00  0.00000000E+00  0.00000000E+00
  0.00000000E+00  0.00000000E+00  0.00000000E+00
  0.00000000E+00  0.00000000E+00  0.00000000E+00
  0.00000000E+00  0.00000000E+00  0.00000000E+00
  0.00000000E+00  0.00000000E+00  0.00000000E+00
  0.00000000E+00  0.00000000E+00  0.00000000E+00
  0.00000000E+00  0.00000000E+00  0.00000000E+00
  0.00000000E+00  0.00000000E+00  0.00000000E+00
  0.00000000E+00  0.00000000E+00  0.00000000E+00
  0.00000000E+00  0.00000000E+00  0.00000000E+00
  0.00000000E+00  0.00000000E+00  0.00000000E+00
  0.00000000E+00  0.00000000E+00  0.00000000E+00
  0.00000000E+00  0.00000000E+00  0.00000000E+00
  0.00000000E+00  0.00000000E+00  0.00000000E+00
  0.00000000E+00  0.00000000E+00  0.00000000E+00
  0.00000000E+00  0.00000000E+00  0.00000000E+00
  0.00000000E+00  0.00000000E+00  0.00000000E+00
  0.00000000E+00  0.00000000E+00  0.00000000E+00
  0.00000000E+00  0.00000000E+00  0.00000000E+00
  0.00000000E+00  0.00000000E+00  0.00000000E+00
  0.00000000E+00  0.00000000E+00  0.00000000E+00
  0.00000000E+00  0.00000000E+00  0.00000000E+00
  0.00000000E+00  0.00000000E+00  0.00000000E+00
  0.00000000E+00  0.00000000E+00  0.00000000E+00
  0.00000000E+00  0.00000000E+00  0.00000000E+00
  0.00000000E+00  0.00000000E+00  0.00000000E+00
  0.00000000E+00  0.00000000E+00  0.00000000E+00
  0.00000000E+00  0.00000000E+00  0.00000000E+00
  0.00000000E+00  0.00000000E+00  0.00000000E+00
  0.00000000E+00  0.00000000E+00  0.00000000E+00
  0.00000000E+00  0.00000000E+00  0.00000000E+00
  0.00000000E+00  0.00000000E+00  0.00000000E+00
  0.00000000E+00  0.00000000E+00  0.00000000E+00
  0.00000000E+00  0.00000000E+00  0.00000000E+00
  0.00000000E+00  0.00000000E+00  0.00000000E+00
  0.00000000E+00  0.00000000E+00  0.00000000E+00
  0.00000000E+00  0.00000000E+00  0.00000000E+00
  0.00000000E+00  0.00000000E+00  0.00000000E+00
  0.00000000E+00  0.00000000E+00  0.00000000E+00
  0.00000000E+00  0.00000000E+00  0.00000000E+00
  0.00000000E+00  0.00000000E+00  0.00000000E+00
  0.00000000E+00  0.00000000E+00  0.00000000E+00
  0.00000000E+00  0.00000000E+00  0.00000000E+00
  0.00000000E+00  0.00000000E+00  0.00000000E+00
  0.00000000E+00  0.00000000E+00  0.00000000E+00
  0.00000000E+00  0.00000000E+00  0.00000000E+00
  0.00000000E+00  0.00000000E+00  0.00000000E+00
  0.00000000E+00  0.00000000E+00  0.00000000E+00
  0.00000000E+00  0.00000000E+00  0.00000000E+00
  0.00000000E+00  0.00000000E+00  0.00000000E+00
  0.00000000E+00  0.00000000E+00  0.00000000E+00
  0.00000000E+00  0.00000000E+00  0.00000000E+00
  0.00000000E+00  0.00000000E+00  0.00000000E+00
  0.00000000E+00  0.00000000E+00  0.00000000E+00
  0.00000000E+00  0.00000000E+00  0.00000000E+00
  0.00000000E+00  0.00000000E+00  0.00000000E+00
  0.00000000E+00  0.00000000E+00  0.00000000E+00
  0.00000000E+00  0.00000000E+00  0.00000000E+00
  0.00000000E+00  0.00000000E+00  0.00000000E+00
  0.00000000E+00  0.00000000E+00  0.00000000E+00
  0.00000000E+00  0.00000000E+00  0.00000000E+00
  0.00000000E+00  0.00000000E+00  0.00000000E+00
  0.00000000E+00  0.00000000E+00  0.00000000E+00
  0.00000000E+00  0.00000000E+00  0.00000000E+00
  0.00000000E+00  0.00000000E+00  0.00000000E+00
  0.00000000E+00  0.00000000E+00  0.00000000E+00
  0.00000000E+00  0.00000000E+00  0.00000000E+00
  0.00000000E+00  0.00000000E+00  0.00000000E+00
  0.00000000E+00  0.00000000E+00  0.00000000E+00
  0.00000000E+00  0.00000000E+00  0.00000000E+00
  0.00000000E+00  0.00000000E+00  0.00000000E+00
  0.00000000E+00  0.00000000E+00  0.00000000E+00
  0.00000000E+00  0.00000000E+00  0.00000000E+00
  0.00000000E+00  0.00000000E+00  0.00000000E+00
  0.00000000E+00  0.00000000E+00  0.00000000E+00
  0.00000000E+00  0.00000000E+00  0.00000000E+00
  0.00000000E+00  0.00000000E+00  0.00000000E+00
  0.00000000E+00  0.00000000E+00  0.00000000E+00
  0.00000000E+00  0.00000000E+00  0.00000000E+00
  0.00000000E+00  0.00000000E+00  0.00000000E+00
  0.00000000E+00  0.00000000E+00  0.00000000E+00
  0.00000000E+00  0.00000000E+00  0.00000000E+00
  0.00000000E+00  0.00000000E+00  0.00000000E+00
  0.00000000E+00  0.00000000E+00  0.00000000E+00
  0.00000000E+00  0.00000000E+00  0.00000000E+00
  0.00000000E+00  0.00000000E+00  0.00000000E+00
  0.00000000E+00  0.00000000E+00  0.00000000E+00
  0.00000000E+00  0.00000000E+00  0.00000000E+00
  0.00000000E+00  0.00000000E+00  0.00000000E+00
  0.00000000E+00  0.00000000E+00  0.00000000E+00
  0.00000000E+00  0.00000000E+00  0.00000000E+00
  0.00000000E+00  0.00000000E+00  0.00000000E+00
  0.00000000E+00  0.00000000E+00  0.00000000E+00
  0.00000000E+00  0.00000000E+00  0.00000000E+00
  0.00000000E+00  0.00000000E+00  0.00000000E+00
  0.00000000E+00  0.00000000E+00  0.00000000E+00
  0.00000000E+00  0.00000000E+00  0.00000000E+00
  0.00000000E+00  0.00000000E+00  0.00000000E+00
  0.00000000E+00  0.00000000E+00  0.00000000E+00
  0.00000000E+00  0.00000000E+00  0.00000000E+00
  0.00000000E+00  0.00000000E+00  0.00000000E+00
  0.00000000E+00  0.00000000E+00  0.00000000E+00
  0.00000000E+00  0.00000000E+00  0.00000000E+00
  0.00000000E+00  0.00000000E+00  0.00000000E+00
  0.00000000E+00  0.00000000E+00  0.00000000E+00
  0.00000000E+00  0.00000000E+00  0.00000000E+00
  0.00000000E+00  0.00000000E+00  0.00000000E+00
  0.00000000E+00  0.00000000E+00  0.00000000E+00
  0.00000000E+00  0.00000000E+00  0.00000000E+00
  0.00000000E+00  0.00000000E+00  0.00000000E+00
  0.00000000E+00  0.00000000E+00  0.00000000E+00
  0.00000000E+00  0.00000000E+00  0.00000000E+00
  0.00000000E+00  0.00000000E+00  0.00000000E+00
  0.00000000E+00  0.00000000E+00  0.00000000E+00
  0.00000000E+00  0.00000000E+00  0.00000000E+00
  0.00000000E+00  0.00000000E+00  0.00000000E+00
  0.00000000E+00  0.00000000E+00  0.00000000E+00
  0.00000000E+00  0.00000000E+00  0.00000000E+00
  0.00000000E+00  0.00000000E+00  0.00000000E+00
  0.00000000E+00  0.00000000E+00  0.00000000E+00
  0.00000000E+00  0.00000000E+00  0.00000000E+00
  0.00000000E+00  0.00000000E+00  0.00000000E+00
  0.00000000E+00  0.00000000E+00  0.00000000E+00
  0.00000000E+00  0.00000000E+00  0.00000000E+00
  0.00000000E+00  0.00000000E+00  0.00000000E+00
  0.00000000E+00  0.00000000E+00  0.00000000E+00
  0.00000000E+00  0.00000000E+00  0.00000000E+00
  0.00000000E+00  0.00000000E+00  0.00000000E+00
  0.00000000E+00  0.00000000E+00  0.00000000E+00
  0.00000000E+00  0.00000000E+00  0.00000000E+00
  0.00000000E+00  0.00000000E+00  0.00000000E+00
  0.00000000E+00  0.00000000E+00  0.00000000E+00
  0.00000000E+00  0.00000000E+00  0.00000000E+00
  0.00000000E+00  0.00000000E+00  0.00000000E+00
  0.00000000E+00  0.00000000E+00  0.00000000E+00
  0.00000000E+00  0.00000000E+00  0.00000000E+00
  0.00000000E+00  0.00000000E+00  0.00000000E+00
  0.00000000E+00  0.00000000E+00  0.00000000E+00
  0.00000000E+00  0.00000000E+00  0.00000000E+00