FeMn_288_15                             
    1.000000000000000     
     9.7266779999999997    0.0000000000000000    0.0000000000000000
     0.0000000000000000    8.4235500000000005    0.0000000000000000
     0.0000000000000000    0.0000000000000000   45.0000000000000000
   Fe   Mn
   273    15
Direct
  0.1874698940631183  0.1178102601774887  0.3018894111488079
  0.8124935358969547  0.7101575263379798  0.6981473771305974
  0.1871621337571038  0.1150961616187958  0.1683779057753251
  0.3123823246600377  0.0335039687917831  0.2575835460456424
  0.5626915319664650  0.7069847707433196  0.5651672499028612
  0.1878663477861707  0.2957556153083394  0.8733293054217853
  0.0624767665669868  0.8780634147903782  0.7862723326235495
  0.1874275329644367  0.7865150735603669  0.3902790989007713
  0.6877127195334198  0.9627073551627144  0.8311497742132585
  0.4375340423887157  0.4626660302283436  0.8311507440550790
  0.8124008856532065  0.3682169237638344  0.3019275478873721
  0.1871148717024257  0.9517274152447742  0.3463373367782698
  0.6877859936717238  0.4553154782581542  0.4787614108804742
  0.5625283657031509  0.8783292910900126  0.7863115803187877
  0.3126764240630879  0.6996074762023283  0.2136339957841789
  0.1874688490839536  0.4599790250349230  0.6980668910946516
  0.4374428788014708  0.9598309682007863  0.6981350735761024
  0.8122702343250890  0.7053553997538748  0.4787766509737095
  0.4376045279593461  0.4500209127168929  0.2135812059072512
  0.9374933008076951  0.4575864090224349  0.5652237915992436
  0.5624739796830065  0.2096861368517148  0.6981294729393238
  0.0623687891586472  0.3779577284125840  0.7862813250838951
  0.1875028775703357  0.7919603437613147  0.6098042570669789
  0.0626455817724060  0.0417338195192854  0.6097956315124442
  0.0626626006602662  0.8656353386017290  0.1687318574257202
  0.5622428523211992  0.8709244368343345  0.4351490735534359
  0.1877091839530018  0.2860863919732118  0.3903305825755926
  0.3126394317473586  0.5365399833500077  0.3904170381628047
  0.4374241123369357  0.9519915249625819  0.3462618388164168
  0.5626148007670152  0.3757937190979318  0.6536958595245369
  0.6875699493544930  0.1258961207543961  0.6537072356389799
  0.8127023319637561  0.8706957980555581  0.4348785083207681
  0.0626228911175319  0.2120932974873679  0.8312731714179640
  0.8128553583216471  0.8726392489674061  0.5214240601475064
  0.5624382784932050  0.5360609156920177  0.3902879379760923
  0.3123727476601167  0.2071703457255324  0.5651801646670334
  0.0625661941845107  0.7052506694400681  0.4788105784699184
  0.1880149054635762  0.6171630061132826  0.3018816530552371
  0.0623927750798345  0.2020080625202305  0.3463407810203518
  0.8125004217490481  0.5338572699470346  0.2577230329152761
  0.3126799747832018  0.0457821693030202  0.8733020067089218
  0.6868943590792214  0.4515604871240654  0.3462794379649240
  0.0623666635925161  0.7001286754562448  0.2135257951137645
  0.1877830923090299  0.4576187311248209  0.5651794935295420
  0.9376659757535044  0.7921116576571019  0.6097323698612803
  0.8126811351668376  0.0457702832086187  0.8733139201889666
  0.3130584716551021  0.3681261778117874  0.3019223159946290
  0.4368858636888100  0.7817047130416708  0.1265148844283213
  0.0627000965576901  0.7073375235355527  0.5651027358209558
  0.5626229784662765  0.6996483161791706  0.2136363357985693
  0.9372024614882392  0.9514048357227344  0.3462982432650196
  0.3124980092081186  0.3782781503172942  0.7863017897358434
  0.8128393756104324  0.3760766983000500  0.6537492759246942
  0.3128167483540498  0.0442379925178040  0.7422644489053797
  0.8128080823703741  0.1994220922828661  0.2135357391461409
  0.9380758052724528  0.1178829524651090  0.3017060592896641
  0.3122437076922275  0.7102531012323053  0.6981514095638387
  0.0624715276029034  0.8670700489204531  0.3019252231301895
  0.1877863379626144  0.2918090352865322  0.6096767742861506
  0.5626360028193785  0.0415718647361755  0.6098072221308867
  0.9372787448008009  0.7939919228866010  0.7421937101681915
  0.0625617174735975  0.2102168868291568  0.6981648351470794
  0.3124855107171507  0.7021191207416919  0.3463647246873954
  0.6879588979024009  0.7817644723436700  0.1266491110277525
  0.4374130629660563  0.2915663457368743  0.6098640218326832
  0.4370714976863934  0.4554399787668553  0.4787240850282966
  0.9374050423094757  0.9554541422493577  0.4786780028834825
  0.6876438732916023  0.6256524282632366  0.6537311994047069
  0.0626184095680832  0.5332303355941295  0.2576360227380989
  0.5623933663806271  0.7049301901439169  0.4787630053526279
  0.9375594648218201  0.1260193308133903  0.6536630915431395
  0.3122491911788161  0.2098481121781859  0.6981132484552780
  0.3119449057481938  0.8707863126727584  0.4348363185190643
  0.1877615312190526  0.7835828559854282  0.2576404449948788
  0.3123768776715195  0.3727696244531591  0.5215227520458472
  0.5623564401658981  0.2050484006524102  0.4788176390456034
  0.1877085855540822  0.9623481730971978  0.8311769464914753
  0.8126687429242097  0.2019949233660522  0.3462734876432303
  0.8127244325156741  0.7072639652024812  0.5652056778538855
  0.6874420514849766  0.1209457410177647  0.4348904632667145
  0.8125505607993484  0.8759706663884489  0.6536609761938389
  0.6872349224996676  0.6284517256236164  0.7863717415243484
  0.9376293127240782  0.6260834531362240  0.6536762010678475
  0.6876891565760380  0.1231857085775316  0.5215179185105440
  0.5629667202032302  0.3677996152281077  0.3019943233731145
  0.9375387451223461  0.2957387710256440  0.8733418116061705
  0.4373910735664119  0.2833602366835724  0.2576788636701666
  0.3128800337960214  0.5443217979077133  0.7422286620645848
  0.8125551562253815  0.2125919199156070  0.8312658470027577
  0.9377122394522154  0.2862538257507993  0.3903694299204554
  0.4373566584461577  0.6230256517017465  0.5214974983898631
  0.4375208982049932  0.2956994787289768  0.8732446923941772
  0.9374577274615563  0.4517603999928979  0.3464300439984086
  0.4373665031577311  0.4598956033239806  0.6981139939437180
  0.9370711101238229  0.1206154073194119  0.4349106821674701
  0.5624668487787915  0.0442908802033343  0.7422707738107882
  0.6874033643620804  0.9493338751995922  0.2134546756906148
  0.4371269168101323  0.1146864602254459  0.1685482544668716
  0.4372978843421740  0.9571850058385544  0.5651936215262602
  0.4378382834001506  0.7917543283037523  0.6098530672098463
  0.3123497621259787  0.8783419855211116  0.7863081367825434
  0.9376475678814076  0.9495436736829641  0.2134446196416507
  0.1877366148130999  0.1260050027125989  0.6536024934530892
  0.9376358668809743  0.2920018701333575  0.6097608413146592
  0.5625358025426311  0.0333370175214202  0.2575751848502607
  0.4371938810322779  0.7834009591722449  0.2577005014425106
  0.9375378657158902  0.7958427749945666  0.8733323593624717
  0.8116803054823827  0.0311746022524821  0.1265212996626601
  0.5625149306550872  0.3728208337646685  0.5214791003815734
  0.6875920430881309  0.9553736530212880  0.4787784518842231
  0.5624664930590364  0.7103106543507044  0.6981287604916853
  0.9377717754230888  0.6174864422835004  0.3018546600731427
  0.8123457777993044  0.3652607281537371  0.1688019590360432
  0.5620547744582144  0.1992243517761299  0.2135664582904715
  0.9374364044255024  0.1277679833672712  0.7863703806021033
  0.9375414963842520  0.4553689065311529  0.4788615224096259
  0.9374527786588980  0.6152666965876572  0.1686705543341440
  0.8120283195955704  0.5363935178889379  0.3904799324041017
  0.8125931637405828  0.0420230556630315  0.6098768231073274
  0.6871856527705124  0.4598465215740661  0.6981440928763706
  0.9370592070720376  0.6208931334271048  0.4350762796543344
  0.9374911538903276  0.9571284040336417  0.5651236059934290
  0.8126251040825808  0.5458596755396271  0.8733386210855901
  0.6876030209583107  0.6180711718477695  0.3017679052840458
  0.6877292363748045  0.6229305916323683  0.5214807094504790
  0.8124703929607313  0.8782042563356026  0.7863304614995270
  0.5626319450059870  0.5340779152692109  0.2577682438157444
  0.1876987181909555  0.4622857889283601  0.8311721029802779
  0.6876820648735703  0.4500400062134115  0.2135902319371955
  0.3127292889106396  0.8757833274872496  0.6536578264409268
  0.5629769746447157  0.3652721839423491  0.1687888732226898
  0.3119461282994695  0.2018185977664066  0.3462496915383097
  0.6874764103062343  0.9520570679984719  0.3463766495717047
  0.0625873546504028  0.2072956097791848  0.5651229409442845
  0.9377495500676891  0.7833918256060742  0.2576875614136018
  0.6879496286798485  0.6207072142473448  0.4347349163080640
  0.3125272872520817  0.5324533617166443  0.1267095787027446
  0.6877801783484534  0.7957338413155882  0.8732466740019630
  0.0619846340846495  0.3710971346833030  0.4349273326298138
  0.1876196545506663  0.7942839005239841  0.7422366718506664
  0.6874867527975519  0.6145226894916882  0.1688492070029405
  0.1876467289520378  0.6228390733893373  0.5214590548591311
  0.0626226179313642  0.7122789577522948  0.8312600583448756
  0.0627262075138192  0.3763131752923083  0.6535704272279160
  0.1874659869348817  0.1278917292749453  0.7863156061831708
  0.5625999099198912  0.8755745246644974  0.6537734683538949
  0.3128791672719120  0.8669480175230635  0.3019651396955044
  0.3123987430373546  0.5337122004682577  0.2577194254684169
  0.1877262154232361  0.6153136945703107  0.1687078309251769
  0.9374350955207755  0.1227607317196619  0.5214206535332673
  0.5626741744569307  0.0459197900303051  0.8732526127881290
  0.1878597504365434  0.2834281977433066  0.2576792077465686
  0.4374776464265604  0.7958579897658195  0.8732636162911508
  0.9368711939611553  0.7816460277050389  0.1267089213711035
  0.1878502135136633  0.7959633621556130  0.8733072544200403
  0.0626281052500688  0.0342369542952030  0.2576208068907547
  0.8124116920119006  0.2099786078194440  0.6981600595372380
  0.8119755954164081  0.7019102818049422  0.3463327129275365
  0.8120512792734347  0.5441680208949873  0.7422770603036035
  0.3126365458204866  0.5415059030959515  0.6098582848711610
  0.0627319257997475  0.0461143021808327  0.8732660311275954
  0.9376039752526835  0.9625291929758829  0.8311358849894593
  0.5624524067635316  0.3783204989207941  0.7862920615417444
  0.4374020461370519  0.2942130383639505  0.7422436440602304
  0.3126204876365443  0.7055054842385002  0.4787425417263292
  0.3127684870782105  0.5459435630500243  0.8733142731166122
  0.8125301949306443  0.7127405137567490  0.8312800573847705
  0.9375268391243547  0.1156398229169280  0.1685571802621014
  0.4374477354734657  0.1230191070646824  0.5214768933722944
  0.3125087634625943  0.7072808918250678  0.5652306730363301
  0.4375625161617918  0.4574961113162335  0.5651737730884530
  0.8122468649996940  0.5315009613578296  0.1267045712652090
  0.1873733278047381  0.4522074257621327  0.3463311980084279
  0.6870221559596645  0.7860579231468713  0.3902797514600409
  0.4375421598923486  0.6283603127572767  0.7863007000147576
  0.5624578570246537  0.5442866139991194  0.7422653095296430
  0.1876359983537762  0.9602384526667658  0.6980545941642919
  0.3124744493551524  0.3645558908228272  0.1686591128272332
  0.1876699691182424  0.9553261647325800  0.4786924936597701
  0.5623483076621912  0.5310770970645000  0.1267886992718615
  0.8126272797137781  0.5415362132710456  0.6098267304247055
  0.0621318848020449  0.3649858308473574  0.1686246866481109
  0.0623859806712884  0.0359494178389589  0.3902951677614203
  0.4377085135357238  0.1208484644143875  0.4348556319636956
  0.1870297086833919  0.2819536841777431  0.1265606735140345
  0.0623701977022072  0.8707567585386451  0.4349764324208686
  0.5619945029943368  0.2017154047349921  0.3462642177928935
  0.8124270164281133  0.2054282437183808  0.4786673327707218
  0.4371474828842202  0.6208307424691073  0.4348257572032134
  0.3126837766231274  0.7127153979735140  0.8312590554445577
  0.5623746204574677  0.7022663621761938  0.3463176570935389
  0.9375558348273259  0.4623413355891320  0.8311711865517727
  0.5624576007172379  0.0364221188298170  0.3903583736271483
  0.0626705641428857  0.3730171314445361  0.5215113974885203
  0.1874120762657778  0.6211839888585046  0.4350207862562039
  0.6874891056091269  0.2914936192699175  0.6097676215670801
  0.4375616830380297  0.1284177540516794  0.7862775346201624
  0.6878283767368012  0.2956784268470172  0.8732673268176933
  0.4370662418324148  0.2862697062971855  0.3903660447480942
  0.6875600719902609  0.2942428188574990  0.7422471254297749
  0.4369799814879344  0.6151926510196541  0.1688053148671051
  0.4374401133545039  0.6177159979573423  0.3019477596113770
  0.1874998616603037  0.4553601581157979  0.4787281569498599
  0.6871801932448937  0.2833587556144896  0.2576981450368711
  0.0623496726619727  0.7102944734380663  0.6981516626348391
  0.5623953777432125  0.8655415250543758  0.1685991203855918
  0.3124108754528451  0.3713099316278138  0.4349354822094379
  0.9374394923380959  0.6228554841559312  0.5214795258004739
  0.0621177523566710  0.0315122534502655  0.1264947610654560
  0.1873271106423517  0.2941952587606599  0.7421991599149188
  0.3124908846583422  0.3759267036892759  0.6537213559169383
  0.6874576686533220  0.7918616223796482  0.6098460604654148
  0.8124382813287946  0.0334933904334146  0.2575833608181939
  0.5626895945433087  0.7124995601012232  0.8311426740829058
  0.6877534459081628  0.4573954261643600  0.5651542582452518
  0.8121960866019550  0.8654612905806375  0.1686184069297879
  0.1874167912831583  0.9495982527047354  0.2136583384319485
  0.8126874999383872  0.3710180899283566  0.4350870038576287
  0.5626556923283391  0.2123943400337615  0.8311466450741506
  0.0625800341307211  0.5417410713168845  0.6098110092053292
  0.0627033068673995  0.5462256748677604  0.8732928279526523
  0.1875154919785706  0.6259925384320435  0.6537010672443730
  0.6874551050013190  0.1282399601818554  0.7863026326762308
  0.9374252221332008  0.9601467541259281  0.6980676433547222
  0.6874288209074992  0.7941852990042474  0.7422740510958884
  0.8125760730422792  0.8678621224644897  0.3018888697214408
  0.6870680979947462  0.7834612525728222  0.2577447759578062
  0.4373294982149247  0.4517905071501523  0.3463680112830150
  0.5626288501752355  0.5412719205373803  0.6098915727982253
  0.4373909780493172  0.7862610194386608  0.3901912593747058
  0.4375551314362364  0.6256780114798491  0.6537337749977933
  0.1874530576405244  0.6279845984724794  0.7863126937418103
  0.4374067036027295  0.1173812526048932  0.3017906300066254
  0.8126018749508268  0.3782807556116973  0.7863336629227574
  0.3125876575809417  0.0417864799956132  0.6098566310634541
  0.0624913245776018  0.5365210189904056  0.3903992464671044
  0.1872935069989837  0.4496601044736678  0.2136050613792922
  0.0624499589355506  0.8730593072096249  0.5214681988775547
  0.8123211683405366  0.0360173624487055  0.3903067556507942
  0.6874849639913448  0.2819451914702744  0.1266575519107319
  0.8130113397053670  0.2070309954466774  0.5651396055758654
  0.3124473873170560  0.8726673875296352  0.5214549511967693
  0.0625508201269626  0.8763299920985277  0.6536072617578353
  0.9371671505578794  0.2817580345294527  0.1265453305639011
  0.3125276916487583  0.0310629813814659  0.1263588046755509
  0.3126436113123300  0.2057565350244874  0.4786173652987757
  0.4379046377119688  0.9490219349399250  0.2135634759762201
  0.0622163329655716  0.5319596857760780  0.1266473534226484
  0.6873255116140040  0.1151905000448205  0.1686672104440156
  0.6877144327966797  0.4627047165522348  0.8311872036751511
  0.0624444214383282  0.7018829509085416  0.3462205744727168
  0.9373021846348263  0.2944237871460829  0.7422496596115574
  0.8126888090560457  0.3726159227239305  0.5215331369683085
  0.9377247731876123  0.4500514836835139  0.2136106453561762
  0.4371207288782013  0.9554747018155048  0.4786691075590405
  0.3127093212895872  0.2125858891407471  0.8312396667961508
  0.5624455230486872  0.8679169483550527  0.3019342152418911
  0.8121663999998651  0.0441177560505371  0.7422596517009550
  0.1878462950921692  0.9572015144633135  0.5650876916572632
  0.1877066469773336  0.1229367268139078  0.5213420855867230
  0.3124839507550273  0.0364304615338505  0.3902603423620959
  0.9373794136917978  0.6278630231475905  0.7863433946452476
  0.6870729861923133  0.9598934416799106  0.6981368373350517
  0.4375379909361121  0.9626926965045124  0.8311625698697855
  0.8123131222736170  0.7001707015024173  0.2135593379177239
  0.4376322067272921  0.1257574301987022  0.6537205434413977
  0.4373748830302995  0.7942457595376651  0.7422673068065397
  0.0624894930054877  0.2055297905326327  0.4786696947481794
  0.6880062229061144  0.9571261597717785  0.5652067606714866
  0.5626844116595663  0.5461344590584744  0.8732637487262244
  0.4377269150637054  0.2819213120496143  0.1266771958962791
  0.5629948407042042  0.0310392807814318  0.1265532699200781
  0.1876674769585345  0.7818163928498731  0.1264205156765522
  0.5627022664313756  0.2068594415837771  0.5652168604678328
  0.0628118197834228  0.5444797634937283  0.7425594135466811
  0.5616678666834384  0.3713930321501818  0.4351632295245729
  0.9376170628274335  0.7863513306122608  0.3900773014226582
  0.0622732803253015  0.1993734462342559  0.2136299665962450
  0.3124711102570474  0.8655381773204039  0.1680822399317071
  0.3136602748117981  0.1987819239358588  0.2138256352945981
  0.5625043395811423  0.8730075457572580  0.5213844633305155
  0.1876742480318781  0.1203542342129207  0.4348972320744205
  0.9369573887320398  0.4599072663546495  0.6979416490468479
  0.6879348133236635  0.1176536231848199  0.3017614437818444
  0.9363735735374966  0.2832482962842850  0.2576378728669398
  0.0623013079631760  0.0442460560877932  0.7423636225990874
  0.6874456216719949  0.2857718585341659  0.3901226469847764
  0.0627307142065991  0.3681471104250392  0.3021115457206582
 
  0.00000000E+00  0.00000000E+00  0.00000000E+00
  0.00000000E+00  0.00000000E+00  0.00000000E+00
  0.00000000E+00  0.00000000E+00  0.00000000E+00
  0.00000000E+00  0.00000000E+00  0.00000000E+00
  0.00000000E+00  0.00000000E+00  0.00000000E+00
  0.00000000E+00  0.00000000E+00  0.00000000E+00
  0.00000000E+00  0.00000000E+00  0.00000000E+00
  0.00000000E+00  0.00000000E+00  0.00000000E+00
  0.00000000E+00  0.00000000E+00  0.00000000E+00
  0.00000000E+00  0.00000000E+00  0.00000000E+00
  0.00000000E+00  0.00000000E+00  0.00000000E+00
  0.00000000E+00  0.00000000E+00  0.00000000E+00
  0.00000000E+00  0.00000000E+00  0.00000000E+00
  0.00000000E+00  0.00000000E+00  0.00000000E+00
  0.00000000E+00  0.00000000E+00  0.00000000E+00
  0.00000000E+00  0.00000000E+00  0.00000000E+00
  0.00000000E+00  0.00000000E+00  0.00000000E+00
  0.00000000E+00  0.00000000E+00  0.00000000E+00
  0.00000000E+00  0.00000000E+00  0.00000000E+00
  0.00000000E+00  0.00000000E+00  0.00000000E+00
  0.00000000E+00  0.00000000E+00  0.00000000E+00
  0.00000000E+00  0.00000000E+00  0.00000000E+00
  0.00000000E+00  0.00000000E+00  0.00000000E+00
  0.00000000E+00  0.00000000E+00  0.00000000E+00
  0.00000000E+00  0.00000000E+00  0.00000000E+00
  0.00000000E+00  0.00000000E+00  0.00000000E+00
  0.00000000E+00  0.00000000E+00  0.00000000E+00
  0.00000000E+00  0.00000000E+00  0.00000000E+00
  0.00000000E+00  0.00000000E+00  0.00000000E+00
  0.00000000E+00  0.00000000E+00  0.00000000E+00
  0.00000000E+00  0.00000000E+00  0.00000000E+00
  0.00000000E+00  0.00000000E+00  0.00000000E+00
  0.00000000E+00  0.00000000E+00  0.00000000E+00
  0.00000000E+00  0.00000000E+00  0.00000000E+00
  0.00000000E+00  0.00000000E+00  0.00000000E+00
  0.00000000E+00  0.00000000E+00  0.00000000E+00
  0.00000000E+00  0.00000000E+00  0.00000000E+00
  0.00000000E+00  0.00000000E+00  0.00000000E+00
  0.00000000E+00  0.00000000E+00  0.00000000E+00
  0.00000000E+00  0.00000000E+00  0.00000000E+00
  0.00000000E+00  0.00000000E+00  0.00000000E+00
  0.00000000E+00  0.00000000E+00  0.00000000E+00
  0.00000000E+00  0.00000000E+00  0.00000000E+00
  0.00000000E+00  0.00000000E+00  0.00000000E+00
  0.00000000E+00  0.00000000E+00  0.00000000E+00
  0.00000000E+00  0.00000000E+00  0.00000000E+00
  0.00000000E+00  0.00000000E+00  0.00000000E+00
  0.00000000E+00  0.00000000E+00  0.00000000E+00
  0.00000000E+00  0.00000000E+00  0.00000000E+00
  0.00000000E+00  0.00000000E+00  0.00000000E+00
  0.00000000E+00  0.00000000E+00  0.00000000E+00
  0.00000000E+00  0.00000000E+00  0.00000000E+00
  0.00000000E+00  0.00000000E+00  0.00000000E+00
  0.00000000E+00  0.00000000E+00  0.00000000E+00
  0.00000000E+00  0.00000000E+00  0.00000000E+00
  0.00000000E+00  0.00000000E+00  0.00000000E+00
  0.00000000E+00  0.00000000E+00  0.00000000E+00
  0.00000000E+00  0.00000000E+00  0.00000000E+00
  0.00000000E+00  0.00000000E+00  0.00000000E+00
  0.00000000E+00  0.00000000E+00  0.00000000E+00
  0.00000000E+00  0.00000000E+00  0.00000000E+00
  0.00000000E+00  0.00000000E+00  0.00000000E+00
  0.00000000E+00  0.00000000E+00  0.00000000E+00
  0.00000000E+00  0.00000000E+00  0.00000000E+00
  0.00000000E+00  0.00000000E+00  0.00000000E+00
  0.00000000E+00  0.00000000E+00  0.00000000E+00
  0.00000000E+00  0.00000000E+00  0.00000000E+00
  0.00000000E+00  0.00000000E+00  0.00000000E+00
  0.00000000E+00  0.00000000E+00  0.00000000E+00
  0.00000000E+00  0.00000000E+00  0.00000000E+00
  0.00000000E+00  0.00000000E+00  0.00000000E+00
  0.00000000E+00  0.00000000E+00  0.00000000E+00
  0.00000000E+00  0.00000000E+00  0.00000000E+00
  0.00000000E+00  0.00000000E+00  0.00000000E+00
  0.00000000E+00  0.00000000E+00  0.00000000E+00
  0.00000000E+00  0.00000000E+00  0.00000000E+00
  0.00000000E+00  0.00000000E+00  0.00000000E+00
  0.00000000E+00  0.00000000E+00  0.00000000E+00
  0.00000000E+00  0.00000000E+00  0.00000000E+00
  0.00000000E+00  0.00000000E+00  0.00000000E+00
  0.00000000E+00  0.00000000E+00  0.00000000E+00
  0.00000000E+00  0.00000000E+00  0.00000000E+00
  0.00000000E+00  0.00000000E+00  0.00000000E+00
  0.00000000E+00  0.00000000E+00  0.00000000E+00
  0.00000000E+00  0.00000000E+00  0.00000000E+00
  0.00000000E+00  0.00000000E+00  0.00000000E+00
  0.00000000E+00  0.00000000E+00  0.00000000E+00
  0.00000000E+00  0.00000000E+00  0.00000000E+00
  0.00000000E+00  0.00000000E+00  0.00000000E+00
  0.00000000E+00  0.00000000E+00  0.00000000E+00
  0.00000000E+00  0.00000000E+00  0.00000000E+00
  0.00000000E+00  0.00000000E+00  0.00000000E+00
  0.00000000E+00  0.00000000E+00  0.00000000E+00
  0.00000000E+00  0.00000000E+00  0.00000000E+00
  0.00000000E+00  0.00000000E+00  0.00000000E+00
  0.00000000E+00  0.00000000E+00  0.00000000E+00
  0.00000000E+00  0.00000000E+00  0.00000000E+00
  0.00000000E+00  0.00000000E+00  0.00000000E+00
  0.00000000E+00  0.00000000E+00  0.00000000E+00
  0.00000000E+00  0.00000000E+00  0.00000000E+00
  0.00000000E+00  0.00000000E+00  0.00000000E+00
  0.00000000E+00  0.00000000E+00  0.00000000E+00
  0.00000000E+00  0.00000000E+00  0.00000000E+00
  0.00000000E+00  0.00000000E+00  0.00000000E+00
  0.00000000E+00  0.00000000E+00  0.00000000E+00
  0.00000000E+00  0.00000000E+00  0.00000000E+00
  0.00000000E+00  0.00000000E+00  0.00000000E+00
  0.00000000E+00  0.00000000E+00  0.00000000E+00
  0.00000000E+00  0.00000000E+00  0.00000000E+00
  0.00000000E+00  0.00000000E+00  0.00000000E+00
  0.00000000E+00  0.00000000E+00  0.00000000E+00
  0.00000000E+00  0.00000000E+00  0.00000000E+00
  0.00000000E+00  0.00000000E+00  0.00000000E+00
  0.00000000E+00  0.00000000E+00  0.00000000E+00
  0.00000000E+00  0.00000000E+00  0.00000000E+00
  0.00000000E+00  0.00000000E+00  0.00000000E+00
  0.00000000E+00  0.00000000E+00  0.00000000E+00
  0.00000000E+00  0.00000000E+00  0.00000000E+00
  0.00000000E+00  0.00000000E+00  0.00000000E+00
  0.00000000E+00  0.00000000E+00  0.00000000E+00
  0.00000000E+00  0.00000000E+00  0.00000000E+00
  0.00000000E+00  0.00000000E+00  0.00000000E+00
  0.00000000E+00  0.00000000E+00  0.00000000E+00
  0.00000000E+00  0.00000000E+00  0.00000000E+00
  0.00000000E+00  0.00000000E+00  0.00000000E+00
  0.00000000E+00  0.00000000E+00  0.00000000E+00
  0.00000000E+00  0.00000000E+00  0.00000000E+00
  0.00000000E+00  0.00000000E+00  0.00000000E+00
  0.00000000E+00  0.00000000E+00  0.00000000E+00
  0.00000000E+00  0.00000000E+00  0.00000000E+00
  0.00000000E+00  0.00000000E+00  0.00000000E+00
  0.00000000E+00  0.00000000E+00  0.00000000E+00
  0.00000000E+00  0.00000000E+00  0.00000000E+00
  0.00000000E+00  0.00000000E+00  0.00000000E+00
  0.00000000E+00  0.00000000E+00  0.00000000E+00
  0.00000000E+00  0.00000000E+00  0.00000000E+00
  0.00000000E+00  0.00000000E+00  0.00000000E+00
  0.00000000E+00  0.00000000E+00  0.00000000E+00
  0.00000000E+00  0.00000000E+00  0.00000000E+00
  0.00000000E+00  0.00000000E+00  0.00000000E+00
  0.00000000E+00  0.00000000E+00  0.00000000E+00
  0.00000000E+00  0.00000000E+00  0.00000000E+00
  0.00000000E+00  0.00000000E+00  0.00000000E+00
  0.00000000E+00  0.00000000E+00  0.00000000E+00
  0.00000000E+00  0.00000000E+00  0.00000000E+00
  0.00000000E+00  0.00000000E+00  0.00000000E+00
  0.00000000E+00  0.00000000E+00  0.00000000E+00
  0.00000000E+00  0.00000000E+00  0.00000000E+00
  0.00000000E+00  0.00000000E+00  0.00000000E+00
  0.00000000E+00  0.00000000E+00  0.00000000E+00
  0.00000000E+00  0.00000000E+00  0.00000000E+00
  0.00000000E+00  0.00000000E+00  0.00000000E+00
  0.00000000E+00  0.00000000E+00  0.00000000E+00
  0.00000000E+00  0.00000000E+00  0.00000000E+00
  0.00000000E+00  0.00000000E+00  0.00000000E+00
  0.00000000E+00  0.00000000E+00  0.00000000E+00
  0.00000000E+00  0.00000000E+00  0.00000000E+00
  0.00000000E+00  0.00000000E+00  0.00000000E+00
  0.00000000E+00  0.00000000E+00  0.00000000E+00
  0.00000000E+00  0.00000000E+00  0.00000000E+00
  0.00000000E+00  0.00000000E+00  0.00000000E+00
  0.00000000E+00  0.00000000E+00  0.00000000E+00
  0.00000000E+00  0.00000000E+00  0.00000000E+00
  0.00000000E+00  0.00000000E+00  0.00000000E+00
  0.00000000E+00  0.00000000E+00  0.00000000E+00
  0.00000000E+00  0.00000000E+00  0.00000000E+00
  0.00000000E+00  0.00000000E+00  0.00000000E+00
  0.00000000E+00  0.00000000E+00  0.00000000E+00
  0.00000000E+00  0.00000000E+00  0.00000000E+00
  0.00000000E+00  0.00000000E+00  0.00000000E+00
  0.00000000E+00  0.00000000E+00  0.00000000E+00
  0.00000000E+00  0.00000000E+00  0.00000000E+00
  0.00000000E+00  0.00000000E+00  0.00000000E+00
  0.00000000E+00  0.00000000E+00  0.00000000E+00
  0.00000000E+00  0.00000000E+00  0.00000000E+00
  0.00000000E+00  0.00000000E+00  0.00000000E+00
  0.00000000E+00  0.00000000E+00  0.00000000E+00
  0.00000000E+00  0.00000000E+00  0.00000000E+00
  0.00000000E+00  0.00000000E+00  0.00000000E+00
  0.00000000E+00  0.00000000E+00  0.00000000E+00
  0.00000000E+00  0.00000000E+00  0.00000000E+00
  0.00000000E+00  0.00000000E+00  0.00000000E+00
  0.00000000E+00  0.00000000E+00  0.00000000E+00
  0.00000000E+00  0.00000000E+00  0.00000000E+00
  0.00000000E+00  0.00000000E+00  0.00000000E+00
  0.00000000E+00  0.00000000E+00  0.00000000E+00
  0.00000000E+00  0.00000000E+00  0.00000000E+00
  0.00000000E+00  0.00000000E+00  0.00000000E+00
  0.00000000E+00  0.00000000E+00  0.00000000E+00
  0.00000000E+00  0.00000000E+00  0.00000000E+00
  0.00000000E+00  0.00000000E+00  0.00000000E+00
  0.00000000E+00  0.00000000E+00  0.00000000E+00
  0.00000000E+00  0.00000000E+00  0.00000000E+00
  0.00000000E+00  0.00000000E+00  0.00000000E+00
  0.00000000E+00  0.00000000E+00  0.00000000E+00
  0.00000000E+00  0.00000000E+00  0.00000000E+00
  0.00000000E+00  0.00000000E+00  0.00000000E+00
  0.00000000E+00  0.00000000E+00  0.00000000E+00
  0.00000000E+00  0.00000000E+00  0.00000000E+00
  0.00000000E+00  0.00000000E+00  0.00000000E+00
  0.00000000E+00  0.00000000E+00  0.00000000E+00
  0.00000000E+00  0.00000000E+00  0.00000000E+00
  0.00000000E+00  0.00000000E+00  0.00000000E+00
  0.00000000E+00  0.00000000E+00  0.00000000E+00
  0.00000000E+00  0.00000000E+00  0.00000000E+00
  0.00000000E+00  0.00000000E+00  0.00000000E+00
  0.00000000E+00  0.00000000E+00  0.00000000E+00
  0.00000000E+00  0.00000000E+00  0.00000000E+00
  0.00000000E+00  0.00000000E+00  0.00000000E+00
  0.00000000E+00  0.00000000E+00  0.00000000E+00
  0.00000000E+00  0.00000000E+00  0.00000000E+00
  0.00000000E+00  0.00000000E+00  0.00000000E+00
  0.00000000E+00  0.00000000E+00  0.00000000E+00
  0.00000000E+00  0.00000000E+00  0.00000000E+00
  0.00000000E+00  0.00000000E+00  0.00000000E+00
  0.00000000E+00  0.00000000E+00  0.00000000E+00
  0.00000000E+00  0.00000000E+00  0.00000000E+00
  0.00000000E+00  0.00000000E+00  0.00000000E+00
  0.00000000E+00  0.00000000E+00  0.00000000E+00
  0.00000000E+00  0.00000000E+00  0.00000000E+00
  0.00000000E+00  0.00000000E+00  0.00000000E+00
  0.00000000E+00  0.00000000E+00  0.00000000E+00
  0.00000000E+00  0.00000000E+00  0.00000000E+00
  0.00000000E+00  0.00000000E+00  0.00000000E+00
  0.00000000E+00  0.00000000E+00  0.00000000E+00
  0.00000000E+00  0.00000000E+00  0.00000000E+00
  0.00000000E+00  0.00000000E+00  0.00000000E+00
  0.00000000E+00  0.00000000E+00  0.00000000E+00
  0.00000000E+00  0.00000000E+00  0.00000000E+00
  0.00000000E+00  0.00000000E+00  0.00000000E+00
  0.00000000E+00  0.00000000E+00  0.00000000E+00
  0.00000000E+00  0.00000000E+00  0.00000000E+00
  0.00000000E+00  0.00000000E+00  0.00000000E+00
  0.00000000E+00  0.00000000E+00  0.00000000E+00
  0.00000000E+00  0.00000000E+00  0.00000000E+00
  0.00000000E+00  0.00000000E+00  0.00000000E+00
  0.00000000E+00  0.00000000E+00  0.00000000E+00
  0.00000000E+00  0.00000000E+00  0.00000000E+00
  0.00000000E+00  0.00000000E+00  0.00000000E+00
  0.00000000E+00  0.00000000E+00  0.00000000E+00
  0.00000000E+00  0.00000000E+00  0.00000000E+00
  0.00000000E+00  0.00000000E+00  0.00000000E+00
  0.00000000E+00  0.00000000E+00  0.00000000E+00
  0.00000000E+00  0.00000000E+00  0.00000000E+00
  0.00000000E+00  0.00000000E+00  0.00000000E+00
  0.00000000E+00  0.00000000E+00  0.00000000E+00
  0.00000000E+00  0.00000000E+00  0.00000000E+00