CuInSe2gb                               
   1.00000000000000     
     9.7266780392896699    0.0000000000000000    0.0000000000000000
     0.0000000000000000    8.4235502764570693    0.0000000000000000
     0.0000000000000000    0.0000000000000000   45.0000000000000000
   Fe   Mn
   281     7
Direct
  0.0625984412371815  0.0343624620293825  0.1254453135633673
  0.3118025418273803  0.8728217439582223  0.6543438819433266
  0.1868959259050100  0.1200511296931421  0.7875303004031948
  0.4375452055037374  0.2892496098541613  0.3897729350179015
  0.3103772608856324  0.7091134190863728  0.8323101464204682
  0.8100584387227550  0.2089198025268253  0.8322964954020489
  0.1875854870726411  0.7894968559377175  0.3896706132339929
  0.5628628600464222  0.2062249723791280  0.5653935471768229
  0.0602483237246721  0.0386303134069703  0.7432514278524502
  0.8127543001960875  0.8718868377012501  0.5214952437508668
  0.1855830360158731  0.2886258870841423  0.7432130048546197
  0.9380280423492307  0.4555619584931820  0.3456626165455755
  0.9377014635498736  0.2891908269616765  0.3897736631218363
  0.8100047252068205  0.0399465814931168  0.8742734602793393
  0.1882177615875417  0.7887224737534118  0.6101201166695731
  0.5626550533381353  0.0389585859599940  0.3897699123592624
  0.9351489312556290  0.9583082825761953  0.8323499859056599
  0.3112218510489714  0.5396111844998918  0.8742985729986860
  0.6852333444708802  0.2888673079608208  0.7431074255733342
  0.1891186719066131  0.6184650139847934  0.1676675212276534
  0.8131019075504672  0.2046252627504872  0.4785014033298938
  0.8134433663508531  0.5389593426139375  0.6101429951452668
  0.3130660168079291  0.8710846272092485  0.4345785016882718
  0.8141434191436093  0.0403970920988384  0.2569221861532031
  0.6884163548079710  0.9554059089252950  0.3456031689409290
  0.9386560862900328  0.1171252050020545  0.1674414344148909
  0.9382308477533271  0.1226055617444473  0.5214846491135561
  0.5642549139156132  0.5411904415868022  0.2569723753444785
  0.6863556998955881  0.7900670871628204  0.8743427496773966
  0.5644184755304048  0.3689710514902034  0.1675899522571044
  0.4356488579246999  0.7886563239198958  0.7431814744801571
  0.8132561779220562  0.7062131000617857  0.5654330447734857
  0.5619567722210177  0.8701810300702378  0.7873859782149970
  0.6882296582747760  0.1224405959936347  0.5214959716777230
  0.8117770891883116  0.3728261806250007  0.6543243926632307
  0.9346233770662202  0.4584331690146473  0.8323428123428913
  0.0622654012309773  0.2061721275211215  0.6989057844095895
  0.4371102800447877  0.9565861393431939  0.6989376035252861
  0.3098298641795929  0.2082846247027751  0.8324868326222371
  0.4368625265335878  0.6223435072978084  0.6543389187872308
  0.3133154929115348  0.5386581245130464  0.6101657969970985
  0.9378737201795511  0.4561360951239870  0.5653908465649120
  0.6857334343204597  0.7892893829697767  0.7431636008045294
  0.9381514051855407  0.7870508548462607  0.1256526394769883
  0.6874918172615686  0.7890552616520552  0.3897746201601779
  0.9358463338846783  0.7889922516184695  0.7432291708137316
  0.0634301715280861  0.2053164700534221  0.3455879860842419
  0.8126223991778629  0.0389948659397295  0.3897476871175129
  0.4365646354713468  0.1200149498041428  0.7874852364426996
  0.0624723584426283  0.2066295772722739  0.2127001943169589
  0.0642785048143675  0.3689496341727082  0.1675732465045157
  0.9387546058209713  0.7907358375882723  0.2569551672175890
  0.5620833704937783  0.2063068992581013  0.6988883755789329
  0.6869520290682417  0.9563800211680554  0.6989280224003207
  0.4385051747669999  0.7864792278828570  0.1256310125800607
  0.4380330961204578  0.9562467694094674  0.5653649149687405
  0.8118420886591613  0.3698808194522695  0.7872288807578109
  0.6893787124430890  0.2909192025117822  0.2569334297000462
  0.1880383440083466  0.4561217206947561  0.5653755136325733
  0.0641485235769643  0.8683969198142857  0.1675580902178002
  0.1884528291921625  0.2885860959726571  0.6101193120622272
  0.5635604765936268  0.7058021402461693  0.3455918169403897
  0.3121307489923906  0.2063436796627679  0.6988984309922049
  0.5611518257950594  0.5401389477358990  0.8742698703336800
  0.0630164975539348  0.7059528377413546  0.5653568367721132
  0.6871549371019575  0.6205441826576292  0.7873904748563503
  0.3127576793011583  0.5395070587679078  0.3897640483774066
  0.1885203450801408  0.6222661541927554  0.5215143984304083
  0.5629101404022320  0.8711137648941424  0.4346208418610076
  0.4380642992784961  0.4562325098632860  0.5654040291385076
  0.4351366053029744  0.2888524775987718  0.7431502987266736
  0.8120924990539232  0.8748410975873443  0.3010760777867907
  0.8132541653069442  0.7058239742203500  0.3456666498068092
  0.4352855096936586  0.4583315994764040  0.8322874337407257
  0.6881478037422890  0.9548063122745651  0.4785097051989198
  0.6871523280192886  0.4561888574678880  0.6988913536436596
  0.5630674506830514  0.8723513875688382  0.5214833919685732
  0.5617980586588008  0.3724629166881908  0.6542878964015661
  0.8117538552696785  0.8726860786381049  0.6543238540030130
  0.8127533226411997  0.3714737819832239  0.4347086775672688
  0.8140525240838370  0.5408062283281750  0.2570047233581746
  0.6848147116605094  0.4582472739712601  0.8321716831660274
  0.1880363044486962  0.7864734138924320  0.1256754595591578
  0.0609681019789394  0.0397795741178547  0.8746899782370906
  0.3119377737350487  0.3724908819899464  0.6543445928560876
  0.3134208208742640  0.2054217834533664  0.3455787423555380
  0.8104122728789218  0.5387783939827584  0.7431490766303138
  0.6849634749528219  0.9588744061193111  0.8322577138977191
  0.5614875687234201  0.8725904688877958  0.6543668369747417
  0.3127684193686939  0.7062092625247463  0.5654230829087608
  0.3128408336948885  0.5367555324968843  0.1253943752297872
  0.6876029234123008  0.9568813187791688  0.2126316255975798
  0.3131147611898031  0.2063097186195330  0.5653720203603468
  0.1882364770484124  0.9550745793653908  0.4785936689241682
  0.6880790928067835  0.9563800477111685  0.5653777455600051
  0.4383622656911968  0.7886715560885584  0.6101151803865894
  0.6890837327120438  0.6184540207719939  0.1678028563490209
  0.3121125390533611  0.8742233838787288  0.3010454840599162
  0.3128595891658209  0.7048720177547287  0.4785470226532236
  0.9385115364555102  0.2887031195562558  0.6101524318647142
  0.4372707448348501  0.6243747409690380  0.3011109267541493
  0.8142138719355760  0.8679107719973126  0.1675856163082508
  0.5630247411461929  0.2064550240581730  0.2126822069488314
  0.9390038558683804  0.6183282264828549  0.1677811886678749
  0.9363866348099575  0.7902795794188797  0.8744412201568742
  0.5616362014220153  0.3698348952030546  0.7872584753593246
  0.0631334340060943  0.3722616067927953  0.5214882795770738
  0.5631452240775092  0.3723909695361213  0.5215114806978211
  0.6871535094727917  0.1245835084390665  0.3010765287376562
  0.4350149048162313  0.9579542193846025  0.8323975030306526
  0.1887767517153256  0.2861622075252412  0.1254243862430807
  0.8122017297232813  0.8702850042058929  0.7873547809503494
  0.3129376318751033  0.3714721258736331  0.4346943477656172
  0.5628631646358929  0.0341109367401158  0.1255429370519660
  0.4382885958107323  0.2889836491885043  0.6101060214727251
  0.1882777796368430  0.4553236278486124  0.3455784645984055
  0.4373468281601066  0.2865631872655841  0.1254312828706662
  0.6891810828249321  0.7907574233839555  0.2569247805034960
  0.4379468617198711  0.1224439153613707  0.5214975496110923
  0.1863574078971562  0.2901296328560405  0.8745824768754790
  0.1869282480562033  0.1228249024647475  0.6543843876868450
  0.9368908755268992  0.1227200229257715  0.6543327455854645
  0.3127200610915180  0.2060928350741363  0.2127013641064200
  0.0623510526963058  0.0389242188407164  0.3897099772455656
  0.1895186593504471  0.1174375428823794  0.1674877598277570
  0.0635351374417312  0.5384981310777781  0.6101919921056824
  0.9387444771314327  0.2909081517402365  0.2569509958410460
  0.5634131108888114  0.5388192505384026  0.6101121293893058
  0.9378353551820869  0.9563342777480528  0.5653981867966681
  0.6870352737659333  0.6249426575119309  0.3010200282683131
  0.9375283156467784  0.6211218920093388  0.4345630376250645
  0.9370408609709303  0.6204122616639053  0.7874144209657714
  0.5620943561197711  0.7061796390306715  0.6989530075734294
  0.0600890619382528  0.7092414902034697  0.8324086593984962
  0.9373728002971462  0.1244577845295359  0.3010149803738733
  0.9386448823120769  0.7888055379462672  0.6100948893608341
  0.4395907861339781  0.7908366536233339  0.2569291464645861
  0.3117379373049327  0.3698118499138550  0.7874433376221620
  0.4381688559589004  0.4575357754573992  0.2128783266821217
  0.1880332363227250  0.1226676026724131  0.5214989914114035
  0.8124380400367669  0.7061367864209482  0.6989410141312788
  0.0634053595431194  0.0385745766388527  0.6100858288333632
  0.5600592866005009  0.2088956115974716  0.8322713613203373
  0.3135210235334186  0.8719750970985819  0.5215315956481034
  0.6887046275179390  0.2861833095267704  0.1254786732958960
  0.1875979697947434  0.9570565708595953  0.2126528035144520
  0.6883169180243333  0.2889421930855327  0.6101337407444014
  0.3134413976773848  0.0386301788038932  0.6102522814330321
  0.9370696743721965  0.1202665181340757  0.7874563173330600
  0.4367951491436137  0.7903449350179846  0.8744435251729801
  0.8102422813722854  0.0391125013088606  0.7432450387185137
  0.9372743092951931  0.4561248386775856  0.6989086248762910
  0.1870166834048614  0.6225120643812023  0.6543294041296875
  0.3126038226386605  0.7061747303483732  0.6989125135506626
  0.9372355921471952  0.2861086538925839  0.1254529175053527
  0.4380559458476804  0.4548539439448588  0.4785528455617791
  0.0630469840924181  0.7045104284229610  0.4785986969222428
  0.9374358236100683  0.1216000157263626  0.4345761821838732
  0.4369705567879635  0.1244114102663835  0.3010685168079193
  0.1876695585765548  0.1215992318791839  0.4345717000512528
  0.5617770906899708  0.0396993892239930  0.8743493420783669
  0.1880557112695453  0.9563419955186681  0.5653634906880658
  0.6878002471120240  0.7866158240758556  0.1257239590407424
  0.5626290146159257  0.5364149098253582  0.1256596336392566
  0.3126970214844792  0.0388111398086138  0.3897295485974325
  0.6897041812543487  0.1174583172983274  0.1675987094481990
  0.8124051258733467  0.2061450030377510  0.2126414567078392
  0.0639833257904883  0.5407433784096879  0.2570041460813336
  0.5630556901912483  0.7047325641085052  0.4785212998747371
  0.0631026805387267  0.2059463391956188  0.5654339601767898
  0.5620417637253012  0.3744850511493038  0.3010487632786870
  0.4384697036017057  0.9554145927871479  0.3455548704289352
  0.1873661908916271  0.9564897814558588  0.6989640436642691
  0.4391609510241582  0.6182958545378193  0.1677470338527239
  0.9381462729547565  0.4574591269927598  0.2128899552074076
  0.0627091554860568  0.5361813138052940  0.1256607244741096
  0.8128157227448058  0.3724065395587203  0.5214820144682252
  0.9370593057665427  0.6242619042446437  0.3011228360033960
  0.3143472127610537  0.0406624943435210  0.2570334539203544
  0.6884562257403214  0.7887736910724764  0.6101266238762504
  0.1850748047333261  0.4586875837808619  0.8323502250046219
  0.4390050549837993  0.1171145012973198  0.1674534353340980
  0.3133871942235003  0.3722486177162337  0.5215043580667522
  0.4368229616480077  0.6203253281304293  0.7874212406085914
  0.0639479311131367  0.0410325230248697  0.2569552765570470
  0.5629833572053692  0.7061350891020827  0.5653753802399791
  0.9355600695234567  0.2887277870620066  0.7431762180510900
  0.6869602718927831  0.1203503371892283  0.7874065814145129
  0.1870487454917277  0.4576378305296061  0.2129075605353898
  0.9376987398093068  0.7894644003344895  0.3897015882899533
  0.6867207050295263  0.2902664541136088  0.8744447792215087
  0.3145350048872752  0.8680882203043367  0.1675489951629610
  0.4372967637075262  0.4560909779433462  0.6988726627032684
  0.9385189113330955  0.9555321389050697  0.3455398785198232
  0.6882913849272385  0.6220871524889562  0.5215039088974498
  0.0618811334384115  0.8726003857901941  0.6543058177062879
  0.0617245522953269  0.8698581964819827  0.7874065616362668
  0.0617572608659259  0.3725917116853179  0.6542574490886617
  0.6880707824913065  0.4549495661916535  0.4785300552322533
  0.1892351126369779  0.7907448300906472  0.2569436987446124
  0.4379361519932017  0.1213834647591213  0.4346846595213249
  0.8129867810689493  0.0356450854854718  0.1254352243304326
  0.9377581289234884  0.6222225575947715  0.5215044795158978
  0.0625437278423334  0.8713917860467569  0.4349029714746860
  0.8123102509474253  0.5368553912064861  0.1254992569988619
  0.4387100039783736  0.4556128534417029  0.3456449980180735
  0.8136332068376880  0.2054429262981244  0.3454995328951052
  0.3135877576416624  0.7051752178846860  0.3456434935897694
  0.6867560764242912  0.1226442890661495  0.6543000040804222
  0.5620535736377625  0.8747546385727456  0.3010856800029077
  0.0602432199932390  0.5385878326852896  0.7432056969390510
  0.9374991867370897  0.9568008037030392  0.2126809099946162
  0.8123936911817121  0.7064770815610371  0.2126067193449597
  0.0620293033412915  0.8741381843617798  0.3010823467577407
  0.1870888180482592  0.1245507345841377  0.3011561435703382
  0.0632041782710418  0.7051418193311391  0.3455588648863028
  0.8133819990869520  0.0388353476582164  0.6101580749246146
  0.0626207473532735  0.3714612406434022  0.4347030158654680
  0.5634019700694135  0.2053270978946490  0.3455412579421998
  0.8120621616935486  0.3744457117740100  0.3010332991241008
  0.4380212790093013  0.9547625198928866  0.4784900915638614
  0.5624770702572504  0.5393374499501677  0.3896851770208229
  0.0630036792589544  0.2045375114622683  0.4785474672513237
  0.3122509383581866  0.8697871495964811  0.7873955158261592
  0.9374114501911016  0.9562334179304572  0.6989651466896439
  0.0619925404017431  0.3743898931619777  0.3011255420770279
  0.6868032990885864  0.6224529859292814  0.6543110250523136
  0.6879968017360334  0.4563350645200191  0.5654131470195738
  0.4380898597589445  0.9567842081454915  0.2127049211035121
  0.3129370076768477  0.2047011665052305  0.4784927118154987
  0.4366678043117018  0.1228078909582051  0.6543642129080232
  0.6876977614069864  0.6212854699797606  0.4346766792185471
  0.8122445017317527  0.2063075410544364  0.6988391303801549
  0.8132847229429422  0.7049725309687318  0.4784868614370212
  0.8123774047049493  0.8710494698440537  0.4345241766515830
  0.9376967466749678  0.9549386258697247  0.4785698147599243
  0.5629783626365383  0.2046511843781616  0.4785407320668940
  0.1878092619929377  0.6209915523460304  0.4346100308086930
  0.3102400382149444  0.0386195209284974  0.7432256854062370
  0.9370555119950030  0.6224402025408151  0.6543550290092659
  0.5601245924121295  0.7082545766848951  0.8322830988612434
  0.3120378875397769  0.3744101437640325  0.3010885130361949
  0.5626146308391202  0.7067521634610939  0.2126862687563588
  0.1880251971910665  0.4548195380407546  0.4785091569071904
  0.3106118971718384  0.0401656791547664  0.8746653612877477
  0.1873801916889105  0.4560188391529812  0.6989612959450848
  0.8105130128460378  0.5401153728871850  0.8743152782620631
  0.1875749812464708  0.2892341908457386  0.3897296165697243
  0.4378159449424386  0.6212152899942862  0.4346646037370123
  0.0624572806095077  0.7068489943697264  0.2126640978005478
  0.5627554631196443  0.3713988351242764  0.4346748908347868
  0.4379850930053963  0.6222210478885005  0.5214960126529880
  0.8100713409810143  0.7079279838671050  0.8322018256813748
  0.0618024840855274  0.3700861109825437  0.7874337297107901
  0.4369257005604438  0.2909114140306269  0.8744134098409869
  0.3128302412700472  0.0354514272210310  0.1253987541478629
  0.6877260502049504  0.1211585381975058  0.4346937415846549
  0.1883025503442466  0.9552958431765615  0.3456191402594372
  0.0606446003680457  0.2086341276091182  0.8323695311976264
  0.5634406603889626  0.0387482585714066  0.6101103878661288
  0.6872695006133785  0.4575635702977249  0.2129078142621994
  0.1857925896445359  0.7886980047515496  0.7431994503556998
  0.1869349035856152  0.6241240980277405  0.3010593171847467
  0.4375183169451447  0.7892400764818435  0.3897611120728697
  0.4393446327204043  0.2908670313771567  0.2569364863833674
  0.0601493391319586  0.5397153747484599  0.8743383359877285
  0.5604913057046457  0.0391277474844664  0.7431949243679187
  0.1863797152880409  0.7902242332277641  0.8747516846086827
  0.9380215389837316  0.4549279070645576  0.4785474020306171
  0.8126528485708824  0.5393704065714127  0.3897169822654610
  0.8128953529794229  0.2061119467209084  0.5653368833019422
  0.1870106011486402  0.6205151623504123  0.7875184745838807
  0.0623372555086947  0.5394623641720284  0.3897677391641751
  0.0625243747246205  0.7060784807272403  0.6989532334398635
  0.3141295845025994  0.5406139786688413  0.2570110322213381
  0.3126466588942871  0.7066296024018373  0.2126170601511968
  0.5644611583589585  0.8679175258551205  0.1675778926254667
  0.5604544724622993  0.5386872146638709  0.7431189927013778
  0.6885162872086136  0.4556658538520719  0.3455353905187470
  0.9360450843518296  0.2911225251946468  0.8744553640142810
  0.5642524014186984  0.0405759846774017  0.2568528056736573
  0.6875436903509237  0.2894010666147556  0.3896431091981543
  0.3145091979377228  0.3676506798719450  0.1670940621779751
  0.8144443303034126  0.3674078324032143  0.1672009523098366
  0.1848405570183332  0.9587862600710793  0.8329233222814898
  0.0632252181409906  0.8723050533665901  0.5213839100696758
  0.1894023889372448  0.2909463185237314  0.2569517763496145
  0.3100591978153365  0.5383063835142211  0.7432295644100562
 
  0.00000000E+00  0.00000000E+00  0.00000000E+00
  0.00000000E+00  0.00000000E+00  0.00000000E+00
  0.00000000E+00  0.00000000E+00  0.00000000E+00
  0.00000000E+00  0.00000000E+00  0.00000000E+00
  0.00000000E+00  0.00000000E+00  0.00000000E+00
  0.00000000E+00  0.00000000E+00  0.00000000E+00
  0.00000000E+00  0.00000000E+00  0.00000000E+00
  0.00000000E+00  0.00000000E+00  0.00000000E+00
  0.00000000E+00  0.00000000E+00  0.00000000E+00
  0.00000000E+00  0.00000000E+00  0.00000000E+00
  0.00000000E+00  0.00000000E+00  0.00000000E+00
  0.00000000E+00  0.00000000E+00  0.00000000E+00
  0.00000000E+00  0.00000000E+00  0.00000000E+00
  0.00000000E+00  0.00000000E+00  0.00000000E+00
  0.00000000E+00  0.00000000E+00  0.00000000E+00
  0.00000000E+00  0.00000000E+00  0.00000000E+00
  0.00000000E+00  0.00000000E+00  0.00000000E+00
  0.00000000E+00  0.00000000E+00  0.00000000E+00
  0.00000000E+00  0.00000000E+00  0.00000000E+00
  0.00000000E+00  0.00000000E+00  0.00000000E+00
  0.00000000E+00  0.00000000E+00  0.00000000E+00
  0.00000000E+00  0.00000000E+00  0.00000000E+00
  0.00000000E+00  0.00000000E+00  0.00000000E+00
  0.00000000E+00  0.00000000E+00  0.00000000E+00
  0.00000000E+00  0.00000000E+00  0.00000000E+00
  0.00000000E+00  0.00000000E+00  0.00000000E+00
  0.00000000E+00  0.00000000E+00  0.00000000E+00
  0.00000000E+00  0.00000000E+00  0.00000000E+00
  0.00000000E+00  0.00000000E+00  0.00000000E+00
  0.00000000E+00  0.00000000E+00  0.00000000E+00
  0.00000000E+00  0.00000000E+00  0.00000000E+00
  0.00000000E+00  0.00000000E+00  0.00000000E+00
  0.00000000E+00  0.00000000E+00  0.00000000E+00
  0.00000000E+00  0.00000000E+00  0.00000000E+00
  0.00000000E+00  0.00000000E+00  0.00000000E+00
  0.00000000E+00  0.00000000E+00  0.00000000E+00
  0.00000000E+00  0.00000000E+00  0.00000000E+00
  0.00000000E+00  0.00000000E+00  0.00000000E+00
  0.00000000E+00  0.00000000E+00  0.00000000E+00
  0.00000000E+00  0.00000000E+00  0.00000000E+00
  0.00000000E+00  0.00000000E+00  0.00000000E+00
  0.00000000E+00  0.00000000E+00  0.00000000E+00
  0.00000000E+00  0.00000000E+00  0.00000000E+00
  0.00000000E+00  0.00000000E+00  0.00000000E+00
  0.00000000E+00  0.00000000E+00  0.00000000E+00
  0.00000000E+00  0.00000000E+00  0.00000000E+00
  0.00000000E+00  0.00000000E+00  0.00000000E+00
  0.00000000E+00  0.00000000E+00  0.00000000E+00
  0.00000000E+00  0.00000000E+00  0.00000000E+00
  0.00000000E+00  0.00000000E+00  0.00000000E+00
  0.00000000E+00  0.00000000E+00  0.00000000E+00
  0.00000000E+00  0.00000000E+00  0.00000000E+00
  0.00000000E+00  0.00000000E+00  0.00000000E+00
  0.00000000E+00  0.00000000E+00  0.00000000E+00
  0.00000000E+00  0.00000000E+00  0.00000000E+00
  0.00000000E+00  0.00000000E+00  0.00000000E+00
  0.00000000E+00  0.00000000E+00  0.00000000E+00
  0.00000000E+00  0.00000000E+00  0.00000000E+00
  0.00000000E+00  0.00000000E+00  0.00000000E+00
  0.00000000E+00  0.00000000E+00  0.00000000E+00
  0.00000000E+00  0.00000000E+00  0.00000000E+00
  0.00000000E+00  0.00000000E+00  0.00000000E+00
  0.00000000E+00  0.00000000E+00  0.00000000E+00
  0.00000000E+00  0.00000000E+00  0.00000000E+00
  0.00000000E+00  0.00000000E+00  0.00000000E+00
  0.00000000E+00  0.00000000E+00  0.00000000E+00
  0.00000000E+00  0.00000000E+00  0.00000000E+00
  0.00000000E+00  0.00000000E+00  0.00000000E+00
  0.00000000E+00  0.00000000E+00  0.00000000E+00
  0.00000000E+00  0.00000000E+00  0.00000000E+00
  0.00000000E+00  0.00000000E+00  0.00000000E+00
  0.00000000E+00  0.00000000E+00  0.00000000E+00
  0.00000000E+00  0.00000000E+00  0.00000000E+00
  0.00000000E+00  0.00000000E+00  0.00000000E+00
  0.00000000E+00  0.00000000E+00  0.00000000E+00
  0.00000000E+00  0.00000000E+00  0.00000000E+00
  0.00000000E+00  0.00000000E+00  0.00000000E+00
  0.00000000E+00  0.00000000E+00  0.00000000E+00
  0.00000000E+00  0.00000000E+00  0.00000000E+00
  0.00000000E+00  0.00000000E+00  0.00000000E+00
  0.00000000E+00  0.00000000E+00  0.00000000E+00
  0.00000000E+00  0.00000000E+00  0.00000000E+00
  0.00000000E+00  0.00000000E+00  0.00000000E+00
  0.00000000E+00  0.00000000E+00  0.00000000E+00
  0.00000000E+00  0.00000000E+00  0.00000000E+00
  0.00000000E+00  0.00000000E+00  0.00000000E+00
  0.00000000E+00  0.00000000E+00  0.00000000E+00
  0.00000000E+00  0.00000000E+00  0.00000000E+00
  0.00000000E+00  0.00000000E+00  0.00000000E+00
  0.00000000E+00  0.00000000E+00  0.00000000E+00
  0.00000000E+00  0.00000000E+00  0.00000000E+00
  0.00000000E+00  0.00000000E+00  0.00000000E+00
  0.00000000E+00  0.00000000E+00  0.00000000E+00
  0.00000000E+00  0.00000000E+00  0.00000000E+00
  0.00000000E+00  0.00000000E+00  0.00000000E+00
  0.00000000E+00  0.00000000E+00  0.00000000E+00
  0.00000000E+00  0.00000000E+00  0.00000000E+00
  0.00000000E+00  0.00000000E+00  0.00000000E+00
  0.00000000E+00  0.00000000E+00  0.00000000E+00
  0.00000000E+00  0.00000000E+00  0.00000000E+00
  0.00000000E+00  0.00000000E+00  0.00000000E+00
  0.00000000E+00  0.00000000E+00  0.00000000E+00
  0.00000000E+00  0.00000000E+00  0.00000000E+00
  0.00000000E+00  0.00000000E+00  0.00000000E+00
  0.00000000E+00  0.00000000E+00  0.00000000E+00
  0.00000000E+00  0.00000000E+00  0.00000000E+00
  0.00000000E+00  0.00000000E+00  0.00000000E+00
  0.00000000E+00  0.00000000E+00  0.00000000E+00
  0.00000000E+00  0.00000000E+00  0.00000000E+00
  0.00000000E+00  0.00000000E+00  0.00000000E+00
  0.00000000E+00  0.00000000E+00  0.00000000E+00
  0.00000000E+00  0.00000000E+00  0.00000000E+00
  0.00000000E+00  0.00000000E+00  0.00000000E+00
  0.00000000E+00  0.00000000E+00  0.00000000E+00
  0.00000000E+00  0.00000000E+00  0.00000000E+00
  0.00000000E+00  0.00000000E+00  0.00000000E+00
  0.00000000E+00  0.00000000E+00  0.00000000E+00
  0.00000000E+00  0.00000000E+00  0.00000000E+00
  0.00000000E+00  0.00000000E+00  0.00000000E+00
  0.00000000E+00  0.00000000E+00  0.00000000E+00
  0.00000000E+00  0.00000000E+00  0.00000000E+00
  0.00000000E+00  0.00000000E+00  0.00000000E+00
  0.00000000E+00  0.00000000E+00  0.00000000E+00
  0.00000000E+00  0.00000000E+00  0.00000000E+00
  0.00000000E+00  0.00000000E+00  0.00000000E+00
  0.00000000E+00  0.00000000E+00  0.00000000E+00
  0.00000000E+00  0.00000000E+00  0.00000000E+00
  0.00000000E+00  0.00000000E+00  0.00000000E+00
  0.00000000E+00  0.00000000E+00  0.00000000E+00
  0.00000000E+00  0.00000000E+00  0.00000000E+00
  0.00000000E+00  0.00000000E+00  0.00000000E+00
  0.00000000E+00  0.00000000E+00  0.00000000E+00
  0.00000000E+00  0.00000000E+00  0.00000000E+00
  0.00000000E+00  0.00000000E+00  0.00000000E+00
  0.00000000E+00  0.00000000E+00  0.00000000E+00
  0.00000000E+00  0.00000000E+00  0.00000000E+00
  0.00000000E+00  0.00000000E+00  0.00000000E+00
  0.00000000E+00  0.00000000E+00  0.00000000E+00
  0.00000000E+00  0.00000000E+00  0.00000000E+00
  0.00000000E+00  0.00000000E+00  0.00000000E+00
  0.00000000E+00  0.00000000E+00  0.00000000E+00
  0.00000000E+00  0.00000000E+00  0.00000000E+00
  0.00000000E+00  0.00000000E+00  0.00000000E+00
  0.00000000E+00  0.00000000E+00  0.00000000E+00
  0.00000000E+00  0.00000000E+00  0.00000000E+00
  0.00000000E+00  0.00000000E+00  0.00000000E+00
  0.00000000E+00  0.00000000E+00  0.00000000E+00
  0.00000000E+00  0.00000000E+00  0.00000000E+00
  0.00000000E+00  0.00000000E+00  0.00000000E+00
  0.00000000E+00  0.00000000E+00  0.00000000E+00
  0.00000000E+00  0.00000000E+00  0.00000000E+00
  0.00000000E+00  0.00000000E+00  0.00000000E+00
  0.00000000E+00  0.00000000E+00  0.00000000E+00
  0.00000000E+00  0.00000000E+00  0.00000000E+00
  0.00000000E+00  0.00000000E+00  0.00000000E+00
  0.00000000E+00  0.00000000E+00  0.00000000E+00
  0.00000000E+00  0.00000000E+00  0.00000000E+00
  0.00000000E+00  0.00000000E+00  0.00000000E+00
  0.00000000E+00  0.00000000E+00  0.00000000E+00
  0.00000000E+00  0.00000000E+00  0.00000000E+00
  0.00000000E+00  0.00000000E+00  0.00000000E+00
  0.00000000E+00  0.00000000E+00  0.00000000E+00
  0.00000000E+00  0.00000000E+00  0.00000000E+00
  0.00000000E+00  0.00000000E+00  0.00000000E+00
  0.00000000E+00  0.00000000E+00  0.00000000E+00
  0.00000000E+00  0.00000000E+00  0.00000000E+00
  0.00000000E+00  0.00000000E+00  0.00000000E+00
  0.00000000E+00  0.00000000E+00  0.00000000E+00
  0.00000000E+00  0.00000000E+00  0.00000000E+00
  0.00000000E+00  0.00000000E+00  0.00000000E+00
  0.00000000E+00  0.00000000E+00  0.00000000E+00
  0.00000000E+00  0.00000000E+00  0.00000000E+00
  0.00000000E+00  0.00000000E+00  0.00000000E+00
  0.00000000E+00  0.00000000E+00  0.00000000E+00
  0.00000000E+00  0.00000000E+00  0.00000000E+00
  0.00000000E+00  0.00000000E+00  0.00000000E+00
  0.00000000E+00  0.00000000E+00  0.00000000E+00
  0.00000000E+00  0.00000000E+00  0.00000000E+00
  0.00000000E+00  0.00000000E+00  0.00000000E+00
  0.00000000E+00  0.00000000E+00  0.00000000E+00
  0.00000000E+00  0.00000000E+00  0.00000000E+00
  0.00000000E+00  0.00000000E+00  0.00000000E+00
  0.00000000E+00  0.00000000E+00  0.00000000E+00
  0.00000000E+00  0.00000000E+00  0.00000000E+00
  0.00000000E+00  0.00000000E+00  0.00000000E+00
  0.00000000E+00  0.00000000E+00  0.00000000E+00
  0.00000000E+00  0.00000000E+00  0.00000000E+00
  0.00000000E+00  0.00000000E+00  0.00000000E+00
  0.00000000E+00  0.00000000E+00  0.00000000E+00
  0.00000000E+00  0.00000000E+00  0.00000000E+00
  0.00000000E+00  0.00000000E+00  0.00000000E+00
  0.00000000E+00  0.00000000E+00  0.00000000E+00
  0.00000000E+00  0.00000000E+00  0.00000000E+00
  0.00000000E+00  0.00000000E+00  0.00000000E+00
  0.00000000E+00  0.00000000E+00  0.00000000E+00
  0.00000000E+00  0.00000000E+00  0.00000000E+00
  0.00000000E+00  0.00000000E+00  0.00000000E+00
  0.00000000E+00  0.00000000E+00  0.00000000E+00
  0.00000000E+00  0.00000000E+00  0.00000000E+00
  0.00000000E+00  0.00000000E+00  0.00000000E+00
  0.00000000E+00  0.00000000E+00  0.00000000E+00
  0.00000000E+00  0.00000000E+00  0.00000000E+00
  0.00000000E+00  0.00000000E+00  0.00000000E+00
  0.00000000E+00  0.00000000E+00  0.00000000E+00
  0.00000000E+00  0.00000000E+00  0.00000000E+00
  0.00000000E+00  0.00000000E+00  0.00000000E+00
  0.00000000E+00  0.00000000E+00  0.00000000E+00
  0.00000000E+00  0.00000000E+00  0.00000000E+00
  0.00000000E+00  0.00000000E+00  0.00000000E+00
  0.00000000E+00  0.00000000E+00  0.00000000E+00
  0.00000000E+00  0.00000000E+00  0.00000000E+00
  0.00000000E+00  0.00000000E+00  0.00000000E+00
  0.00000000E+00  0.00000000E+00  0.00000000E+00
  0.00000000E+00  0.00000000E+00  0.00000000E+00
  0.00000000E+00  0.00000000E+00  0.00000000E+00
  0.00000000E+00  0.00000000E+00  0.00000000E+00
  0.00000000E+00  0.00000000E+00  0.00000000E+00
  0.00000000E+00  0.00000000E+00  0.00000000E+00
  0.00000000E+00  0.00000000E+00  0.00000000E+00
  0.00000000E+00  0.00000000E+00  0.00000000E+00
  0.00000000E+00  0.00000000E+00  0.00000000E+00
  0.00000000E+00  0.00000000E+00  0.00000000E+00
  0.00000000E+00  0.00000000E+00  0.00000000E+00
  0.00000000E+00  0.00000000E+00  0.00000000E+00
  0.00000000E+00  0.00000000E+00  0.00000000E+00
  0.00000000E+00  0.00000000E+00  0.00000000E+00
  0.00000000E+00  0.00000000E+00  0.00000000E+00
  0.00000000E+00  0.00000000E+00  0.00000000E+00
  0.00000000E+00  0.00000000E+00  0.00000000E+00
  0.00000000E+00  0.00000000E+00  0.00000000E+00
  0.00000000E+00  0.00000000E+00  0.00000000E+00
  0.00000000E+00  0.00000000E+00  0.00000000E+00
  0.00000000E+00  0.00000000E+00  0.00000000E+00
  0.00000000E+00  0.00000000E+00  0.00000000E+00
  0.00000000E+00  0.00000000E+00  0.00000000E+00
  0.00000000E+00  0.00000000E+00  0.00000000E+00
  0.00000000E+00  0.00000000E+00  0.00000000E+00
  0.00000000E+00  0.00000000E+00  0.00000000E+00
  0.00000000E+00  0.00000000E+00  0.00000000E+00
  0.00000000E+00  0.00000000E+00  0.00000000E+00
  0.00000000E+00  0.00000000E+00  0.00000000E+00
  0.00000000E+00  0.00000000E+00  0.00000000E+00
  0.00000000E+00  0.00000000E+00  0.00000000E+00
  0.00000000E+00  0.00000000E+00  0.00000000E+00
  0.00000000E+00  0.00000000E+00  0.00000000E+00
  0.00000000E+00  0.00000000E+00  0.00000000E+00
  0.00000000E+00  0.00000000E+00  0.00000000E+00