CuInSe2gb                               
   1.00000000000000     
     9.7266780392896699    0.0000000000000000    0.0000000000000000
     0.0000000000000000    8.4235502764570693    0.0000000000000000
     0.0000000000000000    0.0000000000000000   45.0000000000000000
   Fe   Mn
   281     7
Direct
  0.0625588669081954  0.7092032465825885  0.2124105273591754
  0.3142861416734810  0.7142789329662691  0.8746314350513189
  0.6865094197007362  0.9588705781047577  0.6106144888833802
  0.4380705020302587  0.4581644252419571  0.6105563205243665
  0.4377927094932155  0.2940037649486824  0.2567658658703783
  0.0626964849616940  0.3796186016949838  0.8317579611774923
  0.3122225931533348  0.8777833459370081  0.8318592844686794
  0.4366707071788241  0.6246093424400787  0.6991144783025512
  0.0623153655380776  0.2053354684716181  0.7434494946131985
  0.1877096085894444  0.4591386131572732  0.2124473572795408
  0.5625468577858445  0.2084593436922232  0.4777562964363655
  0.0625289507434989  0.8748390684694063  0.5665821017339586
  0.5608123168306494  0.2150917207722887  0.8746300660812193
  0.8122605950912438  0.5409884144381024  0.1254694526472698
  0.4374944081396072  0.9586343706197630  0.2124603121559063
  0.5625226118226978  0.3748355513475735  0.5664544969194985
  0.8125703344386643  0.0411551761107982  0.3893494621171439
  0.6876805272358251  0.7906067865926123  0.5221090281653127
  0.4376701110546758  0.4588732423526520  0.4777244802934157
  0.4373480898088648  0.9567488280692636  0.7434566492617984
  0.4378616023203296  0.6243542624150223  0.5663688120593543
  0.0622443101841405  0.5414505784116634  0.1253893377807049
  0.3123425539123740  0.0413639000837105  0.1254468089972544
  0.6876019665692601  0.9546595426859593  0.3452931789551512
  0.6874364711248591  0.7898555302474465  0.1254298389116511
  0.0625911052804832  0.3749230356002149  0.3009179198497970
  0.6876331549619835  0.4564810378926291  0.8744793814991420
  0.4370954290496710  0.4590402017323690  0.2124649373120818
  0.8125028520479786  0.3756084683552673  0.4336928254877983
  0.8116019584110671  0.3749298933461985  0.6991238599406870
  0.5609208553144763  0.5434172340252486  0.6548052121501308
  0.9376529575930685  0.1250567221675582  0.4336305298579398
  0.5622796848465926  0.5436859743183315  0.2566516588551615
  0.6874654175070853  0.4547971898838057  0.3451570225005043
  0.1880582961975248  0.6218956393404198  0.1677890587525851
  0.1880444498094378  0.7903568979262390  0.7875633401888643
  0.4362997280333878  0.1245161013044520  0.6991857868178324
  0.9371046162608052  0.6251973825058261  0.3009486487879843
  0.3115244580016499  0.2145124887718849  0.8746016367515889
  0.3117793380941185  0.8745752115432713  0.5662503374794768
  0.8133104009272031  0.2142986031895168  0.8747226872836638
  0.8123475705175565  0.5447000302319472  0.6548725444992606
  0.5620525174228043  0.5412863321070462  0.1254566993009451
  0.5628561424524168  0.8718536656889662  0.1679977560489087
  0.1875185723012054  0.2943006016090543  0.2567367508297534
  0.8122162242300310  0.8749674186339552  0.4337209534176566
  0.5624749215458157  0.3751707727095449  0.6990751823608452
  0.0619558274918400  0.0409338672658492  0.1254362524204600
  0.3116119484999701  0.5453516763768635  0.6548055510305283
  0.5626803009481524  0.2048313487235795  0.3453369362388041
  0.1877982213980911  0.9583016057291982  0.6107111277311893
  0.3120790463359047  0.3750934336857070  0.3007685727319117
  0.4379006184614704  0.7933259436557484  0.6545374155166228
  0.6877801244285119  0.4550852055349182  0.7433740313199022
  0.0626824079728197  0.3716384289018699  0.1677657634660673
  0.6880379128978049  0.6246045896608294  0.6990622911267217
  0.3123251349957924  0.5418054135979823  0.3893378452353851
  0.0648997003355272  0.7141979853092241  0.8746217717471596
  0.9364528029345527  0.6327502153152572  0.8329243308564303
  0.3130378553679495  0.5406563405627329  0.7876034518711464
  0.3122037669651631  0.2084513425460655  0.2124952561112327
  0.0626628680796338  0.7084224544602760  0.4776667334018214
  0.5622284410624900  0.2091143277737998  0.2124179266741578
  0.3135253306688864  0.2062487873565227  0.7430911074376387
  0.0638597108830937  0.3749832299927149  0.6993037055610480
  0.1872250433183657  0.6284833527693779  0.8318395814841539
  0.0614700583746200  0.0413560944326282  0.7877271977237507
  0.4378072375086164  0.1246942813795482  0.5663171568431646
  0.9373376901769407  0.2923117776547299  0.6544711184338691
  0.8125355107037048  0.2084868156514549  0.2125696095676954
  0.9370669145908619  0.9585743043585891  0.2124097580916982
  0.9375943439716938  0.6245269416136799  0.5665618918045201
  0.8117140081240983  0.3823649702575515  0.8326712713765260
  0.1887477170700963  0.6243317247762336  0.6990429805939360
  0.5640194668372558  0.8751481241560095  0.6993191593247249
  0.6887078223034330  0.2933618138664980  0.6546554889550131
  0.3132032463228479  0.2081517546365053  0.6105778647411223
  0.4387204369521993  0.4570863580364748  0.7432524420323265
  0.4379916209183269  0.7916277404521875  0.3893122949232890
  0.6868209872481279  0.9550010942156828  0.7433107749882056
  0.8123964912960133  0.7092269921562151  0.2124195096340200
  0.8132907586534921  0.7083957400072426  0.6105717081106828
  0.4379580320849544  0.7899220441178803  0.1254570675539593
  0.3120400806886878  0.7055291097859023  0.7431810870292282
  0.3134615754292573  0.0400617324029293  0.7876344825191106
  0.8125292931701049  0.5407351466333932  0.3895014102637905
  0.6873459004575657  0.2911991367663255  0.5222687632972053
  0.6874782575682894  0.7915059146608993  0.7874446672946285
  0.1877849909358574  0.7941511762586161  0.2566830533870975
  0.6872963160711631  0.1221019239431867  0.1679089730730995
  0.6874856154732601  0.9589630597604892  0.4777433114670682
  0.9375099715000725  0.9546429618001111  0.3453130234846442
  0.8125028270255011  0.0403691098249648  0.5222183536734933
  0.6878424886047860  0.6250081621187255  0.4336833023092539
  0.4373235356308221  0.4551776783488301  0.3451087540687015
  0.8123951693696212  0.2048224231984133  0.7432789363113699
  0.4367325434829987  0.9567859155611592  0.8747040045993517
  0.5622677012939943  0.8748545905636982  0.5666158130680833
  0.8120545687486928  0.0410558754640624  0.1254286984539863
  0.4379551926596019  0.6255970815165935  0.3008507128928542
  0.5628142111526835  0.2051281990403953  0.7435940139779120
  0.6870449058081765  0.4582525220131223  0.6105301153030904
  0.5620808361628279  0.3784110989670102  0.8318970219750426
  0.8121066740554107  0.3755001670089346  0.3010454674000398
  0.1876845770247954  0.2914807817763660  0.3893277050935485
  0.8133058053150208  0.5411187348911995  0.7876333386135469
  0.1875177021977364  0.7911590224325389  0.5222059454483788
  0.3120544530691531  0.8751953520230936  0.3008614701153112
  0.1869669788675179  0.9582279965727177  0.2124188465146208
  0.1860829686519047  0.4552326973849807  0.7433160779320005
  0.4370614621221953  0.2909343524943104  0.5222425398513186
  0.0626993704398031  0.7046482602224493  0.3453029791106086
  0.1876554720715048  0.7949247845546257  0.6549078440983899
  0.4378323695914956  0.7910164212566023  0.7875909808991770
  0.6875675301251917  0.1251152298506552  0.4336099062899965
  0.9372299059856334  0.7909765711782414  0.5222588391703227
  0.6881086854214982  0.6220284291123857  0.1679194954564082
  0.8128181196956005  0.7040819391215116  0.3450410484037795
  0.9369173826038112  0.4549877257880646  0.7433423965213256
  0.1874425494848258  0.4545121664141870  0.3452126955287300
  0.5621363754467997  0.5410281607302730  0.7876925879493040
  0.5619853040124008  0.3719287106022116  0.1678827267734004
  0.5624371587208726  0.7044568370856397  0.3452161956621748
  0.5622828049551908  0.3748441066944526  0.3008478670285823
  0.1876414956912749  0.4562021148933126  0.8744540169829483
  0.1881059320358057  0.1221529807881115  0.1679300690743070
  0.4374435819526910  0.2904164703851039  0.7875576078074814
  0.6875081444458165  0.7942271163133681  0.2566608415100961
  0.9361812316506677  0.1301434764315322  0.8323455728100273
  0.4375259700212580  0.9583137228684012  0.4776710058358603
  0.5601702591379313  0.7148416127811272  0.8746061232821639
  0.1874828927493337  0.4586970419237537  0.4777174698849898
  0.9370201817864472  0.2905136333758797  0.1254159061214595
  0.3127660910356769  0.0414498518386578  0.3892767819658882
  0.0614025252784059  0.0441558833898112  0.6548622900199478
  0.5624798350909161  0.3753439715548908  0.4336005028586303
  0.9375163358317192  0.6247007191991539  0.4334065206731607
  0.3127675404838741  0.3719911422471825  0.1677832072272574
  0.9367663542376634  0.1246555248718755  0.6989207582955358
  0.5613130761573560  0.0431395261834648  0.6544429620409253
  0.5626258629827905  0.5407501246370884  0.5221572569550202
  0.1879252230669634  0.1253022127310159  0.3009955844527246
  0.4373641562458733  0.1219470759060972  0.1679130262044993
  0.6880259109821546  0.6255212688222845  0.3010158931279665
  0.9376701505507163  0.1250500409953344  0.3007712610494794
  0.8125020426130574  0.3748327259545794  0.5661571578866320
  0.0625043481765324  0.8750039873782042  0.3008243003643873
  0.1876848537439551  0.6239107980332982  0.5664533358619396
  0.9374349194346620  0.7908642147716826  0.7875842571238482
  0.3125731647195749  0.3773976739521545  0.8318213871237592
  0.9383385023496762  0.4558403501157972  0.8745828323550636
  0.4369935580514712  0.6288822761441673  0.8317439599856290
  0.0623988631693473  0.2049817472234735  0.3453202185381854
  0.1885607933680434  0.9570896737947387  0.8745513187032975
  0.9377726742859493  0.7902514431144766  0.1253577837501881
  0.6875031246679071  0.7913237071440197  0.3893892389352164
  0.9368343628811998  0.7943877247397414  0.6548132534963217
  0.9378697059540749  0.1219615680276547  0.1678527886207296
  0.4361889604456378  0.2939270147818418  0.6547079021346977
  0.0627505064423053  0.2086880134711014  0.2123940651199917
  0.6871465245765154  0.9582170536873762  0.2124211919921589
  0.5626600864590739  0.7087387007398881  0.6106169525732459
  0.8134713947223922  0.8746741793625714  0.6989426675667313
  0.9363571030583581  0.6244752371821802  0.6990806741518528
  0.1881756958940059  0.1245052419346857  0.6990431516762894
  0.9377097707710356  0.4586358493741766  0.4776740619315182
  0.8124599289840087  0.2088225765258304  0.6106397109240155
  0.1874927563368631  0.6250631025963810  0.4333522598903514
  0.4369998635814604  0.1254060142667091  0.3008282463207626
  0.6876241618222405  0.1251984005973181  0.3009513205504813
  0.5625712138054608  0.5416276282755116  0.3893579472225152
  0.8124814457022939  0.2046466479376672  0.3452168274582139
  0.4359361570296599  0.4564523197157175  0.8744658048817626
  0.5632827695134830  0.8783677889655401  0.8320371004221446
  0.3126786456156569  0.2084557478442494  0.4777512162973236
  0.1876690484844812  0.9589060951560266  0.4777252609379384
  0.0616878854265093  0.8776989324981036  0.8320995085309814
  0.0624491577786054  0.5404735086462179  0.5221877729125661
  0.9373442436198696  0.9585084797538650  0.4777975373666487
  0.0631938720587432  0.7081242070489947  0.6105265112117949
  0.5625929530406054  0.0404547514530582  0.5223281850870356
  0.6874025713135000  0.2914140555951757  0.7875712474133670
  0.8121779464003558  0.3719425174459149  0.1678697372182921
  0.4374106586453255  0.1255517153584836  0.4335458621941992
  0.0626981827208712  0.2083545055871249  0.4776480002109575
  0.3117595209790427  0.0454978063559242  0.6548633804131663
  0.4371411779262959  0.7907054326841922  0.5221603303223765
  0.1873039218201534  0.1284439643646338  0.8319623312552284
  0.1879944296814994  0.2902656381154169  0.1254827257362361
  0.9374533172403768  0.4543621959921976  0.3451834548174232
  0.3130605705604398  0.8717063021030621  0.1679170661524076
  0.3124313333952909  0.7086111407180645  0.2124988860969158
  0.9380417773736865  0.6218543391962235  0.1678527953503429
  0.1866216195328780  0.4585607113535730  0.6107131660826637
  0.0633766907492962  0.8748132456183986  0.6991410638354634
  0.0620361040232105  0.5451101109945889  0.6546255700609213
  0.3126712755384670  0.5407402066631685  0.1254886059009524
  0.9376772972763393  0.7914369218487669  0.3893189467101745
  0.9374980255034632  0.2912180669855791  0.7875832599978861
  0.1869108963289965  0.2946730593079634  0.6547641285032386
  0.9377082598962900  0.9582350952091817  0.6105297575460480
  0.8133886403095820  0.7047668401791874  0.7432025639897287
  0.6873499892568611  0.2944033604090430  0.2566877624333492
  0.0620752211836965  0.7051613510620820  0.7434829303736095
  0.6870145665383272  0.4587216329243398  0.2124054265704985
  0.8123895914735769  0.2087036062799177  0.4776775984741036
  0.5624480947500442  0.7085642178217894  0.4776727644604114
  0.0626419099123813  0.8718142068686774  0.1678941307838814
  0.9374185854569963  0.2910680028523867  0.5222394883455022
  0.6859049406337077  0.7935014608039490  0.6548441280532229
  0.0620697730666195  0.8757505678934480  0.4334740745206055
  0.0653110561303009  0.2147182191322707  0.8746932439268245
  0.8118480890830634  0.0452019087656173  0.6548205673342503
  0.5618846740840240  0.0408023269948778  0.1255284570927433
  0.3124295707672824  0.3758760306525947  0.4335939875781647
  0.3127836481795878  0.3745933366064362  0.5660985001590938
  0.3125808983550544  0.7087713977327352  0.4777183349470161
  0.0622746208691401  0.0408611514555096  0.5223021333313120
  0.3122280639991848  0.8745173794755251  0.6991695840633934
  0.0627337844154542  0.5438643690206912  0.2565797231126159
  0.6884002087459450  0.1313216849572899  0.8326641146022343
  0.8122065084588432  0.0440340033011121  0.2567808534247580
  0.1872983984489263  0.1254381124819136  0.4337526874075340
  0.6882957094155464  0.1246850041648490  0.6990633369211006
  0.1874984065204617  0.2909917112234172  0.5222050261340417
  0.4374783088210547  0.7940873143472423  0.2566725313481310
  0.8128951920352518  0.5439982434928553  0.2567091975526569
  0.0630252762894039  0.2089635532203150  0.6106088292980097
  0.1872615614334009  0.7913764374400394  0.3893090208653694
  0.3125456097821013  0.5405312411728553  0.5222212021000082
  0.8129671398299159  0.8718487292053100  0.1678950015605327
  0.6877125833907959  0.2910065313494777  0.3895436175790775
  0.1876046720724114  0.1235249987278154  0.5663200392543342
  0.6865985048158607  0.9572498128449825  0.8747502083665473
  0.6875596547189700  0.1246298606236416  0.5661651259241175
  0.4377136300226766  0.9552194553362127  0.3452333763624169
  0.1865861124810340  0.9561706489502734  0.7433109853770974
  0.9379727908132609  0.7942364207773888  0.2566496261537631
  0.5625059987554741  0.8752373423030776  0.4333656065555970
  0.3121596817122972  0.8754261525215743  0.4337408831805785
  0.8125921313586173  0.5405643259345517  0.5221801663501179
  0.9376484349300117  0.4594772547584045  0.2124627876474287
  0.3122386710896149  0.5438329979436001  0.2566353407481864
  0.5623084306974701  0.0412133111274284  0.3893550508010888
  0.9380415560768626  0.4591165215748382  0.6106594589105500
  0.0624944552292575  0.0418917432534580  0.3893515087576726
  0.0621642059472690  0.5415528709402910  0.3893505076347783
  0.4379831852027937  0.2907910947359717  0.3895353105294151
  0.6876933050640754  0.4588388481302331  0.4777901910429914
  0.0620730829489919  0.3748737875650224  0.5662952452982450
  0.5620623431006397  0.7087520320512287  0.2125037529533160
  0.9375017120913588  0.2943246976051081  0.2566934993378916
  0.1882510626551978  0.6253749619771373  0.3009935564718472
  0.1876347453834696  0.9546894844747049  0.3452051905376066
  0.5626140608712651  0.8747961369404650  0.3008112741827390
  0.0622711467989409  0.3749914661493974  0.4334468724904517
  0.3123834824541821  0.7044775310547519  0.3451916125573219
  0.3126312570849240  0.2045432113286911  0.3452926313406454
  0.9378762582957988  0.1249811150959260  0.5662188817623515
  0.8126240471766786  0.0420164373535738  0.7876761670891214
  0.5622169870765866  0.0438595962280263  0.2567531022948631
  0.1877657965877680  0.7898442328436253  0.1254393049905364
  0.0626102869092402  0.0441809713739653  0.2567222107046765
  0.6873907265901578  0.6239954833855299  0.5662229502639755
  0.4382838037141890  0.6219199233979362  0.1679312506259309
  0.1875560246273739  0.2912299178760355  0.7874346991395949
  0.6873243330998078  0.2902445987031834  0.1255106683274679
  0.8126190389112651  0.7088274975202650  0.4777207454271555
  0.4373693729013113  0.1300256673874480  0.8319541488448557
  0.3131507615524461  0.3742914999125485  0.6989581539868970
  0.6878616397822479  0.6327292892368345  0.8329813205501546
  0.5629478792008783  0.7062499631262424  0.7434447808045263
  0.9376713077322312  0.2915901655094958  0.3893370213599421
  0.9377223818466492  0.9567679271038217  0.8748504699792651
  0.9377351874995060  0.9557022044367826  0.7432612211529308
  0.8125776241614368  0.8742111483116759  0.5665554744547784
  0.8119671861033801  0.8744372446040383  0.3008054154499454
  0.3123706713028481  0.0439237475813038  0.2567169514727690
  0.4373601857761832  0.2902029809819711  0.1255281658288072
  0.3132046017236930  0.7086494561345805  0.6106187916667153
  0.4371992651085750  0.6248784565789826  0.4334078216115258
  0.3114363804531888  0.0400766287906523  0.5221941987859222
  0.5630399444617517  0.0418365263124040  0.7872962397942804
  0.0633382791383309  0.5411478497524215  0.7874888734315513
  0.8126806942333675  0.8802988139907720  0.8331943783010997
  0.8128185897919946  0.7145021303076142  0.8745316690212321
  0.5639026171518066  0.2094220289156878  0.6103926448196620
  0.4375020097982325  0.9573387429352223  0.6106443020525344
 
  0.00000000E+00  0.00000000E+00  0.00000000E+00
  0.00000000E+00  0.00000000E+00  0.00000000E+00
  0.00000000E+00  0.00000000E+00  0.00000000E+00
  0.00000000E+00  0.00000000E+00  0.00000000E+00
  0.00000000E+00  0.00000000E+00  0.00000000E+00
  0.00000000E+00  0.00000000E+00  0.00000000E+00
  0.00000000E+00  0.00000000E+00  0.00000000E+00
  0.00000000E+00  0.00000000E+00  0.00000000E+00
  0.00000000E+00  0.00000000E+00  0.00000000E+00
  0.00000000E+00  0.00000000E+00  0.00000000E+00
  0.00000000E+00  0.00000000E+00  0.00000000E+00
  0.00000000E+00  0.00000000E+00  0.00000000E+00
  0.00000000E+00  0.00000000E+00  0.00000000E+00
  0.00000000E+00  0.00000000E+00  0.00000000E+00
  0.00000000E+00  0.00000000E+00  0.00000000E+00
  0.00000000E+00  0.00000000E+00  0.00000000E+00
  0.00000000E+00  0.00000000E+00  0.00000000E+00
  0.00000000E+00  0.00000000E+00  0.00000000E+00
  0.00000000E+00  0.00000000E+00  0.00000000E+00
  0.00000000E+00  0.00000000E+00  0.00000000E+00
  0.00000000E+00  0.00000000E+00  0.00000000E+00
  0.00000000E+00  0.00000000E+00  0.00000000E+00
  0.00000000E+00  0.00000000E+00  0.00000000E+00
  0.00000000E+00  0.00000000E+00  0.00000000E+00
  0.00000000E+00  0.00000000E+00  0.00000000E+00
  0.00000000E+00  0.00000000E+00  0.00000000E+00
  0.00000000E+00  0.00000000E+00  0.00000000E+00
  0.00000000E+00  0.00000000E+00  0.00000000E+00
  0.00000000E+00  0.00000000E+00  0.00000000E+00
  0.00000000E+00  0.00000000E+00  0.00000000E+00
  0.00000000E+00  0.00000000E+00  0.00000000E+00
  0.00000000E+00  0.00000000E+00  0.00000000E+00
  0.00000000E+00  0.00000000E+00  0.00000000E+00
  0.00000000E+00  0.00000000E+00  0.00000000E+00
  0.00000000E+00  0.00000000E+00  0.00000000E+00
  0.00000000E+00  0.00000000E+00  0.00000000E+00
  0.00000000E+00  0.00000000E+00  0.00000000E+00
  0.00000000E+00  0.00000000E+00  0.00000000E+00
  0.00000000E+00  0.00000000E+00  0.00000000E+00
  0.00000000E+00  0.00000000E+00  0.00000000E+00
  0.00000000E+00  0.00000000E+00  0.00000000E+00
  0.00000000E+00  0.00000000E+00  0.00000000E+00
  0.00000000E+00  0.00000000E+00  0.00000000E+00
  0.00000000E+00  0.00000000E+00  0.00000000E+00
  0.00000000E+00  0.00000000E+00  0.00000000E+00
  0.00000000E+00  0.00000000E+00  0.00000000E+00
  0.00000000E+00  0.00000000E+00  0.00000000E+00
  0.00000000E+00  0.00000000E+00  0.00000000E+00
  0.00000000E+00  0.00000000E+00  0.00000000E+00
  0.00000000E+00  0.00000000E+00  0.00000000E+00
  0.00000000E+00  0.00000000E+00  0.00000000E+00
  0.00000000E+00  0.00000000E+00  0.00000000E+00
  0.00000000E+00  0.00000000E+00  0.00000000E+00
  0.00000000E+00  0.00000000E+00  0.00000000E+00
  0.00000000E+00  0.00000000E+00  0.00000000E+00
  0.00000000E+00  0.00000000E+00  0.00000000E+00
  0.00000000E+00  0.00000000E+00  0.00000000E+00
  0.00000000E+00  0.00000000E+00  0.00000000E+00
  0.00000000E+00  0.00000000E+00  0.00000000E+00
  0.00000000E+00  0.00000000E+00  0.00000000E+00
  0.00000000E+00  0.00000000E+00  0.00000000E+00
  0.00000000E+00  0.00000000E+00  0.00000000E+00
  0.00000000E+00  0.00000000E+00  0.00000000E+00
  0.00000000E+00  0.00000000E+00  0.00000000E+00
  0.00000000E+00  0.00000000E+00  0.00000000E+00
  0.00000000E+00  0.00000000E+00  0.00000000E+00
  0.00000000E+00  0.00000000E+00  0.00000000E+00
  0.00000000E+00  0.00000000E+00  0.00000000E+00
  0.00000000E+00  0.00000000E+00  0.00000000E+00
  0.00000000E+00  0.00000000E+00  0.00000000E+00
  0.00000000E+00  0.00000000E+00  0.00000000E+00
  0.00000000E+00  0.00000000E+00  0.00000000E+00
  0.00000000E+00  0.00000000E+00  0.00000000E+00
  0.00000000E+00  0.00000000E+00  0.00000000E+00
  0.00000000E+00  0.00000000E+00  0.00000000E+00
  0.00000000E+00  0.00000000E+00  0.00000000E+00
  0.00000000E+00  0.00000000E+00  0.00000000E+00
  0.00000000E+00  0.00000000E+00  0.00000000E+00
  0.00000000E+00  0.00000000E+00  0.00000000E+00
  0.00000000E+00  0.00000000E+00  0.00000000E+00
  0.00000000E+00  0.00000000E+00  0.00000000E+00
  0.00000000E+00  0.00000000E+00  0.00000000E+00
  0.00000000E+00  0.00000000E+00  0.00000000E+00
  0.00000000E+00  0.00000000E+00  0.00000000E+00
  0.00000000E+00  0.00000000E+00  0.00000000E+00
  0.00000000E+00  0.00000000E+00  0.00000000E+00
  0.00000000E+00  0.00000000E+00  0.00000000E+00
  0.00000000E+00  0.00000000E+00  0.00000000E+00
  0.00000000E+00  0.00000000E+00  0.00000000E+00
  0.00000000E+00  0.00000000E+00  0.00000000E+00
  0.00000000E+00  0.00000000E+00  0.00000000E+00
  0.00000000E+00  0.00000000E+00  0.00000000E+00
  0.00000000E+00  0.00000000E+00  0.00000000E+00
  0.00000000E+00  0.00000000E+00  0.00000000E+00
  0.00000000E+00  0.00000000E+00  0.00000000E+00
  0.00000000E+00  0.00000000E+00  0.00000000E+00
  0.00000000E+00  0.00000000E+00  0.00000000E+00
  0.00000000E+00  0.00000000E+00  0.00000000E+00
  0.00000000E+00  0.00000000E+00  0.00000000E+00
  0.00000000E+00  0.00000000E+00  0.00000000E+00
  0.00000000E+00  0.00000000E+00  0.00000000E+00
  0.00000000E+00  0.00000000E+00  0.00000000E+00
  0.00000000E+00  0.00000000E+00  0.00000000E+00
  0.00000000E+00  0.00000000E+00  0.00000000E+00
  0.00000000E+00  0.00000000E+00  0.00000000E+00
  0.00000000E+00  0.00000000E+00  0.00000000E+00
  0.00000000E+00  0.00000000E+00  0.00000000E+00
  0.00000000E+00  0.00000000E+00  0.00000000E+00
  0.00000000E+00  0.00000000E+00  0.00000000E+00
  0.00000000E+00  0.00000000E+00  0.00000000E+00
  0.00000000E+00  0.00000000E+00  0.00000000E+00
  0.00000000E+00  0.00000000E+00  0.00000000E+00
  0.00000000E+00  0.00000000E+00  0.00000000E+00
  0.00000000E+00  0.00000000E+00  0.00000000E+00
  0.00000000E+00  0.00000000E+00  0.00000000E+00
  0.00000000E+00  0.00000000E+00  0.00000000E+00
  0.00000000E+00  0.00000000E+00  0.00000000E+00
  0.00000000E+00  0.00000000E+00  0.00000000E+00
  0.00000000E+00  0.00000000E+00  0.00000000E+00
  0.00000000E+00  0.00000000E+00  0.00000000E+00
  0.00000000E+00  0.00000000E+00  0.00000000E+00
  0.00000000E+00  0.00000000E+00  0.00000000E+00
  0.00000000E+00  0.00000000E+00  0.00000000E+00
  0.00000000E+00  0.00000000E+00  0.00000000E+00
  0.00000000E+00  0.00000000E+00  0.00000000E+00
  0.00000000E+00  0.00000000E+00  0.00000000E+00
  0.00000000E+00  0.00000000E+00  0.00000000E+00
  0.00000000E+00  0.00000000E+00  0.00000000E+00
  0.00000000E+00  0.00000000E+00  0.00000000E+00
  0.00000000E+00  0.00000000E+00  0.00000000E+00
  0.00000000E+00  0.00000000E+00  0.00000000E+00
  0.00000000E+00  0.00000000E+00  0.00000000E+00
  0.00000000E+00  0.00000000E+00  0.00000000E+00
  0.00000000E+00  0.00000000E+00  0.00000000E+00
  0.00000000E+00  0.00000000E+00  0.00000000E+00
  0.00000000E+00  0.00000000E+00  0.00000000E+00
  0.00000000E+00  0.00000000E+00  0.00000000E+00
  0.00000000E+00  0.00000000E+00  0.00000000E+00
  0.00000000E+00  0.00000000E+00  0.00000000E+00
  0.00000000E+00  0.00000000E+00  0.00000000E+00
  0.00000000E+00  0.00000000E+00  0.00000000E+00
  0.00000000E+00  0.00000000E+00  0.00000000E+00
  0.00000000E+00  0.00000000E+00  0.00000000E+00
  0.00000000E+00  0.00000000E+00  0.00000000E+00
  0.00000000E+00  0.00000000E+00  0.00000000E+00
  0.00000000E+00  0.00000000E+00  0.00000000E+00
  0.00000000E+00  0.00000000E+00  0.00000000E+00
  0.00000000E+00  0.00000000E+00  0.00000000E+00
  0.00000000E+00  0.00000000E+00  0.00000000E+00
  0.00000000E+00  0.00000000E+00  0.00000000E+00
  0.00000000E+00  0.00000000E+00  0.00000000E+00
  0.00000000E+00  0.00000000E+00  0.00000000E+00
  0.00000000E+00  0.00000000E+00  0.00000000E+00
  0.00000000E+00  0.00000000E+00  0.00000000E+00
  0.00000000E+00  0.00000000E+00  0.00000000E+00
  0.00000000E+00  0.00000000E+00  0.00000000E+00
  0.00000000E+00  0.00000000E+00  0.00000000E+00
  0.00000000E+00  0.00000000E+00  0.00000000E+00
  0.00000000E+00  0.00000000E+00  0.00000000E+00
  0.00000000E+00  0.00000000E+00  0.00000000E+00
  0.00000000E+00  0.00000000E+00  0.00000000E+00
  0.00000000E+00  0.00000000E+00  0.00000000E+00
  0.00000000E+00  0.00000000E+00  0.00000000E+00
  0.00000000E+00  0.00000000E+00  0.00000000E+00
  0.00000000E+00  0.00000000E+00  0.00000000E+00
  0.00000000E+00  0.00000000E+00  0.00000000E+00
  0.00000000E+00  0.00000000E+00  0.00000000E+00
  0.00000000E+00  0.00000000E+00  0.00000000E+00
  0.00000000E+00  0.00000000E+00  0.00000000E+00
  0.00000000E+00  0.00000000E+00  0.00000000E+00
  0.00000000E+00  0.00000000E+00  0.00000000E+00
  0.00000000E+00  0.00000000E+00  0.00000000E+00
  0.00000000E+00  0.00000000E+00  0.00000000E+00
  0.00000000E+00  0.00000000E+00  0.00000000E+00
  0.00000000E+00  0.00000000E+00  0.00000000E+00
  0.00000000E+00  0.00000000E+00  0.00000000E+00
  0.00000000E+00  0.00000000E+00  0.00000000E+00
  0.00000000E+00  0.00000000E+00  0.00000000E+00
  0.00000000E+00  0.00000000E+00  0.00000000E+00
  0.00000000E+00  0.00000000E+00  0.00000000E+00
  0.00000000E+00  0.00000000E+00  0.00000000E+00
  0.00000000E+00  0.00000000E+00  0.00000000E+00
  0.00000000E+00  0.00000000E+00  0.00000000E+00
  0.00000000E+00  0.00000000E+00  0.00000000E+00
  0.00000000E+00  0.00000000E+00  0.00000000E+00
  0.00000000E+00  0.00000000E+00  0.00000000E+00
  0.00000000E+00  0.00000000E+00  0.00000000E+00
  0.00000000E+00  0.00000000E+00  0.00000000E+00
  0.00000000E+00  0.00000000E+00  0.00000000E+00
  0.00000000E+00  0.00000000E+00  0.00000000E+00
  0.00000000E+00  0.00000000E+00  0.00000000E+00
  0.00000000E+00  0.00000000E+00  0.00000000E+00
  0.00000000E+00  0.00000000E+00  0.00000000E+00
  0.00000000E+00  0.00000000E+00  0.00000000E+00
  0.00000000E+00  0.00000000E+00  0.00000000E+00
  0.00000000E+00  0.00000000E+00  0.00000000E+00
  0.00000000E+00  0.00000000E+00  0.00000000E+00
  0.00000000E+00  0.00000000E+00  0.00000000E+00
  0.00000000E+00  0.00000000E+00  0.00000000E+00
  0.00000000E+00  0.00000000E+00  0.00000000E+00
  0.00000000E+00  0.00000000E+00  0.00000000E+00
  0.00000000E+00  0.00000000E+00  0.00000000E+00
  0.00000000E+00  0.00000000E+00  0.00000000E+00
  0.00000000E+00  0.00000000E+00  0.00000000E+00
  0.00000000E+00  0.00000000E+00  0.00000000E+00
  0.00000000E+00  0.00000000E+00  0.00000000E+00
  0.00000000E+00  0.00000000E+00  0.00000000E+00
  0.00000000E+00  0.00000000E+00  0.00000000E+00
  0.00000000E+00  0.00000000E+00  0.00000000E+00
  0.00000000E+00  0.00000000E+00  0.00000000E+00
  0.00000000E+00  0.00000000E+00  0.00000000E+00
  0.00000000E+00  0.00000000E+00  0.00000000E+00
  0.00000000E+00  0.00000000E+00  0.00000000E+00
  0.00000000E+00  0.00000000E+00  0.00000000E+00
  0.00000000E+00  0.00000000E+00  0.00000000E+00
  0.00000000E+00  0.00000000E+00  0.00000000E+00
  0.00000000E+00  0.00000000E+00  0.00000000E+00
  0.00000000E+00  0.00000000E+00  0.00000000E+00
  0.00000000E+00  0.00000000E+00  0.00000000E+00
  0.00000000E+00  0.00000000E+00  0.00000000E+00
  0.00000000E+00  0.00000000E+00  0.00000000E+00
  0.00000000E+00  0.00000000E+00  0.00000000E+00
  0.00000000E+00  0.00000000E+00  0.00000000E+00
  0.00000000E+00  0.00000000E+00  0.00000000E+00
  0.00000000E+00  0.00000000E+00  0.00000000E+00
  0.00000000E+00  0.00000000E+00  0.00000000E+00
  0.00000000E+00  0.00000000E+00  0.00000000E+00
  0.00000000E+00  0.00000000E+00  0.00000000E+00
  0.00000000E+00  0.00000000E+00  0.00000000E+00
  0.00000000E+00  0.00000000E+00  0.00000000E+00
  0.00000000E+00  0.00000000E+00  0.00000000E+00
  0.00000000E+00  0.00000000E+00  0.00000000E+00
  0.00000000E+00  0.00000000E+00  0.00000000E+00
  0.00000000E+00  0.00000000E+00  0.00000000E+00
  0.00000000E+00  0.00000000E+00  0.00000000E+00
  0.00000000E+00  0.00000000E+00  0.00000000E+00
  0.00000000E+00  0.00000000E+00  0.00000000E+00
  0.00000000E+00  0.00000000E+00  0.00000000E+00
  0.00000000E+00  0.00000000E+00  0.00000000E+00
  0.00000000E+00  0.00000000E+00  0.00000000E+00
  0.00000000E+00  0.00000000E+00  0.00000000E+00
  0.00000000E+00  0.00000000E+00  0.00000000E+00
  0.00000000E+00  0.00000000E+00  0.00000000E+00
  0.00000000E+00  0.00000000E+00  0.00000000E+00
  0.00000000E+00  0.00000000E+00  0.00000000E+00
  0.00000000E+00  0.00000000E+00  0.00000000E+00
  0.00000000E+00  0.00000000E+00  0.00000000E+00