FeMn_288_15                             
    1.000000000000000     
     9.7266779999999997    0.0000000000000000    0.0000000000000000
     0.0000000000000000    8.4235500000000005    0.0000000000000000
     0.0000000000000000    0.0000000000000000   45.0000000000000000
   Fe   Mn
   273    15
Direct
  0.0623791672526804  0.2001210191701887  0.3456388166966636
  0.9378092515783725  0.2966161533448123  0.8748786942489830
  0.6872435752936162  0.4558790903511001  0.4785259016323181
  0.1874528663303646  0.4550438068610877  0.4784828493871581
  0.4372520372244655  0.4506936700553865  0.3457774986662556
  0.4373461988943702  0.6127572780034495  0.1678578054985500
  0.3130999964596979  0.5460000397930882  0.7431195424520451
  0.0620695046276870  0.3707403566038368  0.4346056324745895
  0.5622241175387753  0.0306151702052752  0.1253286572136102
  0.6877397475723689  0.9639388196242039  0.8323797393547510
  0.5629359238125037  0.5471473793492756  0.8745289379150076
  0.1876448898135674  0.1224610632004103  0.5213847967966885
  0.9373267295589388  0.2819728088480216  0.2569637632843678
  0.9369516139139175  0.2925654758560385  0.6101946504914773
  0.4373433548650659  0.2920569553973929  0.6101256666218411
  0.1871880578338229  0.9616680391030769  0.6988414085009423
  0.4374047826216607  0.2855836342241286  0.3897786152909283
  0.6875106934979444  0.2802070071795563  0.1254995254433372
  0.3124851413732879  0.3723606344792360  0.5213041666308694
  0.0627041500393413  0.3661421292548527  0.3011315979823078
  0.4374392399606726  0.2797205211033705  0.1254203937197939
  0.8132072083935916  0.0475888985646128  0.8746299570760089
  0.4374333701348601  0.7800407264763214  0.1255036365777375
  0.4375800874445295  0.2957891303509295  0.7431735836927863
  0.8123383790580558  0.5428132425266363  0.6100826152025939
  0.8123979943964716  0.0317543640268507  0.2568563152339214
  0.6870875648545713  0.7928431078433851  0.6101038918992772
  0.0618028173739658  0.0305182220205499  0.1255312332575760
  0.4373812926278529  0.7927839808828949  0.6101544275951962
  0.5622795966436920  0.5427203841807607  0.6102096294793411
  0.9367902201663731  0.1224984746911108  0.5213600659912256
  0.9385043172574999  0.2960459503169401  0.7432447513595207
  0.1873065534189778  0.4572488211477071  0.5652230952555976
  0.9374134439959145  0.4504136090530402  0.3457768178428202
  0.0626601216369271  0.8770521491090745  0.6542371780538289
  0.6871748916729327  0.2926827665967300  0.6100411050881333
  0.0625739812767747  0.5318247417693046  0.2569084043239013
  0.3129381987468985  0.0304478735707111  0.1253597767054229
  0.9376016486238802  0.4484815688475287  0.2126058858139721
  0.4373002668104712  0.2816214504955821  0.2569496030024466
  0.5621751132999496  0.8775236444879138  0.6540611750937155
  0.5622690370528514  0.3789686137479842  0.7875243180379551
  0.6868873929120789  0.1292823015779472  0.7874327545351045
  0.4373587776170634  0.1300938523085735  0.7874852652911754
  0.0622435961775296  0.8706088452097865  0.4345611708293044
  0.5623097226028623  0.3623908413491838  0.1677938897742874
  0.1873181104501624  0.2817425084234469  0.2569215611750919
  0.9376406144386735  0.9485000051601016  0.2126275335559503
  0.9371159978367545  0.4614288255136833  0.6987441879169158
  0.8126366767958276  0.5303759151265780  0.1254256001478986
  0.5621346935032638  0.8661905022393817  0.3011148625910769
  0.3129525676198033  0.0476593035678871  0.8747670953685922
  0.9373614839842729  0.9572344112026795  0.5651581741044196
  0.9374214518856611  0.9547617208112485  0.4784405147331002
  0.0624998882686702  0.5475619280580343  0.8747301158062006
  0.8125970281113255  0.0428747569800515  0.6101303107757756
  0.3128817120976966  0.7074290680988758  0.5652739783765443
  0.9375689430410106  0.7820606753508024  0.2569161827216539
  0.6872344656257440  0.6206620573134787  0.4347021826196741
  0.5621847326757318  0.0474402523395661  0.8748005926523821
  0.8125428879668547  0.1985565855865933  0.2125520318906600
  0.5620956544911320  0.5316301399547244  0.2568945685785087
  0.3123655987207399  0.7007838381223506  0.3456392532572635
  0.0625539151515164  0.3795533128821055  0.7873465456186015
  0.1873688725292205  0.1206345574979629  0.4346379288871798
  0.9374588345782759  0.6205545210489470  0.4346207581170720
  0.8123556778524579  0.7002739979423974  0.3457558043180443
  0.6880316617649666  0.1276967447139329  0.6542984043747273
  0.4372912584839315  0.7854197111390390  0.3897999163342364
  0.1873609538070838  0.6208412980220448  0.4348323818236336
  0.1872099114410726  0.2974270238525645  0.8747562839557768
  0.0626028257378191  0.3773151083239014  0.6542661859599557
  0.6872656387307408  0.1204873193637824  0.4346443743545995
  0.8125619648842081  0.5458772024553642  0.7430723851747585
  0.1875388009443004  0.6271550097993670  0.6542148931465309
  0.0627613386678592  0.7116049345011466  0.6988308574675434
  0.1876027204793688  0.4483836410382590  0.2126624665649420
  0.3129572235261744  0.0464757460528062  0.7431487604638659
  0.8125450885583300  0.0352787450498417  0.3897870339130997
  0.9377338573859204  0.1162015640445769  0.3011218329880265
  0.0629535914671537  0.5462982092823931  0.7431911899567216
  0.4372735464841112  0.9504294700781987  0.3456735639970837
  0.1874184020671780  0.1162243361142778  0.3011533656181066
  0.3123884147457819  0.8728220206168025  0.5213137844983392
  0.3123063620904806  0.5313389706653159  0.2568933524848340
  0.5622681679738788  0.2001140818479860  0.3456698630861149
  0.9372977961736149  0.1125899031835118  0.1677555436378041
  0.0624064799523900  0.3632943624358769  0.1678318335002290
  0.5628707227843848  0.0456981934559656  0.7430326938770959
  0.9374120530202902  0.7925034275507892  0.6100152192669674
  0.4369513105411316  0.4613398297064060  0.6986849646789545
  0.9370310687673339  0.6221865397040490  0.5213709032580330
  0.1874447613398295  0.9502709269650207  0.3456971005180245
  0.9374999002676739  0.2849747457112874  0.3898379551370847
  0.5628743332574051  0.5461155819414604  0.7431266638884866
  0.8121392372341646  0.7070648478069751  0.5651612729259240
  0.6871149349329034  0.4618914641944595  0.6987545474064071
  0.8125291938280446  0.7121279034223387  0.6988817879964878
  0.0622571085770367  0.7070432303827172  0.5652559419712783
  0.0626574444385655  0.8796228950004149  0.7874830488460419
  0.3123371136617894  0.5478826982123993  0.8745380385083914
  0.3120298732277513  0.0425791911935470  0.6101725259538253
  0.8125398453965943  0.6982354568968336  0.2126828557319235
  0.9375458760407618  0.1205898010566849  0.4346273610388455
  0.6875965126455230  0.7850400183034898  0.3898156033549122
  0.9374057011580108  0.7851174486453523  0.3897746481340553
  0.5622748033790127  0.3662800959702446  0.3011333159996343
  0.3123107746373656  0.3791760736276198  0.7874183241785679
  0.5622584711524705  0.5354304497982999  0.3898325776966181
  0.1883826473663378  0.9644701207560108  0.8323455224522354
  0.0627062289288663  0.1984598658824447  0.2126351082591868
  0.9380996827167138  0.7960857798272389  0.7431010472318993
  0.3126135024003761  0.5424018749860895  0.6102011727803448
  0.5627719930901828  0.8705468388885830  0.4346779688581835
  0.5625406302527813  0.2073135868207912  0.5652445799981720
  0.3121419500453103  0.5303373612600920  0.1254750925582608
  0.1874433755021180  0.7815513500155351  0.2569078674093119
  0.0629075622661920  0.7145128510074945  0.8324427735016610
  0.4376099303082236  0.9557931484282393  0.4785188030005692
  0.3120742268554411  0.2053936653540675  0.4784125993672193
  0.5622529877049819  0.0314622460061048  0.2568778536510471
  0.9366750503016334  0.7973402578349152  0.8747500619725929
  0.0627617300380513  0.5353228816214854  0.3898171452227617
  0.0621795175352219  0.0422270140155046  0.6101076187319143
  0.5625769954784190  0.0426662859869936  0.6100487284418717
  0.6875615076660920  0.6128523547582033  0.1677628578925326
  0.3122459574133303  0.8708337686031467  0.4345095905153247
  0.6871584998409337  0.9503120964963584  0.3457888107151734
  0.4375780495906695  0.9481184630253964  0.2127408389218677
  0.1875039896384625  0.1131560266377628  0.1678313843703955
  0.4374369330100981  0.6158274139057520  0.3010655925792158
  0.9386054879065628  0.4647374761760249  0.8323703592957372
  0.0620068337709419  0.3721845460721269  0.5213950814392541
  0.6868496628643348  0.2982358696178966  0.8744608275906995
  0.5627806309798632  0.3775474331598318  0.6543905315964268
  0.3124270613583029  0.0356146116301590  0.3898329508535171
  0.8123650532983575  0.8626555185251099  0.1676715977685405
  0.1876836129373991  0.1273043108021080  0.6543511241969510
  0.6875657671563468  0.6160533311507891  0.3011075172004319
  0.1876796636535806  0.9486304815633887  0.2127330604780582
  0.3123495144477465  0.3660839156925206  0.3011665004710454
  0.6867871150378916  0.6225596407765872  0.5213559019082383
  0.5623354844343292  0.3725909803653704  0.5213983647991079
  0.5624285729434245  0.8724366224008341  0.5213159035339489
  0.6874845364102207  0.2819897522589926  0.2569394459973944
  0.3123854074072345  0.2005677979302824  0.3456890753585552
  0.0623397622751813  0.8730049495888488  0.5214127668762627
  0.8127606271388728  0.5480849037804970  0.8746038767534275
  0.3124713920174536  0.7053097169814693  0.4784137466222435
  0.8126087762153142  0.3661464036856555  0.3011610231443794
  0.1870600982231727  0.4648582003979075  0.8323341358104629
  0.0623896859499564  0.0315299377547614  0.2568492224512307
  0.4375421167844292  0.1205474551827730  0.4345983359426394
  0.9373960473315949  0.6129762391789020  0.1678181322301406
  0.5630153549802008  0.7153658663526109  0.8322151870676883
  0.9380040063987580  0.9656312893027440  0.8324563527408638
  0.5623940642651396  0.6982012428055863  0.2125306875258077
  0.4375079714056629  0.4482748298777294  0.2126251323893215
  0.8125408238489868  0.8728389617651744  0.5212843705125049
  0.8128411098383657  0.7145975237446481  0.8323398081421769
  0.5629002535166905  0.1985807562838114  0.2127191372655562
  0.1871682425408268  0.9552111434471725  0.4784004041544508
  0.8124452721896928  0.8703305909429824  0.4347424048895347
  0.1883107375175984  0.7975874672722754  0.8747311636275001
  0.0618239499901234  0.7058118618457779  0.4785464429657524
  0.6872761996222105  0.1132401477664878  0.1677453584728713
  0.8124547154578551  0.5323612442734639  0.2569308745453516
  0.1879336451955831  0.1293043920609294  0.7873664732982140
  0.0626933529966526  0.2059821811196387  0.4785662121591476
  0.6873056326749075  0.9485825308067156  0.2126346770151879
  0.1873356733032565  0.2918682095167754  0.6102281557186602
  0.5617231187664037  0.8631296385754671  0.1677169164763916
  0.5626664992915984  0.8799892277630119  0.7874622835044088
  0.9371931546061348  0.9622485944939472  0.6988142054247026
  0.0626715738432558  0.0467036833946669  0.7431809662508321
  0.3124727446408937  0.6982877179579388  0.2126103782314236
  0.1870968029277012  0.7921685953983609  0.6100996837316434
  0.8124123808171955  0.2057611008596854  0.4784744423116318
  0.5623172407996753  0.2118053595420812  0.6989551448260782
  0.5625475486000808  0.7074979546321458  0.5652043498220219
  0.1872573207771071  0.4618765487916993  0.6988095830515408
  0.1874731346480814  0.2803040914765916  0.1255227289654892
  0.0622650431397423  0.0356375519610269  0.3898511508476338
  0.8124876431912198  0.3707617050375101  0.4346422709540625
  0.4370811762418661  0.9612713676085510  0.6989279138478034
  0.1874420104800476  0.2856731814213463  0.3897912938021830
  0.0628029552580444  0.6981582376001966  0.2126145642717256
  0.3124811690267956  0.7113160240942820  0.6988917147464806
  0.9379221573935285  0.6275244474073458  0.6541546722893576
  0.1874370121618445  0.4508435483666209  0.3457156898714925
  0.6869700720175752  0.7981292331890316  0.8747180425992480
  0.3126289181391207  0.8774207679926906  0.6542674109157279
  0.1871658450752114  0.9567845249142095  0.5652049270878363
  0.5625752982371516  0.0356797707574154  0.3898501665207139
  0.3132703897890259  0.7152241477959901  0.8323849028456446
  0.4374104296961101  0.1161855629831735  0.3011676768517313
  0.3121557739938744  0.8801141858264260  0.7873192599370640
  0.6878165297227653  0.4575001046634146  0.5652320962959015
  0.5621388107490899  0.7122356432948724  0.6987885756846254
  0.0625972334316619  0.2120729546718917  0.6988185584490532
  0.5624480090973756  0.3709190737060239  0.4347081213294278
  0.4377021123184013  0.6205334020364555  0.4345503798846759
  0.8124712620889484  0.5347978532276704  0.3898976203248153
  0.4377881945005892  0.7959100895469368  0.7431731405010933
  0.8120085031599218  0.2072986257974441  0.5652604134186466
  0.6874302817672842  0.1223376014106164  0.5213005613557435
  0.0624928173608970  0.5300833834466803  0.1254499341653585
  0.1869703904611307  0.6130328043621289  0.1678447015658157
  0.4374648646827106  0.4557872435648687  0.4785184665526316
  0.8128346339625794  0.0458568115250731  0.7431739767842751
  0.1874041040794050  0.6156831011799195  0.3010779570095676
  0.3137020575571785  0.2142818021735511  0.8322978948060618
  0.1875509272722810  0.7852619155993359  0.3897929837771246
  0.8126639201891279  0.7058173980926919  0.4784328522249425
  0.4377704601516270  0.1223304287024946  0.5213850392439087
  0.1879143350375316  0.2963927424153759  0.7432471279174208
  0.6874571958318160  0.6296234070066133  0.7873531594301995
  0.5623656436283920  0.2149575714575153  0.8323106439285053
  0.5625897279134088  0.7051714210565682  0.4785063898816039
  0.3128873616881473  0.2073959001804495  0.5652326278671562
  0.8128640812417091  0.3785439258361072  0.7873283935793904
  0.9369518228998593  0.1290686173849091  0.7874043564818756
  0.3123837856002830  0.0316648139307672  0.2568864621355216
  0.0627079400395390  0.7003905855487644  0.3457272959862960
  0.6880993088180204  0.9569084905271626  0.5650884888038018
  0.8125190154092842  0.3781509648160075  0.6543426859827369
  0.3122971276642277  0.5356601444793284  0.3897695019944042
  0.1880314413480781  0.7960579274183436  0.7431545456597978
  0.4377569380793522  0.6272620072198702  0.6542538427361928
  0.0622475122493587  0.5423501696374662  0.6101070773427321
  0.6875815731976315  0.7794931259546042  0.1255618666462280
  0.5627459878678669  0.5304846206459706  0.1254990285438047
  0.0618721358285154  0.0477425554047330  0.8746968874538705
  0.8132083882832347  0.2146424289631066  0.8323125256167082
  0.9376262415605728  0.2802458934349778  0.1255201042007625
  0.6882124925163507  0.6278847781987944  0.6542535374240575
  0.5623848839223041  0.2052980051287351  0.4784077300840167
  0.9376666632935128  0.9503130503455174  0.3457371304207447
  0.6874399111101601  0.2850547941021892  0.3898282920111355
  0.8131694483725719  0.0304971877197676  0.1255140110015504
  0.1875499308323773  0.7792856910090844  0.1255937183261463
  0.9379374205421439  0.1273802005671003  0.6542939875926203
  0.0626883052339235  0.8662809535142318  0.3011231027415988
  0.9375260130317281  0.4556805872236704  0.4784839777223067
  0.4372055089454824  0.7815186915227191  0.2569354008564884
  0.3128345435874325  0.8631214780972329  0.1677238314888954
  0.4384900159674218  0.4651882051399440  0.8322151471743454
  0.6874210019804619  0.4502885427937187  0.3457094503446153
  0.9377969770711255  0.4571645920569178  0.5652862852966719
  0.5620734629200287  0.7003522278521109  0.3457369221356250
  0.3126129279784238  0.2121165117996573  0.6988672894819855
  0.9374513553137865  0.7799781841782725  0.1255040666939437
  0.4373719071708439  0.4578501854277632  0.5652072568320653
  0.8125892265471133  0.8796052494729973  0.7875488984553188
  0.6874892382371551  0.4484416371025755  0.2126419818223374
  0.9374760818551198  0.6161113027976706  0.3011115191074304
  0.4378598018202531  0.6223096884588942  0.5215075377473611
  0.8128937262376776  0.3720320998291154  0.5214214269412549
  0.8128225371148992  0.8773020242781044  0.6542167171940210
  0.4380721546174037  0.2972603638642586  0.8745291817536784
  0.0623670000195052  0.8627384215598932  0.1677353989536968
  0.6873753443439146  0.9555095219510871  0.4784278979942088
  0.4371137886793768  0.6300377590955275  0.7873366537627114
  0.6877982220700730  0.2958661978400702  0.7431369192435805
  0.3122182066122089  0.3623754788100280  0.1677970293752908
  0.6881115335778443  0.4648116444852068  0.8323785588339814
  0.4380413578574401  0.7983977997262315  0.8748358863253953
  0.6871755481254997  0.7819367779577653  0.2568845475086543
  0.8123795711246348  0.3630582296932122  0.1678418721762415
  0.6873163150029961  0.1162777856590126  0.3011236819980417
  0.3122054929887071  0.1984398903361577  0.2128096969421805
  0.3124309873711106  0.8659644798966754  0.3011779378429201
  0.3126202827453184  0.3771717262158101  0.6543437598200316
  0.9359266730544037  0.6296515954048958  0.7871863028410899
  0.1878692379918843  0.6224485890744381  0.5212321868589185
  0.4380645217594989  0.1272122865136715  0.6542222387260146
  0.1881548500249350  0.6297824474270167  0.7871153539333797
  0.0628488511826500  0.2157080952807517  0.8329878187530961
  0.8124349829528535  0.1999050730203255  0.3457572728634529
  0.4371926735600172  0.1124872569351282  0.1671609904966290
  0.4377626296313745  0.9571469992124889  0.5651264131822804
  0.6883463753574127  0.7952030535504291  0.7434843737640350
  0.8123548724085827  0.2121974896864986  0.6988181003794065
  0.3125025253902590  0.3703873061488553  0.4345272934180254
  0.0625537614827790  0.2073767244618764  0.5651506981846326
  0.8126551357628288  0.8666767303460795  0.3011852073458653
  0.4381626357677004  0.9648623690129918  0.8330455846576075
  0.6864956448610608  0.9619804135709844  0.6987303401833350
 
  0.00000000E+00  0.00000000E+00  0.00000000E+00
  0.00000000E+00  0.00000000E+00  0.00000000E+00
  0.00000000E+00  0.00000000E+00  0.00000000E+00
  0.00000000E+00  0.00000000E+00  0.00000000E+00
  0.00000000E+00  0.00000000E+00  0.00000000E+00
  0.00000000E+00  0.00000000E+00  0.00000000E+00
  0.00000000E+00  0.00000000E+00  0.00000000E+00
  0.00000000E+00  0.00000000E+00  0.00000000E+00
  0.00000000E+00  0.00000000E+00  0.00000000E+00
  0.00000000E+00  0.00000000E+00  0.00000000E+00
  0.00000000E+00  0.00000000E+00  0.00000000E+00
  0.00000000E+00  0.00000000E+00  0.00000000E+00
  0.00000000E+00  0.00000000E+00  0.00000000E+00
  0.00000000E+00  0.00000000E+00  0.00000000E+00
  0.00000000E+00  0.00000000E+00  0.00000000E+00
  0.00000000E+00  0.00000000E+00  0.00000000E+00
  0.00000000E+00  0.00000000E+00  0.00000000E+00
  0.00000000E+00  0.00000000E+00  0.00000000E+00
  0.00000000E+00  0.00000000E+00  0.00000000E+00
  0.00000000E+00  0.00000000E+00  0.00000000E+00
  0.00000000E+00  0.00000000E+00  0.00000000E+00
  0.00000000E+00  0.00000000E+00  0.00000000E+00
  0.00000000E+00  0.00000000E+00  0.00000000E+00
  0.00000000E+00  0.00000000E+00  0.00000000E+00
  0.00000000E+00  0.00000000E+00  0.00000000E+00
  0.00000000E+00  0.00000000E+00  0.00000000E+00
  0.00000000E+00  0.00000000E+00  0.00000000E+00
  0.00000000E+00  0.00000000E+00  0.00000000E+00
  0.00000000E+00  0.00000000E+00  0.00000000E+00
  0.00000000E+00  0.00000000E+00  0.00000000E+00
  0.00000000E+00  0.00000000E+00  0.00000000E+00
  0.00000000E+00  0.00000000E+00  0.00000000E+00
  0.00000000E+00  0.00000000E+00  0.00000000E+00
  0.00000000E+00  0.00000000E+00  0.00000000E+00
  0.00000000E+00  0.00000000E+00  0.00000000E+00
  0.00000000E+00  0.00000000E+00  0.00000000E+00
  0.00000000E+00  0.00000000E+00  0.00000000E+00
  0.00000000E+00  0.00000000E+00  0.00000000E+00
  0.00000000E+00  0.00000000E+00  0.00000000E+00
  0.00000000E+00  0.00000000E+00  0.00000000E+00
  0.00000000E+00  0.00000000E+00  0.00000000E+00
  0.00000000E+00  0.00000000E+00  0.00000000E+00
  0.00000000E+00  0.00000000E+00  0.00000000E+00
  0.00000000E+00  0.00000000E+00  0.00000000E+00
  0.00000000E+00  0.00000000E+00  0.00000000E+00
  0.00000000E+00  0.00000000E+00  0.00000000E+00
  0.00000000E+00  0.00000000E+00  0.00000000E+00
  0.00000000E+00  0.00000000E+00  0.00000000E+00
  0.00000000E+00  0.00000000E+00  0.00000000E+00
  0.00000000E+00  0.00000000E+00  0.00000000E+00
  0.00000000E+00  0.00000000E+00  0.00000000E+00
  0.00000000E+00  0.00000000E+00  0.00000000E+00
  0.00000000E+00  0.00000000E+00  0.00000000E+00
  0.00000000E+00  0.00000000E+00  0.00000000E+00
  0.00000000E+00  0.00000000E+00  0.00000000E+00
  0.00000000E+00  0.00000000E+00  0.00000000E+00
  0.00000000E+00  0.00000000E+00  0.00000000E+00
  0.00000000E+00  0.00000000E+00  0.00000000E+00
  0.00000000E+00  0.00000000E+00  0.00000000E+00
  0.00000000E+00  0.00000000E+00  0.00000000E+00
  0.00000000E+00  0.00000000E+00  0.00000000E+00
  0.00000000E+00  0.00000000E+00  0.00000000E+00
  0.00000000E+00  0.00000000E+00  0.00000000E+00
  0.00000000E+00  0.00000000E+00  0.00000000E+00
  0.00000000E+00  0.00000000E+00  0.00000000E+00
  0.00000000E+00  0.00000000E+00  0.00000000E+00
  0.00000000E+00  0.00000000E+00  0.00000000E+00
  0.00000000E+00  0.00000000E+00  0.00000000E+00
  0.00000000E+00  0.00000000E+00  0.00000000E+00
  0.00000000E+00  0.00000000E+00  0.00000000E+00
  0.00000000E+00  0.00000000E+00  0.00000000E+00
  0.00000000E+00  0.00000000E+00  0.00000000E+00
  0.00000000E+00  0.00000000E+00  0.00000000E+00
  0.00000000E+00  0.00000000E+00  0.00000000E+00
  0.00000000E+00  0.00000000E+00  0.00000000E+00
  0.00000000E+00  0.00000000E+00  0.00000000E+00
  0.00000000E+00  0.00000000E+00  0.00000000E+00
  0.00000000E+00  0.00000000E+00  0.00000000E+00
  0.00000000E+00  0.00000000E+00  0.00000000E+00
  0.00000000E+00  0.00000000E+00  0.00000000E+00
  0.00000000E+00  0.00000000E+00  0.00000000E+00
  0.00000000E+00  0.00000000E+00  0.00000000E+00
  0.00000000E+00  0.00000000E+00  0.00000000E+00
  0.00000000E+00  0.00000000E+00  0.00000000E+00
  0.00000000E+00  0.00000000E+00  0.00000000E+00
  0.00000000E+00  0.00000000E+00  0.00000000E+00
  0.00000000E+00  0.00000000E+00  0.00000000E+00
  0.00000000E+00  0.00000000E+00  0.00000000E+00
  0.00000000E+00  0.00000000E+00  0.00000000E+00
  0.00000000E+00  0.00000000E+00  0.00000000E+00
  0.00000000E+00  0.00000000E+00  0.00000000E+00
  0.00000000E+00  0.00000000E+00  0.00000000E+00
  0.00000000E+00  0.00000000E+00  0.00000000E+00
  0.00000000E+00  0.00000000E+00  0.00000000E+00
  0.00000000E+00  0.00000000E+00  0.00000000E+00
  0.00000000E+00  0.00000000E+00  0.00000000E+00
  0.00000000E+00  0.00000000E+00  0.00000000E+00
  0.00000000E+00  0.00000000E+00  0.00000000E+00
  0.00000000E+00  0.00000000E+00  0.00000000E+00
  0.00000000E+00  0.00000000E+00  0.00000000E+00
  0.00000000E+00  0.00000000E+00  0.00000000E+00
  0.00000000E+00  0.00000000E+00  0.00000000E+00
  0.00000000E+00  0.00000000E+00  0.00000000E+00
  0.00000000E+00  0.00000000E+00  0.00000000E+00
  0.00000000E+00  0.00000000E+00  0.00000000E+00
  0.00000000E+00  0.00000000E+00  0.00000000E+00
  0.00000000E+00  0.00000000E+00  0.00000000E+00
  0.00000000E+00  0.00000000E+00  0.00000000E+00
  0.00000000E+00  0.00000000E+00  0.00000000E+00
  0.00000000E+00  0.00000000E+00  0.00000000E+00
  0.00000000E+00  0.00000000E+00  0.00000000E+00
  0.00000000E+00  0.00000000E+00  0.00000000E+00
  0.00000000E+00  0.00000000E+00  0.00000000E+00
  0.00000000E+00  0.00000000E+00  0.00000000E+00
  0.00000000E+00  0.00000000E+00  0.00000000E+00
  0.00000000E+00  0.00000000E+00  0.00000000E+00
  0.00000000E+00  0.00000000E+00  0.00000000E+00
  0.00000000E+00  0.00000000E+00  0.00000000E+00
  0.00000000E+00  0.00000000E+00  0.00000000E+00
  0.00000000E+00  0.00000000E+00  0.00000000E+00
  0.00000000E+00  0.00000000E+00  0.00000000E+00
  0.00000000E+00  0.00000000E+00  0.00000000E+00
  0.00000000E+00  0.00000000E+00  0.00000000E+00
  0.00000000E+00  0.00000000E+00  0.00000000E+00
  0.00000000E+00  0.00000000E+00  0.00000000E+00
  0.00000000E+00  0.00000000E+00  0.00000000E+00
  0.00000000E+00  0.00000000E+00  0.00000000E+00
  0.00000000E+00  0.00000000E+00  0.00000000E+00
  0.00000000E+00  0.00000000E+00  0.00000000E+00
  0.00000000E+00  0.00000000E+00  0.00000000E+00
  0.00000000E+00  0.00000000E+00  0.00000000E+00
  0.00000000E+00  0.00000000E+00  0.00000000E+00
  0.00000000E+00  0.00000000E+00  0.00000000E+00
  0.00000000E+00  0.00000000E+00  0.00000000E+00
  0.00000000E+00  0.00000000E+00  0.00000000E+00
  0.00000000E+00  0.00000000E+00  0.00000000E+00
  0.00000000E+00  0.00000000E+00  0.00000000E+00
  0.00000000E+00  0.00000000E+00  0.00000000E+00
  0.00000000E+00  0.00000000E+00  0.00000000E+00
  0.00000000E+00  0.00000000E+00  0.00000000E+00
  0.00000000E+00  0.00000000E+00  0.00000000E+00
  0.00000000E+00  0.00000000E+00  0.00000000E+00
  0.00000000E+00  0.00000000E+00  0.00000000E+00
  0.00000000E+00  0.00000000E+00  0.00000000E+00
  0.00000000E+00  0.00000000E+00  0.00000000E+00
  0.00000000E+00  0.00000000E+00  0.00000000E+00
  0.00000000E+00  0.00000000E+00  0.00000000E+00
  0.00000000E+00  0.00000000E+00  0.00000000E+00
  0.00000000E+00  0.00000000E+00  0.00000000E+00
  0.00000000E+00  0.00000000E+00  0.00000000E+00
  0.00000000E+00  0.00000000E+00  0.00000000E+00
  0.00000000E+00  0.00000000E+00  0.00000000E+00
  0.00000000E+00  0.00000000E+00  0.00000000E+00
  0.00000000E+00  0.00000000E+00  0.00000000E+00
  0.00000000E+00  0.00000000E+00  0.00000000E+00
  0.00000000E+00  0.00000000E+00  0.00000000E+00
  0.00000000E+00  0.00000000E+00  0.00000000E+00
  0.00000000E+00  0.00000000E+00  0.00000000E+00
  0.00000000E+00  0.00000000E+00  0.00000000E+00
  0.00000000E+00  0.00000000E+00  0.00000000E+00
  0.00000000E+00  0.00000000E+00  0.00000000E+00
  0.00000000E+00  0.00000000E+00  0.00000000E+00
  0.00000000E+00  0.00000000E+00  0.00000000E+00
  0.00000000E+00  0.00000000E+00  0.00000000E+00
  0.00000000E+00  0.00000000E+00  0.00000000E+00
  0.00000000E+00  0.00000000E+00  0.00000000E+00
  0.00000000E+00  0.00000000E+00  0.00000000E+00
  0.00000000E+00  0.00000000E+00  0.00000000E+00
  0.00000000E+00  0.00000000E+00  0.00000000E+00
  0.00000000E+00  0.00000000E+00  0.00000000E+00
  0.00000000E+00  0.00000000E+00  0.00000000E+00
  0.00000000E+00  0.00000000E+00  0.00000000E+00
  0.00000000E+00  0.00000000E+00  0.00000000E+00
  0.00000000E+00  0.00000000E+00  0.00000000E+00
  0.00000000E+00  0.00000000E+00  0.00000000E+00
  0.00000000E+00  0.00000000E+00  0.00000000E+00
  0.00000000E+00  0.00000000E+00  0.00000000E+00
  0.00000000E+00  0.00000000E+00  0.00000000E+00
  0.00000000E+00  0.00000000E+00  0.00000000E+00
  0.00000000E+00  0.00000000E+00  0.00000000E+00
  0.00000000E+00  0.00000000E+00  0.00000000E+00
  0.00000000E+00  0.00000000E+00  0.00000000E+00
  0.00000000E+00  0.00000000E+00  0.00000000E+00
  0.00000000E+00  0.00000000E+00  0.00000000E+00
  0.00000000E+00  0.00000000E+00  0.00000000E+00
  0.00000000E+00  0.00000000E+00  0.00000000E+00
  0.00000000E+00  0.00000000E+00  0.00000000E+00
  0.00000000E+00  0.00000000E+00  0.00000000E+00
  0.00000000E+00  0.00000000E+00  0.00000000E+00
  0.00000000E+00  0.00000000E+00  0.00000000E+00
  0.00000000E+00  0.00000000E+00  0.00000000E+00
  0.00000000E+00  0.00000000E+00  0.00000000E+00
  0.00000000E+00  0.00000000E+00  0.00000000E+00
  0.00000000E+00  0.00000000E+00  0.00000000E+00
  0.00000000E+00  0.00000000E+00  0.00000000E+00
  0.00000000E+00  0.00000000E+00  0.00000000E+00
  0.00000000E+00  0.00000000E+00  0.00000000E+00
  0.00000000E+00  0.00000000E+00  0.00000000E+00
  0.00000000E+00  0.00000000E+00  0.00000000E+00
  0.00000000E+00  0.00000000E+00  0.00000000E+00
  0.00000000E+00  0.00000000E+00  0.00000000E+00
  0.00000000E+00  0.00000000E+00  0.00000000E+00
  0.00000000E+00  0.00000000E+00  0.00000000E+00
  0.00000000E+00  0.00000000E+00  0.00000000E+00
  0.00000000E+00  0.00000000E+00  0.00000000E+00
  0.00000000E+00  0.00000000E+00  0.00000000E+00
  0.00000000E+00  0.00000000E+00  0.00000000E+00
  0.00000000E+00  0.00000000E+00  0.00000000E+00
  0.00000000E+00  0.00000000E+00  0.00000000E+00
  0.00000000E+00  0.00000000E+00  0.00000000E+00
  0.00000000E+00  0.00000000E+00  0.00000000E+00
  0.00000000E+00  0.00000000E+00  0.00000000E+00
  0.00000000E+00  0.00000000E+00  0.00000000E+00
  0.00000000E+00  0.00000000E+00  0.00000000E+00
  0.00000000E+00  0.00000000E+00  0.00000000E+00
  0.00000000E+00  0.00000000E+00  0.00000000E+00
  0.00000000E+00  0.00000000E+00  0.00000000E+00
  0.00000000E+00  0.00000000E+00  0.00000000E+00
  0.00000000E+00  0.00000000E+00  0.00000000E+00
  0.00000000E+00  0.00000000E+00  0.00000000E+00
  0.00000000E+00  0.00000000E+00  0.00000000E+00
  0.00000000E+00  0.00000000E+00  0.00000000E+00
  0.00000000E+00  0.00000000E+00  0.00000000E+00
  0.00000000E+00  0.00000000E+00  0.00000000E+00
  0.00000000E+00  0.00000000E+00  0.00000000E+00
  0.00000000E+00  0.00000000E+00  0.00000000E+00
  0.00000000E+00  0.00000000E+00  0.00000000E+00
  0.00000000E+00  0.00000000E+00  0.00000000E+00
  0.00000000E+00  0.00000000E+00  0.00000000E+00
  0.00000000E+00  0.00000000E+00  0.00000000E+00
  0.00000000E+00  0.00000000E+00  0.00000000E+00
  0.00000000E+00  0.00000000E+00  0.00000000E+00
  0.00000000E+00  0.00000000E+00  0.00000000E+00
  0.00000000E+00  0.00000000E+00  0.00000000E+00
  0.00000000E+00  0.00000000E+00  0.00000000E+00
  0.00000000E+00  0.00000000E+00  0.00000000E+00
  0.00000000E+00  0.00000000E+00  0.00000000E+00
  0.00000000E+00  0.00000000E+00  0.00000000E+00
  0.00000000E+00  0.00000000E+00  0.00000000E+00
  0.00000000E+00  0.00000000E+00  0.00000000E+00
  0.00000000E+00  0.00000000E+00  0.00000000E+00
  0.00000000E+00  0.00000000E+00  0.00000000E+00
  0.00000000E+00  0.00000000E+00  0.00000000E+00
  0.00000000E+00  0.00000000E+00  0.00000000E+00
  0.00000000E+00  0.00000000E+00  0.00000000E+00
  0.00000000E+00  0.00000000E+00  0.00000000E+00
  0.00000000E+00  0.00000000E+00  0.00000000E+00