FeMn_288_15                             
    1.000000000000000     
     9.7266779999999997    0.0000000000000000    0.0000000000000000
     0.0000000000000000    8.4235500000000005    0.0000000000000000
     0.0000000000000000    0.0000000000000000   45.0000000000000000
   Fe   Mn
   273    15
Direct
  0.0626180164692222  0.2013906144146964  0.3450452552088525
  0.9383220287474056  0.2989953613270964  0.8753905552034583
  0.6874892766773322  0.4549338799068998  0.4785414753375477
  0.1875820798726095  0.4545247141713611  0.4784721962829387
  0.4374481218199290  0.4520572492543205  0.3451872523800326
  0.4377116991905016  0.6128586492330775  0.1673022297148892
  0.3125076409453220  0.5467912964074846  0.7436760501259482
  0.0620799271749142  0.3700858193254929  0.4343099950446788
  0.5619872086215589  0.0282459348487794  0.1248417056000208
  0.6869944545453995  0.9641494825931505  0.8331054498292388
  0.5632337227174192  0.5493588525621670  0.8750633047851887
  0.1874705312103703  0.1228302448362831  0.5215284884515461
  0.9375645908612853  0.2809364309252301  0.2562906789454282
  0.9374009340144988  0.2923079534257917  0.6106689825120180
  0.4377458363036751  0.2919822986706995  0.6105643688667168
  0.1881418994830422  0.9618030268971527  0.6994202399212890
  0.4373544692915061  0.2861236441257763  0.3893170063954629
  0.6872817608236097  0.2780719601846037  0.1250330113552707
  0.3124604676534149  0.3729942098254756  0.5214403654937388
  0.0626963158252559  0.3659026925822859  0.3004366581377002
  0.4372547222314278  0.2775232636942613  0.1249292408069948
  0.8138108871199266  0.0497159217843965  0.8751630435256659
  0.4373262715632073  0.7782465974471202  0.1251056699021334
  0.4366971972648177  0.2967146594605306  0.7437788674129089
  0.8125533449950680  0.5425872583938635  0.6105773257782919
  0.8127082680695920  0.0308119577431820  0.2561946053466979
  0.6875288291249245  0.7927920257974910  0.6105705087829526
  0.0615584825684571  0.0280219091791973  0.1250404234791434
  0.4379000271024309  0.7925991164267188  0.6105942135999887
  0.5625637555440325  0.5427028084819032  0.6106556079228479
  0.9369293039793887  0.1227221190231585  0.5214611627183989
  0.9376482969057258  0.2971432944093294  0.7438955245927171
  0.1869970523110856  0.4574504048268845  0.5655879173424136
  0.9375342245534108  0.4517144687017957  0.3451741441471674
  0.0621651978021902  0.8755828031514798  0.6547512783316279
  0.6876439457174547  0.2924564248562472  0.6105097393575857
  0.0627988577471109  0.5307731675612478  0.2562380520070744
  0.3125993336804609  0.0281292054959300  0.1248340512990202
  0.9372929376432049  0.4454147713694896  0.2119796028838709
  0.4375280599513974  0.2804521551891287  0.2563019955196632
  0.5617698157053341  0.8762837839768925  0.6546024067703258
  0.5629246875865919  0.3819104761897387  0.7881698603090214
  0.6875991903849391  0.1320070002715359  0.7880472595833052
  0.4384591238937393  0.1330577311905997  0.7881016062863040
  0.0621962632678721  0.8699940691995663  0.4341966754056300
  0.5626950813371903  0.3625992958011215  0.1671841029098536
  0.1875916811401177  0.2805850024043889  0.2562469312478318
  0.9372822210356025  0.9455058349233715  0.2119935932167764
  0.9381043475221692  0.4617693391911383  0.6994012826110021
  0.8123437224785327  0.5279372773318997  0.1249560978911761
  0.5620688780891367  0.8658323866073043  0.3004343126424516
  0.3130272773826702  0.0494988907854991  0.8752724403637328
  0.9369852336230794  0.9575651709894138  0.5655135173876468
  0.9374251220150122  0.9551736042216451  0.4783592398219124
  0.0628860745035214  0.5494180185479500  0.8751702109604986
  0.8128175559653468  0.0427184278799198  0.6105980993431972
  0.3126837106898544  0.7078385125735792  0.5655928511324799
  0.9378033733243443  0.7809798574764887  0.2562331923911999
  0.6872799186661054  0.6201304805574074  0.4343745802439920
  0.5627785148410323  0.0497836901295774  0.8754102644917674
  0.8122595902780350  0.1955870880564449  0.2118988363774468
  0.5624499538632738  0.5305777929365022  0.2562301265745527
  0.3125519201932422  0.7020298647778586  0.3450222440179413
  0.0631156187810541  0.3830768851686783  0.7880235254478519
  0.1873073862043099  0.1200490735730811  0.4343537390555799
  0.9374335335648382  0.6199040054667151  0.4342948180558785
  0.8125124437622750  0.7015313699052664  0.3450994168519850
  0.6871225206072435  0.1263619860422717  0.6548216551634722
  0.4373534118413194  0.7860280565930504  0.3893022199240130
  0.1873333329394850  0.6201299555918715  0.4345585550496852
  0.1878860956061892  0.2998053087742521  0.8752455662621462
  0.0621098615860928  0.3761927474611123  0.6548060528954369
  0.6873241436798635  0.1198458244865571  0.4343179519996233
  0.8118723249351028  0.5465670131248208  0.7436412808715531
  0.1866747474173769  0.6259344907033220  0.6547225951781112
  0.0631088591490852  0.7117062710216908  0.6994475837051473
  0.1873036076842002  0.4452769324889366  0.2120193673620136
  0.3124416662376250  0.0476947578553580  0.7437497536470488
  0.8125323753000857  0.0356383368867148  0.3892733081912509
  0.9376868279546247  0.1159414584146684  0.3004455583313242
  0.0624370290442008  0.5473256671138039  0.7438025023354021
  0.4374058539483187  0.9516727409170829  0.3451017208074817
  0.1873365254081825  0.1159095505104657  0.3004826532539265
  0.3119350358988681  0.8728796242370376  0.5214122062084074
  0.3125345651519335  0.5302708278348008  0.2562381066382958
  0.5624118850081341  0.2014167730317376  0.3450686660030391
  0.9375981403502004  0.1126924184122358  0.1671599660806377
  0.0626136969602088  0.3634472098462481  0.1672080927153739
  0.5622851110874332  0.0464602568958273  0.7435972380121370
  0.9378563522417748  0.7921409236714462  0.6104710104396148
  0.4378042040875699  0.4615189991311368  0.6992663999210010
  0.9371127529615894  0.6227786537929355  0.5214886658382041
  0.1876289018043661  0.9515138192693620  0.3451268222921501
  0.9374558340695314  0.2854513686135177  0.3893344707015172
  0.5622684463835407  0.5468609875017987  0.7437228472809210
  0.8119410967193291  0.7074604266405129  0.5654699852035215
  0.6876706623128120  0.4621153048206965  0.6993601192144924
  0.8127649425972509  0.7122351609613534  0.6994544649388148
  0.0621140073361955  0.7074663090944535  0.5655736036236274
  0.0630510684968822  0.8822446880382783  0.7880567849568735
  0.3127905892538782  0.5501518912264586  0.8750434130919417
  0.3123763285623714  0.0424839303168095  0.6105797714181949
  0.8122217826485603  0.6951965803990083  0.2120131576969859
  0.9375447752106038  0.1197938521386412  0.4343436034897233
  0.6875555746734738  0.7855857795297787  0.3892853092224399
  0.9374387437448065  0.7855402602382484  0.3892490939994288
  0.5621638024363215  0.3659922401723801  0.3004580729762455
  0.3127784257807084  0.3820252457959017  0.7880030983797293
  0.5622670025137582  0.5359613424762227  0.3893274369676210
  0.1878481298639086  0.9643349172280050  0.8329666561987956
  0.0623036086060692  0.1954230311054812  0.2119396429567648
  0.9371282969178547  0.7969558630129744  0.7436910216121885
  0.3127431253912124  0.5420395508853942  0.6106727855505278
  0.5627959526074071  0.8699908580982911  0.4342986853343482
  0.5624160081801959  0.2078360414361695  0.5656029280302206
  0.3120286945325447  0.5282193345732177  0.1250549447516580
  0.1876350282231424  0.7804477189632489  0.2562686983338426
  0.0621946014472055  0.7139772689770650  0.8330149367665971
  0.4374846597447111  0.9556882036210178  0.4784364102905737
  0.3125337818153019  0.2050467387822029  0.4783773443567529
  0.5624507798095755  0.0304110542251944  0.2562083344202213
  0.9373198943521504  0.7993488107053888  0.8751740949550330
  0.0626851346559206  0.5357354280508640  0.3893289496969422
  0.0623979585678694  0.0419008356864373  0.6105934964802362
  0.5628208444202207  0.0424830945611378  0.6105502934474438
  0.6879683749211010  0.6128363631536085  0.1671622319521842
  0.3122592544703713  0.8702245023094476  0.4341998659969948
  0.6873278943811426  0.9515483106871440  0.3451777841760199
  0.4372882995976861  0.9450660329707312  0.2121252086266797
  0.1878836525896729  0.1132021322487112  0.1672101028571701
  0.4373739344579534  0.6155333074583705  0.3004104167174264
  0.9378397999658551  0.4648179379583804  0.8331085637046894
  0.0620388071468529  0.3726184852641785  0.5215801831997653
  0.6874722275873408  0.3005131224871325  0.8750295119430775
  0.5622172232531608  0.3764664547596738  0.6548862970078468
  0.3123961215048242  0.0361984724099160  0.3893689972098980
  0.8126765596199443  0.8627158609988741  0.1671296385806781
  0.1866836667229105  0.1258952483840506  0.6548750017493448
  0.6874236055246760  0.6158633944339756  0.3004537168186177
  0.1873195180110553  0.9456207041372113  0.2120932222487965
  0.3122368507756821  0.3657639522213760  0.3004832251125575
  0.6872362391444859  0.6229707219560544  0.5214582788188107
  0.5626929767170290  0.3726449651895323  0.5215149886687142
  0.5626110318605845  0.8728844968739407  0.5214208128413634
  0.6876976312761128  0.2808597278653485  0.2562467519531130
  0.3125630780191989  0.2017324495401594  0.3451329531560495
  0.0625813262557160  0.8729021760158471  0.5215546180076084
  0.8130520619630313  0.5502767780087601  0.8751451312164038
  0.3127619364212704  0.7049733113413249  0.4784268179833349
  0.8124168514446419  0.3659187933790256  0.3004427061560661
  0.1863030929214298  0.4646348721676949  0.8330371247948618
  0.0626254831495239  0.0304682500235655  0.2561813743848189
  0.4375206718145601  0.1200284017752969  0.4343384245206903
  0.9376918442130010  0.6128605360406231  0.1672261537604544
  0.5624941378297746  0.7156353265593258  0.8329852149502913
  0.9373637082492420  0.9654938000563948  0.8331594109797835
  0.5622193744367507  0.6952245636303679  0.2119087867389056
  0.4372435684042918  0.4452937570172998  0.2120299108619652
  0.8125976602372000  0.8729205322707657  0.5214158174493883
  0.8123565174352209  0.7145945341990270  0.8330506790398522
  0.5624565531097383  0.1955374794921733  0.2120165390676909
  0.1872810061235451  0.9551352046111254  0.4783680341802635
  0.8124351193142243  0.8697248881961580  0.4343480776185665
  0.1886274556670816  0.7997020334905920  0.8751256951098030
  0.0620336352749213  0.7053272370499621  0.4785699074148707
  0.6875236852409793  0.1132731571260792  0.1671877739307896
  0.8126668252944190  0.5314233263537607  0.2562501558338004
  0.1885523403255060  0.1322844193287797  0.7879559122123533
  0.0626119566900204  0.2051626721157621  0.4785563700973074
  0.6870684490565196  0.9456569371179980  0.2120376798005621
  0.1877779898228359  0.2915166243387511  0.6106841486512076
  0.5620759520819748  0.8632669553440802  0.1671858462738190
  0.5630328167097316  0.8829601362032339  0.7881164483871224
  0.9381224802110525  0.9622480650148774  0.6993828573643192
  0.0621623691009225  0.0478781974701767  0.7437660771093423
  0.3120968980869758  0.6953260104081662  0.2119566176665236
  0.1875833227206118  0.7919481711321744  0.6105160210060279
  0.8122294291533959  0.2052839392657668  0.4784349450631407
  0.5625446863829032  0.2119434359896547  0.6995083540981210
  0.5624332646783557  0.7081143483052565  0.5655589612772898
  0.1879474638645842  0.4620162667835727  0.6993995077497843
  0.1874170230410237  0.2781729326483164  0.1250678106173210
  0.0622788421355691  0.0361799954224847  0.3893742991195923
  0.8124355111196072  0.3700724490066570  0.4343174712453314
  0.4377926480340287  0.9613317193926026  0.6994661017035689
  0.1874905226043889  0.2862087024086057  0.3893439592099968
  0.0624434795874786  0.6951118796466685  0.2119514071262665
  0.3126749080431254  0.7114437489877317  0.6994149739779927
  0.9369262853861088  0.6263706315131433  0.6547236606389363
  0.1875360148324080  0.4521064980198873  0.3451413153232694
  0.6875485360208928  0.8006707174426348  0.8753065872822258
  0.3120902766766870  0.8761263656393846  0.6547576304996140
  0.1868874922147683  0.9572662189022945  0.5655251004904449
  0.5625544343899274  0.0362734603679711  0.3893701132753500
  0.3128130207822510  0.7154487971235615  0.8330898258794255
  0.4373247230107780  0.1159004534017633  0.3005117770336051
  0.3127876322422226  0.8833167207649196  0.7880006160772804
  0.6875554017482411  0.4577912253438458  0.5655936332092458
  0.5624088271165130  0.7122349148207064  0.6994066304631227
  0.0629249813446760  0.2123454741751249  0.6994486584172757
  0.5624745331294534  0.3703027637467421  0.4344261795866262
  0.4376977537181403  0.6199560738798070  0.4342235987428560
  0.8124473963698343  0.5353742124770067  0.3893756603151488
  0.4369024519317749  0.7968790542998134  0.7437423433845100
  0.8119251970493193  0.2078724785308284  0.5656390816650261
  0.6874319804718854  0.1229942704074126  0.5214096816541466
  0.0623961919100619  0.5278225302262300  0.1249732857289338
  0.1872197726257502  0.6131074541460094  0.1672266264750024
  0.4374787295657779  0.4550500157885692  0.4784667416834654
  0.8124985304406801  0.0469380599995558  0.7438021613814131
  0.1873455910431188  0.6154516409834758  0.3004104161072894
  0.3131863612602164  0.2143680986544365  0.8328384723832499
  0.1875145235202629  0.7857922664186734  0.3893026683534921
  0.8126487782754057  0.7050032530827266  0.4784403313898665
  0.4380419562016034  0.1228234410156565  0.5214751817174998
  0.1869015478273275  0.2976122816828070  0.7438504711739253
  0.6884207793408860  0.6323909348422251  0.7880142055915230
  0.5619543821156705  0.2149410721333703  0.8329388572932921
  0.5623326262307508  0.7048169302688074  0.4784447961620488
  0.3127647318627650  0.2079272825710536  0.5656074239706784
  0.8132341187262498  0.3812691660910235  0.7879416739539571
  0.9381266391745742  0.1321198563276983  0.7881002843373145
  0.3126523483971845  0.0305436471614083  0.2562438911258594
  0.0628556832074564  0.7014722695494854  0.3451138369104699
  0.6878394370501058  0.9574208355672769  0.5654576067321777
  0.8120005141564804  0.3769602871557591  0.6549109945190752
  0.3123156722973018  0.5362747366295278  0.3893035695514905
  0.1868741985226050  0.7971440133795787  0.7437748696498933
  0.4368047688101704  0.6261492427264775  0.6547683132321949
  0.0624995500987794  0.5421041849848441  0.6105374196449938
  0.6873553456975469  0.7774709195055712  0.1251065748331344
  0.5626017729162336  0.5282868911145268  0.1250670238284584
  0.0621555482992417  0.0499095299976725  0.8751293121304980
  0.8126762081808627  0.2147496603019087  0.8329747818753198
  0.9374042843499726  0.2781273913155574  0.1250655455099982
  0.6873374733990437  0.6268807014336617  0.6547972175493396
  0.5624337787080111  0.2053208513168290  0.4784025935499510
  0.9378228261405221  0.9515308989820311  0.3451458720592140
  0.6875077632171233  0.2855626858046083  0.3893027025109623
  0.8129249035019126  0.0280366222789177  0.1250297642625881
  0.1873455037776973  0.7774144589146101  0.1251165412761512
  0.9370475051882029  0.1261146060408758  0.6548470547786864
  0.0626149597445535  0.8658815260598196  0.3004369897274597
  0.9373369748727530  0.4552458158356793  0.4784658041357612
  0.4374771931887972  0.7803411452019616  0.2562791368227810
  0.3131306638598202  0.8633950360230142  0.1671290587819387
  0.4379085384131606  0.4656404953647633  0.8328727783177918
  0.6875826038050223  0.4516242786692073  0.3451015658569088
  0.9375497748561924  0.4575909714315717  0.5656595530210510
  0.5623085117705001  0.7015451221264104  0.3451121910301397
  0.3129056761444674  0.2121855775693553  0.6995275514226651
  0.9372506438866541  0.7778503346853596  0.1250406199637084
  0.4371023546788296  0.4583482976576338  0.5655998116392026
  0.8129801520396511  0.8825377327576971  0.7882026152817306
  0.6871379982927069  0.4453681602235285  0.2120021020605030
  0.9374364940809115  0.6159216686601590  0.3004374883037663
  0.4376521271630424  0.6228773620909072  0.5216229488032930
  0.8125319836542081  0.3724626235750607  0.5215261238844343
  0.8123356229913121  0.8761116607797559  0.6547323047702026
  0.4384321624226407  0.2996723951891844  0.8750094440067478
  0.0626955022547146  0.8627878328139595  0.1671303805214731
  0.6875795489035166  0.9556877350997836  0.4783290252763067
  0.4379060286799904  0.6329816408397201  0.7879551015779609
  0.6869245613030819  0.2966699817501673  0.7437681124711820
  0.3124911052681077  0.3626380548741365  0.1671759185218956
  0.6875867192252807  0.4650475110605600  0.8331018365674625
  0.4384987164282667  0.8008669548507582  0.8755196450614073
  0.6875338308653849  0.7809589008968773  0.2562419736724202
  0.8127276301410852  0.3632371357740252  0.1672264581132795
  0.6872125664308436  0.1159973727306675  0.3004362143496463
  0.3119738326582014  0.1954281505006208  0.2121079847319800
  0.3123170070394412  0.8656720728016883  0.3004963732836098
  0.3120724993267205  0.3758214019864243  0.6548816525378569
  0.9365773712925427  0.6323241825042309  0.7877823351975964
  0.1877711486252976  0.6231706731175202  0.5213575769073081
  0.4369935177755375  0.1257477322904504  0.6547489233774935
  0.1900151257313360  0.6329905278461504  0.7877800274263647
  0.0621637654942127  0.2154794669128841  0.8336404797767513
  0.8126672175937850  0.2011395510931293  0.3450773019418663
  0.4375250243102243  0.1130038024282357  0.1665013352784193
  0.4373675225085554  0.9575274107424370  0.5654430951139430
  0.6867138501426979  0.7960598708107238  0.7441172048655484
  0.8129827931948648  0.2126367414442751  0.6995509992812887
  0.3125273217389065  0.3698478948083548  0.4342507568491049
  0.0623490810267652  0.2078693706460551  0.5655078084998297
  0.8125040834232000  0.8663570436640849  0.3005004922239456
  0.4373653960486327  0.9644077793769157  0.8338609802129893
  0.6879072674421332  0.9621144441097146  0.6993164330512305
 
  0.00000000E+00  0.00000000E+00  0.00000000E+00
  0.00000000E+00  0.00000000E+00  0.00000000E+00
  0.00000000E+00  0.00000000E+00  0.00000000E+00
  0.00000000E+00  0.00000000E+00  0.00000000E+00
  0.00000000E+00  0.00000000E+00  0.00000000E+00
  0.00000000E+00  0.00000000E+00  0.00000000E+00
  0.00000000E+00  0.00000000E+00  0.00000000E+00
  0.00000000E+00  0.00000000E+00  0.00000000E+00
  0.00000000E+00  0.00000000E+00  0.00000000E+00
  0.00000000E+00  0.00000000E+00  0.00000000E+00
  0.00000000E+00  0.00000000E+00  0.00000000E+00
  0.00000000E+00  0.00000000E+00  0.00000000E+00
  0.00000000E+00  0.00000000E+00  0.00000000E+00
  0.00000000E+00  0.00000000E+00  0.00000000E+00
  0.00000000E+00  0.00000000E+00  0.00000000E+00
  0.00000000E+00  0.00000000E+00  0.00000000E+00
  0.00000000E+00  0.00000000E+00  0.00000000E+00
  0.00000000E+00  0.00000000E+00  0.00000000E+00
  0.00000000E+00  0.00000000E+00  0.00000000E+00
  0.00000000E+00  0.00000000E+00  0.00000000E+00
  0.00000000E+00  0.00000000E+00  0.00000000E+00
  0.00000000E+00  0.00000000E+00  0.00000000E+00
  0.00000000E+00  0.00000000E+00  0.00000000E+00
  0.00000000E+00  0.00000000E+00  0.00000000E+00
  0.00000000E+00  0.00000000E+00  0.00000000E+00
  0.00000000E+00  0.00000000E+00  0.00000000E+00
  0.00000000E+00  0.00000000E+00  0.00000000E+00
  0.00000000E+00  0.00000000E+00  0.00000000E+00
  0.00000000E+00  0.00000000E+00  0.00000000E+00
  0.00000000E+00  0.00000000E+00  0.00000000E+00
  0.00000000E+00  0.00000000E+00  0.00000000E+00
  0.00000000E+00  0.00000000E+00  0.00000000E+00
  0.00000000E+00  0.00000000E+00  0.00000000E+00
  0.00000000E+00  0.00000000E+00  0.00000000E+00
  0.00000000E+00  0.00000000E+00  0.00000000E+00
  0.00000000E+00  0.00000000E+00  0.00000000E+00
  0.00000000E+00  0.00000000E+00  0.00000000E+00
  0.00000000E+00  0.00000000E+00  0.00000000E+00
  0.00000000E+00  0.00000000E+00  0.00000000E+00
  0.00000000E+00  0.00000000E+00  0.00000000E+00
  0.00000000E+00  0.00000000E+00  0.00000000E+00
  0.00000000E+00  0.00000000E+00  0.00000000E+00
  0.00000000E+00  0.00000000E+00  0.00000000E+00
  0.00000000E+00  0.00000000E+00  0.00000000E+00
  0.00000000E+00  0.00000000E+00  0.00000000E+00
  0.00000000E+00  0.00000000E+00  0.00000000E+00
  0.00000000E+00  0.00000000E+00  0.00000000E+00
  0.00000000E+00  0.00000000E+00  0.00000000E+00
  0.00000000E+00  0.00000000E+00  0.00000000E+00
  0.00000000E+00  0.00000000E+00  0.00000000E+00
  0.00000000E+00  0.00000000E+00  0.00000000E+00
  0.00000000E+00  0.00000000E+00  0.00000000E+00
  0.00000000E+00  0.00000000E+00  0.00000000E+00
  0.00000000E+00  0.00000000E+00  0.00000000E+00
  0.00000000E+00  0.00000000E+00  0.00000000E+00
  0.00000000E+00  0.00000000E+00  0.00000000E+00
  0.00000000E+00  0.00000000E+00  0.00000000E+00
  0.00000000E+00  0.00000000E+00  0.00000000E+00
  0.00000000E+00  0.00000000E+00  0.00000000E+00
  0.00000000E+00  0.00000000E+00  0.00000000E+00
  0.00000000E+00  0.00000000E+00  0.00000000E+00
  0.00000000E+00  0.00000000E+00  0.00000000E+00
  0.00000000E+00  0.00000000E+00  0.00000000E+00
  0.00000000E+00  0.00000000E+00  0.00000000E+00
  0.00000000E+00  0.00000000E+00  0.00000000E+00
  0.00000000E+00  0.00000000E+00  0.00000000E+00
  0.00000000E+00  0.00000000E+00  0.00000000E+00
  0.00000000E+00  0.00000000E+00  0.00000000E+00
  0.00000000E+00  0.00000000E+00  0.00000000E+00
  0.00000000E+00  0.00000000E+00  0.00000000E+00
  0.00000000E+00  0.00000000E+00  0.00000000E+00
  0.00000000E+00  0.00000000E+00  0.00000000E+00
  0.00000000E+00  0.00000000E+00  0.00000000E+00
  0.00000000E+00  0.00000000E+00  0.00000000E+00
  0.00000000E+00  0.00000000E+00  0.00000000E+00
  0.00000000E+00  0.00000000E+00  0.00000000E+00
  0.00000000E+00  0.00000000E+00  0.00000000E+00
  0.00000000E+00  0.00000000E+00  0.00000000E+00
  0.00000000E+00  0.00000000E+00  0.00000000E+00
  0.00000000E+00  0.00000000E+00  0.00000000E+00
  0.00000000E+00  0.00000000E+00  0.00000000E+00
  0.00000000E+00  0.00000000E+00  0.00000000E+00
  0.00000000E+00  0.00000000E+00  0.00000000E+00
  0.00000000E+00  0.00000000E+00  0.00000000E+00
  0.00000000E+00  0.00000000E+00  0.00000000E+00
  0.00000000E+00  0.00000000E+00  0.00000000E+00
  0.00000000E+00  0.00000000E+00  0.00000000E+00
  0.00000000E+00  0.00000000E+00  0.00000000E+00
  0.00000000E+00  0.00000000E+00  0.00000000E+00
  0.00000000E+00  0.00000000E+00  0.00000000E+00
  0.00000000E+00  0.00000000E+00  0.00000000E+00
  0.00000000E+00  0.00000000E+00  0.00000000E+00
  0.00000000E+00  0.00000000E+00  0.00000000E+00
  0.00000000E+00  0.00000000E+00  0.00000000E+00
  0.00000000E+00  0.00000000E+00  0.00000000E+00
  0.00000000E+00  0.00000000E+00  0.00000000E+00
  0.00000000E+00  0.00000000E+00  0.00000000E+00
  0.00000000E+00  0.00000000E+00  0.00000000E+00
  0.00000000E+00  0.00000000E+00  0.00000000E+00
  0.00000000E+00  0.00000000E+00  0.00000000E+00
  0.00000000E+00  0.00000000E+00  0.00000000E+00
  0.00000000E+00  0.00000000E+00  0.00000000E+00
  0.00000000E+00  0.00000000E+00  0.00000000E+00
  0.00000000E+00  0.00000000E+00  0.00000000E+00
  0.00000000E+00  0.00000000E+00  0.00000000E+00
  0.00000000E+00  0.00000000E+00  0.00000000E+00
  0.00000000E+00  0.00000000E+00  0.00000000E+00
  0.00000000E+00  0.00000000E+00  0.00000000E+00
  0.00000000E+00  0.00000000E+00  0.00000000E+00
  0.00000000E+00  0.00000000E+00  0.00000000E+00
  0.00000000E+00  0.00000000E+00  0.00000000E+00
  0.00000000E+00  0.00000000E+00  0.00000000E+00
  0.00000000E+00  0.00000000E+00  0.00000000E+00
  0.00000000E+00  0.00000000E+00  0.00000000E+00
  0.00000000E+00  0.00000000E+00  0.00000000E+00
  0.00000000E+00  0.00000000E+00  0.00000000E+00
  0.00000000E+00  0.00000000E+00  0.00000000E+00
  0.00000000E+00  0.00000000E+00  0.00000000E+00
  0.00000000E+00  0.00000000E+00  0.00000000E+00
  0.00000000E+00  0.00000000E+00  0.00000000E+00
  0.00000000E+00  0.00000000E+00  0.00000000E+00
  0.00000000E+00  0.00000000E+00  0.00000000E+00
  0.00000000E+00  0.00000000E+00  0.00000000E+00
  0.00000000E+00  0.00000000E+00  0.00000000E+00
  0.00000000E+00  0.00000000E+00  0.00000000E+00
  0.00000000E+00  0.00000000E+00  0.00000000E+00
  0.00000000E+00  0.00000000E+00  0.00000000E+00
  0.00000000E+00  0.00000000E+00  0.00000000E+00
  0.00000000E+00  0.00000000E+00  0.00000000E+00
  0.00000000E+00  0.00000000E+00  0.00000000E+00
  0.00000000E+00  0.00000000E+00  0.00000000E+00
  0.00000000E+00  0.00000000E+00  0.00000000E+00
  0.00000000E+00  0.00000000E+00  0.00000000E+00
  0.00000000E+00  0.00000000E+00  0.00000000E+00
  0.00000000E+00  0.00000000E+00  0.00000000E+00
  0.00000000E+00  0.00000000E+00  0.00000000E+00
  0.00000000E+00  0.00000000E+00  0.00000000E+00
  0.00000000E+00  0.00000000E+00  0.00000000E+00
  0.00000000E+00  0.00000000E+00  0.00000000E+00
  0.00000000E+00  0.00000000E+00  0.00000000E+00
  0.00000000E+00  0.00000000E+00  0.00000000E+00
  0.00000000E+00  0.00000000E+00  0.00000000E+00
  0.00000000E+00  0.00000000E+00  0.00000000E+00
  0.00000000E+00  0.00000000E+00  0.00000000E+00
  0.00000000E+00  0.00000000E+00  0.00000000E+00
  0.00000000E+00  0.00000000E+00  0.00000000E+00
  0.00000000E+00  0.00000000E+00  0.00000000E+00
  0.00000000E+00  0.00000000E+00  0.00000000E+00
  0.00000000E+00  0.00000000E+00  0.00000000E+00
  0.00000000E+00  0.00000000E+00  0.00000000E+00
  0.00000000E+00  0.00000000E+00  0.00000000E+00
  0.00000000E+00  0.00000000E+00  0.00000000E+00
  0.00000000E+00  0.00000000E+00  0.00000000E+00
  0.00000000E+00  0.00000000E+00  0.00000000E+00
  0.00000000E+00  0.00000000E+00  0.00000000E+00
  0.00000000E+00  0.00000000E+00  0.00000000E+00
  0.00000000E+00  0.00000000E+00  0.00000000E+00
  0.00000000E+00  0.00000000E+00  0.00000000E+00
  0.00000000E+00  0.00000000E+00  0.00000000E+00
  0.00000000E+00  0.00000000E+00  0.00000000E+00
  0.00000000E+00  0.00000000E+00  0.00000000E+00
  0.00000000E+00  0.00000000E+00  0.00000000E+00
  0.00000000E+00  0.00000000E+00  0.00000000E+00
  0.00000000E+00  0.00000000E+00  0.00000000E+00
  0.00000000E+00  0.00000000E+00  0.00000000E+00
  0.00000000E+00  0.00000000E+00  0.00000000E+00
  0.00000000E+00  0.00000000E+00  0.00000000E+00
  0.00000000E+00  0.00000000E+00  0.00000000E+00
  0.00000000E+00  0.00000000E+00  0.00000000E+00
  0.00000000E+00  0.00000000E+00  0.00000000E+00
  0.00000000E+00  0.00000000E+00  0.00000000E+00
  0.00000000E+00  0.00000000E+00  0.00000000E+00
  0.00000000E+00  0.00000000E+00  0.00000000E+00
  0.00000000E+00  0.00000000E+00  0.00000000E+00
  0.00000000E+00  0.00000000E+00  0.00000000E+00
  0.00000000E+00  0.00000000E+00  0.00000000E+00
  0.00000000E+00  0.00000000E+00  0.00000000E+00
  0.00000000E+00  0.00000000E+00  0.00000000E+00
  0.00000000E+00  0.00000000E+00  0.00000000E+00
  0.00000000E+00  0.00000000E+00  0.00000000E+00
  0.00000000E+00  0.00000000E+00  0.00000000E+00
  0.00000000E+00  0.00000000E+00  0.00000000E+00
  0.00000000E+00  0.00000000E+00  0.00000000E+00
  0.00000000E+00  0.00000000E+00  0.00000000E+00
  0.00000000E+00  0.00000000E+00  0.00000000E+00
  0.00000000E+00  0.00000000E+00  0.00000000E+00
  0.00000000E+00  0.00000000E+00  0.00000000E+00
  0.00000000E+00  0.00000000E+00  0.00000000E+00
  0.00000000E+00  0.00000000E+00  0.00000000E+00
  0.00000000E+00  0.00000000E+00  0.00000000E+00
  0.00000000E+00  0.00000000E+00  0.00000000E+00
  0.00000000E+00  0.00000000E+00  0.00000000E+00
  0.00000000E+00  0.00000000E+00  0.00000000E+00
  0.00000000E+00  0.00000000E+00  0.00000000E+00
  0.00000000E+00  0.00000000E+00  0.00000000E+00
  0.00000000E+00  0.00000000E+00  0.00000000E+00
  0.00000000E+00  0.00000000E+00  0.00000000E+00
  0.00000000E+00  0.00000000E+00  0.00000000E+00
  0.00000000E+00  0.00000000E+00  0.00000000E+00
  0.00000000E+00  0.00000000E+00  0.00000000E+00
  0.00000000E+00  0.00000000E+00  0.00000000E+00
  0.00000000E+00  0.00000000E+00  0.00000000E+00
  0.00000000E+00  0.00000000E+00  0.00000000E+00
  0.00000000E+00  0.00000000E+00  0.00000000E+00
  0.00000000E+00  0.00000000E+00  0.00000000E+00
  0.00000000E+00  0.00000000E+00  0.00000000E+00
  0.00000000E+00  0.00000000E+00  0.00000000E+00
  0.00000000E+00  0.00000000E+00  0.00000000E+00
  0.00000000E+00  0.00000000E+00  0.00000000E+00
  0.00000000E+00  0.00000000E+00  0.00000000E+00
  0.00000000E+00  0.00000000E+00  0.00000000E+00
  0.00000000E+00  0.00000000E+00  0.00000000E+00
  0.00000000E+00  0.00000000E+00  0.00000000E+00
  0.00000000E+00  0.00000000E+00  0.00000000E+00
  0.00000000E+00  0.00000000E+00  0.00000000E+00
  0.00000000E+00  0.00000000E+00  0.00000000E+00
  0.00000000E+00  0.00000000E+00  0.00000000E+00
  0.00000000E+00  0.00000000E+00  0.00000000E+00
  0.00000000E+00  0.00000000E+00  0.00000000E+00
  0.00000000E+00  0.00000000E+00  0.00000000E+00
  0.00000000E+00  0.00000000E+00  0.00000000E+00
  0.00000000E+00  0.00000000E+00  0.00000000E+00
  0.00000000E+00  0.00000000E+00  0.00000000E+00
  0.00000000E+00  0.00000000E+00  0.00000000E+00
  0.00000000E+00  0.00000000E+00  0.00000000E+00
  0.00000000E+00  0.00000000E+00  0.00000000E+00
  0.00000000E+00  0.00000000E+00  0.00000000E+00
  0.00000000E+00  0.00000000E+00  0.00000000E+00
  0.00000000E+00  0.00000000E+00  0.00000000E+00
  0.00000000E+00  0.00000000E+00  0.00000000E+00
  0.00000000E+00  0.00000000E+00  0.00000000E+00
  0.00000000E+00  0.00000000E+00  0.00000000E+00
  0.00000000E+00  0.00000000E+00  0.00000000E+00
  0.00000000E+00  0.00000000E+00  0.00000000E+00
  0.00000000E+00  0.00000000E+00  0.00000000E+00
  0.00000000E+00  0.00000000E+00  0.00000000E+00
  0.00000000E+00  0.00000000E+00  0.00000000E+00
  0.00000000E+00  0.00000000E+00  0.00000000E+00
  0.00000000E+00  0.00000000E+00  0.00000000E+00
  0.00000000E+00  0.00000000E+00  0.00000000E+00
  0.00000000E+00  0.00000000E+00  0.00000000E+00
  0.00000000E+00  0.00000000E+00  0.00000000E+00
  0.00000000E+00  0.00000000E+00  0.00000000E+00
  0.00000000E+00  0.00000000E+00  0.00000000E+00
  0.00000000E+00  0.00000000E+00  0.00000000E+00
  0.00000000E+00  0.00000000E+00  0.00000000E+00
  0.00000000E+00  0.00000000E+00  0.00000000E+00