CuInSe2gb                               
   1.00000000000000     
     9.7266780392896699    0.0000000000000000    0.0000000000000000
     0.0000000000000000    8.4235502764570693    0.0000000000000000
     0.0000000000000000    0.0000000000000000   45.0000000000000000
   Fe   Mn
   281     7
Direct
  0.0630909548589082  0.0343370347371426  0.1254592335696452
  0.3117116257505924  0.8732622048831308  0.6543661836207411
  0.1871371252096020  0.1206363264587917  0.7877249858356944
  0.4373579967079183  0.2888477796448193  0.3897175946144106
  0.3096786675186490  0.7091135982692656  0.8326438619435268
  0.8096044807666040  0.2089796705204879  0.8325428268945314
  0.1874593563574166  0.7891915328523458  0.3896272847007317
  0.5629854599736774  0.2061393467118499  0.5654226750827808
  0.0599368492061731  0.0387180065099056  0.7433973921055154
  0.8128763076823328  0.8718849821205211  0.5214645030989946
  0.1854048012193878  0.2886312348441055  0.7433088029412033
  0.9382538797420381  0.4553197077645027  0.3456260686517063
  0.9377080083105390  0.2889049459327545  0.3897090310641120
  0.8103986956202051  0.0408008960475935  0.8746403219962325
  0.1880960277361742  0.7892119044315831  0.6101243546695629
  0.5624255382274457  0.0389914791948345  0.3896797968145342
  0.9343136007822888  0.9591248142066796  0.8326699866067991
  0.3104279163447872  0.5405047667180443  0.8746982183506156
  0.6852043450912481  0.2888367589945113  0.7433145997489917
  0.1895457340911596  0.6179943608457512  0.1675761169396384
  0.8131637826769690  0.2043785146384203  0.4783314504204796
  0.8132732745190856  0.5391541743510788  0.6101901974659178
  0.3130367727995646  0.8708097779320697  0.4343456159820843
  0.8141734481942294  0.0401495706977880  0.2566728109054146
  0.6884068554788207  0.9553534245397362  0.3455097739696295
  0.9391408699237729  0.1175125686886032  0.1673995139652860
  0.9383071706521022  0.1226659225382303  0.5214543134554999
  0.5641389827100870  0.5409017327422440  0.2567250266293711
  0.6861142618266856  0.7906145861245728  0.8747080484611369
  0.5647210225462601  0.3686414897955518  0.1674768225159173
  0.4351021718912840  0.7887452745429891  0.7433392334295327
  0.8133008675024981  0.7063333695947255  0.5654796880135426
  0.5620852127144532  0.8706810123865764  0.7876498128977243
  0.6884146797795162  0.1223261518989419  0.5214499576614920
  0.8117787449832070  0.3731082758915203  0.6543832345515234
  0.9342859569855436  0.4591211387330179  0.8326109723895032
  0.0622117913759628  0.2059065572282826  0.6990676203626077
  0.4375684224872979  0.9562940506369536  0.6991000596279622
  0.3095783479040705  0.2087867244840747  0.8327636379511586
  0.4367457411097607  0.6230018505890719  0.6543982968335020
  0.3133033286769305  0.5392360283937986  0.6101862677863541
  0.9379644118590938  0.4559663172799299  0.5653779688781335
  0.6852097989872230  0.7893262687586454  0.7433159932936796
  0.9387893604505246  0.7858923866496181  0.1256289051291594
  0.6875313744235667  0.7887423215156019  0.3896983357317787
  0.9356521810175056  0.7893225982836866  0.7433217550017288
  0.0635688673829041  0.2051317863667041  0.3455553423818692
  0.8126956893890865  0.0388545123794614  0.3896688010907423
  0.4372095740838307  0.1207764189069176  0.7877580957187803
  0.0625887541714213  0.2065806796319900  0.2124899637931393
  0.0649415095383670  0.3687880648008935  0.1674508128347037
  0.9389046476998693  0.7905894325449858  0.2567277249860731
  0.5621873581694736  0.2066077121368979  0.6991096098226243
  0.6872351504539707  0.9561308287390337  0.6990449877899420
  0.4387814117172381  0.7858357233875698  0.1256389459163627
  0.4381055359266182  0.9563094396847044  0.5653679606298324
  0.8120566115284364  0.3707982820485898  0.7875518082516346
  0.6894193165468953  0.2905610225182969  0.2567246213012315
  0.1881082682387691  0.4560217621589600  0.5654098040598553
  0.0646019760498955  0.8682489717569870  0.1675181700849087
  0.1883116599328383  0.2890171596416307  0.6101323185279591
  0.5635156075075414  0.7054411081014256  0.3455413213620323
  0.3121330825601761  0.2063352856699734  0.6990657339897323
  0.5604000995798137  0.5405294443734696  0.8746600777489087
  0.0630659631161372  0.7058516369298903  0.5653802963066128
  0.6872126227361159  0.6210181995918141  0.7876428319209370
  0.3125996836171766  0.5391548970167109  0.3896987490409994
  0.1887188350452134  0.6222324396434900  0.5214708464092265
  0.5628928272462264  0.8708262181617152  0.4344106856550659
  0.4381959084595507  0.4561652711344963  0.5653918078235766
  0.4353648584215577  0.2889867917365665  0.7433409115286345
  0.8119780589290470  0.8746383980622098  0.3009526900392011
  0.8134213225987383  0.7056025313239490  0.3455893200913411
  0.4341067044536360  0.4588896331392832  0.8326300922604026
  0.6882177851220572  0.9545853310941654  0.4783415121029740
  0.6872901371821658  0.4561734286010156  0.6990667298549386
  0.5632914960909322  0.8722913323996139  0.5214499568752238
  0.5617923112657169  0.3729489326795800  0.6543488656225481
  0.8117573769257809  0.8730811396739415  0.6544193257075794
  0.8127685719517743  0.3710870434004370  0.4344764021550989
  0.8141628223898969  0.5405908205958586  0.2567780276762088
  0.6841959146415192  0.4589871592502760  0.8325743002101130
  0.1883602636295536  0.7856118546696118  0.1256560327053546
  0.0604450872667759  0.0406156403497360  0.8747384108319728
  0.3117262174162803  0.3731631130531346  0.6544127001644907
  0.3133947731091843  0.2052232663070035  0.3455523946751993
  0.8102057468631851  0.5389464378284866  0.7433472838390172
  0.6843693821953744  0.9590356229629720  0.8325937119720676
  0.5617240517271589  0.8729692328639638  0.6543901870531794
  0.3128678205642664  0.7062653398283656  0.5654179822920841
  0.3131018758360640  0.5357793658164247  0.1253346349178936
  0.6873970703982154  0.9568657460957762  0.2125173502142112
  0.3131919246622095  0.2062082234871655  0.5653780813519962
  0.1884070292938672  0.9548210093414046  0.4783607967124505
  0.6881222628972591  0.9564285833528872  0.5653795800812190
  0.4383680403375047  0.7891578936395748  0.6100856104575562
  0.6895119833562865  0.6179399853403637  0.1676748326084127
  0.3119214664037336  0.8739404127085350  0.3009494130205286
  0.3129577835947027  0.7045895092926671  0.4783397205601778
  0.9382684677186703  0.2889842136204679  0.6102298761155024
  0.4370644076319185  0.6241012753342148  0.3009767212372331
  0.8147215239910985  0.8677486998133768  0.1675451881978910
  0.5626918536815070  0.2063568325861974  0.2124947201091029
  0.9395085116362930  0.6177451228841465  0.1676573330043379
  0.9363620296191775  0.7907079272976203  0.8747628899455143
  0.5617653666037129  0.3708815212866983  0.7875716024684848
  0.0631784931541570  0.3721405009425814  0.5214269452253647
  0.5632600423417330  0.3722934743545663  0.5214262578304151
  0.6869435978422104  0.1241868338512248  0.3009530677060043
  0.4342993096737106  0.9588981578166698  0.8326623094661146
  0.1893793058910949  0.2860563724677554  0.1253441055772841
  0.8121002903957576  0.8708766599570797  0.7876384011253819
  0.3129787987666877  0.3711157093528727  0.4344499132788507
  0.5629900542775459  0.0343833824382566  0.1254899619781583
  0.4383058395905264  0.2892564607079560  0.6101412106738084
  0.1883853959693011  0.4551041889380635  0.3455761549965191
  0.4378177157043348  0.2862119284163205  0.1253131733156959
  0.6890981418079195  0.7905684889492038  0.2567338419285103
  0.4381201590197366  0.1223371422338097  0.5214341079116022
  0.1861943767326101  0.2906988915423952  0.8748598206881149
  0.1867336188623263  0.1230756036152953  0.6544274199044130
  0.9369373200184334  0.1229487867935082  0.6544267817634463
  0.3127009882599874  0.2061144337064638  0.2124645707704343
  0.0624447662215506  0.0385579076479068  0.3896655616715982
  0.1900771814070127  0.1177864840059415  0.1674883001460878
  0.0633174568948804  0.5391042563554852  0.6102301692299867
  0.9388429472238684  0.2905519619884217  0.2566857950089771
  0.5633738437849849  0.5391082496270757  0.6101334689310400
  0.9379177312267321  0.9564311229306337  0.5653936030241116
  0.6868796796242800  0.6247146401657802  0.3008951562749564
  0.9377824051140075  0.6208597607496170  0.4343403773551092
  0.9371092332549438  0.6209445557712991  0.7876845353012060
  0.5619689174609123  0.7058996558701349  0.6990840886327667
  0.0594439097975884  0.7091717325643245  0.8327150191060715
  0.9371747659782836  0.1240869151006269  0.3008962482382176
  0.9383262746059433  0.7891482650032196  0.6101027483371011
  0.4394271381969699  0.7906152329860132  0.2567326988801495
  0.3120257395422714  0.3703506058028246  0.7876609901718814
  0.4379619572867075  0.4569065065326877  0.2126263969471332
  0.1882240764731803  0.1226252443908541  0.5214261701190316
  0.8123616410263349  0.7059551277675437  0.6990664824434401
  0.0633740452597819  0.0389646688636472  0.6101265610941077
  0.5594605057229072  0.2090559364675829  0.8325184743393170
  0.3136661445789641  0.8719343747373982  0.5214730942970189
  0.6894707878430397  0.2861695410873302  0.1253724753525645
  0.1874641831428195  0.9570481263591888  0.2125358472720961
  0.6881699558593249  0.2893173660443868  0.6101915946807962
  0.3132498027148337  0.0391722368349242  0.6102188965944358
  0.9370820818319633  0.1207821868998819  0.7877576265685461
  0.4364758706698941  0.7908250917948462  0.8747910490361623
  0.8102635298723350  0.0390849234458416  0.7433441732934430
  0.9369516049286938  0.4559063782334844  0.6990695740048382
  0.1868512047062943  0.6230675082171140  0.6544411815784033
  0.3124461750385876  0.7060425064272308  0.6990268301693036
  0.9378453366258248  0.2863244220599530  0.1253082569923079
  0.4381818326153825  0.4546480866330337  0.4783619686768473
  0.0631463302565952  0.7041315892302649  0.4783764042379661
  0.9377494447365494  0.1213033875385945  0.4343516562658147
  0.4369491688104098  0.1241028018475778  0.3009729099478491
  0.1878073884247283  0.1211957181390266  0.4343089416984256
  0.5605583740367999  0.0406418149493686  0.8747042616336416
  0.1882879754740352  0.9563582129839857  0.5654077403605959
  0.6882989528676748  0.7857697826983665  0.1256486540602409
  0.5631474690260743  0.5355229426916283  0.1255472121575231
  0.3124965748194700  0.0385912777971793  0.3897266955773571
  0.6898977020848605  0.1177603980039887  0.1675049583868305
  0.8125241256067688  0.2062703315043308  0.2124281368862984
  0.0640294408148149  0.5405966692929666  0.2567809804638321
  0.5630933471470836  0.7044900256006111  0.4783465753904099
  0.0631590010527354  0.2057494003589674  0.5654189795362867
  0.5618792528481679  0.3741567584286063  0.3009412865162078
  0.4383812596477343  0.9553109439464615  0.3454989161092652
  0.1842324780802480  0.9590400577296395  0.8326646417855503
  0.4393749815060282  0.6176372432807730  0.1676512056455130
  0.9383169948958572  0.4569768410185599  0.2126582680734022
  0.0630914384620625  0.5354842253615191  0.1255073730194342
  0.8129051385629410  0.3722257738349115  0.5214380424889871
  0.9371987497964976  0.6242079623373722  0.3009664468092194
  0.3141752292887203  0.0402240978186887  0.2567605059130112
  0.6882789866175382  0.7892897559154914  0.6101843409564515
  0.1843215176394030  0.4590886347346196  0.8326395704665012
  0.4393149330887472  0.1174956111111982  0.1673894206283680
  0.3135652724774646  0.3722072510012950  0.5214314325740155
  0.4371302956942429  0.6206577567852530  0.7876849139301006
  0.0639254011210376  0.0405909603572458  0.2566998878253428
  0.5629783125369577  0.7062539645668756  0.5654208574969953
  0.9352571718994995  0.2887506529806927  0.7433396765271679
  0.6871959515294427  0.1207906511839223  0.7876560925987957
  0.1871036087869959  0.4571563186292610  0.2126345321958021
  0.9378392625646622  0.7890712535976298  0.3896458977520946
  0.6863559044726242  0.2909036761460956  0.8746961455417637
  0.3148367240943957  0.8680908538962397  0.1675436995709712
  0.4375962761275682  0.4559313922537370  0.6990260919902117
  0.9385491593513648  0.9552971574829051  0.3454888713911327
  0.6882707791249001  0.6221340858866595  0.5214475594398256
  0.0616729581337428  0.8730649499594306  0.6543903157987992
  0.0618809225059509  0.8706337777892449  0.7877308373172064
  0.0615590850646092  0.3731521705568368  0.6543127148863914
  0.6880931550520034  0.4546191322952339  0.4783386243143392
  0.1891723355180876  0.7906282350663602  0.2567322274364714
  0.4379780946266307  0.1211060054427353  0.4344616673533109
  0.8132580537613413  0.0359021502225158  0.1253978425277721
  0.9377462206374778  0.6221236117449278  0.5214820610191930
  0.0628395630599327  0.8710801176323816  0.4346428832523667
  0.8130590711803030  0.5358121292928898  0.1253546052717856
  0.4386772784234871  0.4552547025437084  0.3456029185810320
  0.8135098767581317  0.2052392118483885  0.3455096240134859
  0.3134975182259426  0.7050383681529333  0.3455844877651069
  0.6868517927670774  0.1228416822301031  0.6543597248631998
  0.5620712747545153  0.8746243902646684  0.3010075561337421
  0.0599026325846129  0.5386905763442758  0.7433491468418623
  0.9376771056665401  0.9568895872034996  0.2125513341855978
  0.8125167353915226  0.7062572277805544  0.2124820363461758
  0.0619691535387524  0.8739089249148468  0.3009697226218032
  0.1869039216658045  0.1242554390607916  0.3010550559180054
  0.0634452852804150  0.7050287374186842  0.3455090942423332
  0.8131606745398708  0.0393428424462051  0.6102391770541792
  0.0627552746990249  0.3711504333203622  0.4344674011445140
  0.5634071548450339  0.2052049635879145  0.3455159662419711
  0.8120065700837458  0.3741174585561791  0.3009220450361392
  0.4381338705658566  0.9545403432612543  0.4783069342350801
  0.5624194879646681  0.5387405752787088  0.3896416664956603
  0.0631670037235039  0.2042741921205367  0.4783393287224126
  0.3120035391598924  0.8703754112867579  0.7876849781590800
  0.9370849398988368  0.9560206496926605  0.6990875972812737
  0.0621450710984297  0.3742141808739907  0.3010161243801449
  0.6868607686636686  0.6230327542452999  0.6544047281961094
  0.6881242279805492  0.4563217815699002  0.5654073506699533
  0.4378056226193636  0.9569463652627253  0.2125452354949197
  0.3130542749268402  0.2044196635547132  0.4782947546657693
  0.4366481295682546  0.1230573535112498  0.6543866095893377
  0.6877790101422996  0.6209331786025163  0.4344867122041435
  0.8124435475916892  0.2064622068439982  0.6990135802959871
  0.8133630251103120  0.7045942144710320  0.4783320017879029
  0.8126939801540316  0.8707206899605958  0.4343389346924951
  0.9378412545324499  0.9547452568995847  0.4783731847054431
  0.5631087986397455  0.2044747935545108  0.4783660040614042
  0.1879398480531310  0.6207581315018096  0.4343852636712102
  0.3100871992158772  0.0387150958204448  0.7433579408018481
  0.9368121197257185  0.6230497830923404  0.6544213535796447
  0.5595905022814767  0.7091212960192610  0.8326145622056614
  0.3119473124335652  0.3741749586052212  0.3010067496996454
  0.5624974681979809  0.7064599559546558  0.2125179556179437
  0.1881684846939109  0.4545948144830653  0.4783021250814590
  0.3105395771022993  0.0407224797131967  0.8747290653440933
  0.1871882083307393  0.4561776297943031  0.6990433677080873
  0.8102565063434569  0.5404900090821763  0.8746613671465234
  0.1874878270693703  0.2888913797390841  0.3897121901321536
  0.4377683301303255  0.6209010516460317  0.4344598363240647
  0.0625346908023251  0.7067043166042497  0.2125227117385914
  0.5629041444823282  0.3710374359146592  0.4344773707737763
  0.4381074589313557  0.6221839150553943  0.5214520166588849
  0.8096096736269348  0.7089884357803001  0.8325411668070776
  0.0621061954991246  0.3705653201048333  0.7876264378263539
  0.4364902071917802  0.2907665643809144  0.8747549293323741
  0.3131778065285125  0.0357857716474071  0.1253716076827799
  0.6878748492435948  0.1209866430905822  0.4344529831940745
  0.1884266976032819  0.9550135119324851  0.3455699537331843
  0.0597530741491028  0.2090014353836873  0.8326237244054768
  0.5634389150795330  0.0392048157546545  0.6101539132236039
  0.6872001934419220  0.4570108563501064  0.2126854347100096
  0.1853085669364150  0.7887505798952497  0.7434316695488270
  0.1868352701577926  0.6239738881899681  0.3009437778974057
  0.4372507630730049  0.7889519941775865  0.3897071061326102
  0.4393703596281783  0.2904614132076028  0.2567050904635931
  0.0602067900212303  0.5405514863944341  0.8747027953730365
  0.5606174652599758  0.0390120085254220  0.7433668603828534
  0.1861450492386847  0.7906871384133567  0.8748419623039307
  0.9382160700873480  0.4546267892620612  0.4783540690157272
  0.8126465717250163  0.5389167060693325  0.3896285554561673
  0.8130283821727350  0.2060741153811069  0.5653679669768228
  0.1871313675283379  0.6204397551024131  0.7877806374665840
  0.0623481906407408  0.5392263128335903  0.3897198699364954
  0.0622503816551122  0.7061500615500662  0.6991272026121500
  0.3141959797911942  0.5403574480501490  0.2568104376479903
  0.3125317168674628  0.7064505531744367  0.2124601845358890
  0.5647110878512810  0.8679632753730764  0.1674843320939658
  0.5604366318624108  0.5389964315185578  0.7433429187348802
  0.6885103946482084  0.4552882278391300  0.3455360540060553
  0.9361575988251678  0.2908077345761280  0.8747414988914496
  0.5639738475721994  0.0403136084581409  0.2566861528839113
  0.6874700997364184  0.2890261471946427  0.3895325071669708
  0.3151072455971766  0.3673409301996817  0.1669853006410330
  0.8151224087308896  0.3672010542076522  0.1670111362442271
  0.1874074144974186  0.9562555785207858  0.6991510110995456
  0.0632655580897472  0.8723284890300297  0.5213142737567464
  0.1895179438398630  0.2905691948857438  0.2566562726321458
  0.3099152767129797  0.5385830958318937  0.7434526324711898
 
  0.00000000E+00  0.00000000E+00  0.00000000E+00
  0.00000000E+00  0.00000000E+00  0.00000000E+00
  0.00000000E+00  0.00000000E+00  0.00000000E+00
  0.00000000E+00  0.00000000E+00  0.00000000E+00
  0.00000000E+00  0.00000000E+00  0.00000000E+00
  0.00000000E+00  0.00000000E+00  0.00000000E+00
  0.00000000E+00  0.00000000E+00  0.00000000E+00
  0.00000000E+00  0.00000000E+00  0.00000000E+00
  0.00000000E+00  0.00000000E+00  0.00000000E+00
  0.00000000E+00  0.00000000E+00  0.00000000E+00
  0.00000000E+00  0.00000000E+00  0.00000000E+00
  0.00000000E+00  0.00000000E+00  0.00000000E+00
  0.00000000E+00  0.00000000E+00  0.00000000E+00
  0.00000000E+00  0.00000000E+00  0.00000000E+00
  0.00000000E+00  0.00000000E+00  0.00000000E+00
  0.00000000E+00  0.00000000E+00  0.00000000E+00
  0.00000000E+00  0.00000000E+00  0.00000000E+00
  0.00000000E+00  0.00000000E+00  0.00000000E+00
  0.00000000E+00  0.00000000E+00  0.00000000E+00
  0.00000000E+00  0.00000000E+00  0.00000000E+00
  0.00000000E+00  0.00000000E+00  0.00000000E+00
  0.00000000E+00  0.00000000E+00  0.00000000E+00
  0.00000000E+00  0.00000000E+00  0.00000000E+00
  0.00000000E+00  0.00000000E+00  0.00000000E+00
  0.00000000E+00  0.00000000E+00  0.00000000E+00
  0.00000000E+00  0.00000000E+00  0.00000000E+00
  0.00000000E+00  0.00000000E+00  0.00000000E+00
  0.00000000E+00  0.00000000E+00  0.00000000E+00
  0.00000000E+00  0.00000000E+00  0.00000000E+00
  0.00000000E+00  0.00000000E+00  0.00000000E+00
  0.00000000E+00  0.00000000E+00  0.00000000E+00
  0.00000000E+00  0.00000000E+00  0.00000000E+00
  0.00000000E+00  0.00000000E+00  0.00000000E+00
  0.00000000E+00  0.00000000E+00  0.00000000E+00
  0.00000000E+00  0.00000000E+00  0.00000000E+00
  0.00000000E+00  0.00000000E+00  0.00000000E+00
  0.00000000E+00  0.00000000E+00  0.00000000E+00
  0.00000000E+00  0.00000000E+00  0.00000000E+00
  0.00000000E+00  0.00000000E+00  0.00000000E+00
  0.00000000E+00  0.00000000E+00  0.00000000E+00
  0.00000000E+00  0.00000000E+00  0.00000000E+00
  0.00000000E+00  0.00000000E+00  0.00000000E+00
  0.00000000E+00  0.00000000E+00  0.00000000E+00
  0.00000000E+00  0.00000000E+00  0.00000000E+00
  0.00000000E+00  0.00000000E+00  0.00000000E+00
  0.00000000E+00  0.00000000E+00  0.00000000E+00
  0.00000000E+00  0.00000000E+00  0.00000000E+00
  0.00000000E+00  0.00000000E+00  0.00000000E+00
  0.00000000E+00  0.00000000E+00  0.00000000E+00
  0.00000000E+00  0.00000000E+00  0.00000000E+00
  0.00000000E+00  0.00000000E+00  0.00000000E+00
  0.00000000E+00  0.00000000E+00  0.00000000E+00
  0.00000000E+00  0.00000000E+00  0.00000000E+00
  0.00000000E+00  0.00000000E+00  0.00000000E+00
  0.00000000E+00  0.00000000E+00  0.00000000E+00
  0.00000000E+00  0.00000000E+00  0.00000000E+00
  0.00000000E+00  0.00000000E+00  0.00000000E+00
  0.00000000E+00  0.00000000E+00  0.00000000E+00
  0.00000000E+00  0.00000000E+00  0.00000000E+00
  0.00000000E+00  0.00000000E+00  0.00000000E+00
  0.00000000E+00  0.00000000E+00  0.00000000E+00
  0.00000000E+00  0.00000000E+00  0.00000000E+00
  0.00000000E+00  0.00000000E+00  0.00000000E+00
  0.00000000E+00  0.00000000E+00  0.00000000E+00
  0.00000000E+00  0.00000000E+00  0.00000000E+00
  0.00000000E+00  0.00000000E+00  0.00000000E+00
  0.00000000E+00  0.00000000E+00  0.00000000E+00
  0.00000000E+00  0.00000000E+00  0.00000000E+00
  0.00000000E+00  0.00000000E+00  0.00000000E+00
  0.00000000E+00  0.00000000E+00  0.00000000E+00
  0.00000000E+00  0.00000000E+00  0.00000000E+00
  0.00000000E+00  0.00000000E+00  0.00000000E+00
  0.00000000E+00  0.00000000E+00  0.00000000E+00
  0.00000000E+00  0.00000000E+00  0.00000000E+00
  0.00000000E+00  0.00000000E+00  0.00000000E+00
  0.00000000E+00  0.00000000E+00  0.00000000E+00
  0.00000000E+00  0.00000000E+00  0.00000000E+00
  0.00000000E+00  0.00000000E+00  0.00000000E+00
  0.00000000E+00  0.00000000E+00  0.00000000E+00
  0.00000000E+00  0.00000000E+00  0.00000000E+00
  0.00000000E+00  0.00000000E+00  0.00000000E+00
  0.00000000E+00  0.00000000E+00  0.00000000E+00
  0.00000000E+00  0.00000000E+00  0.00000000E+00
  0.00000000E+00  0.00000000E+00  0.00000000E+00
  0.00000000E+00  0.00000000E+00  0.00000000E+00
  0.00000000E+00  0.00000000E+00  0.00000000E+00
  0.00000000E+00  0.00000000E+00  0.00000000E+00
  0.00000000E+00  0.00000000E+00  0.00000000E+00
  0.00000000E+00  0.00000000E+00  0.00000000E+00
  0.00000000E+00  0.00000000E+00  0.00000000E+00
  0.00000000E+00  0.00000000E+00  0.00000000E+00
  0.00000000E+00  0.00000000E+00  0.00000000E+00
  0.00000000E+00  0.00000000E+00  0.00000000E+00
  0.00000000E+00  0.00000000E+00  0.00000000E+00
  0.00000000E+00  0.00000000E+00  0.00000000E+00
  0.00000000E+00  0.00000000E+00  0.00000000E+00
  0.00000000E+00  0.00000000E+00  0.00000000E+00
  0.00000000E+00  0.00000000E+00  0.00000000E+00
  0.00000000E+00  0.00000000E+00  0.00000000E+00
  0.00000000E+00  0.00000000E+00  0.00000000E+00
  0.00000000E+00  0.00000000E+00  0.00000000E+00
  0.00000000E+00  0.00000000E+00  0.00000000E+00
  0.00000000E+00  0.00000000E+00  0.00000000E+00
  0.00000000E+00  0.00000000E+00  0.00000000E+00
  0.00000000E+00  0.00000000E+00  0.00000000E+00
  0.00000000E+00  0.00000000E+00  0.00000000E+00
  0.00000000E+00  0.00000000E+00  0.00000000E+00
  0.00000000E+00  0.00000000E+00  0.00000000E+00
  0.00000000E+00  0.00000000E+00  0.00000000E+00
  0.00000000E+00  0.00000000E+00  0.00000000E+00
  0.00000000E+00  0.00000000E+00  0.00000000E+00
  0.00000000E+00  0.00000000E+00  0.00000000E+00
  0.00000000E+00  0.00000000E+00  0.00000000E+00
  0.00000000E+00  0.00000000E+00  0.00000000E+00
  0.00000000E+00  0.00000000E+00  0.00000000E+00
  0.00000000E+00  0.00000000E+00  0.00000000E+00
  0.00000000E+00  0.00000000E+00  0.00000000E+00
  0.00000000E+00  0.00000000E+00  0.00000000E+00
  0.00000000E+00  0.00000000E+00  0.00000000E+00
  0.00000000E+00  0.00000000E+00  0.00000000E+00
  0.00000000E+00  0.00000000E+00  0.00000000E+00
  0.00000000E+00  0.00000000E+00  0.00000000E+00
  0.00000000E+00  0.00000000E+00  0.00000000E+00
  0.00000000E+00  0.00000000E+00  0.00000000E+00
  0.00000000E+00  0.00000000E+00  0.00000000E+00
  0.00000000E+00  0.00000000E+00  0.00000000E+00
  0.00000000E+00  0.00000000E+00  0.00000000E+00
  0.00000000E+00  0.00000000E+00  0.00000000E+00
  0.00000000E+00  0.00000000E+00  0.00000000E+00
  0.00000000E+00  0.00000000E+00  0.00000000E+00
  0.00000000E+00  0.00000000E+00  0.00000000E+00
  0.00000000E+00  0.00000000E+00  0.00000000E+00
  0.00000000E+00  0.00000000E+00  0.00000000E+00
  0.00000000E+00  0.00000000E+00  0.00000000E+00
  0.00000000E+00  0.00000000E+00  0.00000000E+00
  0.00000000E+00  0.00000000E+00  0.00000000E+00
  0.00000000E+00  0.00000000E+00  0.00000000E+00
  0.00000000E+00  0.00000000E+00  0.00000000E+00
  0.00000000E+00  0.00000000E+00  0.00000000E+00
  0.00000000E+00  0.00000000E+00  0.00000000E+00
  0.00000000E+00  0.00000000E+00  0.00000000E+00
  0.00000000E+00  0.00000000E+00  0.00000000E+00
  0.00000000E+00  0.00000000E+00  0.00000000E+00
  0.00000000E+00  0.00000000E+00  0.00000000E+00
  0.00000000E+00  0.00000000E+00  0.00000000E+00
  0.00000000E+00  0.00000000E+00  0.00000000E+00
  0.00000000E+00  0.00000000E+00  0.00000000E+00
  0.00000000E+00  0.00000000E+00  0.00000000E+00
  0.00000000E+00  0.00000000E+00  0.00000000E+00
  0.00000000E+00  0.00000000E+00  0.00000000E+00
  0.00000000E+00  0.00000000E+00  0.00000000E+00
  0.00000000E+00  0.00000000E+00  0.00000000E+00
  0.00000000E+00  0.00000000E+00  0.00000000E+00
  0.00000000E+00  0.00000000E+00  0.00000000E+00
  0.00000000E+00  0.00000000E+00  0.00000000E+00
  0.00000000E+00  0.00000000E+00  0.00000000E+00
  0.00000000E+00  0.00000000E+00  0.00000000E+00
  0.00000000E+00  0.00000000E+00  0.00000000E+00
  0.00000000E+00  0.00000000E+00  0.00000000E+00
  0.00000000E+00  0.00000000E+00  0.00000000E+00
  0.00000000E+00  0.00000000E+00  0.00000000E+00
  0.00000000E+00  0.00000000E+00  0.00000000E+00
  0.00000000E+00  0.00000000E+00  0.00000000E+00
  0.00000000E+00  0.00000000E+00  0.00000000E+00
  0.00000000E+00  0.00000000E+00  0.00000000E+00
  0.00000000E+00  0.00000000E+00  0.00000000E+00
  0.00000000E+00  0.00000000E+00  0.00000000E+00
  0.00000000E+00  0.00000000E+00  0.00000000E+00
  0.00000000E+00  0.00000000E+00  0.00000000E+00
  0.00000000E+00  0.00000000E+00  0.00000000E+00
  0.00000000E+00  0.00000000E+00  0.00000000E+00
  0.00000000E+00  0.00000000E+00  0.00000000E+00
  0.00000000E+00  0.00000000E+00  0.00000000E+00
  0.00000000E+00  0.00000000E+00  0.00000000E+00
  0.00000000E+00  0.00000000E+00  0.00000000E+00
  0.00000000E+00  0.00000000E+00  0.00000000E+00
  0.00000000E+00  0.00000000E+00  0.00000000E+00
  0.00000000E+00  0.00000000E+00  0.00000000E+00
  0.00000000E+00  0.00000000E+00  0.00000000E+00
  0.00000000E+00  0.00000000E+00  0.00000000E+00
  0.00000000E+00  0.00000000E+00  0.00000000E+00
  0.00000000E+00  0.00000000E+00  0.00000000E+00
  0.00000000E+00  0.00000000E+00  0.00000000E+00
  0.00000000E+00  0.00000000E+00  0.00000000E+00
  0.00000000E+00  0.00000000E+00  0.00000000E+00
  0.00000000E+00  0.00000000E+00  0.00000000E+00
  0.00000000E+00  0.00000000E+00  0.00000000E+00
  0.00000000E+00  0.00000000E+00  0.00000000E+00
  0.00000000E+00  0.00000000E+00  0.00000000E+00
  0.00000000E+00  0.00000000E+00  0.00000000E+00
  0.00000000E+00  0.00000000E+00  0.00000000E+00
  0.00000000E+00  0.00000000E+00  0.00000000E+00
  0.00000000E+00  0.00000000E+00  0.00000000E+00
  0.00000000E+00  0.00000000E+00  0.00000000E+00
  0.00000000E+00  0.00000000E+00  0.00000000E+00
  0.00000000E+00  0.00000000E+00  0.00000000E+00
  0.00000000E+00  0.00000000E+00  0.00000000E+00
  0.00000000E+00  0.00000000E+00  0.00000000E+00
  0.00000000E+00  0.00000000E+00  0.00000000E+00
  0.00000000E+00  0.00000000E+00  0.00000000E+00
  0.00000000E+00  0.00000000E+00  0.00000000E+00
  0.00000000E+00  0.00000000E+00  0.00000000E+00
  0.00000000E+00  0.00000000E+00  0.00000000E+00
  0.00000000E+00  0.00000000E+00  0.00000000E+00
  0.00000000E+00  0.00000000E+00  0.00000000E+00
  0.00000000E+00  0.00000000E+00  0.00000000E+00
  0.00000000E+00  0.00000000E+00  0.00000000E+00
  0.00000000E+00  0.00000000E+00  0.00000000E+00
  0.00000000E+00  0.00000000E+00  0.00000000E+00
  0.00000000E+00  0.00000000E+00  0.00000000E+00
  0.00000000E+00  0.00000000E+00  0.00000000E+00
  0.00000000E+00  0.00000000E+00  0.00000000E+00
  0.00000000E+00  0.00000000E+00  0.00000000E+00
  0.00000000E+00  0.00000000E+00  0.00000000E+00
  0.00000000E+00  0.00000000E+00  0.00000000E+00
  0.00000000E+00  0.00000000E+00  0.00000000E+00
  0.00000000E+00  0.00000000E+00  0.00000000E+00
  0.00000000E+00  0.00000000E+00  0.00000000E+00
  0.00000000E+00  0.00000000E+00  0.00000000E+00
  0.00000000E+00  0.00000000E+00  0.00000000E+00
  0.00000000E+00  0.00000000E+00  0.00000000E+00
  0.00000000E+00  0.00000000E+00  0.00000000E+00
  0.00000000E+00  0.00000000E+00  0.00000000E+00
  0.00000000E+00  0.00000000E+00  0.00000000E+00
  0.00000000E+00  0.00000000E+00  0.00000000E+00
  0.00000000E+00  0.00000000E+00  0.00000000E+00
  0.00000000E+00  0.00000000E+00  0.00000000E+00
  0.00000000E+00  0.00000000E+00  0.00000000E+00
  0.00000000E+00  0.00000000E+00  0.00000000E+00
  0.00000000E+00  0.00000000E+00  0.00000000E+00
  0.00000000E+00  0.00000000E+00  0.00000000E+00
  0.00000000E+00  0.00000000E+00  0.00000000E+00
  0.00000000E+00  0.00000000E+00  0.00000000E+00
  0.00000000E+00  0.00000000E+00  0.00000000E+00
  0.00000000E+00  0.00000000E+00  0.00000000E+00
  0.00000000E+00  0.00000000E+00  0.00000000E+00
  0.00000000E+00  0.00000000E+00  0.00000000E+00
  0.00000000E+00  0.00000000E+00  0.00000000E+00
  0.00000000E+00  0.00000000E+00  0.00000000E+00
  0.00000000E+00  0.00000000E+00  0.00000000E+00
  0.00000000E+00  0.00000000E+00  0.00000000E+00
  0.00000000E+00  0.00000000E+00  0.00000000E+00
  0.00000000E+00  0.00000000E+00  0.00000000E+00
  0.00000000E+00  0.00000000E+00  0.00000000E+00
  0.00000000E+00  0.00000000E+00  0.00000000E+00
  0.00000000E+00  0.00000000E+00  0.00000000E+00
  0.00000000E+00  0.00000000E+00  0.00000000E+00