CuInSe2gb                               
   1.00000000000000     
     9.7266780392896699    0.0000000000000000    0.0000000000000000
     0.0000000000000000    8.4235502764570693    0.0000000000000000
     0.0000000000000000    0.0000000000000000   45.0000000000000000
   Fe   Mn
   274    14
Direct
  0.0619077978242534  0.0291819200341807  0.1240939430423411
  0.3161865437109092  0.8748106666756060  0.6551092442901233
  0.1843998782115915  0.1232769358690026  0.7886919835177358
  0.4414914464116807  0.2875566761341353  0.3890806062188492
  0.3179783688268026  0.7136764658556948  0.8333504252609649
  0.8177733406172679  0.2154686437872102  0.8335729639805882
  0.1916861709462691  0.9627880001429667  0.8334978045916330
  0.5616689183098761  0.2066701380464342  0.5655327832616873
  0.0656407373873813  0.0413747413909480  0.7443036663960557
  0.8116045745186475  0.8716536827767927  0.5213509118541687
  0.1903649099888505  0.2913124251836093  0.7443192588769104
  0.9336444472201835  0.4523498172483804  0.3448910366616404
  0.9409567986989135  0.2865655323003046  0.3889331490485112
  0.8124309521730253  0.0403536009400760  0.8758626733061180
  0.1838212735438617  0.7882722487557590  0.6109515497187288
  0.5664978154677278  0.0377497144555153  0.3890629921944056
  0.9418954127157472  0.9635438328374267  0.8336826150422105
  0.3127638248813159  0.5408936296716920  0.8759632392893217
  0.6900474015029593  0.2915369228215191  0.7442647944104914
  0.1821553990157876  0.6135913236890594  0.1666341367392486
  0.8123570984066318  0.2059149067506867  0.4786640344317386
  0.0633977390245668  0.0406674476674880  0.8758958210061210
  0.3119436545123073  0.8703873345240097  0.4344209864085462
  0.8098032949296977  0.0377431520855733  0.2559732455090948
  0.6829078271366301  0.9517609200644443  0.3446509396208567
  0.9309325695177589  0.1143987834213143  0.1668877220287877
  0.0617743990803531  0.8716010908816633  0.5213889939556988
  0.5581166723557083  0.5380962348115877  0.2555963817248528
  0.6855880588560639  0.7982278826643200  0.8760743786000875
  0.5564854868076807  0.3652462933240077  0.1665773455841235
  0.4401265320830324  0.7914664014810876  0.7442632105200401
  0.8112902597578340  0.7066498751691135  0.5654850651702618
  0.5593333547202509  0.8735170360275663  0.7886368932299905
  0.6866023531441702  0.1217869043274570  0.5213462785559635
  0.8164382342444975  0.3748281809920936  0.6549656550514625
  0.9420984732267962  0.4634740497559032  0.8336605178570238
  0.0602985588867966  0.2078053777230733  0.6997619148959693
  0.4353638200095875  0.9579848313889791  0.6997506854983507
  0.3181214233335386  0.2139024489264173  0.8333260603278666
  0.4412279097531964  0.6246323869968317  0.6549441746544541
  0.3090956297381211  0.5386017264355755  0.6110300886053011
  0.9368040081262511  0.4567831281005347  0.5655193709200894
  0.6901434294388761  0.7914364559658706  0.7442176447757327
  0.9341439668250777  0.7885442562099482  0.1244028685774880
  0.6917142744713208  0.7875842887786870  0.3890430449521688
  0.9400389067018625  0.7910582391946646  0.7444782696271369
  0.0586963602475576  0.2027892636676031  0.3449594236517999
  0.6839145009298242  0.4523564892268043  0.3449775029068159
  0.4334319422989314  0.1234092395444992  0.7890495776927475
  0.0650679600510365  0.2037714577913935  0.2110754047986590
  0.0553386356025919  0.3653896640119258  0.1666473710928636
  0.9335758925149541  0.7873252864713230  0.2555774097449499
  0.5606599759952179  0.2071065119440755  0.6997859434250889
  0.6844558056496181  0.9568717791492468  0.6999640519470637
  0.8091364549797306  0.8744416907673062  0.7885811622626911
  0.4368933764213137  0.9572961301756312  0.5654230830244976
  0.8090816867283174  0.3741931074863941  0.7886027081102884
  0.6841924096851427  0.2879360576549422  0.2560160332519760
  0.1874079014714967  0.4570227147240714  0.5655369300188893
  0.0560920086041300  0.8653579418384629  0.1666047793653543
  0.1840123280091449  0.2882701231467098  0.6109558784717589
  0.0622138661593625  0.2071512381661070  0.5653587059242925
  0.3105812414777400  0.2074726572049001  0.6997886591792242
  0.5625155530117618  0.5410024005956119  0.8759699743598982
  0.0619194052287884  0.7064628556883460  0.5654353449955791
  0.6827906477484990  0.6233337674203154  0.7887441443996763
  0.3160012483726309  0.5383254053746506  0.3889487758856839
  0.1868178541346586  0.6214699178698556  0.5214056413321519
  0.5624572804359141  0.8705226502314402  0.4344193213777855
  0.4365331702963792  0.4567717649492673  0.5655970871081095
  0.4401912386618988  0.2915829589684396  0.7444353874040545
  0.8210755454371982  0.8735604450745613  0.3002055392156001
  0.8086247028623107  0.7026039520558538  0.3448948329599817
  0.4421969550946104  0.4631814431416266  0.8333806297913186
  0.6875304108823335  0.9560100805082314  0.4786907667243760
  0.6854422856985594  0.4577996630857811  0.6998181119789793
  0.5620237077756738  0.8721065218933246  0.5214506806723685
  0.5662406477384736  0.3742330585740507  0.6549401081346065
  0.8162666766495479  0.8745351543170062  0.6549180273770150
  0.8116927757870080  0.3714122914376078  0.4341940269927086
  0.8088556892555816  0.5369461798255407  0.2558989536000990
  0.6922049600392899  0.4622842033393696  0.8333954576864403
  0.1861313062474079  0.7881605043387309  0.1240444184930903
  0.6911866609927050  0.2874147600887653  0.3890036946800059
  0.3162382921682804  0.3743106543245743  0.6549800519929775
  0.3089195195279604  0.2027413106092228  0.3447240972488811
  0.8154245617868581  0.5413247619057615  0.7443849951350400
  0.6919259506534151  0.9624022376917377  0.8334424545072989
  0.5658264403872479  0.8742450366448861  0.6550176305392678
  0.3111285479527197  0.7069181538113332  0.5654681966549180
  0.3128024202666511  0.5296193621936746  0.1239116082074474
  0.6894259253499401  0.9545645635460069  0.2117728180563169
  0.3114065034272453  0.2065909123934327  0.5655507371874519
  0.1874035930512283  0.9558630700636092  0.4786621743250041
  0.6873321195530874  0.9571169082888025  0.5655163358887247
  0.4339453222716657  0.7885859735554466  0.6110337849083146
  0.6824821478011263  0.6121975056730373  0.1662600375434131
  0.3193013375542115  0.8735578456359681  0.3001617796169375
  0.3122455482624560  0.7056818473339862  0.4786625172492233
  0.9338074174231312  0.2884003456278805  0.6108421224630972
  0.4459614087183255  0.6233812228260474  0.3001704441401660
  0.8072449106164716  0.8634094567432503  0.1667997449501593
  0.5665262154288661  0.2030233156621172  0.2114008957413969
  0.9325706975559498  0.6129060475974164  0.1666794313764570
  0.4372186653753565  0.9558671547091127  0.4786673210575627
  0.5591929090320189  0.3734573579779348  0.7886700372692970
  0.0615487911915002  0.3723423868694127  0.5213553900853370
  0.3072404012039631  0.3641800526767611  0.1666068898835416
  0.6954358904999071  0.1228563583526712  0.3002701063446379
  0.4423235424931137  0.9631769151930777  0.8333569310714364
  0.1851629490198299  0.2864298295128758  0.1241425159703698
  0.1838877023750771  0.2874860892407774  0.2558208647811500
  0.3123319965270093  0.3704134758759612  0.4344496486379829
  0.5627939716140024  0.0319957131801013  0.1242637799065936
  0.4339246745938958  0.2880944221692477  0.6109247394173364
  0.1836511836218459  0.4524941189373199  0.3449010913869924
  0.4346071434141787  0.2865508184558845  0.1241262237339819
  0.6836837898330825  0.7876961055007405  0.2558190905450824
  0.4369056611780915  0.1213881212115276  0.5214284478105158
  0.1879048186102659  0.2977620492121900  0.8760901020193890
  0.1912423752219708  0.1252055616243499  0.6550954009575368
  0.9413926005413306  0.1246242899610413  0.6549418353609920
  0.8160957302403095  0.5377326632237361  0.3889440145112244
  0.0666509253856750  0.0380827092510565  0.3891390231685178
  0.1833697471927808  0.1121489986170617  0.1664807401249930
  0.0586801454480575  0.5380693417219763  0.6109877326942216
  0.9340472755086086  0.2878562258599233  0.2559234902122717
  0.5588118958489853  0.5382113967584564  0.6109865973586619
  0.9366016056282557  0.9573548257733225  0.5654534294914244
  0.6948509880003652  0.6240713110478280  0.3001112595377634
  0.9373764898656326  0.6206287990479755  0.4344706724095261
  0.9333933647344995  0.6252181489435853  0.7886544322708334
  0.5596230929773297  0.7068545120222272  0.6998812255026109
  0.0673410072576323  0.7152849503613425  0.8336635321992379
  0.9454551791490580  0.1228471478182803  0.3000770719323087
  0.9334682254843245  0.7875617051533665  0.6109264519268461
  0.4332491676134135  0.7875101198445156  0.2555900217686470
  0.3098495611206517  0.3731731033301927  0.7885446395145930
  0.4398387036177915  0.4536313494153350  0.2113182904344303
  0.1867881611049764  0.1215703024647585  0.5213323610627764
  0.8104414755991723  0.7073677175300774  0.6997817872032263
  0.0590943340134494  0.0384561170374554  0.6109003365146367
  0.5665057531356603  0.2135312963868430  0.8333794916466682
  0.3116386842350626  0.8718822697233659  0.5214186604646843
  0.6864682533627576  0.2859611540498110  0.1239051446793985
  0.1901307795895838  0.9546288738297039  0.2117098598066333
  0.6841400126886373  0.2893359441171733  0.6110658343566948
  0.3089584838048466  0.0383102880211777  0.6110390787971849
  0.9333659567407329  0.1251323687847839  0.7886025005818044
  0.4364637782974097  0.7979578437083507  0.8762843232226115
  0.8154494749916473  0.0410296789586663  0.7441930919485089
  0.9354009817359266  0.4579770323237776  0.6996866981423465
  0.1912359564921301  0.6250370205705197  0.6550121471952329
  0.3101623621225294  0.7070298902851679  0.6997686769887459
  0.9342518958238001  0.2868189480327131  0.1238728040907410
  0.4373383802628270  0.4560331622107389  0.4785880379567599
  0.0622877366036363  0.7056927709202442  0.4785371000628343
  0.9368826772663520  0.1199137822944202  0.4345055625166058
  0.4445718776462518  0.1230236939391425  0.3004349271729011
  0.1869989493748089  0.1203895256650233  0.4342363554026635
  0.5623947107898627  0.0410611956478666  0.8759516404131840
  0.1868457783829103  0.9571723237910590  0.5655326915364309
  0.6845835248581457  0.7881708112179301  0.1243391276832787
  0.5588567946796522  0.7021034795917539  0.3448776343827624
  0.3163584620273961  0.0372683161730286  0.3889179657865748
  0.6824660715206342  0.1139075711210442  0.1668848033725664
  0.8157449100951770  0.2035353844102518  0.2110903637510695
  0.0592898056553936  0.5371630809668126  0.2557394333334094
  0.5624438157217690  0.7057934142420127  0.4786612006757269
  0.4352973983503932  0.7869769001554708  0.1241181741319591
  0.5697068689901897  0.3716902686911946  0.3001046310563109
  0.4336551592846958  0.9523193489724270  0.3449202509362085
  0.1847533293059852  0.9575656881963283  0.6997972175346415
  0.4317273869078023  0.6128044445678289  0.1660659986334797
  0.9398716402856560  0.4533954286884873  0.2115872079630577
  0.0618238251131531  0.5293895087877272  0.1240571782401605
  0.8120105564601392  0.3721314220160040  0.5213747361844703
  0.9448835987118571  0.6233142152197524  0.2998872923292359
  0.3091528144979420  0.0372630640808007  0.2554890163964137
  0.6842318986924061  0.7886879747524521  0.6110512403258711
  0.1916435235238550  0.4628024247974294  0.8334849211384502
  0.4325183847385577  0.1117708095897403  0.1665568711052040
  0.3116363518865062  0.3718773363291441  0.5213681110890391
  0.4334442206145487  0.6239020456298562  0.7890063044821140
  0.0589289253079275  0.0372647764778031  0.2558165526771676
  0.5617035633665497  0.7069368959428893  0.5655241868675921
  0.9403109107818187  0.2910703974907251  0.7444956757069805
  0.6827981235885350  0.1234967690753903  0.7887379405460094
  0.1895609117165606  0.4528643234288686  0.2110620527527310
  0.9413127819190764  0.7875057081948261  0.3888837995837588
  0.6854723329172132  0.2982539291002271  0.8759971782905186
  0.5563639009633861  0.8623043054724515  0.1663288347285420
  0.4355983565072947  0.4573865406636293  0.6998627400139417
  0.9339702794033170  0.9509829053768117  0.3447544922427112
  0.6866468008979015  0.6213509615451885  0.5212926788440980
  0.0662509874390922  0.8750328435113197  0.6550955646751722
  0.0590996509652226  0.8735267635146006  0.7884738904197804
  0.0660341963289082  0.3749690837291144  0.6550355419189426
  0.6872057783873253  0.4556707600253596  0.4786459505872582
  0.1837461999104482  0.7872264404102481  0.2554852798801978
  0.4369989370168294  0.1208581640459915  0.4343321588500259
  0.8142170285623364  0.0306193887251855  0.1240031076272910
  0.9366986845704338  0.6219611434858842  0.5213867410848566
  0.4413853644205439  0.1247715172942403  0.6549538497546870
  0.8133421321919801  0.5290309457322757  0.1239359160244081
  0.4336898656645834  0.4524896694968990  0.3449850580627373
  0.8089903895618624  0.2025400596337480  0.3450073414871607
  0.3090919697378824  0.7018476700379687  0.3448480475610055
  0.6914399221624286  0.1248210427292808  0.6552022810912055
  0.5704779876396345  0.8730876374047153  0.3002608949700902
  0.0655447168536906  0.5413489889136648  0.7443385330848793
  0.9406387802343468  0.9539268032102450  0.2112797338591569
  0.8159671797484299  0.7033375744737926  0.2113391329937826
  0.0705893129916198  0.8731069176526518  0.3002562231442318
  0.1952872668919187  0.1232324882379994  0.3002210166987857
  0.0586042829994208  0.7021129786700173  0.3448680922002869
  0.8093179650890908  0.0386114908726877  0.6109904452768945
  0.0630440503412189  0.3715358199420215  0.4342728923712403
  0.5589664096955738  0.2026884040260561  0.3447885910602031
  0.8202200372542535  0.3729120094786579  0.3000029696532466
  0.5600860850956523  0.0374075852313382  0.2554745596667132
  0.5663104514449321  0.5375512005501797  0.3890545104765199
  0.0626608846657603  0.2059737964986193  0.4786815883721000
  0.3095498213063902  0.8735337604372930  0.7886174903465034
  0.9355173485889002  0.9575179205371074  0.6997538031996503
  0.0694033671240677  0.3740309450711617  0.3000060165964205
  0.6911556084625827  0.6250895823235093  0.6551358224980306
  0.6867498536397820  0.4572277033785138  0.5654071121883459
  0.4406611544327524  0.9553215251545064  0.2120251390648860
  0.3124468164122845  0.2057790253963700  0.4787196957864782
  0.8124068267092535  0.5402404264013047  0.8758166737143135
  0.6879963605905129  0.6205782975285341  0.4344274639541599
  0.8103007672482102  0.2071065117929427  0.6998532574749524
  0.8124550569172532  0.7056954549911642  0.4786439464846367
  0.8112050716077690  0.8710586089026691  0.4342228947024156
  0.9373886889851675  0.9553441605499181  0.4786968651178175
  0.5622427612655978  0.2058209746171940  0.4786825694079791
  0.1871408831284224  0.6203315284090358  0.4344487277805685
  0.3151713289000355  0.0417110611768043  0.7442780084687739
  0.9414152011755703  0.6251016767898396  0.6549120142630624
  0.5663701276520056  0.7135082770592236  0.8333807424537618
  0.3201271268475763  0.3723125699548940  0.3001076986713764
  0.3152196677648047  0.5414637701387394  0.7442224283010920
  0.1873364819735795  0.4555899189521496  0.4786499924199276
  0.3128884646024518  0.0410043646976484  0.8760271921370363
  0.1851678351671054  0.4577724503859172  0.6997976721736356
  0.5617542165213060  0.3719529410989342  0.5213761545646151
  0.1910973012449966  0.2876488800208146  0.3889228350798904
  0.3156544165772644  0.2041235577798972  0.2111739046509825
  0.0673002032771335  0.7036293390149839  0.2113002844950750
  0.5619478568784692  0.3708932710746708  0.4344118324425676
  0.4367644964352906  0.6219319196323602  0.5213556151423702
  0.8178271878367344  0.7156630636404189  0.8335494556577612
  0.0591358693443038  0.3738517879361914  0.7884877170646176
  0.4365492377495200  0.2976495492115044  0.8761790584477892
  0.3115787415741908  0.0305987088228035  0.1241202472551259
  0.6877369389633787  0.1201610306878625  0.4342351861009879
  0.1837242496624379  0.9524059166423381  0.3449049664454660
  0.0671383036271157  0.2153917648130035  0.8336850904321376
  0.5589962798328425  0.0385028846318628  0.6110458060475767
  0.6890802266514322  0.4539855534985612  0.2117265270918225
  0.1902718138732585  0.7914494861597356  0.7442555813100105
  0.1950326223709267  0.6227870871857359  0.3003064836951584
  0.4414952051444702  0.7878170166212323  0.3890774041080775
  0.4334301422071660  0.2880070261847203  0.2557806724608695
  0.0634542225420851  0.5400655843598647  0.8758626743337560
  0.5657498418678324  0.0414990177448721  0.7442753442863647
  0.1876443706112266  0.7975429295899874  0.8760638217429534
  0.9371367518551816  0.4558140458331784  0.4786182960703504
  0.5655153882092530  0.5412227273318905  0.7443155098829587
  0.8111887201717626  0.2070157388022834  0.5655216413813587
  0.1842500412941374  0.6235045293109902  0.7887006033643772
  0.0673035327866127  0.5383156966708201  0.3890458945245758
  0.0605936825132752  0.7075962505906693  0.6997484158541767
  0.3084659244305137  0.5371857301936815  0.2555707542749798
  0.3145379947016397  0.7029945406426312  0.2122282822013552
  0.3059397526513009  0.8644991365773135  0.1658255797512654
  0.4365997074999035  0.6212275211787605  0.4343946070012829
  0.8178975181592234  0.0393109996675067  0.3892404418346917
  0.9369253453560692  0.2974595468372390  0.8755867714903377
  0.9361356646377995  0.7974270326955533  0.8756207307964777
  0.8090321642447610  0.5389857287539355  0.6111362757771823
  0.5624020256490887  0.5289050544464585  0.1244609913882097
  0.8056382713355396  0.3655056132817036  0.1659193344426019
  0.0620166307986959  0.8710448223400062  0.4343831117630674
  0.9365170819506555  0.1216290830407122  0.5214302190299547
  0.1931043943687820  0.7875318685259342  0.3888895185687586
  0.5670427734527800  0.7031521184720053  0.2120064742783768
 
  0.00000000E+00  0.00000000E+00  0.00000000E+00
  0.00000000E+00  0.00000000E+00  0.00000000E+00
  0.00000000E+00  0.00000000E+00  0.00000000E+00
  0.00000000E+00  0.00000000E+00  0.00000000E+00
  0.00000000E+00  0.00000000E+00  0.00000000E+00
  0.00000000E+00  0.00000000E+00  0.00000000E+00
  0.00000000E+00  0.00000000E+00  0.00000000E+00
  0.00000000E+00  0.00000000E+00  0.00000000E+00
  0.00000000E+00  0.00000000E+00  0.00000000E+00
  0.00000000E+00  0.00000000E+00  0.00000000E+00
  0.00000000E+00  0.00000000E+00  0.00000000E+00
  0.00000000E+00  0.00000000E+00  0.00000000E+00
  0.00000000E+00  0.00000000E+00  0.00000000E+00
  0.00000000E+00  0.00000000E+00  0.00000000E+00
  0.00000000E+00  0.00000000E+00  0.00000000E+00
  0.00000000E+00  0.00000000E+00  0.00000000E+00
  0.00000000E+00  0.00000000E+00  0.00000000E+00
  0.00000000E+00  0.00000000E+00  0.00000000E+00
  0.00000000E+00  0.00000000E+00  0.00000000E+00
  0.00000000E+00  0.00000000E+00  0.00000000E+00
  0.00000000E+00  0.00000000E+00  0.00000000E+00
  0.00000000E+00  0.00000000E+00  0.00000000E+00
  0.00000000E+00  0.00000000E+00  0.00000000E+00
  0.00000000E+00  0.00000000E+00  0.00000000E+00
  0.00000000E+00  0.00000000E+00  0.00000000E+00
  0.00000000E+00  0.00000000E+00  0.00000000E+00
  0.00000000E+00  0.00000000E+00  0.00000000E+00
  0.00000000E+00  0.00000000E+00  0.00000000E+00
  0.00000000E+00  0.00000000E+00  0.00000000E+00
  0.00000000E+00  0.00000000E+00  0.00000000E+00
  0.00000000E+00  0.00000000E+00  0.00000000E+00
  0.00000000E+00  0.00000000E+00  0.00000000E+00
  0.00000000E+00  0.00000000E+00  0.00000000E+00
  0.00000000E+00  0.00000000E+00  0.00000000E+00
  0.00000000E+00  0.00000000E+00  0.00000000E+00
  0.00000000E+00  0.00000000E+00  0.00000000E+00
  0.00000000E+00  0.00000000E+00  0.00000000E+00
  0.00000000E+00  0.00000000E+00  0.00000000E+00
  0.00000000E+00  0.00000000E+00  0.00000000E+00
  0.00000000E+00  0.00000000E+00  0.00000000E+00
  0.00000000E+00  0.00000000E+00  0.00000000E+00
  0.00000000E+00  0.00000000E+00  0.00000000E+00
  0.00000000E+00  0.00000000E+00  0.00000000E+00
  0.00000000E+00  0.00000000E+00  0.00000000E+00
  0.00000000E+00  0.00000000E+00  0.00000000E+00
  0.00000000E+00  0.00000000E+00  0.00000000E+00
  0.00000000E+00  0.00000000E+00  0.00000000E+00
  0.00000000E+00  0.00000000E+00  0.00000000E+00
  0.00000000E+00  0.00000000E+00  0.00000000E+00
  0.00000000E+00  0.00000000E+00  0.00000000E+00
  0.00000000E+00  0.00000000E+00  0.00000000E+00
  0.00000000E+00  0.00000000E+00  0.00000000E+00
  0.00000000E+00  0.00000000E+00  0.00000000E+00
  0.00000000E+00  0.00000000E+00  0.00000000E+00
  0.00000000E+00  0.00000000E+00  0.00000000E+00
  0.00000000E+00  0.00000000E+00  0.00000000E+00
  0.00000000E+00  0.00000000E+00  0.00000000E+00
  0.00000000E+00  0.00000000E+00  0.00000000E+00
  0.00000000E+00  0.00000000E+00  0.00000000E+00
  0.00000000E+00  0.00000000E+00  0.00000000E+00
  0.00000000E+00  0.00000000E+00  0.00000000E+00
  0.00000000E+00  0.00000000E+00  0.00000000E+00
  0.00000000E+00  0.00000000E+00  0.00000000E+00
  0.00000000E+00  0.00000000E+00  0.00000000E+00
  0.00000000E+00  0.00000000E+00  0.00000000E+00
  0.00000000E+00  0.00000000E+00  0.00000000E+00
  0.00000000E+00  0.00000000E+00  0.00000000E+00
  0.00000000E+00  0.00000000E+00  0.00000000E+00
  0.00000000E+00  0.00000000E+00  0.00000000E+00
  0.00000000E+00  0.00000000E+00  0.00000000E+00
  0.00000000E+00  0.00000000E+00  0.00000000E+00
  0.00000000E+00  0.00000000E+00  0.00000000E+00
  0.00000000E+00  0.00000000E+00  0.00000000E+00
  0.00000000E+00  0.00000000E+00  0.00000000E+00
  0.00000000E+00  0.00000000E+00  0.00000000E+00
  0.00000000E+00  0.00000000E+00  0.00000000E+00
  0.00000000E+00  0.00000000E+00  0.00000000E+00
  0.00000000E+00  0.00000000E+00  0.00000000E+00
  0.00000000E+00  0.00000000E+00  0.00000000E+00
  0.00000000E+00  0.00000000E+00  0.00000000E+00
  0.00000000E+00  0.00000000E+00  0.00000000E+00
  0.00000000E+00  0.00000000E+00  0.00000000E+00
  0.00000000E+00  0.00000000E+00  0.00000000E+00
  0.00000000E+00  0.00000000E+00  0.00000000E+00
  0.00000000E+00  0.00000000E+00  0.00000000E+00
  0.00000000E+00  0.00000000E+00  0.00000000E+00
  0.00000000E+00  0.00000000E+00  0.00000000E+00
  0.00000000E+00  0.00000000E+00  0.00000000E+00
  0.00000000E+00  0.00000000E+00  0.00000000E+00
  0.00000000E+00  0.00000000E+00  0.00000000E+00
  0.00000000E+00  0.00000000E+00  0.00000000E+00
  0.00000000E+00  0.00000000E+00  0.00000000E+00
  0.00000000E+00  0.00000000E+00  0.00000000E+00
  0.00000000E+00  0.00000000E+00  0.00000000E+00
  0.00000000E+00  0.00000000E+00  0.00000000E+00
  0.00000000E+00  0.00000000E+00  0.00000000E+00
  0.00000000E+00  0.00000000E+00  0.00000000E+00
  0.00000000E+00  0.00000000E+00  0.00000000E+00
  0.00000000E+00  0.00000000E+00  0.00000000E+00
  0.00000000E+00  0.00000000E+00  0.00000000E+00
  0.00000000E+00  0.00000000E+00  0.00000000E+00
  0.00000000E+00  0.00000000E+00  0.00000000E+00
  0.00000000E+00  0.00000000E+00  0.00000000E+00
  0.00000000E+00  0.00000000E+00  0.00000000E+00
  0.00000000E+00  0.00000000E+00  0.00000000E+00
  0.00000000E+00  0.00000000E+00  0.00000000E+00
  0.00000000E+00  0.00000000E+00  0.00000000E+00
  0.00000000E+00  0.00000000E+00  0.00000000E+00
  0.00000000E+00  0.00000000E+00  0.00000000E+00
  0.00000000E+00  0.00000000E+00  0.00000000E+00
  0.00000000E+00  0.00000000E+00  0.00000000E+00
  0.00000000E+00  0.00000000E+00  0.00000000E+00
  0.00000000E+00  0.00000000E+00  0.00000000E+00
  0.00000000E+00  0.00000000E+00  0.00000000E+00
  0.00000000E+00  0.00000000E+00  0.00000000E+00
  0.00000000E+00  0.00000000E+00  0.00000000E+00
  0.00000000E+00  0.00000000E+00  0.00000000E+00
  0.00000000E+00  0.00000000E+00  0.00000000E+00
  0.00000000E+00  0.00000000E+00  0.00000000E+00
  0.00000000E+00  0.00000000E+00  0.00000000E+00
  0.00000000E+00  0.00000000E+00  0.00000000E+00
  0.00000000E+00  0.00000000E+00  0.00000000E+00
  0.00000000E+00  0.00000000E+00  0.00000000E+00
  0.00000000E+00  0.00000000E+00  0.00000000E+00
  0.00000000E+00  0.00000000E+00  0.00000000E+00
  0.00000000E+00  0.00000000E+00  0.00000000E+00
  0.00000000E+00  0.00000000E+00  0.00000000E+00
  0.00000000E+00  0.00000000E+00  0.00000000E+00
  0.00000000E+00  0.00000000E+00  0.00000000E+00
  0.00000000E+00  0.00000000E+00  0.00000000E+00
  0.00000000E+00  0.00000000E+00  0.00000000E+00
  0.00000000E+00  0.00000000E+00  0.00000000E+00
  0.00000000E+00  0.00000000E+00  0.00000000E+00
  0.00000000E+00  0.00000000E+00  0.00000000E+00
  0.00000000E+00  0.00000000E+00  0.00000000E+00
  0.00000000E+00  0.00000000E+00  0.00000000E+00
  0.00000000E+00  0.00000000E+00  0.00000000E+00
  0.00000000E+00  0.00000000E+00  0.00000000E+00
  0.00000000E+00  0.00000000E+00  0.00000000E+00
  0.00000000E+00  0.00000000E+00  0.00000000E+00
  0.00000000E+00  0.00000000E+00  0.00000000E+00
  0.00000000E+00  0.00000000E+00  0.00000000E+00
  0.00000000E+00  0.00000000E+00  0.00000000E+00
  0.00000000E+00  0.00000000E+00  0.00000000E+00
  0.00000000E+00  0.00000000E+00  0.00000000E+00
  0.00000000E+00  0.00000000E+00  0.00000000E+00
  0.00000000E+00  0.00000000E+00  0.00000000E+00
  0.00000000E+00  0.00000000E+00  0.00000000E+00
  0.00000000E+00  0.00000000E+00  0.00000000E+00
  0.00000000E+00  0.00000000E+00  0.00000000E+00
  0.00000000E+00  0.00000000E+00  0.00000000E+00
  0.00000000E+00  0.00000000E+00  0.00000000E+00
  0.00000000E+00  0.00000000E+00  0.00000000E+00
  0.00000000E+00  0.00000000E+00  0.00000000E+00
  0.00000000E+00  0.00000000E+00  0.00000000E+00
  0.00000000E+00  0.00000000E+00  0.00000000E+00
  0.00000000E+00  0.00000000E+00  0.00000000E+00
  0.00000000E+00  0.00000000E+00  0.00000000E+00
  0.00000000E+00  0.00000000E+00  0.00000000E+00
  0.00000000E+00  0.00000000E+00  0.00000000E+00
  0.00000000E+00  0.00000000E+00  0.00000000E+00
  0.00000000E+00  0.00000000E+00  0.00000000E+00
  0.00000000E+00  0.00000000E+00  0.00000000E+00
  0.00000000E+00  0.00000000E+00  0.00000000E+00
  0.00000000E+00  0.00000000E+00  0.00000000E+00
  0.00000000E+00  0.00000000E+00  0.00000000E+00
  0.00000000E+00  0.00000000E+00  0.00000000E+00
  0.00000000E+00  0.00000000E+00  0.00000000E+00
  0.00000000E+00  0.00000000E+00  0.00000000E+00
  0.00000000E+00  0.00000000E+00  0.00000000E+00
  0.00000000E+00  0.00000000E+00  0.00000000E+00
  0.00000000E+00  0.00000000E+00  0.00000000E+00
  0.00000000E+00  0.00000000E+00  0.00000000E+00
  0.00000000E+00  0.00000000E+00  0.00000000E+00
  0.00000000E+00  0.00000000E+00  0.00000000E+00
  0.00000000E+00  0.00000000E+00  0.00000000E+00
  0.00000000E+00  0.00000000E+00  0.00000000E+00
  0.00000000E+00  0.00000000E+00  0.00000000E+00
  0.00000000E+00  0.00000000E+00  0.00000000E+00
  0.00000000E+00  0.00000000E+00  0.00000000E+00
  0.00000000E+00  0.00000000E+00  0.00000000E+00
  0.00000000E+00  0.00000000E+00  0.00000000E+00
  0.00000000E+00  0.00000000E+00  0.00000000E+00
  0.00000000E+00  0.00000000E+00  0.00000000E+00
  0.00000000E+00  0.00000000E+00  0.00000000E+00
  0.00000000E+00  0.00000000E+00  0.00000000E+00
  0.00000000E+00  0.00000000E+00  0.00000000E+00
  0.00000000E+00  0.00000000E+00  0.00000000E+00
  0.00000000E+00  0.00000000E+00  0.00000000E+00
  0.00000000E+00  0.00000000E+00  0.00000000E+00
  0.00000000E+00  0.00000000E+00  0.00000000E+00
  0.00000000E+00  0.00000000E+00  0.00000000E+00
  0.00000000E+00  0.00000000E+00  0.00000000E+00
  0.00000000E+00  0.00000000E+00  0.00000000E+00
  0.00000000E+00  0.00000000E+00  0.00000000E+00
  0.00000000E+00  0.00000000E+00  0.00000000E+00
  0.00000000E+00  0.00000000E+00  0.00000000E+00
  0.00000000E+00  0.00000000E+00  0.00000000E+00
  0.00000000E+00  0.00000000E+00  0.00000000E+00
  0.00000000E+00  0.00000000E+00  0.00000000E+00
  0.00000000E+00  0.00000000E+00  0.00000000E+00
  0.00000000E+00  0.00000000E+00  0.00000000E+00
  0.00000000E+00  0.00000000E+00  0.00000000E+00
  0.00000000E+00  0.00000000E+00  0.00000000E+00
  0.00000000E+00  0.00000000E+00  0.00000000E+00
  0.00000000E+00  0.00000000E+00  0.00000000E+00
  0.00000000E+00  0.00000000E+00  0.00000000E+00
  0.00000000E+00  0.00000000E+00  0.00000000E+00
  0.00000000E+00  0.00000000E+00  0.00000000E+00
  0.00000000E+00  0.00000000E+00  0.00000000E+00
  0.00000000E+00  0.00000000E+00  0.00000000E+00
  0.00000000E+00  0.00000000E+00  0.00000000E+00
  0.00000000E+00  0.00000000E+00  0.00000000E+00
  0.00000000E+00  0.00000000E+00  0.00000000E+00
  0.00000000E+00  0.00000000E+00  0.00000000E+00
  0.00000000E+00  0.00000000E+00  0.00000000E+00
  0.00000000E+00  0.00000000E+00  0.00000000E+00
  0.00000000E+00  0.00000000E+00  0.00000000E+00
  0.00000000E+00  0.00000000E+00  0.00000000E+00
  0.00000000E+00  0.00000000E+00  0.00000000E+00
  0.00000000E+00  0.00000000E+00  0.00000000E+00
  0.00000000E+00  0.00000000E+00  0.00000000E+00
  0.00000000E+00  0.00000000E+00  0.00000000E+00
  0.00000000E+00  0.00000000E+00  0.00000000E+00
  0.00000000E+00  0.00000000E+00  0.00000000E+00
  0.00000000E+00  0.00000000E+00  0.00000000E+00
  0.00000000E+00  0.00000000E+00  0.00000000E+00
  0.00000000E+00  0.00000000E+00  0.00000000E+00
  0.00000000E+00  0.00000000E+00  0.00000000E+00
  0.00000000E+00  0.00000000E+00  0.00000000E+00
  0.00000000E+00  0.00000000E+00  0.00000000E+00
  0.00000000E+00  0.00000000E+00  0.00000000E+00
  0.00000000E+00  0.00000000E+00  0.00000000E+00
  0.00000000E+00  0.00000000E+00  0.00000000E+00
  0.00000000E+00  0.00000000E+00  0.00000000E+00
  0.00000000E+00  0.00000000E+00  0.00000000E+00
  0.00000000E+00  0.00000000E+00  0.00000000E+00
  0.00000000E+00  0.00000000E+00  0.00000000E+00
  0.00000000E+00  0.00000000E+00  0.00000000E+00
  0.00000000E+00  0.00000000E+00  0.00000000E+00
  0.00000000E+00  0.00000000E+00  0.00000000E+00
  0.00000000E+00  0.00000000E+00  0.00000000E+00
  0.00000000E+00  0.00000000E+00  0.00000000E+00
  0.00000000E+00  0.00000000E+00  0.00000000E+00
  0.00000000E+00  0.00000000E+00  0.00000000E+00
  0.00000000E+00  0.00000000E+00  0.00000000E+00
  0.00000000E+00  0.00000000E+00  0.00000000E+00