FeMn_288_25                             
    1.000000000000000     
     9.7266779999999997    0.0000000000000000    0.0000000000000000
     0.0000000000000000    8.4235500000000005    0.0000000000000000
     0.0000000000000000    0.0000000000000000   45.0000000000000000
   Fe   Mn
   263    25
Direct
  0.0629040401029020  0.5372734317541088  0.2576357519357746
  0.1878092059552590  0.7871882370690835  0.2575329338541839
  0.4371703932158501  0.1236376730918189  0.6538573649220387
  0.5624679698397641  0.5371468594125842  0.2574958890326741
  0.8126041661383024  0.8704356038966873  0.1683592271496175
  0.5620610851393023  0.2073071445484862  0.6983494393667639
  0.6879145677347668  0.9559344786536740  0.5651076920655435
  0.5627828244152625  0.2056029059183624  0.4787036769196337
  0.8121178632867643  0.8733025882477469  0.6536904712623943
  0.1879552024306005  0.6245532138902153  0.7866964862090141
  0.0630220668596452  0.0404657429288656  0.7426058633836197
  0.0628912561027784  0.5401723356218053  0.6098590474165240
  0.5623695310306410  0.7081690397661909  0.8314957019651050
  0.4373407690247422  0.4543642342584904  0.3461371160950337
  0.1876090699384135  0.1208635858633959  0.3016890140180430
  0.3122623026628179  0.7068551970527204  0.6983711378570487
  0.3127326029229316  0.3733953088214619  0.6539016324274826
  0.8131326147370285  0.2058483105840314  0.5652133248588966
  0.3123731504071456  0.7043747712804581  0.3461855466910980
  0.0623748335853416  0.7040924847390463  0.3461627655363786
  0.6873093468107446  0.7878322987734696  0.3901212714178550
  0.1874814681809645  0.2904466509613508  0.7425170270481343
  0.5622127446474314  0.7068205103320333  0.6983308796497506
  0.5622239362198371  0.7036426901313995  0.2134489784314805
  0.6877963886665450  0.6206206240618850  0.3017690003273076
  0.1877916798649558  0.4569531717722529  0.6983272986962138
  0.3123360808673100  0.3718303726869704  0.4346509168310554
  0.3126085940075713  0.0381348993713447  0.3901810535678940
  0.4375312872995157  0.6207475645612627  0.3016877712913472
  0.9376098458436307  0.4555675933481906  0.4786953497916949
  0.0624877680232470  0.0396888005652767  0.6099027771800157
  0.1875321186081957  0.4563993908544455  0.5653005653044184
  0.5621473522246475  0.3730333538790474  0.6538153752874241
  0.8125374171972063  0.0402092558818529  0.6099218219084377
  0.1879858872812863  0.1196242430883786  0.1685395594330178
  0.1876702999696173  0.7863211057268368  0.1262106129217231
  0.4375702687555555  0.7893837332582463  0.6098361838645102
  0.3131228783176688  0.0411197778258906  0.8737071442337317
  0.8121258660540853  0.3736154472897227  0.6538987361720110
  0.4373926773518159  0.4550856282825030  0.4786135101062656
  0.4373212411303264  0.4537057184937216  0.2133321583974955
  0.8124039446872308  0.0374295982573891  0.1263224111244358
  0.8127802208393301  0.5371205817565892  0.2576248826202655
  0.9376856908400070  0.2881055373542162  0.3900473209197083
  0.9373473809018481  0.6206371536359528  0.3017298091198569
  0.0626660479614643  0.3720713403048820  0.4349561647424574
  0.3119246103395135  0.2058707859458064  0.5651671632498095
  0.4373971831522127  0.4568941351928134  0.6983501629784458
  0.9374164793688764  0.9539585526713358  0.3462033003276436
  0.6874635280346139  0.2901916640940747  0.7425213575948213
  0.0628772504406678  0.8723676719365736  0.5213160642376299
  0.8113558770349948  0.5362166990772234  0.1263572985049662
  0.6870357742874230  0.1203744454119189  0.1684891097698810
  0.8125514507339324  0.3740507706256779  0.7866798304520024
  0.5629698737653124  0.5362019377641853  0.1263519917775268
  0.4371474054601977  0.6225590268130777  0.6538169834366713
  0.3125517870682153  0.5381503629662188  0.3901147701039129
  0.5618510548265330  0.0410133990623152  0.8737036854616901
  0.1877223693450312  0.1219858141787081  0.4347218507138190
  0.1880173693783067  0.1243503614608516  0.7867606712097507
  0.8128687328849964  0.2074100268821568  0.8316535241800511
  0.1870922752140144  0.6225441690850092  0.5213641256699015
  0.4374266187912844  0.7914413338994203  0.7424274622607778
  0.8120522754086810  0.0404434893837748  0.7425092840975013
  0.3126366444821482  0.8704327930346814  0.1684582773576164
  0.1879676883476384  0.2920544879408423  0.8735952194243337
  0.5625513896991985  0.8731729822457013  0.6539868107733945
  0.8119815561264683  0.8711605748277287  0.3015869197014661
  0.5623863255531361  0.3704653484461127  0.3015868707595448
  0.0621434641648755  0.2072846397413191  0.8316303668127204
  0.1873519513936589  0.2880921465300594  0.3901113438128541
  0.0627628841330362  0.0372369349736102  0.2576062800106813
  0.5621808168275637  0.2076450396448874  0.8314401985957088
  0.9377945269613946  0.4532210382181802  0.2134671589050310
  0.5628610512469261  0.5409108502548813  0.8735714424351302
  0.6875357323098228  0.2900469357020877  0.6099304959794142
  0.3132276480403262  0.3707825127050778  0.3017390977230786
  0.8124629115976036  0.8716201200204948  0.4347756839638959
  0.8125122146222015  0.3717321352315591  0.4350604604757398
  0.1875758859164854  0.7912049378315126  0.8735932519913077
  0.8133654234430500  0.0411433014902284  0.8736417348410069
  0.9373760166856068  0.1196783259371786  0.1682863272857857
  0.1875642846428996  0.4533772475519227  0.2133449766283985
  0.0626071714135108  0.3736598004813224  0.6538102601016300
  0.9374582327362319  0.4544772252791677  0.3462225433844657
  0.0626550270606070  0.2039518761698989  0.2133348216991710
  0.9374752995722385  0.7905401399896267  0.8736918105824619
  0.4376451701716057  0.7863284240183768  0.1263637684582794
  0.6868576021360502  0.9572099415255926  0.6982495742074707
  0.6881147712382136  0.1209740058887494  0.3016921752210094
  0.9376561017445058  0.1235561546009854  0.6539283659178655
  0.0628146465258571  0.7072104100548600  0.6983333324386100
  0.1875525135346829  0.9570350805616987  0.8314816987050886
  0.6877389887608324  0.7904706360074285  0.7424829606862452
  0.0623546222013330  0.5410164921350544  0.8736472963370320
  0.0623824259409778  0.3740724005246849  0.7866139379567602
  0.6862866205137396  0.7865253929636891  0.1263382462349107
  0.8128928302062208  0.2048684740182311  0.3462986043744957
  0.3123385209365503  0.7061933954902958  0.5651024495226546
  0.3125980386391893  0.8720228865127732  0.4346631511995589
  0.9374436651321640  0.9577695051005150  0.8315404773064443
  0.3122717280101797  0.5359289928765608  0.1263723085177544
  0.5625355474356778  0.3747953738905351  0.7866970859268674
  0.8128320351083884  0.7045844953452171  0.3462267472993162
  0.6875966600066468  0.4538061550604344  0.2133909623718790
  0.1874851964126283  0.6233492674535234  0.6538570746643552
  0.4374858304306845  0.2912325403053651  0.8736331864250045
  0.8125248010501175  0.7072099047025551  0.8315331963569073
  0.1868749420783315  0.6203139769914860  0.1682891993454914
  0.6872843582231800  0.9552900338632193  0.4785156858564978
  0.9379239087094930  0.6213726692022858  0.1682924535900247
  0.1876595793404489  0.4543618632600832  0.3461951745682431
  0.4374633580201784  0.7916734571558731  0.8736497672898752
  0.8128050593675196  0.2053035857193572  0.4786946512537223
  0.0634626004886205  0.5366836147685572  0.1263420831572586
  0.4374751383469090  0.4559013474738987  0.5652246387375565
  0.1871294986610047  0.4574653632665008  0.8315160611204856
  0.8124666914038655  0.7053060217306282  0.4786159855282357
  0.5630002700721668  0.7059100182311855  0.5652068384276271
  0.5626289667565118  0.8741918077862628  0.7866710369951648
  0.9375565420864209  0.6230619059661368  0.5213293232570411
  0.6880126095210897  0.6203577765670617  0.1683195661348475
  0.9372191358636796  0.2866989625909054  0.1264638088215378
  0.3121439121058694  0.5373010488204610  0.2575874562939650
  0.4373524329027900  0.2904457074812845  0.7425543658447789
  0.8123769645320923  0.5400437945261318  0.6099001315532154
  0.5626365028257329  0.0394528767968708  0.6099297045016145
  0.9377588219897540  0.7877621217531329  0.3901436868546449
  0.6872689560863366  0.4549470252216409  0.3461715645897315
  0.5624771873533906  0.8710070197731431  0.3016547844229794
  0.3122427422186100  0.8741594184156352  0.7866198868311618
  0.1875964512659937  0.9556310083804944  0.4785193334352160
  0.8123547758438130  0.8737897247943935  0.7866926764372548
  0.3120681055310257  0.2043220403097569  0.3462016883103561
  0.5624798253871752  0.7044390669213229  0.3462207580381377
  0.9379187832127076  0.6233670504562121  0.6538252263136850
  0.0624198042310313  0.0370800859696351  0.1262201217300416
  0.4375139217684897  0.9572485991223415  0.6983064556888420
  0.4372008440083810  0.6206482306741050  0.1685588509526414
  0.3121050784681695  0.5408895241032329  0.8735570611648320
  0.8129738717066349  0.7040202219973238  0.2132850200848069
  0.3121536373067335  0.0393335300201373  0.6099597724652221
  0.5627000198549016  0.7053360073235861  0.4785772700022569
  0.4373214019603801  0.6216933196578236  0.4350027723451688
  0.8120711590183920  0.2076105877463180  0.6983667127930789
  0.4375837983683380  0.9553312710632818  0.4786217091540435
  0.6870423753254684  0.6247787731793403  0.7866809384102054
  0.9375046296577296  0.1207828203227566  0.3018071070770271
  0.1880334935726249  0.9537040524449691  0.2134889435773815
  0.9375214563531983  0.4573623142878686  0.6982272414399101
  0.4374962511959061  0.2870598308288373  0.2575814312892412
  0.3127894802062179  0.8732215213123147  0.6539217257507641
  0.0625078479619180  0.7071032362679672  0.8315621134114956
  0.9375524788986602  0.7901023058862723  0.6098009367366700
  0.3128362903083021  0.3702400444479784  0.1686065283788885
  0.9375010084622283  0.4574869311067179  0.8313452441046137
  0.3126818745218278  0.8725178410532390  0.5213094875688691
  0.3119974744556759  0.0370384047432726  0.2574953323653478
  0.4374446670253406  0.2894139022618422  0.6100269741140296
  0.5628352012715031  0.0368522367274818  0.1264048802776552
  0.5621490808422924  0.0379973877957265  0.3901390311918120
  0.8120053418946910  0.3708094735092739  0.3016262161123669
  0.6870632112434598  0.2921362522114115  0.8735942527058026
  0.0628111017426177  0.7056034573193094  0.5650683299136300
  0.6880749339337008  0.6224445008392072  0.5213898787254434
  0.5625815524373466  0.3714495268136368  0.4346050090171507
  0.5619436958917158  0.0406648044636362  0.7425257225131117
  0.5625796345155490  0.8715388485758556  0.4347658606641349
  0.0626541242742411  0.2064425344676697  0.5651417865722049
  0.4374239914580165  0.9544849166166878  0.3461824154603655
  0.5627172806553413  0.3710072995758479  0.1686149107415882
  0.3125891666783582  0.7031419024311961  0.2132430558248755
  0.4375876601189185  0.7871446333265633  0.2574949897919867
  0.4369805575395220  0.9533100031598976  0.2133201321947446
  0.1877028178776386  0.9572922428404251  0.6982457676435917
  0.6867084529668021  0.7898262819678670  0.6099414311859018
  0.9375198870904572  0.6239102446588746  0.7867850208658052
  0.8127353087156853  0.5410316359231312  0.8736554085723360
  0.4374762876018834  0.1249622678960176  0.7866016150818400
  0.3122890177549462  0.7054617377590958  0.4785197290190999
  0.5620183453614752  0.5401748645074010  0.6098797747932935
  0.1879517496534474  0.4557793315933936  0.4786144847262156
  0.1872946366270067  0.7910969435736420  0.7424309466122541
  0.6871331807924455  0.4556634978133379  0.4785763081385632
  0.3128378583901907  0.2033654018610989  0.2132411352370780
  0.6873511001075736  0.6230512322085299  0.6538168434105697
  0.8129477240754809  0.0367802633941152  0.2576310681403350
  0.6872972642693991  0.4559244905197020  0.5651346175916422
  0.3121340735691088  0.2057674734803640  0.4785861912624114
  0.3124309073878137  0.3719352101377184  0.5214304316663914
  0.0623927804083546  0.2040123815027853  0.3461597811953682
  0.3121447689932514  0.5407954398206029  0.7424363949906768
  0.5623011814185033  0.8725500143469496  0.5214141076565596
  0.4371130118980558  0.1209453486910467  0.3017872492436857
  0.6878838505209868  0.4573652037805139  0.8315186137336776
  0.6874434850461889  0.2880120813339617  0.3902234822023528
  0.6873141465421722  0.9549111268898911  0.3461736870518410
  0.3127029992294008  0.5401621300409543  0.6099384100418697
  0.6873939066606767  0.9570996769331905  0.8315302936689108
  0.8125850399923028  0.7058393681756535  0.5650313787452387
  0.3125294059450098  0.7081398558239894  0.8314585389168512
  0.5625535640013691  0.8707032891659710  0.1685144512771453
  0.0627575681437976  0.2067511848589595  0.6982724002368623
  0.9374303225719678  0.9539889422704513  0.2135285981724450
  0.9375213556366170  0.6220402849259773  0.4346265865970159
  0.0617335653499215  0.0412900487982107  0.8736068081262361
  0.6875592016107920  0.1219610884091940  0.5213782935393663
  0.6867854096611242  0.2870663223961797  0.2574317409279229
  0.4375027244474232  0.4578368970108775  0.8314073530785133
  0.0625716485770510  0.7031988130806366  0.2132628062314563
  0.1876208919558172  0.2900114329107000  0.6099428209545630
  0.4377137962785814  0.2881843801791521  0.3901320796027558
  0.0623458872759049  0.2051787109921339  0.4786916298156064
  0.8121633572836751  0.2036978639698512  0.2133464071239054
  0.5625028545430814  0.2035852496242787  0.2133189221633316
  0.1879170668684218  0.2869623404944076  0.1264289777096680
  0.3131617144576903  0.0409514188595627  0.7425381686032828
  0.6872826486005467  0.2874379332811717  0.1263173318673536
  0.3120247211515760  0.0369699670296135  0.1264639435717095
  0.3123924616414211  0.3748743103719517  0.7866220877433741
  0.9375377611191168  0.9555553293667233  0.5650239487087638
  0.5620050868739399  0.5380604178470507  0.3899558721341966
  0.3132875673084677  0.8711121244478908  0.3016727079058840
  0.4373245211338880  0.1219583771170603  0.4348461664243364
  0.9376432492315838  0.2903670616930797  0.7424878944359597
  0.3127853580021218  0.2075787511152143  0.8313854048518478
  0.4375232734978481  0.1222863629391107  0.5213645794900189
  0.9375177665475525  0.2908822110873371  0.8737658733862256
  0.1876270750471909  0.6207650909753165  0.3016637894597370
  0.4375716715143286  0.7877174808054709  0.3900751836426927
  0.1877996383926227  0.7901096307676838  0.6099341287951461
  0.0627990522510634  0.8740556572511887  0.7867650254095684
  0.1878177075653837  0.2877571113137971  0.2575564362719108
  0.9375687435316452  0.1214858985576310  0.4346488853372573
  0.1873330003960081  0.9557681686145899  0.5650621046701337
  0.9375057893642551  0.1222302899500668  0.5213578905616998
  0.9375779510108523  0.9553414426973533  0.4785753293188156
  0.9375349554402080  0.7910709203944593  0.7425975076804997
  0.9373661754021451  0.4567819714623045  0.5651620739439186
  0.1875751875087706  0.9537205814271958  0.3460972712012619
  0.1877120205585234  0.1220321707567631  0.5213520096316366
  0.4374800972270054  0.2864924899057082  0.1264441728654011
  0.0631482434490852  0.0378306001070497  0.3901714402593586
  0.6868561905897030  0.1242479855725107  0.7867449978947268
  0.6867646428611082  0.7871088539371305  0.2574701919523520
  0.5627415339751148  0.5407182084636110  0.7424417036517668
  0.6869840772247002  0.4574946442343247  0.6983977637129476
  0.8118908738388733  0.3703832897092353  0.1686027693081304
  0.1873751280019899  0.1235528703655888  0.6538811998110760
  0.1876770892324155  0.7878759261790005  0.3901175911874538
  0.5627132740625940  0.3721742576016663  0.5213783358286477
  0.0625450028174679  0.8721198320580784  0.4347296673890743
  0.4374096589369121  0.6249315211736540  0.7867201657151874
  0.0624789530947595  0.3697687621681157  0.1686438631431194
  0.3123549215187560  0.2072825891285200  0.6983349434132459
  0.6878324556372384  0.6215056445260803  0.4345596834181967
  0.0630697651970088  0.5376338871701259  0.3902222507571578
  0.4375278533852450  0.1209919263922309  0.1686320616399306
  0.8120268055810920  0.8723765939463985  0.5212601338962847
  0.1873696695392210  0.6220433563533370  0.4346080839911165
  0.0626736045193613  0.7052691034778059  0.4786261305066994
  0.6874645355780454  0.1214705647074719  0.4347182151708849
  0.6875075546329563  0.7910892450378822  0.8736076340279255
  0.8121233522764022  0.0383053075753697  0.3900963500830822
  0.5627239950190793  0.2042182207366693  0.3463264652844700
  0.5624704148400274  0.0372585917009386  0.2574837163382505
  0.0632005228603517  0.3718235176334972  0.5213240241122084
  0.5632332886571391  0.2065358531457274  0.5652267575193326
  0.0630367224986195  0.5406953954709023  0.7425232058742927
  0.4367930837333459  0.9548702103211018  0.5651683926910155
  0.8125809703558624  0.5379549599135142  0.3900865516311956
  0.8127521252619772  0.7071532534374415  0.6981776948529631
  0.8117142953349817  0.3716572761940526  0.5213419759703627
  0.0629175825101988  0.3711206333784539  0.3017258024525101
  0.4376386221463914  0.9578718409545105  0.8319638887254709
  0.9375517298140464  0.1239542124276162  0.7865425521176428
  0.9373933833633132  0.2875848882284534  0.2572784001456550
  0.9369465378477644  0.7870713731488482  0.2571601825472442
  0.0625113268980357  0.8729653718323700  0.6534967586806536
  0.4374684927802031  0.6226655892729909  0.5213033499968434
  0.9371248331974892  0.2906904157264308  0.6099271698475890
  0.9370818863119773  0.9581215113501679  0.6985427228432833
  0.9380297065471417  0.7866425368332162  0.1264076609363290
  0.6880853928812637  0.1238756656547534  0.6538422856960001
  0.0621546743008159  0.8698564479919457  0.1679809082254311
  0.8115566553045428  0.5399586660825539  0.7426863420859363
  0.6876690754285768  0.9535456174123776  0.2136002047865999
  0.0630310522206616  0.8707216132006189  0.3017964224383133
 
  0.00000000E+00  0.00000000E+00  0.00000000E+00
  0.00000000E+00  0.00000000E+00  0.00000000E+00
  0.00000000E+00  0.00000000E+00  0.00000000E+00
  0.00000000E+00  0.00000000E+00  0.00000000E+00
  0.00000000E+00  0.00000000E+00  0.00000000E+00
  0.00000000E+00  0.00000000E+00  0.00000000E+00
  0.00000000E+00  0.00000000E+00  0.00000000E+00
  0.00000000E+00  0.00000000E+00  0.00000000E+00
  0.00000000E+00  0.00000000E+00  0.00000000E+00
  0.00000000E+00  0.00000000E+00  0.00000000E+00
  0.00000000E+00  0.00000000E+00  0.00000000E+00
  0.00000000E+00  0.00000000E+00  0.00000000E+00
  0.00000000E+00  0.00000000E+00  0.00000000E+00
  0.00000000E+00  0.00000000E+00  0.00000000E+00
  0.00000000E+00  0.00000000E+00  0.00000000E+00
  0.00000000E+00  0.00000000E+00  0.00000000E+00
  0.00000000E+00  0.00000000E+00  0.00000000E+00
  0.00000000E+00  0.00000000E+00  0.00000000E+00
  0.00000000E+00  0.00000000E+00  0.00000000E+00
  0.00000000E+00  0.00000000E+00  0.00000000E+00
  0.00000000E+00  0.00000000E+00  0.00000000E+00
  0.00000000E+00  0.00000000E+00  0.00000000E+00
  0.00000000E+00  0.00000000E+00  0.00000000E+00
  0.00000000E+00  0.00000000E+00  0.00000000E+00
  0.00000000E+00  0.00000000E+00  0.00000000E+00
  0.00000000E+00  0.00000000E+00  0.00000000E+00
  0.00000000E+00  0.00000000E+00  0.00000000E+00
  0.00000000E+00  0.00000000E+00  0.00000000E+00
  0.00000000E+00  0.00000000E+00  0.00000000E+00
  0.00000000E+00  0.00000000E+00  0.00000000E+00
  0.00000000E+00  0.00000000E+00  0.00000000E+00
  0.00000000E+00  0.00000000E+00  0.00000000E+00
  0.00000000E+00  0.00000000E+00  0.00000000E+00
  0.00000000E+00  0.00000000E+00  0.00000000E+00
  0.00000000E+00  0.00000000E+00  0.00000000E+00
  0.00000000E+00  0.00000000E+00  0.00000000E+00
  0.00000000E+00  0.00000000E+00  0.00000000E+00
  0.00000000E+00  0.00000000E+00  0.00000000E+00
  0.00000000E+00  0.00000000E+00  0.00000000E+00
  0.00000000E+00  0.00000000E+00  0.00000000E+00
  0.00000000E+00  0.00000000E+00  0.00000000E+00
  0.00000000E+00  0.00000000E+00  0.00000000E+00
  0.00000000E+00  0.00000000E+00  0.00000000E+00
  0.00000000E+00  0.00000000E+00  0.00000000E+00
  0.00000000E+00  0.00000000E+00  0.00000000E+00
  0.00000000E+00  0.00000000E+00  0.00000000E+00
  0.00000000E+00  0.00000000E+00  0.00000000E+00
  0.00000000E+00  0.00000000E+00  0.00000000E+00
  0.00000000E+00  0.00000000E+00  0.00000000E+00
  0.00000000E+00  0.00000000E+00  0.00000000E+00
  0.00000000E+00  0.00000000E+00  0.00000000E+00
  0.00000000E+00  0.00000000E+00  0.00000000E+00
  0.00000000E+00  0.00000000E+00  0.00000000E+00
  0.00000000E+00  0.00000000E+00  0.00000000E+00
  0.00000000E+00  0.00000000E+00  0.00000000E+00
  0.00000000E+00  0.00000000E+00  0.00000000E+00
  0.00000000E+00  0.00000000E+00  0.00000000E+00
  0.00000000E+00  0.00000000E+00  0.00000000E+00
  0.00000000E+00  0.00000000E+00  0.00000000E+00
  0.00000000E+00  0.00000000E+00  0.00000000E+00
  0.00000000E+00  0.00000000E+00  0.00000000E+00
  0.00000000E+00  0.00000000E+00  0.00000000E+00
  0.00000000E+00  0.00000000E+00  0.00000000E+00
  0.00000000E+00  0.00000000E+00  0.00000000E+00
  0.00000000E+00  0.00000000E+00  0.00000000E+00
  0.00000000E+00  0.00000000E+00  0.00000000E+00
  0.00000000E+00  0.00000000E+00  0.00000000E+00
  0.00000000E+00  0.00000000E+00  0.00000000E+00
  0.00000000E+00  0.00000000E+00  0.00000000E+00
  0.00000000E+00  0.00000000E+00  0.00000000E+00
  0.00000000E+00  0.00000000E+00  0.00000000E+00
  0.00000000E+00  0.00000000E+00  0.00000000E+00
  0.00000000E+00  0.00000000E+00  0.00000000E+00
  0.00000000E+00  0.00000000E+00  0.00000000E+00
  0.00000000E+00  0.00000000E+00  0.00000000E+00
  0.00000000E+00  0.00000000E+00  0.00000000E+00
  0.00000000E+00  0.00000000E+00  0.00000000E+00
  0.00000000E+00  0.00000000E+00  0.00000000E+00
  0.00000000E+00  0.00000000E+00  0.00000000E+00
  0.00000000E+00  0.00000000E+00  0.00000000E+00
  0.00000000E+00  0.00000000E+00  0.00000000E+00
  0.00000000E+00  0.00000000E+00  0.00000000E+00
  0.00000000E+00  0.00000000E+00  0.00000000E+00
  0.00000000E+00  0.00000000E+00  0.00000000E+00
  0.00000000E+00  0.00000000E+00  0.00000000E+00
  0.00000000E+00  0.00000000E+00  0.00000000E+00
  0.00000000E+00  0.00000000E+00  0.00000000E+00
  0.00000000E+00  0.00000000E+00  0.00000000E+00
  0.00000000E+00  0.00000000E+00  0.00000000E+00
  0.00000000E+00  0.00000000E+00  0.00000000E+00
  0.00000000E+00  0.00000000E+00  0.00000000E+00
  0.00000000E+00  0.00000000E+00  0.00000000E+00
  0.00000000E+00  0.00000000E+00  0.00000000E+00
  0.00000000E+00  0.00000000E+00  0.00000000E+00
  0.00000000E+00  0.00000000E+00  0.00000000E+00
  0.00000000E+00  0.00000000E+00  0.00000000E+00
  0.00000000E+00  0.00000000E+00  0.00000000E+00
  0.00000000E+00  0.00000000E+00  0.00000000E+00
  0.00000000E+00  0.00000000E+00  0.00000000E+00
  0.00000000E+00  0.00000000E+00  0.00000000E+00
  0.00000000E+00  0.00000000E+00  0.00000000E+00
  0.00000000E+00  0.00000000E+00  0.00000000E+00
  0.00000000E+00  0.00000000E+00  0.00000000E+00
  0.00000000E+00  0.00000000E+00  0.00000000E+00
  0.00000000E+00  0.00000000E+00  0.00000000E+00
  0.00000000E+00  0.00000000E+00  0.00000000E+00
  0.00000000E+00  0.00000000E+00  0.00000000E+00
  0.00000000E+00  0.00000000E+00  0.00000000E+00
  0.00000000E+00  0.00000000E+00  0.00000000E+00
  0.00000000E+00  0.00000000E+00  0.00000000E+00
  0.00000000E+00  0.00000000E+00  0.00000000E+00
  0.00000000E+00  0.00000000E+00  0.00000000E+00
  0.00000000E+00  0.00000000E+00  0.00000000E+00
  0.00000000E+00  0.00000000E+00  0.00000000E+00
  0.00000000E+00  0.00000000E+00  0.00000000E+00
  0.00000000E+00  0.00000000E+00  0.00000000E+00
  0.00000000E+00  0.00000000E+00  0.00000000E+00
  0.00000000E+00  0.00000000E+00  0.00000000E+00
  0.00000000E+00  0.00000000E+00  0.00000000E+00
  0.00000000E+00  0.00000000E+00  0.00000000E+00
  0.00000000E+00  0.00000000E+00  0.00000000E+00
  0.00000000E+00  0.00000000E+00  0.00000000E+00
  0.00000000E+00  0.00000000E+00  0.00000000E+00
  0.00000000E+00  0.00000000E+00  0.00000000E+00
  0.00000000E+00  0.00000000E+00  0.00000000E+00
  0.00000000E+00  0.00000000E+00  0.00000000E+00
  0.00000000E+00  0.00000000E+00  0.00000000E+00
  0.00000000E+00  0.00000000E+00  0.00000000E+00
  0.00000000E+00  0.00000000E+00  0.00000000E+00
  0.00000000E+00  0.00000000E+00  0.00000000E+00
  0.00000000E+00  0.00000000E+00  0.00000000E+00
  0.00000000E+00  0.00000000E+00  0.00000000E+00
  0.00000000E+00  0.00000000E+00  0.00000000E+00
  0.00000000E+00  0.00000000E+00  0.00000000E+00
  0.00000000E+00  0.00000000E+00  0.00000000E+00
  0.00000000E+00  0.00000000E+00  0.00000000E+00
  0.00000000E+00  0.00000000E+00  0.00000000E+00
  0.00000000E+00  0.00000000E+00  0.00000000E+00
  0.00000000E+00  0.00000000E+00  0.00000000E+00
  0.00000000E+00  0.00000000E+00  0.00000000E+00
  0.00000000E+00  0.00000000E+00  0.00000000E+00
  0.00000000E+00  0.00000000E+00  0.00000000E+00
  0.00000000E+00  0.00000000E+00  0.00000000E+00
  0.00000000E+00  0.00000000E+00  0.00000000E+00
  0.00000000E+00  0.00000000E+00  0.00000000E+00
  0.00000000E+00  0.00000000E+00  0.00000000E+00
  0.00000000E+00  0.00000000E+00  0.00000000E+00
  0.00000000E+00  0.00000000E+00  0.00000000E+00
  0.00000000E+00  0.00000000E+00  0.00000000E+00
  0.00000000E+00  0.00000000E+00  0.00000000E+00
  0.00000000E+00  0.00000000E+00  0.00000000E+00
  0.00000000E+00  0.00000000E+00  0.00000000E+00
  0.00000000E+00  0.00000000E+00  0.00000000E+00
  0.00000000E+00  0.00000000E+00  0.00000000E+00
  0.00000000E+00  0.00000000E+00  0.00000000E+00
  0.00000000E+00  0.00000000E+00  0.00000000E+00
  0.00000000E+00  0.00000000E+00  0.00000000E+00
  0.00000000E+00  0.00000000E+00  0.00000000E+00
  0.00000000E+00  0.00000000E+00  0.00000000E+00
  0.00000000E+00  0.00000000E+00  0.00000000E+00
  0.00000000E+00  0.00000000E+00  0.00000000E+00
  0.00000000E+00  0.00000000E+00  0.00000000E+00
  0.00000000E+00  0.00000000E+00  0.00000000E+00
  0.00000000E+00  0.00000000E+00  0.00000000E+00
  0.00000000E+00  0.00000000E+00  0.00000000E+00
  0.00000000E+00  0.00000000E+00  0.00000000E+00
  0.00000000E+00  0.00000000E+00  0.00000000E+00
  0.00000000E+00  0.00000000E+00  0.00000000E+00
  0.00000000E+00  0.00000000E+00  0.00000000E+00
  0.00000000E+00  0.00000000E+00  0.00000000E+00
  0.00000000E+00  0.00000000E+00  0.00000000E+00
  0.00000000E+00  0.00000000E+00  0.00000000E+00
  0.00000000E+00  0.00000000E+00  0.00000000E+00
  0.00000000E+00  0.00000000E+00  0.00000000E+00
  0.00000000E+00  0.00000000E+00  0.00000000E+00
  0.00000000E+00  0.00000000E+00  0.00000000E+00
  0.00000000E+00  0.00000000E+00  0.00000000E+00
  0.00000000E+00  0.00000000E+00  0.00000000E+00
  0.00000000E+00  0.00000000E+00  0.00000000E+00
  0.00000000E+00  0.00000000E+00  0.00000000E+00
  0.00000000E+00  0.00000000E+00  0.00000000E+00
  0.00000000E+00  0.00000000E+00  0.00000000E+00
  0.00000000E+00  0.00000000E+00  0.00000000E+00
  0.00000000E+00  0.00000000E+00  0.00000000E+00
  0.00000000E+00  0.00000000E+00  0.00000000E+00
  0.00000000E+00  0.00000000E+00  0.00000000E+00
  0.00000000E+00  0.00000000E+00  0.00000000E+00
  0.00000000E+00  0.00000000E+00  0.00000000E+00
  0.00000000E+00  0.00000000E+00  0.00000000E+00
  0.00000000E+00  0.00000000E+00  0.00000000E+00
  0.00000000E+00  0.00000000E+00  0.00000000E+00
  0.00000000E+00  0.00000000E+00  0.00000000E+00
  0.00000000E+00  0.00000000E+00  0.00000000E+00
  0.00000000E+00  0.00000000E+00  0.00000000E+00
  0.00000000E+00  0.00000000E+00  0.00000000E+00
  0.00000000E+00  0.00000000E+00  0.00000000E+00
  0.00000000E+00  0.00000000E+00  0.00000000E+00
  0.00000000E+00  0.00000000E+00  0.00000000E+00
  0.00000000E+00  0.00000000E+00  0.00000000E+00
  0.00000000E+00  0.00000000E+00  0.00000000E+00
  0.00000000E+00  0.00000000E+00  0.00000000E+00
  0.00000000E+00  0.00000000E+00  0.00000000E+00
  0.00000000E+00  0.00000000E+00  0.00000000E+00
  0.00000000E+00  0.00000000E+00  0.00000000E+00
  0.00000000E+00  0.00000000E+00  0.00000000E+00
  0.00000000E+00  0.00000000E+00  0.00000000E+00
  0.00000000E+00  0.00000000E+00  0.00000000E+00
  0.00000000E+00  0.00000000E+00  0.00000000E+00
  0.00000000E+00  0.00000000E+00  0.00000000E+00
  0.00000000E+00  0.00000000E+00  0.00000000E+00
  0.00000000E+00  0.00000000E+00  0.00000000E+00
  0.00000000E+00  0.00000000E+00  0.00000000E+00
  0.00000000E+00  0.00000000E+00  0.00000000E+00
  0.00000000E+00  0.00000000E+00  0.00000000E+00
  0.00000000E+00  0.00000000E+00  0.00000000E+00
  0.00000000E+00  0.00000000E+00  0.00000000E+00
  0.00000000E+00  0.00000000E+00  0.00000000E+00
  0.00000000E+00  0.00000000E+00  0.00000000E+00
  0.00000000E+00  0.00000000E+00  0.00000000E+00
  0.00000000E+00  0.00000000E+00  0.00000000E+00
  0.00000000E+00  0.00000000E+00  0.00000000E+00
  0.00000000E+00  0.00000000E+00  0.00000000E+00
  0.00000000E+00  0.00000000E+00  0.00000000E+00
  0.00000000E+00  0.00000000E+00  0.00000000E+00
  0.00000000E+00  0.00000000E+00  0.00000000E+00
  0.00000000E+00  0.00000000E+00  0.00000000E+00
  0.00000000E+00  0.00000000E+00  0.00000000E+00
  0.00000000E+00  0.00000000E+00  0.00000000E+00
  0.00000000E+00  0.00000000E+00  0.00000000E+00
  0.00000000E+00  0.00000000E+00  0.00000000E+00
  0.00000000E+00  0.00000000E+00  0.00000000E+00
  0.00000000E+00  0.00000000E+00  0.00000000E+00
  0.00000000E+00  0.00000000E+00  0.00000000E+00
  0.00000000E+00  0.00000000E+00  0.00000000E+00
  0.00000000E+00  0.00000000E+00  0.00000000E+00
  0.00000000E+00  0.00000000E+00  0.00000000E+00
  0.00000000E+00  0.00000000E+00  0.00000000E+00
  0.00000000E+00  0.00000000E+00  0.00000000E+00
  0.00000000E+00  0.00000000E+00  0.00000000E+00
  0.00000000E+00  0.00000000E+00  0.00000000E+00
  0.00000000E+00  0.00000000E+00  0.00000000E+00
  0.00000000E+00  0.00000000E+00  0.00000000E+00
  0.00000000E+00  0.00000000E+00  0.00000000E+00
  0.00000000E+00  0.00000000E+00  0.00000000E+00
  0.00000000E+00  0.00000000E+00  0.00000000E+00
  0.00000000E+00  0.00000000E+00  0.00000000E+00
  0.00000000E+00  0.00000000E+00  0.00000000E+00