FeMn_288_15                             
    1.000000000000000     
     9.7266779999999997    0.0000000000000000    0.0000000000000000
     0.0000000000000000    8.4235500000000005    0.0000000000000000
     0.0000000000000000    0.0000000000000000   45.0000000000000000
   Fe   Mn
   273    15
Direct
  0.5621535121796299  0.3756587322293485  0.6545422668278299
  0.9380346954061638  0.4661877113768285  0.8337667430758643
  0.4379103236202299  0.8010774764794446  0.8758974379951593
  0.1874557050300699  0.7911753923285436  0.6103291339961606
  0.0623357618603294  0.8813498783897302  0.7885278502703161
  0.6871385593382753  0.2769471892449619  0.1243688086358851
  0.8127796390007402  0.7017358148869176  0.3451149469488253
  0.3123488683882708  0.7018461718059710  0.3451811112818300
  0.8125297447277613  0.2067031586098534  0.5653797970142188
  0.6877738882398170  0.9520260217806645  0.3452439001097401
  0.3122345305166955  0.5459113378541122  0.7440877213210066
  0.8123186710283845  0.0418995891750087  0.6101792413958032
  0.5615902263213689  0.7107024693773404  0.6995565307666116
  0.3123429005660891  0.2066673704649924  0.5654192445548376
  0.1876608331972978  0.1217987441517292  0.4343019508379407
  0.9374530454124603  0.7912436539213227  0.6103138292800609
  0.1873662663597953  0.2864630493796105  0.3893685240860832
  0.3128818869745995  0.2167236836689297  0.8338132970950231
  0.4364423161017673  0.2766974032864361  0.1244999608103722
  0.3122594912906019  0.5406281866332134  0.6104729901687022
  0.5627346765859100  0.0366479690491731  0.3895483268747860
  0.3122106044841551  0.3726216063832940  0.5212697836953418
  0.3124317155469876  0.3711081842384432  0.4342615266785773
  0.8124106740884243  0.8810411712337622  0.7886312798594327
  0.0613575984721190  0.8730079636028741  0.5211193219572280
  0.6874844847830492  0.6227245273835212  0.5212793709821595
  0.5624480598375690  0.5321964362406176  0.2560955561448792
  0.9374840727891030  0.4517943541836880  0.3452854795750231
  0.5620362893191472  0.5410496542100808  0.6102217128723629
  0.8129294986248006  0.6970321404417126  0.2112665879616007
  0.4376466911337957  0.4564319670759422  0.5652766799989342
  0.6877541229580303  0.2864863630540509  0.3894232571660912
  0.6876477746241726  0.6312148897448255  0.7886762404828882
  0.0622379804152892  0.3714165280060732  0.4342235154410841
  0.9375758533637069  0.7863591065118523  0.3894076107165556
  0.4371446148852998  0.1230391420365269  0.5212641129334339
  0.6873404425128563  0.7916472516536757  0.6103291876258879
  0.8126711304069103  0.0323652283767655  0.2560963831704008
  0.6875933961203056  0.1309828963455499  0.7885791895384319
  0.1875459773913887  0.4470787053125676  0.2116318618407902
  0.8125992204456162  0.5318907783177881  0.2559511150590685
  0.6878679804451527  0.1211402025433133  0.4342424131867411
  0.5627845144504848  0.2022373984837839  0.3452129027406888
  0.1878124497618706  0.9668447811631850  0.8337339705396751
  0.9375698528375893  0.6168510691178393  0.3005457644004996
  0.0622796358585270  0.3613195847783995  0.1668258236768101
  0.9375673276771248  0.9554011474295565  0.4783573128143101
  0.9374116052663600  0.7819411834027100  0.2559543310052610
  0.6877829020970840  0.1177740514279746  0.3005414863001684
  0.3134630646527039  0.7052079149726351  0.4782232495789724
  0.5624168841697129  0.8760697307424032  0.6546961554996997
  0.1872294225754914  0.1310921094144682  0.7885668312493669
  0.6876612548901802  0.9551221125672889  0.4781881603407510
  0.0627041283876495  0.7106188084556133  0.6995416220187313
  0.0628062933165222  0.5511959845035292  0.8759851839235580
  0.1875575068794365  0.7961978483581733  0.7441305107964146
  0.3118091464863574  0.0410398238363778  0.6103009500951834
  0.9377070058600945  0.6261368553632607  0.6546167435923042
  0.0624334833422272  0.3808779299146308  0.7886654757851562
  0.1875842439894762  0.2999374876084056  0.8759112405392180
  0.8133096822731172  0.7165006879585708  0.8337369469880629
  0.3122186703903355  0.3614590357010254  0.1669140587033464
  0.6884929634922899  0.8008591204331911  0.8758899383010113
  0.6874206676702196  0.2957767465650047  0.7440625009586480
  0.8129253030632421  0.2052176710316151  0.4781791944062463
  0.4369745086349520  0.2819255845580899  0.2560449880290404
  0.1875843820725066  0.9465085772052838  0.2116828219453777
  0.6878991809531210  0.4565051061768534  0.5653081627819926
  0.0628214438999524  0.7164557390984461  0.8337076504433140
  0.1872596076695517  0.9608463465881235  0.6995300459471424
  0.8124666366721673  0.5363105493078277  0.3893710964653696
  0.8118274475710220  0.7063004932564934  0.4783200448401064
  0.9374880383561680  0.2958211341249710  0.7441095848341677
  0.6868201987659441  0.4608899562589385  0.6995507630048134
  0.6873112054941722  0.9473148846819838  0.2116133883181034
  0.8123748002617267  0.8670052167278240  0.3006457677489568
  0.6872949241726137  0.6112569140056144  0.1665896412309646
  0.6876775063667913  0.6208461209258808  0.4342913582093584
  0.1873942034652027  0.6254002570490877  0.6545732987260621
  0.0628895370473677  0.0500510058600637  0.8760712678961322
  0.0623726881873468  0.0415561060755746  0.6104196143311912
  0.6875585228575930  0.4555077527033646  0.4782107691654908
  0.5626305536124048  0.3711575913336494  0.4342402826023062
  0.5620251314064464  0.1969251192498914  0.2115117238712219
  0.0629122015769837  0.3760430646432319  0.6546005262109034
  0.1880001912297218  0.2762132236312124  0.1244771986068913
  0.4374008711935687  0.7815600154741099  0.2559934133280232
  0.4371733352741429  0.9470056589371494  0.2116293732888607
  0.6874416192219952  0.1109500631792869  0.1666018273433774
  0.1872296771686195  0.4518319849287052  0.3452547833338111
  0.4373967797193816  0.4464382184375006  0.2115638900320616
  0.5632900985851514  0.2168030936194771  0.8338085884233238
  0.5624635195606505  0.3809754841346042  0.7885451510136320
  0.6882575980130009  0.2999378540917568  0.8760120520384724
  0.6883575055085188  0.4664390854790903  0.8338739829945099
  0.3125864612450518  0.0367681653697915  0.3895131761769449
  0.5625462555529613  0.7020275949609781  0.3452804936545109
  0.4370211885220558  0.4603397739044921  0.6995188888804942
  0.6871445463438061  0.2823155511761416  0.2560270072707573
  0.5623561288886980  0.2046466513385049  0.4781017622036894
  0.3123578189108691  0.2046528283298638  0.4782579905472889
  0.9375203126413081  0.4466000390606066  0.2114759098312185
  0.9375729796501848  0.1173213446839680  0.3005660916731279
  0.9370738810499044  0.1217197711255170  0.4343277444691870
  0.4373620022975561  0.1310404079761827  0.7885593062069634
  0.4371552347885638  0.7911721497361363  0.6103429041393391
  0.5627669158725427  0.2066809344157180  0.5653377009303590
  0.9380238618722285  0.7779990962371311  0.1243304342901975
  0.0629658881876953  0.2164144575333782  0.8336802430748808
  0.8120780872933050  0.3611487174657833  0.1666653978196564
  0.0623872670916541  0.8714388421110260  0.4340980217115180
  0.3127369604017377  0.5510508914785265  0.8758152030354135
  0.3119882193910156  0.3812207745265374  0.7886188384385198
  0.3116415166113926  0.0278552747180082  0.1243374953644677
  0.0625341475400903  0.7017027907196406  0.3453276055426389
  0.4373534917821348  0.9522804953415525  0.3453138381184368
  0.9372534705918492  0.4563239975454858  0.5654351313777989
  0.8132039779026220  0.2167756167456641  0.8336952336478107
  0.5625211807526368  0.0414710168102733  0.6103107658100981
  0.9382387765224462  0.9668413252506928  0.8336244645204508
  0.3117922424290323  0.2104489420533772  0.6995781305686377
  0.0621651731877895  0.8605651179439897  0.1667115620409821
  0.0625378539456237  0.3725665885615501  0.5212193358716815
  0.1872251169242023  0.7778375782294165  0.1241784509412512
  0.5622128577050762  0.8810987107265943  0.7886386696287879
  0.4376365819733940  0.4521339990108673  0.3452814758918692
  0.0624554395193395  0.5460855665972489  0.7440916411951191
  0.3123610326650083  0.3754638599163407  0.6545809990947646
  0.6873015526181340  0.2910388780068400  0.6102701145691516
  0.1871629978007324  0.9571061419155299  0.5655363059120404
  0.1875945798255666  0.1167979457847774  0.3005005735713462
  0.5630945017869039  0.5506811075807131  0.8758089460554135
  0.9379309136861482  0.9476057358367191  0.2116450072600954
  0.3124894180982309  0.8813337828582229  0.7885188666168513
  0.8127327736009514  0.3712888815897242  0.4342422508482147
  0.5622288878026263  0.3674187582530162  0.3006010372005788
  0.3122372077847556  0.0464197435470504  0.7440819554667153
  0.6871808380989253  0.1224793418246368  0.5213681036616850
  0.9372677679098510  0.6207893158342322  0.4342796308012657
  0.0630760956738890  0.3670525511229160  0.3007494725028345
  0.6878840566306457  0.4522165488045458  0.3453446242030899
  0.4374626127327240  0.1215793626960236  0.4341243090653491
  0.1874017316122756  0.6204799973684161  0.4340652283620195
  0.5625966639331352  0.5365794873707694  0.3895220280227064
  0.4380641383911187  0.3000417791973091  0.8758462014755447
  0.1876932900222738  0.6171017520689227  0.3005571312386130
  0.9374624758709016  0.1306498526545030  0.7886745026218189
  0.5623484903257281  0.7053267435748646  0.4782907122690634
  0.9372870594712102  0.6235584792496298  0.5212498706675166
  0.9373094184867935  0.2865281226124813  0.3894062028999121
  0.1873877613989353  0.7864225477547653  0.3894476087661954
  0.0623065960978934  0.0368054862667089  0.3894253896449495
  0.0627891967065614  0.5322859830368956  0.2560384062829957
  0.6881030010852986  0.9668694807239140  0.8338149853262266
  0.5634388884701514  0.7168592780289065  0.8337103454010402
  0.5622360166618660  0.7067362650252991  0.5653961804146024
  0.4376282515088269  0.6170168238063346  0.3004939304119308
  0.4373199842013969  0.6312054460301864  0.7884295372418554
  0.8122383881699625  0.3762302921484837  0.6546514322154041
  0.4372160619734358  0.7960904905337016  0.7440898266746315
  0.3127014365420760  0.7165856970787944  0.8336894483179880
  0.5626741346845501  0.8721018605913534  0.5211137635783921
  0.6875819403907373  0.6167508483313716  0.3004299984092616
  0.5626405243922372  0.3731294646342682  0.5213021879994850
  0.6874845145613853  0.4466118725398750  0.2114795678920273
  0.4374913723345532  0.1170847875870248  0.3004542834678859
  0.3123098559287270  0.0497582964228963  0.8759522685899027
  0.9371100463356250  0.9570148416644535  0.5654686896930438
  0.9373941334966274  0.6311029624819077  0.7886631236863137
  0.8125278285357587  0.0368161095092264  0.3896479822763591
  0.9380295599864802  0.2816625427389937  0.2560300654192889
  0.3123803933939215  0.3667441239187292  0.3006010124175577
  0.0625383445734714  0.5277680853405600  0.1243524798272020
  0.0629964675475502  0.1967227728131239  0.2115145144814427
  0.8128103879803253  0.3808333927085121  0.7887252201170991
  0.6878262940490194  0.9569677850015199  0.5652612576118735
  0.9379768020021449  0.1219460256510290  0.5211628938483671
  0.4371663603565477  0.2960486447806769  0.7441630147340342
  0.8135674015878815  0.0501736313610180  0.8759890637809388
  0.4372055332251679  0.6254367974797751  0.6548219983863893
  0.0633867928342263  0.0272662527774211  0.1243221385982483
  0.3124370251607666  0.8603649142512152  0.1666752976038265
  0.1878913711048511  0.4665720624400702  0.8337682412609351
  0.8125554175994212  0.0458702180497196  0.7440138675684308
  0.4377108016813507  0.6205605116421512  0.4342222404568065
  0.1875004698648579  0.4609135658173511  0.6995204548837757
  0.4372659360575946  0.6229057644283466  0.5213838133935532
  0.9367810502227445  0.1114058365150971  0.1667256256136345
  0.8125831896329118  0.5413878170944012  0.6102800109261876
  0.1879000310381101  0.2815359800748519  0.2560096134067816
  0.5623416034481362  0.0464093006954997  0.7441061150793793
  0.4375702099426001  0.4555182062141286  0.4782424492543301
  0.3124734996124005  0.2019169980024268  0.3452623144792428
  0.3123114571076653  0.0317957572089988  0.2559850197617630
  0.1875252375752840  0.2960069478091060  0.7441093702806444
  0.6877282851166298  0.7778087279011148  0.1245389225526298
  0.0624333316076887  0.5365861993879670  0.3895576590139873
  0.8130251371910266  0.8711766107399992  0.4341785425515982
  0.8134493938734482  0.5507877992808335  0.8759505705311739
  0.9383465866273512  0.8010685232396737  0.8760494087759216
  0.4377171622049414  0.2864887323305532  0.3894123753101736
  0.3118546540540428  0.8756459419560989  0.6546453643922557
  0.3127529102077248  0.8671001836517701  0.3005387981942158
  0.6875068443837798  0.9608730158278043  0.6995687679106425
  0.8128702182902993  0.8762058198337266  0.6544947735665542
  0.1874181837695760  0.6314630196765303  0.7886555546726726
  0.1873628583011905  0.6113358787213328  0.1667001784266548
  0.9373964843812140  0.2916143876300148  0.6103113275016396
  0.9376040760019079  0.9518909664616485  0.3453288107958337
  0.8119044903333653  0.8608602675556272  0.1667290499238912
  0.8124967381810347  0.3731429728385924  0.5212587302175461
  0.1871156708435888  0.1110787802395628  0.1668819999982582
  0.3123676312920814  0.5320004646739436  0.2559663000011299
  0.4372426721102529  0.2908012115170788  0.6103581110027512
  0.3126026223732698  0.5366097396425147  0.3893761698945075
  0.3122250728156797  0.5268551671289768  0.1243179384390715
  0.5632889563047622  0.0499227784065811  0.8759493773782847
  0.0623261367501068  0.8758322715813139  0.6546451860689920
  0.3118619295233846  0.8711301664312179  0.4344757510824251
  0.1876156191351763  0.1225171385451936  0.5213025512217232
  0.8125324812407079  0.0279128598495540  0.1243625820092639
  0.5623903191187208  0.5265402034040314  0.1243918542036993
  0.8126517478434039  0.2018595726978973  0.3453114042714246
  0.0622290082458922  0.2017837539506100  0.3452571981823906
  0.0624681922103562  0.0460759911220933  0.7440662030421602
  0.9377519304555698  0.1262772711990146  0.6545525505327551
  0.1870121481808328  0.9560319400296570  0.4782878782505993
  0.6875325697360172  0.7817276100447909  0.2560338503911591
  0.5623767837161383  0.8610276640100302  0.1667629947149460
  0.9374840325835986  0.9606634636924122  0.6994733036248161
  0.8124529805668105  0.7067451127984823  0.5653481713792116
  0.1872992255821960  0.2907964089343252  0.6103167265122436
  0.0628457375635391  0.7064475814688265  0.5650395809920105
  0.1877271803599487  0.7814200644492776  0.2559362420103934
  0.4360766277253753  0.7775638930911389  0.1243840599409963
  0.5623449779843310  0.3615771873212982  0.1667058958076341
  0.1874105203208919  0.4545858789850943  0.4783298281242285
  0.4376658680441196  0.1108875579724516  0.1669090368401823
  0.5622815241044991  0.0319130526413107  0.2561002730586517
  0.6875128619768055  0.1262077191026288  0.6546005164091994
  0.4377068399520662  0.9550274042054107  0.4784274082404618
  0.8133795394126988  0.8720381522667618  0.5212207506033802
  0.5624010142335729  0.5456028866259302  0.7439754032795861
  0.4370236022498863  0.9610003937142360  0.6995987421226545
  0.9372943962155769  0.4540900336664117  0.4780991363623819
  0.0625467095042093  0.2112352468109472  0.6994771502498213
  0.8118082212359894  0.5277140259602041  0.1243144440806580
  0.1875381418047324  0.6222747395485461  0.5212470719210814
  0.4371123915189703  0.1255411037673208  0.6545894253952058
  0.9382213528436235  0.3004311462694891  0.8759595670430094
  0.0623715197618263  0.2047414146672820  0.4783273104459219
  0.5617944774008529  0.6968652069020154  0.2114389684794649
  0.9374195110730306  0.6113004762177012  0.1666092454647808
  0.8124090723507486  0.2106616066521987  0.6995669472119975
  0.4374965467983000  0.7866957820345920  0.3893893261473261
  0.5614837037371777  0.0278125249910418  0.1244716675128537
  0.3126534175450965  0.1969647317796135  0.2117434276287737
  0.9372941963287407  0.2765771226988308  0.1244545541745923
  0.4367202535380051  0.6112472467456398  0.1667115300928983
  0.6877077749635381  0.7865462803803157  0.3893984831865435
  0.0623907529342340  0.2070295406143614  0.5653620977440805
  0.4381475891770583  0.9665245414850606  0.8337215308990508
  0.1874543902071741  0.8010873093092045  0.8759398578625848
  0.8126204577310392  0.5460077391936601  0.7441208484731440
  0.1870424714215546  0.1255066039111465  0.6548038234333431
  0.3124515022637261  0.7068012619207806  0.5655201366070174
  0.4380213185776380  0.4665863871720131  0.8339119529509428
  0.6871903510046723  0.7959279214299352  0.7441362715376671
  0.0624227724069773  0.5411146371803051  0.6102844942411804
  0.0628106688301553  0.0315180467749992  0.2560251533822055
  0.6873532325676653  0.6260028387510104  0.6546063460072418
  0.3114043417123109  0.7108713607001191  0.6995895766985830
  0.1874368855694891  0.9521189302027447  0.3453383210175669
  0.5627191071148631  0.8671533071604142  0.3005145843824456
  0.8126912249799404  0.3672034095092158  0.3006045207001203
  0.0622762780578050  0.7062229679888120  0.4783226375066306
  0.0625916671976305  0.8669495467410722  0.3005972088341989
  0.4380538022637596  0.9571659787539938  0.5655196762064931
  0.1872851704681419  0.4562848080907251  0.5655577590839564
  0.5618118286443748  0.2104670772557516  0.6995932806574394
  0.5629271664476345  0.8712057554010465  0.4340960975097359
  0.0620304030735406  0.6969468845267403  0.2117786902760053
  0.8126008771458240  0.1975135041783038  0.2118255415398880
  0.3134189215298904  0.6960675452681188  0.2117416030022268
  0.8119524386207863  0.7111151194370909  0.6992935039224443
  0.9379402983625065  0.4608816865015259  0.6996354425667831
  0.9380780338293156  0.7959682913679950  0.7442824554398840
  0.3123264201779906  0.8725325849760056  0.5210494079153083
 
  0.00000000E+00  0.00000000E+00  0.00000000E+00
  0.00000000E+00  0.00000000E+00  0.00000000E+00
  0.00000000E+00  0.00000000E+00  0.00000000E+00
  0.00000000E+00  0.00000000E+00  0.00000000E+00
  0.00000000E+00  0.00000000E+00  0.00000000E+00
  0.00000000E+00  0.00000000E+00  0.00000000E+00
  0.00000000E+00  0.00000000E+00  0.00000000E+00
  0.00000000E+00  0.00000000E+00  0.00000000E+00
  0.00000000E+00  0.00000000E+00  0.00000000E+00
  0.00000000E+00  0.00000000E+00  0.00000000E+00
  0.00000000E+00  0.00000000E+00  0.00000000E+00
  0.00000000E+00  0.00000000E+00  0.00000000E+00
  0.00000000E+00  0.00000000E+00  0.00000000E+00
  0.00000000E+00  0.00000000E+00  0.00000000E+00
  0.00000000E+00  0.00000000E+00  0.00000000E+00
  0.00000000E+00  0.00000000E+00  0.00000000E+00
  0.00000000E+00  0.00000000E+00  0.00000000E+00
  0.00000000E+00  0.00000000E+00  0.00000000E+00
  0.00000000E+00  0.00000000E+00  0.00000000E+00
  0.00000000E+00  0.00000000E+00  0.00000000E+00
  0.00000000E+00  0.00000000E+00  0.00000000E+00
  0.00000000E+00  0.00000000E+00  0.00000000E+00
  0.00000000E+00  0.00000000E+00  0.00000000E+00
  0.00000000E+00  0.00000000E+00  0.00000000E+00
  0.00000000E+00  0.00000000E+00  0.00000000E+00
  0.00000000E+00  0.00000000E+00  0.00000000E+00
  0.00000000E+00  0.00000000E+00  0.00000000E+00
  0.00000000E+00  0.00000000E+00  0.00000000E+00
  0.00000000E+00  0.00000000E+00  0.00000000E+00
  0.00000000E+00  0.00000000E+00  0.00000000E+00
  0.00000000E+00  0.00000000E+00  0.00000000E+00
  0.00000000E+00  0.00000000E+00  0.00000000E+00
  0.00000000E+00  0.00000000E+00  0.00000000E+00
  0.00000000E+00  0.00000000E+00  0.00000000E+00
  0.00000000E+00  0.00000000E+00  0.00000000E+00
  0.00000000E+00  0.00000000E+00  0.00000000E+00
  0.00000000E+00  0.00000000E+00  0.00000000E+00
  0.00000000E+00  0.00000000E+00  0.00000000E+00
  0.00000000E+00  0.00000000E+00  0.00000000E+00
  0.00000000E+00  0.00000000E+00  0.00000000E+00
  0.00000000E+00  0.00000000E+00  0.00000000E+00
  0.00000000E+00  0.00000000E+00  0.00000000E+00
  0.00000000E+00  0.00000000E+00  0.00000000E+00
  0.00000000E+00  0.00000000E+00  0.00000000E+00
  0.00000000E+00  0.00000000E+00  0.00000000E+00
  0.00000000E+00  0.00000000E+00  0.00000000E+00
  0.00000000E+00  0.00000000E+00  0.00000000E+00
  0.00000000E+00  0.00000000E+00  0.00000000E+00
  0.00000000E+00  0.00000000E+00  0.00000000E+00
  0.00000000E+00  0.00000000E+00  0.00000000E+00
  0.00000000E+00  0.00000000E+00  0.00000000E+00
  0.00000000E+00  0.00000000E+00  0.00000000E+00
  0.00000000E+00  0.00000000E+00  0.00000000E+00
  0.00000000E+00  0.00000000E+00  0.00000000E+00
  0.00000000E+00  0.00000000E+00  0.00000000E+00
  0.00000000E+00  0.00000000E+00  0.00000000E+00
  0.00000000E+00  0.00000000E+00  0.00000000E+00
  0.00000000E+00  0.00000000E+00  0.00000000E+00
  0.00000000E+00  0.00000000E+00  0.00000000E+00
  0.00000000E+00  0.00000000E+00  0.00000000E+00
  0.00000000E+00  0.00000000E+00  0.00000000E+00
  0.00000000E+00  0.00000000E+00  0.00000000E+00
  0.00000000E+00  0.00000000E+00  0.00000000E+00
  0.00000000E+00  0.00000000E+00  0.00000000E+00
  0.00000000E+00  0.00000000E+00  0.00000000E+00
  0.00000000E+00  0.00000000E+00  0.00000000E+00
  0.00000000E+00  0.00000000E+00  0.00000000E+00
  0.00000000E+00  0.00000000E+00  0.00000000E+00
  0.00000000E+00  0.00000000E+00  0.00000000E+00
  0.00000000E+00  0.00000000E+00  0.00000000E+00
  0.00000000E+00  0.00000000E+00  0.00000000E+00
  0.00000000E+00  0.00000000E+00  0.00000000E+00
  0.00000000E+00  0.00000000E+00  0.00000000E+00
  0.00000000E+00  0.00000000E+00  0.00000000E+00
  0.00000000E+00  0.00000000E+00  0.00000000E+00
  0.00000000E+00  0.00000000E+00  0.00000000E+00
  0.00000000E+00  0.00000000E+00  0.00000000E+00
  0.00000000E+00  0.00000000E+00  0.00000000E+00
  0.00000000E+00  0.00000000E+00  0.00000000E+00
  0.00000000E+00  0.00000000E+00  0.00000000E+00
  0.00000000E+00  0.00000000E+00  0.00000000E+00
  0.00000000E+00  0.00000000E+00  0.00000000E+00
  0.00000000E+00  0.00000000E+00  0.00000000E+00
  0.00000000E+00  0.00000000E+00  0.00000000E+00
  0.00000000E+00  0.00000000E+00  0.00000000E+00
  0.00000000E+00  0.00000000E+00  0.00000000E+00
  0.00000000E+00  0.00000000E+00  0.00000000E+00
  0.00000000E+00  0.00000000E+00  0.00000000E+00
  0.00000000E+00  0.00000000E+00  0.00000000E+00
  0.00000000E+00  0.00000000E+00  0.00000000E+00
  0.00000000E+00  0.00000000E+00  0.00000000E+00
  0.00000000E+00  0.00000000E+00  0.00000000E+00
  0.00000000E+00  0.00000000E+00  0.00000000E+00
  0.00000000E+00  0.00000000E+00  0.00000000E+00
  0.00000000E+00  0.00000000E+00  0.00000000E+00
  0.00000000E+00  0.00000000E+00  0.00000000E+00
  0.00000000E+00  0.00000000E+00  0.00000000E+00
  0.00000000E+00  0.00000000E+00  0.00000000E+00
  0.00000000E+00  0.00000000E+00  0.00000000E+00
  0.00000000E+00  0.00000000E+00  0.00000000E+00
  0.00000000E+00  0.00000000E+00  0.00000000E+00
  0.00000000E+00  0.00000000E+00  0.00000000E+00
  0.00000000E+00  0.00000000E+00  0.00000000E+00
  0.00000000E+00  0.00000000E+00  0.00000000E+00
  0.00000000E+00  0.00000000E+00  0.00000000E+00
  0.00000000E+00  0.00000000E+00  0.00000000E+00
  0.00000000E+00  0.00000000E+00  0.00000000E+00
  0.00000000E+00  0.00000000E+00  0.00000000E+00
  0.00000000E+00  0.00000000E+00  0.00000000E+00
  0.00000000E+00  0.00000000E+00  0.00000000E+00
  0.00000000E+00  0.00000000E+00  0.00000000E+00
  0.00000000E+00  0.00000000E+00  0.00000000E+00
  0.00000000E+00  0.00000000E+00  0.00000000E+00
  0.00000000E+00  0.00000000E+00  0.00000000E+00
  0.00000000E+00  0.00000000E+00  0.00000000E+00
  0.00000000E+00  0.00000000E+00  0.00000000E+00
  0.00000000E+00  0.00000000E+00  0.00000000E+00
  0.00000000E+00  0.00000000E+00  0.00000000E+00
  0.00000000E+00  0.00000000E+00  0.00000000E+00
  0.00000000E+00  0.00000000E+00  0.00000000E+00
  0.00000000E+00  0.00000000E+00  0.00000000E+00
  0.00000000E+00  0.00000000E+00  0.00000000E+00
  0.00000000E+00  0.00000000E+00  0.00000000E+00
  0.00000000E+00  0.00000000E+00  0.00000000E+00
  0.00000000E+00  0.00000000E+00  0.00000000E+00
  0.00000000E+00  0.00000000E+00  0.00000000E+00
  0.00000000E+00  0.00000000E+00  0.00000000E+00
  0.00000000E+00  0.00000000E+00  0.00000000E+00
  0.00000000E+00  0.00000000E+00  0.00000000E+00
  0.00000000E+00  0.00000000E+00  0.00000000E+00
  0.00000000E+00  0.00000000E+00  0.00000000E+00
  0.00000000E+00  0.00000000E+00  0.00000000E+00
  0.00000000E+00  0.00000000E+00  0.00000000E+00
  0.00000000E+00  0.00000000E+00  0.00000000E+00
  0.00000000E+00  0.00000000E+00  0.00000000E+00
  0.00000000E+00  0.00000000E+00  0.00000000E+00
  0.00000000E+00  0.00000000E+00  0.00000000E+00
  0.00000000E+00  0.00000000E+00  0.00000000E+00
  0.00000000E+00  0.00000000E+00  0.00000000E+00
  0.00000000E+00  0.00000000E+00  0.00000000E+00
  0.00000000E+00  0.00000000E+00  0.00000000E+00
  0.00000000E+00  0.00000000E+00  0.00000000E+00
  0.00000000E+00  0.00000000E+00  0.00000000E+00
  0.00000000E+00  0.00000000E+00  0.00000000E+00
  0.00000000E+00  0.00000000E+00  0.00000000E+00
  0.00000000E+00  0.00000000E+00  0.00000000E+00
  0.00000000E+00  0.00000000E+00  0.00000000E+00
  0.00000000E+00  0.00000000E+00  0.00000000E+00
  0.00000000E+00  0.00000000E+00  0.00000000E+00
  0.00000000E+00  0.00000000E+00  0.00000000E+00
  0.00000000E+00  0.00000000E+00  0.00000000E+00
  0.00000000E+00  0.00000000E+00  0.00000000E+00
  0.00000000E+00  0.00000000E+00  0.00000000E+00
  0.00000000E+00  0.00000000E+00  0.00000000E+00
  0.00000000E+00  0.00000000E+00  0.00000000E+00
  0.00000000E+00  0.00000000E+00  0.00000000E+00
  0.00000000E+00  0.00000000E+00  0.00000000E+00
  0.00000000E+00  0.00000000E+00  0.00000000E+00
  0.00000000E+00  0.00000000E+00  0.00000000E+00
  0.00000000E+00  0.00000000E+00  0.00000000E+00
  0.00000000E+00  0.00000000E+00  0.00000000E+00
  0.00000000E+00  0.00000000E+00  0.00000000E+00
  0.00000000E+00  0.00000000E+00  0.00000000E+00
  0.00000000E+00  0.00000000E+00  0.00000000E+00
  0.00000000E+00  0.00000000E+00  0.00000000E+00
  0.00000000E+00  0.00000000E+00  0.00000000E+00
  0.00000000E+00  0.00000000E+00  0.00000000E+00
  0.00000000E+00  0.00000000E+00  0.00000000E+00
  0.00000000E+00  0.00000000E+00  0.00000000E+00
  0.00000000E+00  0.00000000E+00  0.00000000E+00
  0.00000000E+00  0.00000000E+00  0.00000000E+00
  0.00000000E+00  0.00000000E+00  0.00000000E+00
  0.00000000E+00  0.00000000E+00  0.00000000E+00
  0.00000000E+00  0.00000000E+00  0.00000000E+00
  0.00000000E+00  0.00000000E+00  0.00000000E+00
  0.00000000E+00  0.00000000E+00  0.00000000E+00
  0.00000000E+00  0.00000000E+00  0.00000000E+00
  0.00000000E+00  0.00000000E+00  0.00000000E+00
  0.00000000E+00  0.00000000E+00  0.00000000E+00
  0.00000000E+00  0.00000000E+00  0.00000000E+00
  0.00000000E+00  0.00000000E+00  0.00000000E+00
  0.00000000E+00  0.00000000E+00  0.00000000E+00
  0.00000000E+00  0.00000000E+00  0.00000000E+00
  0.00000000E+00  0.00000000E+00  0.00000000E+00
  0.00000000E+00  0.00000000E+00  0.00000000E+00
  0.00000000E+00  0.00000000E+00  0.00000000E+00
  0.00000000E+00  0.00000000E+00  0.00000000E+00
  0.00000000E+00  0.00000000E+00  0.00000000E+00
  0.00000000E+00  0.00000000E+00  0.00000000E+00
  0.00000000E+00  0.00000000E+00  0.00000000E+00
  0.00000000E+00  0.00000000E+00  0.00000000E+00
  0.00000000E+00  0.00000000E+00  0.00000000E+00
  0.00000000E+00  0.00000000E+00  0.00000000E+00
  0.00000000E+00  0.00000000E+00  0.00000000E+00
  0.00000000E+00  0.00000000E+00  0.00000000E+00
  0.00000000E+00  0.00000000E+00  0.00000000E+00
  0.00000000E+00  0.00000000E+00  0.00000000E+00
  0.00000000E+00  0.00000000E+00  0.00000000E+00
  0.00000000E+00  0.00000000E+00  0.00000000E+00
  0.00000000E+00  0.00000000E+00  0.00000000E+00
  0.00000000E+00  0.00000000E+00  0.00000000E+00
  0.00000000E+00  0.00000000E+00  0.00000000E+00
  0.00000000E+00  0.00000000E+00  0.00000000E+00
  0.00000000E+00  0.00000000E+00  0.00000000E+00
  0.00000000E+00  0.00000000E+00  0.00000000E+00
  0.00000000E+00  0.00000000E+00  0.00000000E+00
  0.00000000E+00  0.00000000E+00  0.00000000E+00
  0.00000000E+00  0.00000000E+00  0.00000000E+00
  0.00000000E+00  0.00000000E+00  0.00000000E+00
  0.00000000E+00  0.00000000E+00  0.00000000E+00
  0.00000000E+00  0.00000000E+00  0.00000000E+00
  0.00000000E+00  0.00000000E+00  0.00000000E+00
  0.00000000E+00  0.00000000E+00  0.00000000E+00
  0.00000000E+00  0.00000000E+00  0.00000000E+00
  0.00000000E+00  0.00000000E+00  0.00000000E+00
  0.00000000E+00  0.00000000E+00  0.00000000E+00
  0.00000000E+00  0.00000000E+00  0.00000000E+00
  0.00000000E+00  0.00000000E+00  0.00000000E+00
  0.00000000E+00  0.00000000E+00  0.00000000E+00
  0.00000000E+00  0.00000000E+00  0.00000000E+00
  0.00000000E+00  0.00000000E+00  0.00000000E+00
  0.00000000E+00  0.00000000E+00  0.00000000E+00
  0.00000000E+00  0.00000000E+00  0.00000000E+00
  0.00000000E+00  0.00000000E+00  0.00000000E+00
  0.00000000E+00  0.00000000E+00  0.00000000E+00
  0.00000000E+00  0.00000000E+00  0.00000000E+00
  0.00000000E+00  0.00000000E+00  0.00000000E+00
  0.00000000E+00  0.00000000E+00  0.00000000E+00
  0.00000000E+00  0.00000000E+00  0.00000000E+00
  0.00000000E+00  0.00000000E+00  0.00000000E+00
  0.00000000E+00  0.00000000E+00  0.00000000E+00
  0.00000000E+00  0.00000000E+00  0.00000000E+00
  0.00000000E+00  0.00000000E+00  0.00000000E+00
  0.00000000E+00  0.00000000E+00  0.00000000E+00
  0.00000000E+00  0.00000000E+00  0.00000000E+00
  0.00000000E+00  0.00000000E+00  0.00000000E+00
  0.00000000E+00  0.00000000E+00  0.00000000E+00
  0.00000000E+00  0.00000000E+00  0.00000000E+00
  0.00000000E+00  0.00000000E+00  0.00000000E+00
  0.00000000E+00  0.00000000E+00  0.00000000E+00
  0.00000000E+00  0.00000000E+00  0.00000000E+00
  0.00000000E+00  0.00000000E+00  0.00000000E+00
  0.00000000E+00  0.00000000E+00  0.00000000E+00
  0.00000000E+00  0.00000000E+00  0.00000000E+00
  0.00000000E+00  0.00000000E+00  0.00000000E+00
  0.00000000E+00  0.00000000E+00  0.00000000E+00
  0.00000000E+00  0.00000000E+00  0.00000000E+00