FeMn_288_15                             
    1.000000000000000     
     9.7266779999999997    0.0000000000000000    0.0000000000000000
     0.0000000000000000    8.4235500000000005    0.0000000000000000
     0.0000000000000000    0.0000000000000000   45.0000000000000000
   Fe   Mn
   273    15
Direct
  0.5624214924573436  0.3764042548727469  0.6532364521451361
  0.9400335397129981  0.4687641289321872  0.8341339009087628
  0.4367366548138019  0.8030794776873683  0.8757619794507596
  0.1861676236520279  0.7907669518627407  0.6097762025796621
  0.0619534437502633  0.8811115966686996  0.7899700217680808
  0.6898975825729814  0.2777042697698037  0.1221824171623331
  0.8131797403732077  0.7008031874830934  0.3453345973739313
  0.3123385117655975  0.7032285102298511  0.3450718334066074
  0.8123279453932332  0.2069526761728326  0.5654364971995537
  0.6892286938504204  0.9508109550092341  0.3455047877866187
  0.3128191272377308  0.5460387623555727  0.7445544758870217
  0.8116294392699491  0.0413563838446228  0.6094301139441486
  0.5579103163749634  0.7077715563470953  0.7000334735784773
  0.3126640141999293  0.2067530501456387  0.5655295231188842
  0.1887499476941701  0.1217067712937689  0.4337803476204390
  0.9368425155467320  0.7911375989774974  0.6097896435757891
  0.1857354190095679  0.2855748833571029  0.3894180488442165
  0.3133088429975877  0.2179654590595688  0.8342947734023100
  0.4419943406587085  0.2790930108102679  0.1216693920928696
  0.3111188489780716  0.5397618611830162  0.6099566880298044
  0.5642291923981589  0.0385167406950451  0.3894249548858831
  0.3136628510540051  0.3708995206107455  0.5219182249247304
  0.3131796585696215  0.3704772707344378  0.4341695116387677
  0.8093977822180951  0.8809391470850600  0.7901478461340130
  0.0622650805298858  0.8718225401350900  0.5219237045636645
  0.6876407039015706  0.6196327994610856  0.5216928824325107
  0.5608194430894156  0.5311761445138420  0.2565735119846880
  0.9352796387876808  0.4516481094329819  0.3457774956716948
  0.5620262289513523  0.5401316224651256  0.6096759769680030
  0.8129116319039024  0.6970526498043327  0.2113366339183641
  0.4374295001403974  0.4546836183862837  0.5654905379365196
  0.6899058375305028  0.2875971289961958  0.3894643030702496
  0.6869047712409486  0.6307588293970099  0.7896106920757754
  0.0608890045855378  0.3719276504423377  0.4338400518868157
  0.9361027928382009  0.7868916485885461  0.3889409174606474
  0.4395531891996898  0.1238600748337253  0.5219006208867264
  0.6880267064644188  0.7907137174309441  0.6095474994368547
  0.8135196687407604  0.0322572381416023  0.2567598742416674
  0.6863164537778235  0.1299483160382256  0.7898159328922536
  0.1892336457172565  0.4444571047524775  0.2121056085152630
  0.8117444503129624  0.5323235555511917  0.2564940596741096
  0.6871094461837696  0.1232432287821038  0.4338819309505197
  0.5646627361789733  0.2022605740296782  0.3455418037833537
  0.1889513170726062  0.9704092767273824  0.8343667219628996
  0.9372311409919782  0.6169197016962163  0.3014528894243652
  0.0594038875146119  0.3619908109174262  0.1678238766328992
  0.9352510097193485  0.9576485442273154  0.4781333763568038
  0.9360878820670557  0.7838807427381336  0.2566872600480929
  0.6893963557554210  0.1170659993371588  0.3010519146126968
  0.3127935299548705  0.7056926277963828  0.4781034462306310
  0.5642368684692782  0.8760312375895289  0.6528908973878220
  0.1853422077621546  0.1305260455520097  0.7894830009761747
  0.6873190310549177  0.9594771065618046  0.4782311052751325
  0.0657303007076643  0.7091674096910574  0.6991726042136454
  0.0625984250998147  0.5515346830360236  0.8761460146000606
  0.1909216810783870  0.7957162731037354  0.7448978143112260
  0.3091874196350525  0.0405930164516052  0.6097631897956977
  0.9392016381122956  0.6282903960267253  0.6529906789733242
  0.0606531684982071  0.3799994938346528  0.7897129117314400
  0.1876683879836352  0.2997480372540061  0.8762011680950864
  0.8155404759370154  0.7199229472541551  0.8341936241557847
  0.3125966589501272  0.3618317478033636  0.1683609724155185
  0.6896011217336204  0.8029832579701663  0.8756722807657482
  0.6888544533432738  0.2951035468889825  0.7453422118718052
  0.8097267754284573  0.2073108151054310  0.4783158526502909
  0.4347646749487338  0.2824777355549655  0.2564608802635635
  0.1877872382826893  0.9521595607987817  0.2123136878280415
  0.6887094120619442  0.4544817069483433  0.5653137177258969
  0.0632255334915252  0.7186560015449062  0.8343360848413651
  0.1851983238405521  0.9600194724168288  0.6996792123539511
  0.8117327508793007  0.5340944509678381  0.3889417650378261
  0.8112724502430421  0.7049350897335777  0.4782386277547871
  0.9398974972163060  0.2933669202537668  0.7454961289092225
  0.6839672553166231  0.4596641602595809  0.6998583067013646
  0.6882581859132607  0.9464078445064329  0.2112912807950564
  0.8139566647012711  0.8674865726026145  0.3013673172300504
  0.6878383331121087  0.6112889468645862  0.1659472088836644
  0.6881467620518548  0.6197219195312185  0.4339116808922203
  0.1888829249964409  0.6260987694861836  0.6538047308480375
  0.0623231368062300  0.0506270089841237  0.8760696321308582
  0.0618626325470608  0.0411875194539586  0.6098828807681798
  0.6882404358611025  0.4540918229305089  0.4782643945749808
  0.5645765163418531  0.3704606924724195  0.4339595433879055
  0.5607618618991657  0.1986426521247960  0.2117036194947269
  0.0666329100637683  0.3752743566874848  0.6533370156767068
  0.1857814937200161  0.2784304758830995  0.1211778892986792
  0.4365476138312664  0.7818941886650093  0.2565453310474034
  0.4366858147070170  0.9501834834992162  0.2117819590916094
  0.6872127761825898  0.1076450135952081  0.1663624870070192
  0.1859572623478944  0.4520613602779337  0.3451188461788435
  0.4375145024934640  0.4462121472058849  0.2120767867752055
  0.5647278776713144  0.2173539994446463  0.8339983444294087
  0.5611734774173927  0.3798362712643627  0.7895585362753040
  0.6877806378834023  0.2992305812930010  0.8755543409837423
  0.6906959970246798  0.4686715977208816  0.8340012800928025
  0.3132929546822686  0.0366275690735583  0.3894991605366341
  0.5634858230298948  0.7009908826324837  0.3455341873202754
  0.4335685396821856  0.4594248866507042  0.6997625232053479
  0.6854996950328024  0.2826940169042686  0.2566388576862102
  0.5644051758963040  0.2063830012178310  0.4781397508343177
  0.3143841690119927  0.2063025938909396  0.4780778165959794
  0.9375475391357212  0.4479309552516786  0.2114866314640864
  0.9372886984557575  0.1159532324925224  0.3012215051554859
  0.9355216282737637  0.1238768722814008  0.4337070162916856
  0.4361687647824746  0.1306335501569311  0.7898104969750015
  0.4364955285785591  0.7903800510401292  0.6096578734628793
  0.5628265925376571  0.2063892812389324  0.5652316666819669
  0.9326892465010820  0.7751740272373627  0.1224348218480936
  0.0648669943410781  0.2182561757902907  0.8342503208892030
  0.8099424747669692  0.3614596557720350  0.1664062753634481
  0.0629985647681446  0.8713782244841352  0.4338494378714684
  0.3104051959336401  0.5498951967389798  0.8758544148111568
  0.3096815142626376  0.3797673283540933  0.7896674414143263
  0.3144598799378566  0.0234542257979734  0.1214556832771462
  0.0603599330693828  0.7025043372657935  0.3453214269409163
  0.4375837078175215  0.9503260297979733  0.3454846010646032
  0.9379525237943975  0.4549243538004011  0.5655969028110263
  0.8148635250103204  0.2171746311186269  0.8340375079849635
  0.5633449106105457  0.0416029138384990  0.6093846321295513
  0.9387625741242825  0.9692415839694692  0.8343408675649903
  0.3082961361465030  0.2130851865295353  0.6995968614010410
  0.0591238017112220  0.8565309479197061  0.1666239116222096
  0.0602322802221828  0.3719645808658197  0.5219597267727450
  0.1859470655527306  0.7736724617129177  0.1219090331593776
  0.5611718626058410  0.8804224357180196  0.7897163583719035
  0.4392223224273519  0.4522998931200288  0.3451587592171148
  0.0664426581176358  0.5429619345804590  0.7453102477880122
  0.3121775257876783  0.3765155448343300  0.6537206204961153
  0.6870506459176262  0.2905859522684572  0.6093901124063312
  0.1876621813557905  0.9565561031381494  0.5658884981093055
  0.1866910143708761  0.1161051510062978  0.3005160029701610
  0.5625536881240790  0.5509920961917347  0.8756721880958797
  0.9394206186873985  0.9491801261704149  0.2117208054591260
  0.3106611049734728  0.8800929841888481  0.7894677042150471
  0.8117314541722663  0.3710180998503109  0.4337345854648632
  0.5628184002009988  0.3688819386189243  0.3007223530468405
  0.3108022683255116  0.0461854896286643  0.7452737937807742
  0.6866268799356541  0.1233990217891022  0.5216841766286332
  0.9360232226717066  0.6198018631420735  0.4340874093977206
  0.0624124358355417  0.3676072105318240  0.3007707541006588
  0.6890832513657621  0.4513557805995557  0.3458097868243118
  0.4388670661644881  0.1220393497837720  0.4338175509704153
  0.1873919203940516  0.6213422156752103  0.4339190146361709
  0.5658523924101396  0.5352288751880745  0.3893002324473888
  0.4355416459353357  0.2991096149777109  0.8758419696353182
  0.1871477979164098  0.6183078513013899  0.3008192867466630
  0.9366741778467070  0.1298021168202249  0.7895347751579140
  0.5638642334995361  0.7060419003045600  0.4782704195829196
  0.9365050343652792  0.6187059126021764  0.5216914489549925
  0.9343940999115175  0.2873991582073034  0.3892104889001448
  0.1868004734446313  0.7879692906847228  0.3891637925658123
  0.0607126278371273  0.0380441409004249  0.3888860055436679
  0.0639524380048205  0.5308544974199229  0.2566397540206433
  0.6906062412501700  0.9696382138805889  0.8341879957966205
  0.5652367803227732  0.7200180743498058  0.8339366191041444
  0.5621833290223021  0.7071807715696181  0.5656454223386901
  0.4378673435771867  0.6162118291971356  0.3009055536917711
  0.4359686426654414  0.6303906618394122  0.7894463509393566
  0.8127505174415949  0.3759943348588523  0.6527313841419771
  0.4370049679758441  0.7939902695163171  0.7453660873952985
  0.3136435214835079  0.7189053218001777  0.8340222427074809
  0.5643321864509087  0.8733864706397292  0.5217216955962665
  0.6885043334783839  0.6159305986380883  0.3012133491354591
  0.5642524318922496  0.3698257020706359  0.5216931204630704
  0.6876879172147171  0.4501129601787794  0.2114932423149726
  0.4375691673367566  0.1176417102947305  0.3005030683473853
  0.3109522732598808  0.0523237915888677  0.8760357950866220
  0.9377018299285912  0.9576987836324403  0.5660347754269339
  0.9361979221002322  0.6287708657101410  0.7900730083324461
  0.8125133310157403  0.0392589002739800  0.3892119916067120
  0.9394753274608658  0.2807592095815618  0.2565852155045848
  0.3135618400223881  0.3678894110229403  0.3002079902432977
  0.0585891934843653  0.5315648520930756  0.1220028112706698
  0.0656778614359144  0.1973965445371984  0.2122466085500533
  0.8119766623754976  0.3796581121574307  0.7898337831323420
  0.6868990684118659  0.9581686153293296  0.5654341857243795
  0.9353161608584872  0.1243297323627901  0.5219190801228502
  0.4375992409087519  0.2971338092041382  0.7450364194911352
  0.8138784605737436  0.0489176376617022  0.8759505573834653
  0.4363874251052267  0.6244510336435444  0.6536636870207309
  0.0576305227207787  0.0237952266042545  0.1218884659174495
  0.3122645112160630  0.8560655870608451  0.1671182857982992
  0.1882006248580753  0.4676094968959818  0.8341573188954907
  0.8150012378407957  0.0473189315615361  0.7455525196590418
  0.4388720641380417  0.6210472178661161  0.4339534468614305
  0.1884982371897566  0.4620671688497715  0.6995598934717955
  0.4382627258389330  0.6205343563477115  0.5219249618633337
  0.9341354552297209  0.1065842589749781  0.1668792910557532
  0.8117738430990464  0.5407899977819159  0.6094689303296523
  0.1891880677712672  0.2812794092341577  0.2562772385455998
  0.5643368437894967  0.0456088232780639  0.7456528659704883
  0.4395105660786744  0.4540868748979165  0.4782075472667047
  0.3124624968485041  0.2003485485571557  0.3452906011237320
  0.3108334436772609  0.0341399403500901  0.2561130842738133
  0.1867334398075931  0.2958975693281066  0.7447439596077114
  0.6890211995845176  0.7742191411909330  0.1225834718109852
  0.0598637905979417  0.5366613823783442  0.3892948633152001
  0.8113755583309610  0.8721566041103966  0.4338716982360580
  0.8144486354881303  0.5530554912758270  0.8758067712570580
  0.9378826933279935  0.8023930212610086  0.8762013747189490
  0.4401607207943778  0.2858873365121445  0.3895179391565777
  0.3103630821942526  0.8756013775134160  0.6534829896421492
  0.3125277177123223  0.8679025888561469  0.3006805374289881
  0.6885719042886801  0.9617211026794955  0.7000764136162219
  0.8153639751536762  0.8764726003346939  0.6526428374518605
  0.1855779111939536  0.6297785945696776  0.7896176094501131
  0.1854921416309116  0.6093983682565773  0.1666884974586053
  0.9370306032648948  0.2904406339028415  0.6093151208161984
  0.9363373598143496  0.9509361995144759  0.3455233360259557
  0.8109282104862490  0.8569150874228644  0.1658422551780719
  0.8115152089161183  0.3710616477754621  0.5216918230186575
  0.1856370306041181  0.1075020853269831  0.1686303036088393
  0.3117794307439190  0.5300555831853337  0.2563992343637393
  0.4368636112730557  0.2911482166585438  0.6096723332766470
  0.3131187441563646  0.5375732646999689  0.3891559279733666
  0.3150613304955116  0.5314311303160921  0.1219574958512656
  0.5629531998645390  0.0504714363631177  0.8757480250162534
  0.0643215368827897  0.8769539863352654  0.6534844010010816
  0.3127192791106079  0.8731276525782932  0.4341164477027709
  0.1881806928481450  0.1230385461814198  0.5221261200068124
  0.8107522999977090  0.0236917776749584  0.1223692424039397
  0.5668818162338707  0.5315087343947994  0.1223430832448074
  0.8127314147578115  0.2021202657029068  0.3458681400277748
  0.0594681211936501  0.2004783960501062  0.3454750489470608
  0.0640832799232129  0.0483527126610064  0.7451349145139140
  0.9405578508201018  0.1251149353438125  0.6531540144490761
  0.1879385124344417  0.9569530888433520  0.4780023065757961
  0.6880447439369183  0.7811941186377186  0.2564493170612306
  0.5637356886871291  0.8567989685223327  0.1661603344704857
  0.9390649224390166  0.9632359942846341  0.6992333787073727
  0.8129212492724942  0.7059675918866412  0.5657898982694751
  0.1864110880842164  0.2896254592467474  0.6097728359527100
  0.0639615218953694  0.7053409850570496  0.5655917441470083
  0.1878065485819316  0.7838848740161555  0.2568644192866602
  0.4421913378896141  0.7732249994756933  0.1221385221565841
  0.5640319832113934  0.3610491285282439  0.1669777409547702
  0.1865509242113755  0.4554997075999295  0.4781963369014073
  0.4390164288584646  0.1083397202028015  0.1681726106613327
  0.5609055631858584  0.0340890442709266  0.2565015135387477
  0.6893201432333339  0.1270353493320738  0.6528105775045214
  0.4388964002991775  0.9579965202801686  0.4782835965196518
  0.8104097193206374  0.8726542693968785  0.5217593486703040
  0.5626045967022828  0.5452911091279229  0.7453312335523991
  0.4331303743223431  0.9609798846063400  0.6997920691135439
  0.9352127916019128  0.4553111402987167  0.4781723793607584
  0.0626787221341963  0.2097709012679472  0.6996132881736955
  0.8097366294643020  0.5314448799628524  0.1224805289515126
  0.1869404734153926  0.6205327600919223  0.5219296343133673
  0.4362570297386711  0.1278315379773648  0.6532235534261464
  0.9390993791638376  0.3005440334717205  0.8754404442147444
  0.0612740042007892  0.2069900760002872  0.4781694648798254
  0.5641896642357680  0.6959612896245626  0.2115667288180593
  0.9330684952046949  0.6111130485174996  0.1660396220595285
  0.8127105030256375  0.2083951785042939  0.7000604219330163
  0.4381355884318821  0.7877415936136111  0.3890651298137292
  0.5674167184087667  0.0228022683249832  0.1223226875205049
  0.3120863733596679  0.1980060269971693  0.2126341561850434
  0.9327572024580336  0.2769253292174384  0.1217285863628783
  0.4393685670721976  0.6099675332858536  0.1664584611522613
  0.6889420313878161  0.7859721711059915  0.3891233230827800
  0.0625862279550432  0.2073840990790849  0.5657063160151076
  0.4395233738739128  0.9701734207173816  0.8341006266007349
  0.1858757741132924  0.8022698359980009  0.8758661163973950
  0.8123770528678331  0.5439321272772147  0.7456340024381710
  0.1868463392930255  0.1260035399756331  0.6536128893380637
  0.3112610768062378  0.7068754732148831  0.5656795734471234
  0.4388296368448141  0.4678695590957403  0.8340591189427118
  0.6863442739782908  0.7951642100245524  0.7458681491690498
  0.0611918402547350  0.5409607319439652  0.6095725227905374
  0.0629341316917390  0.0327946104455052  0.2563020040983048
  0.6887577248632798  0.6265158445769508  0.6525888465078374
  0.3068767722731923  0.7080795830057748  0.6996735079581771
  0.1861305034730119  0.9505595308481916  0.3454094106081186
  0.5642982022176584  0.8678787250282731  0.3009761054849533
  0.8138654036018079  0.3690414506993884  0.3010253662686450
  0.0615244112894022  0.7040815619097093  0.4781647286022960
  0.0629921960716532  0.8686663639446367  0.3008084748898726
  0.4392692864013039  0.9575794807178055  0.5656243758457241
  0.1868280999562040  0.4555691997361352  0.5659170664888762
  0.5582842071579797  0.2142540149090504  0.6995924632484647
  0.5639962698980938  0.8727420512074647  0.4338590070879796
  0.0616901376710430  0.6974452458600143  0.2117314635710879
  0.8143408960698537  0.1973192246376240  0.2121057748351751
  0.3151863998846895  0.6958116272774160  0.2121940562793770
  0.8103282443995337  0.7107494363585266  0.6989263993364485
  0.9415129263778789  0.4600850974799200  0.7002239753098447
  0.9404267048596062  0.7977167149236378  0.7455493013914721
  0.3129665315201465  0.8722612113072676  0.5220891160335072
 
  0.00000000E+00  0.00000000E+00  0.00000000E+00
  0.00000000E+00  0.00000000E+00  0.00000000E+00
  0.00000000E+00  0.00000000E+00  0.00000000E+00
  0.00000000E+00  0.00000000E+00  0.00000000E+00
  0.00000000E+00  0.00000000E+00  0.00000000E+00
  0.00000000E+00  0.00000000E+00  0.00000000E+00
  0.00000000E+00  0.00000000E+00  0.00000000E+00
  0.00000000E+00  0.00000000E+00  0.00000000E+00
  0.00000000E+00  0.00000000E+00  0.00000000E+00
  0.00000000E+00  0.00000000E+00  0.00000000E+00
  0.00000000E+00  0.00000000E+00  0.00000000E+00
  0.00000000E+00  0.00000000E+00  0.00000000E+00
  0.00000000E+00  0.00000000E+00  0.00000000E+00
  0.00000000E+00  0.00000000E+00  0.00000000E+00
  0.00000000E+00  0.00000000E+00  0.00000000E+00
  0.00000000E+00  0.00000000E+00  0.00000000E+00
  0.00000000E+00  0.00000000E+00  0.00000000E+00
  0.00000000E+00  0.00000000E+00  0.00000000E+00
  0.00000000E+00  0.00000000E+00  0.00000000E+00
  0.00000000E+00  0.00000000E+00  0.00000000E+00
  0.00000000E+00  0.00000000E+00  0.00000000E+00
  0.00000000E+00  0.00000000E+00  0.00000000E+00
  0.00000000E+00  0.00000000E+00  0.00000000E+00
  0.00000000E+00  0.00000000E+00  0.00000000E+00
  0.00000000E+00  0.00000000E+00  0.00000000E+00
  0.00000000E+00  0.00000000E+00  0.00000000E+00
  0.00000000E+00  0.00000000E+00  0.00000000E+00
  0.00000000E+00  0.00000000E+00  0.00000000E+00
  0.00000000E+00  0.00000000E+00  0.00000000E+00
  0.00000000E+00  0.00000000E+00  0.00000000E+00
  0.00000000E+00  0.00000000E+00  0.00000000E+00
  0.00000000E+00  0.00000000E+00  0.00000000E+00
  0.00000000E+00  0.00000000E+00  0.00000000E+00
  0.00000000E+00  0.00000000E+00  0.00000000E+00
  0.00000000E+00  0.00000000E+00  0.00000000E+00
  0.00000000E+00  0.00000000E+00  0.00000000E+00
  0.00000000E+00  0.00000000E+00  0.00000000E+00
  0.00000000E+00  0.00000000E+00  0.00000000E+00
  0.00000000E+00  0.00000000E+00  0.00000000E+00
  0.00000000E+00  0.00000000E+00  0.00000000E+00
  0.00000000E+00  0.00000000E+00  0.00000000E+00
  0.00000000E+00  0.00000000E+00  0.00000000E+00
  0.00000000E+00  0.00000000E+00  0.00000000E+00
  0.00000000E+00  0.00000000E+00  0.00000000E+00
  0.00000000E+00  0.00000000E+00  0.00000000E+00
  0.00000000E+00  0.00000000E+00  0.00000000E+00
  0.00000000E+00  0.00000000E+00  0.00000000E+00
  0.00000000E+00  0.00000000E+00  0.00000000E+00
  0.00000000E+00  0.00000000E+00  0.00000000E+00
  0.00000000E+00  0.00000000E+00  0.00000000E+00
  0.00000000E+00  0.00000000E+00  0.00000000E+00
  0.00000000E+00  0.00000000E+00  0.00000000E+00
  0.00000000E+00  0.00000000E+00  0.00000000E+00
  0.00000000E+00  0.00000000E+00  0.00000000E+00
  0.00000000E+00  0.00000000E+00  0.00000000E+00
  0.00000000E+00  0.00000000E+00  0.00000000E+00
  0.00000000E+00  0.00000000E+00  0.00000000E+00
  0.00000000E+00  0.00000000E+00  0.00000000E+00
  0.00000000E+00  0.00000000E+00  0.00000000E+00
  0.00000000E+00  0.00000000E+00  0.00000000E+00
  0.00000000E+00  0.00000000E+00  0.00000000E+00
  0.00000000E+00  0.00000000E+00  0.00000000E+00
  0.00000000E+00  0.00000000E+00  0.00000000E+00
  0.00000000E+00  0.00000000E+00  0.00000000E+00
  0.00000000E+00  0.00000000E+00  0.00000000E+00
  0.00000000E+00  0.00000000E+00  0.00000000E+00
  0.00000000E+00  0.00000000E+00  0.00000000E+00
  0.00000000E+00  0.00000000E+00  0.00000000E+00
  0.00000000E+00  0.00000000E+00  0.00000000E+00
  0.00000000E+00  0.00000000E+00  0.00000000E+00
  0.00000000E+00  0.00000000E+00  0.00000000E+00
  0.00000000E+00  0.00000000E+00  0.00000000E+00
  0.00000000E+00  0.00000000E+00  0.00000000E+00
  0.00000000E+00  0.00000000E+00  0.00000000E+00
  0.00000000E+00  0.00000000E+00  0.00000000E+00
  0.00000000E+00  0.00000000E+00  0.00000000E+00
  0.00000000E+00  0.00000000E+00  0.00000000E+00
  0.00000000E+00  0.00000000E+00  0.00000000E+00
  0.00000000E+00  0.00000000E+00  0.00000000E+00
  0.00000000E+00  0.00000000E+00  0.00000000E+00
  0.00000000E+00  0.00000000E+00  0.00000000E+00
  0.00000000E+00  0.00000000E+00  0.00000000E+00
  0.00000000E+00  0.00000000E+00  0.00000000E+00
  0.00000000E+00  0.00000000E+00  0.00000000E+00
  0.00000000E+00  0.00000000E+00  0.00000000E+00
  0.00000000E+00  0.00000000E+00  0.00000000E+00
  0.00000000E+00  0.00000000E+00  0.00000000E+00
  0.00000000E+00  0.00000000E+00  0.00000000E+00
  0.00000000E+00  0.00000000E+00  0.00000000E+00
  0.00000000E+00  0.00000000E+00  0.00000000E+00
  0.00000000E+00  0.00000000E+00  0.00000000E+00
  0.00000000E+00  0.00000000E+00  0.00000000E+00
  0.00000000E+00  0.00000000E+00  0.00000000E+00
  0.00000000E+00  0.00000000E+00  0.00000000E+00
  0.00000000E+00  0.00000000E+00  0.00000000E+00
  0.00000000E+00  0.00000000E+00  0.00000000E+00
  0.00000000E+00  0.00000000E+00  0.00000000E+00
  0.00000000E+00  0.00000000E+00  0.00000000E+00
  0.00000000E+00  0.00000000E+00  0.00000000E+00
  0.00000000E+00  0.00000000E+00  0.00000000E+00
  0.00000000E+00  0.00000000E+00  0.00000000E+00
  0.00000000E+00  0.00000000E+00  0.00000000E+00
  0.00000000E+00  0.00000000E+00  0.00000000E+00
  0.00000000E+00  0.00000000E+00  0.00000000E+00
  0.00000000E+00  0.00000000E+00  0.00000000E+00
  0.00000000E+00  0.00000000E+00  0.00000000E+00
  0.00000000E+00  0.00000000E+00  0.00000000E+00
  0.00000000E+00  0.00000000E+00  0.00000000E+00
  0.00000000E+00  0.00000000E+00  0.00000000E+00
  0.00000000E+00  0.00000000E+00  0.00000000E+00
  0.00000000E+00  0.00000000E+00  0.00000000E+00
  0.00000000E+00  0.00000000E+00  0.00000000E+00
  0.00000000E+00  0.00000000E+00  0.00000000E+00
  0.00000000E+00  0.00000000E+00  0.00000000E+00
  0.00000000E+00  0.00000000E+00  0.00000000E+00
  0.00000000E+00  0.00000000E+00  0.00000000E+00
  0.00000000E+00  0.00000000E+00  0.00000000E+00
  0.00000000E+00  0.00000000E+00  0.00000000E+00
  0.00000000E+00  0.00000000E+00  0.00000000E+00
  0.00000000E+00  0.00000000E+00  0.00000000E+00
  0.00000000E+00  0.00000000E+00  0.00000000E+00
  0.00000000E+00  0.00000000E+00  0.00000000E+00
  0.00000000E+00  0.00000000E+00  0.00000000E+00
  0.00000000E+00  0.00000000E+00  0.00000000E+00
  0.00000000E+00  0.00000000E+00  0.00000000E+00
  0.00000000E+00  0.00000000E+00  0.00000000E+00
  0.00000000E+00  0.00000000E+00  0.00000000E+00
  0.00000000E+00  0.00000000E+00  0.00000000E+00
  0.00000000E+00  0.00000000E+00  0.00000000E+00
  0.00000000E+00  0.00000000E+00  0.00000000E+00
  0.00000000E+00  0.00000000E+00  0.00000000E+00
  0.00000000E+00  0.00000000E+00  0.00000000E+00
  0.00000000E+00  0.00000000E+00  0.00000000E+00
  0.00000000E+00  0.00000000E+00  0.00000000E+00
  0.00000000E+00  0.00000000E+00  0.00000000E+00
  0.00000000E+00  0.00000000E+00  0.00000000E+00
  0.00000000E+00  0.00000000E+00  0.00000000E+00
  0.00000000E+00  0.00000000E+00  0.00000000E+00
  0.00000000E+00  0.00000000E+00  0.00000000E+00
  0.00000000E+00  0.00000000E+00  0.00000000E+00
  0.00000000E+00  0.00000000E+00  0.00000000E+00
  0.00000000E+00  0.00000000E+00  0.00000000E+00
  0.00000000E+00  0.00000000E+00  0.00000000E+00
  0.00000000E+00  0.00000000E+00  0.00000000E+00
  0.00000000E+00  0.00000000E+00  0.00000000E+00
  0.00000000E+00  0.00000000E+00  0.00000000E+00
  0.00000000E+00  0.00000000E+00  0.00000000E+00
  0.00000000E+00  0.00000000E+00  0.00000000E+00
  0.00000000E+00  0.00000000E+00  0.00000000E+00
  0.00000000E+00  0.00000000E+00  0.00000000E+00
  0.00000000E+00  0.00000000E+00  0.00000000E+00
  0.00000000E+00  0.00000000E+00  0.00000000E+00
  0.00000000E+00  0.00000000E+00  0.00000000E+00
  0.00000000E+00  0.00000000E+00  0.00000000E+00
  0.00000000E+00  0.00000000E+00  0.00000000E+00
  0.00000000E+00  0.00000000E+00  0.00000000E+00
  0.00000000E+00  0.00000000E+00  0.00000000E+00
  0.00000000E+00  0.00000000E+00  0.00000000E+00
  0.00000000E+00  0.00000000E+00  0.00000000E+00
  0.00000000E+00  0.00000000E+00  0.00000000E+00
  0.00000000E+00  0.00000000E+00  0.00000000E+00
  0.00000000E+00  0.00000000E+00  0.00000000E+00
  0.00000000E+00  0.00000000E+00  0.00000000E+00
  0.00000000E+00  0.00000000E+00  0.00000000E+00
  0.00000000E+00  0.00000000E+00  0.00000000E+00
  0.00000000E+00  0.00000000E+00  0.00000000E+00
  0.00000000E+00  0.00000000E+00  0.00000000E+00
  0.00000000E+00  0.00000000E+00  0.00000000E+00
  0.00000000E+00  0.00000000E+00  0.00000000E+00
  0.00000000E+00  0.00000000E+00  0.00000000E+00
  0.00000000E+00  0.00000000E+00  0.00000000E+00
  0.00000000E+00  0.00000000E+00  0.00000000E+00
  0.00000000E+00  0.00000000E+00  0.00000000E+00
  0.00000000E+00  0.00000000E+00  0.00000000E+00
  0.00000000E+00  0.00000000E+00  0.00000000E+00
  0.00000000E+00  0.00000000E+00  0.00000000E+00
  0.00000000E+00  0.00000000E+00  0.00000000E+00
  0.00000000E+00  0.00000000E+00  0.00000000E+00
  0.00000000E+00  0.00000000E+00  0.00000000E+00
  0.00000000E+00  0.00000000E+00  0.00000000E+00
  0.00000000E+00  0.00000000E+00  0.00000000E+00
  0.00000000E+00  0.00000000E+00  0.00000000E+00
  0.00000000E+00  0.00000000E+00  0.00000000E+00
  0.00000000E+00  0.00000000E+00  0.00000000E+00
  0.00000000E+00  0.00000000E+00  0.00000000E+00
  0.00000000E+00  0.00000000E+00  0.00000000E+00
  0.00000000E+00  0.00000000E+00  0.00000000E+00
  0.00000000E+00  0.00000000E+00  0.00000000E+00
  0.00000000E+00  0.00000000E+00  0.00000000E+00
  0.00000000E+00  0.00000000E+00  0.00000000E+00
  0.00000000E+00  0.00000000E+00  0.00000000E+00
  0.00000000E+00  0.00000000E+00  0.00000000E+00
  0.00000000E+00  0.00000000E+00  0.00000000E+00
  0.00000000E+00  0.00000000E+00  0.00000000E+00
  0.00000000E+00  0.00000000E+00  0.00000000E+00
  0.00000000E+00  0.00000000E+00  0.00000000E+00
  0.00000000E+00  0.00000000E+00  0.00000000E+00
  0.00000000E+00  0.00000000E+00  0.00000000E+00
  0.00000000E+00  0.00000000E+00  0.00000000E+00
  0.00000000E+00  0.00000000E+00  0.00000000E+00
  0.00000000E+00  0.00000000E+00  0.00000000E+00
  0.00000000E+00  0.00000000E+00  0.00000000E+00
  0.00000000E+00  0.00000000E+00  0.00000000E+00
  0.00000000E+00  0.00000000E+00  0.00000000E+00
  0.00000000E+00  0.00000000E+00  0.00000000E+00
  0.00000000E+00  0.00000000E+00  0.00000000E+00
  0.00000000E+00  0.00000000E+00  0.00000000E+00
  0.00000000E+00  0.00000000E+00  0.00000000E+00
  0.00000000E+00  0.00000000E+00  0.00000000E+00
  0.00000000E+00  0.00000000E+00  0.00000000E+00
  0.00000000E+00  0.00000000E+00  0.00000000E+00
  0.00000000E+00  0.00000000E+00  0.00000000E+00
  0.00000000E+00  0.00000000E+00  0.00000000E+00
  0.00000000E+00  0.00000000E+00  0.00000000E+00
  0.00000000E+00  0.00000000E+00  0.00000000E+00
  0.00000000E+00  0.00000000E+00  0.00000000E+00
  0.00000000E+00  0.00000000E+00  0.00000000E+00
  0.00000000E+00  0.00000000E+00  0.00000000E+00
  0.00000000E+00  0.00000000E+00  0.00000000E+00
  0.00000000E+00  0.00000000E+00  0.00000000E+00
  0.00000000E+00  0.00000000E+00  0.00000000E+00
  0.00000000E+00  0.00000000E+00  0.00000000E+00
  0.00000000E+00  0.00000000E+00  0.00000000E+00
  0.00000000E+00  0.00000000E+00  0.00000000E+00
  0.00000000E+00  0.00000000E+00  0.00000000E+00
  0.00000000E+00  0.00000000E+00  0.00000000E+00
  0.00000000E+00  0.00000000E+00  0.00000000E+00
  0.00000000E+00  0.00000000E+00  0.00000000E+00
  0.00000000E+00  0.00000000E+00  0.00000000E+00
  0.00000000E+00  0.00000000E+00  0.00000000E+00
  0.00000000E+00  0.00000000E+00  0.00000000E+00
  0.00000000E+00  0.00000000E+00  0.00000000E+00
  0.00000000E+00  0.00000000E+00  0.00000000E+00
  0.00000000E+00  0.00000000E+00  0.00000000E+00
  0.00000000E+00  0.00000000E+00  0.00000000E+00
  0.00000000E+00  0.00000000E+00  0.00000000E+00
  0.00000000E+00  0.00000000E+00  0.00000000E+00
  0.00000000E+00  0.00000000E+00  0.00000000E+00
  0.00000000E+00  0.00000000E+00  0.00000000E+00
  0.00000000E+00  0.00000000E+00  0.00000000E+00
  0.00000000E+00  0.00000000E+00  0.00000000E+00
  0.00000000E+00  0.00000000E+00  0.00000000E+00
  0.00000000E+00  0.00000000E+00  0.00000000E+00
  0.00000000E+00  0.00000000E+00  0.00000000E+00
  0.00000000E+00  0.00000000E+00  0.00000000E+00
  0.00000000E+00  0.00000000E+00  0.00000000E+00
  0.00000000E+00  0.00000000E+00  0.00000000E+00