CuInSe2gb                               
   1.00000000000000     
     9.7266780392896699    0.0000000000000000    0.0000000000000000
     0.0000000000000000    8.4235502764570693    0.0000000000000000
     0.0000000000000000    0.0000000000000000   45.0000000000000000
   Fe   Mn
   274    14
Direct
  0.0620938783055645  0.0290905367291903  0.1241194080911038
  0.3162997141554070  0.8744536805655955  0.6550736345169500
  0.1838043994599855  0.1232088538046522  0.7886809222844647
  0.4416892271615547  0.2875133320283525  0.3891133863248459
  0.3180519141742011  0.7136866970624489  0.8332155167621249
  0.8181640778290040  0.2148806310153278  0.8336197272522443
  0.1915765894069538  0.9634617838830071  0.8336034701946963
  0.5622164368067396  0.2069178235523510  0.5655317234072430
  0.0657339017450396  0.0404123334105843  0.7442460598199142
  0.8116397796405146  0.8715104925437783  0.5213950283459418
  0.1907487936910237  0.2909453397371642  0.7443874509675140
  0.9338331089555995  0.4527879730742256  0.3448339895054066
  0.9413199598594918  0.2866759181240308  0.3888766485673241
  0.8127987959849631  0.0405838585182183  0.8757823839311726
  0.1838493946891952  0.7881807144773854  0.6109481162256610
  0.5663966633265957  0.0378568767229867  0.3890637649372496
  0.9427052790889974  0.9646583820884616  0.8339325098467008
  0.3133330287832899  0.5405093876857509  0.8760558060464942
  0.6902349524355833  0.2914352228480409  0.7442577773346778
  0.1820368877558660  0.6136547697749194  0.1666616790914023
  0.8123657199148862  0.2057768160132861  0.4787334257361647
  0.8090638821500765  0.5385642441508367  0.6110825432700533
  0.3118713754986965  0.8702673647789119  0.4344219157784003
  0.8094318484486727  0.0377694671846363  0.2558399192188579
  0.6833540857389749  0.9525968085922265  0.3446273820188080
  0.9306396305561064  0.1146704787996290  0.1668406758568705
  0.0618752079993806  0.8715201812784145  0.5214302245980074
  0.5581112228189976  0.5384050845834234  0.2551783655952251
  0.6849217091910985  0.7975662510997670  0.8759253190773653
  0.5559847715910160  0.3654125840989318  0.1665339682526302
  0.4396365114994269  0.7918866724274684  0.7444512694126609
  0.8114668752668599  0.7064998893769909  0.5654867589102596
  0.5591665816282144  0.8734740823912803  0.7886278544596982
  0.6867134581015888  0.1217451697219211  0.5213658031006984
  0.8161356092467947  0.3748022284822778  0.6550087609470799
  0.9420806536165295  0.4639107993698552  0.8337101800560839
  0.0605818294318157  0.2075381077476947  0.6997351264130702
  0.4355363843501537  0.9575605531334914  0.6997379275648975
  0.3170703648597888  0.2128638354372017  0.8334920716598514
  0.4411111275332658  0.6248401914968066  0.6550374822559157
  0.3090073417052391  0.5383894879708324  0.6109807057544514
  0.9363889300841651  0.4564231192637404  0.5656057056822602
  0.6902904687326341  0.7915697452371364  0.7443391692794288
  0.9345902427134987  0.7888852902600039  0.1244076432726612
  0.6918083293241702  0.7879179722233097  0.3889958175081695
  0.9404344595447323  0.7908088061431425  0.7445120092392479
  0.0587610574166398  0.2032662770724644  0.3449458789665099
  0.6836333830378589  0.4526902156743582  0.3449843824695593
  0.4340829106282507  0.1226060423192603  0.7890058365696023
  0.0657062066769700  0.2056212000693811  0.2111191971816993
  0.0553117072065769  0.3656298879367039  0.1666132696745738
  0.9330063154855449  0.7867462824258958  0.2555291186427173
  0.5605009180755868  0.2071176998784416  0.6997822117082658
  0.6850837621042789  0.9570367704915128  0.6997728349061417
  0.8090433882841366  0.8735146359073428  0.7883914921404569
  0.4366791965345001  0.9570718818504113  0.5654060875603424
  0.8089281232889676  0.3746547739139990  0.7885073639328904
  0.6842646626910797  0.2879099533432539  0.2560354005329132
  0.1873961374012284  0.4570509014007327  0.5655383975276148
  0.0559857736146713  0.8651379522945314  0.1666015527037725
  0.1841663946069533  0.2885010200097364  0.6110763655269446
  0.0622274900590363  0.2072941876026657  0.5653962760013544
  0.3106673015720084  0.2073652594409978  0.6998201749942662
  0.5625785561451556  0.5405585620464833  0.8759895224682072
  0.0622231158654003  0.7066231926903342  0.5655681106261091
  0.6831935404498738  0.6224677031161944  0.7886034457389558
  0.3160516913843254  0.5382956198888085  0.3889045098688498
  0.1868199333366352  0.6215604267101180  0.5214949795662032
  0.5624269645319752  0.8698960306738241  0.4344915089653055
  0.4366604000035614  0.4568429896033364  0.5655625185891781
  0.4399056624278840  0.2915623987486223  0.7442996143948898
  0.8208934611348002  0.8732236291672203  0.3001988404333067
  0.8090037810352761  0.7026362327532479  0.3448450894241818
  0.4424271154964845  0.4627514849612509  0.8333623253879233
  0.6874919127194102  0.9558683353469863  0.4787273347376923
  0.6848381311453892  0.4575363109023247  0.6997743060943398
  0.5619600892587573  0.8719694460326304  0.5214664067136824
  0.5660456978344505  0.3743346318004915  0.6549662985692604
  0.8160944294877984  0.8749252808872492  0.6551223367672929
  0.8117551353394454  0.3713528977542335  0.4342399045986454
  0.8083678539655624  0.5372196402778797  0.2558026116942731
  0.6922071217434922  0.4621042080575660  0.8333303471017587
  0.1860118436647664  0.7884565220073723  0.1240354655527102
  0.6912630075276819  0.2873714829088582  0.3890006739079901
  0.3159554417904314  0.3739371111321126  0.6549890421426959
  0.3091118019530867  0.2028186843244641  0.3446297392721875
  0.8157080924520528  0.5402833789158674  0.7442466394900253
  0.6920451187820453  0.9620956960051856  0.8334703132779213
  0.5659723320227128  0.8741465893614995  0.6549898523890352
  0.3113050775553582  0.7071449554571633  0.5655300413960155
  0.3128425339123262  0.5297815452918742  0.1239920560748296
  0.6893239246018449  0.9539120853114978  0.2117654642476544
  0.3115278367688641  0.2065267878974328  0.5655231846103749
  0.1874538068956492  0.9558696942831660  0.4787100010434989
  0.6873866440969613  0.9569482399005900  0.5655252666740641
  0.4339131117167611  0.7884295622341251  0.6110282009212608
  0.6826790161367716  0.6122928978156096  0.1663017159582679
  0.3190886273560198  0.8743602168039201  0.3001745278581890
  0.3122660568761604  0.7058160308003978  0.4786636983831759
  0.9337138051049275  0.2877504855594096  0.6109004445303169
  0.4450339860065611  0.6246496743910965  0.2999864621024810
  0.8070461363203575  0.8636016939577867  0.1668221432551232
  0.5664061660833949  0.2030996577606290  0.2113950480529375
  0.9324295730878289  0.6131494029086992  0.1667412660091263
  0.4374000091207293  0.9557738944126752  0.4786793008114901
  0.5592340338462876  0.3731735140232797  0.7887262820162187
  0.0615261223550310  0.3723447507183007  0.5213975140412244
  0.3071108768958877  0.3638830017913950  0.1665839527534850
  0.6954529790700751  0.1236962146191802  0.3002286688151338
  0.4428840389888011  0.9630918965822194  0.8333587161813107
  0.1855009206554170  0.2869332017440678  0.1240354102139683
  0.1835547483070760  0.2870141080506403  0.2558399618003810
  0.3120000754696612  0.3704133367237372  0.4344438403354411
  0.5629019341403393  0.0320557041519536  0.1242407480267329
  0.4339522309774031  0.2883624277340479  0.6109908017987533
  0.1836766952927059  0.4527464313207282  0.3448797951458775
  0.4338604094780605  0.2869440050999711  0.1240494788660415
  0.6829409524991144  0.7876076744594489  0.2557041207896721
  0.4369432554554148  0.1216225191311162  0.5215261186949005
  0.1885775150026340  0.2965851741745436  0.8761499713303533
  0.1913998950734471  0.1249423226063262  0.6551503944440106
  0.9411042622794377  0.1250655649840780  0.6550472315156537
  0.8163592958068461  0.5376717205611150  0.3890256062060922
  0.0665119649654121  0.0381915794788405  0.3891440551271172
  0.1832748185220241  0.1122308759284038  0.1665161424077310
  0.0589314774058952  0.5382436296078753  0.6110407266902040
  0.9336944574897826  0.2875264932714424  0.2558200646773642
  0.5590088310511022  0.5383259596323331  0.6110159393684036
  0.9366571200917343  0.9570705507445321  0.5655398281916838
  0.6942375892138332  0.6248159287952114  0.3002333363637620
  0.9372911980422829  0.6207217915902271  0.4344905654880561
  0.9334872193649169  0.6242411465548793  0.7883724794029520
  0.5603974878145431  0.7072308069701640  0.6997545163367950
  0.0662165547768825  0.7165480450128638  0.8339010068355939
  0.9448854965897152  0.1236502646703368  0.3000826567887701
  0.9336720814697933  0.7876767607317721  0.6109204410297518
  0.4326244568510257  0.7876148226619801  0.2555055223604701
  0.3092101504305170  0.3737286004595881  0.7887359877895398
  0.4396760141549763  0.4529141587077820  0.2111633667381708
  0.1868366379186612  0.1218297321962619  0.5214192711776235
  0.8102849081851015  0.7072490527442643  0.6997562762512329
  0.0588019454393815  0.0379600529818158  0.6109016075596874
  0.5661470799246051  0.2134033292511031  0.8332287675296313
  0.3117856554525956  0.8718098235256156  0.5213931568618393
  0.6866380459244702  0.2858114807420510  0.1238901646629910
  0.1903230936018613  0.9544719044520825  0.2118682981527299
  0.6840186447518772  0.2886656175548075  0.6110470441876866
  0.3089029281630669  0.0384962168461978  0.6110701067350253
  0.9342683092597397  0.1243654690124026  0.7886160689749645
  0.4365859421275161  0.7974822138343635  0.8761867753496575
  0.8156090672944283  0.0408869004846401  0.7442766419662051
  0.9354085881867769  0.4578916327189643  0.6996671657747117
  0.1912029359583323  0.6249691090734055  0.6550433296161661
  0.3103042806923359  0.7068120973434929  0.6997616414790748
  0.9340012737555743  0.2867587280613867  0.1238467771236137
  0.4374855663515592  0.4560145314924900  0.4786097789080127
  0.0623506675186459  0.7057862584714718  0.4785508567273581
  0.9369053027715126  0.1192203417210077  0.4346122302135383
  0.4444646872720250  0.1244518122110845  0.3004800925200304
  0.1874744782587199  0.1205141874884136  0.4343625333975351
  0.5629344684944432  0.0405195319466034  0.8760361291081149
  0.1868886069283412  0.9570535179430794  0.5655534198201996
  0.6848292601180079  0.7883364733886969  0.1243009028922499
  0.5590553616738181  0.7024979000036602  0.3448679817569142
  0.3162855181928890  0.0370052082414664  0.3888988484905090
  0.6823798919354649  0.1137314122821583  0.1667619350439181
  0.8159167417464490  0.2038916893175482  0.2111338584615403
  0.0585791258646484  0.5372191668565628  0.2557361395301936
  0.5624978769660599  0.7058046024599293  0.4786435553180805
  0.4348962718885684  0.7873633378232044  0.1240924148883528
  0.5695953266586992  0.3718358616832321  0.3001157063982508
  0.4336614754897880  0.9534791142532013  0.3449141111482553
  0.1851866580310359  0.9573060479295931  0.6998430725588601
  0.4316215630288304  0.6130770496257010  0.1661503722731544
  0.9403921038058712  0.4524996635069390  0.2115585339314261
  0.0619798402958016  0.5292278913004118  0.1240043728337958
  0.8119126240731498  0.3720010450065947  0.5213873537178944
  0.9443043854411340  0.6244393104463656  0.3000059571355969
  0.3083554103371172  0.0372083506998447  0.2556027574381003
  0.6839169586407741  0.7881528798516337  0.6109610182297768
  0.1917758718244869  0.4630703546365320  0.8335052797226975
  0.4320329932232914  0.1115894363315322  0.1666490319404096
  0.3116392062005227  0.3719729824905021  0.5214153168999655
  0.4332715966019893  0.6228682164396596  0.7889284200045916
  0.0589198686974037  0.0373966536037297  0.2558070313748333
  0.5623538580306917  0.7069447430070290  0.5655486573542250
  0.9398533543601509  0.2904808427897710  0.7445114375761129
  0.6825904112848433  0.1227250220112543  0.7886010744802051
  0.1898554821338883  0.4529399196862743  0.2110928759982422
  0.9413497006814161  0.7877436063848628  0.3889851185341068
  0.6857579374281543  0.2988170652057838  0.8760582809670781
  0.5566087004960545  0.8630431724100247  0.1661726675966592
  0.4355608505287530  0.4574681100895008  0.6997741867831206
  0.9340840127654705  0.9513877829310412  0.3447590100551424
  0.6865510004440976  0.6214102715942731  0.5213316366958461
  0.0663014339966083  0.8747745015424780  0.6549890961418400
  0.0591876794487840  0.8739195975877982  0.7884813588773790
  0.0661551989034159  0.3746104060769209  0.6550270496432804
  0.6871170774953588  0.4557034776992178  0.4786471807975680
  0.1831818240562795  0.7868209334513907  0.2555408207996688
  0.4370501332632210  0.1208367877265559  0.4343776549343308
  0.8140041407852027  0.0307795659414769  0.1240610730045333
  0.9368985974345537  0.6218434570727051  0.5214133623723508
  0.4412524844822845  0.1246346891077707  0.6549281183236706
  0.8132551416341045  0.5291011207740149  0.1239704166533167
  0.4342946974425141  0.4527532006486409  0.3450003763197571
  0.8092336127947968  0.2024150436073160  0.3450409120538371
  0.3091789595415091  0.7021643210572739  0.3447763857960953
  0.6910626784789731  0.1250518103936725  0.6550348174683671
  0.5701670271561960  0.8734097358870594  0.3003078605950595
  0.0653461029660772  0.5409027395216409  0.7443350791845988
  0.9406360445597660  0.9536531657921906  0.2112926628503386
  0.8160968866901315  0.7043928146709231  0.2114870326049322
  0.0700840762266893  0.8734505910149905  0.3003441400428588
  0.1941731270611763  0.1242881995445755  0.3001635538368548
  0.0588895473384309  0.7018136392274045  0.3448883549251760
  0.8090059078451622  0.0384318453708440  0.6110085894919136
  0.0631312902158701  0.3713426417299105  0.4343159747411685
  0.3083710341453310  0.5373849906304035  0.2555794706086615
  0.8196488308729245  0.3727124746021451  0.2999503046165341
  0.5595279177573714  0.0376256062220600  0.2554454617955785
  0.5665339293160596  0.5374331653638650  0.3890016148861777
  0.0626521851727917  0.2057814471048516  0.4786674949504506
  0.3102696730356030  0.8729365232719335  0.7884537285631789
  0.9353118903787451  0.9579870438838931  0.6996692486398595
  0.0692708018447034  0.3742963419295184  0.2999534144154936
  0.6912795315053746  0.6248563636442669  0.6552019515549368
  0.6865772475103925  0.4569689184479507  0.5654423782632436
  0.4405357904831259  0.9545248878921601  0.2119734964362513
  0.3126804173996848  0.2058453490999708  0.4787732988798918
  0.8122762224498483  0.5400627200815272  0.8758610588647722
  0.6879186034824137  0.6202496472795702  0.4344996966815646
  0.8107456162748893  0.2074148835005534  0.6998101417901472
  0.8123753616801163  0.7055349290986961  0.4786669070300529
  0.8116761313852552  0.8707870787303859  0.4342773919652794
  0.9373559585409883  0.9551763971754422  0.4787333428142505
  0.5621298559404544  0.2056689908408687  0.4786632270065556
  0.1874547791971460  0.6200470650606071  0.4344631188221721
  0.3152383636960944  0.0416550379226307  0.7441613599743148
  0.9412610280054305  0.6251938576769757  0.6549332169635190
  0.5663500805576428  0.7134427980739493  0.8333376529120289
  0.3203331381524066  0.3724985265845961  0.3000914533576701
  0.3153484616286970  0.5413803036758987  0.7443072861015959
  0.1874013137897190  0.4556062229798439  0.4786553528166280
  0.3143193142657622  0.0410345513470086  0.8758910828365962
  0.1853566774346162  0.4578143006092903  0.6996977606878633
  0.5617806587477976  0.3718385981294506  0.5214127265397156
  0.1910232361672357  0.2873653898859105  0.3888475861304144
  0.3159307125277377  0.2053492428025790  0.2111870978530907
  0.0674739206932848  0.7051104992994566  0.2112997645382421
  0.5619204881807291  0.3707574382304761  0.4344113844819852
  0.4367792650567124  0.6220095947438653  0.5213841689873983
  0.8169696568059686  0.7151660206040592  0.8333959055371336
  0.0591055919548016  0.3748041653696916  0.7884631689265950
  0.4368159197976897  0.2981308279934505  0.8763293207449758
  0.3114833175645168  0.0309216629615326  0.1240862731584598
  0.6881178944178562  0.1208221817016263  0.4342317692575920
  0.1838689426892582  0.9523858746719590  0.3449121226171423
  0.0668425856800555  0.2149968572770959  0.8340234164734543
  0.5592387777907749  0.0384965190638353  0.6111202596270958
  0.6891230656511093  0.4531527317616151  0.2116517220228135
  0.1898259223839886  0.7916399299620670  0.7444308819037703
  0.1946219518713638  0.6236741816228536  0.3001497837372046
  0.4414448186021473  0.7876105334495639  0.3891792091881990
  0.4339449957574819  0.2874720828311044  0.2557755795870124
  0.0634087056928575  0.5406413537778042  0.8758806147691258
  0.5656207946980712  0.0411913527513675  0.7442644312860337
  0.1878020831396987  0.7971480708842563  0.8760555832584824
  0.9373982130502870  0.4556475726460723  0.4786331102817398
  0.5653971103261922  0.5413675285091663  0.7441395176194391
  0.8112066797691139  0.2070635469817244  0.5655061639742625
  0.1845207680141588  0.6225606695542909  0.7885147139863701
  0.0667262192112661  0.5383014477057075  0.3891349233181996
  0.0607567505612418  0.7074187785277926  0.6996834262947002
  0.5587900657043064  0.2035103611350732  0.3447212568434219
  0.3150622255591399  0.7048501451871493  0.2121308125848630
  0.3060461555543961  0.8638023490085915  0.1658711640912148
  0.4363892906920758  0.6213629270134929  0.4344221773569567
  0.8171596463461742  0.0394349589831960  0.3892625086165639
  0.9349970885568255  0.2977443159756743  0.8755928074604868
  0.9371681499343860  0.7953715265347612  0.8755514036813959
  0.0654641817490254  0.0388893047793710  0.8757606781442775
  0.5623915427568454  0.5286985915453165  0.1245014059161532
  0.8056503346251553  0.3654568285425512  0.1658827012617361
  0.0617337464193449  0.8710141994427131  0.4343340222031665
  0.9366182861947340  0.1217385583034792  0.5215539837500269
  0.1935954454475315  0.7877696740858727  0.3888657622110758
  0.5674907783612958  0.7042990965035385  0.2120551742715959
 
  0.00000000E+00  0.00000000E+00  0.00000000E+00
  0.00000000E+00  0.00000000E+00  0.00000000E+00
  0.00000000E+00  0.00000000E+00  0.00000000E+00
  0.00000000E+00  0.00000000E+00  0.00000000E+00
  0.00000000E+00  0.00000000E+00  0.00000000E+00
  0.00000000E+00  0.00000000E+00  0.00000000E+00
  0.00000000E+00  0.00000000E+00  0.00000000E+00
  0.00000000E+00  0.00000000E+00  0.00000000E+00
  0.00000000E+00  0.00000000E+00  0.00000000E+00
  0.00000000E+00  0.00000000E+00  0.00000000E+00
  0.00000000E+00  0.00000000E+00  0.00000000E+00
  0.00000000E+00  0.00000000E+00  0.00000000E+00
  0.00000000E+00  0.00000000E+00  0.00000000E+00
  0.00000000E+00  0.00000000E+00  0.00000000E+00
  0.00000000E+00  0.00000000E+00  0.00000000E+00
  0.00000000E+00  0.00000000E+00  0.00000000E+00
  0.00000000E+00  0.00000000E+00  0.00000000E+00
  0.00000000E+00  0.00000000E+00  0.00000000E+00
  0.00000000E+00  0.00000000E+00  0.00000000E+00
  0.00000000E+00  0.00000000E+00  0.00000000E+00
  0.00000000E+00  0.00000000E+00  0.00000000E+00
  0.00000000E+00  0.00000000E+00  0.00000000E+00
  0.00000000E+00  0.00000000E+00  0.00000000E+00
  0.00000000E+00  0.00000000E+00  0.00000000E+00
  0.00000000E+00  0.00000000E+00  0.00000000E+00
  0.00000000E+00  0.00000000E+00  0.00000000E+00
  0.00000000E+00  0.00000000E+00  0.00000000E+00
  0.00000000E+00  0.00000000E+00  0.00000000E+00
  0.00000000E+00  0.00000000E+00  0.00000000E+00
  0.00000000E+00  0.00000000E+00  0.00000000E+00
  0.00000000E+00  0.00000000E+00  0.00000000E+00
  0.00000000E+00  0.00000000E+00  0.00000000E+00
  0.00000000E+00  0.00000000E+00  0.00000000E+00
  0.00000000E+00  0.00000000E+00  0.00000000E+00
  0.00000000E+00  0.00000000E+00  0.00000000E+00
  0.00000000E+00  0.00000000E+00  0.00000000E+00
  0.00000000E+00  0.00000000E+00  0.00000000E+00
  0.00000000E+00  0.00000000E+00  0.00000000E+00
  0.00000000E+00  0.00000000E+00  0.00000000E+00
  0.00000000E+00  0.00000000E+00  0.00000000E+00
  0.00000000E+00  0.00000000E+00  0.00000000E+00
  0.00000000E+00  0.00000000E+00  0.00000000E+00
  0.00000000E+00  0.00000000E+00  0.00000000E+00
  0.00000000E+00  0.00000000E+00  0.00000000E+00
  0.00000000E+00  0.00000000E+00  0.00000000E+00
  0.00000000E+00  0.00000000E+00  0.00000000E+00
  0.00000000E+00  0.00000000E+00  0.00000000E+00
  0.00000000E+00  0.00000000E+00  0.00000000E+00
  0.00000000E+00  0.00000000E+00  0.00000000E+00
  0.00000000E+00  0.00000000E+00  0.00000000E+00
  0.00000000E+00  0.00000000E+00  0.00000000E+00
  0.00000000E+00  0.00000000E+00  0.00000000E+00
  0.00000000E+00  0.00000000E+00  0.00000000E+00
  0.00000000E+00  0.00000000E+00  0.00000000E+00
  0.00000000E+00  0.00000000E+00  0.00000000E+00
  0.00000000E+00  0.00000000E+00  0.00000000E+00
  0.00000000E+00  0.00000000E+00  0.00000000E+00
  0.00000000E+00  0.00000000E+00  0.00000000E+00
  0.00000000E+00  0.00000000E+00  0.00000000E+00
  0.00000000E+00  0.00000000E+00  0.00000000E+00
  0.00000000E+00  0.00000000E+00  0.00000000E+00
  0.00000000E+00  0.00000000E+00  0.00000000E+00
  0.00000000E+00  0.00000000E+00  0.00000000E+00
  0.00000000E+00  0.00000000E+00  0.00000000E+00
  0.00000000E+00  0.00000000E+00  0.00000000E+00
  0.00000000E+00  0.00000000E+00  0.00000000E+00
  0.00000000E+00  0.00000000E+00  0.00000000E+00
  0.00000000E+00  0.00000000E+00  0.00000000E+00
  0.00000000E+00  0.00000000E+00  0.00000000E+00
  0.00000000E+00  0.00000000E+00  0.00000000E+00
  0.00000000E+00  0.00000000E+00  0.00000000E+00
  0.00000000E+00  0.00000000E+00  0.00000000E+00
  0.00000000E+00  0.00000000E+00  0.00000000E+00
  0.00000000E+00  0.00000000E+00  0.00000000E+00
  0.00000000E+00  0.00000000E+00  0.00000000E+00
  0.00000000E+00  0.00000000E+00  0.00000000E+00
  0.00000000E+00  0.00000000E+00  0.00000000E+00
  0.00000000E+00  0.00000000E+00  0.00000000E+00
  0.00000000E+00  0.00000000E+00  0.00000000E+00
  0.00000000E+00  0.00000000E+00  0.00000000E+00
  0.00000000E+00  0.00000000E+00  0.00000000E+00
  0.00000000E+00  0.00000000E+00  0.00000000E+00
  0.00000000E+00  0.00000000E+00  0.00000000E+00
  0.00000000E+00  0.00000000E+00  0.00000000E+00
  0.00000000E+00  0.00000000E+00  0.00000000E+00
  0.00000000E+00  0.00000000E+00  0.00000000E+00
  0.00000000E+00  0.00000000E+00  0.00000000E+00
  0.00000000E+00  0.00000000E+00  0.00000000E+00
  0.00000000E+00  0.00000000E+00  0.00000000E+00
  0.00000000E+00  0.00000000E+00  0.00000000E+00
  0.00000000E+00  0.00000000E+00  0.00000000E+00
  0.00000000E+00  0.00000000E+00  0.00000000E+00
  0.00000000E+00  0.00000000E+00  0.00000000E+00
  0.00000000E+00  0.00000000E+00  0.00000000E+00
  0.00000000E+00  0.00000000E+00  0.00000000E+00
  0.00000000E+00  0.00000000E+00  0.00000000E+00
  0.00000000E+00  0.00000000E+00  0.00000000E+00
  0.00000000E+00  0.00000000E+00  0.00000000E+00
  0.00000000E+00  0.00000000E+00  0.00000000E+00
  0.00000000E+00  0.00000000E+00  0.00000000E+00
  0.00000000E+00  0.00000000E+00  0.00000000E+00
  0.00000000E+00  0.00000000E+00  0.00000000E+00
  0.00000000E+00  0.00000000E+00  0.00000000E+00
  0.00000000E+00  0.00000000E+00  0.00000000E+00
  0.00000000E+00  0.00000000E+00  0.00000000E+00
  0.00000000E+00  0.00000000E+00  0.00000000E+00
  0.00000000E+00  0.00000000E+00  0.00000000E+00
  0.00000000E+00  0.00000000E+00  0.00000000E+00
  0.00000000E+00  0.00000000E+00  0.00000000E+00
  0.00000000E+00  0.00000000E+00  0.00000000E+00
  0.00000000E+00  0.00000000E+00  0.00000000E+00
  0.00000000E+00  0.00000000E+00  0.00000000E+00
  0.00000000E+00  0.00000000E+00  0.00000000E+00
  0.00000000E+00  0.00000000E+00  0.00000000E+00
  0.00000000E+00  0.00000000E+00  0.00000000E+00
  0.00000000E+00  0.00000000E+00  0.00000000E+00
  0.00000000E+00  0.00000000E+00  0.00000000E+00
  0.00000000E+00  0.00000000E+00  0.00000000E+00
  0.00000000E+00  0.00000000E+00  0.00000000E+00
  0.00000000E+00  0.00000000E+00  0.00000000E+00
  0.00000000E+00  0.00000000E+00  0.00000000E+00
  0.00000000E+00  0.00000000E+00  0.00000000E+00
  0.00000000E+00  0.00000000E+00  0.00000000E+00
  0.00000000E+00  0.00000000E+00  0.00000000E+00
  0.00000000E+00  0.00000000E+00  0.00000000E+00
  0.00000000E+00  0.00000000E+00  0.00000000E+00
  0.00000000E+00  0.00000000E+00  0.00000000E+00
  0.00000000E+00  0.00000000E+00  0.00000000E+00
  0.00000000E+00  0.00000000E+00  0.00000000E+00
  0.00000000E+00  0.00000000E+00  0.00000000E+00
  0.00000000E+00  0.00000000E+00  0.00000000E+00
  0.00000000E+00  0.00000000E+00  0.00000000E+00
  0.00000000E+00  0.00000000E+00  0.00000000E+00
  0.00000000E+00  0.00000000E+00  0.00000000E+00
  0.00000000E+00  0.00000000E+00  0.00000000E+00
  0.00000000E+00  0.00000000E+00  0.00000000E+00
  0.00000000E+00  0.00000000E+00  0.00000000E+00
  0.00000000E+00  0.00000000E+00  0.00000000E+00
  0.00000000E+00  0.00000000E+00  0.00000000E+00
  0.00000000E+00  0.00000000E+00  0.00000000E+00
  0.00000000E+00  0.00000000E+00  0.00000000E+00
  0.00000000E+00  0.00000000E+00  0.00000000E+00
  0.00000000E+00  0.00000000E+00  0.00000000E+00
  0.00000000E+00  0.00000000E+00  0.00000000E+00
  0.00000000E+00  0.00000000E+00  0.00000000E+00
  0.00000000E+00  0.00000000E+00  0.00000000E+00
  0.00000000E+00  0.00000000E+00  0.00000000E+00
  0.00000000E+00  0.00000000E+00  0.00000000E+00
  0.00000000E+00  0.00000000E+00  0.00000000E+00
  0.00000000E+00  0.00000000E+00  0.00000000E+00
  0.00000000E+00  0.00000000E+00  0.00000000E+00
  0.00000000E+00  0.00000000E+00  0.00000000E+00
  0.00000000E+00  0.00000000E+00  0.00000000E+00
  0.00000000E+00  0.00000000E+00  0.00000000E+00
  0.00000000E+00  0.00000000E+00  0.00000000E+00
  0.00000000E+00  0.00000000E+00  0.00000000E+00
  0.00000000E+00  0.00000000E+00  0.00000000E+00
  0.00000000E+00  0.00000000E+00  0.00000000E+00
  0.00000000E+00  0.00000000E+00  0.00000000E+00
  0.00000000E+00  0.00000000E+00  0.00000000E+00
  0.00000000E+00  0.00000000E+00  0.00000000E+00
  0.00000000E+00  0.00000000E+00  0.00000000E+00
  0.00000000E+00  0.00000000E+00  0.00000000E+00
  0.00000000E+00  0.00000000E+00  0.00000000E+00
  0.00000000E+00  0.00000000E+00  0.00000000E+00
  0.00000000E+00  0.00000000E+00  0.00000000E+00
  0.00000000E+00  0.00000000E+00  0.00000000E+00
  0.00000000E+00  0.00000000E+00  0.00000000E+00
  0.00000000E+00  0.00000000E+00  0.00000000E+00
  0.00000000E+00  0.00000000E+00  0.00000000E+00
  0.00000000E+00  0.00000000E+00  0.00000000E+00
  0.00000000E+00  0.00000000E+00  0.00000000E+00
  0.00000000E+00  0.00000000E+00  0.00000000E+00
  0.00000000E+00  0.00000000E+00  0.00000000E+00
  0.00000000E+00  0.00000000E+00  0.00000000E+00
  0.00000000E+00  0.00000000E+00  0.00000000E+00
  0.00000000E+00  0.00000000E+00  0.00000000E+00
  0.00000000E+00  0.00000000E+00  0.00000000E+00
  0.00000000E+00  0.00000000E+00  0.00000000E+00
  0.00000000E+00  0.00000000E+00  0.00000000E+00
  0.00000000E+00  0.00000000E+00  0.00000000E+00
  0.00000000E+00  0.00000000E+00  0.00000000E+00
  0.00000000E+00  0.00000000E+00  0.00000000E+00
  0.00000000E+00  0.00000000E+00  0.00000000E+00
  0.00000000E+00  0.00000000E+00  0.00000000E+00
  0.00000000E+00  0.00000000E+00  0.00000000E+00
  0.00000000E+00  0.00000000E+00  0.00000000E+00
  0.00000000E+00  0.00000000E+00  0.00000000E+00
  0.00000000E+00  0.00000000E+00  0.00000000E+00
  0.00000000E+00  0.00000000E+00  0.00000000E+00
  0.00000000E+00  0.00000000E+00  0.00000000E+00
  0.00000000E+00  0.00000000E+00  0.00000000E+00
  0.00000000E+00  0.00000000E+00  0.00000000E+00
  0.00000000E+00  0.00000000E+00  0.00000000E+00
  0.00000000E+00  0.00000000E+00  0.00000000E+00
  0.00000000E+00  0.00000000E+00  0.00000000E+00
  0.00000000E+00  0.00000000E+00  0.00000000E+00
  0.00000000E+00  0.00000000E+00  0.00000000E+00
  0.00000000E+00  0.00000000E+00  0.00000000E+00
  0.00000000E+00  0.00000000E+00  0.00000000E+00
  0.00000000E+00  0.00000000E+00  0.00000000E+00
  0.00000000E+00  0.00000000E+00  0.00000000E+00
  0.00000000E+00  0.00000000E+00  0.00000000E+00
  0.00000000E+00  0.00000000E+00  0.00000000E+00
  0.00000000E+00  0.00000000E+00  0.00000000E+00
  0.00000000E+00  0.00000000E+00  0.00000000E+00
  0.00000000E+00  0.00000000E+00  0.00000000E+00
  0.00000000E+00  0.00000000E+00  0.00000000E+00
  0.00000000E+00  0.00000000E+00  0.00000000E+00
  0.00000000E+00  0.00000000E+00  0.00000000E+00
  0.00000000E+00  0.00000000E+00  0.00000000E+00
  0.00000000E+00  0.00000000E+00  0.00000000E+00
  0.00000000E+00  0.00000000E+00  0.00000000E+00
  0.00000000E+00  0.00000000E+00  0.00000000E+00
  0.00000000E+00  0.00000000E+00  0.00000000E+00
  0.00000000E+00  0.00000000E+00  0.00000000E+00
  0.00000000E+00  0.00000000E+00  0.00000000E+00
  0.00000000E+00  0.00000000E+00  0.00000000E+00
  0.00000000E+00  0.00000000E+00  0.00000000E+00
  0.00000000E+00  0.00000000E+00  0.00000000E+00
  0.00000000E+00  0.00000000E+00  0.00000000E+00
  0.00000000E+00  0.00000000E+00  0.00000000E+00
  0.00000000E+00  0.00000000E+00  0.00000000E+00
  0.00000000E+00  0.00000000E+00  0.00000000E+00
  0.00000000E+00  0.00000000E+00  0.00000000E+00
  0.00000000E+00  0.00000000E+00  0.00000000E+00
  0.00000000E+00  0.00000000E+00  0.00000000E+00
  0.00000000E+00  0.00000000E+00  0.00000000E+00
  0.00000000E+00  0.00000000E+00  0.00000000E+00
  0.00000000E+00  0.00000000E+00  0.00000000E+00
  0.00000000E+00  0.00000000E+00  0.00000000E+00
  0.00000000E+00  0.00000000E+00  0.00000000E+00
  0.00000000E+00  0.00000000E+00  0.00000000E+00
  0.00000000E+00  0.00000000E+00  0.00000000E+00
  0.00000000E+00  0.00000000E+00  0.00000000E+00
  0.00000000E+00  0.00000000E+00  0.00000000E+00
  0.00000000E+00  0.00000000E+00  0.00000000E+00
  0.00000000E+00  0.00000000E+00  0.00000000E+00
  0.00000000E+00  0.00000000E+00  0.00000000E+00
  0.00000000E+00  0.00000000E+00  0.00000000E+00
  0.00000000E+00  0.00000000E+00  0.00000000E+00
  0.00000000E+00  0.00000000E+00  0.00000000E+00
  0.00000000E+00  0.00000000E+00  0.00000000E+00
  0.00000000E+00  0.00000000E+00  0.00000000E+00
  0.00000000E+00  0.00000000E+00  0.00000000E+00
  0.00000000E+00  0.00000000E+00  0.00000000E+00
  0.00000000E+00  0.00000000E+00  0.00000000E+00