FeMn_288_15                             
    1.000000000000000     
     9.7266779999999997    0.0000000000000000    0.0000000000000000
     0.0000000000000000    8.4235500000000005    0.0000000000000000
     0.0000000000000000    0.0000000000000000   45.0000000000000000
   Fe   Mn
   273    15
Direct
  0.4373623031182950  0.2879473724576144  0.3902937357865970
  0.0628818894087705  0.5419482506931139  0.8734306655488416
  0.9373215919754272  0.7915908182443315  0.8733970463466256
  0.3125024386144873  0.7062359757912998  0.5650959664894243
  0.0623576752892805  0.2089483074062445  0.8313552458892535
  0.4374599245470885  0.9544603595541775  0.3464389096295798
  0.6875029369203908  0.4535904354497646  0.3464090638668991
  0.3124243531079952  0.2053778287211664  0.4786384406728728
  0.1877793459169352  0.9539902380088033  0.3463655726962483
  0.8122984675865365  0.0376717879393319  0.3903466288407879
  0.5625392130292792  0.5377443414842322  0.3902271540971470
  0.8128267435108960  0.7054804586214981  0.4786931467815181
  0.0624149949605341  0.3724562114761398  0.5213657065353995
  0.3126060905765259  0.3714735608903418  0.4348753127245786
  0.8125170060137460  0.2037338985421791  0.3463968525824949
  0.4370218152691030  0.6200735503604987  0.3018744785602668
  0.0626105223761859  0.8715276715526047  0.4349096432266809
  0.3132256244567113  0.5366473841342397  0.1264545357456082
  0.5621376310556474  0.3723507596330201  0.5213888524027497
  0.3124783706781453  0.7087909930902077  0.8313026184196386
  0.0622547309231578  0.7030355399918469  0.2135642025506036
  0.6875292790285776  0.4579750913655097  0.6981515196597160
  0.1875176113464673  0.6214858772504683  0.4349186905174803
  0.5622363352654628  0.7061703791472200  0.5651319333723976
  0.1874751209508486  0.9553125429126553  0.4786373359036262
  0.9380440251496897  0.2916875661430152  0.7422740295268571
  0.5623836152895297  0.0364264699944406  0.2577204746219914
  0.6875252430723819  0.1224680775049310  0.5213716263935727
  0.0623799859575633  0.0367403724148434  0.2577621502038321
  0.8120952352222042  0.8699719366820368  0.3019960095101919
  0.6874974924931516  0.9551342985936091  0.4786610243590247
  0.8120894844212493  0.5364272796610968  0.2577032588312489
  0.9375829700239589  0.9561273107942255  0.5650838365280596
  0.3121073335267068  0.7029169563546941  0.2135461597120195
  0.4376091340208954  0.1253612431993059  0.7864120442699101
  0.5624491752529575  0.5415508393643695  0.8733898516153318
  0.1875526776459770  0.1214857441578565  0.4349420026550495
  0.4369129795898536  0.7858446567174003  0.1265282736010247
  0.8131223888155773  0.0408094421723392  0.8734017132498955
  0.0630926175407706  0.2071440705398522  0.6980509482151243
  0.5630007697322504  0.7034023861456428  0.2136493721980796
  0.3126123990443638  0.8686311841619148  0.1688371613208122
  0.1875938668948168  0.9580732242658367  0.8312020280569876
  0.5623648335047716  0.0401399407998323  0.6097111684951717
  0.9376890421860781  0.4538033519294592  0.3464108632657973
  0.0624260440072076  0.7053545704321669  0.4786308851107235
  0.9377657152392944  0.1200419088112628  0.3019746692919092
  0.0626113602178636  0.7039262159011251  0.3463903666978723
  0.5626987917438352  0.5398182597116300  0.6097108207375794
  0.3126421773538459  0.8724746773911380  0.5213508703942731
  0.1874594255161074  0.6251906114685172  0.7864286479817469
  0.4376551496374123  0.4553850446392075  0.4786500817911313
  0.8125601194249534  0.5409527507841554  0.7422059771605229
  0.9374993337471180  0.9552156820933076  0.4786470603866148
  0.9377174615560989  0.9532640098456892  0.2134570177776226
  0.9374530848862362  0.7875394148225585  0.3903272757654861
  0.6873921232747061  0.1246377105240342  0.7863918640490575
  0.0625806231478650  0.0400930102008775  0.6096901405998952
  0.3124962053072841  0.2077519362802364  0.6980622916989651
  0.8126258810599291  0.7040212333239257  0.3463738777627081
  0.9376924256810757  0.2871204476724851  0.2577662015682470
  0.3123505618761134  0.8715050763152621  0.4348502559343144
  0.6874961501935195  0.9579864895665456  0.8312646233229423
  0.1874874955462671  0.1201763221298015  0.1687525255117452
  0.8125436266791786  0.2061804031984788  0.5651322265435493
  0.3124650510261456  0.5398214397575267  0.6098308293100387
  0.5622547358100199  0.8747158014200156  0.7863575579597685
  0.5622811924853459  0.3749634657604117  0.7865316413322290
  0.1875306618312972  0.2876316052951539  0.3902847215280418
  0.6874622354757806  0.6216307025643242  0.4350975980647007
  0.4376723741114619  0.6253804305861794  0.7864518761327324
  0.8125392108822840  0.2053168833136863  0.4786643217380007
  0.9375629535945355  0.7911494678093078  0.7422020938027953
  0.6876010335771112  0.2863791509595071  0.2576554885712664
  0.1874932944758662  0.1197441973184290  0.3018890938616650
  0.5620352989178640  0.2081871519175842  0.8313032941490546
  0.8126612093598781  0.3705192411226624  0.3018586616681012
  0.1873299958103275  0.4540902407233252  0.3463426496382553
  0.9378966052979986  0.6221787395516846  0.5213700464899774
  0.3127383583762142  0.3703436943290635  0.3018932992777739
  0.1875847834112470  0.9530402250551570  0.2135425335174688
  0.8126284592067743  0.7061470058352665  0.5650987585265617
  0.8126748614183860  0.3714380124168642  0.4348229597245660
  0.3124654532737741  0.2063728045449410  0.5651448769637580
  0.3126777235587374  0.8738591293008562  0.6536223834669259
  0.1883104937136146  0.7864406781158351  0.1266081529279472
  0.1874870371998199  0.1247277504171852  0.7864127377782307
  0.0623949723596074  0.3715381895990486  0.4348770523368387
  0.1878552259206740  0.6203009427273904  0.3019575209496797
  0.1875174787066016  0.1225528820767098  0.5213823289282051
  0.1875394103679692  0.6225279131164214  0.5213295666269279
  0.4372115979868783  0.1224054841404002  0.5213764364570284
  0.4375265666087226  0.9524079893763646  0.2134425644196577
  0.4371697639689047  0.1205912871577549  0.3018916746894225
  0.0621853162938726  0.5410137072805117  0.7422626721628581
  0.0625533709511585  0.2037432247870032  0.3463844098416186
  0.5628728099021929  0.5414628348227852  0.7422893336769247
  0.1872628989835381  0.6238277717460842  0.6536626583338120
  0.5627872620775202  0.8694432700629727  0.1687248311260425
  0.3121398099936555  0.0365047309311251  0.1266524978283347
  0.8124858243089188  0.8744451770074110  0.7864960629603451
  0.0625994616270426  0.7063305442203055  0.5651021347404542
  0.1880715688921703  0.2852126856091969  0.1265749890849776
  0.8123895512742364  0.8728816519866545  0.5213466492473918
  0.8126331447355715  0.7027102127241874  0.2135207686982162
  0.5625452637823868  0.7040739465434097  0.3463282816240872
  0.3125001743969483  0.2043042407193900  0.3463708712120910
  0.4374736647242737  0.7922355904050751  0.8735757118714018
  0.1875699291472327  0.4562458953417375  0.5650789252744219
  0.9376864389698990  0.7863515574114689  0.2576412421083626
  0.3130381319096980  0.2084022217942926  0.8311533491584148
  0.9371991976597858  0.4565280331158459  0.5651861167027280
  0.8126120659764680  0.0415882126350977  0.7423619913008460
  0.6873641735444540  0.7873705159454063  0.3903518680346353
  0.8121588166562937  0.2029696152663888  0.2135341567809007
  0.3123546707239330  0.2025474930881439  0.2134647085233864
  0.1874500808576047  0.7914080620504298  0.7422621410722461
  0.9374636266346624  0.1248587191858097  0.7864991055093260
  0.9375032148328355  0.1235627508958827  0.6536093197987591
  0.8126378870902582  0.2087935948680871  0.8312806275327306
  0.1876866476483051  0.6197070806349247  0.1686528820858582
  0.3120225285764997  0.8748767758465439  0.7863189167603151
  0.6877354925884851  0.7865243489361774  0.1264373729159980
  0.4372561967929681  0.7901164220534123  0.6098035589869635
  0.5620036435685821  0.0413165505052636  0.8735427550001430
  0.5625217261852939  0.8727764345472602  0.5213985996345397
  0.6874736950250878  0.4548588918250354  0.4787209380541595
  0.3130283508733295  0.5362960863033146  0.2577392604668026
  0.0625118142900867  0.2064280457158887  0.5651277015227039
  0.3124823069962230  0.3740769720977210  0.6536666264920633
  0.5616624502231017  0.3698589137898632  0.1687736643869756
  0.0629225531185082  0.8749760322158693  0.7864523717909903
  0.6871941890251848  0.7899706672722228  0.6097693340716753
  0.8124837470756374  0.7079479638920827  0.6980157486377995
  0.5624205499029378  0.2061021070881518  0.5650916515070287
  0.5629803067400182  0.0364115700390330  0.1266191155001551
  0.6872215021860870  0.9577127532479426  0.6981699947784213
  0.1869356128306268  0.4583657275275929  0.8311923862165639
  0.0623198262731938  0.0360620711539618  0.1265916194880840
  0.5626539838731518  0.2025939224700126  0.2135055618053450
  0.1873636762083085  0.4579092853480624  0.6981263148357678
  0.0623784774846524  0.8736131659543491  0.6536063873925603
  0.3123258524227296  0.7076905979380448  0.6981479930699726
  0.4374923237659855  0.7877268706468961  0.3902689190244268
  0.9373209257129979  0.4554381443527686  0.4786628042326818
  0.6869105633109995  0.2857140473979826  0.1266800088463571
  0.0624552392119802  0.8725604744800816  0.5213467515303720
  0.4374090891249791  0.1214531262120957  0.4348604239660787
  0.5624664450740255  0.3698477137858420  0.3018811596280054
  0.6874152003951139  0.1242011016004936  0.6535783273193072
  0.4373988119401858  0.6238771562911366  0.6536138523229561
  0.9376456054206306  0.6213533877869534  0.4348169591794919
  0.3124332408125149  0.3747591603715418  0.7864209696654350
  0.5624986284644247  0.7089323328195073  0.8312488229582383
  0.3121550769084550  0.5418616172762294  0.8733621833923794
  0.3125335436829215  0.7043423080708426  0.3463868558595818
  0.8124386782625562  0.8739070415604415  0.6537762388067671
  0.0627469268256797  0.3694305540208634  0.1686324756534324
  0.1873074632682757  0.9563019548648517  0.5651665273669523
  0.6867197385622920  0.4532713835615541  0.2134227103007852
  0.6875626160463297  0.1213470048836020  0.4349063506729367
  0.5625292994267566  0.8706837227034793  0.3019660046864071
  0.6875118207311877  0.6239145120731390  0.6536262185859962
  0.1881213243705295  0.4528411144890477  0.2135654439049028
  0.5623102448195342  0.3714366100429302  0.4348112741511727
  0.5621559819968890  0.7054826313858082  0.4786961960609676
  0.0624558209993936  0.5403024189898610  0.6098057358760736
  0.6869470169885098  0.6202351610157247  0.3019466273359213
  0.0625216293533407  0.7080846933051622  0.8311689458332921
  0.4375593943760763  0.4540968929539335  0.3463495917165743
  0.9375380259108065  0.2874089356026993  0.3904118138454470
  0.4373654010160786  0.4523386044328576  0.2136052713097305
  0.5628383353341113  0.0412730892515793  0.7421565351225883
  0.3124144430438289  0.0402703092425279  0.6097525144544131
  0.9376596550651024  0.6236146499679888  0.6536125996685594
  0.4377847575729782  0.9573823066790134  0.6980858414856977
  0.3130250193273544  0.0414316422401490  0.8734975210165316
  0.9377459733529353  0.1225044878827889  0.5213196109568148
  0.4375172848920180  0.2899747159449274  0.6097937422785743
  0.6875327252588687  0.2878312689794070  0.3902561615438541
  0.9375394660757416  0.4572646496645406  0.6981457379215990
  0.4370746853770764  0.2914106549426050  0.7422247296841321
  0.1875581878626715  0.2924966569582218  0.8733254213734190
  0.6878184924813335  0.1192278710588594  0.1686671450131287
  0.9374875796184249  0.2916494694601032  0.8734684408947109
  0.6873966716378817  0.4560849527758700  0.5650784001566734
  0.0617565871620785  0.0412501840622118  0.8733207465894679
  0.3132198125907957  0.3695076145501514  0.1687613847583334
  0.0624681773873870  0.3703168847126408  0.3019714955499603
  0.1875449591673043  0.7878859874733928  0.3903218438178535
  0.0618083679532563  0.5360718365284842  0.1265736435890057
  0.8123914186056779  0.8716935987036538  0.4348518100276844
  0.9374139566432865  0.6190264809477315  0.1685417328777801
  0.3126573121585660  0.0379203046024186  0.3902936226609913
  0.5619631877796449  0.5358636774415168  0.1264998106374151
  0.6871648124920348  0.2897312893920819  0.6098316714885248
  0.4371291224556521  0.6221550803277532  0.5213860836827467
  0.9374677999578371  0.6248650165762085  0.7864676725718722
  0.8126050444320393  0.0401498809615650  0.6097307632506879
  0.9370030164116339  0.7873181518173010  0.1263533850215564
  0.4375216902144700  0.9552610728936232  0.4786541213486838
  0.9374955649473085  0.1216120247089457  0.4348677200530607
  0.5623901206803689  0.5366033312621389  0.2577510761299907
  0.5624880766634183  0.3739906964578250  0.6537012902538829
  0.8123856605835664  0.0363770022516194  0.2578122803716363
  0.0624676641189742  0.3735274879151738  0.6536717758817181
  0.4374924768350206  0.1195937324042660  0.1687763779251570
  0.6875545435843110  0.2923984649339623  0.8733798467011694
  0.6876211008862440  0.7917607311984733  0.8734086979775332
  0.3125467231058005  0.5378328841195935  0.3902615032812147
  0.9372211470771887  0.4582132757762820  0.8312434206969060
  0.6882941251760921  0.6199748435052246  0.1687800672819567
  0.9379121841743503  0.2868955118305292  0.1265190355295906
  0.6868366125810081  0.9532785898672355  0.2135983267554778
  0.4374550276321649  0.4579923516221291  0.6981312144319041
  0.3125163533409449  0.5411891769426972  0.7422627982793704
  0.0625572432059098  0.2034901793262880  0.2135345649083535
  0.1878113236538110  0.2901097240761890  0.6097622864141569
  0.1875650384898526  0.1236857151595366  0.6537028233770363
  0.9373155093412069  0.9576920070084390  0.6981524974539579
  0.4372887285181984  0.2862227393586563  0.2577453339333194
  0.8126814829967717  0.5413931841353093  0.8734901887826250
  0.4373384718485439  0.2864971413346477  0.1265436231572778
  0.6873300244033791  0.2915947992389930  0.7423003138951733
  0.0621376139539290  0.0416500190769904  0.7422421025677403
  0.4373598409243020  0.6212891678420830  0.4347982079048658
  0.1875865409819809  0.7918562601758732  0.8734169715233350
  0.3126326481152539  0.3723553590514082  0.5213723188441820
  0.5624981372975041  0.0378055490410392  0.3903256555936610
  0.0622856656154856  0.8706271421048877  0.1687405247755032
  0.1876116441076582  0.2913771653164622  0.7422425802588850
  0.1876755459560759  0.7900364654129798  0.6097655326003460
  0.8130506318522155  0.3693914495571505  0.1686532585896567
  0.4377643745620444  0.4586672104922929  0.8311662808328248
  0.0624625939021657  0.5375486579000383  0.3903524738605954
  0.5624396083033688  0.8738680959759713  0.6536016574933567
  0.4375515787863633  0.9561871695974279  0.5651687088345408
  0.4371933308993233  0.7914521384503513  0.7422183451484481
  0.9374958215462170  0.1190960617406834  0.1688249055801866
  0.3127014172444121  0.8703442539315845  0.3019229956297106
  0.0627023494254279  0.7076469366108669  0.6981066571105994
  0.3126116939684954  0.7053355648233153  0.4786420572340226
  0.1875241810860583  0.4553363887613218  0.4787013007346920
  0.8122699029576064  0.5405448769448961  0.6096683938592670
  0.1876125096799958  0.7865168489282087  0.2577334639332936
  0.6875035964210433  0.9540251511596026  0.3463737449524746
  0.8125309578763599  0.3737086802414631  0.6537072312128148
  0.0628262784640141  0.3751386819811461  0.7864870275677571
  0.9375146525033323  0.9541378060821353  0.3463839964458401
  0.5624464899989881  0.2041795025386823  0.3463624092308955
  0.6881985949163196  0.4581097524133707  0.8314045878315574
  0.5618811191211920  0.2076829235601553  0.6980583555530978
  0.0624848450924023  0.0375570652791688  0.3902149944547564
  0.8132838765139756  0.5366763431458129  0.1265520979458712
  0.5624590597360731  0.2053021321734843  0.4786803391884183
  0.6875783153597210  0.9558625390399939  0.5651168358408736
  0.6872085684711848  0.6248497814879196  0.7864812414375004
  0.0625809529558226  0.2053440016915867  0.4786652769108677
  0.8127626497318127  0.0360918335128254  0.1263787986712988
  0.1875535631457749  0.2866867019803951  0.2577538073116837
  0.5623380124360046  0.7077141860102245  0.6980587208431197
  0.8125757232060887  0.7082286340955123  0.8311382414041593
  0.9373816301936693  0.2901071095225680  0.6097636532977806
  0.3127728358134151  0.0366055258988339  0.2577830864546795
  0.1875364629216351  0.9574967432952319  0.6981926250705152
  0.8128170780758941  0.3724128663259141  0.5213827436125609
  0.4374200906511684  0.2914327257525540  0.8733708133245596
  0.4375219649062151  0.1238535247468430  0.6536962588832053
  0.4372886375948901  0.7864975489757237  0.2577920999724609
  0.5626787638053913  0.8715534385376456  0.4347959059563224
  0.4377151929059407  0.4563278645262052  0.5651761664806895
  0.9376590352364287  0.9588071851263811  0.8312918954832762
  0.8124785080396385  0.5376056362820323  0.3903119534709156
  0.0630365296181058  0.8701032236826785  0.3017848116735594
  0.8124919400766568  0.3746218364963541  0.7862257443521421
  0.6878581549043571  0.7870447768095195  0.2578496362183652
  0.6874437906239358  0.6224635263587150  0.5212428752331983
  0.9364296666299233  0.6195369982283558  0.3019967392500809
  0.8124356488115886  0.2078177282623392  0.6981133739253427
  0.0630961532591356  0.5367539317903464  0.2576460034823888
  0.4373172191484674  0.9587236858704122  0.8318836880063709
  0.9376312168492594  0.7903164436942699  0.6099166598755164
  0.4372682637867700  0.6190792149832376  0.1681722228099068
  0.3125033298712461  0.0413650673280258  0.7422552920867324
  0.9372360787257060  0.4531592354336544  0.2135121078681903
  0.8127062606531420  0.8699697272863343  0.1680708031192225
  0.6874502059926072  0.7910630606866714  0.7423260528213698
  0.6870930648563648  0.1197919039339611  0.3018411346017049
 
  0.00000000E+00  0.00000000E+00  0.00000000E+00
  0.00000000E+00  0.00000000E+00  0.00000000E+00
  0.00000000E+00  0.00000000E+00  0.00000000E+00
  0.00000000E+00  0.00000000E+00  0.00000000E+00
  0.00000000E+00  0.00000000E+00  0.00000000E+00
  0.00000000E+00  0.00000000E+00  0.00000000E+00
  0.00000000E+00  0.00000000E+00  0.00000000E+00
  0.00000000E+00  0.00000000E+00  0.00000000E+00
  0.00000000E+00  0.00000000E+00  0.00000000E+00
  0.00000000E+00  0.00000000E+00  0.00000000E+00
  0.00000000E+00  0.00000000E+00  0.00000000E+00
  0.00000000E+00  0.00000000E+00  0.00000000E+00
  0.00000000E+00  0.00000000E+00  0.00000000E+00
  0.00000000E+00  0.00000000E+00  0.00000000E+00
  0.00000000E+00  0.00000000E+00  0.00000000E+00
  0.00000000E+00  0.00000000E+00  0.00000000E+00
  0.00000000E+00  0.00000000E+00  0.00000000E+00
  0.00000000E+00  0.00000000E+00  0.00000000E+00
  0.00000000E+00  0.00000000E+00  0.00000000E+00
  0.00000000E+00  0.00000000E+00  0.00000000E+00
  0.00000000E+00  0.00000000E+00  0.00000000E+00
  0.00000000E+00  0.00000000E+00  0.00000000E+00
  0.00000000E+00  0.00000000E+00  0.00000000E+00
  0.00000000E+00  0.00000000E+00  0.00000000E+00
  0.00000000E+00  0.00000000E+00  0.00000000E+00
  0.00000000E+00  0.00000000E+00  0.00000000E+00
  0.00000000E+00  0.00000000E+00  0.00000000E+00
  0.00000000E+00  0.00000000E+00  0.00000000E+00
  0.00000000E+00  0.00000000E+00  0.00000000E+00
  0.00000000E+00  0.00000000E+00  0.00000000E+00
  0.00000000E+00  0.00000000E+00  0.00000000E+00
  0.00000000E+00  0.00000000E+00  0.00000000E+00
  0.00000000E+00  0.00000000E+00  0.00000000E+00
  0.00000000E+00  0.00000000E+00  0.00000000E+00
  0.00000000E+00  0.00000000E+00  0.00000000E+00
  0.00000000E+00  0.00000000E+00  0.00000000E+00
  0.00000000E+00  0.00000000E+00  0.00000000E+00
  0.00000000E+00  0.00000000E+00  0.00000000E+00
  0.00000000E+00  0.00000000E+00  0.00000000E+00
  0.00000000E+00  0.00000000E+00  0.00000000E+00
  0.00000000E+00  0.00000000E+00  0.00000000E+00
  0.00000000E+00  0.00000000E+00  0.00000000E+00
  0.00000000E+00  0.00000000E+00  0.00000000E+00
  0.00000000E+00  0.00000000E+00  0.00000000E+00
  0.00000000E+00  0.00000000E+00  0.00000000E+00
  0.00000000E+00  0.00000000E+00  0.00000000E+00
  0.00000000E+00  0.00000000E+00  0.00000000E+00
  0.00000000E+00  0.00000000E+00  0.00000000E+00
  0.00000000E+00  0.00000000E+00  0.00000000E+00
  0.00000000E+00  0.00000000E+00  0.00000000E+00
  0.00000000E+00  0.00000000E+00  0.00000000E+00
  0.00000000E+00  0.00000000E+00  0.00000000E+00
  0.00000000E+00  0.00000000E+00  0.00000000E+00
  0.00000000E+00  0.00000000E+00  0.00000000E+00
  0.00000000E+00  0.00000000E+00  0.00000000E+00
  0.00000000E+00  0.00000000E+00  0.00000000E+00
  0.00000000E+00  0.00000000E+00  0.00000000E+00
  0.00000000E+00  0.00000000E+00  0.00000000E+00
  0.00000000E+00  0.00000000E+00  0.00000000E+00
  0.00000000E+00  0.00000000E+00  0.00000000E+00
  0.00000000E+00  0.00000000E+00  0.00000000E+00
  0.00000000E+00  0.00000000E+00  0.00000000E+00
  0.00000000E+00  0.00000000E+00  0.00000000E+00
  0.00000000E+00  0.00000000E+00  0.00000000E+00
  0.00000000E+00  0.00000000E+00  0.00000000E+00
  0.00000000E+00  0.00000000E+00  0.00000000E+00
  0.00000000E+00  0.00000000E+00  0.00000000E+00
  0.00000000E+00  0.00000000E+00  0.00000000E+00
  0.00000000E+00  0.00000000E+00  0.00000000E+00
  0.00000000E+00  0.00000000E+00  0.00000000E+00
  0.00000000E+00  0.00000000E+00  0.00000000E+00
  0.00000000E+00  0.00000000E+00  0.00000000E+00
  0.00000000E+00  0.00000000E+00  0.00000000E+00
  0.00000000E+00  0.00000000E+00  0.00000000E+00
  0.00000000E+00  0.00000000E+00  0.00000000E+00
  0.00000000E+00  0.00000000E+00  0.00000000E+00
  0.00000000E+00  0.00000000E+00  0.00000000E+00
  0.00000000E+00  0.00000000E+00  0.00000000E+00
  0.00000000E+00  0.00000000E+00  0.00000000E+00
  0.00000000E+00  0.00000000E+00  0.00000000E+00
  0.00000000E+00  0.00000000E+00  0.00000000E+00
  0.00000000E+00  0.00000000E+00  0.00000000E+00
  0.00000000E+00  0.00000000E+00  0.00000000E+00
  0.00000000E+00  0.00000000E+00  0.00000000E+00
  0.00000000E+00  0.00000000E+00  0.00000000E+00
  0.00000000E+00  0.00000000E+00  0.00000000E+00
  0.00000000E+00  0.00000000E+00  0.00000000E+00
  0.00000000E+00  0.00000000E+00  0.00000000E+00
  0.00000000E+00  0.00000000E+00  0.00000000E+00
  0.00000000E+00  0.00000000E+00  0.00000000E+00
  0.00000000E+00  0.00000000E+00  0.00000000E+00
  0.00000000E+00  0.00000000E+00  0.00000000E+00
  0.00000000E+00  0.00000000E+00  0.00000000E+00
  0.00000000E+00  0.00000000E+00  0.00000000E+00
  0.00000000E+00  0.00000000E+00  0.00000000E+00
  0.00000000E+00  0.00000000E+00  0.00000000E+00
  0.00000000E+00  0.00000000E+00  0.00000000E+00
  0.00000000E+00  0.00000000E+00  0.00000000E+00
  0.00000000E+00  0.00000000E+00  0.00000000E+00
  0.00000000E+00  0.00000000E+00  0.00000000E+00
  0.00000000E+00  0.00000000E+00  0.00000000E+00
  0.00000000E+00  0.00000000E+00  0.00000000E+00
  0.00000000E+00  0.00000000E+00  0.00000000E+00
  0.00000000E+00  0.00000000E+00  0.00000000E+00
  0.00000000E+00  0.00000000E+00  0.00000000E+00
  0.00000000E+00  0.00000000E+00  0.00000000E+00
  0.00000000E+00  0.00000000E+00  0.00000000E+00
  0.00000000E+00  0.00000000E+00  0.00000000E+00
  0.00000000E+00  0.00000000E+00  0.00000000E+00
  0.00000000E+00  0.00000000E+00  0.00000000E+00
  0.00000000E+00  0.00000000E+00  0.00000000E+00
  0.00000000E+00  0.00000000E+00  0.00000000E+00
  0.00000000E+00  0.00000000E+00  0.00000000E+00
  0.00000000E+00  0.00000000E+00  0.00000000E+00
  0.00000000E+00  0.00000000E+00  0.00000000E+00
  0.00000000E+00  0.00000000E+00  0.00000000E+00
  0.00000000E+00  0.00000000E+00  0.00000000E+00
  0.00000000E+00  0.00000000E+00  0.00000000E+00
  0.00000000E+00  0.00000000E+00  0.00000000E+00
  0.00000000E+00  0.00000000E+00  0.00000000E+00
  0.00000000E+00  0.00000000E+00  0.00000000E+00
  0.00000000E+00  0.00000000E+00  0.00000000E+00
  0.00000000E+00  0.00000000E+00  0.00000000E+00
  0.00000000E+00  0.00000000E+00  0.00000000E+00
  0.00000000E+00  0.00000000E+00  0.00000000E+00
  0.00000000E+00  0.00000000E+00  0.00000000E+00
  0.00000000E+00  0.00000000E+00  0.00000000E+00
  0.00000000E+00  0.00000000E+00  0.00000000E+00
  0.00000000E+00  0.00000000E+00  0.00000000E+00
  0.00000000E+00  0.00000000E+00  0.00000000E+00
  0.00000000E+00  0.00000000E+00  0.00000000E+00
  0.00000000E+00  0.00000000E+00  0.00000000E+00
  0.00000000E+00  0.00000000E+00  0.00000000E+00
  0.00000000E+00  0.00000000E+00  0.00000000E+00
  0.00000000E+00  0.00000000E+00  0.00000000E+00
  0.00000000E+00  0.00000000E+00  0.00000000E+00
  0.00000000E+00  0.00000000E+00  0.00000000E+00
  0.00000000E+00  0.00000000E+00  0.00000000E+00
  0.00000000E+00  0.00000000E+00  0.00000000E+00
  0.00000000E+00  0.00000000E+00  0.00000000E+00
  0.00000000E+00  0.00000000E+00  0.00000000E+00
  0.00000000E+00  0.00000000E+00  0.00000000E+00
  0.00000000E+00  0.00000000E+00  0.00000000E+00
  0.00000000E+00  0.00000000E+00  0.00000000E+00
  0.00000000E+00  0.00000000E+00  0.00000000E+00
  0.00000000E+00  0.00000000E+00  0.00000000E+00
  0.00000000E+00  0.00000000E+00  0.00000000E+00
  0.00000000E+00  0.00000000E+00  0.00000000E+00
  0.00000000E+00  0.00000000E+00  0.00000000E+00
  0.00000000E+00  0.00000000E+00  0.00000000E+00
  0.00000000E+00  0.00000000E+00  0.00000000E+00
  0.00000000E+00  0.00000000E+00  0.00000000E+00
  0.00000000E+00  0.00000000E+00  0.00000000E+00
  0.00000000E+00  0.00000000E+00  0.00000000E+00
  0.00000000E+00  0.00000000E+00  0.00000000E+00
  0.00000000E+00  0.00000000E+00  0.00000000E+00
  0.00000000E+00  0.00000000E+00  0.00000000E+00
  0.00000000E+00  0.00000000E+00  0.00000000E+00
  0.00000000E+00  0.00000000E+00  0.00000000E+00
  0.00000000E+00  0.00000000E+00  0.00000000E+00
  0.00000000E+00  0.00000000E+00  0.00000000E+00
  0.00000000E+00  0.00000000E+00  0.00000000E+00
  0.00000000E+00  0.00000000E+00  0.00000000E+00
  0.00000000E+00  0.00000000E+00  0.00000000E+00
  0.00000000E+00  0.00000000E+00  0.00000000E+00
  0.00000000E+00  0.00000000E+00  0.00000000E+00
  0.00000000E+00  0.00000000E+00  0.00000000E+00
  0.00000000E+00  0.00000000E+00  0.00000000E+00
  0.00000000E+00  0.00000000E+00  0.00000000E+00
  0.00000000E+00  0.00000000E+00  0.00000000E+00
  0.00000000E+00  0.00000000E+00  0.00000000E+00
  0.00000000E+00  0.00000000E+00  0.00000000E+00
  0.00000000E+00  0.00000000E+00  0.00000000E+00
  0.00000000E+00  0.00000000E+00  0.00000000E+00
  0.00000000E+00  0.00000000E+00  0.00000000E+00
  0.00000000E+00  0.00000000E+00  0.00000000E+00
  0.00000000E+00  0.00000000E+00  0.00000000E+00
  0.00000000E+00  0.00000000E+00  0.00000000E+00
  0.00000000E+00  0.00000000E+00  0.00000000E+00
  0.00000000E+00  0.00000000E+00  0.00000000E+00
  0.00000000E+00  0.00000000E+00  0.00000000E+00
  0.00000000E+00  0.00000000E+00  0.00000000E+00
  0.00000000E+00  0.00000000E+00  0.00000000E+00
  0.00000000E+00  0.00000000E+00  0.00000000E+00
  0.00000000E+00  0.00000000E+00  0.00000000E+00
  0.00000000E+00  0.00000000E+00  0.00000000E+00
  0.00000000E+00  0.00000000E+00  0.00000000E+00
  0.00000000E+00  0.00000000E+00  0.00000000E+00
  0.00000000E+00  0.00000000E+00  0.00000000E+00
  0.00000000E+00  0.00000000E+00  0.00000000E+00
  0.00000000E+00  0.00000000E+00  0.00000000E+00
  0.00000000E+00  0.00000000E+00  0.00000000E+00
  0.00000000E+00  0.00000000E+00  0.00000000E+00
  0.00000000E+00  0.00000000E+00  0.00000000E+00
  0.00000000E+00  0.00000000E+00  0.00000000E+00
  0.00000000E+00  0.00000000E+00  0.00000000E+00
  0.00000000E+00  0.00000000E+00  0.00000000E+00
  0.00000000E+00  0.00000000E+00  0.00000000E+00
  0.00000000E+00  0.00000000E+00  0.00000000E+00
  0.00000000E+00  0.00000000E+00  0.00000000E+00
  0.00000000E+00  0.00000000E+00  0.00000000E+00
  0.00000000E+00  0.00000000E+00  0.00000000E+00
  0.00000000E+00  0.00000000E+00  0.00000000E+00
  0.00000000E+00  0.00000000E+00  0.00000000E+00
  0.00000000E+00  0.00000000E+00  0.00000000E+00
  0.00000000E+00  0.00000000E+00  0.00000000E+00
  0.00000000E+00  0.00000000E+00  0.00000000E+00
  0.00000000E+00  0.00000000E+00  0.00000000E+00
  0.00000000E+00  0.00000000E+00  0.00000000E+00
  0.00000000E+00  0.00000000E+00  0.00000000E+00
  0.00000000E+00  0.00000000E+00  0.00000000E+00
  0.00000000E+00  0.00000000E+00  0.00000000E+00
  0.00000000E+00  0.00000000E+00  0.00000000E+00
  0.00000000E+00  0.00000000E+00  0.00000000E+00
  0.00000000E+00  0.00000000E+00  0.00000000E+00
  0.00000000E+00  0.00000000E+00  0.00000000E+00
  0.00000000E+00  0.00000000E+00  0.00000000E+00
  0.00000000E+00  0.00000000E+00  0.00000000E+00
  0.00000000E+00  0.00000000E+00  0.00000000E+00
  0.00000000E+00  0.00000000E+00  0.00000000E+00
  0.00000000E+00  0.00000000E+00  0.00000000E+00
  0.00000000E+00  0.00000000E+00  0.00000000E+00
  0.00000000E+00  0.00000000E+00  0.00000000E+00
  0.00000000E+00  0.00000000E+00  0.00000000E+00
  0.00000000E+00  0.00000000E+00  0.00000000E+00
  0.00000000E+00  0.00000000E+00  0.00000000E+00
  0.00000000E+00  0.00000000E+00  0.00000000E+00
  0.00000000E+00  0.00000000E+00  0.00000000E+00
  0.00000000E+00  0.00000000E+00  0.00000000E+00
  0.00000000E+00  0.00000000E+00  0.00000000E+00
  0.00000000E+00  0.00000000E+00  0.00000000E+00
  0.00000000E+00  0.00000000E+00  0.00000000E+00
  0.00000000E+00  0.00000000E+00  0.00000000E+00
  0.00000000E+00  0.00000000E+00  0.00000000E+00
  0.00000000E+00  0.00000000E+00  0.00000000E+00
  0.00000000E+00  0.00000000E+00  0.00000000E+00
  0.00000000E+00  0.00000000E+00  0.00000000E+00
  0.00000000E+00  0.00000000E+00  0.00000000E+00
  0.00000000E+00  0.00000000E+00  0.00000000E+00
  0.00000000E+00  0.00000000E+00  0.00000000E+00
  0.00000000E+00  0.00000000E+00  0.00000000E+00
  0.00000000E+00  0.00000000E+00  0.00000000E+00
  0.00000000E+00  0.00000000E+00  0.00000000E+00
  0.00000000E+00  0.00000000E+00  0.00000000E+00
  0.00000000E+00  0.00000000E+00  0.00000000E+00
  0.00000000E+00  0.00000000E+00  0.00000000E+00
  0.00000000E+00  0.00000000E+00  0.00000000E+00