FeMn_288_15                             
    1.000000000000000     
     9.7266779999999997    0.0000000000000000    0.0000000000000000
     0.0000000000000000    8.4235500000000005    0.0000000000000000
     0.0000000000000000    0.0000000000000000   45.0000000000000000
   Fe   Mn
   273    15
Direct
  0.4373713491137954  0.2878497394841447  0.3903032988909239
  0.0628261709783628  0.5419673674416657  0.8733949642525627
  0.9374068684180794  0.7916883388372312  0.8733701369741133
  0.3124782789346489  0.7062911211075078  0.5650718932890143
  0.0623724921222190  0.2090214556123329  0.8313427537737248
  0.4374735126846418  0.9540926270762438  0.3464406931155419
  0.6875340261831941  0.4533204773198218  0.3464134961645728
  0.3123649955722780  0.2053505988069745  0.4786234105119557
  0.1878064461019320  0.9536679315216936  0.3463878530684893
  0.8123115252725436  0.0376041031736414  0.3903550670936599
  0.5625335692970141  0.5376625946833692  0.3902309696525447
  0.8127998744727678  0.7054524372534545  0.4786823663373790
  0.0624737809908653  0.3724529289745993  0.5213500440853336
  0.3126088492351254  0.3715035758317905  0.4348801018854577
  0.8125289414566176  0.2034285780622826  0.3464238992107025
  0.4370068616046328  0.6197491365843240  0.3019044682625595
  0.0626159215541556  0.8715877549495069  0.4349058072865437
  0.3131575693429712  0.5365747637221282  0.1264769848937756
  0.5621499789515366  0.3723751853905554  0.5213822110474581
  0.3125695256413628  0.7089677897699069  0.8312773785979368
  0.0622703344728945  0.7028239126467963  0.2135576264434277
  0.6875617707779168  0.4584050262093849  0.6981462968674684
  0.1875284199959110  0.6215580810166618  0.4349244856990840
  0.5621618725774912  0.7061981027995923  0.5651220040422528
  0.1874318069090835  0.9553646219219402  0.4786111850852712
  0.9380444651466902  0.2920794902781696  0.7422696965614995
  0.5624028441108798  0.0360577832396465  0.2577395925556207
  0.6875307419675568  0.1224223440121800  0.5213674111325174
  0.0624026476704793  0.0362535137858249  0.2577866433345344
  0.8120373468500421  0.8698143519234552  0.3019863711789879
  0.6875088506444358  0.9550700246611122  0.4786591705911135
  0.8120386402291133  0.5359964282033762  0.2577210681316471
  0.9375619651243230  0.9561600865556974  0.5650756562919911
  0.3121237683590315  0.7026913247261002  0.2135418866273411
  0.4376172205613967  0.1255015809248028  0.7864169620753050
  0.5623529819375490  0.5416295615905324  0.8733509367190467
  0.1875518924807282  0.1215284783188082  0.4349507927896067
  0.4369595763124413  0.7859178073934091  0.1265575109101408
  0.8131253576586452  0.0408522083521268  0.8733830186735894
  0.0631768262850985  0.2075543909293568  0.6980412898513065
  0.5629731654961059  0.7031421713117980  0.2136640060929783
  0.3126008481087535  0.8685377864600099  0.1688614372251101
  0.1875995531320856  0.9581216511447704  0.8311867474561743
  0.5623667843784138  0.0402111443345684  0.6097021433523959
  0.9377385586208263  0.4535037598563880  0.3464264745152866
  0.0623470291529803  0.7053006421421981  0.4786147972136077
  0.9377560125631218  0.1198158130569077  0.3019850626153500
  0.0626435159510890  0.7035479960440972  0.3464159035718110
  0.5627130092859651  0.5399352937225292  0.6097023680178919
  0.3126623466015613  0.8724529102828241  0.5213477543055186
  0.1874785704281829  0.6253588221802444  0.7864062153575682
  0.4376825467571069  0.4552904055373456  0.4786349547419456
  0.8125284655917502  0.5413862077319277  0.7421972113275696
  0.9374849494603722  0.9552307695070352  0.4786444369320934
  0.9377451968894929  0.9529261746461076  0.2134689358839254
  0.9374795377065298  0.7874588283046958  0.3903352778342273
  0.6873177401217117  0.1248761689032981  0.7863949173751180
  0.0625977551906999  0.0401752880563865  0.6096890550192299
  0.3124756764810575  0.2081274853591866  0.6980490813558190
  0.8126641681517375  0.7037545550270347  0.3463910597820078
  0.9376827261863621  0.2866411585799064  0.2577778290370313
  0.3123507505910967  0.8716213246330119  0.4348511031659106
  0.6874735286126546  0.9581310244101774  0.8312659297677354
  0.1875100499872951  0.1199996295763537  0.1687721538839535
  0.8125305860011043  0.2061742818810910  0.5651337581230068
  0.3124743611207024  0.5399311260706882  0.6098117566116921
  0.5622299183231706  0.8749481971356144  0.7863481383776720
  0.5622255869388471  0.3750838021000090  0.7865252193423891
  0.1875542006396499  0.2875085582466285  0.3902826144310063
  0.6874643780564346  0.6217140933901462  0.4351047179122548
  0.4376697345013821  0.6256056364704593  0.7864201980152477
  0.8125703867367804  0.2052526509835113  0.4786644295612413
  0.9376240400603186  0.7915214215528824  0.7421952781900846
  0.6876539012871434  0.2858976187944371  0.2576644798913933
  0.1874961025497964  0.1194569291458374  0.3019175309184607
  0.5620769306295961  0.2082502457004388  0.8313255508667939
  0.8127249993929292  0.3702824268633201  0.3018765335278716
  0.1873281600151129  0.4537311927945218  0.3463559795604263
  0.9379326552121078  0.6221621445980002  0.5213614857308239
  0.3127485925108783  0.3700816354602045  0.3018989186592660
  0.1876023091480467  0.9528154796129398  0.2135708658089274
  0.8126861878223692  0.7061358138437467  0.5650948791581573
  0.8126505529886944  0.3715555225121509  0.4348263357985984
  0.3124523448931815  0.2063708991246176  0.5651253803388577
  0.3126643177612213  0.8741819779097386  0.6536029642797615
  0.1882992686109260  0.7864013769620388  0.1266316421695730
  0.1874810432847982  0.1248892000917717  0.7863941757878744
  0.0624163307072502  0.3716214771164382  0.4348911544155029
  0.1878526474360805  0.6200914171731566  0.3019559573807159
  0.1874733766120241  0.1225234844696265  0.5213795255185892
  0.1875554832768845  0.6225118637167290  0.5213228206835142
  0.4372039078503822  0.1224029758929155  0.5213700734982841
  0.4375570687978637  0.9521741920406156  0.2134988088396354
  0.4370603732286638  0.1204163595734820  0.3019130283208344
  0.0621766828957844  0.5413638808072376  0.7422590490929735
  0.0625552901147593  0.2033742306364424  0.3464050982392606
  0.5629419372927039  0.5418279274442910  0.7422940509712095
  0.1872300257729428  0.6240702748783721  0.6536373767546563
  0.5627686938431306  0.8693005110205223  0.1687393447814233
  0.3121325342921805  0.0364742897783375  0.1266765478455872
  0.8124826738205980  0.8746500531839947  0.7864975801211391
  0.0626149395978608  0.7063257148233035  0.5650829963935934
  0.1880364570889489  0.2851915815453356  0.1266229374424701
  0.8123364557182150  0.8728825727173355  0.5213442307681373
  0.8126036893823539  0.7024034706187071  0.2135227884477096
  0.5625629879167552  0.7037775410952438  0.3463369844292034
  0.3124705662305298  0.2039509311397942  0.3463832777175713
  0.4374745059479673  0.7923108227917134  0.8735609268994895
  0.1875491595381901  0.4562656761163910  0.5650588111855909
  0.9377738346942706  0.7857915335104604  0.2576526435030457
  0.3130960634254028  0.2084440703502939  0.8311265707862666
  0.9372241676738252  0.4564508562173645  0.5651786785514109
  0.8126176610730367  0.0419710927964439  0.7423651881476585
  0.6873630789227160  0.7872854660916284  0.3903572431473799
  0.8122103170987359  0.2027266501314341  0.2135518178883906
  0.3123450044814061  0.2022735858565384  0.2135152308975292
  0.1874773633373435  0.7916862833326602  0.7422555113446574
  0.9374802089352033  0.1249972637202843  0.7865111936692710
  0.9375069810789736  0.1238257995628649  0.6536141194412750
  0.8126018216706438  0.2089127810347513  0.8312820608251457
  0.1876544680415877  0.6196604763082532  0.1686735733284435
  0.3120639867775188  0.8750150095044427  0.7863151969402579
  0.6876373528985946  0.7864842347686968  0.1264800438625194
  0.4372167428653717  0.7902960742154127  0.6097908798462897
  0.5620482647031565  0.0413417598849069  0.8735397336432177
  0.5625121644637128  0.8727498195034494  0.5213966750780478
  0.6874891830417493  0.4548226396153056  0.4787145974044240
  0.3130239259364192  0.5357865888266884  0.2577547773582500
  0.0625329567136142  0.2064453782672954  0.5651160964239341
  0.3124572549479576  0.3743667290178639  0.6536646044398500
  0.5616584857486799  0.3699000824145300  0.1687943242668026
  0.0629821580599016  0.8751333799764869  0.7864396509142056
  0.6872192518162898  0.7900771920327626  0.6097624153475080
  0.8124802525698863  0.7083276992424199  0.6980240285620460
  0.5624092952014912  0.2061025962371690  0.5650878353080243
  0.5629220212172800  0.0363400739640656  0.1266626099034907
  0.6872148899151612  0.9580428268355757  0.6981617741118402
  0.1869202237286570  0.4584476046546604  0.8311545907958429
  0.0622877540782922  0.0359822363615043  0.1265955553361942
  0.5626836531433099  0.2024354886337215  0.2135329491459411
  0.1873487241325426  0.4583595917278445  0.6981046136668175
  0.0623702694851952  0.8738738275765850  0.6536002172400617
  0.3123007405639798  0.7080768875189747  0.6981071624598526
  0.4374636322691843  0.7875564645443487  0.3902511844737427
  0.9372768788972280  0.4553353779285983  0.4786514443963985
  0.6869562587513641  0.2857081060466714  0.1267135990480872
  0.0624556103230540  0.8725636971821240  0.5213481304976938
  0.4373652422185522  0.1215382075928468  0.4348698994361086
  0.5624857818727638  0.3695937562822104  0.3019001670043856
  0.6873576180538897  0.1244131465496298  0.6535650776925621
  0.4373753203227537  0.6241358119705479  0.6535888334837542
  0.9376269342354774  0.6214445478564322  0.4348212721172276
  0.3124452789849960  0.3749662785732171  0.7863840856901405
  0.5624943313830827  0.7091162858768998  0.8312373650629211
  0.3121218468703308  0.5418005775164492  0.8733156990818525
  0.3125389943836199  0.7039464797066601  0.3463915340753804
  0.8124589000400320  0.8740916819632686  0.6537631007660549
  0.0627524271200683  0.3694051016580082  0.1686719785362818
  0.1872822360148653  0.9562695543518186  0.5651558692064875
  0.6866693660218945  0.4530572901331602  0.2134623836998432
  0.6874853185359956  0.1214361438526204  0.4348999847278979
  0.5625432864817486  0.8704902271537012  0.3019673564348430
  0.6875578651947698  0.6241513815292080  0.6536079710106940
  0.1882832854205134  0.4526071646579887  0.2135875340596607
  0.5623036969597768  0.3715169876897906  0.4347990159177252
  0.5621854526196669  0.7054553897001521  0.4786860344421293
  0.0624576097335326  0.5404812713519064  0.6097883005818991
  0.6868885023807220  0.6200624621315645  0.3019520543337384
  0.0625465238715330  0.7082110671091549  0.8311453326840759
  0.4375980126977720  0.4537752017162535  0.3463567152454339
  0.9375307305332136  0.2873366196411263  0.3904312080454600
  0.4373827911458160  0.4521464734994549  0.2136240847729739
  0.5628584367625789  0.0416462970536004  0.7421409036686878
  0.3124023989758168  0.0404792372072130  0.6097395348565897
  0.9376292075531558  0.6239011810796169  0.6536017466940074
  0.4377810790233030  0.9577815516618673  0.6980656020169740
  0.3129180909248614  0.0415228074965758  0.8734585442881696
  0.9377298132362208  0.1224957690691243  0.5213148067237389
  0.4375616487668928  0.2901205703431820  0.6097889452421829
  0.6875333277658205  0.2877334341083077  0.3902551147391335
  0.9375106307115341  0.4576242967917591  0.6981406883976727
  0.4371249580469584  0.2917273396005690  0.7422212975876968
  0.1875786741020819  0.2925122927257225  0.8732913370361366
  0.6878725633362025  0.1191396103111648  0.1686672987692860
  0.9375288675256938  0.2916996272361587  0.8734445884282301
  0.6873848678479307  0.4560334248745032  0.5650800142550791
  0.0618140701188106  0.0412695920320420  0.8732835863458001
  0.3132557326469434  0.3694983962623412  0.1687944524000029
  0.0624684495149309  0.3701384390312572  0.3019691228661487
  0.1875963362687381  0.7878099789650542  0.3903419785298711
  0.0617716051254359  0.5359090916685725  0.1266044354007762
  0.8123934229265607  0.8718029921782721  0.4348564851151026
  0.9374744864545589  0.6189732102953713  0.1685528246751489
  0.3127323898583200  0.0378093949279276  0.3902973805892327
  0.5619710793496256  0.5357726277088438  0.1265076704008777
  0.6871955815999417  0.2898041901232947  0.6098283640236587
  0.4370930097236931  0.6221404898387820  0.5213821413306011
  0.9374741289768457  0.6251198678175848  0.7864548675222522
  0.8126567993819725  0.0402285582926953  0.6097278293214163
  0.9370078242841124  0.7871640359967005  0.1263857016536531
  0.4375185137601341  0.9552536604306189  0.4786387341038650
  0.9374902950483411  0.1217237378328969  0.4348932216908518
  0.5623969176737513  0.5362147113183651  0.2577585049358909
  0.5624980841986353  0.3742204599370940  0.6536846525991016
  0.8123218752988574  0.0358686208660956  0.2578189624180495
  0.0624451029038789  0.3738250396546532  0.6536642331891103
  0.4374356518710814  0.1193950935032389  0.1688154662568435
  0.6875273598618761  0.2925073042800729  0.8733909853000753
  0.6876088669265558  0.7918953505770018  0.8733621715877653
  0.3125403104478722  0.5376802173487603  0.3902630985303980
  0.9372298361604812  0.4583270726546815  0.8312496208609754
  0.6883437544897180  0.6198941960528352  0.1687805174598306
  0.9377965917129466  0.2868105336984912  0.1265457779021131
  0.6868283484228590  0.9531060473487686  0.2136023875649294
  0.4374799646641042  0.4583886393776099  0.6981122395040635
  0.3125268666384093  0.5415342743735991  0.7422357090585970
  0.0625596691569885  0.2031881821613548  0.2135569249868701
  0.1878010044294310  0.2903208682925356  0.6097502973156603
  0.1875237591541985  0.1239955225274101  0.6536940610059747
  0.9373027197644115  0.9581391501225816  0.6981411070205705
  0.4373140369529144  0.2857957059376429  0.2577587046732739
  0.8126129725333295  0.5414951362686259  0.8734615651061788
  0.4373106517583029  0.2865046319031506  0.1265985392841947
  0.6873600401872978  0.2920100656918028  0.7423030502020579
  0.0620668436057844  0.0420494864666608  0.7422361175212945
  0.4373209014997073  0.6213511318393953  0.4347896533378056
  0.1876075006688227  0.7920058145000980  0.8733781858452186
  0.3126102192485763  0.3723537880426050  0.5213601084914943
  0.5624578864373684  0.0376822006972273  0.3903305202669101
  0.0623581260990473  0.8705058251022972  0.1687197148440236
  0.1875460431624418  0.2917077321801979  0.7422474137805911
  0.1877180062151372  0.7902063070168738  0.6097428366857371
  0.8130693320636839  0.3692996231019098  0.1686609946410139
  0.4378067435945278  0.4588378228733503  0.8311426014445336
  0.0624731032455743  0.5374098635434791  0.3903637666350605
  0.5624289664003758  0.8740382959562908  0.6535874132829257
  0.4375179572917425  0.9561944858018043  0.5651530033996148
  0.4371259276914534  0.7918732783883565  0.7421944474824970
  0.9374642622791400  0.1189141323161036  0.1688357507683102
  0.3127472337561860  0.8700690342857497  0.3019516605449199
  0.0627145678383438  0.7080285752398215  0.6980876447146724
  0.3126353334265344  0.7053049729671762  0.4786259497427596
  0.1875277345326408  0.4552412102292135  0.4786929540171990
  0.8122924998440192  0.5406358321380125  0.6096548615062801
  0.1875611853174808  0.7861220373326693  0.2577428285424471
  0.6875664231240216  0.9536999011828053  0.3464045254871371
  0.8125287580783827  0.3739101885864320  0.6537069446076275
  0.0628644258855077  0.3753058823600549  0.7864665241566303
  0.9375233457988098  0.9538808577906275  0.3464100911555654
  0.5624086385520748  0.2038471738350881  0.3463809641385160
  0.6881996969542152  0.4581903173417694  0.8314102842031231
  0.5618309726644451  0.2080625897761018  0.6980429058908419
  0.0624316132530993  0.0374454043864252  0.3902212961012609
  0.8132462700876053  0.5365186652699899  0.1265784087076381
  0.5624141783717226  0.2052567494165548  0.4786731541884323
  0.6875874271707182  0.9558805555763225  0.5651060208967225
  0.6872151133798476  0.6249619454243787  0.7864828988047214
  0.0625936974502557  0.2052929629715964  0.4786672692032219
  0.8126733360022041  0.0359548002067393  0.1263710359804384
  0.1875985935128391  0.2862190746899710  0.2577699208939445
  0.5623594828077544  0.7080306899243674  0.6980492257430022
  0.8126552543953539  0.7083588818900829  0.8311120647371568
  0.9374155057768717  0.2902242451513425  0.6097576115652963
  0.3127159627232448  0.0361630597685563  0.2578008684199762
  0.1875695991726525  0.9579378184988954  0.6982057045725379
  0.8127918159838301  0.3723873277053045  0.5213738304607031
  0.4373938468121257  0.2915089535070596  0.8733454634209910
  0.4375009452167870  0.1241438892364315  0.6536784373181845
  0.4372586149128579  0.7860171498103432  0.2578176942754228
  0.5626336727909710  0.8716385637357964  0.4347845710485295
  0.4377406341431133  0.4562909610944900  0.5651625768259011
  0.9376962508220088  0.9588946315477274  0.8312860763287538
  0.8124894119546510  0.5375011351434853  0.3903144514264933
  0.0630723327880793  0.8697924088064394  0.3017919996982490
  0.8124962971242228  0.3747804729245832  0.7862237728777557
  0.6878817306519798  0.7866228853674181  0.2578632969071472
  0.6874139826676657  0.6224870933607551  0.5212184236176693
  0.9364656469815552  0.6193091723684405  0.3019965234191891
  0.8123954737637205  0.2082096284017808  0.6981205494518641
  0.0631202024298228  0.5362795676222034  0.2576373626703393
  0.4373717038047096  0.9587564021923173  0.8319003273189272
  0.9376955781457912  0.7904557584764926  0.6099210921069212
  0.4373089049517089  0.6190003103957898  0.1681829029275821
  0.3124916773235864  0.0417215003799818  0.7422516218734245
  0.9372188928119918  0.4529443785073131  0.2135380756278524
  0.8126874291539591  0.8699176970266201  0.1680928902954073
  0.6874242877820501  0.7913871937065283  0.7423285850343962
  0.6870353677018927  0.1195447265724418  0.3018626899777181
 
  0.00000000E+00  0.00000000E+00  0.00000000E+00
  0.00000000E+00  0.00000000E+00  0.00000000E+00
  0.00000000E+00  0.00000000E+00  0.00000000E+00
  0.00000000E+00  0.00000000E+00  0.00000000E+00
  0.00000000E+00  0.00000000E+00  0.00000000E+00
  0.00000000E+00  0.00000000E+00  0.00000000E+00
  0.00000000E+00  0.00000000E+00  0.00000000E+00
  0.00000000E+00  0.00000000E+00  0.00000000E+00
  0.00000000E+00  0.00000000E+00  0.00000000E+00
  0.00000000E+00  0.00000000E+00  0.00000000E+00
  0.00000000E+00  0.00000000E+00  0.00000000E+00
  0.00000000E+00  0.00000000E+00  0.00000000E+00
  0.00000000E+00  0.00000000E+00  0.00000000E+00
  0.00000000E+00  0.00000000E+00  0.00000000E+00
  0.00000000E+00  0.00000000E+00  0.00000000E+00
  0.00000000E+00  0.00000000E+00  0.00000000E+00
  0.00000000E+00  0.00000000E+00  0.00000000E+00
  0.00000000E+00  0.00000000E+00  0.00000000E+00
  0.00000000E+00  0.00000000E+00  0.00000000E+00
  0.00000000E+00  0.00000000E+00  0.00000000E+00
  0.00000000E+00  0.00000000E+00  0.00000000E+00
  0.00000000E+00  0.00000000E+00  0.00000000E+00
  0.00000000E+00  0.00000000E+00  0.00000000E+00
  0.00000000E+00  0.00000000E+00  0.00000000E+00
  0.00000000E+00  0.00000000E+00  0.00000000E+00
  0.00000000E+00  0.00000000E+00  0.00000000E+00
  0.00000000E+00  0.00000000E+00  0.00000000E+00
  0.00000000E+00  0.00000000E+00  0.00000000E+00
  0.00000000E+00  0.00000000E+00  0.00000000E+00
  0.00000000E+00  0.00000000E+00  0.00000000E+00
  0.00000000E+00  0.00000000E+00  0.00000000E+00
  0.00000000E+00  0.00000000E+00  0.00000000E+00
  0.00000000E+00  0.00000000E+00  0.00000000E+00
  0.00000000E+00  0.00000000E+00  0.00000000E+00
  0.00000000E+00  0.00000000E+00  0.00000000E+00
  0.00000000E+00  0.00000000E+00  0.00000000E+00
  0.00000000E+00  0.00000000E+00  0.00000000E+00
  0.00000000E+00  0.00000000E+00  0.00000000E+00
  0.00000000E+00  0.00000000E+00  0.00000000E+00
  0.00000000E+00  0.00000000E+00  0.00000000E+00
  0.00000000E+00  0.00000000E+00  0.00000000E+00
  0.00000000E+00  0.00000000E+00  0.00000000E+00
  0.00000000E+00  0.00000000E+00  0.00000000E+00
  0.00000000E+00  0.00000000E+00  0.00000000E+00
  0.00000000E+00  0.00000000E+00  0.00000000E+00
  0.00000000E+00  0.00000000E+00  0.00000000E+00
  0.00000000E+00  0.00000000E+00  0.00000000E+00
  0.00000000E+00  0.00000000E+00  0.00000000E+00
  0.00000000E+00  0.00000000E+00  0.00000000E+00
  0.00000000E+00  0.00000000E+00  0.00000000E+00
  0.00000000E+00  0.00000000E+00  0.00000000E+00
  0.00000000E+00  0.00000000E+00  0.00000000E+00
  0.00000000E+00  0.00000000E+00  0.00000000E+00
  0.00000000E+00  0.00000000E+00  0.00000000E+00
  0.00000000E+00  0.00000000E+00  0.00000000E+00
  0.00000000E+00  0.00000000E+00  0.00000000E+00
  0.00000000E+00  0.00000000E+00  0.00000000E+00
  0.00000000E+00  0.00000000E+00  0.00000000E+00
  0.00000000E+00  0.00000000E+00  0.00000000E+00
  0.00000000E+00  0.00000000E+00  0.00000000E+00
  0.00000000E+00  0.00000000E+00  0.00000000E+00
  0.00000000E+00  0.00000000E+00  0.00000000E+00
  0.00000000E+00  0.00000000E+00  0.00000000E+00
  0.00000000E+00  0.00000000E+00  0.00000000E+00
  0.00000000E+00  0.00000000E+00  0.00000000E+00
  0.00000000E+00  0.00000000E+00  0.00000000E+00
  0.00000000E+00  0.00000000E+00  0.00000000E+00
  0.00000000E+00  0.00000000E+00  0.00000000E+00
  0.00000000E+00  0.00000000E+00  0.00000000E+00
  0.00000000E+00  0.00000000E+00  0.00000000E+00
  0.00000000E+00  0.00000000E+00  0.00000000E+00
  0.00000000E+00  0.00000000E+00  0.00000000E+00
  0.00000000E+00  0.00000000E+00  0.00000000E+00
  0.00000000E+00  0.00000000E+00  0.00000000E+00
  0.00000000E+00  0.00000000E+00  0.00000000E+00
  0.00000000E+00  0.00000000E+00  0.00000000E+00
  0.00000000E+00  0.00000000E+00  0.00000000E+00
  0.00000000E+00  0.00000000E+00  0.00000000E+00
  0.00000000E+00  0.00000000E+00  0.00000000E+00
  0.00000000E+00  0.00000000E+00  0.00000000E+00
  0.00000000E+00  0.00000000E+00  0.00000000E+00
  0.00000000E+00  0.00000000E+00  0.00000000E+00
  0.00000000E+00  0.00000000E+00  0.00000000E+00
  0.00000000E+00  0.00000000E+00  0.00000000E+00
  0.00000000E+00  0.00000000E+00  0.00000000E+00
  0.00000000E+00  0.00000000E+00  0.00000000E+00
  0.00000000E+00  0.00000000E+00  0.00000000E+00
  0.00000000E+00  0.00000000E+00  0.00000000E+00
  0.00000000E+00  0.00000000E+00  0.00000000E+00
  0.00000000E+00  0.00000000E+00  0.00000000E+00
  0.00000000E+00  0.00000000E+00  0.00000000E+00
  0.00000000E+00  0.00000000E+00  0.00000000E+00
  0.00000000E+00  0.00000000E+00  0.00000000E+00
  0.00000000E+00  0.00000000E+00  0.00000000E+00
  0.00000000E+00  0.00000000E+00  0.00000000E+00
  0.00000000E+00  0.00000000E+00  0.00000000E+00
  0.00000000E+00  0.00000000E+00  0.00000000E+00
  0.00000000E+00  0.00000000E+00  0.00000000E+00
  0.00000000E+00  0.00000000E+00  0.00000000E+00
  0.00000000E+00  0.00000000E+00  0.00000000E+00
  0.00000000E+00  0.00000000E+00  0.00000000E+00
  0.00000000E+00  0.00000000E+00  0.00000000E+00
  0.00000000E+00  0.00000000E+00  0.00000000E+00
  0.00000000E+00  0.00000000E+00  0.00000000E+00
  0.00000000E+00  0.00000000E+00  0.00000000E+00
  0.00000000E+00  0.00000000E+00  0.00000000E+00
  0.00000000E+00  0.00000000E+00  0.00000000E+00
  0.00000000E+00  0.00000000E+00  0.00000000E+00
  0.00000000E+00  0.00000000E+00  0.00000000E+00
  0.00000000E+00  0.00000000E+00  0.00000000E+00
  0.00000000E+00  0.00000000E+00  0.00000000E+00
  0.00000000E+00  0.00000000E+00  0.00000000E+00
  0.00000000E+00  0.00000000E+00  0.00000000E+00
  0.00000000E+00  0.00000000E+00  0.00000000E+00
  0.00000000E+00  0.00000000E+00  0.00000000E+00
  0.00000000E+00  0.00000000E+00  0.00000000E+00
  0.00000000E+00  0.00000000E+00  0.00000000E+00
  0.00000000E+00  0.00000000E+00  0.00000000E+00
  0.00000000E+00  0.00000000E+00  0.00000000E+00
  0.00000000E+00  0.00000000E+00  0.00000000E+00
  0.00000000E+00  0.00000000E+00  0.00000000E+00
  0.00000000E+00  0.00000000E+00  0.00000000E+00
  0.00000000E+00  0.00000000E+00  0.00000000E+00
  0.00000000E+00  0.00000000E+00  0.00000000E+00
  0.00000000E+00  0.00000000E+00  0.00000000E+00
  0.00000000E+00  0.00000000E+00  0.00000000E+00
  0.00000000E+00  0.00000000E+00  0.00000000E+00
  0.00000000E+00  0.00000000E+00  0.00000000E+00
  0.00000000E+00  0.00000000E+00  0.00000000E+00
  0.00000000E+00  0.00000000E+00  0.00000000E+00
  0.00000000E+00  0.00000000E+00  0.00000000E+00
  0.00000000E+00  0.00000000E+00  0.00000000E+00
  0.00000000E+00  0.00000000E+00  0.00000000E+00
  0.00000000E+00  0.00000000E+00  0.00000000E+00
  0.00000000E+00  0.00000000E+00  0.00000000E+00
  0.00000000E+00  0.00000000E+00  0.00000000E+00
  0.00000000E+00  0.00000000E+00  0.00000000E+00
  0.00000000E+00  0.00000000E+00  0.00000000E+00
  0.00000000E+00  0.00000000E+00  0.00000000E+00
  0.00000000E+00  0.00000000E+00  0.00000000E+00
  0.00000000E+00  0.00000000E+00  0.00000000E+00
  0.00000000E+00  0.00000000E+00  0.00000000E+00
  0.00000000E+00  0.00000000E+00  0.00000000E+00
  0.00000000E+00  0.00000000E+00  0.00000000E+00
  0.00000000E+00  0.00000000E+00  0.00000000E+00
  0.00000000E+00  0.00000000E+00  0.00000000E+00
  0.00000000E+00  0.00000000E+00  0.00000000E+00
  0.00000000E+00  0.00000000E+00  0.00000000E+00
  0.00000000E+00  0.00000000E+00  0.00000000E+00
  0.00000000E+00  0.00000000E+00  0.00000000E+00
  0.00000000E+00  0.00000000E+00  0.00000000E+00
  0.00000000E+00  0.00000000E+00  0.00000000E+00
  0.00000000E+00  0.00000000E+00  0.00000000E+00
  0.00000000E+00  0.00000000E+00  0.00000000E+00
  0.00000000E+00  0.00000000E+00  0.00000000E+00
  0.00000000E+00  0.00000000E+00  0.00000000E+00
  0.00000000E+00  0.00000000E+00  0.00000000E+00
  0.00000000E+00  0.00000000E+00  0.00000000E+00
  0.00000000E+00  0.00000000E+00  0.00000000E+00
  0.00000000E+00  0.00000000E+00  0.00000000E+00
  0.00000000E+00  0.00000000E+00  0.00000000E+00
  0.00000000E+00  0.00000000E+00  0.00000000E+00
  0.00000000E+00  0.00000000E+00  0.00000000E+00
  0.00000000E+00  0.00000000E+00  0.00000000E+00
  0.00000000E+00  0.00000000E+00  0.00000000E+00
  0.00000000E+00  0.00000000E+00  0.00000000E+00
  0.00000000E+00  0.00000000E+00  0.00000000E+00
  0.00000000E+00  0.00000000E+00  0.00000000E+00
  0.00000000E+00  0.00000000E+00  0.00000000E+00
  0.00000000E+00  0.00000000E+00  0.00000000E+00
  0.00000000E+00  0.00000000E+00  0.00000000E+00
  0.00000000E+00  0.00000000E+00  0.00000000E+00
  0.00000000E+00  0.00000000E+00  0.00000000E+00
  0.00000000E+00  0.00000000E+00  0.00000000E+00
  0.00000000E+00  0.00000000E+00  0.00000000E+00
  0.00000000E+00  0.00000000E+00  0.00000000E+00
  0.00000000E+00  0.00000000E+00  0.00000000E+00
  0.00000000E+00  0.00000000E+00  0.00000000E+00
  0.00000000E+00  0.00000000E+00  0.00000000E+00
  0.00000000E+00  0.00000000E+00  0.00000000E+00
  0.00000000E+00  0.00000000E+00  0.00000000E+00
  0.00000000E+00  0.00000000E+00  0.00000000E+00
  0.00000000E+00  0.00000000E+00  0.00000000E+00
  0.00000000E+00  0.00000000E+00  0.00000000E+00
  0.00000000E+00  0.00000000E+00  0.00000000E+00
  0.00000000E+00  0.00000000E+00  0.00000000E+00
  0.00000000E+00  0.00000000E+00  0.00000000E+00
  0.00000000E+00  0.00000000E+00  0.00000000E+00
  0.00000000E+00  0.00000000E+00  0.00000000E+00
  0.00000000E+00  0.00000000E+00  0.00000000E+00
  0.00000000E+00  0.00000000E+00  0.00000000E+00
  0.00000000E+00  0.00000000E+00  0.00000000E+00
  0.00000000E+00  0.00000000E+00  0.00000000E+00
  0.00000000E+00  0.00000000E+00  0.00000000E+00
  0.00000000E+00  0.00000000E+00  0.00000000E+00
  0.00000000E+00  0.00000000E+00  0.00000000E+00
  0.00000000E+00  0.00000000E+00  0.00000000E+00
  0.00000000E+00  0.00000000E+00  0.00000000E+00
  0.00000000E+00  0.00000000E+00  0.00000000E+00
  0.00000000E+00  0.00000000E+00  0.00000000E+00
  0.00000000E+00  0.00000000E+00  0.00000000E+00
  0.00000000E+00  0.00000000E+00  0.00000000E+00
  0.00000000E+00  0.00000000E+00  0.00000000E+00
  0.00000000E+00  0.00000000E+00  0.00000000E+00
  0.00000000E+00  0.00000000E+00  0.00000000E+00
  0.00000000E+00  0.00000000E+00  0.00000000E+00
  0.00000000E+00  0.00000000E+00  0.00000000E+00
  0.00000000E+00  0.00000000E+00  0.00000000E+00
  0.00000000E+00  0.00000000E+00  0.00000000E+00
  0.00000000E+00  0.00000000E+00  0.00000000E+00
  0.00000000E+00  0.00000000E+00  0.00000000E+00
  0.00000000E+00  0.00000000E+00  0.00000000E+00
  0.00000000E+00  0.00000000E+00  0.00000000E+00
  0.00000000E+00  0.00000000E+00  0.00000000E+00
  0.00000000E+00  0.00000000E+00  0.00000000E+00
  0.00000000E+00  0.00000000E+00  0.00000000E+00
  0.00000000E+00  0.00000000E+00  0.00000000E+00
  0.00000000E+00  0.00000000E+00  0.00000000E+00
  0.00000000E+00  0.00000000E+00  0.00000000E+00
  0.00000000E+00  0.00000000E+00  0.00000000E+00
  0.00000000E+00  0.00000000E+00  0.00000000E+00
  0.00000000E+00  0.00000000E+00  0.00000000E+00
  0.00000000E+00  0.00000000E+00  0.00000000E+00
  0.00000000E+00  0.00000000E+00  0.00000000E+00
  0.00000000E+00  0.00000000E+00  0.00000000E+00
  0.00000000E+00  0.00000000E+00  0.00000000E+00
  0.00000000E+00  0.00000000E+00  0.00000000E+00
  0.00000000E+00  0.00000000E+00  0.00000000E+00
  0.00000000E+00  0.00000000E+00  0.00000000E+00
  0.00000000E+00  0.00000000E+00  0.00000000E+00
  0.00000000E+00  0.00000000E+00  0.00000000E+00
  0.00000000E+00  0.00000000E+00  0.00000000E+00
  0.00000000E+00  0.00000000E+00  0.00000000E+00
  0.00000000E+00  0.00000000E+00  0.00000000E+00
  0.00000000E+00  0.00000000E+00  0.00000000E+00
  0.00000000E+00  0.00000000E+00  0.00000000E+00
  0.00000000E+00  0.00000000E+00  0.00000000E+00
  0.00000000E+00  0.00000000E+00  0.00000000E+00
  0.00000000E+00  0.00000000E+00  0.00000000E+00
  0.00000000E+00  0.00000000E+00  0.00000000E+00
  0.00000000E+00  0.00000000E+00  0.00000000E+00
  0.00000000E+00  0.00000000E+00  0.00000000E+00
  0.00000000E+00  0.00000000E+00  0.00000000E+00
  0.00000000E+00  0.00000000E+00  0.00000000E+00
  0.00000000E+00  0.00000000E+00  0.00000000E+00
  0.00000000E+00  0.00000000E+00  0.00000000E+00
  0.00000000E+00  0.00000000E+00  0.00000000E+00