FeMn_288_15                             
    1.000000000000000     
     9.7266779999999997    0.0000000000000000    0.0000000000000000
     0.0000000000000000    8.4235500000000005    0.0000000000000000
     0.0000000000000000    0.0000000000000000   45.0000000000000000
   Fe   Mn
   273    15
Direct
  0.8123767614948157  0.0419189829789697  0.6099459440436205
  0.5632518108787380  0.7104641169974887  0.8316724138732241
  0.1866791889624299  0.4518903968102890  0.3460185070564262
  0.4371262253512362  0.6183330968834446  0.3015660068789890
  0.9374326723809268  0.1264691680835311  0.7868825124198719
  0.0620402601489643  0.2025466640737714  0.3460825782491862
  0.4377775300067482  0.9571129423799866  0.5652503780144361
  0.6881552787663684  0.1254365771116698  0.6539546456756042
  0.3130279811612539  0.0417858814899015  0.6100566875189528
  0.8121842226112876  0.5447016817675376  0.8740205971772403
  0.8124211297932225  0.0361233368646538  0.3898991801747539
  0.4375364279341682  0.2916969875783740  0.6100158378177681
  0.6872068741218779  0.2861539199680250  0.3900128174301312
  0.9386968262275980  0.2939764520858090  0.8743179502825427
  0.6872794187810450  0.2847089025156285  0.2573142616727963
  0.1875641332209554  0.6252301294132526  0.6540874468121366
  0.6875751432956800  0.7927451530831401  0.8741072136347993
  0.5628105707734226  0.2103875400850713  0.8320517411882299
  0.9371684323312525  0.6209273443340343  0.4347519864458270
  0.9372899081680633  0.7933882716502128  0.8739513476833317
  0.1870316897293581  0.1210526228432768  0.4347306855577872
  0.8121757136707495  0.8679166656017286  0.3015180963330126
  0.8128450990817947  0.5417706472261820  0.6099671772040818
  0.4373706025211447  0.1170583620956578  0.1681863372461856
  0.8124914248219944  0.7011477593056880  0.2131071367672206
  0.4374989546065748  0.4513158795441922  0.2130909797616793
  0.5629984684229274  0.0435014134900321  0.7427399517276457
  0.0622953171131616  0.0338706687530194  0.1259692568060398
  0.1876705055686061  0.9512959371743263  0.2130412900761933
  0.1873837015270999  0.6181607569928326  0.3015896115655052
  0.3123897793199900  0.3774390903220669  0.7868274761588863
  0.5622824296056189  0.0423613364787037  0.6099890783648304
  0.8122594201381571  0.7018619870425366  0.3459928159174283
  0.9377191996899340  0.7910744216923570  0.6099639032787422
  0.3125582485473212  0.3704915880601186  0.4346310794991207
  0.0623263494968490  0.7012972777621477  0.2131131950564280
  0.1871257091989466  0.2843599181269475  0.2572932763426632
  0.4372474099636041  0.6206987802737290  0.4346716287333746
  0.9375695512779081  0.6255058499705908  0.6540198760275725
  0.3127406124903411  0.3758598005040332  0.6539240197966132
  0.3124388854834232  0.5418429002235795  0.6099254618858096
  0.5627769547641417  0.5440820982124573  0.8741857627382821
  0.0629108170990827  0.7053216018919236  0.4784322176933008
  0.9372317925736398  0.1177952735546903  0.3015896111013182
  0.4372041680122394  0.4518557376697936  0.3459714299917603
  0.8129753612901348  0.2066969196433810  0.5653270974263146
  0.3129658518093881  0.5431088720733596  0.7427495643261932
  0.8131697600807212  0.3757507281937030  0.6539279150970819
  0.9369793603860554  0.1220227457335753  0.5213286631185035
  0.4372143872262736  0.7847342191880631  0.2573074914077797
  0.0629240646742106  0.3755354381424801  0.6539738517191761
  0.5625143554648717  0.5420746600487291  0.6099393892449105
  0.6881444766164169  0.9598026294467273  0.6985484711870514
  0.9379804079439416  0.2936700881450244  0.7427804734985769
  0.6876062439226833  0.6264176369354250  0.7871505142722448
  0.4374430832680058  0.6171800085152029  0.1682640008423334
  0.6873706316463399  0.7916431857511884  0.6099348781326418
  0.4375332083700032  0.2837003442606486  0.1259289915574098
  0.8122545326908621  0.0344068707624720  0.2573360308440058
  0.1885828978737020  0.9616733614463121  0.8318607122272341
  0.3124451546629247  0.8726303910712426  0.5213042907858781
  0.5629145115677746  0.8762083466288786  0.7869092237098408
  0.9371463288088085  0.1210410757332283  0.4347169404078502
  0.3121189659585629  0.8681585994597745  0.3015205394107398
  0.4366475056873990  0.1224658062843896  0.5213672545083486
  0.0630732253412280  0.7095424172960808  0.6985577781342082
  0.4375586548191869  0.7836535285248786  0.1260392360818590
  0.9372680295197799  0.7861938598543005  0.3899576983517693
  0.0628256697588636  0.7112729463113528  0.8316402417361153
  0.9371244794755462  0.9562509900072618  0.5651919237572999
  0.3120687950135823  0.0360538941337043  0.3898869304949834
  0.9372324863948134  0.2845902404122853  0.2573042460515123
  0.1874611278153207  0.6269959207792206  0.7870908374442077
  0.4372473199022713  0.7866389900253021  0.3899942381217233
  0.3126790773208014  0.5447864679597273  0.8740973929923819
  0.1876758485530577  0.7936507906680139  0.7428198130553514
  0.5625251614119648  0.8666454188948440  0.1681924126258661
  0.1878662274852811  0.2835677952183472  0.1259346095524067
  0.0617258028084979  0.0450142858165858  0.8741569716540534
  0.0619994918367885  0.5363632043498315  0.3899664374584650
  0.0623003669979457  0.5337996770313964  0.1259572577920091
  0.9373930545056833  0.9513172168425169  0.2130628517335412
  0.8122734858320569  0.3682043185734545  0.3015339394266656
  0.6879557002479638  0.4607926059138605  0.8319405181195355
  0.0621587860844062  0.2053525961490668  0.4784496460296376
  0.8123119962414692  0.5363652366219738  0.3899139275745032
  0.6872309528078887  0.7865749970328226  0.3899357069650565
  0.5620311751830745  0.8685812268962348  0.3014577324459590
  0.8122333797136155  0.5341697458369835  0.2572925224707828
  0.8118579166098429  0.3709115159803874  0.4345131066563834
  0.4375376469464639  0.6225251824065214  0.5213039459762755
  0.1871701299310362  0.7862729290318812  0.3899712514278242
  0.1879619202699626  0.1225890375253686  0.5214676779873643
  0.6867855713533570  0.2936508499469048  0.8742264907374140
  0.9371292093282564  0.9522672834031295  0.3459756690404436
  0.4374787418437817  0.4555711504507572  0.4785134233409687
  0.9369856396557857  0.9561354584887124  0.4785062547469796
  0.6872337776724281  0.6168890323419506  0.1682382327776140
  0.0624959615164470  0.3773207442861017  0.7868864200557272
  0.5623477471045963  0.7018801764088488  0.3459841790774091
  0.5634599136421832  0.0448886494769211  0.8741354030594392
  0.3121145167329453  0.2019635045423997  0.3459532891984733
  0.1878600428697626  0.1268410268124380  0.7869708321412318
  0.5619264375942513  0.3736163458535033  0.5212338978792993
  0.0628662471938329  0.5437013028931136  0.7427754700213642
  0.8122173512393323  0.3726338497836861  0.5213313993693323
  0.5622941542783577  0.3667984515896229  0.1682540243038824
  0.9374730870845108  0.2840385437421678  0.1259295606578174
  0.4372066749941244  0.2847929189344837  0.2572385504614096
  0.8131097052957282  0.8760019228818516  0.6540194497860631
  0.6882671657314251  0.4569877639938656  0.5652246971224264
  0.1870210243664037  0.9521651204334066  0.3460255974892885
  0.4387550352796553  0.2940378717559832  0.8741082730261444
  0.1871674651146535  0.9553616490105787  0.4786148771623354
  0.6879016878753061  0.6256884394146953  0.6541256145959220
  0.5625532568153427  0.2094371605276520  0.6984403693908325
  0.6871429289734251  0.6208585826666476  0.4345706023776528
  0.6874200784050739  0.4602355171594841  0.6983844203724971
  0.0618429832768397  0.5342682121005109  0.2572953313620657
  0.5623915122612381  0.2020888743814131  0.3460770961705538
  0.0620342686490866  0.0343004830204878  0.2573239074913007
  0.3133462673685939  0.7112595829703273  0.8319820640178187
  0.6871898735806959  0.4508974864390757  0.2130775001792294
  0.0622384832850983  0.2069385958438890  0.5652507179816740
  0.0621081186364841  0.8764889292483500  0.7868398557761470
  0.0629492189909038  0.8760907160257398  0.6540348945290155
  0.3123768286920248  0.8669360415669558  0.1682620586712797
  0.8123796579654173  0.8711107905340436  0.4344848464239072
  0.0623356659506584  0.8679425352188662  0.3014638556248090
  0.3130033195440378  0.2098099926898641  0.8319579170321940
  0.5625651969034627  0.5346310359012133  0.2572954421961240
  0.3120633390062750  0.3680047706122216  0.3014737813990108
  0.9381213941647156  0.7938923427249073  0.7428925588826470
  0.4377113096451190  0.7918583934783523  0.6099556923196792
  0.6871944579486112  0.1181392777142335  0.3015168243557800
  0.0622688997174387  0.8711013838580997  0.4344858028899029
  0.5625145525577855  0.3765835685287307  0.7869365800733117
  0.1864074969549014  0.2939701049369313  0.8743555666226703
  0.8125566421086721  0.8765928356973877  0.7869445716095487
  0.5624016595789342  0.2008784545208003  0.2130503426931397
  0.6883884666532121  0.7938278101661952  0.7429790734768308
  0.1874818830485681  0.1171482838455862  0.1681944531928841
  0.4372906236426949  0.6267703939815852  0.7870116079633097
  0.0621664350790646  0.7018143909914921  0.3459873945481859
  0.5627113430724027  0.7013163911738278  0.2130831406090074
  0.3119866151780498  0.7017410565316341  0.3460164612245353
  0.9379017818127857  0.4599700753693249  0.6985567719412187
  0.1877651207602096  0.9600379380921968  0.6984594649938237
  0.0626327998285742  0.5412768306577730  0.6098890244699626
  0.6876275547867341  0.4560003411097207  0.4784566456663467
  0.4380218665593034  0.4596720743512236  0.6984851273792503
  0.9373005170951836  0.7840049216784036  0.2572287668146911
  0.8123748661787550  0.7108920256483888  0.8317929203270544
  0.0621744533906521  0.3672165305509329  0.1681629207269418
  0.5620999196338632  0.8711725832300807  0.4345847911541451
  0.4378256491519019  0.4609980320398379  0.8318485936533790
  0.8125642196308124  0.3671319247934271  0.1681615772890392
  0.1873350409215762  0.1255389987169475  0.6540446235343296
  0.5628443013303948  0.3757079911421973  0.6539328177800686
  0.6873160814088753  0.7839485106279414  0.1260761563034005
  0.8117831534806970  0.7051578815026517  0.4784955818847846
  0.1877449575937137  0.7909675992412855  0.6099291221502683
  0.4375188368714687  0.7932683803075866  0.8740688276056295
  0.1871325526153640  0.1179194889948985  0.3015412554938902
  0.4376948585136738  0.9551915803466088  0.4784043632125765
  0.0623142023316611  0.3707877072493002  0.4345887701191921
  0.6880394220290594  0.9604324952251401  0.8318834376895556
  0.3121056789500042  0.7054243946112897  0.4784379403256095
  0.3130026714298160  0.7099733912312394  0.6984626545332127
  0.3124246530781776  0.8755933129550719  0.6540128108157808
  0.0627451554854761  0.3722211698460737  0.5213118550189721
  0.4373659733602233  0.1182874852510660  0.3015199683819995
  0.1872663418645437  0.4607999004820186  0.8319835014405285
  0.1874266853803769  0.7838036525396564  0.1260350313818348
  0.4371672974503563  0.1209307583340623  0.4346620335326344
  0.6872244563680955  0.1170078916390708  0.1682329602602241
  0.6871060666628065  0.2835582941771763  0.1259670038667488
  0.9372568260319288  0.4562967449089370  0.5651447635233187
  0.0620960383508405  0.3679887000387255  0.3015276975247999
  0.3122670690822041  0.8709319406279601  0.4345777095653412
  0.0629716469585611  0.2096795798744797  0.6984875548043687
  0.6873876760231299  0.9520620161008777  0.3459665913810746
  0.1880314946391279  0.4597142147964698  0.6984673483002998
  0.1874751714693564  0.6208358433062255  0.4345207091396366
  0.3123026086004602  0.3671038179073157  0.1681543959100840
  0.1879557746632114  0.6228342277467497  0.5214195276025555
  0.3126605696436867  0.8765658754787008  0.7869958845073035
  0.3126520267219921  0.2096014826610378  0.6984438807914971
  0.9378421817414534  0.2909440771919268  0.6100487670594706
  0.6870732107800479  0.6184149941574140  0.3015945261747126
  0.8123343766663969  0.2011740843560226  0.2130880241616259
  0.5622023479157360  0.3710482063659085  0.4346415177304888
  0.5630728913477878  0.5431724980724033  0.7427944949302951
  0.1870711245273117  0.2861739814912109  0.3900350021940645
  0.5622373015371077  0.5364623500230850  0.3898580111533314
  0.9373927630198481  0.1169753558590984  0.1682696893638502
  0.3127477869916696  0.3721201188179251  0.5212981291786323
  0.9372159801506827  0.6179896384019706  0.3015094413505758
  0.3128373732377228  0.7068836390112094  0.5651133990757619
  0.8124541911668015  0.8669759655528144  0.1682786712792050
  0.4375594934454628  0.9597632202087021  0.6984979283919489
  0.5622914981445108  0.2074915493997714  0.5649501453708976
  0.9372499469598810  0.2863946833808318  0.3899596729350693
  0.3127580945920196  0.0436075539778660  0.7428696825148151
  0.0624158250863668  0.7067505727117265  0.5652449634033219
  0.4376570216377185  0.4571686398129799  0.5652403517108534
  0.6872891863808140  0.7840745934077831  0.2572578739961829
  0.0625850929095974  0.5439319231471608  0.8740681214112082
  0.5621266145481725  0.7071662401991338  0.5651465631118708
  0.0620501761516374  0.8668680723630404  0.1681934300982891
  0.5622615507718385  0.8724108095323367  0.5212563791235620
  0.1882009279107819  0.7929229457335039  0.8740013258033137
  0.5624840579245937  0.0336237824540853  0.1259754079722304
  0.5622242148130736  0.0363249507031755  0.3900305599691631
  0.8128570614103615  0.5438717916626509  0.7427435835263095
  0.9369633421731718  0.4544854563801543  0.4784886887275997
  0.8129097188271979  0.3759937486393773  0.7870575954677287
  0.9377281682103784  0.6265595167832014  0.7871390281240570
  0.5623701689146913  0.0344898681374964  0.2573189345390844
  0.8126828356531974  0.0337845139519786  0.1260044102394813
  0.8131400704897175  0.7066755489958136  0.5651404024933071
  0.3119462324147468  0.2057413400176313  0.4785180752599001
  0.8126983980838411  0.8734664664262212  0.5213317566686712
  0.1875036755952935  0.2935714897630072  0.7428055891022207
  0.9373984938234283  0.6164842900904273  0.1681612634669384
  0.6880027725664910  0.1217710165224789  0.5213123687734490
  0.8129311300062010  0.0434025248432545  0.7428361215134481
  0.0627212333694302  0.2011815315684002  0.2130932742414856
  0.5623578531472336  0.5338809481091321  0.1260482217043064
  0.0625664714628816  0.0413704311329114  0.6100923640442080
  0.4375479040125378  0.9512510314432526  0.2130478804360296
  0.0622380400667227  0.8729936759369248  0.5213206794571111
  0.9378779341765712  0.1266609940381779  0.6540642661495596
  0.3122207261608879  0.5346251831664981  0.2572945093036019
  0.4375966613926942  0.1260870557572275  0.6540601551250920
  0.8125741354414967  0.0441799012694536  0.8741821721700702
  0.6881395219560189  0.2933712807816461  0.7428458388425168
  0.3124351007884396  0.2009167234784873  0.2130710239937908
  0.1870332522907148  0.7845335271927846  0.2572840272211054
  0.8127959275238934  0.2096138825573332  0.6984793212790563
  0.1874869859301524  0.2911023055017500  0.6099156063936929
  0.6872990515673665  0.9554616516775823  0.4785602548662511
  0.9380087745975156  0.9593178465360777  0.6984777836749052
  0.6875977626872821  0.1212138435551492  0.4346929759678124
  0.9372051369810381  0.4521632551853740  0.3459734461537909
  0.3123055704814747  0.5361437636675931  0.3898938767023196
  0.4372467771995659  0.1270805627446657  0.7870833597973573
  0.9376920097473074  0.7846543865956450  0.1260173526061588
  0.8127138700445499  0.5336295413656765  0.1259708301584755
  0.3126264359532460  0.5336452920583581  0.1260817527693152
  0.4377736489955429  0.7937368698857499  0.7427571809073020
  0.6869575775436735  0.6224146330796290  0.5212977997671830
  0.3125080273314310  0.0336060132565628  0.1259742678101893
  0.5623907099710307  0.7050962169908662  0.4785158897204931
  0.3122848160849643  0.7015831915973385  0.2131324722831159
  0.3129573865196343  0.2075564302931537  0.5653321983918133
  0.6876257764514065  0.2915341379105560  0.6099013061247380
  0.9377186336081863  0.9613832516488406  0.8318909493954854
  0.5622283259061909  0.7099429539402620  0.6985471345668146
  0.1877034685093635  0.4511989422453255  0.2130846587188742
  0.0620839625117141  0.0361938618928057  0.3899683941160045
  0.6872767027381580  0.9511747233420859  0.2130416616767368
  0.4372911516043458  0.9602859995352515  0.8320317343006445
  0.1873497160730023  0.6171954318147574  0.1682391822315957
  0.4373186482492222  0.2860067564521204  0.3899650636297060
  0.8131605205769646  0.2051830869385582  0.4784674223227920
  0.5624500712767564  0.3681516961779864  0.3015137100061532
  0.8126811602256626  0.2102584403479497  0.8318707615119177
  0.6876369955153245  0.4521117750755698  0.3460208439118526
  0.9386062868005740  0.4599377003598262  0.8318703360848241
  0.0631737680075752  0.0436275441671812  0.7427524607323926
  0.1871197436952298  0.4552165109074172  0.4785982877986597
  0.8121708526276546  0.2023919825245911  0.3460086826745696
  0.4372615773289871  0.9519619654021301  0.3461105843374664
  0.1870840003011531  0.4566029308210230  0.5651304887889503
  0.9372991333820476  0.6225489831124024  0.5213156368859450
  0.1878424572117831  0.9566358579561143  0.5652160544558774
  0.8127097576199463  0.7099605549276793  0.6983517756321506
  0.3122648720455801  0.0438042299451588  0.8737881243793810
  0.4376379087702869  0.6252932269345534  0.6539253266977195
  0.6874473040532337  0.1270392023871907  0.7867596134631457
  0.0636391627982745  0.2108591585334007  0.8326742265402914
  0.6875604951191566  0.9565877000240225  0.5653301631995755
  0.3122193434267979  0.0345276720736139  0.2572797059949296
  0.5620861629687346  0.2055318599195921  0.4784811347468866
  0.9374318993451802  0.4512724797975946  0.2132677116109102
  0.4382817600851401  0.2933242891357012  0.7430512951745953
  0.5637402057395836  0.8763035633614641  0.6538536131542478
 
  0.00000000E+00  0.00000000E+00  0.00000000E+00
  0.00000000E+00  0.00000000E+00  0.00000000E+00
  0.00000000E+00  0.00000000E+00  0.00000000E+00
  0.00000000E+00  0.00000000E+00  0.00000000E+00
  0.00000000E+00  0.00000000E+00  0.00000000E+00
  0.00000000E+00  0.00000000E+00  0.00000000E+00
  0.00000000E+00  0.00000000E+00  0.00000000E+00
  0.00000000E+00  0.00000000E+00  0.00000000E+00
  0.00000000E+00  0.00000000E+00  0.00000000E+00
  0.00000000E+00  0.00000000E+00  0.00000000E+00
  0.00000000E+00  0.00000000E+00  0.00000000E+00
  0.00000000E+00  0.00000000E+00  0.00000000E+00
  0.00000000E+00  0.00000000E+00  0.00000000E+00
  0.00000000E+00  0.00000000E+00  0.00000000E+00
  0.00000000E+00  0.00000000E+00  0.00000000E+00
  0.00000000E+00  0.00000000E+00  0.00000000E+00
  0.00000000E+00  0.00000000E+00  0.00000000E+00
  0.00000000E+00  0.00000000E+00  0.00000000E+00
  0.00000000E+00  0.00000000E+00  0.00000000E+00
  0.00000000E+00  0.00000000E+00  0.00000000E+00
  0.00000000E+00  0.00000000E+00  0.00000000E+00
  0.00000000E+00  0.00000000E+00  0.00000000E+00
  0.00000000E+00  0.00000000E+00  0.00000000E+00
  0.00000000E+00  0.00000000E+00  0.00000000E+00
  0.00000000E+00  0.00000000E+00  0.00000000E+00
  0.00000000E+00  0.00000000E+00  0.00000000E+00
  0.00000000E+00  0.00000000E+00  0.00000000E+00
  0.00000000E+00  0.00000000E+00  0.00000000E+00
  0.00000000E+00  0.00000000E+00  0.00000000E+00
  0.00000000E+00  0.00000000E+00  0.00000000E+00
  0.00000000E+00  0.00000000E+00  0.00000000E+00
  0.00000000E+00  0.00000000E+00  0.00000000E+00
  0.00000000E+00  0.00000000E+00  0.00000000E+00
  0.00000000E+00  0.00000000E+00  0.00000000E+00
  0.00000000E+00  0.00000000E+00  0.00000000E+00
  0.00000000E+00  0.00000000E+00  0.00000000E+00
  0.00000000E+00  0.00000000E+00  0.00000000E+00
  0.00000000E+00  0.00000000E+00  0.00000000E+00
  0.00000000E+00  0.00000000E+00  0.00000000E+00
  0.00000000E+00  0.00000000E+00  0.00000000E+00
  0.00000000E+00  0.00000000E+00  0.00000000E+00
  0.00000000E+00  0.00000000E+00  0.00000000E+00
  0.00000000E+00  0.00000000E+00  0.00000000E+00
  0.00000000E+00  0.00000000E+00  0.00000000E+00
  0.00000000E+00  0.00000000E+00  0.00000000E+00
  0.00000000E+00  0.00000000E+00  0.00000000E+00
  0.00000000E+00  0.00000000E+00  0.00000000E+00
  0.00000000E+00  0.00000000E+00  0.00000000E+00
  0.00000000E+00  0.00000000E+00  0.00000000E+00
  0.00000000E+00  0.00000000E+00  0.00000000E+00
  0.00000000E+00  0.00000000E+00  0.00000000E+00
  0.00000000E+00  0.00000000E+00  0.00000000E+00
  0.00000000E+00  0.00000000E+00  0.00000000E+00
  0.00000000E+00  0.00000000E+00  0.00000000E+00
  0.00000000E+00  0.00000000E+00  0.00000000E+00
  0.00000000E+00  0.00000000E+00  0.00000000E+00
  0.00000000E+00  0.00000000E+00  0.00000000E+00
  0.00000000E+00  0.00000000E+00  0.00000000E+00
  0.00000000E+00  0.00000000E+00  0.00000000E+00
  0.00000000E+00  0.00000000E+00  0.00000000E+00
  0.00000000E+00  0.00000000E+00  0.00000000E+00
  0.00000000E+00  0.00000000E+00  0.00000000E+00
  0.00000000E+00  0.00000000E+00  0.00000000E+00
  0.00000000E+00  0.00000000E+00  0.00000000E+00
  0.00000000E+00  0.00000000E+00  0.00000000E+00
  0.00000000E+00  0.00000000E+00  0.00000000E+00
  0.00000000E+00  0.00000000E+00  0.00000000E+00
  0.00000000E+00  0.00000000E+00  0.00000000E+00
  0.00000000E+00  0.00000000E+00  0.00000000E+00
  0.00000000E+00  0.00000000E+00  0.00000000E+00
  0.00000000E+00  0.00000000E+00  0.00000000E+00
  0.00000000E+00  0.00000000E+00  0.00000000E+00
  0.00000000E+00  0.00000000E+00  0.00000000E+00
  0.00000000E+00  0.00000000E+00  0.00000000E+00
  0.00000000E+00  0.00000000E+00  0.00000000E+00
  0.00000000E+00  0.00000000E+00  0.00000000E+00
  0.00000000E+00  0.00000000E+00  0.00000000E+00
  0.00000000E+00  0.00000000E+00  0.00000000E+00
  0.00000000E+00  0.00000000E+00  0.00000000E+00
  0.00000000E+00  0.00000000E+00  0.00000000E+00
  0.00000000E+00  0.00000000E+00  0.00000000E+00
  0.00000000E+00  0.00000000E+00  0.00000000E+00
  0.00000000E+00  0.00000000E+00  0.00000000E+00
  0.00000000E+00  0.00000000E+00  0.00000000E+00
  0.00000000E+00  0.00000000E+00  0.00000000E+00
  0.00000000E+00  0.00000000E+00  0.00000000E+00
  0.00000000E+00  0.00000000E+00  0.00000000E+00
  0.00000000E+00  0.00000000E+00  0.00000000E+00
  0.00000000E+00  0.00000000E+00  0.00000000E+00
  0.00000000E+00  0.00000000E+00  0.00000000E+00
  0.00000000E+00  0.00000000E+00  0.00000000E+00
  0.00000000E+00  0.00000000E+00  0.00000000E+00
  0.00000000E+00  0.00000000E+00  0.00000000E+00
  0.00000000E+00  0.00000000E+00  0.00000000E+00
  0.00000000E+00  0.00000000E+00  0.00000000E+00
  0.00000000E+00  0.00000000E+00  0.00000000E+00
  0.00000000E+00  0.00000000E+00  0.00000000E+00
  0.00000000E+00  0.00000000E+00  0.00000000E+00
  0.00000000E+00  0.00000000E+00  0.00000000E+00
  0.00000000E+00  0.00000000E+00  0.00000000E+00
  0.00000000E+00  0.00000000E+00  0.00000000E+00
  0.00000000E+00  0.00000000E+00  0.00000000E+00
  0.00000000E+00  0.00000000E+00  0.00000000E+00
  0.00000000E+00  0.00000000E+00  0.00000000E+00
  0.00000000E+00  0.00000000E+00  0.00000000E+00
  0.00000000E+00  0.00000000E+00  0.00000000E+00
  0.00000000E+00  0.00000000E+00  0.00000000E+00
  0.00000000E+00  0.00000000E+00  0.00000000E+00
  0.00000000E+00  0.00000000E+00  0.00000000E+00
  0.00000000E+00  0.00000000E+00  0.00000000E+00
  0.00000000E+00  0.00000000E+00  0.00000000E+00
  0.00000000E+00  0.00000000E+00  0.00000000E+00
  0.00000000E+00  0.00000000E+00  0.00000000E+00
  0.00000000E+00  0.00000000E+00  0.00000000E+00
  0.00000000E+00  0.00000000E+00  0.00000000E+00
  0.00000000E+00  0.00000000E+00  0.00000000E+00
  0.00000000E+00  0.00000000E+00  0.00000000E+00
  0.00000000E+00  0.00000000E+00  0.00000000E+00
  0.00000000E+00  0.00000000E+00  0.00000000E+00
  0.00000000E+00  0.00000000E+00  0.00000000E+00
  0.00000000E+00  0.00000000E+00  0.00000000E+00
  0.00000000E+00  0.00000000E+00  0.00000000E+00
  0.00000000E+00  0.00000000E+00  0.00000000E+00
  0.00000000E+00  0.00000000E+00  0.00000000E+00
  0.00000000E+00  0.00000000E+00  0.00000000E+00
  0.00000000E+00  0.00000000E+00  0.00000000E+00
  0.00000000E+00  0.00000000E+00  0.00000000E+00
  0.00000000E+00  0.00000000E+00  0.00000000E+00
  0.00000000E+00  0.00000000E+00  0.00000000E+00
  0.00000000E+00  0.00000000E+00  0.00000000E+00
  0.00000000E+00  0.00000000E+00  0.00000000E+00
  0.00000000E+00  0.00000000E+00  0.00000000E+00
  0.00000000E+00  0.00000000E+00  0.00000000E+00
  0.00000000E+00  0.00000000E+00  0.00000000E+00
  0.00000000E+00  0.00000000E+00  0.00000000E+00
  0.00000000E+00  0.00000000E+00  0.00000000E+00
  0.00000000E+00  0.00000000E+00  0.00000000E+00
  0.00000000E+00  0.00000000E+00  0.00000000E+00
  0.00000000E+00  0.00000000E+00  0.00000000E+00
  0.00000000E+00  0.00000000E+00  0.00000000E+00
  0.00000000E+00  0.00000000E+00  0.00000000E+00
  0.00000000E+00  0.00000000E+00  0.00000000E+00
  0.00000000E+00  0.00000000E+00  0.00000000E+00
  0.00000000E+00  0.00000000E+00  0.00000000E+00
  0.00000000E+00  0.00000000E+00  0.00000000E+00
  0.00000000E+00  0.00000000E+00  0.00000000E+00
  0.00000000E+00  0.00000000E+00  0.00000000E+00
  0.00000000E+00  0.00000000E+00  0.00000000E+00
  0.00000000E+00  0.00000000E+00  0.00000000E+00
  0.00000000E+00  0.00000000E+00  0.00000000E+00
  0.00000000E+00  0.00000000E+00  0.00000000E+00
  0.00000000E+00  0.00000000E+00  0.00000000E+00
  0.00000000E+00  0.00000000E+00  0.00000000E+00
  0.00000000E+00  0.00000000E+00  0.00000000E+00
  0.00000000E+00  0.00000000E+00  0.00000000E+00
  0.00000000E+00  0.00000000E+00  0.00000000E+00
  0.00000000E+00  0.00000000E+00  0.00000000E+00
  0.00000000E+00  0.00000000E+00  0.00000000E+00
  0.00000000E+00  0.00000000E+00  0.00000000E+00
  0.00000000E+00  0.00000000E+00  0.00000000E+00
  0.00000000E+00  0.00000000E+00  0.00000000E+00
  0.00000000E+00  0.00000000E+00  0.00000000E+00
  0.00000000E+00  0.00000000E+00  0.00000000E+00
  0.00000000E+00  0.00000000E+00  0.00000000E+00
  0.00000000E+00  0.00000000E+00  0.00000000E+00
  0.00000000E+00  0.00000000E+00  0.00000000E+00
  0.00000000E+00  0.00000000E+00  0.00000000E+00
  0.00000000E+00  0.00000000E+00  0.00000000E+00
  0.00000000E+00  0.00000000E+00  0.00000000E+00
  0.00000000E+00  0.00000000E+00  0.00000000E+00
  0.00000000E+00  0.00000000E+00  0.00000000E+00
  0.00000000E+00  0.00000000E+00  0.00000000E+00
  0.00000000E+00  0.00000000E+00  0.00000000E+00
  0.00000000E+00  0.00000000E+00  0.00000000E+00
  0.00000000E+00  0.00000000E+00  0.00000000E+00
  0.00000000E+00  0.00000000E+00  0.00000000E+00
  0.00000000E+00  0.00000000E+00  0.00000000E+00
  0.00000000E+00  0.00000000E+00  0.00000000E+00
  0.00000000E+00  0.00000000E+00  0.00000000E+00
  0.00000000E+00  0.00000000E+00  0.00000000E+00
  0.00000000E+00  0.00000000E+00  0.00000000E+00
  0.00000000E+00  0.00000000E+00  0.00000000E+00
  0.00000000E+00  0.00000000E+00  0.00000000E+00
  0.00000000E+00  0.00000000E+00  0.00000000E+00
  0.00000000E+00  0.00000000E+00  0.00000000E+00
  0.00000000E+00  0.00000000E+00  0.00000000E+00
  0.00000000E+00  0.00000000E+00  0.00000000E+00
  0.00000000E+00  0.00000000E+00  0.00000000E+00
  0.00000000E+00  0.00000000E+00  0.00000000E+00
  0.00000000E+00  0.00000000E+00  0.00000000E+00
  0.00000000E+00  0.00000000E+00  0.00000000E+00
  0.00000000E+00  0.00000000E+00  0.00000000E+00
  0.00000000E+00  0.00000000E+00  0.00000000E+00
  0.00000000E+00  0.00000000E+00  0.00000000E+00
  0.00000000E+00  0.00000000E+00  0.00000000E+00
  0.00000000E+00  0.00000000E+00  0.00000000E+00
  0.00000000E+00  0.00000000E+00  0.00000000E+00
  0.00000000E+00  0.00000000E+00  0.00000000E+00
  0.00000000E+00  0.00000000E+00  0.00000000E+00
  0.00000000E+00  0.00000000E+00  0.00000000E+00
  0.00000000E+00  0.00000000E+00  0.00000000E+00
  0.00000000E+00  0.00000000E+00  0.00000000E+00
  0.00000000E+00  0.00000000E+00  0.00000000E+00
  0.00000000E+00  0.00000000E+00  0.00000000E+00
  0.00000000E+00  0.00000000E+00  0.00000000E+00
  0.00000000E+00  0.00000000E+00  0.00000000E+00
  0.00000000E+00  0.00000000E+00  0.00000000E+00
  0.00000000E+00  0.00000000E+00  0.00000000E+00
  0.00000000E+00  0.00000000E+00  0.00000000E+00
  0.00000000E+00  0.00000000E+00  0.00000000E+00
  0.00000000E+00  0.00000000E+00  0.00000000E+00
  0.00000000E+00  0.00000000E+00  0.00000000E+00
  0.00000000E+00  0.00000000E+00  0.00000000E+00
  0.00000000E+00  0.00000000E+00  0.00000000E+00
  0.00000000E+00  0.00000000E+00  0.00000000E+00
  0.00000000E+00  0.00000000E+00  0.00000000E+00
  0.00000000E+00  0.00000000E+00  0.00000000E+00
  0.00000000E+00  0.00000000E+00  0.00000000E+00
  0.00000000E+00  0.00000000E+00  0.00000000E+00
  0.00000000E+00  0.00000000E+00  0.00000000E+00
  0.00000000E+00  0.00000000E+00  0.00000000E+00
  0.00000000E+00  0.00000000E+00  0.00000000E+00
  0.00000000E+00  0.00000000E+00  0.00000000E+00
  0.00000000E+00  0.00000000E+00  0.00000000E+00
  0.00000000E+00  0.00000000E+00  0.00000000E+00
  0.00000000E+00  0.00000000E+00  0.00000000E+00
  0.00000000E+00  0.00000000E+00  0.00000000E+00
  0.00000000E+00  0.00000000E+00  0.00000000E+00
  0.00000000E+00  0.00000000E+00  0.00000000E+00
  0.00000000E+00  0.00000000E+00  0.00000000E+00
  0.00000000E+00  0.00000000E+00  0.00000000E+00
  0.00000000E+00  0.00000000E+00  0.00000000E+00
  0.00000000E+00  0.00000000E+00  0.00000000E+00
  0.00000000E+00  0.00000000E+00  0.00000000E+00
  0.00000000E+00  0.00000000E+00  0.00000000E+00
  0.00000000E+00  0.00000000E+00  0.00000000E+00
  0.00000000E+00  0.00000000E+00  0.00000000E+00
  0.00000000E+00  0.00000000E+00  0.00000000E+00
  0.00000000E+00  0.00000000E+00  0.00000000E+00
  0.00000000E+00  0.00000000E+00  0.00000000E+00
  0.00000000E+00  0.00000000E+00  0.00000000E+00
  0.00000000E+00  0.00000000E+00  0.00000000E+00
  0.00000000E+00  0.00000000E+00  0.00000000E+00
  0.00000000E+00  0.00000000E+00  0.00000000E+00
  0.00000000E+00  0.00000000E+00  0.00000000E+00
  0.00000000E+00  0.00000000E+00  0.00000000E+00
  0.00000000E+00  0.00000000E+00  0.00000000E+00