FeMn_288_15                             
    1.000000000000000     
     9.7266779999999997    0.0000000000000000    0.0000000000000000
     0.0000000000000000    8.4235500000000005    0.0000000000000000
     0.0000000000000000    0.0000000000000000   45.0000000000000000
   Fe   Mn
   273    15
Direct
  0.8122377372850016  0.0414462866351156  0.6105745895210019
  0.5631186449295916  0.7117785222661638  0.8328881807520264
  0.1873976039016559  0.4527905498755814  0.3452057965092298
  0.4372435431262481  0.6181953350336191  0.3005656561837773
  0.9385708624356528  0.1289730426592113  0.7879543291994500
  0.0626514410480839  0.2034048736666247  0.3452770005507729
  0.4373568085799707  0.9570614669140896  0.5656179154842512
  0.6871533453706974  0.1245933135954186  0.6548242726069134
  0.3127452561514893  0.0412631418788005  0.6106715654613197
  0.8133909806624998  0.5476121945088780  0.8750424019840169
  0.8126966895736061  0.0367742593433749  0.3892684085952648
  0.4374053730840847  0.2913566298980653  0.6106619453204671
  0.6873756418682675  0.2867984269811671  0.3893693497131536
  0.9398074550186960  0.2967281521513936  0.8755069013488073
  0.6876595243998631  0.2837605349337969  0.2562946908044390
  0.1866642720832272  0.6243281381124040  0.6548948849026099
  0.6885397288744747  0.7954123326113803  0.8752378174938076
  0.5625297867529778  0.2121041248089603  0.8332424531488383
  0.9375612109158995  0.6209261898655228  0.4344923134581188
  0.9383457867719228  0.7960623628292328  0.8750444480116577
  0.1872885511648679  0.1208799571377702  0.4344581271044288
  0.8122393410378526  0.8677635110635851  0.3005137267388381
  0.8126696307977601  0.5413290782171456  0.6105465032533285
  0.4374431261898684  0.1155379625020202  0.1669598021428944
  0.8119660826014452  0.6987834559049134  0.2119738956507511
  0.4368983169184342  0.4488065817871534  0.2119703683940284
  0.5619040167202901  0.0443254752418044  0.7437329503297998
  0.0617520527365865  0.0314503412508512  0.1248423305536954
  0.1870504142920645  0.9486392528766586  0.2118968956928349
  0.1874378161763272  0.6179449396808055  0.3005864603011133
  0.3132911216058570  0.3798467412170917  0.7879074306004314
  0.5621559477888178  0.0418913885529539  0.6106144491080869
  0.8127655310805592  0.7028128338765304  0.3451432311679284
  0.9375334672420178  0.7905656827822398  0.6106093980110179
  0.3127432380043134  0.3704386671813997  0.4343364666544326
  0.0618117388035759  0.6987541416690479  0.2119634450120834
  0.1876717641553774  0.2834662374754248  0.2562708698149478
  0.4373245518195564  0.6207120092362421  0.4343813361415828
  0.9367435080978072  0.6246304134093404  0.6548530566506813
  0.3119461654301981  0.3748956169239787  0.6547973072751386
  0.3123866670172593  0.5413574210025636  0.6105552474162742
  0.5641235736362121  0.5468551492810327  0.8752538984809718
  0.0626795305730148  0.7053178874489210  0.4783430365051035
  0.9371932144733204  0.1175582252681142  0.3006053739729381
  0.4377459290109184  0.4526971212877215  0.3451310007218524
  0.8124923458055285  0.2067980532541756  0.5657117367794900
  0.3122002303831217  0.5441068040203068  0.7437802212658846
  0.8121235253910078  0.3746189608669253  0.6548092102234729
  0.9374311972382031  0.1222849732511672  0.5214675134989649
  0.4376162839156369  0.7837548537495747  0.2562661901907371
  0.0619752725401253  0.3746023924348096  0.6548455214099305
  0.5624717977417287  0.5415709999199687  0.6105331950351591
  0.6882230992229208  0.9598012259626542  0.6995844834855472
  0.9372546599771778  0.2945974411699998  0.7437503614103791
  0.6885918556199155  0.6290044988753576  0.7881820130258984
  0.4375668770440253  0.6156670791607038  0.1670519758878448
  0.6871823823463736  0.7911680611104970  0.6105699019909182
  0.4369741529341437  0.2811190726123938  0.1247644700755009
  0.8126487745670372  0.0333495202634291  0.2562864921279658
  0.1882491773029719  0.9629818286688135  0.8330345846777610
  0.3123751064402775  0.8728626309569673  0.5214130660732217
  0.5639019527880057  0.8782935072479049  0.7879994595932959
  0.9374517269297779  0.1208684811989658  0.4344099902775920
  0.3121562296930429  0.8678895638502241  0.3004925640269842
  0.4364629014768429  0.1221949091156355  0.5214526792612290
  0.0629206062059334  0.7098216785517141  0.6995745358162024
  0.4369605665296443  0.7811913136996390  0.1248360169595619
  0.9374771169749486  0.7867802067981156  0.3893488170710848
  0.0624883733878174  0.7127029597663892  0.8328382114322882
  0.9367892740202317  0.9561880090665711  0.5655783461252718
  0.3122510640410475  0.0366389187687275  0.3892697985871651
  0.9376994746455629  0.2836046861719297  0.2562719752346215
  0.1884917814286982  0.6295533074894920  0.7881517434024673
  0.4373962221260023  0.7871765017530677  0.3893638436873961
  0.3138924404794128  0.5478325143045762  0.8751804379263330
  0.1870199844239952  0.7944713085178602  0.7438244037938041
  0.5626139508770126  0.8653149853328215  0.1669766726692309
  0.1872899288110957  0.2810630473878755  0.1248029278545027
  0.0629542645724114  0.0478317618285981  0.8752878286922855
  0.0622748708172779  0.5368578087022184  0.3893464978882489
  0.0618163436625311  0.5312910080152329  0.1247972891050611
  0.9368421831021241  0.9487739591511591  0.2119476232270377
  0.8122255638069957  0.3680105096793748  0.3005165475368495
  0.6879271824305847  0.4625771506668866  0.8331757574990174
  0.0620735329237993  0.2051407217698356  0.4783849314546793
  0.8125028375098285  0.5369740920036573  0.3892839706902102
  0.6873591124349758  0.7871631305991572  0.3893021524431919
  0.5621189879889327  0.8683140514881443  0.3004314224111398
  0.8126224985669992  0.5332726938618387  0.2562476558414631
  0.8121086330016718  0.3707165168238412  0.4342124011915362
  0.4371603170988249  0.6224980411931847  0.5214064408776803
  0.1874301997390657  0.7868358755765968  0.3893541087050977
  0.1878121662826681  0.1221938829736142  0.5215788575693904
  0.6876938261326355  0.2962332533069083  0.8753105474226486
  0.9376811929558053  0.9530891852936211  0.3451590861448365
  0.4370044504130476  0.4556092735567516  0.4783782693917786
  0.9373163865349734  0.9555753222664654  0.4783907973190776
  0.6873476016938042  0.6154049565959129  0.1670155315513838
  0.0635184918654295  0.3797383081289436  0.7880135974960226
  0.5627792482927751  0.7027033525372685  0.3451437039580281
  0.5646129966923438  0.0477149864841455  0.8751824363645664
  0.3127673509476489  0.2029008832135515  0.3451629490038252
  0.1888846938753466  0.1292501174760004  0.7880106697920962
  0.5623817269736566  0.3730750346093070  0.5213730564482145
  0.0621289616500186  0.5445509427231646  0.7437982401963548
  0.8118783459925222  0.3722381360018329  0.5214391767006991
  0.5623267300024105  0.3652521470031563  0.1670292248365773
  0.9369532762487582  0.2816266699865137  0.1248056250019723
  0.4376223082490862  0.2838904243184712  0.2562051932031578
  0.8120899328378884  0.8751867831800186  0.6548926350816041
  0.6878204384912938  0.4569855062786849  0.5656144771489640
  0.1876180002164451  0.9529445971796090  0.3452095418938969
  0.4398047638616393  0.2965983230525377  0.8752043677222899
  0.1874818365374810  0.9555390497546946  0.4785408054267527
  0.6869119756743792  0.6247357541901640  0.6549343564490697
  0.5624340311360363  0.2095421641063846  0.6994554140373761
  0.6873271192634024  0.6208480407816556  0.4342345666367738
  0.6875495665605419  0.4604275805406509  0.6993987030123038
  0.0624286019924516  0.5333460690780245  0.2562589098605184
  0.5627028845084581  0.2031066410371493  0.3452427198142053
  0.0625846394993830  0.0332764389130042  0.2562731525897660
  0.3130844847830870  0.7126854785837833  0.8331795420728364
  0.6866610877512499  0.4485622240426385  0.2119596482473777
  0.0617773926353727  0.2068075977142306  0.5656185698743991
  0.0631779300856388  0.8784563609538316  0.7878956466907654
  0.0618530200897199  0.8751251148701130  0.6548990171498594
  0.3124850835887099  0.8655873457023617  0.1670323464451833
  0.8126552653402584  0.8709923718855296  0.4342111763176218
  0.0623017653815914  0.8676918725769112  0.3004619297429436
  0.3126959836616960  0.2116514542364791  0.8331248222355639
  0.5629546560609107  0.5337112097865654  0.2562736027285324
  0.3122245058527887  0.3678369926950671  0.3004676461687431
  0.9374215825609736  0.7946654899914654  0.7438609431373084
  0.4375987828858383  0.7914248392861175  0.6106123277789653
  0.6872562959922868  0.1180100707308371  0.3004894335385860
  0.0623464443459488  0.8709062163325272  0.4342096858192523
  0.5635540224771711  0.3790519156940040  0.7880609230378663
  0.1876057407353546  0.2967936279178691  0.8754992814750718
  0.8134591371970126  0.8787471863087568  0.7880765671730614
  0.5618987693250133  0.1984031505116546  0.2118988793669002
  0.6874381521995522  0.7947117362526545  0.7440123763502620
  0.1876138272749142  0.1156360732868121  0.1669754072061581
  0.4383898109269532  0.6293917269653639  0.7880573915749381
  0.0627121370940632  0.7026636057607673  0.3451606618685029
  0.5621889976098288  0.6988829358653079  0.2119426039408804
  0.3126133379301433  0.7025919176631525  0.3451953048601005
  0.9378348485258147  0.4600809112938622  0.6996021329126608
  0.1876134878947506  0.9599838987720989  0.6994721683941844
  0.0623730128342751  0.5409064038945290  0.6104914826055891
  0.6876643791736359  0.4555352839141406  0.4783919797763919
  0.4380497401241059  0.4596448278759445  0.6994981217558948
  0.9377303044556411  0.7829302236491611  0.2561764877018540
  0.8123439849576346  0.7123052825533338  0.8330123277925215
  0.0623983256721831  0.3656910796566826  0.1669783256908764
  0.5623196018686194  0.8709944648464425  0.4342988069719618
  0.4375978601588825  0.4626344603217141  0.8330787030260365
  0.8126846952883719  0.3656901813434255  0.1669845090585574
  0.1864029848752091  0.1246764389854337  0.6548954439561344
  0.5617169443709987  0.3746925340473624  0.6547856709276921
  0.6868031656060432  0.7815173255118237  0.1248881808407329
  0.8120069334649399  0.7057789089274051  0.4784443957839739
  0.1875066369891601  0.7905809372058371  0.6105692952366295
  0.4386123508179629  0.7959721684985672  0.8751947237471812
  0.1871891060797984  0.1177789020022803  0.3005556978846368
  0.4374121619714542  0.9553876011103651  0.4783106817123139
  0.0625665991307365  0.3706689440944338  0.4342852950267655
  0.6878006115804171  0.9618759196619167  0.8331137111933370
  0.3121402642447564  0.7050954972637914  0.4783368493734969
  0.3129795715747029  0.7101370514838811  0.6995038495312067
  0.3114565282843597  0.8747531002940990  0.6548312950136033
  0.0622378633873801  0.3723756109210205  0.5214667701885761
  0.4374638207133068  0.1182548621027270  0.3005262469671037
  0.1871634387937539  0.4625648435214810  0.8332009317842847
  0.1869187299186089  0.7814062619304832  0.1248488986240876
  0.4372539506108887  0.1207997904410365  0.4343992316781144
  0.6872536191233177  0.1155504262293979  0.1670070745635395
  0.6865753570757462  0.2809977289398828  0.1248188109454425
  0.9368973715289113  0.4564069952780791  0.5655303223592297
  0.0621914622415857  0.3678531040843228  0.3005307395212702
  0.3124642413991672  0.8708381357157817  0.4343087201420100
  0.0628799582390424  0.2098776443385854  0.6995139919342926
  0.6878547665002408  0.9528836687415552  0.3451261324373474
  0.1878665002592328  0.4597097260884866  0.6994947671786146
  0.1876616867901235  0.6205811435598992  0.4342384010346081
  0.3125655774240091  0.3655714570770539  0.1669705730778894
  0.1878124424508200  0.6223435048547885  0.5215017365642290
  0.3137305227713730  0.8786924726978482  0.7880605337401132
  0.3127465832251066  0.2097596251975658  0.6994772407977801
  0.9375698975427597  0.2905755114663172  0.6106894415652558
  0.6871021109718956  0.6182098148215217  0.3005879953656514
  0.8118542394231543  0.1985895887463677  0.2119694700893927
  0.5624268611972615  0.3709100208052336  0.4343445051963797
  0.5621981490607070  0.5440103254314029  0.7438342715951656
  0.1872925334028539  0.2868538469045752  0.3894117931644953
  0.5623345970415307  0.5370549245007094  0.3892074137684498
  0.9375556846008624  0.1154373177574849  0.1670569474989244
  0.3127309428219114  0.3723495583740440  0.5213970452487582
  0.9372226645355916  0.6178882650192636  0.3005059029446497
  0.3124078571344051  0.7068116312878594  0.5654634594884735
  0.8125815261633662  0.8655920502351995  0.1670579740231442
  0.4376030396508693  0.9599922675950511  0.6995536799310286
  0.5619490620105576  0.2074747407581672  0.5652949377920488
  0.9375147585127845  0.2869888176544010  0.3893314181048080
  0.3119136042061318  0.0445298890686488  0.7438954694971293
  0.0619414214047058  0.7066181805957397  0.5655916742512899
  0.4372863573144053  0.4572243792874803  0.5656286093642697
  0.6876471019053171  0.7831505294059227  0.2562056624239414
  0.0638423685169594  0.5467541208653042  0.8751586214618261
  0.5619420317807153  0.7071452846770712  0.5654919969273103
  0.0622283813055846  0.8654640071853277  0.1669716748057402
  0.5624023191972856  0.8722733989726635  0.5213735043173344
  0.1891938736529202  0.7955660085455694  0.8751559828248541
  0.5619261995210608  0.0312387468321151  0.1248152152633145
  0.5623509068343913  0.0368640937648959  0.3893899240001109
  0.8119204517799511  0.5446179668412366  0.7437466829629398
  0.9374345428240687  0.4549211321481482  0.4784172414636583
  0.8138050903469972  0.3783813641539167  0.7881333979089183
  0.9386166826070061  0.6290717582689922  0.7882013906889799
  0.5627709948459263  0.0334222760107462  0.2562716859823636
  0.8121088273204692  0.0313995417472668  0.1248611527400474
  0.8125632393681458  0.7067116931392567  0.5655035836927507
  0.3122390085696038  0.2053724675917230  0.4784077680714851
  0.8125341578485570  0.8726683927266353  0.5214303790548713
  0.1867754477522430  0.2943474085747548  0.7438410321363914
  0.9375158777363164  0.6151200731288053  0.1669311588391269
  0.6875057052020982  0.1222859460655096  0.5214273187630932
  0.8122736353707110  0.0444236222248404  0.7438623321573637
  0.0621847008874610  0.1986353616653056  0.2119588618308210
  0.5617743809665334  0.5313935229180352  0.1248713962369432
  0.0623718036238695  0.0409316791669365  0.6107125108693856
  0.4371110588432512  0.9486516467720515  0.2118988073642645
  0.0618554429933183  0.8730270073354518  0.5214426629557515
  0.9368216851352335  0.1257318768961751  0.6549361022340435
  0.3127463234212191  0.5336311053575369  0.2562575497742747
  0.4367863312919266  0.1253609871243062  0.6548917893775914
  0.8136622703403218  0.0467708680763135  0.8752635814311464
  0.6871210954831457  0.2942349086556504  0.7438564639101188
  0.3119045325273052  0.1984472807479974  0.2119357491038835
  0.1876354658403045  0.7835273360036924  0.2562352492512930
  0.8129613647244871  0.2098627829189612  0.6995346418314813
  0.1872885647543854  0.2907295668787372  0.6105724789581182
  0.6871838534921431  0.9550261818804345  0.4784593523788332
  0.9379681933315261  0.9594154444099168  0.6994891125297151
  0.6878159456681135  0.1210961779480873  0.4344076777495201
  0.9377241888669907  0.4530366616447740  0.3451509972714197
  0.3125206901431332  0.5367463643099519  0.3892605998914243
  0.4383561214681979  0.1293784808593008  0.7881134251932815
  0.9371451443081605  0.7821815191031843  0.1248282880279933
  0.8121293939114851  0.5310826072039071  0.1248223689738919
  0.3120773419650363  0.5311867070574920  0.1249051244080551
  0.4368920429729037  0.7944930537721805  0.7437581845725504
  0.6868624619094813  0.6226032584948538  0.5214422531306191
  0.3119333720937908  0.0311744027306881  0.1248246794319036
  0.5626202135231285  0.7054264906412562  0.4783907515498221
  0.3118502575990390  0.6991431335657627  0.2119954455149936
  0.3125014028992269  0.2075436194809070  0.5657185326255666
  0.6874503199270837  0.2912888407591535  0.6105617256979590
  0.9376018271848692  0.9628544438841170  0.8331129962867713
  0.5625238661581169  0.7101335189255105  0.6995998529540193
  0.1872031736134110  0.4487618743223403  0.2119650363654681
  0.0622649323569469  0.0367606025898021  0.3893402324936830
  0.6868211402896754  0.9485963505851500  0.2119212197363531
  0.4373931463073276  0.9619090318694482  0.8332201995479928
  0.1874645715310817  0.6157459882363919  0.1670297999395148
  0.4374581737589981  0.2866566364385286  0.3893115679723714
  0.8129135487445157  0.2057210479454761  0.4783785245466305
  0.5624308597625930  0.3681370950582530  0.3005163829646095
  0.8123501624905136  0.2118157948104515  0.8330532048823568
  0.6879598494811902  0.4530221408892807  0.3451700210243274
  0.9384069654266187  0.4616648658153786  0.8330707547229155
  0.0624471835669292  0.0444625082528718  0.7437360550185975
  0.1873632886103040  0.4558478562887839  0.4785244190958807
  0.8126596649703790  0.2032933432573458  0.3451818487456735
  0.4377511859701037  0.9529298166820811  0.3452553279322953
  0.1865572907715080  0.4567322730167462  0.5655187082236615
  0.9374268798226962  0.6223926701242561  0.5213834698512865
  0.1873084900194182  0.9566099397006175  0.5655897148689356
  0.8130443942258678  0.7100854726308636  0.6993543163702464
  0.3136477206476657  0.0465020900404026  0.8748942091587991
  0.4365724209700785  0.6241484557049826  0.6547950054537158
  0.6885164834892979  0.1295434403231225  0.7878347975998722
  0.0633182908336120  0.2127459028002816  0.8338399584950169
  0.6871139633549772  0.9563829743185163  0.5657286420894457
  0.3127900209258975  0.0335782297722324  0.2562233456689637
  0.5622669836204945  0.2056640946515567  0.4784217012420645
  0.9368575121135906  0.4484799924850739  0.2121745974472558
  0.4372459754151259  0.2939941685215954  0.7440599061276718
  0.5625293146329301  0.8751062658847610  0.6547319802062460
 
  0.00000000E+00  0.00000000E+00  0.00000000E+00
  0.00000000E+00  0.00000000E+00  0.00000000E+00
  0.00000000E+00  0.00000000E+00  0.00000000E+00
  0.00000000E+00  0.00000000E+00  0.00000000E+00
  0.00000000E+00  0.00000000E+00  0.00000000E+00
  0.00000000E+00  0.00000000E+00  0.00000000E+00
  0.00000000E+00  0.00000000E+00  0.00000000E+00
  0.00000000E+00  0.00000000E+00  0.00000000E+00
  0.00000000E+00  0.00000000E+00  0.00000000E+00
  0.00000000E+00  0.00000000E+00  0.00000000E+00
  0.00000000E+00  0.00000000E+00  0.00000000E+00
  0.00000000E+00  0.00000000E+00  0.00000000E+00
  0.00000000E+00  0.00000000E+00  0.00000000E+00
  0.00000000E+00  0.00000000E+00  0.00000000E+00
  0.00000000E+00  0.00000000E+00  0.00000000E+00
  0.00000000E+00  0.00000000E+00  0.00000000E+00
  0.00000000E+00  0.00000000E+00  0.00000000E+00
  0.00000000E+00  0.00000000E+00  0.00000000E+00
  0.00000000E+00  0.00000000E+00  0.00000000E+00
  0.00000000E+00  0.00000000E+00  0.00000000E+00
  0.00000000E+00  0.00000000E+00  0.00000000E+00
  0.00000000E+00  0.00000000E+00  0.00000000E+00
  0.00000000E+00  0.00000000E+00  0.00000000E+00
  0.00000000E+00  0.00000000E+00  0.00000000E+00
  0.00000000E+00  0.00000000E+00  0.00000000E+00
  0.00000000E+00  0.00000000E+00  0.00000000E+00
  0.00000000E+00  0.00000000E+00  0.00000000E+00
  0.00000000E+00  0.00000000E+00  0.00000000E+00
  0.00000000E+00  0.00000000E+00  0.00000000E+00
  0.00000000E+00  0.00000000E+00  0.00000000E+00
  0.00000000E+00  0.00000000E+00  0.00000000E+00
  0.00000000E+00  0.00000000E+00  0.00000000E+00
  0.00000000E+00  0.00000000E+00  0.00000000E+00
  0.00000000E+00  0.00000000E+00  0.00000000E+00
  0.00000000E+00  0.00000000E+00  0.00000000E+00
  0.00000000E+00  0.00000000E+00  0.00000000E+00
  0.00000000E+00  0.00000000E+00  0.00000000E+00
  0.00000000E+00  0.00000000E+00  0.00000000E+00
  0.00000000E+00  0.00000000E+00  0.00000000E+00
  0.00000000E+00  0.00000000E+00  0.00000000E+00
  0.00000000E+00  0.00000000E+00  0.00000000E+00
  0.00000000E+00  0.00000000E+00  0.00000000E+00
  0.00000000E+00  0.00000000E+00  0.00000000E+00
  0.00000000E+00  0.00000000E+00  0.00000000E+00
  0.00000000E+00  0.00000000E+00  0.00000000E+00
  0.00000000E+00  0.00000000E+00  0.00000000E+00
  0.00000000E+00  0.00000000E+00  0.00000000E+00
  0.00000000E+00  0.00000000E+00  0.00000000E+00
  0.00000000E+00  0.00000000E+00  0.00000000E+00
  0.00000000E+00  0.00000000E+00  0.00000000E+00
  0.00000000E+00  0.00000000E+00  0.00000000E+00
  0.00000000E+00  0.00000000E+00  0.00000000E+00
  0.00000000E+00  0.00000000E+00  0.00000000E+00
  0.00000000E+00  0.00000000E+00  0.00000000E+00
  0.00000000E+00  0.00000000E+00  0.00000000E+00
  0.00000000E+00  0.00000000E+00  0.00000000E+00
  0.00000000E+00  0.00000000E+00  0.00000000E+00
  0.00000000E+00  0.00000000E+00  0.00000000E+00
  0.00000000E+00  0.00000000E+00  0.00000000E+00
  0.00000000E+00  0.00000000E+00  0.00000000E+00
  0.00000000E+00  0.00000000E+00  0.00000000E+00
  0.00000000E+00  0.00000000E+00  0.00000000E+00
  0.00000000E+00  0.00000000E+00  0.00000000E+00
  0.00000000E+00  0.00000000E+00  0.00000000E+00
  0.00000000E+00  0.00000000E+00  0.00000000E+00
  0.00000000E+00  0.00000000E+00  0.00000000E+00
  0.00000000E+00  0.00000000E+00  0.00000000E+00
  0.00000000E+00  0.00000000E+00  0.00000000E+00
  0.00000000E+00  0.00000000E+00  0.00000000E+00
  0.00000000E+00  0.00000000E+00  0.00000000E+00
  0.00000000E+00  0.00000000E+00  0.00000000E+00
  0.00000000E+00  0.00000000E+00  0.00000000E+00
  0.00000000E+00  0.00000000E+00  0.00000000E+00
  0.00000000E+00  0.00000000E+00  0.00000000E+00
  0.00000000E+00  0.00000000E+00  0.00000000E+00
  0.00000000E+00  0.00000000E+00  0.00000000E+00
  0.00000000E+00  0.00000000E+00  0.00000000E+00
  0.00000000E+00  0.00000000E+00  0.00000000E+00
  0.00000000E+00  0.00000000E+00  0.00000000E+00
  0.00000000E+00  0.00000000E+00  0.00000000E+00
  0.00000000E+00  0.00000000E+00  0.00000000E+00
  0.00000000E+00  0.00000000E+00  0.00000000E+00
  0.00000000E+00  0.00000000E+00  0.00000000E+00
  0.00000000E+00  0.00000000E+00  0.00000000E+00
  0.00000000E+00  0.00000000E+00  0.00000000E+00
  0.00000000E+00  0.00000000E+00  0.00000000E+00
  0.00000000E+00  0.00000000E+00  0.00000000E+00
  0.00000000E+00  0.00000000E+00  0.00000000E+00
  0.00000000E+00  0.00000000E+00  0.00000000E+00
  0.00000000E+00  0.00000000E+00  0.00000000E+00
  0.00000000E+00  0.00000000E+00  0.00000000E+00
  0.00000000E+00  0.00000000E+00  0.00000000E+00
  0.00000000E+00  0.00000000E+00  0.00000000E+00
  0.00000000E+00  0.00000000E+00  0.00000000E+00
  0.00000000E+00  0.00000000E+00  0.00000000E+00
  0.00000000E+00  0.00000000E+00  0.00000000E+00
  0.00000000E+00  0.00000000E+00  0.00000000E+00
  0.00000000E+00  0.00000000E+00  0.00000000E+00
  0.00000000E+00  0.00000000E+00  0.00000000E+00
  0.00000000E+00  0.00000000E+00  0.00000000E+00
  0.00000000E+00  0.00000000E+00  0.00000000E+00
  0.00000000E+00  0.00000000E+00  0.00000000E+00
  0.00000000E+00  0.00000000E+00  0.00000000E+00
  0.00000000E+00  0.00000000E+00  0.00000000E+00
  0.00000000E+00  0.00000000E+00  0.00000000E+00
  0.00000000E+00  0.00000000E+00  0.00000000E+00
  0.00000000E+00  0.00000000E+00  0.00000000E+00
  0.00000000E+00  0.00000000E+00  0.00000000E+00
  0.00000000E+00  0.00000000E+00  0.00000000E+00
  0.00000000E+00  0.00000000E+00  0.00000000E+00
  0.00000000E+00  0.00000000E+00  0.00000000E+00
  0.00000000E+00  0.00000000E+00  0.00000000E+00
  0.00000000E+00  0.00000000E+00  0.00000000E+00
  0.00000000E+00  0.00000000E+00  0.00000000E+00
  0.00000000E+00  0.00000000E+00  0.00000000E+00
  0.00000000E+00  0.00000000E+00  0.00000000E+00
  0.00000000E+00  0.00000000E+00  0.00000000E+00
  0.00000000E+00  0.00000000E+00  0.00000000E+00
  0.00000000E+00  0.00000000E+00  0.00000000E+00
  0.00000000E+00  0.00000000E+00  0.00000000E+00
  0.00000000E+00  0.00000000E+00  0.00000000E+00
  0.00000000E+00  0.00000000E+00  0.00000000E+00
  0.00000000E+00  0.00000000E+00  0.00000000E+00
  0.00000000E+00  0.00000000E+00  0.00000000E+00
  0.00000000E+00  0.00000000E+00  0.00000000E+00
  0.00000000E+00  0.00000000E+00  0.00000000E+00
  0.00000000E+00  0.00000000E+00  0.00000000E+00
  0.00000000E+00  0.00000000E+00  0.00000000E+00
  0.00000000E+00  0.00000000E+00  0.00000000E+00
  0.00000000E+00  0.00000000E+00  0.00000000E+00
  0.00000000E+00  0.00000000E+00  0.00000000E+00
  0.00000000E+00  0.00000000E+00  0.00000000E+00
  0.00000000E+00  0.00000000E+00  0.00000000E+00
  0.00000000E+00  0.00000000E+00  0.00000000E+00
  0.00000000E+00  0.00000000E+00  0.00000000E+00
  0.00000000E+00  0.00000000E+00  0.00000000E+00
  0.00000000E+00  0.00000000E+00  0.00000000E+00
  0.00000000E+00  0.00000000E+00  0.00000000E+00
  0.00000000E+00  0.00000000E+00  0.00000000E+00
  0.00000000E+00  0.00000000E+00  0.00000000E+00
  0.00000000E+00  0.00000000E+00  0.00000000E+00
  0.00000000E+00  0.00000000E+00  0.00000000E+00
  0.00000000E+00  0.00000000E+00  0.00000000E+00
  0.00000000E+00  0.00000000E+00  0.00000000E+00
  0.00000000E+00  0.00000000E+00  0.00000000E+00
  0.00000000E+00  0.00000000E+00  0.00000000E+00
  0.00000000E+00  0.00000000E+00  0.00000000E+00
  0.00000000E+00  0.00000000E+00  0.00000000E+00
  0.00000000E+00  0.00000000E+00  0.00000000E+00
  0.00000000E+00  0.00000000E+00  0.00000000E+00
  0.00000000E+00  0.00000000E+00  0.00000000E+00
  0.00000000E+00  0.00000000E+00  0.00000000E+00
  0.00000000E+00  0.00000000E+00  0.00000000E+00
  0.00000000E+00  0.00000000E+00  0.00000000E+00
  0.00000000E+00  0.00000000E+00  0.00000000E+00
  0.00000000E+00  0.00000000E+00  0.00000000E+00
  0.00000000E+00  0.00000000E+00  0.00000000E+00
  0.00000000E+00  0.00000000E+00  0.00000000E+00
  0.00000000E+00  0.00000000E+00  0.00000000E+00
  0.00000000E+00  0.00000000E+00  0.00000000E+00
  0.00000000E+00  0.00000000E+00  0.00000000E+00
  0.00000000E+00  0.00000000E+00  0.00000000E+00
  0.00000000E+00  0.00000000E+00  0.00000000E+00
  0.00000000E+00  0.00000000E+00  0.00000000E+00
  0.00000000E+00  0.00000000E+00  0.00000000E+00
  0.00000000E+00  0.00000000E+00  0.00000000E+00
  0.00000000E+00  0.00000000E+00  0.00000000E+00
  0.00000000E+00  0.00000000E+00  0.00000000E+00
  0.00000000E+00  0.00000000E+00  0.00000000E+00
  0.00000000E+00  0.00000000E+00  0.00000000E+00
  0.00000000E+00  0.00000000E+00  0.00000000E+00
  0.00000000E+00  0.00000000E+00  0.00000000E+00
  0.00000000E+00  0.00000000E+00  0.00000000E+00
  0.00000000E+00  0.00000000E+00  0.00000000E+00
  0.00000000E+00  0.00000000E+00  0.00000000E+00
  0.00000000E+00  0.00000000E+00  0.00000000E+00
  0.00000000E+00  0.00000000E+00  0.00000000E+00
  0.00000000E+00  0.00000000E+00  0.00000000E+00
  0.00000000E+00  0.00000000E+00  0.00000000E+00
  0.00000000E+00  0.00000000E+00  0.00000000E+00
  0.00000000E+00  0.00000000E+00  0.00000000E+00
  0.00000000E+00  0.00000000E+00  0.00000000E+00
  0.00000000E+00  0.00000000E+00  0.00000000E+00
  0.00000000E+00  0.00000000E+00  0.00000000E+00
  0.00000000E+00  0.00000000E+00  0.00000000E+00
  0.00000000E+00  0.00000000E+00  0.00000000E+00
  0.00000000E+00  0.00000000E+00  0.00000000E+00
  0.00000000E+00  0.00000000E+00  0.00000000E+00
  0.00000000E+00  0.00000000E+00  0.00000000E+00
  0.00000000E+00  0.00000000E+00  0.00000000E+00
  0.00000000E+00  0.00000000E+00  0.00000000E+00
  0.00000000E+00  0.00000000E+00  0.00000000E+00
  0.00000000E+00  0.00000000E+00  0.00000000E+00
  0.00000000E+00  0.00000000E+00  0.00000000E+00
  0.00000000E+00  0.00000000E+00  0.00000000E+00
  0.00000000E+00  0.00000000E+00  0.00000000E+00
  0.00000000E+00  0.00000000E+00  0.00000000E+00
  0.00000000E+00  0.00000000E+00  0.00000000E+00
  0.00000000E+00  0.00000000E+00  0.00000000E+00
  0.00000000E+00  0.00000000E+00  0.00000000E+00
  0.00000000E+00  0.00000000E+00  0.00000000E+00
  0.00000000E+00  0.00000000E+00  0.00000000E+00
  0.00000000E+00  0.00000000E+00  0.00000000E+00
  0.00000000E+00  0.00000000E+00  0.00000000E+00
  0.00000000E+00  0.00000000E+00  0.00000000E+00
  0.00000000E+00  0.00000000E+00  0.00000000E+00
  0.00000000E+00  0.00000000E+00  0.00000000E+00
  0.00000000E+00  0.00000000E+00  0.00000000E+00
  0.00000000E+00  0.00000000E+00  0.00000000E+00
  0.00000000E+00  0.00000000E+00  0.00000000E+00
  0.00000000E+00  0.00000000E+00  0.00000000E+00
  0.00000000E+00  0.00000000E+00  0.00000000E+00
  0.00000000E+00  0.00000000E+00  0.00000000E+00
  0.00000000E+00  0.00000000E+00  0.00000000E+00
  0.00000000E+00  0.00000000E+00  0.00000000E+00
  0.00000000E+00  0.00000000E+00  0.00000000E+00
  0.00000000E+00  0.00000000E+00  0.00000000E+00
  0.00000000E+00  0.00000000E+00  0.00000000E+00
  0.00000000E+00  0.00000000E+00  0.00000000E+00
  0.00000000E+00  0.00000000E+00  0.00000000E+00
  0.00000000E+00  0.00000000E+00  0.00000000E+00
  0.00000000E+00  0.00000000E+00  0.00000000E+00
  0.00000000E+00  0.00000000E+00  0.00000000E+00
  0.00000000E+00  0.00000000E+00  0.00000000E+00
  0.00000000E+00  0.00000000E+00  0.00000000E+00
  0.00000000E+00  0.00000000E+00  0.00000000E+00
  0.00000000E+00  0.00000000E+00  0.00000000E+00
  0.00000000E+00  0.00000000E+00  0.00000000E+00
  0.00000000E+00  0.00000000E+00  0.00000000E+00
  0.00000000E+00  0.00000000E+00  0.00000000E+00
  0.00000000E+00  0.00000000E+00  0.00000000E+00
  0.00000000E+00  0.00000000E+00  0.00000000E+00
  0.00000000E+00  0.00000000E+00  0.00000000E+00
  0.00000000E+00  0.00000000E+00  0.00000000E+00
  0.00000000E+00  0.00000000E+00  0.00000000E+00
  0.00000000E+00  0.00000000E+00  0.00000000E+00
  0.00000000E+00  0.00000000E+00  0.00000000E+00
  0.00000000E+00  0.00000000E+00  0.00000000E+00
  0.00000000E+00  0.00000000E+00  0.00000000E+00
  0.00000000E+00  0.00000000E+00  0.00000000E+00
  0.00000000E+00  0.00000000E+00  0.00000000E+00
  0.00000000E+00  0.00000000E+00  0.00000000E+00
  0.00000000E+00  0.00000000E+00  0.00000000E+00
  0.00000000E+00  0.00000000E+00  0.00000000E+00
  0.00000000E+00  0.00000000E+00  0.00000000E+00
  0.00000000E+00  0.00000000E+00  0.00000000E+00
  0.00000000E+00  0.00000000E+00  0.00000000E+00