CuInSe2gb                               
   1.00000000000000     
     9.7266780392896699    0.0000000000000000    0.0000000000000000
     0.0000000000000000    8.4235502764570693    0.0000000000000000
     0.0000000000000000    0.0000000000000000   45.0000000000000000
   Fe   Mn
   281     7
Direct
  0.0572369533409083  0.7015475967929699  0.2115136395236019
  0.3163392354016968  0.7195918933997274  0.8756758135719188
  0.6883603120897632  0.9573266332363605  0.6113001825816002
  0.4381639393497030  0.4576331431645494  0.6113729627634112
  0.4359552981758266  0.2872351712082254  0.2557360101322115
  0.0611707961857617  0.3864242646467010  0.8342309806514280
  0.3116721345941198  0.8862252379901622  0.8341217416255738
  0.4420221839547767  0.6263611752141717  0.7001413408381935
  0.0642223762793746  0.2128660646026825  0.7443495475377803
  0.1823339923281029  0.4514717020951974  0.2113010129902434
  0.5638473697365570  0.2089374922763571  0.4778530199270996
  0.0640152743757328  0.8743753282539760  0.5666247456645133
  0.5655341649989567  0.2192364349399812  0.8756653319685703
  0.8105261237989493  0.5296097109587777  0.1247401341803179
  0.4323719288345602  0.9512294278595067  0.2112932809790448
  0.5642183467919418  0.3743773626936411  0.5666325034489339
  0.8119643332048229  0.0421723351316322  0.3885220497445203
  0.6863357899537879  0.7905215170221355  0.5221146309020261
  0.4387516857710024  0.4587914469637260  0.4778288266214064
  0.4388570336757438  0.9622346507773242  0.7444153798090868
  0.4388036149736957  0.6245838193622653  0.5666804964256790
  0.0604157663432738  0.5287240106963733  0.1247959197593232
  0.3105980371063015  0.0292368946875623  0.1248033842542644
  0.6870243838465990  0.9588115207348488  0.3444416368368858
  0.6843850147753718  0.7809279778283631  0.1243739459385559
  0.0578286281413399  0.3734968664114262  0.2997639974319560
  0.6887870067163179  0.4714884769523809  0.8753719992914242
  0.4322513498154238  0.4514277777304454  0.2113157569574998
  0.8111709810001316  0.3752237940817706  0.4331264977363820
  0.5631738295405213  0.7077806211944447  0.6113303529838947
  0.5630799539891661  0.5415488573714683  0.6554704266019790
  0.9361491604565778  0.1251757383244009  0.4331477931543224
  0.5611750483037927  0.5377328811279691  0.2556408865868324
  0.6870279365044338  0.4587965144814543  0.3443998074331713
  0.1885793183985698  0.6132884932514572  0.1661259742950144
  0.1928336154538423  0.7985101181463834  0.7885377063592406
  0.4420525740392472  0.1261563300835521  0.7000959114086790
  0.9329711145997871  0.6235610974119264  0.2998062689728412
  0.3150167522138528  0.2197760579429776  0.8757442947022716
  0.3137899312466728  0.8744528652904877  0.5666031679492105
  0.8161345136284835  0.2196681406980432  0.8756460745752128
  0.8131032686417178  0.5413487628101635  0.6555614934079558
  0.5604724863840778  0.5286519956961512  0.1247938962227848
  0.5624937876791918  0.8640645478700926  0.1663455844904494
  0.1860467325637586  0.2872743865881731  0.2557098815574023
  0.8111964515971125  0.8751570150155332  0.4331523164086533
  0.5672677738444772  0.3767852177752576  0.7002383495374932
  0.0602024453581873  0.0295018831249204  0.1247128652482604
  0.3131883518293539  0.5412612801370373  0.6554805881886254
  0.5620251560540922  0.2086681560769938  0.3443879403506483
  0.1882819128596339  0.9575253467374146  0.6113797427830019
  0.3077203683953941  0.3734914663262440  0.2997978475894607
  0.4379151592553905  0.7912334803855533  0.6554282687919343
  0.6891880234271762  0.4624159943500900  0.7444197671354259
  0.0633810002639390  0.3634310459197146  0.1661869555306755
  0.6926733414472218  0.6260659859920906  0.7001736104589884
  0.3119545997459580  0.5421745061398199  0.3885587108194469
  0.0656163950355553  0.7189174818690157  0.8757067117856621
  0.9366043234630340  0.6367420857386198  0.8339919821487057
  0.3177186453106269  0.5494739537124220  0.7887624152092991
  0.3073327427298005  0.2014964465329843  0.2114350575360237
  0.0638578146430749  0.7088424430083886  0.4778403285684724
  0.5573421415676874  0.2014687696774687  0.2114933462875869
  0.3144664097802088  0.2124846083093107  0.7442944663315016
  0.0671274466487725  0.3764120843336582  0.7002086043415024
  0.1867766726567797  0.6367450828583285  0.8338387639145667
  0.0670485914251830  0.0482350577498419  0.7888743327841007
  0.4388559301012966  0.1244849183243804  0.5666411170154060
  0.9381197599533903  0.2914864674996021  0.6555686094838117
  0.8072041539428362  0.2011839122425567  0.2114212131113499
  0.9324891816509892  0.9515235586932276  0.2112776038748187
  0.9391143788116890  0.6246271748848298  0.5667164613169877
  0.8116891335203529  0.3868951417318510  0.8341518684574017
  0.1921583927152291  0.6263933423186365  0.7001325623486458
  0.8111821911813164  0.8865332744087451  0.8340900882924747
  0.6884243140122949  0.2919508862385564  0.6555269162759636
  0.3127468191761147  0.2077412403974746  0.6113704086534848
  0.4386987153835126  0.4627208827615532  0.7443146587413810
  0.4368781568746393  0.7920546033645346  0.3885431624886571
  0.6899234352106274  0.9627907122733917  0.7444950547092218
  0.8073085143692899  0.7009350078274388  0.2115382834304119
  0.8137818679239887  0.7073938952623147  0.6112730536949590
  0.4334483548159149  0.7811209398988423  0.1245552450557507
  0.3135296159325291  0.7127044702148390  0.7443041798385436
  0.3170834747097792  0.0489210536298406  0.7889396749893357
  0.8119070723864406  0.5421923752625641  0.3885652981902062
  0.6864876298563950  0.2904427240753919  0.5220358152656016
  0.6924805451391804  0.7984795442754234  0.7886599926028274
  0.1860196449212387  0.7871558674149112  0.2557007790357060
  0.6878407490234960  0.1134844491515718  0.1662496334538020
  0.6888516954109455  0.9589510628022262  0.4778439825131797
  0.9369461239982878  0.9588487247663376  0.3444048566856288
  0.8115173324030011  0.0400974725125217  0.5219444855218223
  0.6862197269080673  0.6251136996679800  0.4331335216994079
  0.4369293304103490  0.4588229854854376  0.3444266712742672
  0.8144216420922714  0.2125683900672345  0.7443983429880791
  0.4394211522799655  0.9715709026834856  0.8753954276217087
  0.5643503207800520  0.8746159972055317  0.5666332071001079
  0.8105147026939645  0.0290512288072435  0.1244737377876158
  0.4329222028039902  0.6236961448838955  0.2997760618311504
  0.8149193361906014  0.7196324997795599  0.8757295491799284
  0.6884305574177083  0.4578326060827907  0.6113807073893691
  0.5611779073198414  0.3870152873732996  0.8340342010843351
  0.8077769993962893  0.3736471833177638  0.2997974123032764
  0.1870297072920876  0.2921857662681469  0.3885603681092435
  0.8173398189003530  0.5493381008162100  0.7888980054766772
  0.1863790872587471  0.7903550708570717  0.5220672676931651
  0.3078336549933959  0.8735621595315930  0.2997964165017108
  0.1820264849843367  0.9513190296415184  0.2113105230157309
  0.1888002835428641  0.4631571882384221  0.7444258092410295
  0.4364458249810220  0.2903574671503897  0.5220234091017572
  0.0620142926453584  0.7086100003200478  0.3443884116265096
  0.1881896358883072  0.7909199188168583  0.6555607219844178
  0.4423702720673038  0.7985416745971596  0.7886626021436173
  0.6861213706579903  0.1252000153082415  0.4331308196100662
  0.9365090088366931  0.7902643571591254  0.5220781257220408
  0.6885061290046904  0.6137716741276164  0.1661431497683153
  0.8120269933755527  0.7085128231388546  0.3443716009604163
  0.9393379720729006  0.4626924588991205  0.7444201172014948
  0.1869914444283796  0.4586470650323600  0.3444073528803102
  0.5675249335935786  0.5487111857304680  0.7888693053633347
  0.5619871546704802  0.3637010203970838  0.1662443811585739
  0.5620749347147926  0.7085448816992164  0.3444084702012954
  0.5577985903120598  0.3735184280870339  0.2997919338690499
  0.1887507342678102  0.4712440535905566  0.8754721711695628
  0.1882665290390650  0.1144262568852295  0.1661292595963520
  0.4428039062531764  0.2988762361250549  0.7885534615752109
  0.6861440915449004  0.7872065246765169  0.2557439760282501
  0.9369433554939968  0.1366297049008573  0.8338310787836077
  0.4386431248010005  0.9589141721576910  0.4778406121797555
  0.5655461320523339  0.7192859175027758  0.8756384685750587
  0.1887173226807780  0.4589764310370893  0.4778676699563504
  0.9344852969314587  0.2813178483980874  0.1245953783005168
  0.3119106272342516  0.0422533088958001  0.3885530993089725
  0.0631982261419030  0.0413733782136143  0.6555292713292660
  0.5611015338478333  0.3752084175716184  0.4331224500844719
  0.9361407818376057  0.6252053650299135  0.4331166271000828
  0.3126816307782272  0.3638426129912037  0.1663442731849416
  0.9424517408707811  0.1265314955562650  0.7001969179176506
  0.5631677638507692  0.0411371151993651  0.6555764166743453
  0.5614592930298659  0.5409391303505385  0.5219728178155912
  0.1829108373838452  0.1235533039555315  0.2997690749633778
  0.4383031849830468  0.1143736885888197  0.1661419596613403
  0.6830248844466962  0.6235182780632453  0.2997814354994788
  0.9329862090321900  0.1235392024222311  0.2997960444185906
  0.8137501628734792  0.3744344996505256  0.5666809430171651
  0.0577940525422548  0.8735151941798709  0.2998075298387144
  0.1890463455096257  0.6246148175654750  0.5667001490084639
  0.9417073280401930  0.7981689162059183  0.7886742752656261
  0.3105370372205485  0.3867074669336436  0.8341674077707274
  0.9390046344736916  0.4714829982813315  0.8754791005870501
  0.4367205293439260  0.6367055118765346  0.8340501676206443
  0.0620815385887221  0.2086901467384956  0.3443573897838454
  0.1885749422604473  0.9710632399723361  0.8754079534402323
  0.9333703434897423  0.7811311776388321  0.1241913341062077
  0.6870088876607718  0.7920787477780691  0.3885503373821260
  0.9379965433592645  0.7910426648900402  0.6555186246163820
  0.9385255698906816  0.1136361656998052  0.1661795313539181
  0.4380089758219277  0.2917556046169649  0.6555405203477032
  0.0573630641074816  0.2014464490350317  0.2114591409892363
  0.6821368374258459  0.9517819716234884  0.2113831792143368
  0.1828525723702538  0.6235408895473111  0.2997615107496909
  0.8178903306434331  0.8762914949253383  0.7001730946785887
  0.9426707088262301  0.6259246232130801  0.7002339623490329
  0.1924537777622478  0.1266924429672025  0.7000793274879712
  0.9388394862909484  0.4589320792314800  0.4778717667235254
  0.8135935176457948  0.2076228369943820  0.6113631696865169
  0.1861141738935179  0.6251596072313056  0.4331314478774491
  0.4329056620430402  0.1234970223025218  0.2997606669239571
  0.6828218387381415  0.1234146077802951  0.2997508097481809
  0.5618661837481952  0.5421210433951811  0.3885538262600280
  0.8120782801368741  0.2085223721645625  0.3443956327853393
  0.4398682157741424  0.4719591754674060  0.8753116133381057
  0.5611814849200212  0.8863285454729688  0.8341246990312116
  0.3137515966780824  0.2089429386481446  0.4778350635223376
  0.1887498349809821  0.9590233298797596  0.4778846443113191
  0.0612263031429194  0.8865036667840450  0.8340329884709453
  0.0613708507906092  0.5403660177676881  0.5220367340110406
  0.9388385013267516  0.9590209659693730  0.4778733575684855
  0.0630772501916534  0.7076820838290612  0.6113398133244076
  0.5614584609800218  0.0404321558238334  0.5220315855781865
  0.6932054842737168  0.2983040333019985  0.7886178240490246
  0.8124611374228271  0.3634015425345978  0.1663016864859586
  0.4361468639882831  0.1252063895090312  0.4331252848591927
  0.0637913061229809  0.2089488274401657  0.4778502918045286
  0.3134341894361498  0.0413002589419163  0.6554318366834314
  0.4363951814792912  0.7905819005511177  0.5220735405630388
  0.1870132941640013  0.1370253999858175  0.8338221503939246
  0.1839783150858504  0.2808987955854553  0.1245346152148234
  0.9370370924571770  0.4587783597571826  0.3443920073568862
  0.3128368698982878  0.8634692781772851  0.1662445558390427
  0.3072995228606670  0.7015011814956505  0.2114572459372455
  0.9378038006138159  0.6132020833250319  0.1661759026630128
  0.1882381490405288  0.4578815466675277  0.6113780727413380
  0.0673765232180544  0.8769548405190726  0.7002869552254691
  0.0631811453868119  0.5411604572632658  0.6555907817699875
  0.3103877732296810  0.5296109111634341  0.1247338528987477
  0.9369909903210005  0.7921440666449415  0.3885690765445186
  0.9416055431620913  0.2993516475017661  0.7887164419971292
  0.1879153807831478  0.2914110225249438  0.6555942008237056
  0.9380453297009779  0.9573683739955672  0.6114090042035379
  0.8150467438036701  0.7128768802936273  0.7443715273638890
  0.6860673827042582  0.2871196361314820  0.2556710193402044
  0.0642397041575108  0.7130404812077172  0.7442721747000780
  0.6821637778928645  0.4515183907871628  0.2112422223310367
  0.8137398053096714  0.2088506005116890  0.4778366224067718
  0.5637617348944866  0.7087379610535088  0.4778681639148016
  0.0628046173394640  0.8642031066361998  0.1663284532400083
  0.9364333281642848  0.2904460859593753  0.5220685819408173
  0.6879064521354851  0.7916134816356020  0.6556430401953320
  0.0610788853436070  0.8751201653316922  0.4331050302749590
  0.0658462192667869  0.2191408710504366  0.8757927972794892
  0.8131421746955976  0.0412475749802547  0.6554411905248358
  0.5606445815423770  0.0294808748665479  0.1247911812491366
  0.3111447229476292  0.3752258862508517  0.4331151531028501
  0.3141509650431406  0.3744367897901606  0.5666599608074111
  0.3136833749370549  0.7088344930336471  0.4778117197737531
  0.0613704420954497  0.0404844045401330  0.5220680522979354
  0.3166910350907151  0.8766417776092115  0.7000848536373186
  0.0610076630468256  0.5377883757898562  0.2556682313597848
  0.6867228472344240  0.1366738692942543  0.8338501746800062
  0.8110036790887436  0.0375046691560786  0.2556988008358046
  0.1861416857544758  0.1251344480605583  0.4331489199928679
  0.6924814913293591  0.1266050893610313  0.7001105026742355
  0.1863479916401077  0.2903568361776342  0.5220714026722280
  0.4359105559758198  0.7870337076876859  0.2557106035790265
  0.8111056258296776  0.5377125291513177  0.2556554521424728
  0.0631769760721569  0.2076877904870332  0.6113392426597617
  0.1869866815369918  0.7922091105164359  0.3885728847853143
  0.3114182215042516  0.5404028699714613  0.5220698950715582
  0.8173090698253044  0.3768336992925387  0.7002171824609745
  0.6869009410353433  0.2921656323749456  0.3885716029053752
  0.1889927637303479  0.1242481318560818  0.5666466534358604
  0.6885676742141821  0.9714297353230119  0.8754102640748368
  0.6890215244507343  0.1244588154880903  0.5666370900189893
  0.4369993257763741  0.9587510193096992  0.3444209705495439
  0.1888938507305972  0.9620095899532732  0.7442731840380499
  0.9359109306773433  0.7871039973001530  0.2557218379482524
  0.5611289631199264  0.8753171853913398  0.4331126663274887
  0.3111876618832408  0.8751549199486810  0.4331363798801652
  0.8113731421017252  0.5402804215843422  0.5220757108940919
  0.9324214713239120  0.4513961910473760  0.2112558427189640
  0.3111816978201608  0.5376066049754631  0.2556326907173511
  0.5618827558241850  0.0421649256143520  0.3885763873880396
  0.9382083855771474  0.4581422972650342  0.6113817604274827
  0.0618810738902768  0.0421022895346742  0.3885619183635080
  0.0619341018342744  0.5421170543784042  0.3885594713539068
  0.4368444322747771  0.2921314387108620  0.3885391119783247
  0.6887470786143178  0.4588814567069138  0.4778378033298666
  0.0640766517549029  0.3743111509983887  0.5666982654531443
  0.5576293515180868  0.7015024231383763  0.2114217825603873
  0.9361749273344697  0.2870847536563181  0.2557345831371038
  0.8176304585967142  0.0491525601908785  0.7888299334693940
  0.1870208774126559  0.9587536617816622  0.3443925067305688
  0.5577968684913092  0.8735655280744129  0.2998003698463420
  0.0611677087530388  0.3752342481167148  0.4331326070313521
  0.3121054025320658  0.7085923807272851  0.3443739516199819
  0.3120046734312626  0.2087293604497913  0.3444354221763204
  0.9391601514162957  0.1242046928232396  0.5666726353155994
  0.4381069673413978  0.9574994102200037  0.6113093199367018
  0.5611448942292734  0.0379906596891869  0.2557011772599005
  0.1849574643464145  0.7810109209572287  0.1245860021527959
  0.0610053048765220  0.0377879160547248  0.2556298230228110
  0.6889707468347154  0.6246881521167144  0.5666634596619369
  0.4382938121928253  0.6133999813420355  0.1661357491072422
  0.3113595890444259  0.0401209782785195  0.5220476947556377
  0.6837722502659561  0.2809436252572805  0.1245676689487205
  0.8137922529303239  0.7087866532965527  0.4778547955519952
  0.4372242583287065  0.1367723906570308  0.8340253775908515
  0.3171655502654689  0.3767878231284515  0.7002441735814854
  0.6870918144412946  0.6366232689354316  0.8339045101120575
  0.5640855256067066  0.7127134530740701  0.7444421807669951
  0.9370161587315153  0.2921403963677964  0.3885577945479833
  0.9391782158812892  0.9714632225141656  0.8753287635928086
  0.9391938345492479  0.9620440548504399  0.7443380689864800
  0.8140382735422472  0.8746326290954791  0.5666476590689037
  0.8077904880506178  0.8735281357138500  0.2997962183452652
  0.3111988668785928  0.0377600918595176  0.2557198626285400
  0.4340527377678518  0.2807579173118495  0.1245070827470898
  0.3126927821679959  0.7072812865704539  0.6112922191766139
  0.4359933465611573  0.6251629253650016  0.4331302718475947
  0.1929371952450021  0.2978583682502191  0.7884969082366062
  0.5677371868444471  0.0485480106333705  0.7886232886017521
  0.0671813359230805  0.5496591088554931  0.7886460088486744
  0.8132461608553253  0.8632171664077772  0.1658896687940825
  0.5640686109217222  0.2126253103368038  0.7443332008791339
  0.5630698495900881  0.2081720642648732  0.6112397652352375
  0.5680158183428957  0.8764088830042100  0.7002098546028224
 
  0.00000000E+00  0.00000000E+00  0.00000000E+00
  0.00000000E+00  0.00000000E+00  0.00000000E+00
  0.00000000E+00  0.00000000E+00  0.00000000E+00
  0.00000000E+00  0.00000000E+00  0.00000000E+00
  0.00000000E+00  0.00000000E+00  0.00000000E+00
  0.00000000E+00  0.00000000E+00  0.00000000E+00
  0.00000000E+00  0.00000000E+00  0.00000000E+00
  0.00000000E+00  0.00000000E+00  0.00000000E+00
  0.00000000E+00  0.00000000E+00  0.00000000E+00
  0.00000000E+00  0.00000000E+00  0.00000000E+00
  0.00000000E+00  0.00000000E+00  0.00000000E+00
  0.00000000E+00  0.00000000E+00  0.00000000E+00
  0.00000000E+00  0.00000000E+00  0.00000000E+00
  0.00000000E+00  0.00000000E+00  0.00000000E+00
  0.00000000E+00  0.00000000E+00  0.00000000E+00
  0.00000000E+00  0.00000000E+00  0.00000000E+00
  0.00000000E+00  0.00000000E+00  0.00000000E+00
  0.00000000E+00  0.00000000E+00  0.00000000E+00
  0.00000000E+00  0.00000000E+00  0.00000000E+00
  0.00000000E+00  0.00000000E+00  0.00000000E+00
  0.00000000E+00  0.00000000E+00  0.00000000E+00
  0.00000000E+00  0.00000000E+00  0.00000000E+00
  0.00000000E+00  0.00000000E+00  0.00000000E+00
  0.00000000E+00  0.00000000E+00  0.00000000E+00
  0.00000000E+00  0.00000000E+00  0.00000000E+00
  0.00000000E+00  0.00000000E+00  0.00000000E+00
  0.00000000E+00  0.00000000E+00  0.00000000E+00
  0.00000000E+00  0.00000000E+00  0.00000000E+00
  0.00000000E+00  0.00000000E+00  0.00000000E+00
  0.00000000E+00  0.00000000E+00  0.00000000E+00
  0.00000000E+00  0.00000000E+00  0.00000000E+00
  0.00000000E+00  0.00000000E+00  0.00000000E+00
  0.00000000E+00  0.00000000E+00  0.00000000E+00
  0.00000000E+00  0.00000000E+00  0.00000000E+00
  0.00000000E+00  0.00000000E+00  0.00000000E+00
  0.00000000E+00  0.00000000E+00  0.00000000E+00
  0.00000000E+00  0.00000000E+00  0.00000000E+00
  0.00000000E+00  0.00000000E+00  0.00000000E+00
  0.00000000E+00  0.00000000E+00  0.00000000E+00
  0.00000000E+00  0.00000000E+00  0.00000000E+00
  0.00000000E+00  0.00000000E+00  0.00000000E+00
  0.00000000E+00  0.00000000E+00  0.00000000E+00
  0.00000000E+00  0.00000000E+00  0.00000000E+00
  0.00000000E+00  0.00000000E+00  0.00000000E+00
  0.00000000E+00  0.00000000E+00  0.00000000E+00
  0.00000000E+00  0.00000000E+00  0.00000000E+00
  0.00000000E+00  0.00000000E+00  0.00000000E+00
  0.00000000E+00  0.00000000E+00  0.00000000E+00
  0.00000000E+00  0.00000000E+00  0.00000000E+00
  0.00000000E+00  0.00000000E+00  0.00000000E+00
  0.00000000E+00  0.00000000E+00  0.00000000E+00
  0.00000000E+00  0.00000000E+00  0.00000000E+00
  0.00000000E+00  0.00000000E+00  0.00000000E+00
  0.00000000E+00  0.00000000E+00  0.00000000E+00
  0.00000000E+00  0.00000000E+00  0.00000000E+00
  0.00000000E+00  0.00000000E+00  0.00000000E+00
  0.00000000E+00  0.00000000E+00  0.00000000E+00
  0.00000000E+00  0.00000000E+00  0.00000000E+00
  0.00000000E+00  0.00000000E+00  0.00000000E+00
  0.00000000E+00  0.00000000E+00  0.00000000E+00
  0.00000000E+00  0.00000000E+00  0.00000000E+00
  0.00000000E+00  0.00000000E+00  0.00000000E+00
  0.00000000E+00  0.00000000E+00  0.00000000E+00
  0.00000000E+00  0.00000000E+00  0.00000000E+00
  0.00000000E+00  0.00000000E+00  0.00000000E+00
  0.00000000E+00  0.00000000E+00  0.00000000E+00
  0.00000000E+00  0.00000000E+00  0.00000000E+00
  0.00000000E+00  0.00000000E+00  0.00000000E+00
  0.00000000E+00  0.00000000E+00  0.00000000E+00
  0.00000000E+00  0.00000000E+00  0.00000000E+00
  0.00000000E+00  0.00000000E+00  0.00000000E+00
  0.00000000E+00  0.00000000E+00  0.00000000E+00
  0.00000000E+00  0.00000000E+00  0.00000000E+00
  0.00000000E+00  0.00000000E+00  0.00000000E+00
  0.00000000E+00  0.00000000E+00  0.00000000E+00
  0.00000000E+00  0.00000000E+00  0.00000000E+00
  0.00000000E+00  0.00000000E+00  0.00000000E+00
  0.00000000E+00  0.00000000E+00  0.00000000E+00
  0.00000000E+00  0.00000000E+00  0.00000000E+00
  0.00000000E+00  0.00000000E+00  0.00000000E+00
  0.00000000E+00  0.00000000E+00  0.00000000E+00
  0.00000000E+00  0.00000000E+00  0.00000000E+00
  0.00000000E+00  0.00000000E+00  0.00000000E+00
  0.00000000E+00  0.00000000E+00  0.00000000E+00
  0.00000000E+00  0.00000000E+00  0.00000000E+00
  0.00000000E+00  0.00000000E+00  0.00000000E+00
  0.00000000E+00  0.00000000E+00  0.00000000E+00
  0.00000000E+00  0.00000000E+00  0.00000000E+00
  0.00000000E+00  0.00000000E+00  0.00000000E+00
  0.00000000E+00  0.00000000E+00  0.00000000E+00
  0.00000000E+00  0.00000000E+00  0.00000000E+00
  0.00000000E+00  0.00000000E+00  0.00000000E+00
  0.00000000E+00  0.00000000E+00  0.00000000E+00
  0.00000000E+00  0.00000000E+00  0.00000000E+00
  0.00000000E+00  0.00000000E+00  0.00000000E+00
  0.00000000E+00  0.00000000E+00  0.00000000E+00
  0.00000000E+00  0.00000000E+00  0.00000000E+00
  0.00000000E+00  0.00000000E+00  0.00000000E+00
  0.00000000E+00  0.00000000E+00  0.00000000E+00
  0.00000000E+00  0.00000000E+00  0.00000000E+00
  0.00000000E+00  0.00000000E+00  0.00000000E+00
  0.00000000E+00  0.00000000E+00  0.00000000E+00
  0.00000000E+00  0.00000000E+00  0.00000000E+00
  0.00000000E+00  0.00000000E+00  0.00000000E+00
  0.00000000E+00  0.00000000E+00  0.00000000E+00
  0.00000000E+00  0.00000000E+00  0.00000000E+00
  0.00000000E+00  0.00000000E+00  0.00000000E+00
  0.00000000E+00  0.00000000E+00  0.00000000E+00
  0.00000000E+00  0.00000000E+00  0.00000000E+00
  0.00000000E+00  0.00000000E+00  0.00000000E+00
  0.00000000E+00  0.00000000E+00  0.00000000E+00
  0.00000000E+00  0.00000000E+00  0.00000000E+00
  0.00000000E+00  0.00000000E+00  0.00000000E+00
  0.00000000E+00  0.00000000E+00  0.00000000E+00
  0.00000000E+00  0.00000000E+00  0.00000000E+00
  0.00000000E+00  0.00000000E+00  0.00000000E+00
  0.00000000E+00  0.00000000E+00  0.00000000E+00
  0.00000000E+00  0.00000000E+00  0.00000000E+00
  0.00000000E+00  0.00000000E+00  0.00000000E+00
  0.00000000E+00  0.00000000E+00  0.00000000E+00
  0.00000000E+00  0.00000000E+00  0.00000000E+00
  0.00000000E+00  0.00000000E+00  0.00000000E+00
  0.00000000E+00  0.00000000E+00  0.00000000E+00
  0.00000000E+00  0.00000000E+00  0.00000000E+00
  0.00000000E+00  0.00000000E+00  0.00000000E+00
  0.00000000E+00  0.00000000E+00  0.00000000E+00
  0.00000000E+00  0.00000000E+00  0.00000000E+00
  0.00000000E+00  0.00000000E+00  0.00000000E+00
  0.00000000E+00  0.00000000E+00  0.00000000E+00
  0.00000000E+00  0.00000000E+00  0.00000000E+00
  0.00000000E+00  0.00000000E+00  0.00000000E+00
  0.00000000E+00  0.00000000E+00  0.00000000E+00
  0.00000000E+00  0.00000000E+00  0.00000000E+00
  0.00000000E+00  0.00000000E+00  0.00000000E+00
  0.00000000E+00  0.00000000E+00  0.00000000E+00
  0.00000000E+00  0.00000000E+00  0.00000000E+00
  0.00000000E+00  0.00000000E+00  0.00000000E+00
  0.00000000E+00  0.00000000E+00  0.00000000E+00
  0.00000000E+00  0.00000000E+00  0.00000000E+00
  0.00000000E+00  0.00000000E+00  0.00000000E+00
  0.00000000E+00  0.00000000E+00  0.00000000E+00
  0.00000000E+00  0.00000000E+00  0.00000000E+00
  0.00000000E+00  0.00000000E+00  0.00000000E+00
  0.00000000E+00  0.00000000E+00  0.00000000E+00
  0.00000000E+00  0.00000000E+00  0.00000000E+00
  0.00000000E+00  0.00000000E+00  0.00000000E+00
  0.00000000E+00  0.00000000E+00  0.00000000E+00
  0.00000000E+00  0.00000000E+00  0.00000000E+00
  0.00000000E+00  0.00000000E+00  0.00000000E+00
  0.00000000E+00  0.00000000E+00  0.00000000E+00
  0.00000000E+00  0.00000000E+00  0.00000000E+00
  0.00000000E+00  0.00000000E+00  0.00000000E+00
  0.00000000E+00  0.00000000E+00  0.00000000E+00
  0.00000000E+00  0.00000000E+00  0.00000000E+00
  0.00000000E+00  0.00000000E+00  0.00000000E+00
  0.00000000E+00  0.00000000E+00  0.00000000E+00
  0.00000000E+00  0.00000000E+00  0.00000000E+00
  0.00000000E+00  0.00000000E+00  0.00000000E+00
  0.00000000E+00  0.00000000E+00  0.00000000E+00
  0.00000000E+00  0.00000000E+00  0.00000000E+00
  0.00000000E+00  0.00000000E+00  0.00000000E+00
  0.00000000E+00  0.00000000E+00  0.00000000E+00
  0.00000000E+00  0.00000000E+00  0.00000000E+00
  0.00000000E+00  0.00000000E+00  0.00000000E+00
  0.00000000E+00  0.00000000E+00  0.00000000E+00
  0.00000000E+00  0.00000000E+00  0.00000000E+00
  0.00000000E+00  0.00000000E+00  0.00000000E+00
  0.00000000E+00  0.00000000E+00  0.00000000E+00
  0.00000000E+00  0.00000000E+00  0.00000000E+00
  0.00000000E+00  0.00000000E+00  0.00000000E+00
  0.00000000E+00  0.00000000E+00  0.00000000E+00
  0.00000000E+00  0.00000000E+00  0.00000000E+00
  0.00000000E+00  0.00000000E+00  0.00000000E+00
  0.00000000E+00  0.00000000E+00  0.00000000E+00
  0.00000000E+00  0.00000000E+00  0.00000000E+00
  0.00000000E+00  0.00000000E+00  0.00000000E+00
  0.00000000E+00  0.00000000E+00  0.00000000E+00
  0.00000000E+00  0.00000000E+00  0.00000000E+00
  0.00000000E+00  0.00000000E+00  0.00000000E+00
  0.00000000E+00  0.00000000E+00  0.00000000E+00
  0.00000000E+00  0.00000000E+00  0.00000000E+00
  0.00000000E+00  0.00000000E+00  0.00000000E+00
  0.00000000E+00  0.00000000E+00  0.00000000E+00
  0.00000000E+00  0.00000000E+00  0.00000000E+00
  0.00000000E+00  0.00000000E+00  0.00000000E+00
  0.00000000E+00  0.00000000E+00  0.00000000E+00
  0.00000000E+00  0.00000000E+00  0.00000000E+00
  0.00000000E+00  0.00000000E+00  0.00000000E+00
  0.00000000E+00  0.00000000E+00  0.00000000E+00
  0.00000000E+00  0.00000000E+00  0.00000000E+00
  0.00000000E+00  0.00000000E+00  0.00000000E+00
  0.00000000E+00  0.00000000E+00  0.00000000E+00
  0.00000000E+00  0.00000000E+00  0.00000000E+00
  0.00000000E+00  0.00000000E+00  0.00000000E+00
  0.00000000E+00  0.00000000E+00  0.00000000E+00
  0.00000000E+00  0.00000000E+00  0.00000000E+00
  0.00000000E+00  0.00000000E+00  0.00000000E+00
  0.00000000E+00  0.00000000E+00  0.00000000E+00
  0.00000000E+00  0.00000000E+00  0.00000000E+00
  0.00000000E+00  0.00000000E+00  0.00000000E+00
  0.00000000E+00  0.00000000E+00  0.00000000E+00
  0.00000000E+00  0.00000000E+00  0.00000000E+00
  0.00000000E+00  0.00000000E+00  0.00000000E+00
  0.00000000E+00  0.00000000E+00  0.00000000E+00
  0.00000000E+00  0.00000000E+00  0.00000000E+00
  0.00000000E+00  0.00000000E+00  0.00000000E+00
  0.00000000E+00  0.00000000E+00  0.00000000E+00
  0.00000000E+00  0.00000000E+00  0.00000000E+00
  0.00000000E+00  0.00000000E+00  0.00000000E+00
  0.00000000E+00  0.00000000E+00  0.00000000E+00
  0.00000000E+00  0.00000000E+00  0.00000000E+00
  0.00000000E+00  0.00000000E+00  0.00000000E+00
  0.00000000E+00  0.00000000E+00  0.00000000E+00
  0.00000000E+00  0.00000000E+00  0.00000000E+00
  0.00000000E+00  0.00000000E+00  0.00000000E+00
  0.00000000E+00  0.00000000E+00  0.00000000E+00
  0.00000000E+00  0.00000000E+00  0.00000000E+00
  0.00000000E+00  0.00000000E+00  0.00000000E+00
  0.00000000E+00  0.00000000E+00  0.00000000E+00
  0.00000000E+00  0.00000000E+00  0.00000000E+00
  0.00000000E+00  0.00000000E+00  0.00000000E+00
  0.00000000E+00  0.00000000E+00  0.00000000E+00
  0.00000000E+00  0.00000000E+00  0.00000000E+00
  0.00000000E+00  0.00000000E+00  0.00000000E+00
  0.00000000E+00  0.00000000E+00  0.00000000E+00
  0.00000000E+00  0.00000000E+00  0.00000000E+00
  0.00000000E+00  0.00000000E+00  0.00000000E+00
  0.00000000E+00  0.00000000E+00  0.00000000E+00
  0.00000000E+00  0.00000000E+00  0.00000000E+00
  0.00000000E+00  0.00000000E+00  0.00000000E+00
  0.00000000E+00  0.00000000E+00  0.00000000E+00
  0.00000000E+00  0.00000000E+00  0.00000000E+00
  0.00000000E+00  0.00000000E+00  0.00000000E+00
  0.00000000E+00  0.00000000E+00  0.00000000E+00
  0.00000000E+00  0.00000000E+00  0.00000000E+00
  0.00000000E+00  0.00000000E+00  0.00000000E+00
  0.00000000E+00  0.00000000E+00  0.00000000E+00
  0.00000000E+00  0.00000000E+00  0.00000000E+00
  0.00000000E+00  0.00000000E+00  0.00000000E+00
  0.00000000E+00  0.00000000E+00  0.00000000E+00
  0.00000000E+00  0.00000000E+00  0.00000000E+00
  0.00000000E+00  0.00000000E+00  0.00000000E+00
  0.00000000E+00  0.00000000E+00  0.00000000E+00
  0.00000000E+00  0.00000000E+00  0.00000000E+00
  0.00000000E+00  0.00000000E+00  0.00000000E+00
  0.00000000E+00  0.00000000E+00  0.00000000E+00
  0.00000000E+00  0.00000000E+00  0.00000000E+00