CuInSe2gb                               
   1.00000000000000     
     9.7266780392896699    0.0000000000000000    0.0000000000000000
     0.0000000000000000    8.4235502764570693    0.0000000000000000
     0.0000000000000000    0.0000000000000000   45.0000000000000000
   Fe   Mn
   281     7
Direct
  0.0533743963936595  0.7018254350512926  0.2114182054285673
  0.3176630418314042  0.7247636249664334  0.8762457742843922
  0.6876047748221294  0.9582625022823426  0.6112549610029154
  0.4380447724010126  0.4575920300203241  0.6112359820786700
  0.4400136295724004  0.2882676600417018  0.2554873918686443
  0.0585754133999148  0.3879141123575621  0.8334901193249190
  0.3083223741908084  0.8875061718747217  0.8334992548354533
  0.4471098207464033  0.6265820400503049  0.7001265195304061
  0.0604658998802586  0.2120049968113302  0.7448815768270486
  0.1785773553587985  0.4509881201938040  0.2113018917258234
  0.5678696907488278  0.2106123177228448  0.4774370969499686
  0.0668010360178425  0.8749051757695528  0.5667438611921664
  0.5682042041488253  0.2241887453224654  0.8761011684709163
  0.8096616643222573  0.5334173055193671  0.1242474858576034
  0.4287064117149397  0.9512775629108573  0.2112859071324586
  0.5667966715564460  0.3747288528802379  0.5668452050205772
  0.8122398024446286  0.0418756471341210  0.3886215347672685
  0.6825702906368033  0.7883782234778993  0.5221788657317167
  0.4428058602365952  0.4607812905150599  0.4774618909228064
  0.4347966554294443  0.9618505395518426  0.7445951958725524
  0.4420378662814001  0.6250172347562667  0.5667217719149712
  0.0601958386218158  0.5325572500886546  0.1243329229800572
  0.3098559394953109  0.0329053168097116  0.1242195895988377
  0.6903727985599254  0.9592487417491061  0.3441821152295224
  0.6817626043506447  0.7773199248922291  0.1241061170478986
  0.0527735720576746  0.3738393420432455  0.2998257336820296
  0.6894293996868324  0.4672821812146427  0.8759543438503147
  0.4286138554820705  0.4511223142749414  0.2112886239523150
  0.8083469821532283  0.3749720209184157  0.4331229430940005
  0.5627162121173827  0.7080418275410939  0.6113658682405215
  0.5598684378690958  0.5411720640314742  0.6557167995555913
  0.9334368732263920  0.1249572338626966  0.4331094532235845
  0.5658733725303414  0.5375471069534629  0.2554537432089986
  0.6902981677178405  0.4592253371173339  0.3441967165011897
  0.1914606757181325  0.6122131818029680  0.1667827832510735
  0.1954149079978434  0.7984426662399402  0.7886513391957044
  0.4479850129484131  0.1257418665773906  0.7001149813269406
  0.9278536046780259  0.6237650618960812  0.2997311452364009
  0.3180791229405551  0.2241427580902624  0.8760893873105056
  0.3168313529867503  0.8746111692399583  0.5667901654399284
  0.8181281421223030  0.2238715151346727  0.8761523700161205
  0.8099802622046239  0.5410067554711537  0.6557749878877275
  0.5591205332375244  0.5323775840130834  0.1242725460815059
  0.5661001954766933  0.8626414983580662  0.1665923900248695
  0.1899079146074965  0.2882587100547954  0.2554718409578718
  0.8083673227495269  0.8749424711558831  0.4331177881656089
  0.5719774943580852  0.3762905725950367  0.7000874130304326
  0.0599939579249284  0.0329217288256054  0.1242422738287254
  0.3097272862750728  0.5406870718580573  0.6558099869883310
  0.5653919412848331  0.2093907995752076  0.3441546177858766
  0.1878669435310175  0.9579872675087457  0.6113260722952988
  0.3027839934027017  0.3738282453054461  0.2997835151595594
  0.4345594597555181  0.7906450573423092  0.6556998297600268
  0.6847010051139978  0.4621490466026714  0.7447479076497054
  0.0662880395534586  0.3624293948029486  0.1665830626557777
  0.6970401647630106  0.6263734368314580  0.7004072733537279
  0.3122375851378884  0.5418344469503101  0.3885843049821039
  0.0682423969430886  0.7241538734805846  0.8761285604711311
  0.9335089947998548  0.6375003307473445  0.8335460874902455
  0.3200764123706550  0.5497072825487210  0.7886932584234064
  0.3034207977566631  0.2018019998995005  0.2114333574580658
  0.0678271620877583  0.7107285608028219  0.4774622025962105
  0.5534334895653011  0.2018870089955946  0.2114460352759635
  0.3110770514393161  0.2116387345074723  0.7445263434248367
  0.0722342130331620  0.3760306895668987  0.7003869651557896
  0.1833316332991099  0.6375596122980636  0.8334666740953633
  0.0712870146977846  0.0490193516708588  0.7887179945094154
  0.4417678551649996  0.1248951912126072  0.5667659946933054
  0.9349322241168369  0.2909859610792425  0.6557103419400717
  0.8035000715323629  0.2017746724342624  0.2114312689034277
  0.9289555102023618  0.9512211530018250  0.2114156469449281
  0.9415796817736416  0.6250973823696504  0.5668696339193130
  0.8085819696728942  0.3879628754062549  0.8334903292277790
  0.1973356308924398  0.6261263208279668  0.7000631902133274
  0.8084676040425159  0.8875428197331060  0.8335109201595949
  0.6847601020393490  0.2906456301955295  0.6558049828877239
  0.3126626039228844  0.2081347405355236  0.6113025430656218
  0.4356396955472964  0.4622462146431568  0.7444776004025486
  0.4372844244259869  0.7919296842260923  0.3886202075068820
  0.6852300893777030  0.9620888445561637  0.7445082988946772
  0.8034214409527938  0.7018366982145945  0.2114658607040349
  0.8130205895945574  0.7078302596052991  0.6112863721030385
  0.4309493941495119  0.7778832499736534  0.1241430178649294
  0.3107645264370753  0.7123086121102241  0.7444748658002723
  0.3211903978149917  0.0492337944282051  0.7887120904599321
  0.8122017917002295  0.5418005154680698  0.3885783525236644
  0.6823806905398085  0.2881494282564719  0.5223260300326783
  0.6950014442478039  0.7984283165334155  0.7886739687629812
  0.1899813633813681  0.7882310771206512  0.2554779318401907
  0.6913362360711579  0.1121871282424218  0.1667532026866688
  0.6929147098682135  0.9606482509045461  0.4774724919966499
  0.9403553580109950  0.9592082289474702  0.3441721264217950
  0.8075791201610265  0.0382608659764887  0.5222917982059204
  0.6834396589443086  0.6250332084594160  0.4330974805727201
  0.4404320313296111  0.4592889730546372  0.3441669464941358
  0.8107427550644208  0.2120133245019356  0.7445968713710024
  0.4395944222614930  0.9673153260869923  0.8759831823072803
  0.5665936469689140  0.8749790997886834  0.5668823665450479
  0.8101327072611341  0.0322677319364250  0.1244075480784111
  0.4278648502629986  0.6237951867900297  0.2997265446708215
  0.8177438114532559  0.7238886393273084  0.8761014687896451
  0.6874851198068899  0.4581353175935930  0.6112089658309883
  0.5584587977249008  0.3876743557953250  0.8331639494355912
  0.8027795920246013  0.3738502083945350  0.2997235608067342
  0.1870413261122364  0.2918336906069096  0.3885407577634864
  0.8210736238507329  0.5491240827497589  0.7887784227287701
  0.1824556567759708  0.7882488762061127  0.5223291003607720
  0.3027643784522918  0.8737944952532450  0.2997665761251515
  0.1788069760016591  0.9511134013630793  0.2112655070498651
  0.1857981896825382  0.4612351120450104  0.7446718725039311
  0.4323943416956156  0.2881796334307067  0.5223174807006944
  0.0654421887133434  0.7094202641157947  0.3441666276805133
  0.1847995412628559  0.7906371499773103  0.6558768050097513
  0.4458875542880206  0.7984500158068898  0.7886989079508735
  0.6834197452936727  0.1250078945671308  0.4331135717845251
  0.9323332076573724  0.7882527795907825  0.5223376545490680
  0.6922671168340861  0.6129885255949745  0.1667507022978015
  0.8153929520993000  0.7094654800565199  0.3441755245225133
  0.9349510576492549  0.4619884360006279  0.7445727521304443
  0.1903353304858157  0.4593509547750583  0.3441880052478833
  0.5698156200899644  0.5491744544683916  0.7888954374909477
  0.5661864020011793  0.3624111976152715  0.1666065082536796
  0.5653561675546666  0.7095097471825144  0.3441644948962362
  0.5526849433930331  0.3738834107970206  0.2997876871679855
  0.1895164290733423  0.4670808636184801  0.8759328752534296
  0.1914854964698434  0.1126036094216245  0.1668403511135489
  0.4448964507946485  0.2991266331341119  0.7887835728100303
  0.6899499320310808  0.7883027761035768  0.2554803669865510
  0.9336592850396422  0.1376028235650914  0.8335137674353976
  0.4430950923716794  0.9607381070275431  0.4774692777838005
  0.5677434063907578  0.7238286363153943  0.8760957632420943
  0.1928487991850948  0.4607519009470935  0.4774547114017829
  0.9318344500422704  0.2779137687472627  0.1241178634864676
  0.3121926894633195  0.0418055420857546  0.3885726536284891
  0.0597941703765584  0.0404936752267896  0.6558406130511463
  0.5584004616251493  0.3749636948358496  0.4331253999460752
  0.9334294608605962  0.6250333756323949  0.4330926092318065
  0.3161663757853680  0.3624612115931319  0.1666209186882047
  0.9469155805837693  0.1262720001199782  0.7001158592026591
  0.5600045121316757  0.0412550685217084  0.6557227864846380
  0.5572306821869893  0.5382756038749303  0.5223024659845413
  0.1778517202041785  0.1236905518944391  0.2996827055602074
  0.4415443561648061  0.1124910466436573  0.1668403566300280
  0.6778270405326248  0.6238334237432106  0.2997684602055709
  0.9278783774195832  0.1238031614795832  0.2997076024759504
  0.8167006255991911  0.3746632246053436  0.5668054918361566
  0.0527978887202033  0.8737560782556970  0.2997947168857883
  0.1917034179059757  0.6250379977982685  0.5668049315748231
  0.9451881466759673  0.7982485552695656  0.7887608666054112
  0.3082263702181874  0.3873994700126759  0.8335193525721197
  0.9390771351861593  0.4671125228562627  0.8759512068574923
  0.4338209945656220  0.6378379341742030  0.8335415054147742
  0.0652287397958528  0.2093266327252130  0.3441700880587272
  0.1893625625984058  0.9660205756006467  0.8760504995504805
  0.9305450041094557  0.7779690135868287  0.1241085025204290
  0.6870516591852215  0.7919529802329041  0.3885590146676592
  0.9346738576294679  0.7907135415508538  0.6559066970865154
  0.9412785762968809  0.1117376077889705  0.1666960717155505
  0.4347960071899066  0.2907323632875125  0.6558836957083729
  0.0535175355709024  0.2017709468477431  0.2114349721793493
  0.6779941616576716  0.9512106545323632  0.2114355469364150
  0.1779830562860024  0.6238294039369803  0.2997286042969982
  0.8223786300476762  0.8759723643941845  0.7001518594518549
  0.9468334754119164  0.6258773604368332  0.7002122213040856
  0.1974029002703528  0.1261953797974902  0.7002823072039642
  0.9428425441034390  0.4607306608150957  0.4774637016563628
  0.8126523147896830  0.2080103278558293  0.6113756683284414
  0.1834119310256751  0.6250901403130237  0.4331120525589106
  0.4278441697332673  0.1239472727302930  0.2997981218170460
  0.6779519600564951  0.1241378079584350  0.2997991065834509
  0.5622255915806638  0.5418187223880813  0.3885719096964391
  0.8153074449561920  0.2093564259627011  0.3441747263150131
  0.4397919039239717  0.4671136218830184  0.8759617876159701
  0.5585400502150883  0.8885162628367909  0.8333383707160416
  0.3179705119453133  0.2107427245026210  0.4774592923372514
  0.1929753626833974  0.9607915098275134  0.4774777178030609
  0.0587182948828336  0.8876020679834520  0.8333849935733860
  0.0573601667862781  0.5382161315256792  0.5223435314386519
  0.9428100706198885  0.9607725373838440  0.4774746509177017
  0.0629103943382662  0.7078397816958294  0.6112241740786430
  0.5574202061965372  0.0382455915962244  0.5223487212716441
  0.6963702224784667  0.2986035281518349  0.7887209733190558
  0.8162265750109220  0.3623139259043992  0.1666050362550441
  0.4333933183096952  0.1250867636164305  0.4330994157896959
  0.0679253345076187  0.2107761002166662  0.4774655338219479
  0.3097350466240486  0.0407629043538221  0.6557296460792295
  0.4322677356524742  0.7882614455438834  0.5221933524436011
  0.1835738906959330  0.1379101957881473  0.8335094724550336
  0.1818052485368951  0.2774838438449273  0.1240500580772497
  0.9403373716214670  0.4592858677926740  0.3441768515243003
  0.3163246406956348  0.8622456378045299  0.1666413036263598
  0.3033817503869767  0.7019430832310088  0.2114499731387185
  0.9412171411434109  0.6125233382349891  0.1667839470721172
  0.1878069874066675  0.4583729591810408  0.6113313835040225
  0.0722722234614062  0.8762011251224028  0.6999872094361947
  0.0598637584589169  0.5406998396153232  0.6558007790459863
  0.3098580213579429  0.5324560799343180  0.1242352955299075
  0.9371760400750377  0.7918369519709112  0.3885516025612044
  0.9464089100656503  0.2982317494145397  0.7885999925805087
  0.1847066231745331  0.2906984625234937  0.6557305389769040
  0.9379176960880036  0.9578618449808752  0.6113234961953419
  0.8111844324148998  0.7113785704761023  0.7446082093094559
  0.6899073837516353  0.2880922716736914  0.2554884316096246
  0.0607810716134663  0.7116131967317264  0.7448562219801443
  0.6785914367926893  0.4509153616491827  0.2112957528139330
  0.8179631175933724  0.2108110147109800  0.4774474865210916
  0.5679053056527327  0.7105507861098155  0.4774967820234810
  0.0662520958175753  0.8627420059000783  0.1665574192043544
  0.9324618994511991  0.2883852081186345  0.5223284930711327
  0.6846609031156528  0.7906408652621557  0.6557800427903863
  0.0584142688392284  0.8749952664246538  0.4331054471164521
  0.0680897003401845  0.2238245717030672  0.8761174063598187
  0.8100863988138292  0.0410163289816346  0.6558713971978201
  0.5595996625914340  0.0332154758553766  0.1242608810630149
  0.3083919920647473  0.3749779167240920  0.4331067551999158
  0.3167793761860596  0.3748408413706067  0.5667589331259806
  0.3178508081173653  0.7107181717335961  0.4774332350312488
  0.0573682134420141  0.0382078933339123  0.5223345820775894
  0.3223304516788078  0.8761238947508438  0.7000928930204418
  0.0660090286408873  0.5375690411098848  0.2553825988313013
  0.6832127335444781  0.1374829045467235  0.8334767996769632
  0.8157753545864687  0.0374890106362266  0.2553999066275119
  0.1834167317543613  0.1250549271525006  0.4331046383128452
  0.6977060131789630  0.1264492018299913  0.7001992856612747
  0.1824368938254002  0.2882651247833843  0.5223311293093937
  0.4401421820364259  0.7881909113848080  0.2554636238901097
  0.8157469805899876  0.5375261295389036  0.2554928507207588
  0.0625656810108851  0.2082411538143960  0.6112606863507462
  0.1871101921697733  0.7917958142415144  0.3885485467005877
  0.3074265310366971  0.5382260075245558  0.5223574743358319
  0.8222961669597991  0.3760711555486113  0.7001692448485279
  0.6872423474894545  0.2917960367360919  0.3885900764003361
  0.1915832878973389  0.1249602708736684  0.5668909065646930
  0.6895040250281934  0.9681355067510917  0.8760058037553555
  0.6919066914389722  0.1251047569090357  0.5667038552413786
  0.4402644887087027  0.9593143979021724  0.3441708708590428
  0.1851102369760702  0.9626029818688391  0.7446304395245554
  0.9399285940004515  0.7881924122372933  0.2554518329970134
  0.5584330661542903  0.8749139173864470  0.4330894662344025
  0.3083933432606324  0.8749914869040059  0.4331248346733823
  0.8072598340418233  0.5382507992863297  0.5223332363607793
  0.9285112921446684  0.4509394687588099  0.2113381333612511
  0.3156458723646123  0.5376988135784966  0.2554726227377951
  0.5621685417321234  0.0417834666034500  0.3885610234546587
  0.9376865595149535  0.4582375585992678  0.6113709405708374
  0.0622328272266419  0.0418774978936993  0.3886076450240165
  0.0620802521926521  0.5418745832034877  0.3885663066645529
  0.4372220949368339  0.2918790419657397  0.3886064430398516
  0.6929550229787892  0.4607390753624862  0.4774567471638942
  0.0668072714575773  0.3747738258860960  0.5667884227498232
  0.5535285903521594  0.7019292730538684  0.2114729924386287
  0.9399012581699303  0.2882267552928378  0.2554777542288029
  0.8204998203463119  0.0494673141434307  0.7888200719843200
  0.1902764297601532  0.9592729424644887  0.3441663314003369
  0.5527286671457069  0.8739036179324733  0.2998102564158275
  0.0583470044325188  0.3749753213070178  0.4331102881663998
  0.3153157242694667  0.7094031436123586  0.3441771050537826
  0.3153774234610244  0.2093643614165741  0.3441703400387814
  0.9416692943626965  0.1250045971936658  0.5668886651721652
  0.4378958315276973  0.9579016699283774  0.6112793452983820
  0.5657607149789396  0.0374724446440877  0.2554724883802534
  0.1818667048668244  0.7780963791275644  0.1241590259031384
  0.0659144591936419  0.0375047086186271  0.2554546694933337
  0.6917905028288960  0.6249302375104800  0.5667863438032080
  0.4413695791727406  0.6122484968736561  0.1667525714646765
  0.3071471132438613  0.0383985020887253  0.5222631488418651
  0.6810082039800720  0.2779399635944010  0.1241153632698890
  0.8179201321383038  0.7106793526548851  0.4774494157937213
  0.4337251425520721  0.1376507327763983  0.8335391402569402
  0.3217772806323514  0.3759549353574038  0.7001401282105422
  0.6836784340460124  0.6375065937516167  0.8335197984502674
  0.5609764413039772  0.7128296950673474  0.7445269150084082
  0.9371409439487260  0.2918406052736420  0.3885637922003853
  0.9392739008526307  0.9667326176881486  0.8759209879049710
  0.9351210714053716  0.9618543460133741  0.7445226721461106
  0.8168532897507291  0.8747187928943579  0.5667357248639118
  0.8028386279898027  0.8739553556792566  0.2998135484399181
  0.3158254812190753  0.0375899438150931  0.2554325066898867
  0.4307481392643653  0.2774215718183985  0.1240767909855181
  0.3126016316146708  0.7080350366051376  0.6113655919572372
  0.4334493456367699  0.6250193621100727  0.4331030407570451
  0.1971741432964232  0.2971650426260890  0.7884334332252820
  0.5709530549371292  0.0494910673850227  0.7886577125183142
  0.0707673054423738  0.5500626881170237  0.7887535881488631
  0.8169755192099305  0.8618088363961672  0.1660159092243746
  0.5604240017089821  0.2118260707075730  0.7445033771180912
  0.5627151187966133  0.2068922975958839  0.6112650357398625
  0.5728480383611126  0.8768141964373831  0.7005294042090567
 
  0.00000000E+00  0.00000000E+00  0.00000000E+00
  0.00000000E+00  0.00000000E+00  0.00000000E+00
  0.00000000E+00  0.00000000E+00  0.00000000E+00
  0.00000000E+00  0.00000000E+00  0.00000000E+00
  0.00000000E+00  0.00000000E+00  0.00000000E+00
  0.00000000E+00  0.00000000E+00  0.00000000E+00
  0.00000000E+00  0.00000000E+00  0.00000000E+00
  0.00000000E+00  0.00000000E+00  0.00000000E+00
  0.00000000E+00  0.00000000E+00  0.00000000E+00
  0.00000000E+00  0.00000000E+00  0.00000000E+00
  0.00000000E+00  0.00000000E+00  0.00000000E+00
  0.00000000E+00  0.00000000E+00  0.00000000E+00
  0.00000000E+00  0.00000000E+00  0.00000000E+00
  0.00000000E+00  0.00000000E+00  0.00000000E+00
  0.00000000E+00  0.00000000E+00  0.00000000E+00
  0.00000000E+00  0.00000000E+00  0.00000000E+00
  0.00000000E+00  0.00000000E+00  0.00000000E+00
  0.00000000E+00  0.00000000E+00  0.00000000E+00
  0.00000000E+00  0.00000000E+00  0.00000000E+00
  0.00000000E+00  0.00000000E+00  0.00000000E+00
  0.00000000E+00  0.00000000E+00  0.00000000E+00
  0.00000000E+00  0.00000000E+00  0.00000000E+00
  0.00000000E+00  0.00000000E+00  0.00000000E+00
  0.00000000E+00  0.00000000E+00  0.00000000E+00
  0.00000000E+00  0.00000000E+00  0.00000000E+00
  0.00000000E+00  0.00000000E+00  0.00000000E+00
  0.00000000E+00  0.00000000E+00  0.00000000E+00
  0.00000000E+00  0.00000000E+00  0.00000000E+00
  0.00000000E+00  0.00000000E+00  0.00000000E+00
  0.00000000E+00  0.00000000E+00  0.00000000E+00
  0.00000000E+00  0.00000000E+00  0.00000000E+00
  0.00000000E+00  0.00000000E+00  0.00000000E+00
  0.00000000E+00  0.00000000E+00  0.00000000E+00
  0.00000000E+00  0.00000000E+00  0.00000000E+00
  0.00000000E+00  0.00000000E+00  0.00000000E+00
  0.00000000E+00  0.00000000E+00  0.00000000E+00
  0.00000000E+00  0.00000000E+00  0.00000000E+00
  0.00000000E+00  0.00000000E+00  0.00000000E+00
  0.00000000E+00  0.00000000E+00  0.00000000E+00
  0.00000000E+00  0.00000000E+00  0.00000000E+00
  0.00000000E+00  0.00000000E+00  0.00000000E+00
  0.00000000E+00  0.00000000E+00  0.00000000E+00
  0.00000000E+00  0.00000000E+00  0.00000000E+00
  0.00000000E+00  0.00000000E+00  0.00000000E+00
  0.00000000E+00  0.00000000E+00  0.00000000E+00
  0.00000000E+00  0.00000000E+00  0.00000000E+00
  0.00000000E+00  0.00000000E+00  0.00000000E+00
  0.00000000E+00  0.00000000E+00  0.00000000E+00
  0.00000000E+00  0.00000000E+00  0.00000000E+00
  0.00000000E+00  0.00000000E+00  0.00000000E+00
  0.00000000E+00  0.00000000E+00  0.00000000E+00
  0.00000000E+00  0.00000000E+00  0.00000000E+00
  0.00000000E+00  0.00000000E+00  0.00000000E+00
  0.00000000E+00  0.00000000E+00  0.00000000E+00
  0.00000000E+00  0.00000000E+00  0.00000000E+00
  0.00000000E+00  0.00000000E+00  0.00000000E+00
  0.00000000E+00  0.00000000E+00  0.00000000E+00
  0.00000000E+00  0.00000000E+00  0.00000000E+00
  0.00000000E+00  0.00000000E+00  0.00000000E+00
  0.00000000E+00  0.00000000E+00  0.00000000E+00
  0.00000000E+00  0.00000000E+00  0.00000000E+00
  0.00000000E+00  0.00000000E+00  0.00000000E+00
  0.00000000E+00  0.00000000E+00  0.00000000E+00
  0.00000000E+00  0.00000000E+00  0.00000000E+00
  0.00000000E+00  0.00000000E+00  0.00000000E+00
  0.00000000E+00  0.00000000E+00  0.00000000E+00
  0.00000000E+00  0.00000000E+00  0.00000000E+00
  0.00000000E+00  0.00000000E+00  0.00000000E+00
  0.00000000E+00  0.00000000E+00  0.00000000E+00
  0.00000000E+00  0.00000000E+00  0.00000000E+00
  0.00000000E+00  0.00000000E+00  0.00000000E+00
  0.00000000E+00  0.00000000E+00  0.00000000E+00
  0.00000000E+00  0.00000000E+00  0.00000000E+00
  0.00000000E+00  0.00000000E+00  0.00000000E+00
  0.00000000E+00  0.00000000E+00  0.00000000E+00
  0.00000000E+00  0.00000000E+00  0.00000000E+00
  0.00000000E+00  0.00000000E+00  0.00000000E+00
  0.00000000E+00  0.00000000E+00  0.00000000E+00
  0.00000000E+00  0.00000000E+00  0.00000000E+00
  0.00000000E+00  0.00000000E+00  0.00000000E+00
  0.00000000E+00  0.00000000E+00  0.00000000E+00
  0.00000000E+00  0.00000000E+00  0.00000000E+00
  0.00000000E+00  0.00000000E+00  0.00000000E+00
  0.00000000E+00  0.00000000E+00  0.00000000E+00
  0.00000000E+00  0.00000000E+00  0.00000000E+00
  0.00000000E+00  0.00000000E+00  0.00000000E+00
  0.00000000E+00  0.00000000E+00  0.00000000E+00
  0.00000000E+00  0.00000000E+00  0.00000000E+00
  0.00000000E+00  0.00000000E+00  0.00000000E+00
  0.00000000E+00  0.00000000E+00  0.00000000E+00
  0.00000000E+00  0.00000000E+00  0.00000000E+00
  0.00000000E+00  0.00000000E+00  0.00000000E+00
  0.00000000E+00  0.00000000E+00  0.00000000E+00
  0.00000000E+00  0.00000000E+00  0.00000000E+00
  0.00000000E+00  0.00000000E+00  0.00000000E+00
  0.00000000E+00  0.00000000E+00  0.00000000E+00
  0.00000000E+00  0.00000000E+00  0.00000000E+00
  0.00000000E+00  0.00000000E+00  0.00000000E+00
  0.00000000E+00  0.00000000E+00  0.00000000E+00
  0.00000000E+00  0.00000000E+00  0.00000000E+00
  0.00000000E+00  0.00000000E+00  0.00000000E+00
  0.00000000E+00  0.00000000E+00  0.00000000E+00
  0.00000000E+00  0.00000000E+00  0.00000000E+00
  0.00000000E+00  0.00000000E+00  0.00000000E+00
  0.00000000E+00  0.00000000E+00  0.00000000E+00
  0.00000000E+00  0.00000000E+00  0.00000000E+00
  0.00000000E+00  0.00000000E+00  0.00000000E+00
  0.00000000E+00  0.00000000E+00  0.00000000E+00
  0.00000000E+00  0.00000000E+00  0.00000000E+00
  0.00000000E+00  0.00000000E+00  0.00000000E+00
  0.00000000E+00  0.00000000E+00  0.00000000E+00
  0.00000000E+00  0.00000000E+00  0.00000000E+00
  0.00000000E+00  0.00000000E+00  0.00000000E+00
  0.00000000E+00  0.00000000E+00  0.00000000E+00
  0.00000000E+00  0.00000000E+00  0.00000000E+00
  0.00000000E+00  0.00000000E+00  0.00000000E+00
  0.00000000E+00  0.00000000E+00  0.00000000E+00
  0.00000000E+00  0.00000000E+00  0.00000000E+00
  0.00000000E+00  0.00000000E+00  0.00000000E+00
  0.00000000E+00  0.00000000E+00  0.00000000E+00
  0.00000000E+00  0.00000000E+00  0.00000000E+00
  0.00000000E+00  0.00000000E+00  0.00000000E+00
  0.00000000E+00  0.00000000E+00  0.00000000E+00
  0.00000000E+00  0.00000000E+00  0.00000000E+00
  0.00000000E+00  0.00000000E+00  0.00000000E+00
  0.00000000E+00  0.00000000E+00  0.00000000E+00
  0.00000000E+00  0.00000000E+00  0.00000000E+00
  0.00000000E+00  0.00000000E+00  0.00000000E+00
  0.00000000E+00  0.00000000E+00  0.00000000E+00
  0.00000000E+00  0.00000000E+00  0.00000000E+00
  0.00000000E+00  0.00000000E+00  0.00000000E+00
  0.00000000E+00  0.00000000E+00  0.00000000E+00
  0.00000000E+00  0.00000000E+00  0.00000000E+00
  0.00000000E+00  0.00000000E+00  0.00000000E+00
  0.00000000E+00  0.00000000E+00  0.00000000E+00
  0.00000000E+00  0.00000000E+00  0.00000000E+00
  0.00000000E+00  0.00000000E+00  0.00000000E+00
  0.00000000E+00  0.00000000E+00  0.00000000E+00
  0.00000000E+00  0.00000000E+00  0.00000000E+00
  0.00000000E+00  0.00000000E+00  0.00000000E+00
  0.00000000E+00  0.00000000E+00  0.00000000E+00
  0.00000000E+00  0.00000000E+00  0.00000000E+00
  0.00000000E+00  0.00000000E+00  0.00000000E+00
  0.00000000E+00  0.00000000E+00  0.00000000E+00
  0.00000000E+00  0.00000000E+00  0.00000000E+00
  0.00000000E+00  0.00000000E+00  0.00000000E+00
  0.00000000E+00  0.00000000E+00  0.00000000E+00
  0.00000000E+00  0.00000000E+00  0.00000000E+00
  0.00000000E+00  0.00000000E+00  0.00000000E+00
  0.00000000E+00  0.00000000E+00  0.00000000E+00
  0.00000000E+00  0.00000000E+00  0.00000000E+00
  0.00000000E+00  0.00000000E+00  0.00000000E+00
  0.00000000E+00  0.00000000E+00  0.00000000E+00
  0.00000000E+00  0.00000000E+00  0.00000000E+00
  0.00000000E+00  0.00000000E+00  0.00000000E+00
  0.00000000E+00  0.00000000E+00  0.00000000E+00
  0.00000000E+00  0.00000000E+00  0.00000000E+00
  0.00000000E+00  0.00000000E+00  0.00000000E+00
  0.00000000E+00  0.00000000E+00  0.00000000E+00
  0.00000000E+00  0.00000000E+00  0.00000000E+00
  0.00000000E+00  0.00000000E+00  0.00000000E+00
  0.00000000E+00  0.00000000E+00  0.00000000E+00
  0.00000000E+00  0.00000000E+00  0.00000000E+00
  0.00000000E+00  0.00000000E+00  0.00000000E+00
  0.00000000E+00  0.00000000E+00  0.00000000E+00
  0.00000000E+00  0.00000000E+00  0.00000000E+00
  0.00000000E+00  0.00000000E+00  0.00000000E+00
  0.00000000E+00  0.00000000E+00  0.00000000E+00
  0.00000000E+00  0.00000000E+00  0.00000000E+00
  0.00000000E+00  0.00000000E+00  0.00000000E+00
  0.00000000E+00  0.00000000E+00  0.00000000E+00
  0.00000000E+00  0.00000000E+00  0.00000000E+00
  0.00000000E+00  0.00000000E+00  0.00000000E+00
  0.00000000E+00  0.00000000E+00  0.00000000E+00
  0.00000000E+00  0.00000000E+00  0.00000000E+00
  0.00000000E+00  0.00000000E+00  0.00000000E+00
  0.00000000E+00  0.00000000E+00  0.00000000E+00
  0.00000000E+00  0.00000000E+00  0.00000000E+00
  0.00000000E+00  0.00000000E+00  0.00000000E+00
  0.00000000E+00  0.00000000E+00  0.00000000E+00
  0.00000000E+00  0.00000000E+00  0.00000000E+00
  0.00000000E+00  0.00000000E+00  0.00000000E+00
  0.00000000E+00  0.00000000E+00  0.00000000E+00
  0.00000000E+00  0.00000000E+00  0.00000000E+00
  0.00000000E+00  0.00000000E+00  0.00000000E+00
  0.00000000E+00  0.00000000E+00  0.00000000E+00
  0.00000000E+00  0.00000000E+00  0.00000000E+00
  0.00000000E+00  0.00000000E+00  0.00000000E+00
  0.00000000E+00  0.00000000E+00  0.00000000E+00
  0.00000000E+00  0.00000000E+00  0.00000000E+00
  0.00000000E+00  0.00000000E+00  0.00000000E+00
  0.00000000E+00  0.00000000E+00  0.00000000E+00
  0.00000000E+00  0.00000000E+00  0.00000000E+00
  0.00000000E+00  0.00000000E+00  0.00000000E+00
  0.00000000E+00  0.00000000E+00  0.00000000E+00
  0.00000000E+00  0.00000000E+00  0.00000000E+00
  0.00000000E+00  0.00000000E+00  0.00000000E+00
  0.00000000E+00  0.00000000E+00  0.00000000E+00
  0.00000000E+00  0.00000000E+00  0.00000000E+00
  0.00000000E+00  0.00000000E+00  0.00000000E+00
  0.00000000E+00  0.00000000E+00  0.00000000E+00
  0.00000000E+00  0.00000000E+00  0.00000000E+00
  0.00000000E+00  0.00000000E+00  0.00000000E+00
  0.00000000E+00  0.00000000E+00  0.00000000E+00
  0.00000000E+00  0.00000000E+00  0.00000000E+00
  0.00000000E+00  0.00000000E+00  0.00000000E+00
  0.00000000E+00  0.00000000E+00  0.00000000E+00
  0.00000000E+00  0.00000000E+00  0.00000000E+00
  0.00000000E+00  0.00000000E+00  0.00000000E+00
  0.00000000E+00  0.00000000E+00  0.00000000E+00
  0.00000000E+00  0.00000000E+00  0.00000000E+00
  0.00000000E+00  0.00000000E+00  0.00000000E+00
  0.00000000E+00  0.00000000E+00  0.00000000E+00
  0.00000000E+00  0.00000000E+00  0.00000000E+00
  0.00000000E+00  0.00000000E+00  0.00000000E+00
  0.00000000E+00  0.00000000E+00  0.00000000E+00
  0.00000000E+00  0.00000000E+00  0.00000000E+00
  0.00000000E+00  0.00000000E+00  0.00000000E+00
  0.00000000E+00  0.00000000E+00  0.00000000E+00
  0.00000000E+00  0.00000000E+00  0.00000000E+00
  0.00000000E+00  0.00000000E+00  0.00000000E+00
  0.00000000E+00  0.00000000E+00  0.00000000E+00
  0.00000000E+00  0.00000000E+00  0.00000000E+00
  0.00000000E+00  0.00000000E+00  0.00000000E+00
  0.00000000E+00  0.00000000E+00  0.00000000E+00
  0.00000000E+00  0.00000000E+00  0.00000000E+00
  0.00000000E+00  0.00000000E+00  0.00000000E+00
  0.00000000E+00  0.00000000E+00  0.00000000E+00
  0.00000000E+00  0.00000000E+00  0.00000000E+00
  0.00000000E+00  0.00000000E+00  0.00000000E+00
  0.00000000E+00  0.00000000E+00  0.00000000E+00
  0.00000000E+00  0.00000000E+00  0.00000000E+00
  0.00000000E+00  0.00000000E+00  0.00000000E+00
  0.00000000E+00  0.00000000E+00  0.00000000E+00
  0.00000000E+00  0.00000000E+00  0.00000000E+00
  0.00000000E+00  0.00000000E+00  0.00000000E+00
  0.00000000E+00  0.00000000E+00  0.00000000E+00
  0.00000000E+00  0.00000000E+00  0.00000000E+00
  0.00000000E+00  0.00000000E+00  0.00000000E+00
  0.00000000E+00  0.00000000E+00  0.00000000E+00
  0.00000000E+00  0.00000000E+00  0.00000000E+00
  0.00000000E+00  0.00000000E+00  0.00000000E+00
  0.00000000E+00  0.00000000E+00  0.00000000E+00
  0.00000000E+00  0.00000000E+00  0.00000000E+00
  0.00000000E+00  0.00000000E+00  0.00000000E+00
  0.00000000E+00  0.00000000E+00  0.00000000E+00
  0.00000000E+00  0.00000000E+00  0.00000000E+00