CuInSe2gb                               
   1.00000000000000     
     9.7266780392896699    0.0000000000000000    0.0000000000000000
     0.0000000000000000    8.4235502764570693    0.0000000000000000
     0.0000000000000000    0.0000000000000000   45.0000000000000000
   Fe   Mn
   274    14
Direct
  0.0631656512200257  0.0373361472715493  0.1262021911654783
  0.3127188243516603  0.8704615655667577  0.6537537059093573
  0.1870043715211927  0.1184294478557569  0.7865221387483819
  0.4381124656178467  0.2913176666982676  0.3901908098891260
  0.3132916763914518  0.7058472571543556  0.8313183010964010
  0.8135857100153575  0.2078256254156166  0.8320604777053210
  0.1868813428679312  0.9558669272714196  0.8315414298881281
  0.5629461464152443  0.2066717786757680  0.5651032604265206
  0.0613581381176741  0.0371186689879704  0.7421839404874189
  0.8125253873899142  0.8711531559385363  0.5213603577686979
  0.1880438419008938  0.2874359645574597  0.7421021796216433
  0.9367194097653530  0.4571233650723714  0.3464682110307525
  0.9362509590943819  0.2908932520646628  0.3902409068810241
  0.8126273849499812  0.0364515341191647  0.8739904019653936
  0.1870714425452769  0.7866945634681842  0.6097969559791956
  0.5626655230825605  0.0409366110648691  0.3902145950978288
  0.9383156510972533  0.9578035926685384  0.8321012601669149
  0.3137094052060243  0.5380660058284895  0.8739934800719896
  0.6871439951692514  0.2877604474388631  0.7421183922821489
  0.1878028200775600  0.6199520577935925  0.1683082119746678
  0.8122578161661180  0.2061238163258013  0.4787569857559907
  0.8128898334468884  0.5373742222225163  0.6097658195903393
  0.3128747816493626  0.8734334977365804  0.4349876405490218
  0.8123721958483476  0.0402482643983265  0.2576336206888964
  0.6877371761718213  0.9571121577558167  0.3465309841221178
  0.9372519739109187  0.1209498960395190  0.1685287724780132
  0.9375486631146791  0.1218567823707147  0.5214051517870244
  0.5628655573453850  0.5408836959649830  0.2578113301953920
  0.6870287739249922  0.7889812451667393  0.8740301294703725
  0.5624834641293143  0.3703788846717789  0.1680810475914144
  0.4374550718778759  0.7874639962830591  0.7422274797667512
  0.8130205276426683  0.7062805164601292  0.5651534102572616
  0.5631998268490690  0.8684934876786844  0.7864068556372206
  0.6878615837459255  0.1216649365713754  0.5213525734566037
  0.8127510943154621  0.3703379600822082  0.6537046079498255
  0.9371255530265757  0.4565375473835651  0.8317848512139270
  0.0625220836415286  0.2035134162801814  0.6980469993032563
  0.4373680415072738  0.9538324022023625  0.6979613516320642
  0.3127208418130598  0.2052577206322206  0.8316031748919318
  0.4376792103498278  0.6196083036155693  0.6536817863989809
  0.3119062219972671  0.5369358054050971  0.6098051849381799
  0.9372900856066875  0.4568509283679190  0.5651233637757429
  0.6879681623583347  0.7879729320845436  0.7423164870450171
  0.9384732281544423  0.7908120619019161  0.1262776234142207
  0.6876532297587553  0.7900193288328134  0.3901783073556088
  0.9375725026600763  0.7878367598445805  0.7423261433227692
  0.0625452165571071  0.2073501502595734  0.3464099003484823
  0.8116732584378971  0.0409840603621111  0.3905192341691657
  0.4375255252928647  0.1182321831896491  0.7866011645178642
  0.0621843855234274  0.2085252227224637  0.2129795834135183
  0.0622784339095477  0.3704048104770445  0.1683448188125057
  0.9370715541447594  0.7899582558467867  0.2576191964938784
  0.5624791565783390  0.2044914284391510  0.6981803463489563
  0.6874887481618400  0.9536582220386618  0.6980613606333768
  0.4376501626929702  0.7904741912445115  0.1259406297591017
  0.4373370596585857  0.9565061762291072  0.5651052541971918
  0.8125696104450625  0.3693140890699482  0.7864691209177080
  0.6874897422021453  0.2909489109128708  0.2578287471757513
  0.1877823736502862  0.4566534214470053  0.5651118298332273
  0.0625891313562996  0.8708176359028191  0.1684551146534863
  0.1878995061314417  0.2875688281701944  0.6099233140086912
  0.5634675070597512  0.7061287747937016  0.3465562141174245
  0.3123351547148671  0.2045521348766183  0.6981154986373554
  0.5634993256396281  0.5380845395568663  0.8740271274408693
  0.0624977662259078  0.7061885756208175  0.5650530129462956
  0.6881344063827426  0.6184724837894355  0.7865806712865412
  0.3119083520574834  0.5403945598310805  0.3902322858982699
  0.1875702969856710  0.6214988147483521  0.5214868212057524
  0.5625555196678268  0.8735085280448835  0.4350325546996816
  0.4373496486170771  0.4565563720355300  0.5651056061338782
  0.4375849943116393  0.2882416316346771  0.7421721867974617
  0.8123441463836711  0.8748165047514491  0.3019583870473974
  0.8120796992982531  0.7071172778213396  0.3465354865168990
  0.4385569635014872  0.4554356750066664  0.8315339698382705
  0.6875377204850172  0.9558699244286679  0.4786817847218499
  0.6873323640881626  0.4537096225922908  0.6979802161713253
  0.5626892638865020  0.8714654610479485  0.5212957639056636
  0.5625974264225337  0.3703478789494013  0.6535909842508235
  0.8125959940500160  0.8697017633615947  0.6536960596724581
  0.8126593472091690  0.3745438943266909  0.4349508918876183
  0.8130024232666989  0.5407102937634777  0.2575907176596365
  0.6888886307465426  0.4553098394287217  0.8317063018655535
  0.1872869658478007  0.7905980424571549  0.1262019665746648
  0.6874811122757791  0.2915224595179070  0.3900735986378146
  0.3125728863380056  0.3703850418905022  0.6536606665873292
  0.3127597289458761  0.2078232155470777  0.3465037189779151
  0.8116002666383992  0.5375320321370691  0.7422507363792104
  0.6878886125433836  0.9549492887629205  0.8316931873516153
  0.5628091449631710  0.8704447792698539  0.6535430703685581
  0.3120467692274658  0.7058959584307336  0.5651278427141032
  0.3119891495196108  0.5354232162497014  0.1260534565540876
  0.6885580143530928  0.9589509987707413  0.2134127571619815
  0.3128151360182701  0.2067484955095964  0.5651379409472415
  0.1872952366068175  0.9562353535360243  0.4788473779206021
  0.6881100927134514  0.9561743265282793  0.5650970069289845
  0.4373374301389109  0.7866062760667145  0.6097921966623572
  0.6872220546676596  0.6206720761344429  0.1680823129654177
  0.3128454583089951  0.8744621012867569  0.3018897641046224
  0.3125795562076422  0.7055364557023885  0.4787075530991058
  0.9369346817800757  0.2876410562953152  0.6099134830111658
  0.4381890663617990  0.6244198228732269  0.3020610219121444
  0.8125461390678489  0.8701350372714766  0.1683295487849385
  0.5628395316469933  0.2082511573484176  0.2131479770719905
  0.9371260551359566  0.6200717475718965  0.1683450319647655
  0.9372767889766410  0.7880094638900188  0.8740492835233874
  0.5623513295120566  0.3687421551978947  0.7864179861964615
  0.0623778235699406  0.3716361206366381  0.5213789879460703
  0.3116309002315333  0.3707214403698032  0.1684668256731426
  0.6878615913513079  0.1253635401174945  0.3020660354268644
  0.4393107230124087  0.9547914364009894  0.8314682652637384
  0.1877364853845745  0.2898218765489624  0.1261722521777187
  0.1871771287876255  0.2909975048216210  0.2578734702008570
  0.3122209446687259  0.3744561994693836  0.4349754201071968
  0.5620186250758479  0.0364942873465044  0.1259863416654365
  0.4376282857582309  0.2875281000188980  0.6098305449275777
  0.1875456016568088  0.4583228260210703  0.3465903862451752
  0.4365887114311545  0.2907609259878836  0.1260807577805546
  0.6872092033671490  0.7912003446522287  0.2576078156072741
  0.4373477840336599  0.1218701318073655  0.5213520183673959
  0.1872937771202900  0.2894624992641693  0.8740847571842963
  0.1876242032924287  0.1207470391233383  0.6536835546623589
  0.9377153638201428  0.1204061157728075  0.6536929882939021
  0.3126381603126375  0.2085372288130244  0.2131611957156215
  0.0613555891547044  0.0409609780728162  0.3902357767986083
  0.1874907390425902  0.1213519021387407  0.1683922953592006
  0.0625622434764136  0.5360793057791425  0.6099860206459223
  0.9371010491345979  0.2911392002034811  0.2578524237301893
  0.5626172156986303  0.5368504740611946  0.6097299238548930
  0.9372256331736303  0.9562823842584354  0.5650726980582651
  0.6876636347536581  0.6238938872213771  0.3020312759252288
  0.9370845746954385  0.6242121126816406  0.4349800845378569
  0.9366735198346297  0.6199028378186471  0.7862742564666175
  0.5618725451665971  0.7027514960868465  0.6979416185771998
  0.0614467739333769  0.7086122933198156  0.8317859222938825
  0.9376189527309543  0.1247698768926503  0.3018555942805307
  0.9378032578954157  0.7872418604248361  0.6097986123006611
  0.4382864185711272  0.7908267658683995  0.2574774190248157
  0.3123496686660570  0.3690466961133143  0.7863275473230313
  0.4377804580014669  0.4585977072620215  0.2131179060191209
  0.1873345785484097  0.1220694889782296  0.5214327976884795
  0.8121506356020424  0.7036161183353455  0.6980629371923655
  0.0623809820435559  0.0369246529194468  0.6097316990660985
  0.5622761283427905  0.2053269560788685  0.8314856959514894
  0.3123229597180108  0.8712102935064561  0.5214468588949618
  0.6871225908424490  0.2911640398951255  0.1261254963749528
  0.1876501879327076  0.9587065054166372  0.2132272571320099
  0.6869247205926324  0.2875095387447980  0.6098116998104742
  0.3131643496516583  0.0374306971491987  0.6099856229438227
  0.9373073402104517  0.1182103694838952  0.7866387157336141
  0.4384802019150015  0.7888287084409847  0.8739163185378779
  0.8130461209731220  0.0371853632631588  0.7422599393815144
  0.9371819718847693  0.4542106690811817  0.6981013989410469
  0.1877354632067998  0.6200660595385512  0.6536366296971744
  0.3127970369087066  0.7029591950912737  0.6980066869808129
  0.9385024468069798  0.2902134939331367  0.1262272386771727
  0.4377995879374216  0.4558307031784418  0.4788800246507988
  0.0620891187273661  0.7053072934873620  0.4787382949028024
  0.9370039613222909  0.1238649223862606  0.4349302756942663
  0.4371729701520548  0.1250923135333989  0.3020106256037259
  0.1869574740097547  0.1242100268235094  0.4348918790299423
  0.5634339231537751  0.0355410082466211  0.8739512147819831
  0.1875340226298016  0.9564519657540277  0.5650810691301285
  0.6873479717155219  0.7907954584785933  0.1260176058302602
  0.5619462904192395  0.5358420984020131  0.1258642061515208
  0.3120498595094309  0.0411377294027047  0.3903288779227582
  0.6876351485210360  0.1197703976979392  0.1682616756649046
  0.8126689170126367  0.2075853748594113  0.2131051520655619
  0.0620058438543288  0.5405872977199383  0.2578287369095442
  0.5629551080385728  0.7056079413425298  0.4786717450084644
  0.0626541175031924  0.2063707745054357  0.5651652832937584
  0.5626814504019717  0.3750909329672637  0.3018129628992799
  0.4371904226373290  0.9570063226816222  0.3465368610204761
  0.1876855108471916  0.9541157844234119  0.6980488396698775
  0.4377337359037898  0.6204391182381906  0.1680054343035570
  0.9375480359841688  0.4579491155746034  0.2132363480528466
  0.0630407762790412  0.5360073635987230  0.1260460137821887
  0.8125060795138421  0.3715661518023045  0.5213564841870951
  0.9366321172891922  0.6237753264297182  0.3017994267662072
  0.3134652641798538  0.0404922143167246  0.2575366835949554
  0.6881367785078897  0.7868856170681549  0.6097442428333079
  0.1874294560012356  0.4563856112914036  0.8316474734678099
  0.4371060439911965  0.1201555330701393  0.1681632051522362
  0.3125914479671639  0.3714780306982425  0.5213792017676708
  0.4379000127495394  0.6183046755035152  0.7865808510412313
  0.0617201256387762  0.0406695356604458  0.2577467453979961
  0.5628424910564268  0.7060640253837588  0.5651744524702023
  0.9371515267240808  0.2869210258145873  0.7422144087836960
  0.6866934329196744  0.1180276063775819  0.7863449984260222
  0.1869729127508827  0.4585805190659421  0.2131737596176670
  0.9365694609423910  0.7905860883071303  0.3901734485528167
  0.6874114866021773  0.2917180645745536  0.8741187506734710
  0.3125427818476263  0.8707443299814404  0.1682753506391146
  0.4375569400061252  0.4535840283142514  0.6980460785743482
  0.9376854258243670  0.9564978584557268  0.3464372373204389
  0.6876151548703422  0.6218198615820094  0.5213475824614309
  0.0626342880110519  0.8701296096098052  0.6536609948253198
  0.0620540954534488  0.8697273222660458  0.7863525547282246
  0.0626743260867459  0.3701479397645461  0.6536281517029905
  0.6875393063232191  0.4559990776240199  0.4787684340713692
  0.1876872528686199  0.7901033842657244  0.2574218427373827
  0.4375011412436046  0.1238625438925463  0.4350154612466501
  0.8127566888557101  0.0372689379857370  0.1260802319397663
  0.9371661728081457  0.6217327133496129  0.5214350897036777
  0.0618580109536812  0.8738866817330330  0.4353762397885005
  0.8127617575799410  0.5361246356030701  0.1260502908832818
  0.4380797871566923  0.4578944707634242  0.3464811045792554
  0.8126600338943588  0.2083337989964162  0.3465902738046195
  0.3127586784878234  0.7069400905441593  0.3464092674330920
  0.6872982932438138  0.1205597430383044  0.6535670991492790
  0.5630638288080948  0.8747352752434792  0.3021321185851412
  0.0630038296512812  0.5368897205066550  0.7421281654921664
  0.9372881395742088  0.9582357393658173  0.2132946382106742
  0.8127125045784834  0.3708111037804865  0.1685646631800157
  0.0619832994543718  0.8745631213189261  0.3020905600138900
  0.1872975313555970  0.1250811606130899  0.3018358427565233
  0.0620598475468802  0.7069676584127002  0.3464883161145224
  0.8117646825909879  0.0371288871107902  0.6098251390575524
  0.0619046535611707  0.3746079085375301  0.4350716833040683
  0.5628748715205307  0.2081244061027497  0.3465045785938183
  0.8126881843981729  0.3751042876548747  0.3019651255339899
  0.4378054922376565  0.9559053915582645  0.4787380502209721
  0.5629799474623606  0.5402399117675942  0.3900741418085914
  0.0620500110356958  0.2058958958522505  0.4787410552082893
  0.3129318787472058  0.8684257096475545  0.7862080643180609
  0.9377476898548583  0.9534359827144568  0.6979638865173763
  0.0622864589273965  0.3754620124991787  0.3018124865549226
  0.6873827096299813  0.6201122003893158  0.6536120477297901
  0.6879211438964554  0.4566179133647681  0.5651029441436392
  0.4369709386840717  0.9594535425296599  0.2133192640594609
  0.3127604123375708  0.2059283640749349  0.4788207594609596
  0.4376142765288787  0.1204529922797577  0.6535241819263450
  0.6876338708185874  0.6238818405293122  0.4349058913565230
  0.8127641538382813  0.2037418636100503  0.6979999419891717
  0.8123079376062866  0.7057321924213958  0.4786989507466948
  0.8122045593340939  0.8737284611262487  0.4350057144194057
  0.9368567273688847  0.9561413070935885  0.4788731298283537
  0.5626746522560836  0.2058328840194849  0.4788261001082764
  0.1875466843880666  0.6240024213517646  0.4349908872409255
  0.3117387958486500  0.0375047661290321  0.7421872271261458
  0.9375628389445332  0.6202287023726026  0.6536047083741470
  0.5632597360647823  0.7060291773724112  0.8315980364490482
  0.3126159251042697  0.3743639065878648  0.3018808759229661
  0.5627439385725764  0.7074964921156941  0.2133262023927336
  0.1872500231791115  0.4556986796333480  0.4787421729067771
  0.3143112789594086  0.0364528765178282  0.8737370042612801
  0.1874086845892321  0.4540878939110138  0.6980468555215746
  0.8114361529742664  0.5366812099801010  0.8741783251381156
  0.1872795770628017  0.2909555168872348  0.3902802194671952
  0.4372178426364386  0.6245650443768932  0.4350619983400331
  0.0624908515221916  0.7073320554375653  0.2133023652992580
  0.5623841773178000  0.3743992767319319  0.4353744692430939
  0.4377171355741919  0.6217670292052581  0.5214414375716196
  0.8122394570734986  0.7084670517762366  0.8312831725654379
  0.0622495414149196  0.3700849304067215  0.7863647170915764
  0.4383495136812806  0.2901224454406535  0.8741963077405671
  0.3126013569636776  0.0376304277615234  0.1259579940512352
  0.6877732042255444  0.1234814659882747  0.4349948338371505
  0.1871765471818033  0.9570195149533458  0.3464047497059969
  0.0619617288371416  0.2074424405261548  0.8320845389287572
  0.5625831832539283  0.0362148026335635  0.6100606713217873
  0.6875789410114288  0.4579930480205432  0.2130911396308996
  0.1875975285067776  0.7878176228288597  0.7422420451988686
  0.1871748624617728  0.6245863735885538  0.3020600308611421
  0.4371602453511479  0.7908783651359665  0.3904242223696139
  0.4377778207438424  0.2910677691082376  0.2578204389872617
  0.0626109429693511  0.5379962508032461  0.8739692841216223
  0.5635472633161545  0.0372851297702713  0.7423129859844771
  0.1874904932572583  0.7889204008336147  0.8739484341465491
  0.9371810548604574  0.4559139077826667  0.4787053586870367
  0.8118847461950330  0.5406462670110568  0.3901579982843197
  0.8120509176074761  0.2065048116583396  0.5651174169126280
  0.1865129005885801  0.6187067024687359  0.7863869962541797
  0.0622674358315638  0.5406687769498327  0.3902271170157696
  0.0630999404282220  0.7034936708690070  0.6979415395094001
  0.3118872899284183  0.5407467105225894  0.2572126920686906
  0.3130873731264973  0.7089767168687514  0.2132318096502842
  0.5622806686995169  0.8701040289857074  0.1672596817203491
  0.5631879226628034  0.5373815790743079  0.7420762076138496
  0.6878535433680003  0.4571057247090143  0.3466350566493498
  0.9343560184674428  0.2915077289816917  0.8739896752360640
  0.5631336760380584  0.0409029723108834  0.2573800273883184
  0.0629321589960666  0.0342288500148043  0.8739029382028647
  0.1868187641806878  0.7908603665021164  0.3902669427461590
  0.8122771988923411  0.7086603551031885  0.2133319338558632
  0.5626306502019842  0.3714871985068736  0.5213985530683238
  0.0621737075057691  0.8711953827789434  0.5215114353115430
  0.8120633283907281  0.8692275807177627  0.7862219619370011
  0.3115922051966007  0.5368464080454267  0.7421857995874293
 
  0.00000000E+00  0.00000000E+00  0.00000000E+00
  0.00000000E+00  0.00000000E+00  0.00000000E+00
  0.00000000E+00  0.00000000E+00  0.00000000E+00
  0.00000000E+00  0.00000000E+00  0.00000000E+00
  0.00000000E+00  0.00000000E+00  0.00000000E+00
  0.00000000E+00  0.00000000E+00  0.00000000E+00
  0.00000000E+00  0.00000000E+00  0.00000000E+00
  0.00000000E+00  0.00000000E+00  0.00000000E+00
  0.00000000E+00  0.00000000E+00  0.00000000E+00
  0.00000000E+00  0.00000000E+00  0.00000000E+00
  0.00000000E+00  0.00000000E+00  0.00000000E+00
  0.00000000E+00  0.00000000E+00  0.00000000E+00
  0.00000000E+00  0.00000000E+00  0.00000000E+00
  0.00000000E+00  0.00000000E+00  0.00000000E+00
  0.00000000E+00  0.00000000E+00  0.00000000E+00
  0.00000000E+00  0.00000000E+00  0.00000000E+00
  0.00000000E+00  0.00000000E+00  0.00000000E+00
  0.00000000E+00  0.00000000E+00  0.00000000E+00
  0.00000000E+00  0.00000000E+00  0.00000000E+00
  0.00000000E+00  0.00000000E+00  0.00000000E+00
  0.00000000E+00  0.00000000E+00  0.00000000E+00
  0.00000000E+00  0.00000000E+00  0.00000000E+00
  0.00000000E+00  0.00000000E+00  0.00000000E+00
  0.00000000E+00  0.00000000E+00  0.00000000E+00
  0.00000000E+00  0.00000000E+00  0.00000000E+00
  0.00000000E+00  0.00000000E+00  0.00000000E+00
  0.00000000E+00  0.00000000E+00  0.00000000E+00
  0.00000000E+00  0.00000000E+00  0.00000000E+00
  0.00000000E+00  0.00000000E+00  0.00000000E+00
  0.00000000E+00  0.00000000E+00  0.00000000E+00
  0.00000000E+00  0.00000000E+00  0.00000000E+00
  0.00000000E+00  0.00000000E+00  0.00000000E+00
  0.00000000E+00  0.00000000E+00  0.00000000E+00
  0.00000000E+00  0.00000000E+00  0.00000000E+00
  0.00000000E+00  0.00000000E+00  0.00000000E+00
  0.00000000E+00  0.00000000E+00  0.00000000E+00
  0.00000000E+00  0.00000000E+00  0.00000000E+00
  0.00000000E+00  0.00000000E+00  0.00000000E+00
  0.00000000E+00  0.00000000E+00  0.00000000E+00
  0.00000000E+00  0.00000000E+00  0.00000000E+00
  0.00000000E+00  0.00000000E+00  0.00000000E+00
  0.00000000E+00  0.00000000E+00  0.00000000E+00
  0.00000000E+00  0.00000000E+00  0.00000000E+00
  0.00000000E+00  0.00000000E+00  0.00000000E+00
  0.00000000E+00  0.00000000E+00  0.00000000E+00
  0.00000000E+00  0.00000000E+00  0.00000000E+00
  0.00000000E+00  0.00000000E+00  0.00000000E+00
  0.00000000E+00  0.00000000E+00  0.00000000E+00
  0.00000000E+00  0.00000000E+00  0.00000000E+00
  0.00000000E+00  0.00000000E+00  0.00000000E+00
  0.00000000E+00  0.00000000E+00  0.00000000E+00
  0.00000000E+00  0.00000000E+00  0.00000000E+00
  0.00000000E+00  0.00000000E+00  0.00000000E+00
  0.00000000E+00  0.00000000E+00  0.00000000E+00
  0.00000000E+00  0.00000000E+00  0.00000000E+00
  0.00000000E+00  0.00000000E+00  0.00000000E+00
  0.00000000E+00  0.00000000E+00  0.00000000E+00
  0.00000000E+00  0.00000000E+00  0.00000000E+00
  0.00000000E+00  0.00000000E+00  0.00000000E+00
  0.00000000E+00  0.00000000E+00  0.00000000E+00
  0.00000000E+00  0.00000000E+00  0.00000000E+00
  0.00000000E+00  0.00000000E+00  0.00000000E+00
  0.00000000E+00  0.00000000E+00  0.00000000E+00
  0.00000000E+00  0.00000000E+00  0.00000000E+00
  0.00000000E+00  0.00000000E+00  0.00000000E+00
  0.00000000E+00  0.00000000E+00  0.00000000E+00
  0.00000000E+00  0.00000000E+00  0.00000000E+00
  0.00000000E+00  0.00000000E+00  0.00000000E+00
  0.00000000E+00  0.00000000E+00  0.00000000E+00
  0.00000000E+00  0.00000000E+00  0.00000000E+00
  0.00000000E+00  0.00000000E+00  0.00000000E+00
  0.00000000E+00  0.00000000E+00  0.00000000E+00
  0.00000000E+00  0.00000000E+00  0.00000000E+00
  0.00000000E+00  0.00000000E+00  0.00000000E+00
  0.00000000E+00  0.00000000E+00  0.00000000E+00
  0.00000000E+00  0.00000000E+00  0.00000000E+00
  0.00000000E+00  0.00000000E+00  0.00000000E+00
  0.00000000E+00  0.00000000E+00  0.00000000E+00
  0.00000000E+00  0.00000000E+00  0.00000000E+00
  0.00000000E+00  0.00000000E+00  0.00000000E+00
  0.00000000E+00  0.00000000E+00  0.00000000E+00
  0.00000000E+00  0.00000000E+00  0.00000000E+00
  0.00000000E+00  0.00000000E+00  0.00000000E+00
  0.00000000E+00  0.00000000E+00  0.00000000E+00
  0.00000000E+00  0.00000000E+00  0.00000000E+00
  0.00000000E+00  0.00000000E+00  0.00000000E+00
  0.00000000E+00  0.00000000E+00  0.00000000E+00
  0.00000000E+00  0.00000000E+00  0.00000000E+00
  0.00000000E+00  0.00000000E+00  0.00000000E+00
  0.00000000E+00  0.00000000E+00  0.00000000E+00
  0.00000000E+00  0.00000000E+00  0.00000000E+00
  0.00000000E+00  0.00000000E+00  0.00000000E+00
  0.00000000E+00  0.00000000E+00  0.00000000E+00
  0.00000000E+00  0.00000000E+00  0.00000000E+00
  0.00000000E+00  0.00000000E+00  0.00000000E+00
  0.00000000E+00  0.00000000E+00  0.00000000E+00
  0.00000000E+00  0.00000000E+00  0.00000000E+00
  0.00000000E+00  0.00000000E+00  0.00000000E+00
  0.00000000E+00  0.00000000E+00  0.00000000E+00
  0.00000000E+00  0.00000000E+00  0.00000000E+00
  0.00000000E+00  0.00000000E+00  0.00000000E+00
  0.00000000E+00  0.00000000E+00  0.00000000E+00
  0.00000000E+00  0.00000000E+00  0.00000000E+00
  0.00000000E+00  0.00000000E+00  0.00000000E+00
  0.00000000E+00  0.00000000E+00  0.00000000E+00
  0.00000000E+00  0.00000000E+00  0.00000000E+00
  0.00000000E+00  0.00000000E+00  0.00000000E+00
  0.00000000E+00  0.00000000E+00  0.00000000E+00
  0.00000000E+00  0.00000000E+00  0.00000000E+00
  0.00000000E+00  0.00000000E+00  0.00000000E+00
  0.00000000E+00  0.00000000E+00  0.00000000E+00
  0.00000000E+00  0.00000000E+00  0.00000000E+00
  0.00000000E+00  0.00000000E+00  0.00000000E+00
  0.00000000E+00  0.00000000E+00  0.00000000E+00
  0.00000000E+00  0.00000000E+00  0.00000000E+00
  0.00000000E+00  0.00000000E+00  0.00000000E+00
  0.00000000E+00  0.00000000E+00  0.00000000E+00
  0.00000000E+00  0.00000000E+00  0.00000000E+00
  0.00000000E+00  0.00000000E+00  0.00000000E+00
  0.00000000E+00  0.00000000E+00  0.00000000E+00
  0.00000000E+00  0.00000000E+00  0.00000000E+00
  0.00000000E+00  0.00000000E+00  0.00000000E+00
  0.00000000E+00  0.00000000E+00  0.00000000E+00
  0.00000000E+00  0.00000000E+00  0.00000000E+00
  0.00000000E+00  0.00000000E+00  0.00000000E+00
  0.00000000E+00  0.00000000E+00  0.00000000E+00
  0.00000000E+00  0.00000000E+00  0.00000000E+00
  0.00000000E+00  0.00000000E+00  0.00000000E+00
  0.00000000E+00  0.00000000E+00  0.00000000E+00
  0.00000000E+00  0.00000000E+00  0.00000000E+00
  0.00000000E+00  0.00000000E+00  0.00000000E+00
  0.00000000E+00  0.00000000E+00  0.00000000E+00
  0.00000000E+00  0.00000000E+00  0.00000000E+00
  0.00000000E+00  0.00000000E+00  0.00000000E+00
  0.00000000E+00  0.00000000E+00  0.00000000E+00
  0.00000000E+00  0.00000000E+00  0.00000000E+00
  0.00000000E+00  0.00000000E+00  0.00000000E+00
  0.00000000E+00  0.00000000E+00  0.00000000E+00
  0.00000000E+00  0.00000000E+00  0.00000000E+00
  0.00000000E+00  0.00000000E+00  0.00000000E+00
  0.00000000E+00  0.00000000E+00  0.00000000E+00
  0.00000000E+00  0.00000000E+00  0.00000000E+00
  0.00000000E+00  0.00000000E+00  0.00000000E+00
  0.00000000E+00  0.00000000E+00  0.00000000E+00
  0.00000000E+00  0.00000000E+00  0.00000000E+00
  0.00000000E+00  0.00000000E+00  0.00000000E+00
  0.00000000E+00  0.00000000E+00  0.00000000E+00
  0.00000000E+00  0.00000000E+00  0.00000000E+00
  0.00000000E+00  0.00000000E+00  0.00000000E+00
  0.00000000E+00  0.00000000E+00  0.00000000E+00
  0.00000000E+00  0.00000000E+00  0.00000000E+00
  0.00000000E+00  0.00000000E+00  0.00000000E+00
  0.00000000E+00  0.00000000E+00  0.00000000E+00
  0.00000000E+00  0.00000000E+00  0.00000000E+00
  0.00000000E+00  0.00000000E+00  0.00000000E+00
  0.00000000E+00  0.00000000E+00  0.00000000E+00
  0.00000000E+00  0.00000000E+00  0.00000000E+00
  0.00000000E+00  0.00000000E+00  0.00000000E+00
  0.00000000E+00  0.00000000E+00  0.00000000E+00
  0.00000000E+00  0.00000000E+00  0.00000000E+00
  0.00000000E+00  0.00000000E+00  0.00000000E+00
  0.00000000E+00  0.00000000E+00  0.00000000E+00
  0.00000000E+00  0.00000000E+00  0.00000000E+00
  0.00000000E+00  0.00000000E+00  0.00000000E+00
  0.00000000E+00  0.00000000E+00  0.00000000E+00
  0.00000000E+00  0.00000000E+00  0.00000000E+00
  0.00000000E+00  0.00000000E+00  0.00000000E+00
  0.00000000E+00  0.00000000E+00  0.00000000E+00
  0.00000000E+00  0.00000000E+00  0.00000000E+00
  0.00000000E+00  0.00000000E+00  0.00000000E+00
  0.00000000E+00  0.00000000E+00  0.00000000E+00
  0.00000000E+00  0.00000000E+00  0.00000000E+00
  0.00000000E+00  0.00000000E+00  0.00000000E+00
  0.00000000E+00  0.00000000E+00  0.00000000E+00
  0.00000000E+00  0.00000000E+00  0.00000000E+00
  0.00000000E+00  0.00000000E+00  0.00000000E+00
  0.00000000E+00  0.00000000E+00  0.00000000E+00
  0.00000000E+00  0.00000000E+00  0.00000000E+00
  0.00000000E+00  0.00000000E+00  0.00000000E+00
  0.00000000E+00  0.00000000E+00  0.00000000E+00
  0.00000000E+00  0.00000000E+00  0.00000000E+00
  0.00000000E+00  0.00000000E+00  0.00000000E+00
  0.00000000E+00  0.00000000E+00  0.00000000E+00
  0.00000000E+00  0.00000000E+00  0.00000000E+00
  0.00000000E+00  0.00000000E+00  0.00000000E+00
  0.00000000E+00  0.00000000E+00  0.00000000E+00
  0.00000000E+00  0.00000000E+00  0.00000000E+00
  0.00000000E+00  0.00000000E+00  0.00000000E+00
  0.00000000E+00  0.00000000E+00  0.00000000E+00
  0.00000000E+00  0.00000000E+00  0.00000000E+00
  0.00000000E+00  0.00000000E+00  0.00000000E+00
  0.00000000E+00  0.00000000E+00  0.00000000E+00
  0.00000000E+00  0.00000000E+00  0.00000000E+00
  0.00000000E+00  0.00000000E+00  0.00000000E+00
  0.00000000E+00  0.00000000E+00  0.00000000E+00
  0.00000000E+00  0.00000000E+00  0.00000000E+00
  0.00000000E+00  0.00000000E+00  0.00000000E+00
  0.00000000E+00  0.00000000E+00  0.00000000E+00
  0.00000000E+00  0.00000000E+00  0.00000000E+00
  0.00000000E+00  0.00000000E+00  0.00000000E+00
  0.00000000E+00  0.00000000E+00  0.00000000E+00
  0.00000000E+00  0.00000000E+00  0.00000000E+00
  0.00000000E+00  0.00000000E+00  0.00000000E+00
  0.00000000E+00  0.00000000E+00  0.00000000E+00
  0.00000000E+00  0.00000000E+00  0.00000000E+00
  0.00000000E+00  0.00000000E+00  0.00000000E+00
  0.00000000E+00  0.00000000E+00  0.00000000E+00
  0.00000000E+00  0.00000000E+00  0.00000000E+00
  0.00000000E+00  0.00000000E+00  0.00000000E+00
  0.00000000E+00  0.00000000E+00  0.00000000E+00
  0.00000000E+00  0.00000000E+00  0.00000000E+00
  0.00000000E+00  0.00000000E+00  0.00000000E+00
  0.00000000E+00  0.00000000E+00  0.00000000E+00
  0.00000000E+00  0.00000000E+00  0.00000000E+00
  0.00000000E+00  0.00000000E+00  0.00000000E+00
  0.00000000E+00  0.00000000E+00  0.00000000E+00
  0.00000000E+00  0.00000000E+00  0.00000000E+00
  0.00000000E+00  0.00000000E+00  0.00000000E+00
  0.00000000E+00  0.00000000E+00  0.00000000E+00
  0.00000000E+00  0.00000000E+00  0.00000000E+00
  0.00000000E+00  0.00000000E+00  0.00000000E+00
  0.00000000E+00  0.00000000E+00  0.00000000E+00
  0.00000000E+00  0.00000000E+00  0.00000000E+00
  0.00000000E+00  0.00000000E+00  0.00000000E+00
  0.00000000E+00  0.00000000E+00  0.00000000E+00
  0.00000000E+00  0.00000000E+00  0.00000000E+00
  0.00000000E+00  0.00000000E+00  0.00000000E+00
  0.00000000E+00  0.00000000E+00  0.00000000E+00
  0.00000000E+00  0.00000000E+00  0.00000000E+00
  0.00000000E+00  0.00000000E+00  0.00000000E+00
  0.00000000E+00  0.00000000E+00  0.00000000E+00
  0.00000000E+00  0.00000000E+00  0.00000000E+00
  0.00000000E+00  0.00000000E+00  0.00000000E+00
  0.00000000E+00  0.00000000E+00  0.00000000E+00
  0.00000000E+00  0.00000000E+00  0.00000000E+00
  0.00000000E+00  0.00000000E+00  0.00000000E+00
  0.00000000E+00  0.00000000E+00  0.00000000E+00
  0.00000000E+00  0.00000000E+00  0.00000000E+00
  0.00000000E+00  0.00000000E+00  0.00000000E+00
  0.00000000E+00  0.00000000E+00  0.00000000E+00
  0.00000000E+00  0.00000000E+00  0.00000000E+00
  0.00000000E+00  0.00000000E+00  0.00000000E+00
  0.00000000E+00  0.00000000E+00  0.00000000E+00
  0.00000000E+00  0.00000000E+00  0.00000000E+00
  0.00000000E+00  0.00000000E+00  0.00000000E+00
  0.00000000E+00  0.00000000E+00  0.00000000E+00
  0.00000000E+00  0.00000000E+00  0.00000000E+00