CuInSe2gb                               
   1.00000000000000     
     9.7266780392896699    0.0000000000000000    0.0000000000000000
     0.0000000000000000    8.4235502764570693    0.0000000000000000
     0.0000000000000000    0.0000000000000000   45.0000000000000000
   Fe   Mn
   274    14
Direct
  0.0629806798114358  0.0364256210613971  0.1259690710302209
  0.3133122024126613  0.8706384670400608  0.6537627069378286
  0.1873793914330029  0.1173287697239869  0.7867967407942535
  0.4377111144802778  0.2907369809014830  0.3899935096778114
  0.3135721494857659  0.7057377411545954  0.8310685290565878
  0.8141988323029092  0.2094142836166283  0.8321415725803216
  0.1875900785101690  0.9560106656219680  0.8314752906784327
  0.5630523105256616  0.2070477250134687  0.5648174839027773
  0.0611534129277961  0.0370426646164058  0.7421488664126792
  0.8123125777096021  0.8708071872626429  0.5210955973759944
  0.1888279755354483  0.2875456112427588  0.7421578991351128
  0.9368528057649174  0.4563238972949625  0.3465113367521742
  0.9361235550017128  0.2906087008630819  0.3900504956094430
  0.8127269757415657  0.0351586895704259  0.8739731609812726
  0.1868790847507025  0.7870519580232404  0.6098181881042712
  0.5623083856502900  0.0409587100917148  0.3900236794238338
  0.9386549160041913  0.9592479896489915  0.8322058857894017
  0.3138312054973810  0.5359362815047064  0.8742550490806742
  0.6864500699225580  0.2878457609218297  0.7421243368133604
  0.1880691976958784  0.6201171055617151  0.1685522669650541
  0.8123725120977801  0.2062603894021396  0.4788434385149509
  0.8134777842425711  0.5372531095651698  0.6098072336047763
  0.3128999346401231  0.8737169555390485  0.4348229437684413
  0.8116567307249517  0.0399759263982143  0.2577495996313804
  0.6873399879724622  0.9571877666052849  0.3464643108823090
  0.9367502772245332  0.1202636874836056  0.1687744372788666
  0.9378342715235662  0.1215797104559304  0.5211745043596220
  0.5624192213056709  0.5410863097101999  0.2579663955628826
  0.6860256533262398  0.7910059126563819  0.8740523602274264
  0.5629946409125935  0.3699044893409378  0.1684960873767994
  0.4370390952977173  0.7880766924952830  0.7422848212611473
  0.8127491430314328  0.7069249350480207  0.5649289030808337
  0.5631384542428767  0.8688445105963465  0.7865737303668523
  0.6877411455444126  0.1209302777777393  0.5211591438530351
  0.8132825630318424  0.3698518425978654  0.6536795653823784
  0.9376098472325169  0.4563053369911520  0.8316506465918548
  0.0622948594259700  0.2032126864291653  0.6981505109392953
  0.4373697268807645  0.9536882916625706  0.6979561575125728
  0.3125880922869700  0.2051790896216242  0.8314581973739986
  0.4381106018696573  0.6198822209383913  0.6535961153311567
  0.3115698424220232  0.5367546648037672  0.6097958252869780
  0.9372145577189599  0.4570668164953429  0.5648829916168669
  0.6880896756616730  0.7884492900497475  0.7423106552229353
  0.9383771465410744  0.7920672698700594  0.1260546743956392
  0.6875430006547275  0.7904508800094091  0.3899101412797862
  0.9380349365475864  0.7885032867802523  0.7424023467465625
  0.0630684278877833  0.2067980181758586  0.3462805397406948
  0.8109260500869937  0.0414379577200110  0.3904990445117772
  0.4372440292345531  0.1172427909624296  0.7869012860261199
  0.0624155901910162  0.2087602345431467  0.2130354143196699
  0.0619086167692208  0.3699845319341251  0.1686333848884548
  0.9372102533639243  0.7898312287846804  0.2576425180946028
  0.5629648307355902  0.2043645939297133  0.6983592196780041
  0.6867877271471865  0.9539188328231428  0.6980917054623111
  0.4378589212185866  0.7916910556958520  0.1258412922757437
  0.4370201632801607  0.9570957687736331  0.5648649522425435
  0.8126776621327239  0.3692894041680613  0.7866381610167746
  0.6868216936174674  0.2905345183510780  0.2580224113706543
  0.1880170797475644  0.4570964896056272  0.5648202574493433
  0.0627699655417056  0.8698572835224414  0.1687924530640738
  0.1883901922947052  0.2875023567972417  0.6100348365533869
  0.5636148004061526  0.7066101825721243  0.3464783112491590
  0.3120585045212807  0.2044607687460818  0.6982988617107578
  0.5622515425340798  0.5351895389271620  0.8742227775030870
  0.0628964499979122  0.7071476733715174  0.5648629680359443
  0.6880648359547372  0.6168310127431187  0.7866326837891167
  0.3110696218358883  0.5406705861071686  0.3900456643960691
  0.1875427208365392  0.6206110049920794  0.5211274512483265
  0.5627444492563612  0.8741306707370717  0.4349109287995291
  0.4371904396140784  0.4569276503612267  0.5648477705039269
  0.4377180413720342  0.2885526705912090  0.7423065921529407
  0.8121465144307188  0.8757679322675259  0.3020844063669738
  0.8118757775426501  0.7078968529517028  0.3466009605044663
  0.4380991227420680  0.4551626608390582  0.8312714998728473
  0.6874826365397863  0.9559447258264439  0.4787120096697905
  0.6875278005146629  0.4536122618056311  0.6980451430850962
  0.5624560095908637  0.8709522886959554  0.5211388777692756
  0.5626091889317387  0.3701588644934121  0.6535189168809616
  0.8123612077808170  0.8694359004787116  0.6535939329125028
  0.8128666041428724  0.3744188827588257  0.4349041655502763
  0.8128771224896894  0.5410829031711222  0.2575435553673832
  0.6889437828521883  0.4546929902494637  0.8313860077387546
  0.1869066482347954  0.7915242526319959  0.1259975125826642
  0.6874824551793706  0.2908243265394105  0.3898844309079295
  0.3125219540023674  0.3698830401206378  0.6535386338970569
  0.3127540988547468  0.2073737444315642  0.3465004968501744
  0.8111222027121281  0.5379289198643110  0.7423047588354291
  0.6873193711863536  0.9556675094518839  0.8314931589731754
  0.5625858203778875  0.8703285357998668  0.6535305674620983
  0.3121967532964142  0.7069171802302160  0.5649182277392693
  0.3112579329368628  0.5345237367734943  0.1260125552193460
  0.6886403300012855  0.9599600256041587  0.2135982655147222
  0.3129525237303535  0.2068728995731702  0.5648900339320890
  0.1874976596804058  0.9560707794279608  0.4788986416614763
  0.6880125608479313  0.9569767711862743  0.5648693512490081
  0.4368905813987661  0.7870068783764400  0.6098431953514678
  0.6872271052907265  0.6204443788431403  0.1682238345745384
  0.3129748443470855  0.8748871373476009  0.3020493012309775
  0.3125093220592837  0.7059208597859093  0.4787904405377130
  0.9365259740467090  0.2874297388798059  0.6100104459538966
  0.4380306760961498  0.6251685668867413  0.3020941659321134
  0.8125448694388482  0.8694086100038240  0.1685000078162815
  0.5628991540455556  0.2083257296925175  0.2133145010858808
  0.9368996852023099  0.6201195629879913  0.1685607709265428
  0.9389273908252722  0.7892898658448844  0.8740614617265899
  0.5619458454081165  0.3685035903749465  0.7865447985783081
  0.0623894560675390  0.3705937459341581  0.5211922073062617
  0.3116868884358980  0.3707181037831284  0.1688461221387622
  0.6874425191959103  0.1250179230079919  0.3021508150036942
  0.4391470867953436  0.9555076326838886  0.8312749565199398
  0.1867409443102865  0.2910280648824463  0.1258176341369945
  0.1877703945272947  0.2910155734943288  0.2581354872260957
  0.3120319685658435  0.3740749832774625  0.4349294175928455
  0.5624952165415353  0.0350958935303897  0.1258762884612185
  0.4373778300742244  0.2873756204435071  0.6098965524821289
  0.1878557953285413  0.4582739974730125  0.3466939103592792
  0.4368450967606951  0.2918253981678225  0.1259338696904026
  0.6862475681360168  0.7915740620019166  0.2576905081217974
  0.4374483600584210  0.1208452093440960  0.5211223768326820
  0.1875399508153497  0.2909637884408861  0.8741669796855395
  0.1874003031721728  0.1204418141358282  0.6535264411729833
  0.9376860000979427  0.1206185712164861  0.6535793667511166
  0.3126233625435446  0.2082220589283126  0.2133616943641037
  0.0621844821122305  0.0404776221359721  0.3900408485455685
  0.1878024017699071  0.1203110465116694  0.1687313851635239
  0.0622387359587617  0.5352410546338754  0.6101220197245206
  0.9372242130531188  0.2908278330275885  0.2581289286799792
  0.5626293236668948  0.5368324031304101  0.6097575542875336
  0.9372253378775285  0.9572218237771986  0.5648806152999898
  0.6870067263708141  0.6244330448390791  0.3020950937969358
  0.9368144805936971  0.6245637882586551  0.4349865542707169
  0.9368304055693059  0.6182859962518517  0.7863459446962638
  0.5616115385505999  0.7032395641785650  0.6979634870443107
  0.0617252157026048  0.7096373742483765  0.8317779130852242
  0.9383279380004064  0.1240057789902969  0.3019650910594193
  0.9382874488229391  0.7875669515132210  0.6099337358826989
  0.4385720713778957  0.7908585007367720  0.2575312572517666
  0.3123550977464532  0.3689538880910296  0.7865898678351561
  0.4384431970287144  0.4589712606413820  0.2133329000932792
  0.1872189782835071  0.1215060048135747  0.5211962964689353
  0.8119118276148679  0.7034350559940827  0.6980908498104108
  0.0621412756578997  0.0364017810163345  0.6097696484462881
  0.5612653386410303  0.2055744062913706  0.8313219175328828
  0.3121867261914382  0.8706526245415630  0.5211238461869941
  0.6875207082169029  0.2923652425931520  0.1257988225770984
  0.1877155522953553  0.9592682238703819  0.2134076454154504
  0.6866516402456134  0.2871770477979838  0.6098471669845468
  0.3136274677516349  0.0371373834837916  0.6100352122364586
  0.9374553312361051  0.1171980113349845  0.7867601905919834
  0.4373048343387688  0.7909318015425463  0.8740084029650627
  0.8132372829559866  0.0372767930104974  0.7422945736393746
  0.9368715767298843  0.4547400928641145  0.6981925219750690
  0.1876019690135037  0.6203445543205685  0.6535160460041111
  0.3130699162269300  0.7032692628760074  0.6980781148660052
  0.9388268097345331  0.2914906536419770  0.1257375323467114
  0.4373278088245895  0.4558703563497478  0.4788939330572324
  0.0626361589179040  0.7058163894257792  0.4787516118484104
  0.9371049018748262  0.1239872618426907  0.4348230435930548
  0.4370967643325572  0.1249543189462752  0.3021516544758296
  0.1873059466209785  0.1248222622022732  0.4347806057778354
  0.5624875092338258  0.0344209342429675  0.8741792830417399
  0.1879595742410156  0.9571043414096293  0.5648886358265339
  0.6877465941167528  0.7922321590931583  0.1258185858558971
  0.5623217079956929  0.5347236974431900  0.1257998677091051
  0.3115039898459444  0.0406553928205631  0.3901196707576731
  0.6874525865253236  0.1192984902026171  0.1684603647057886
  0.8124549645878966  0.2079312597199280  0.2131202659117453
  0.0627819908342414  0.5408921733749926  0.2580853632676350
  0.5625031903381643  0.7060397719988132  0.4787156699328356
  0.0627811491213482  0.2068450226982819  0.5648878466057146
  0.5621871728378414  0.3745930340281258  0.3018229781579947
  0.4369246498913991  0.9573674828171246  0.3465349757936405
  0.1882691742318429  0.9543519028458229  0.6981461284448364
  0.4377847310672131  0.6201938646750972  0.1681402255339387
  0.9370352852421712  0.4583277359932716  0.2133091932032490
  0.0629734495128140  0.5346289154365063  0.1257332302684716
  0.8126546333876905  0.3707600321544360  0.5211064819981522
  0.9369673575482580  0.6236169918303537  0.3018216039406381
  0.3144584478891163  0.0406353082205518  0.2575542370765034
  0.6884497578719383  0.7870425865473448  0.6098178403318371
  0.1878375864399855  0.4559411743799787  0.8315379617370759
  0.4372319836280317  0.1193054492872822  0.1684324591649128
  0.3125581864515088  0.3707607161821541  0.5210733215079582
  0.4374303328733521  0.6169193026873480  0.7868219207537928
  0.0618276448048636  0.0406574970659576  0.2579637117194154
  0.5626467683122325  0.7070990852144466  0.5649093646358226
  0.9368923268345134  0.2864989847216502  0.7422212937504697
  0.6860530252631825  0.1171959573140799  0.7864433648726898
  0.1867341368740831  0.4592083170216215  0.2134178067051354
  0.9373810293259702  0.7908349322622720  0.3899308903393153
  0.6866825665122827  0.2934274099866944  0.8742415653744819
  0.3122909697677484  0.8700482045086365  0.1685716316055247
  0.4377786832023876  0.4537219189295029  0.6981498858308007
  0.9382433475170995  0.9564097679757413  0.3463228535619431
  0.6874425033303804  0.6214055337998641  0.5211123071281177
  0.0626877651296729  0.8702873971922341  0.6535508234562289
  0.0622001702689765  0.8699282928982652  0.7864028762159266
  0.0625152339499317  0.3693755698131294  0.6535570405349787
  0.6875036065989442  0.4557350162264788  0.4788029048709647
  0.1881848866703919  0.7896146406549684  0.2574584169732562
  0.4370924011064934  0.1243556534688263  0.4349389172015983
  0.8128620513150044  0.0360914427513464  0.1258709359676964
  0.9374234615990659  0.6207667986883931  0.5211330799441667
  0.0620224524268116  0.8744241335452988  0.4353413552580015
  0.8130371736455170  0.5348227470559674  0.1258629955524267
  0.4379015303102126  0.4575478179194749  0.3465643208344602
  0.8130123879994157  0.2080406075001600  0.3466383086396840
  0.3125130564308417  0.7070795989978419  0.3464810587070098
  0.6873977535530037  0.1202324063843452  0.6535194936385206
  0.5628675735864858  0.8752090412446758  0.3021758573275137
  0.0637143623650182  0.5372163542517311  0.7421602201314188
  0.9375046733849991  0.9587663600147563  0.2134553811729507
  0.8120916392140064  0.3709207312884776  0.1689936418960255
  0.0623196878415485  0.8752312432320190  0.3022239749035309
  0.1869754455231817  0.1249485335319649  0.3019779728936243
  0.0626305691994511  0.7072710410702071  0.3465420517468302
  0.8117016444678797  0.0369604681002089  0.6098716576371409
  0.0621402125833034  0.3742581764073511  0.4350122846156336
  0.5625384049845583  0.2075304447562226  0.3464544669468467
  0.8130429322495716  0.3748205718534162  0.3019711225036839
  0.4372145136962950  0.9559227554054155  0.4788189077377782
  0.5624156680722858  0.5403280172025414  0.3898627856500023
  0.0624398250955318  0.2059895622397474  0.4787434086422487
  0.3132767716447798  0.8683705540458828  0.7864411400736948
  0.9381106237228632  0.9538163623178159  0.6980376009409475
  0.0629392267646869  0.3752695592775656  0.3018748192312400
  0.6873249835347552  0.6203325023302994  0.6535592465209510
  0.6879695431297901  0.4570373076988989  0.5648586445426744
  0.4366144993036908  0.9605537615553142  0.2135308672155305
  0.3126366543575108  0.2058873649690479  0.4787883690127271
  0.4376576802348760  0.1193354404620616  0.6533196095897580
  0.6876198623140857  0.6239190017656323  0.4348524116526870
  0.8128927857924697  0.2033794094375381  0.6980776319862233
  0.8125250879264355  0.7059470261272409  0.4787714383419088
  0.8120285524959476  0.8742432019104038  0.4349883508791705
  0.9371242916578134  0.9560580592186049  0.4789424592203682
  0.5623758131027619  0.2056729130048194  0.4788093941486665
  0.1882679103340678  0.6243993267774490  0.4349442752551494
  0.3113962064774518  0.0373401706794886  0.7421804154656058
  0.9373040071610477  0.6202267179426040  0.6535218048381379
  0.5623657266309715  0.7062946193879809  0.8313103338152554
  0.3124437266854161  0.3736494056600357  0.3018131737481330
  0.5628773915211867  0.7077486274029345  0.2134967834998999
  0.1875323575002456  0.4558386338733960  0.4787473552342382
  0.3143495031228491  0.0352501056696123  0.8738265039786868
  0.1869850464282503  0.4546367927182111  0.6982464064675780
  0.8115178231369451  0.5338729623066862  0.8743399773231599
  0.1877953767067760  0.2906713020317916  0.3901528065859621
  0.4368223013945652  0.6245439352653590  0.4350253961247380
  0.0625233031962951  0.7080560730251088  0.2134821843070363
  0.5618725641436297  0.3743574440967739  0.4353676728322207
  0.4376078352116903  0.6214464155813534  0.5212026794136528
  0.8122703346953312  0.7096486254056438  0.8310632173999727
  0.0622532639405487  0.3702765554627291  0.7865421449243362
  0.4378765999417065  0.2918253422762995  0.8745044897236641
  0.3123298334710725  0.0365059152551178  0.1258435776157381
  0.6876794017754113  0.1235912440598169  0.4348186314441669
  0.1873270149077577  0.9571917112310714  0.3464915531102968
  0.0627475535784460  0.2093177964381608  0.8324030847106813
  0.5624201221617907  0.0351963952351498  0.6102379778899397
  0.6876066117304173  0.4581099804048659  0.2131608859533371
  0.1877130592093501  0.7883432332547634  0.7422919381297991
  0.1874824452955698  0.6249994336074488  0.3020770923091584
  0.4356992278190756  0.7916531517968063  0.3902748331564814
  0.4373896461668116  0.2909198809236047  0.2581013550000386
  0.0634647610365842  0.5358772350805320  0.8741021950720673
  0.5637764058728060  0.0372408466679306  0.7423102569456531
  0.1880178580562197  0.7905968799754337  0.8740306185239723
  0.9374647616965430  0.4558824205327668  0.4787471418546517
  0.8121263394845625  0.5407378894744460  0.3900024373867400
  0.8118394501448513  0.2068683620786782  0.5648548586469715
  0.1867103103006533  0.6171023369886195  0.7865180825655077
  0.0633783018119660  0.5408618363239467  0.3899605678765862
  0.0632774986906223  0.7033682434689414  0.6980256956473936
  0.3115643777349478  0.5413596439635678  0.2573008906418528
  0.3131402872670248  0.7095068130309186  0.2136647591633125
  0.5625297814358932  0.8690857812106245  0.1676745456911888
  0.5626211276454492  0.5371639279244188  0.7422920972481611
  0.6876262463223323  0.4563966953724619  0.3467169908627639
  0.9347896089359854  0.2935395056635260  0.8736238406866469
  0.5630754191152088  0.0409556390612802  0.2575067395321574
  0.0646229179052310  0.0324608144358984  0.8736607375630187
  0.1871946687356988  0.7918150615574414  0.3900987583661520
  0.8122141544207964  0.7091717858978550  0.2135699406682101
  0.5625774290996418  0.3708609104871588  0.5212368801926911
  0.0626768762680153  0.8709311046709541  0.5212104832211665
  0.8115899040856849  0.8700645810468517  0.7862696281867428
  0.3117879216857411  0.5368758609456615  0.7424368849379079
 
  0.00000000E+00  0.00000000E+00  0.00000000E+00
  0.00000000E+00  0.00000000E+00  0.00000000E+00
  0.00000000E+00  0.00000000E+00  0.00000000E+00
  0.00000000E+00  0.00000000E+00  0.00000000E+00
  0.00000000E+00  0.00000000E+00  0.00000000E+00
  0.00000000E+00  0.00000000E+00  0.00000000E+00
  0.00000000E+00  0.00000000E+00  0.00000000E+00
  0.00000000E+00  0.00000000E+00  0.00000000E+00
  0.00000000E+00  0.00000000E+00  0.00000000E+00
  0.00000000E+00  0.00000000E+00  0.00000000E+00
  0.00000000E+00  0.00000000E+00  0.00000000E+00
  0.00000000E+00  0.00000000E+00  0.00000000E+00
  0.00000000E+00  0.00000000E+00  0.00000000E+00
  0.00000000E+00  0.00000000E+00  0.00000000E+00
  0.00000000E+00  0.00000000E+00  0.00000000E+00
  0.00000000E+00  0.00000000E+00  0.00000000E+00
  0.00000000E+00  0.00000000E+00  0.00000000E+00
  0.00000000E+00  0.00000000E+00  0.00000000E+00
  0.00000000E+00  0.00000000E+00  0.00000000E+00
  0.00000000E+00  0.00000000E+00  0.00000000E+00
  0.00000000E+00  0.00000000E+00  0.00000000E+00
  0.00000000E+00  0.00000000E+00  0.00000000E+00
  0.00000000E+00  0.00000000E+00  0.00000000E+00
  0.00000000E+00  0.00000000E+00  0.00000000E+00
  0.00000000E+00  0.00000000E+00  0.00000000E+00
  0.00000000E+00  0.00000000E+00  0.00000000E+00
  0.00000000E+00  0.00000000E+00  0.00000000E+00
  0.00000000E+00  0.00000000E+00  0.00000000E+00
  0.00000000E+00  0.00000000E+00  0.00000000E+00
  0.00000000E+00  0.00000000E+00  0.00000000E+00
  0.00000000E+00  0.00000000E+00  0.00000000E+00
  0.00000000E+00  0.00000000E+00  0.00000000E+00
  0.00000000E+00  0.00000000E+00  0.00000000E+00
  0.00000000E+00  0.00000000E+00  0.00000000E+00
  0.00000000E+00  0.00000000E+00  0.00000000E+00
  0.00000000E+00  0.00000000E+00  0.00000000E+00
  0.00000000E+00  0.00000000E+00  0.00000000E+00
  0.00000000E+00  0.00000000E+00  0.00000000E+00
  0.00000000E+00  0.00000000E+00  0.00000000E+00
  0.00000000E+00  0.00000000E+00  0.00000000E+00
  0.00000000E+00  0.00000000E+00  0.00000000E+00
  0.00000000E+00  0.00000000E+00  0.00000000E+00
  0.00000000E+00  0.00000000E+00  0.00000000E+00
  0.00000000E+00  0.00000000E+00  0.00000000E+00
  0.00000000E+00  0.00000000E+00  0.00000000E+00
  0.00000000E+00  0.00000000E+00  0.00000000E+00
  0.00000000E+00  0.00000000E+00  0.00000000E+00
  0.00000000E+00  0.00000000E+00  0.00000000E+00
  0.00000000E+00  0.00000000E+00  0.00000000E+00
  0.00000000E+00  0.00000000E+00  0.00000000E+00
  0.00000000E+00  0.00000000E+00  0.00000000E+00
  0.00000000E+00  0.00000000E+00  0.00000000E+00
  0.00000000E+00  0.00000000E+00  0.00000000E+00
  0.00000000E+00  0.00000000E+00  0.00000000E+00
  0.00000000E+00  0.00000000E+00  0.00000000E+00
  0.00000000E+00  0.00000000E+00  0.00000000E+00
  0.00000000E+00  0.00000000E+00  0.00000000E+00
  0.00000000E+00  0.00000000E+00  0.00000000E+00
  0.00000000E+00  0.00000000E+00  0.00000000E+00
  0.00000000E+00  0.00000000E+00  0.00000000E+00
  0.00000000E+00  0.00000000E+00  0.00000000E+00
  0.00000000E+00  0.00000000E+00  0.00000000E+00
  0.00000000E+00  0.00000000E+00  0.00000000E+00
  0.00000000E+00  0.00000000E+00  0.00000000E+00
  0.00000000E+00  0.00000000E+00  0.00000000E+00
  0.00000000E+00  0.00000000E+00  0.00000000E+00
  0.00000000E+00  0.00000000E+00  0.00000000E+00
  0.00000000E+00  0.00000000E+00  0.00000000E+00
  0.00000000E+00  0.00000000E+00  0.00000000E+00
  0.00000000E+00  0.00000000E+00  0.00000000E+00
  0.00000000E+00  0.00000000E+00  0.00000000E+00
  0.00000000E+00  0.00000000E+00  0.00000000E+00
  0.00000000E+00  0.00000000E+00  0.00000000E+00
  0.00000000E+00  0.00000000E+00  0.00000000E+00
  0.00000000E+00  0.00000000E+00  0.00000000E+00
  0.00000000E+00  0.00000000E+00  0.00000000E+00
  0.00000000E+00  0.00000000E+00  0.00000000E+00
  0.00000000E+00  0.00000000E+00  0.00000000E+00
  0.00000000E+00  0.00000000E+00  0.00000000E+00
  0.00000000E+00  0.00000000E+00  0.00000000E+00
  0.00000000E+00  0.00000000E+00  0.00000000E+00
  0.00000000E+00  0.00000000E+00  0.00000000E+00
  0.00000000E+00  0.00000000E+00  0.00000000E+00
  0.00000000E+00  0.00000000E+00  0.00000000E+00
  0.00000000E+00  0.00000000E+00  0.00000000E+00
  0.00000000E+00  0.00000000E+00  0.00000000E+00
  0.00000000E+00  0.00000000E+00  0.00000000E+00
  0.00000000E+00  0.00000000E+00  0.00000000E+00
  0.00000000E+00  0.00000000E+00  0.00000000E+00
  0.00000000E+00  0.00000000E+00  0.00000000E+00
  0.00000000E+00  0.00000000E+00  0.00000000E+00
  0.00000000E+00  0.00000000E+00  0.00000000E+00
  0.00000000E+00  0.00000000E+00  0.00000000E+00
  0.00000000E+00  0.00000000E+00  0.00000000E+00
  0.00000000E+00  0.00000000E+00  0.00000000E+00
  0.00000000E+00  0.00000000E+00  0.00000000E+00
  0.00000000E+00  0.00000000E+00  0.00000000E+00
  0.00000000E+00  0.00000000E+00  0.00000000E+00
  0.00000000E+00  0.00000000E+00  0.00000000E+00
  0.00000000E+00  0.00000000E+00  0.00000000E+00
  0.00000000E+00  0.00000000E+00  0.00000000E+00
  0.00000000E+00  0.00000000E+00  0.00000000E+00
  0.00000000E+00  0.00000000E+00  0.00000000E+00
  0.00000000E+00  0.00000000E+00  0.00000000E+00
  0.00000000E+00  0.00000000E+00  0.00000000E+00
  0.00000000E+00  0.00000000E+00  0.00000000E+00
  0.00000000E+00  0.00000000E+00  0.00000000E+00
  0.00000000E+00  0.00000000E+00  0.00000000E+00
  0.00000000E+00  0.00000000E+00  0.00000000E+00
  0.00000000E+00  0.00000000E+00  0.00000000E+00
  0.00000000E+00  0.00000000E+00  0.00000000E+00
  0.00000000E+00  0.00000000E+00  0.00000000E+00
  0.00000000E+00  0.00000000E+00  0.00000000E+00
  0.00000000E+00  0.00000000E+00  0.00000000E+00
  0.00000000E+00  0.00000000E+00  0.00000000E+00
  0.00000000E+00  0.00000000E+00  0.00000000E+00
  0.00000000E+00  0.00000000E+00  0.00000000E+00
  0.00000000E+00  0.00000000E+00  0.00000000E+00
  0.00000000E+00  0.00000000E+00  0.00000000E+00
  0.00000000E+00  0.00000000E+00  0.00000000E+00
  0.00000000E+00  0.00000000E+00  0.00000000E+00
  0.00000000E+00  0.00000000E+00  0.00000000E+00
  0.00000000E+00  0.00000000E+00  0.00000000E+00
  0.00000000E+00  0.00000000E+00  0.00000000E+00
  0.00000000E+00  0.00000000E+00  0.00000000E+00
  0.00000000E+00  0.00000000E+00  0.00000000E+00
  0.00000000E+00  0.00000000E+00  0.00000000E+00
  0.00000000E+00  0.00000000E+00  0.00000000E+00
  0.00000000E+00  0.00000000E+00  0.00000000E+00
  0.00000000E+00  0.00000000E+00  0.00000000E+00
  0.00000000E+00  0.00000000E+00  0.00000000E+00
  0.00000000E+00  0.00000000E+00  0.00000000E+00
  0.00000000E+00  0.00000000E+00  0.00000000E+00
  0.00000000E+00  0.00000000E+00  0.00000000E+00
  0.00000000E+00  0.00000000E+00  0.00000000E+00
  0.00000000E+00  0.00000000E+00  0.00000000E+00
  0.00000000E+00  0.00000000E+00  0.00000000E+00
  0.00000000E+00  0.00000000E+00  0.00000000E+00
  0.00000000E+00  0.00000000E+00  0.00000000E+00
  0.00000000E+00  0.00000000E+00  0.00000000E+00
  0.00000000E+00  0.00000000E+00  0.00000000E+00
  0.00000000E+00  0.00000000E+00  0.00000000E+00
  0.00000000E+00  0.00000000E+00  0.00000000E+00
  0.00000000E+00  0.00000000E+00  0.00000000E+00
  0.00000000E+00  0.00000000E+00  0.00000000E+00
  0.00000000E+00  0.00000000E+00  0.00000000E+00
  0.00000000E+00  0.00000000E+00  0.00000000E+00
  0.00000000E+00  0.00000000E+00  0.00000000E+00
  0.00000000E+00  0.00000000E+00  0.00000000E+00
  0.00000000E+00  0.00000000E+00  0.00000000E+00
  0.00000000E+00  0.00000000E+00  0.00000000E+00
  0.00000000E+00  0.00000000E+00  0.00000000E+00
  0.00000000E+00  0.00000000E+00  0.00000000E+00
  0.00000000E+00  0.00000000E+00  0.00000000E+00
  0.00000000E+00  0.00000000E+00  0.00000000E+00
  0.00000000E+00  0.00000000E+00  0.00000000E+00
  0.00000000E+00  0.00000000E+00  0.00000000E+00
  0.00000000E+00  0.00000000E+00  0.00000000E+00
  0.00000000E+00  0.00000000E+00  0.00000000E+00
  0.00000000E+00  0.00000000E+00  0.00000000E+00
  0.00000000E+00  0.00000000E+00  0.00000000E+00
  0.00000000E+00  0.00000000E+00  0.00000000E+00
  0.00000000E+00  0.00000000E+00  0.00000000E+00
  0.00000000E+00  0.00000000E+00  0.00000000E+00
  0.00000000E+00  0.00000000E+00  0.00000000E+00
  0.00000000E+00  0.00000000E+00  0.00000000E+00
  0.00000000E+00  0.00000000E+00  0.00000000E+00
  0.00000000E+00  0.00000000E+00  0.00000000E+00
  0.00000000E+00  0.00000000E+00  0.00000000E+00
  0.00000000E+00  0.00000000E+00  0.00000000E+00
  0.00000000E+00  0.00000000E+00  0.00000000E+00
  0.00000000E+00  0.00000000E+00  0.00000000E+00
  0.00000000E+00  0.00000000E+00  0.00000000E+00
  0.00000000E+00  0.00000000E+00  0.00000000E+00
  0.00000000E+00  0.00000000E+00  0.00000000E+00
  0.00000000E+00  0.00000000E+00  0.00000000E+00
  0.00000000E+00  0.00000000E+00  0.00000000E+00
  0.00000000E+00  0.00000000E+00  0.00000000E+00
  0.00000000E+00  0.00000000E+00  0.00000000E+00
  0.00000000E+00  0.00000000E+00  0.00000000E+00
  0.00000000E+00  0.00000000E+00  0.00000000E+00
  0.00000000E+00  0.00000000E+00  0.00000000E+00
  0.00000000E+00  0.00000000E+00  0.00000000E+00
  0.00000000E+00  0.00000000E+00  0.00000000E+00
  0.00000000E+00  0.00000000E+00  0.00000000E+00
  0.00000000E+00  0.00000000E+00  0.00000000E+00
  0.00000000E+00  0.00000000E+00  0.00000000E+00
  0.00000000E+00  0.00000000E+00  0.00000000E+00
  0.00000000E+00  0.00000000E+00  0.00000000E+00
  0.00000000E+00  0.00000000E+00  0.00000000E+00
  0.00000000E+00  0.00000000E+00  0.00000000E+00
  0.00000000E+00  0.00000000E+00  0.00000000E+00
  0.00000000E+00  0.00000000E+00  0.00000000E+00
  0.00000000E+00  0.00000000E+00  0.00000000E+00
  0.00000000E+00  0.00000000E+00  0.00000000E+00
  0.00000000E+00  0.00000000E+00  0.00000000E+00
  0.00000000E+00  0.00000000E+00  0.00000000E+00
  0.00000000E+00  0.00000000E+00  0.00000000E+00
  0.00000000E+00  0.00000000E+00  0.00000000E+00
  0.00000000E+00  0.00000000E+00  0.00000000E+00
  0.00000000E+00  0.00000000E+00  0.00000000E+00
  0.00000000E+00  0.00000000E+00  0.00000000E+00
  0.00000000E+00  0.00000000E+00  0.00000000E+00
  0.00000000E+00  0.00000000E+00  0.00000000E+00
  0.00000000E+00  0.00000000E+00  0.00000000E+00
  0.00000000E+00  0.00000000E+00  0.00000000E+00
  0.00000000E+00  0.00000000E+00  0.00000000E+00
  0.00000000E+00  0.00000000E+00  0.00000000E+00
  0.00000000E+00  0.00000000E+00  0.00000000E+00
  0.00000000E+00  0.00000000E+00  0.00000000E+00
  0.00000000E+00  0.00000000E+00  0.00000000E+00
  0.00000000E+00  0.00000000E+00  0.00000000E+00
  0.00000000E+00  0.00000000E+00  0.00000000E+00
  0.00000000E+00  0.00000000E+00  0.00000000E+00
  0.00000000E+00  0.00000000E+00  0.00000000E+00
  0.00000000E+00  0.00000000E+00  0.00000000E+00
  0.00000000E+00  0.00000000E+00  0.00000000E+00
  0.00000000E+00  0.00000000E+00  0.00000000E+00
  0.00000000E+00  0.00000000E+00  0.00000000E+00
  0.00000000E+00  0.00000000E+00  0.00000000E+00
  0.00000000E+00  0.00000000E+00  0.00000000E+00
  0.00000000E+00  0.00000000E+00  0.00000000E+00
  0.00000000E+00  0.00000000E+00  0.00000000E+00
  0.00000000E+00  0.00000000E+00  0.00000000E+00
  0.00000000E+00  0.00000000E+00  0.00000000E+00
  0.00000000E+00  0.00000000E+00  0.00000000E+00
  0.00000000E+00  0.00000000E+00  0.00000000E+00
  0.00000000E+00  0.00000000E+00  0.00000000E+00
  0.00000000E+00  0.00000000E+00  0.00000000E+00
  0.00000000E+00  0.00000000E+00  0.00000000E+00
  0.00000000E+00  0.00000000E+00  0.00000000E+00
  0.00000000E+00  0.00000000E+00  0.00000000E+00
  0.00000000E+00  0.00000000E+00  0.00000000E+00
  0.00000000E+00  0.00000000E+00  0.00000000E+00
  0.00000000E+00  0.00000000E+00  0.00000000E+00
  0.00000000E+00  0.00000000E+00  0.00000000E+00
  0.00000000E+00  0.00000000E+00  0.00000000E+00
  0.00000000E+00  0.00000000E+00  0.00000000E+00
  0.00000000E+00  0.00000000E+00  0.00000000E+00
  0.00000000E+00  0.00000000E+00  0.00000000E+00
  0.00000000E+00  0.00000000E+00  0.00000000E+00
  0.00000000E+00  0.00000000E+00  0.00000000E+00
  0.00000000E+00  0.00000000E+00  0.00000000E+00
  0.00000000E+00  0.00000000E+00  0.00000000E+00
  0.00000000E+00  0.00000000E+00  0.00000000E+00
  0.00000000E+00  0.00000000E+00  0.00000000E+00
  0.00000000E+00  0.00000000E+00  0.00000000E+00