CuInSe2gb                               
   1.00000000000000     
     9.7266780392896699    0.0000000000000000    0.0000000000000000
     0.0000000000000000    8.4235502764570693    0.0000000000000000
     0.0000000000000000    0.0000000000000000   45.0000000000000000
   Fe   Mn
   274    14
Direct
  0.0613341400453655  0.0329999960485891  0.1245126579280904
  0.3135965030506723  0.8739163027168538  0.6550219064949105
  0.1865458863110557  0.1249159583604354  0.7882991100054842
  0.4401117417779699  0.2880101795305319  0.3893866431785425
  0.3146745773463389  0.7114619674517783  0.8334031311460685
  0.8158093660263334  0.2125829152172474  0.8336105996204435
  0.1890213402102629  0.9622216262490687  0.8337682127095989
  0.5617551375702844  0.2060745578360388  0.5657282630340230
  0.0634753155428085  0.0413651826706854  0.7440798516150690
  0.8111478187159903  0.8721553160768412  0.5216916364952916
  0.1883682922542958  0.2914653220142641  0.7441252977559798
  0.9371567720832180  0.4537769996677453  0.3449875520035546
  0.9391347269556826  0.2878776626747523  0.3892073379839249
  0.8124367123851954  0.0453267068308611  0.8755303265179590
  0.1859028928871862  0.7891653196426327  0.6105690958096353
  0.5642815166056721  0.0381462298875894  0.3893736395236285
  0.9409270777240423  0.9622901690172426  0.8337683199548571
  0.3134306359856617  0.5448868021611858  0.8756274600543680
  0.6885023625781549  0.2914002281877610  0.7441415724913194
  0.1850200987013969  0.6163984479872469  0.1666526445915640
  0.8115150754615166  0.2054554730261443  0.4783793097326233
  0.8108811664590225  0.5390691805389943  0.6106364796373280
  0.3130077467946796  0.8712937122904387  0.4343587655697242
  0.8119398390930395  0.0370827725416373  0.2559397524554196
  0.6872882520913567  0.9539681200761299  0.3449637173932735
  0.9337630247276109  0.1162785057082097  0.1666824364886355
  0.0626753730703560  0.8721329685394451  0.5215577913225402
  0.5616107423161294  0.5370241820003075  0.2558502797541512
  0.6869357034547703  0.7944880845778590  0.8756146181749107
  0.5589348290726630  0.3665102131729994  0.1663132586344553
  0.4384675635976675  0.7918006752397390  0.7441609492650615
  0.8118148679404019  0.7059072696855201  0.5658052532341912
  0.5613073206062318  0.8743310514652014  0.7882888977158222
  0.6867761428483001  0.1220197155166707  0.5216647153062505
  0.8135102713938488  0.3739229364706074  0.6550213965975266
  0.9402521135793982  0.4621620691622111  0.8336953251964442
  0.0618054793029758  0.2076211264066808  0.6997300634525285
  0.4368210905871858  0.9571176260124716  0.6996654662665680
  0.3143054098557411  0.2114876192760522  0.8336876496980176
  0.4384886945399562  0.6240214655033198  0.6549767919898716
  0.3111128773063406  0.5391962539397781  0.6106068691651000
  0.9368155790755353  0.4557545470538615  0.5657705411342868
  0.6885039816569141  0.7915845991485758  0.7441516137852066
  0.9344784689157994  0.7836338716255004  0.1247604638733957
  0.6895786950687495  0.7875864284261955  0.3891949876802635
  0.9385092205773136  0.7912441067171115  0.7441048541643167
  0.0624187830373266  0.2041755450365627  0.3448855448880458
  0.6875124769497717  0.4537765071768973  0.3448863453234594
  0.4360781313588866  0.1248416834508123  0.7884048913696236
  0.0634265756913946  0.2031794639726194  0.2115817445962617
  0.0577914958395666  0.3662230241425385  0.1663667081600357
  0.9365032121411919  0.7873959479790167  0.2558335372093834
  0.5616947925145672  0.2074125081918529  0.6997218293876135
  0.6868704786198357  0.9575551796905408  0.6997581556368585
  0.8109844693692568  0.8748086709541263  0.7882422956829527
  0.4368213618736028  0.9561838487532890  0.5657798810920164
  0.8112603721868697  0.3748665280250569  0.7882787951310308
  0.6867678067199078  0.2870294766220149  0.2559482785124804
  0.1867302866719626  0.4559069849963731  0.5657536098825077
  0.0589871808664416  0.8665004866835011  0.1665207531656681
  0.1861648249127694  0.2892211545639994  0.6106912828624071
  0.0618737504407262  0.2063518382295888  0.5657936595868587
  0.3119734400274566  0.2074755883935248  0.6997317777734315
  0.5639639821146095  0.5454409333997847  0.8755363010791523
  0.0616598324870949  0.7058439220841326  0.5658192682794928
  0.6859554542143665  0.6249457696578188  0.7882366681331773
  0.3145978929047655  0.5374282405172879  0.3893333509513298
  0.1871401419131936  0.6224813451081500  0.5217360707487599
  0.5627090555316269  0.8713438776005912  0.4342544786638554
  0.4368298363286513  0.4560903918120414  0.5658030857828521
  0.4384047267127563  0.2920057147613550  0.7441306686782844
  0.8156535603089259  0.8723966997183003  0.3002861786323313
  0.8120923504100648  0.7034677479765915  0.3449656773885527
  0.4399946122467855  0.4612433408981109  0.8336661054182584
  0.6871310095392796  0.9554255096202404  0.4783537641397772
  0.6868485298589425  0.4574497827187465  0.6997385246912545
  0.5619118973127709  0.8724385556620354  0.5216563272048681
  0.5636704727969191  0.3737901352670459  0.6549549340274134
  0.8135359808100010  0.8739603637692879  0.6549826472089013
  0.8119369553987055  0.3708004644394837  0.4341216566880033
  0.8115584615982583  0.5368049069213299  0.2560304905380608
  0.6902735623128859  0.4617136038043695  0.8335936176950833
  0.1854850700114654  0.7836212117937250  0.1244258474676478
  0.6893229973610451  0.2877078126469402  0.3892495679056573
  0.3134339661708212  0.3739143658570835  0.6549405424024110
  0.3122221892340630  0.2036762653053688  0.3450563606894954
  0.8134319810885097  0.5414326974851137  0.7440355172739671
  0.6903998527591314  0.9615885098051171  0.8336321315591561
  0.5635691702809272  0.8740458994999993  0.6549957414074955
  0.3118641737872183  0.7062148442984018  0.5657230831679804
  0.3100783027611123  0.5335095263765606  0.1244191339871888
  0.6887268549099564  0.9533397726785232  0.2116847174974878
  0.3118381705580899  0.2062527113974290  0.5657262929056158
  0.1877380238425604  0.9556457396503778  0.4783987270636777
  0.6868256221780663  0.9561988511425610  0.5659185089478797
  0.4359774085368696  0.7890368841838431  0.6105632621929042
  0.6830929545194201  0.6147840421784263  0.1664865172145014
  0.3156465682641748  0.8717709754512950  0.3002682425882192
  0.3119656713229305  0.7050411497860347  0.4783134108877198
  0.9360126575515517  0.2888626769808252  0.6105354724022670
  0.4406944488296167  0.6218079592173722  0.3002735666512564
  0.8087914311042891  0.8656163051989759  0.1666403678023014
  0.5637972865024089  0.2026190404876743  0.2118100926802607
  0.9343539559552132  0.6149815962483328  0.1666595623536760
  0.4373459271724135  0.9546633263660523  0.4783745307923857
  0.5612658300515622  0.3742444088123134  0.7883382041973890
  0.0618404156677958  0.3727545713388042  0.5215902123500412
  0.3087048876944932  0.3657849737109787  0.1662882604365132
  0.6908232248677659  0.1216552206164308  0.3003416668826148
  0.4404701114277198  0.9610423250281346  0.8336167091157070
  0.1848506008455334  0.2830388116254997  0.1246048094908501
  0.1867162644794887  0.2866891418479227  0.2559323344232784
  0.3128786243277317  0.3710200881319246  0.4342298981544768
  0.5606839425298931  0.0332042814173519  0.1245229949537443
  0.4358772290141410  0.2891290819384214  0.6105690282060638
  0.1872358956017953  0.4537791704813670  0.3448927214277849
  0.4339206825439184  0.2827661424286113  0.1246166373583828
  0.6866059913625123  0.7872305322745536  0.2559535257233255
  0.4368539497073488  0.1227090564884910  0.5215939746805085
  0.1891645433489132  0.2940099287086697  0.8757979208160466
  0.1885581682838967  0.1238974887499195  0.6550080852818138
  0.9386607425820938  0.1239367928369475  0.6550026130218813
  0.8142752795800321  0.5375875095895118  0.3892526629706602
  0.0643070685515100  0.0381056256699367  0.3893478202991918
  0.1840656304170256  0.1150089900944139  0.1666026754152494
  0.0610148131290738  0.5390680756941446  0.6105953602571580
  0.9365427618232182  0.2868491830933819  0.2558587744050878
  0.5609233351352934  0.5392755937351023  0.6105681982937438
  0.9368088027065948  0.9557808947367391  0.5654699970495944
  0.6907656981291008  0.6221226291095147  0.3003560220834208
  0.9376100722431404  0.6217969531859634  0.4341380790633086
  0.9360466130268867  0.6258906285022143  0.7882686040364997
  0.5616832872445535  0.7072081089920931  0.6996966837335282
  0.0643075085263885  0.7131848953075040  0.8336480708744157
  0.9408393003356472  0.1221755869858714  0.3002340717055109
  0.9358823944656252  0.7889084892074461  0.6106698141974740
  0.4368751796116479  0.7870616969447671  0.2560100875804834
  0.3112688344511040  0.3742005902364708  0.7882830376750273
  0.4383379095478994  0.4535113822797049  0.2116609225538775
  0.1869523155160389  0.1221361073227449  0.5216540986349987
  0.8119747331973394  0.7074815363537513  0.6997336533456078
  0.0608089564227052  0.0393190698624886  0.6105623085024946
  0.5645999229245035  0.2115215555453235  0.8334066484003290
  0.3119024640178492  0.8722099246539915  0.5217551117930873
  0.6857640593024239  0.2828966590127193  0.1243605482975942
  0.1884639694433330  0.9540729935949195  0.2117665020177789
  0.6859335991981577  0.2893628064944310  0.6106509082109203
  0.3108932952831848  0.0391806165733404  0.6105921574523571
  0.9362775890603952  0.1257431656612495  0.7883608720544486
  0.4376843239814481  0.7936058075427176  0.8755967050951458
  0.8134995195173956  0.0415765132611865  0.7440101393185653
  0.9369581832218299  0.4574027066760784  0.6997087047959923
  0.1886325373310137  0.6239979307081778  0.6550290024941261
  0.3119358867271194  0.7074477512610060  0.6997354875997920
  0.9344000534969056  0.2831279796881722  0.1244089609028611
  0.4374180498054498  0.4546074741488318  0.4783474694776915
  0.0625526221337551  0.7040700500541197  0.4784014912948400
  0.9373947967390569  0.1217351847193179  0.4344784430260661
  0.4409553042445649  0.1215703956024700  0.3002364733577325
  0.1873099838647969  0.1210571291034442  0.4340749460826105
  0.5643066085450714  0.0451811851563002  0.8756410336339007
  0.1866033882437654  0.9561527088927662  0.5658981137769469
  0.6851338929696437  0.7840153590084485  0.1246808096002604
  0.5625423673168828  0.7038173599577702  0.3449965985932534
  0.3147020401568530  0.0379110082768262  0.3893047602007973
  0.6848273545887593  0.1157954284235358  0.1667104209576339
  0.8139714774053453  0.2028010922850944  0.2116425360394787
  0.0613238589254645  0.5371057918990129  0.2557518211045804
  0.5625844370895792  0.7049013176062158  0.4783288679791410
  0.4348520163818139  0.7837608355991054  0.1243917666198166
  0.5655661546322244  0.3716809216085381  0.3003151498300410
  0.4371938864648500  0.9537753748549346  0.3449308138037700
  0.1868376708324864  0.9573604866608644  0.6997487742330817
  0.4341190929013664  0.6155769367488955  0.1664526195646080
  0.9386628230201486  0.4531754925125982  0.2118157754175087
  0.0607290872040350  0.5327540160477202  0.1244750207155327
  0.8116951345836469  0.3727320391052166  0.5216035892600713
  0.9408733778944635  0.6226248312237925  0.3001982627427679
  0.3119859719133185  0.0370715473356491  0.2559156638944809
  0.6861028580993014  0.7891133429853810  0.6105893368272852
  0.1897241412911792  0.4622062024461721  0.8337454786968074
  0.4346380438018694  0.1146181997001139  0.1666810814366748
  0.3116003809079929  0.3724459516935635  0.5216469346266482
  0.4362282070457953  0.6246915768481291  0.7884416444533917
  0.0614574704649229  0.0370918470859791  0.2558438212944381
  0.5616942881349500  0.7061051948994198  0.5657581497080082
  0.9385694197084193  0.2911830296917763  0.7441038908955787
  0.6860933905348875  0.1250505621553237  0.7882223752441070
  0.1881791340905990  0.4531171395048517  0.2116678378299404
  0.9390738298774942  0.7876056906343325  0.3892906452500562
  0.6870198734058787  0.2944560936669406  0.8757007480913439
  0.5577375927324932  0.8655570452014616  0.1665125598037462
  0.4367765280799488  0.4572508970361543  0.6997546838771224
  0.9374464126025523  0.9537393801808349  0.3449374871234764
  0.6866980906107736  0.6224412834752193  0.5216490254860268
  0.0634978716597070  0.8737769136549375  0.6549934355657298
  0.0616607937929367  0.8751121243053197  0.7883919398857763
  0.0636346356423950  0.3739186977982966  0.6550361113002517
  0.6869565156939886  0.4547847920832372  0.4781980995239207
  0.1867214272289379  0.7873039178193079  0.2559026196048116
  0.4375997510567879  0.1212274607437170  0.4342899163336285
  0.8112663706959735  0.0337542728663240  0.1245491816056290
  0.9367229678408507  0.6225511278100679  0.5215917492269762
  0.4385617297771025  0.1238634710240594  0.6550219537042300
  0.8122095229291044  0.5332363265699094  0.1242033519111997
  0.4375369858210950  0.4537735880034443  0.3449647533116258
  0.8123618048711899  0.2037332818331024  0.3449625367986351
  0.3126749648195046  0.7037406289749391  0.3449643895674434
  0.6885786164018853  0.1239271993301425  0.6550105134452322
  0.5655737548359030  0.8716479032693928  0.3002367337576103
  0.0633403860993345  0.5410341018650966  0.7440394485170387
  0.9386274984591088  0.9536251425015521  0.2116784604659141
  0.8142278561033508  0.7031561178817838  0.2117313680436587
  0.0655594372493929  0.8719123188764130  0.3002250923042221
  0.1905544475923469  0.1222952417299130  0.3002195560440267
  0.0622199006792149  0.7037708903236649  0.3449005817359426
  0.8112934445653052  0.0390142742369854  0.6105920598313643
  0.0627135764595288  0.3707540209045040  0.4341477883789196
  0.5625149081087000  0.2036851277789854  0.3449820853818698
  0.8155333700984919  0.3722705061118945  0.3002384498430222
  0.5621863859585092  0.0375400916618033  0.2558992560299972
  0.5641074191203110  0.5371839325040826  0.3893005643208677
  0.0629241578124149  0.2049664764054276  0.4783443503473431
  0.3116976896236910  0.8741867985911974  0.7881584217809396
  0.9368476945466533  0.9576698595055150  0.6996834669919687
  0.0660055371833093  0.3722089090002350  0.3003402846664108
  0.6885166962765372  0.6239649718615377  0.6549989144707115
  0.6866046306770843  0.4561461101768877  0.5657295639816012
  0.4384188370302116  0.9538418189223116  0.2118357741884341
  0.3120220696368605  0.2050039485553137  0.4783626200959482
  0.8127872794463115  0.5448589635043833  0.8755185904447019
  0.6879608985777029  0.6208369467067670  0.4341877599327996
  0.8119425253242959  0.2075025711632381  0.6997435690263616
  0.8124118765618261  0.7047363953944940  0.4783450308026691
  0.8115339989803561  0.8710586991060125  0.4341939922153691
  0.3130700468190365  0.7026106791078837  0.2116533659500307
  0.5625614703539293  0.2049734185664366  0.4783630954646350
  0.1874704839429761  0.6207233536365239  0.4342899061908375
  0.3133106653565250  0.0417099438105359  0.7441339357549622
  0.9386202642487821  0.6242470284933750  0.6549437576400119
  0.5646202033012585  0.7113932757702373  0.8333936686585049
  0.3157360848682052  0.3721347585732390  0.3002541938333680
  0.3133990496178917  0.5413135467935785  0.7441681537172171
  0.1878960436760361  0.4547166381333918  0.4783241847505451
  0.3149053715016736  0.0461212002677713  0.8756255036203336
  0.1867941921755840  0.4574793654608370  0.6997580530361882
  0.5620204394440504  0.3725326401733177  0.5216378847647992
  0.1890060111223978  0.2880449217153813  0.3893392674836798
  0.3134432762056011  0.2030057024219963  0.2116101567867322
  0.0637275715596526  0.7030486283531121  0.2116042772147032
  0.5625118569551675  0.3709951741109118  0.4342550208322736
  0.4368040307966422  0.6224789925614743  0.5215358680045447
  0.8151380004794495  0.7127084234142071  0.8333705891973434
  0.0615910385676779  0.3754912083299043  0.7883313069270748
  0.4373439941667573  0.2943235903478837  0.8757646783002493
  0.3110685638482193  0.0331090560227924  0.1242227998986433
  0.6879840610951987  0.1215588914168422  0.4341700326851858
  0.1872560742928302  0.9535720643675062  0.3449111587787209
  0.0642371673237078  0.2120391643522265  0.8336583193051089
  0.5610409261676386  0.0390266311645325  0.6105874676097539
  0.6883529095908096  0.4531750009674000  0.2117521781185908
  0.1884055828917580  0.7913886755535644  0.7440786099318746
  0.1906102295410949  0.6218753430697085  0.3002364027922788
  0.4397908511488578  0.7874258655357315  0.3893258627614241
  0.4368353192321610  0.2869779406619457  0.2558079494163968
  0.0649853915848640  0.5447477897599778  0.8756601490511613
  0.5636715006455658  0.0416712095759710  0.7441438651570460
  0.1883884961502110  0.7938037613175747  0.8757765440996432
  0.9372433217612303  0.4545733358827945  0.4783344636941437
  0.5635910611497099  0.5416844611731828  0.7440629855062197
  0.8114452385484623  0.2064911698501645  0.5658568150555967
  0.1866127007407511  0.6250671967893477  0.7882935307920751
  0.0649886686391260  0.5381518712567472  0.3893599002984277
  0.0618481413417520  0.7076476900345923  0.6996909673005789
  0.3117185446354819  0.5370528037056523  0.2557459648396936
  0.9374771558622286  0.9545529560172282  0.4785465769731401
  0.3082902455179254  0.8659490566024169  0.1660655865858087
  0.4370819954469827  0.6208939344692481  0.4341757978676089
  0.8154388338215142  0.0378079376348455  0.3892450738156963
  0.9364039058374956  0.2950942976748879  0.8756372670231763
  0.9371177580488703  0.7922408755820418  0.8755780687528819
  0.0652491126672412  0.0441526689936919  0.8754647274558622
  0.5612201885866607  0.5331642066852446  0.1246619240379022
  0.8077366133041232  0.3660408005020032  0.1659375109232396
  0.0626648443790612  0.8709021480821932  0.4340190280027960
  0.9369124764796042  0.1228407008354435  0.5215143745199865
  0.1899764949021671  0.7870038720144819  0.3891655036206462
  0.5636723503946329  0.7031244420135268  0.2118845696805379
 
  0.00000000E+00  0.00000000E+00  0.00000000E+00
  0.00000000E+00  0.00000000E+00  0.00000000E+00
  0.00000000E+00  0.00000000E+00  0.00000000E+00
  0.00000000E+00  0.00000000E+00  0.00000000E+00
  0.00000000E+00  0.00000000E+00  0.00000000E+00
  0.00000000E+00  0.00000000E+00  0.00000000E+00
  0.00000000E+00  0.00000000E+00  0.00000000E+00
  0.00000000E+00  0.00000000E+00  0.00000000E+00
  0.00000000E+00  0.00000000E+00  0.00000000E+00
  0.00000000E+00  0.00000000E+00  0.00000000E+00
  0.00000000E+00  0.00000000E+00  0.00000000E+00
  0.00000000E+00  0.00000000E+00  0.00000000E+00
  0.00000000E+00  0.00000000E+00  0.00000000E+00
  0.00000000E+00  0.00000000E+00  0.00000000E+00
  0.00000000E+00  0.00000000E+00  0.00000000E+00
  0.00000000E+00  0.00000000E+00  0.00000000E+00
  0.00000000E+00  0.00000000E+00  0.00000000E+00
  0.00000000E+00  0.00000000E+00  0.00000000E+00
  0.00000000E+00  0.00000000E+00  0.00000000E+00
  0.00000000E+00  0.00000000E+00  0.00000000E+00
  0.00000000E+00  0.00000000E+00  0.00000000E+00
  0.00000000E+00  0.00000000E+00  0.00000000E+00
  0.00000000E+00  0.00000000E+00  0.00000000E+00
  0.00000000E+00  0.00000000E+00  0.00000000E+00
  0.00000000E+00  0.00000000E+00  0.00000000E+00
  0.00000000E+00  0.00000000E+00  0.00000000E+00
  0.00000000E+00  0.00000000E+00  0.00000000E+00
  0.00000000E+00  0.00000000E+00  0.00000000E+00
  0.00000000E+00  0.00000000E+00  0.00000000E+00
  0.00000000E+00  0.00000000E+00  0.00000000E+00
  0.00000000E+00  0.00000000E+00  0.00000000E+00
  0.00000000E+00  0.00000000E+00  0.00000000E+00
  0.00000000E+00  0.00000000E+00  0.00000000E+00
  0.00000000E+00  0.00000000E+00  0.00000000E+00
  0.00000000E+00  0.00000000E+00  0.00000000E+00
  0.00000000E+00  0.00000000E+00  0.00000000E+00
  0.00000000E+00  0.00000000E+00  0.00000000E+00
  0.00000000E+00  0.00000000E+00  0.00000000E+00
  0.00000000E+00  0.00000000E+00  0.00000000E+00
  0.00000000E+00  0.00000000E+00  0.00000000E+00
  0.00000000E+00  0.00000000E+00  0.00000000E+00
  0.00000000E+00  0.00000000E+00  0.00000000E+00
  0.00000000E+00  0.00000000E+00  0.00000000E+00
  0.00000000E+00  0.00000000E+00  0.00000000E+00
  0.00000000E+00  0.00000000E+00  0.00000000E+00
  0.00000000E+00  0.00000000E+00  0.00000000E+00
  0.00000000E+00  0.00000000E+00  0.00000000E+00
  0.00000000E+00  0.00000000E+00  0.00000000E+00
  0.00000000E+00  0.00000000E+00  0.00000000E+00
  0.00000000E+00  0.00000000E+00  0.00000000E+00
  0.00000000E+00  0.00000000E+00  0.00000000E+00
  0.00000000E+00  0.00000000E+00  0.00000000E+00
  0.00000000E+00  0.00000000E+00  0.00000000E+00
  0.00000000E+00  0.00000000E+00  0.00000000E+00
  0.00000000E+00  0.00000000E+00  0.00000000E+00
  0.00000000E+00  0.00000000E+00  0.00000000E+00
  0.00000000E+00  0.00000000E+00  0.00000000E+00
  0.00000000E+00  0.00000000E+00  0.00000000E+00
  0.00000000E+00  0.00000000E+00  0.00000000E+00
  0.00000000E+00  0.00000000E+00  0.00000000E+00
  0.00000000E+00  0.00000000E+00  0.00000000E+00
  0.00000000E+00  0.00000000E+00  0.00000000E+00
  0.00000000E+00  0.00000000E+00  0.00000000E+00
  0.00000000E+00  0.00000000E+00  0.00000000E+00
  0.00000000E+00  0.00000000E+00  0.00000000E+00
  0.00000000E+00  0.00000000E+00  0.00000000E+00
  0.00000000E+00  0.00000000E+00  0.00000000E+00
  0.00000000E+00  0.00000000E+00  0.00000000E+00
  0.00000000E+00  0.00000000E+00  0.00000000E+00
  0.00000000E+00  0.00000000E+00  0.00000000E+00
  0.00000000E+00  0.00000000E+00  0.00000000E+00
  0.00000000E+00  0.00000000E+00  0.00000000E+00
  0.00000000E+00  0.00000000E+00  0.00000000E+00
  0.00000000E+00  0.00000000E+00  0.00000000E+00
  0.00000000E+00  0.00000000E+00  0.00000000E+00
  0.00000000E+00  0.00000000E+00  0.00000000E+00
  0.00000000E+00  0.00000000E+00  0.00000000E+00
  0.00000000E+00  0.00000000E+00  0.00000000E+00
  0.00000000E+00  0.00000000E+00  0.00000000E+00
  0.00000000E+00  0.00000000E+00  0.00000000E+00
  0.00000000E+00  0.00000000E+00  0.00000000E+00
  0.00000000E+00  0.00000000E+00  0.00000000E+00
  0.00000000E+00  0.00000000E+00  0.00000000E+00
  0.00000000E+00  0.00000000E+00  0.00000000E+00
  0.00000000E+00  0.00000000E+00  0.00000000E+00
  0.00000000E+00  0.00000000E+00  0.00000000E+00
  0.00000000E+00  0.00000000E+00  0.00000000E+00
  0.00000000E+00  0.00000000E+00  0.00000000E+00
  0.00000000E+00  0.00000000E+00  0.00000000E+00
  0.00000000E+00  0.00000000E+00  0.00000000E+00
  0.00000000E+00  0.00000000E+00  0.00000000E+00
  0.00000000E+00  0.00000000E+00  0.00000000E+00
  0.00000000E+00  0.00000000E+00  0.00000000E+00
  0.00000000E+00  0.00000000E+00  0.00000000E+00
  0.00000000E+00  0.00000000E+00  0.00000000E+00
  0.00000000E+00  0.00000000E+00  0.00000000E+00
  0.00000000E+00  0.00000000E+00  0.00000000E+00
  0.00000000E+00  0.00000000E+00  0.00000000E+00
  0.00000000E+00  0.00000000E+00  0.00000000E+00
  0.00000000E+00  0.00000000E+00  0.00000000E+00
  0.00000000E+00  0.00000000E+00  0.00000000E+00
  0.00000000E+00  0.00000000E+00  0.00000000E+00
  0.00000000E+00  0.00000000E+00  0.00000000E+00
  0.00000000E+00  0.00000000E+00  0.00000000E+00
  0.00000000E+00  0.00000000E+00  0.00000000E+00
  0.00000000E+00  0.00000000E+00  0.00000000E+00
  0.00000000E+00  0.00000000E+00  0.00000000E+00
  0.00000000E+00  0.00000000E+00  0.00000000E+00
  0.00000000E+00  0.00000000E+00  0.00000000E+00
  0.00000000E+00  0.00000000E+00  0.00000000E+00
  0.00000000E+00  0.00000000E+00  0.00000000E+00
  0.00000000E+00  0.00000000E+00  0.00000000E+00
  0.00000000E+00  0.00000000E+00  0.00000000E+00
  0.00000000E+00  0.00000000E+00  0.00000000E+00
  0.00000000E+00  0.00000000E+00  0.00000000E+00
  0.00000000E+00  0.00000000E+00  0.00000000E+00
  0.00000000E+00  0.00000000E+00  0.00000000E+00
  0.00000000E+00  0.00000000E+00  0.00000000E+00
  0.00000000E+00  0.00000000E+00  0.00000000E+00
  0.00000000E+00  0.00000000E+00  0.00000000E+00
  0.00000000E+00  0.00000000E+00  0.00000000E+00
  0.00000000E+00  0.00000000E+00  0.00000000E+00
  0.00000000E+00  0.00000000E+00  0.00000000E+00
  0.00000000E+00  0.00000000E+00  0.00000000E+00
  0.00000000E+00  0.00000000E+00  0.00000000E+00
  0.00000000E+00  0.00000000E+00  0.00000000E+00
  0.00000000E+00  0.00000000E+00  0.00000000E+00
  0.00000000E+00  0.00000000E+00  0.00000000E+00
  0.00000000E+00  0.00000000E+00  0.00000000E+00
  0.00000000E+00  0.00000000E+00  0.00000000E+00
  0.00000000E+00  0.00000000E+00  0.00000000E+00
  0.00000000E+00  0.00000000E+00  0.00000000E+00
  0.00000000E+00  0.00000000E+00  0.00000000E+00
  0.00000000E+00  0.00000000E+00  0.00000000E+00
  0.00000000E+00  0.00000000E+00  0.00000000E+00
  0.00000000E+00  0.00000000E+00  0.00000000E+00
  0.00000000E+00  0.00000000E+00  0.00000000E+00
  0.00000000E+00  0.00000000E+00  0.00000000E+00
  0.00000000E+00  0.00000000E+00  0.00000000E+00
  0.00000000E+00  0.00000000E+00  0.00000000E+00
  0.00000000E+00  0.00000000E+00  0.00000000E+00
  0.00000000E+00  0.00000000E+00  0.00000000E+00
  0.00000000E+00  0.00000000E+00  0.00000000E+00
  0.00000000E+00  0.00000000E+00  0.00000000E+00
  0.00000000E+00  0.00000000E+00  0.00000000E+00
  0.00000000E+00  0.00000000E+00  0.00000000E+00
  0.00000000E+00  0.00000000E+00  0.00000000E+00
  0.00000000E+00  0.00000000E+00  0.00000000E+00
  0.00000000E+00  0.00000000E+00  0.00000000E+00
  0.00000000E+00  0.00000000E+00  0.00000000E+00
  0.00000000E+00  0.00000000E+00  0.00000000E+00
  0.00000000E+00  0.00000000E+00  0.00000000E+00
  0.00000000E+00  0.00000000E+00  0.00000000E+00
  0.00000000E+00  0.00000000E+00  0.00000000E+00
  0.00000000E+00  0.00000000E+00  0.00000000E+00
  0.00000000E+00  0.00000000E+00  0.00000000E+00
  0.00000000E+00  0.00000000E+00  0.00000000E+00
  0.00000000E+00  0.00000000E+00  0.00000000E+00
  0.00000000E+00  0.00000000E+00  0.00000000E+00
  0.00000000E+00  0.00000000E+00  0.00000000E+00
  0.00000000E+00  0.00000000E+00  0.00000000E+00
  0.00000000E+00  0.00000000E+00  0.00000000E+00
  0.00000000E+00  0.00000000E+00  0.00000000E+00
  0.00000000E+00  0.00000000E+00  0.00000000E+00
  0.00000000E+00  0.00000000E+00  0.00000000E+00
  0.00000000E+00  0.00000000E+00  0.00000000E+00
  0.00000000E+00  0.00000000E+00  0.00000000E+00
  0.00000000E+00  0.00000000E+00  0.00000000E+00
  0.00000000E+00  0.00000000E+00  0.00000000E+00
  0.00000000E+00  0.00000000E+00  0.00000000E+00
  0.00000000E+00  0.00000000E+00  0.00000000E+00
  0.00000000E+00  0.00000000E+00  0.00000000E+00
  0.00000000E+00  0.00000000E+00  0.00000000E+00
  0.00000000E+00  0.00000000E+00  0.00000000E+00
  0.00000000E+00  0.00000000E+00  0.00000000E+00
  0.00000000E+00  0.00000000E+00  0.00000000E+00
  0.00000000E+00  0.00000000E+00  0.00000000E+00
  0.00000000E+00  0.00000000E+00  0.00000000E+00
  0.00000000E+00  0.00000000E+00  0.00000000E+00
  0.00000000E+00  0.00000000E+00  0.00000000E+00
  0.00000000E+00  0.00000000E+00  0.00000000E+00
  0.00000000E+00  0.00000000E+00  0.00000000E+00
  0.00000000E+00  0.00000000E+00  0.00000000E+00
  0.00000000E+00  0.00000000E+00  0.00000000E+00
  0.00000000E+00  0.00000000E+00  0.00000000E+00
  0.00000000E+00  0.00000000E+00  0.00000000E+00
  0.00000000E+00  0.00000000E+00  0.00000000E+00
  0.00000000E+00  0.00000000E+00  0.00000000E+00
  0.00000000E+00  0.00000000E+00  0.00000000E+00
  0.00000000E+00  0.00000000E+00  0.00000000E+00
  0.00000000E+00  0.00000000E+00  0.00000000E+00
  0.00000000E+00  0.00000000E+00  0.00000000E+00
  0.00000000E+00  0.00000000E+00  0.00000000E+00
  0.00000000E+00  0.00000000E+00  0.00000000E+00
  0.00000000E+00  0.00000000E+00  0.00000000E+00
  0.00000000E+00  0.00000000E+00  0.00000000E+00
  0.00000000E+00  0.00000000E+00  0.00000000E+00
  0.00000000E+00  0.00000000E+00  0.00000000E+00
  0.00000000E+00  0.00000000E+00  0.00000000E+00
  0.00000000E+00  0.00000000E+00  0.00000000E+00
  0.00000000E+00  0.00000000E+00  0.00000000E+00
  0.00000000E+00  0.00000000E+00  0.00000000E+00
  0.00000000E+00  0.00000000E+00  0.00000000E+00
  0.00000000E+00  0.00000000E+00  0.00000000E+00
  0.00000000E+00  0.00000000E+00  0.00000000E+00
  0.00000000E+00  0.00000000E+00  0.00000000E+00
  0.00000000E+00  0.00000000E+00  0.00000000E+00
  0.00000000E+00  0.00000000E+00  0.00000000E+00
  0.00000000E+00  0.00000000E+00  0.00000000E+00
  0.00000000E+00  0.00000000E+00  0.00000000E+00
  0.00000000E+00  0.00000000E+00  0.00000000E+00
  0.00000000E+00  0.00000000E+00  0.00000000E+00
  0.00000000E+00  0.00000000E+00  0.00000000E+00
  0.00000000E+00  0.00000000E+00  0.00000000E+00
  0.00000000E+00  0.00000000E+00  0.00000000E+00
  0.00000000E+00  0.00000000E+00  0.00000000E+00
  0.00000000E+00  0.00000000E+00  0.00000000E+00
  0.00000000E+00  0.00000000E+00  0.00000000E+00
  0.00000000E+00  0.00000000E+00  0.00000000E+00
  0.00000000E+00  0.00000000E+00  0.00000000E+00
  0.00000000E+00  0.00000000E+00  0.00000000E+00
  0.00000000E+00  0.00000000E+00  0.00000000E+00
  0.00000000E+00  0.00000000E+00  0.00000000E+00
  0.00000000E+00  0.00000000E+00  0.00000000E+00
  0.00000000E+00  0.00000000E+00  0.00000000E+00
  0.00000000E+00  0.00000000E+00  0.00000000E+00
  0.00000000E+00  0.00000000E+00  0.00000000E+00
  0.00000000E+00  0.00000000E+00  0.00000000E+00
  0.00000000E+00  0.00000000E+00  0.00000000E+00
  0.00000000E+00  0.00000000E+00  0.00000000E+00
  0.00000000E+00  0.00000000E+00  0.00000000E+00
  0.00000000E+00  0.00000000E+00  0.00000000E+00
  0.00000000E+00  0.00000000E+00  0.00000000E+00
  0.00000000E+00  0.00000000E+00  0.00000000E+00
  0.00000000E+00  0.00000000E+00  0.00000000E+00
  0.00000000E+00  0.00000000E+00  0.00000000E+00
  0.00000000E+00  0.00000000E+00  0.00000000E+00
  0.00000000E+00  0.00000000E+00  0.00000000E+00
  0.00000000E+00  0.00000000E+00  0.00000000E+00
  0.00000000E+00  0.00000000E+00  0.00000000E+00
  0.00000000E+00  0.00000000E+00  0.00000000E+00
  0.00000000E+00  0.00000000E+00  0.00000000E+00
  0.00000000E+00  0.00000000E+00  0.00000000E+00
  0.00000000E+00  0.00000000E+00  0.00000000E+00
  0.00000000E+00  0.00000000E+00  0.00000000E+00
  0.00000000E+00  0.00000000E+00  0.00000000E+00
  0.00000000E+00  0.00000000E+00  0.00000000E+00