CuInSe2gb                               
   1.00000000000000     
     9.7266780392896699    0.0000000000000000    0.0000000000000000
     0.0000000000000000    8.4235502764570693    0.0000000000000000
     0.0000000000000000    0.0000000000000000   45.0000000000000000
   Fe   Mn
   274    14
Direct
  0.0625193629588689  0.0303525128771895  0.1242131777086899
  0.3164666657662555  0.8747611393713854  0.6549368036908697
  0.1838445539042169  0.1228768998073528  0.7885974112871653
  0.4414834904897209  0.2875741881959957  0.3890919152725645
  0.3180690254461488  0.7139105998909987  0.8331326365684191
  0.8179644556106418  0.2150076094696266  0.8336188992712553
  0.1917114014799120  0.9634371854488325  0.8335571468671725
  0.5622572286903235  0.2069186554566800  0.5655305382568092
  0.0654191600284390  0.0405748293447083  0.7440987782830843
  0.8110158803507226  0.8711560751007638  0.5213492103273391
  0.1905846961734805  0.2910008291203041  0.7443216221636763
  0.9336092696401841  0.4523260243834092  0.3449289643912742
  0.9414599395915041  0.2872086764644101  0.3888140288117534
  0.8127347383819608  0.0406715231656586  0.8757564663674164
  0.1836986177759763  0.7881131304921906  0.6108793127983492
  0.5664608477771660  0.0376868361737297  0.3890429559454207
  0.9426548640629463  0.9647862838204229  0.8338781789692363
  0.3133296074395853  0.5407438964250154  0.8760576782323211
  0.6901920311921173  0.2915488314384679  0.7442046651074629
  0.1822578805711058  0.6135882888784444  0.1667664102432422
  0.8122025064851128  0.2057752932148190  0.4786454677591687
  0.8088491826615061  0.5381585180402280  0.6110029022548259
  0.3117227525533887  0.8705419558823682  0.4344819267012133
  0.8092895166909888  0.0379388035174013  0.2559355238123210
  0.6826806726347232  0.9518092381464155  0.3447144344370713
  0.9312409395542918  0.1142932843641469  0.1669289794535861
  0.0620119136724526  0.8712282509830725  0.5212568729214889
  0.5582463627116526  0.5380243011181401  0.2555840658959666
  0.6844296221958915  0.7978116480657433  0.8758840680538621
  0.5559700755080640  0.3652493994119153  0.1665742162439233
  0.4396911260349257  0.7920636148610867  0.7444317957519198
  0.8113894537055332  0.7065458903044055  0.5655214628062147
  0.5593534827255935  0.8735991129104718  0.7885740021833030
  0.6867946263499544  0.1215639214146812  0.5213249321167928
  0.8164429639650265  0.3748688567161094  0.6549467016929941
  0.9420635112748751  0.4643061127599133  0.8337551463063725
  0.0606363733333840  0.2078986468795174  0.6997259744211412
  0.4353813847243517  0.9577966216496632  0.6997144725438693
  0.3169396577364519  0.2129248154967996  0.8334608899758270
  0.4414595043505480  0.6246694299412813  0.6549403524609001
  0.3089155377210562  0.5380181319367977  0.6109815926064595
  0.9365246058969949  0.4564994265286797  0.5655873578389932
  0.6901756906755739  0.7914614966911536  0.7442104898772464
  0.9347383690321477  0.7883029322693191  0.1244964352327471
  0.6914641115006068  0.7876316702222379  0.3890583906779406
  0.9403248470814362  0.7908579262530037  0.7444858250404036
  0.0587696923203620  0.2026196630754827  0.3449481795716718
  0.6836356136864650  0.4521397212093980  0.3449034445529728
  0.4342597170682456  0.1227221553760865  0.7889232925966555
  0.0657905678416850  0.2038259002217322  0.2112390344235443
  0.0554168555927152  0.3651959075722016  0.1667356624445868
  0.9335797007046014  0.7873958935049897  0.2557404283177871
  0.5607105759123087  0.2073951798876257  0.6997601045747077
  0.6851660034051482  0.9571868000203857  0.6997455694781760
  0.8088675928381623  0.8738364887871023  0.7883916720748199
  0.4367365556593849  0.9570742273349787  0.5654113616518542
  0.8090190627945513  0.3746486114803929  0.7884677023930046
  0.6837576860566749  0.2875428285383356  0.2558849636467594
  0.1872350182290233  0.4571566982550344  0.5655240643247492
  0.0564667333825087  0.8651364529842712  0.1668167533728768
  0.1839453979005677  0.2881111190322228  0.6109788323237346
  0.0624768214392351  0.2071067442342313  0.5654569140045720
  0.3107009639530863  0.2076139693686698  0.6998054057519542
  0.5625039011483746  0.5408093362042511  0.8759665593592683
  0.0621105715175450  0.7060144321818507  0.5656604928705169
  0.6834377400184866  0.6226319963865012  0.7885006669130268
  0.3160788888949697  0.5383456872465286  0.3889116032420157
  0.1868366446691827  0.6214108697806836  0.5213702267533947
  0.5628564677582907  0.8708644946148448  0.4343942808534918
  0.4367202554216825  0.4566211588673391  0.5655438620214212
  0.4398290648727328  0.2914653241555639  0.7442368065935794
  0.8210085816636769  0.8740204688612989  0.3002472955763245
  0.8086162997437467  0.7025182456457036  0.3449010976955819
  0.4422347817068745  0.4628993817233987  0.8333378382403320
  0.6874346550178323  0.9558103722695991  0.4787002961107284
  0.6851683834853896  0.4578385482476046  0.6996930099150944
  0.5620512076554341  0.8720891655740444  0.5214579783336022
  0.5661740257127318  0.3746294814395380  0.6549558859864619
  0.8162679429257351  0.8746468966361599  0.6549835148266384
  0.8119164284871175  0.3718107617672329  0.4342047121163911
  0.8086917368893685  0.5371081760783490  0.2558721672690196
  0.6920728057141738  0.4621048106570870  0.8332915967888430
  0.1863516537297425  0.7883128980838856  0.1241893414595855
  0.6912607910610592  0.2874038552442942  0.3889447194149405
  0.3161723133397444  0.3741965746305672  0.6549453632902797
  0.3091006387518434  0.2025864358240805  0.3447780384320828
  0.8157065842688028  0.5403615049816962  0.7441607205263414
  0.6915890333641316  0.9623089307038417  0.8334849150577989
  0.5658744127660623  0.8742032240612790  0.6549516591460856
  0.3111750822263485  0.7067506252885876  0.5654838640287539
  0.3120414860684326  0.5303367041520538  0.1241165861241864
  0.6904467475846223  0.9548741721124839  0.2117795969702354
  0.3113130346060858  0.2063798116101500  0.5654711262111991
  0.1875336280044606  0.9557545226496510  0.4787019609207862
  0.6873085917465624  0.9568336769407676  0.5655749065930260
  0.4338553793014203  0.7881759776098517  0.6109583599311350
  0.6829614319754287  0.6118854108211905  0.1664045879226295
  0.3190397482696606  0.8741582312529933  0.3002403936199498
  0.3123064423674300  0.7058029339861401  0.4786746144019487
  0.9336310772500743  0.2877145055053140  0.6108747906492527
  0.4460667179569793  0.6234079488878577  0.3001108296834941
  0.8072355386732774  0.8631100960781298  0.1668747687720402
  0.5668667303424386  0.2031190848274836  0.2114542925933271
  0.9327292309403098  0.6127626600467949  0.1667167999544054
  0.4374606596572033  0.9557211671338244  0.4786811158654829
  0.5590474785618651  0.3734008560204899  0.7886984004149925
  0.0614560982842201  0.3724351150708896  0.5214160953056505
  0.3070460633610020  0.3637271507927395  0.1666664684377107
  0.6956222161652101  0.1232444880988676  0.3002703578112134
  0.4426961930202866  0.9632279566578846  0.8333243393146618
  0.1849482737809179  0.2868345660994612  0.1242188804696175
  0.1839048487282741  0.2877758862169620  0.2559186415123907
  0.3125590930414270  0.3703483436319799  0.4344609308264580
  0.5627420832469479  0.0320988686965276  0.1243464859196770
  0.4339167968279468  0.2882472697535888  0.6109366572024392
  0.1835820783921042  0.4525090244715901  0.3449295076877062
  0.4340801050801832  0.2868295556668414  0.1242826146233877
  0.6830916854341170  0.7882478826510471  0.2558324913565806
  0.4367227018431359  0.1215390175410538  0.5213870414488920
  0.1883469256823571  0.2967793697132781  0.8761433566696166
  0.1912563779532062  0.1250317709522637  0.6551280321472258
  0.9412652943586586  0.1246825109398950  0.6549300520486648
  0.8163620198023525  0.5376638502610397  0.3889244081151783
  0.0664325222149648  0.0381462957769132  0.3891671981434818
  0.1827678488455456  0.1119784142294866  0.1665812891466951
  0.0587536321917018  0.5379253795500956  0.6109374966494344
  0.9339783676604178  0.2877900707431739  0.2558671859255408
  0.5587035981780810  0.5378458962632744  0.6109319147716360
  0.9369480683135462  0.9572855553444655  0.5652249562677198
  0.6950112307910009  0.6241890111732399  0.3001204374242112
  0.9374824164001520  0.6204021014026762  0.4344443655587308
  0.9332728382802178  0.6242833056960571  0.7883353651019820
  0.5606954310031802  0.7074336908020240  0.6996937834159184
  0.0660379838467803  0.7167697626972809  0.8339476115616089
  0.9453556732014624  0.1228593109698023  0.3000835583739616
  0.9338965119061348  0.7877124878281041  0.6108990273722644
  0.4326143299691252  0.7873946988648002  0.2556046036414241
  0.3092137930578925  0.3738927150262033  0.7886979911130122
  0.4404102633892780  0.4537688226839858  0.2113298511464149
  0.1865332607115116  0.1216337216930874  0.5213637371382053
  0.8105371127351935  0.7080368511509267  0.6996747706535008
  0.0588024660923482  0.0378508106155957  0.6108872998683543
  0.5660714200678030  0.2134356810196175  0.8332468314495489
  0.3115805689057836  0.8720214143964505  0.5214106221193755
  0.6862514426817596  0.2867468916876787  0.1240235660873931
  0.1904733327485351  0.9548790653029561  0.2117317203904582
  0.6836935873514698  0.2877784535678771  0.6109363689457630
  0.3086300428326072  0.0378922824001868  0.6109217881837855
  0.9342527809144856  0.1244289087657199  0.7885706739232862
  0.4365022247628509  0.7975226979157010  0.8761724637552090
  0.8154326294470372  0.0408890293556638  0.7441998442524417
  0.9352878060184178  0.4580775227102278  0.6996742787495331
  0.1912748811940640  0.6248676247800392  0.6550146456957273
  0.3106105127523536  0.7070639161715568  0.6997747878752943
  0.9341066410211809  0.2868904279538355  0.1242033876059179
  0.4372363207803045  0.4557189164828627  0.4785413059672637
  0.0620172383219772  0.7051799574634589  0.4784448995128396
  0.9369937485403489  0.1195181714277664  0.4346932523369656
  0.4444123915924716  0.1232297232046675  0.3002930907526577
  0.1866880786138061  0.1199477879953221  0.4342215903126634
  0.5625426169276815  0.0406398886342569  0.8760055581101520
  0.1872351385448382  0.9570982387463953  0.5655511919800261
  0.6846038009203173  0.7877800708972494  0.1245598904213518
  0.5590507261650004  0.7025751094654967  0.3450027883530337
  0.3162856951412643  0.0371745736229690  0.3888179978396816
  0.6823648242180915  0.1136408150724103  0.1667589946298285
  0.8159494305686903  0.2033352404187165  0.2113339420025908
  0.0590533930466365  0.5370590403991545  0.2557702284578385
  0.5624991737715369  0.7059277577604299  0.4786969584945839
  0.4349150073197088  0.7870356977805049  0.1243161022023724
  0.5694849848482851  0.3727163823027578  0.3001878128903551
  0.4336091015505796  0.9525847707615287  0.3449325590253429
  0.1851547151102153  0.9579745616662384  0.6997610208080878
  0.4317562478694594  0.6123424793790067  0.1664821072259066
  0.9401595695296763  0.4545229890338624  0.2117444296694360
  0.0623438988488991  0.5304342367303575  0.1242006848328327
  0.8119493839742625  0.3723029700057316  0.5214021495113748
  0.9447154352422875  0.6235294652293060  0.2998921542538578
  0.3086393608481395  0.0373423382586917  0.2558159558209339
  0.6837140125398316  0.7878955867425887  0.6109009046068244
  0.1917174125226733  0.4634915457830782  0.8334219780846379
  0.4326497113600293  0.1120618095984183  0.1666362609236222
  0.3117113843173731  0.3719005295641333  0.5213952913496690
  0.4332163195677720  0.6226490014935701  0.7889126760144022
  0.0587777326412519  0.0373171811645170  0.2557574511933128
  0.5622922215866663  0.7070798411789877  0.5655124534479543
  0.9395096530623439  0.2909395329338945  0.7444924153723623
  0.6822883281470359  0.1227320930228052  0.7885479322770462
  0.1900623879624882  0.4538325960149854  0.2113533433551427
  0.9410504297119957  0.7882445008551063  0.3889122898451102
  0.6856117573720526  0.2991993981266798  0.8759989802828984
  0.5563847337456594  0.8626396870343606  0.1665344702124388
  0.4356446105980255  0.4577924346634504  0.6997262964845685
  0.9341415248625800  0.9514844689197842  0.3448455025676565
  0.6864731953449986  0.6214407315845804  0.5212674029594463
  0.0662644535399568  0.8747790500795676  0.6549232787837866
  0.0590876873981460  0.8738107089929545  0.7884609110774182
  0.0662935635798199  0.3747975053759798  0.6549418450516685
  0.6867130503427005  0.4556059130794624  0.4786771458096110
  0.1833353543120328  0.7873492385359603  0.2556075867754840
  0.4368626043347840  0.1205686915528486  0.4344163606582073
  0.8136662191468922  0.0313244752983057  0.1241789669355278
  0.9367643160410291  0.6218600994023078  0.5214301872959787
  0.4414544043177864  0.1246409369982246  0.6549416986439900
  0.8130380805317901  0.5302198783671735  0.1241603419557737
  0.4336745706735126  0.4523663090938368  0.3449602305367460
  0.8088011751144896  0.2024696669765176  0.3448890473360389
  0.3089830005318834  0.7013784331453788  0.3448255488277251
  0.6912577751257224  0.1250000027984614  0.6549884232797597
  0.5697616175263802  0.8739419678609817  0.3002146077291415
  0.0654493756035814  0.5407802640994865  0.7443339921872204
  0.9405974440090932  0.9540377187583681  0.2113784099641343
  0.8164029718218876  0.7036135459778959  0.2115148017310141
  0.0705696736633948  0.8733210561297206  0.3001666395063065
  0.1951982831508338  0.1233881923777656  0.3001565256792361
  0.0586713890683607  0.7020305043598104  0.3448662737045569
  0.8089108239101941  0.0382888035056920  0.6109747504982418
  0.0625655696750593  0.3719902611132833  0.4342889877598164
  0.5587250540650897  0.2028561479922013  0.3447510599129524
  0.8201310283377687  0.3739781507726285  0.3001334083672189
  0.5595708928302555  0.0373421356930936  0.2554826626315114
  0.5664344388301752  0.5377213405321013  0.3890436811974780
  0.0627380866571621  0.2058527291161352  0.4786150650940978
  0.3103722740039259  0.8728006626694943  0.7884087507530289
  0.9353299275773914  0.9581594774550237  0.6996872916937534
  0.0692468454984252  0.3738456493630389  0.3000368129599372
  0.6911919195403505  0.6247474045084869  0.6551797904760452
  0.6868445907283971  0.4569675865182023  0.5654116902074404
  0.4417293154720338  0.9549516146814246  0.2119894923310125
  0.3123968083234294  0.2056006586831479  0.4786889425810869
  0.8122254628470673  0.5402946399021343  0.8758421251930709
  0.6877801602873362  0.6205215729843406  0.4344388371721013
  0.8108553862540605  0.2077234904337178  0.6998220690014254
  0.8127661421943959  0.7053599385821938  0.4785575362045039
  0.8106999019339791  0.8708662800288511  0.4342177942567861
  0.3152146948092764  0.7042499003008950  0.2116873217023956
  0.5623445852058178  0.2056962686884751  0.4786648926161086
  0.1876266824189159  0.6194871058848083  0.4344363703193339
  0.3150718069177333  0.0415475729818268  0.7440135623249271
  0.9413026288896800  0.6249279715279134  0.6549345761923899
  0.5662490829754212  0.7134792071062428  0.8333018239671784
  0.3205822195889071  0.3728311766274073  0.3000677478967206
  0.3151024347635709  0.5415124572484437  0.7442397890955054
  0.1874789333094370  0.4557036621992683  0.4786873619396742
  0.3142814978551871  0.0412139563717032  0.8758803784473512
  0.1851963556402538  0.4582152498514125  0.6996710306425232
  0.5616664449207808  0.3716136876760099  0.5214221510778912
  0.1910468134290830  0.2876060574896755  0.3888512120544120
  0.3156574841239247  0.2036543318633429  0.2113345673313114
  0.0667899386930772  0.7032349676229080  0.2112828339444369
  0.5618094773015641  0.3708947608042973  0.4343496871897183
  0.4367529459707601  0.6220503510214658  0.5213901894167093
  0.8170250146718278  0.7156562962530222  0.8333087133157785
  0.0591350002177452  0.3742793973729080  0.7884471824394597
  0.4364131675382542  0.2983390284294825  0.8763190556739022
  0.3117888972262770  0.0304875976416134  0.1242200218604163
  0.6880515217528471  0.1202375726944601  0.4342761889288357
  0.1837800616849752  0.9519402344753742  0.3449131403118451
  0.0669570870276625  0.2151128989940075  0.8339627804552117
  0.5591556390270317  0.0386960679674941  0.6110689561651913
  0.6896799795960842  0.4545043611281280  0.2118698113900186
  0.1896479444124263  0.7915807447261555  0.7443557196013830
  0.1954960727443690  0.6229954455444340  0.3002530221659262
  0.4414343375689053  0.7877860275507458  0.3890754127492386
  0.4330763331076160  0.2878396901907240  0.2556878741408831
  0.0633022027704543  0.5407448843431458  0.8758502138426134
  0.5654701920538977  0.0414887927281060  0.7441912361031224
  0.1878057196363145  0.7972538405224681  0.8760319051085617
  0.9372829864633078  0.4557668695086241  0.4786241679432386
  0.5650919649509882  0.5413029172624901  0.7440829248982912
  0.8113066773515124  0.2072623060848350  0.5655275607361689
  0.1845932637085540  0.6225175367350113  0.7884828214192906
  0.0674847737998953  0.5387128063175608  0.3890179146004027
  0.0606729483473697  0.7076935148200078  0.6997030702058418
  0.3081890289475654  0.5370106281935011  0.2558006090637382
  0.9373787971749069  0.9554037396788111  0.4785743532444227
  0.3055865861388805  0.8647582637754565  0.1661038741015682
  0.4367442520462891  0.6207651291587669  0.4344080539849887
  0.8181429339040664  0.0390239850418725  0.3890907434372579
  0.9348939782852116  0.2980618448503087  0.8755351452046534
  0.9370470879073609  0.7955866899977828  0.8755634084972407
  0.0654635770903761  0.0388143257962344  0.8757728161680648
  0.5620635231428334  0.5292932513507685  0.1246192824829645
  0.8051128892942664  0.3655446619707157  0.1659922327144312
  0.0633787180548974  0.8710084689152912  0.4342797090468641
  0.9365558660214232  0.1217888296607466  0.5214702887002904
  0.1928884897100614  0.7880105772918691  0.3889524542358455
  0.5659551658731407  0.7039347242113064  0.2120800609645639
 
  0.00000000E+00  0.00000000E+00  0.00000000E+00
  0.00000000E+00  0.00000000E+00  0.00000000E+00
  0.00000000E+00  0.00000000E+00  0.00000000E+00
  0.00000000E+00  0.00000000E+00  0.00000000E+00
  0.00000000E+00  0.00000000E+00  0.00000000E+00
  0.00000000E+00  0.00000000E+00  0.00000000E+00
  0.00000000E+00  0.00000000E+00  0.00000000E+00
  0.00000000E+00  0.00000000E+00  0.00000000E+00
  0.00000000E+00  0.00000000E+00  0.00000000E+00
  0.00000000E+00  0.00000000E+00  0.00000000E+00
  0.00000000E+00  0.00000000E+00  0.00000000E+00
  0.00000000E+00  0.00000000E+00  0.00000000E+00
  0.00000000E+00  0.00000000E+00  0.00000000E+00
  0.00000000E+00  0.00000000E+00  0.00000000E+00
  0.00000000E+00  0.00000000E+00  0.00000000E+00
  0.00000000E+00  0.00000000E+00  0.00000000E+00
  0.00000000E+00  0.00000000E+00  0.00000000E+00
  0.00000000E+00  0.00000000E+00  0.00000000E+00
  0.00000000E+00  0.00000000E+00  0.00000000E+00
  0.00000000E+00  0.00000000E+00  0.00000000E+00
  0.00000000E+00  0.00000000E+00  0.00000000E+00
  0.00000000E+00  0.00000000E+00  0.00000000E+00
  0.00000000E+00  0.00000000E+00  0.00000000E+00
  0.00000000E+00  0.00000000E+00  0.00000000E+00
  0.00000000E+00  0.00000000E+00  0.00000000E+00
  0.00000000E+00  0.00000000E+00  0.00000000E+00
  0.00000000E+00  0.00000000E+00  0.00000000E+00
  0.00000000E+00  0.00000000E+00  0.00000000E+00
  0.00000000E+00  0.00000000E+00  0.00000000E+00
  0.00000000E+00  0.00000000E+00  0.00000000E+00
  0.00000000E+00  0.00000000E+00  0.00000000E+00
  0.00000000E+00  0.00000000E+00  0.00000000E+00
  0.00000000E+00  0.00000000E+00  0.00000000E+00
  0.00000000E+00  0.00000000E+00  0.00000000E+00
  0.00000000E+00  0.00000000E+00  0.00000000E+00
  0.00000000E+00  0.00000000E+00  0.00000000E+00
  0.00000000E+00  0.00000000E+00  0.00000000E+00
  0.00000000E+00  0.00000000E+00  0.00000000E+00
  0.00000000E+00  0.00000000E+00  0.00000000E+00
  0.00000000E+00  0.00000000E+00  0.00000000E+00
  0.00000000E+00  0.00000000E+00  0.00000000E+00
  0.00000000E+00  0.00000000E+00  0.00000000E+00
  0.00000000E+00  0.00000000E+00  0.00000000E+00
  0.00000000E+00  0.00000000E+00  0.00000000E+00
  0.00000000E+00  0.00000000E+00  0.00000000E+00
  0.00000000E+00  0.00000000E+00  0.00000000E+00
  0.00000000E+00  0.00000000E+00  0.00000000E+00
  0.00000000E+00  0.00000000E+00  0.00000000E+00
  0.00000000E+00  0.00000000E+00  0.00000000E+00
  0.00000000E+00  0.00000000E+00  0.00000000E+00
  0.00000000E+00  0.00000000E+00  0.00000000E+00
  0.00000000E+00  0.00000000E+00  0.00000000E+00
  0.00000000E+00  0.00000000E+00  0.00000000E+00
  0.00000000E+00  0.00000000E+00  0.00000000E+00
  0.00000000E+00  0.00000000E+00  0.00000000E+00
  0.00000000E+00  0.00000000E+00  0.00000000E+00
  0.00000000E+00  0.00000000E+00  0.00000000E+00
  0.00000000E+00  0.00000000E+00  0.00000000E+00
  0.00000000E+00  0.00000000E+00  0.00000000E+00
  0.00000000E+00  0.00000000E+00  0.00000000E+00
  0.00000000E+00  0.00000000E+00  0.00000000E+00
  0.00000000E+00  0.00000000E+00  0.00000000E+00
  0.00000000E+00  0.00000000E+00  0.00000000E+00
  0.00000000E+00  0.00000000E+00  0.00000000E+00
  0.00000000E+00  0.00000000E+00  0.00000000E+00
  0.00000000E+00  0.00000000E+00  0.00000000E+00
  0.00000000E+00  0.00000000E+00  0.00000000E+00
  0.00000000E+00  0.00000000E+00  0.00000000E+00
  0.00000000E+00  0.00000000E+00  0.00000000E+00
  0.00000000E+00  0.00000000E+00  0.00000000E+00
  0.00000000E+00  0.00000000E+00  0.00000000E+00
  0.00000000E+00  0.00000000E+00  0.00000000E+00
  0.00000000E+00  0.00000000E+00  0.00000000E+00
  0.00000000E+00  0.00000000E+00  0.00000000E+00
  0.00000000E+00  0.00000000E+00  0.00000000E+00
  0.00000000E+00  0.00000000E+00  0.00000000E+00
  0.00000000E+00  0.00000000E+00  0.00000000E+00
  0.00000000E+00  0.00000000E+00  0.00000000E+00
  0.00000000E+00  0.00000000E+00  0.00000000E+00
  0.00000000E+00  0.00000000E+00  0.00000000E+00
  0.00000000E+00  0.00000000E+00  0.00000000E+00
  0.00000000E+00  0.00000000E+00  0.00000000E+00
  0.00000000E+00  0.00000000E+00  0.00000000E+00
  0.00000000E+00  0.00000000E+00  0.00000000E+00
  0.00000000E+00  0.00000000E+00  0.00000000E+00
  0.00000000E+00  0.00000000E+00  0.00000000E+00
  0.00000000E+00  0.00000000E+00  0.00000000E+00
  0.00000000E+00  0.00000000E+00  0.00000000E+00
  0.00000000E+00  0.00000000E+00  0.00000000E+00
  0.00000000E+00  0.00000000E+00  0.00000000E+00
  0.00000000E+00  0.00000000E+00  0.00000000E+00
  0.00000000E+00  0.00000000E+00  0.00000000E+00
  0.00000000E+00  0.00000000E+00  0.00000000E+00
  0.00000000E+00  0.00000000E+00  0.00000000E+00
  0.00000000E+00  0.00000000E+00  0.00000000E+00
  0.00000000E+00  0.00000000E+00  0.00000000E+00
  0.00000000E+00  0.00000000E+00  0.00000000E+00
  0.00000000E+00  0.00000000E+00  0.00000000E+00
  0.00000000E+00  0.00000000E+00  0.00000000E+00
  0.00000000E+00  0.00000000E+00  0.00000000E+00
  0.00000000E+00  0.00000000E+00  0.00000000E+00
  0.00000000E+00  0.00000000E+00  0.00000000E+00
  0.00000000E+00  0.00000000E+00  0.00000000E+00
  0.00000000E+00  0.00000000E+00  0.00000000E+00
  0.00000000E+00  0.00000000E+00  0.00000000E+00
  0.00000000E+00  0.00000000E+00  0.00000000E+00
  0.00000000E+00  0.00000000E+00  0.00000000E+00
  0.00000000E+00  0.00000000E+00  0.00000000E+00
  0.00000000E+00  0.00000000E+00  0.00000000E+00
  0.00000000E+00  0.00000000E+00  0.00000000E+00
  0.00000000E+00  0.00000000E+00  0.00000000E+00
  0.00000000E+00  0.00000000E+00  0.00000000E+00
  0.00000000E+00  0.00000000E+00  0.00000000E+00
  0.00000000E+00  0.00000000E+00  0.00000000E+00
  0.00000000E+00  0.00000000E+00  0.00000000E+00
  0.00000000E+00  0.00000000E+00  0.00000000E+00
  0.00000000E+00  0.00000000E+00  0.00000000E+00
  0.00000000E+00  0.00000000E+00  0.00000000E+00
  0.00000000E+00  0.00000000E+00  0.00000000E+00
  0.00000000E+00  0.00000000E+00  0.00000000E+00
  0.00000000E+00  0.00000000E+00  0.00000000E+00
  0.00000000E+00  0.00000000E+00  0.00000000E+00
  0.00000000E+00  0.00000000E+00  0.00000000E+00
  0.00000000E+00  0.00000000E+00  0.00000000E+00
  0.00000000E+00  0.00000000E+00  0.00000000E+00
  0.00000000E+00  0.00000000E+00  0.00000000E+00
  0.00000000E+00  0.00000000E+00  0.00000000E+00
  0.00000000E+00  0.00000000E+00  0.00000000E+00
  0.00000000E+00  0.00000000E+00  0.00000000E+00
  0.00000000E+00  0.00000000E+00  0.00000000E+00
  0.00000000E+00  0.00000000E+00  0.00000000E+00
  0.00000000E+00  0.00000000E+00  0.00000000E+00
  0.00000000E+00  0.00000000E+00  0.00000000E+00
  0.00000000E+00  0.00000000E+00  0.00000000E+00
  0.00000000E+00  0.00000000E+00  0.00000000E+00
  0.00000000E+00  0.00000000E+00  0.00000000E+00
  0.00000000E+00  0.00000000E+00  0.00000000E+00
  0.00000000E+00  0.00000000E+00  0.00000000E+00
  0.00000000E+00  0.00000000E+00  0.00000000E+00
  0.00000000E+00  0.00000000E+00  0.00000000E+00
  0.00000000E+00  0.00000000E+00  0.00000000E+00
  0.00000000E+00  0.00000000E+00  0.00000000E+00
  0.00000000E+00  0.00000000E+00  0.00000000E+00
  0.00000000E+00  0.00000000E+00  0.00000000E+00
  0.00000000E+00  0.00000000E+00  0.00000000E+00
  0.00000000E+00  0.00000000E+00  0.00000000E+00
  0.00000000E+00  0.00000000E+00  0.00000000E+00
  0.00000000E+00  0.00000000E+00  0.00000000E+00
  0.00000000E+00  0.00000000E+00  0.00000000E+00
  0.00000000E+00  0.00000000E+00  0.00000000E+00
  0.00000000E+00  0.00000000E+00  0.00000000E+00
  0.00000000E+00  0.00000000E+00  0.00000000E+00
  0.00000000E+00  0.00000000E+00  0.00000000E+00
  0.00000000E+00  0.00000000E+00  0.00000000E+00
  0.00000000E+00  0.00000000E+00  0.00000000E+00
  0.00000000E+00  0.00000000E+00  0.00000000E+00
  0.00000000E+00  0.00000000E+00  0.00000000E+00
  0.00000000E+00  0.00000000E+00  0.00000000E+00
  0.00000000E+00  0.00000000E+00  0.00000000E+00
  0.00000000E+00  0.00000000E+00  0.00000000E+00
  0.00000000E+00  0.00000000E+00  0.00000000E+00
  0.00000000E+00  0.00000000E+00  0.00000000E+00
  0.00000000E+00  0.00000000E+00  0.00000000E+00
  0.00000000E+00  0.00000000E+00  0.00000000E+00
  0.00000000E+00  0.00000000E+00  0.00000000E+00
  0.00000000E+00  0.00000000E+00  0.00000000E+00
  0.00000000E+00  0.00000000E+00  0.00000000E+00
  0.00000000E+00  0.00000000E+00  0.00000000E+00
  0.00000000E+00  0.00000000E+00  0.00000000E+00
  0.00000000E+00  0.00000000E+00  0.00000000E+00
  0.00000000E+00  0.00000000E+00  0.00000000E+00
  0.00000000E+00  0.00000000E+00  0.00000000E+00
  0.00000000E+00  0.00000000E+00  0.00000000E+00
  0.00000000E+00  0.00000000E+00  0.00000000E+00
  0.00000000E+00  0.00000000E+00  0.00000000E+00
  0.00000000E+00  0.00000000E+00  0.00000000E+00
  0.00000000E+00  0.00000000E+00  0.00000000E+00
  0.00000000E+00  0.00000000E+00  0.00000000E+00
  0.00000000E+00  0.00000000E+00  0.00000000E+00
  0.00000000E+00  0.00000000E+00  0.00000000E+00
  0.00000000E+00  0.00000000E+00  0.00000000E+00
  0.00000000E+00  0.00000000E+00  0.00000000E+00
  0.00000000E+00  0.00000000E+00  0.00000000E+00
  0.00000000E+00  0.00000000E+00  0.00000000E+00
  0.00000000E+00  0.00000000E+00  0.00000000E+00
  0.00000000E+00  0.00000000E+00  0.00000000E+00
  0.00000000E+00  0.00000000E+00  0.00000000E+00
  0.00000000E+00  0.00000000E+00  0.00000000E+00
  0.00000000E+00  0.00000000E+00  0.00000000E+00
  0.00000000E+00  0.00000000E+00  0.00000000E+00
  0.00000000E+00  0.00000000E+00  0.00000000E+00
  0.00000000E+00  0.00000000E+00  0.00000000E+00
  0.00000000E+00  0.00000000E+00  0.00000000E+00
  0.00000000E+00  0.00000000E+00  0.00000000E+00
  0.00000000E+00  0.00000000E+00  0.00000000E+00
  0.00000000E+00  0.00000000E+00  0.00000000E+00
  0.00000000E+00  0.00000000E+00  0.00000000E+00
  0.00000000E+00  0.00000000E+00  0.00000000E+00
  0.00000000E+00  0.00000000E+00  0.00000000E+00
  0.00000000E+00  0.00000000E+00  0.00000000E+00
  0.00000000E+00  0.00000000E+00  0.00000000E+00
  0.00000000E+00  0.00000000E+00  0.00000000E+00
  0.00000000E+00  0.00000000E+00  0.00000000E+00
  0.00000000E+00  0.00000000E+00  0.00000000E+00
  0.00000000E+00  0.00000000E+00  0.00000000E+00
  0.00000000E+00  0.00000000E+00  0.00000000E+00
  0.00000000E+00  0.00000000E+00  0.00000000E+00
  0.00000000E+00  0.00000000E+00  0.00000000E+00
  0.00000000E+00  0.00000000E+00  0.00000000E+00
  0.00000000E+00  0.00000000E+00  0.00000000E+00
  0.00000000E+00  0.00000000E+00  0.00000000E+00
  0.00000000E+00  0.00000000E+00  0.00000000E+00
  0.00000000E+00  0.00000000E+00  0.00000000E+00
  0.00000000E+00  0.00000000E+00  0.00000000E+00
  0.00000000E+00  0.00000000E+00  0.00000000E+00
  0.00000000E+00  0.00000000E+00  0.00000000E+00
  0.00000000E+00  0.00000000E+00  0.00000000E+00
  0.00000000E+00  0.00000000E+00  0.00000000E+00
  0.00000000E+00  0.00000000E+00  0.00000000E+00
  0.00000000E+00  0.00000000E+00  0.00000000E+00
  0.00000000E+00  0.00000000E+00  0.00000000E+00
  0.00000000E+00  0.00000000E+00  0.00000000E+00
  0.00000000E+00  0.00000000E+00  0.00000000E+00
  0.00000000E+00  0.00000000E+00  0.00000000E+00
  0.00000000E+00  0.00000000E+00  0.00000000E+00
  0.00000000E+00  0.00000000E+00  0.00000000E+00
  0.00000000E+00  0.00000000E+00  0.00000000E+00
  0.00000000E+00  0.00000000E+00  0.00000000E+00
  0.00000000E+00  0.00000000E+00  0.00000000E+00
  0.00000000E+00  0.00000000E+00  0.00000000E+00
  0.00000000E+00  0.00000000E+00  0.00000000E+00
  0.00000000E+00  0.00000000E+00  0.00000000E+00
  0.00000000E+00  0.00000000E+00  0.00000000E+00
  0.00000000E+00  0.00000000E+00  0.00000000E+00
  0.00000000E+00  0.00000000E+00  0.00000000E+00
  0.00000000E+00  0.00000000E+00  0.00000000E+00
  0.00000000E+00  0.00000000E+00  0.00000000E+00
  0.00000000E+00  0.00000000E+00  0.00000000E+00
  0.00000000E+00  0.00000000E+00  0.00000000E+00
  0.00000000E+00  0.00000000E+00  0.00000000E+00
  0.00000000E+00  0.00000000E+00  0.00000000E+00
  0.00000000E+00  0.00000000E+00  0.00000000E+00
  0.00000000E+00  0.00000000E+00  0.00000000E+00
  0.00000000E+00  0.00000000E+00  0.00000000E+00
  0.00000000E+00  0.00000000E+00  0.00000000E+00
  0.00000000E+00  0.00000000E+00  0.00000000E+00
  0.00000000E+00  0.00000000E+00  0.00000000E+00