CuInSe2gb                               
   1.00000000000000     
     9.7266780392896699    0.0000000000000000    0.0000000000000000
     0.0000000000000000    8.4235502764570693    0.0000000000000000
     0.0000000000000000    0.0000000000000000   45.0000000000000000
   Fe   Mn
   281     7
Direct
  0.0637531946215888  0.0359117720295839  0.1262635497941670
  0.3130490922336977  0.8707055884221948  0.6538700877399951
  0.1866616035069592  0.1179112882324591  0.7865358560115170
  0.4408232428396863  0.2912571292934475  0.3895806411988011
  0.3132515438616673  0.7055515096798093  0.8309883051800567
  0.8123384078366555  0.2054589874870977  0.8317939736919212
  0.1870530886591229  0.9557697847585989  0.8315462852177380
  0.5624902353687121  0.2079551983567237  0.5651100116103666
  0.0606595534079113  0.0369238397052457  0.7417301625244352
  0.8138877803239394  0.8717087046248658  0.5210056284245224
  0.1876589421472646  0.2877546867538482  0.7417469395698312
  0.9362020667103218  0.4567881314884106  0.3453146942000671
  0.9340800858722988  0.2907029440534284  0.3892281562869626
  0.8107997678068454  0.0386846254548576  0.8747155477992808
  0.1874447786364810  0.7873403739700784  0.6101159688092740
  0.5652284879668019  0.0423980211960660  0.3896218115924914
  0.9368693051918072  0.9570512733748778  0.8322610043921120
  0.3141650543906671  0.5392269806912162  0.8749863465047730
  0.6875477123488335  0.2872507922668907  0.7417977184390415
  0.1881950038555347  0.6207349862314974  0.1691040204296603
  0.8116569341208139  0.2064773344616736  0.4782168021037718
  0.8130062610220824  0.5367557220924511  0.6100749297547240
  0.3119541073062269  0.8725816838068101  0.4345555465607055
  0.8130106958304253  0.0409458372755445  0.2584540701600191
  0.6896395523963528  0.9575850231956409  0.3459352000771382
  0.9370505343857669  0.1204118792617980  0.1685702658966440
  0.9381486925254747  0.1202375775621349  0.5212024438704926
  0.5629161185145212  0.5413285853766057  0.2583170969625683
  0.6870765762376387  0.7880230477609522  0.8747926885366299
  0.5626015484889357  0.3699141057218225  0.1688392791457398
  0.4372200642220077  0.7871537425676420  0.7417644078176634
  0.8123400938458749  0.7066837736485391  0.5653652884264906
  0.5630461409654869  0.8675128436879019  0.7864127419126669
  0.6868004438475040  0.1221507853811026  0.5212511295917350
  0.8132771957602080  0.3696203796607189  0.6536998648321110
  0.9366800307275402  0.4565087351658753  0.8315762708133363
  0.0626273510030456  0.2030196200947019  0.6981785550050685
  0.4369603878215017  0.9528541959746870  0.6978096942871236
  0.3120148277612185  0.2051682331103363  0.8312239517963659
  0.4382425486260259  0.6217364563337235  0.6539702933089500
  0.3121222558149843  0.5368340382336569  0.6098697695664789
  0.9370842856083413  0.4563080709179241  0.5653880477887854
  0.6887145322060400  0.7872696429143284  0.7419678778253804
  0.9385157128802102  0.7936333360752659  0.1261002904618461
  0.6879854813754958  0.7908059289671062  0.3895696232540475
  0.9385921450206958  0.7868344670346986  0.7418469273775880
  0.0593937013522933  0.2076597212787520  0.3450141403890946
  0.8106287163618062  0.0417577257405787  0.3894368133101462
  0.4378918858979431  0.1176023848482312  0.7864407694634968
  0.0621847653024944  0.2087891532074081  0.2136303045776026
  0.0621593653548047  0.3699833384398776  0.1687731364044232
  0.9377925412153578  0.7901155497231069  0.2586164649805479
  0.5621127600096734  0.2035234089994388  0.6982091914613645
  0.6868297232080611  0.9529155381587608  0.6981141419010262
  0.4369333266654695  0.7928352730163927  0.1262712497713582
  0.4373151905917240  0.9573684243417449  0.5652943943055957
  0.8127876008279011  0.3678627588921182  0.7864457961483444
  0.6884295803336237  0.2907580671229971  0.2583061157344853
  0.1886649749565021  0.4565359586677885  0.5652612415129528
  0.0632094310073702  0.8707630636762949  0.1688495814978098
  0.1884822666920789  0.2871565499471252  0.6100660334768997
  0.5642165788761930  0.7067099256752644  0.3459337710186896
  0.3124151913880398  0.2041815938309259  0.6981888932457431
  0.5628690089212590  0.5384710606183798  0.8749003512632054
  0.0633871583968150  0.7076819037991802  0.5650721836895107
  0.6881613876548037  0.6168825511613897  0.7861571855941611
  0.3120843831981246  0.5433696642243989  0.3897963857472606
  0.1871805336594415  0.6219179073307906  0.5210109571153742
  0.5642319431877750  0.8740581887487604  0.4341850357596320
  0.4374526872135560  0.4564281182516407  0.5652046983747141
  0.4361473152760128  0.2876727203372111  0.7417274961093526
  0.8128800953339472  0.8727924628524362  0.3019937032520751
  0.8132730958066574  0.7065512558408749  0.3455427911056794
  0.4381570224142344  0.4560869896534817  0.8313581907263754
  0.6884805241519997  0.9561550021444487  0.4781426875845263
  0.6875967156120014  0.4539090292068226  0.6980662986437991
  0.5624976636022393  0.8715355757143355  0.5213923425685461
  0.5630905123513336  0.3699219197950351  0.6535625776928581
  0.8126052799824138  0.8702677345328473  0.6536953728389667
  0.8105875077184612  0.3735702004772192  0.4342050736610849
  0.8127892932300160  0.5415760212646133  0.2586664284014051
  0.6880138535477789  0.4558524948774902  0.8316833415213125
  0.1876674224448923  0.7918460079798990  0.1262697460646860
  0.6879498529362841  0.2908864652475281  0.3893757901650508
  0.3129560642827109  0.3700246759807524  0.6536547037114423
  0.3123276832926312  0.2075701681861996  0.3455413534150990
  0.8126995060484021  0.5383961392975677  0.7420911449608115
  0.6880323115752391  0.9554578261411002  0.8317957921162732
  0.5616363571195259  0.8707795783156473  0.6537530988043070
  0.3123729504952862  0.7068571399991477  0.5653250182398339
  0.3111287855851756  0.5355372902808199  0.1262824652171621
  0.6876750212913834  0.9587589772237793  0.2136351228120057
  0.3133996365953436  0.2073962435878410  0.5653189464596525
  0.1856894841767961  0.9540496493208199  0.4786707544751374
  0.6873247141572210  0.9576638216723402  0.5653128639967923
  0.4381762373226555  0.7873020547831326  0.6100460970689062
  0.6875463535535036  0.6190893548519177  0.1686185751615535
  0.3116880969547456  0.8731119142481928  0.3015993812611511
  0.3115245463011717  0.7054977256871999  0.4784807359265752
  0.9364375193964229  0.2870301702714124  0.6102174734042519
  0.4373280773931753  0.6235984693987289  0.3016801077900218
  0.8128684023975421  0.8705762472549420  0.1687925394241981
  0.5628870821625880  0.2087160938955706  0.2135108448695616
  0.9378236906999272  0.6192140790358492  0.1685881701359140
  0.9371819169608283  0.7885211603992681  0.8748221754780897
  0.5626050115096706  0.3683404598997733  0.7863867029268948
  0.0629673782240304  0.3712159696377479  0.5212239396543986
  0.3123504360432895  0.3700432791491133  0.1689618410349777
  0.6891388537579373  0.1234744096645215  0.3020744099922676
  0.4392842288490386  0.9551111534898190  0.8312620831144222
  0.1885917840921802  0.2911305517667273  0.1262031351923025
  0.1878556013957083  0.2905793055486774  0.2585270279862394
  0.3143305260233022  0.3749390722007924  0.4348000407643546
  0.5613409098357960  0.0358100406951176  0.1261023658717548
  0.4383295432436248  0.2874482461958801  0.6099865782761197
  0.1856540791221621  0.4582425609495511  0.3451573566436782
  0.4357339102673523  0.2905371450274018  0.1263074331403925
  0.6878539161071838  0.7902800612843141  0.2586843534313439
  0.4383766223011311  0.1223359091339618  0.5213828459073536
  0.1875846773452176  0.2897793584797263  0.8751351857895627
  0.1871505625117052  0.1199397967309501  0.6537009034924621
  0.9379213630281560  0.1205852348099896  0.6536443143706658
  0.3127617284463436  0.2081954891231901  0.2135755252125969
  0.0609144792216921  0.0385161034162200  0.3895401415288894
  0.1886429194327339  0.1194790498083925  0.1688072373648509
  0.0621481375794338  0.5354940761246668  0.6102881538961871
  0.9376727435392108  0.2904928284439435  0.2586704591917052
  0.5636745891372517  0.5364579009344490  0.6098795625263209
  0.9373766861031673  0.9575059420403819  0.5651063020235139
  0.6889161055434190  0.6239490699231868  0.3019865037328772
  0.9359132154418632  0.6253129519454351  0.4346777610434113
  0.9372317689898608  0.6169113021802353  0.7861100624052896
  0.5611809599949489  0.7036905805080144  0.6978821624025852
  0.0610537830854252  0.7080168298522795  0.8317004550617617
  0.9376053463109969  0.1243799241279462  0.3021811604559768
  0.9385185448632594  0.7873718983042440  0.6101160032887227
  0.4380530945625581  0.7904669653368865  0.2583957380610163
  0.3121685686734385  0.3690120955841878  0.7862383338850403
  0.4377211553088023  0.4589556988435613  0.2136650158676976
  0.1869671672137563  0.1204380312249537  0.5213080574618502
  0.8122818206454606  0.7031089711472571  0.6982739750817051
  0.0626464390969940  0.0377356337460134  0.6101653311795314
  0.5631813290012653  0.2060875247914053  0.8314719670631696
  0.3113253789256823  0.8706358516371948  0.5211923563795891
  0.6880161663640764  0.2917014992504614  0.1259067591689698
  0.1879310730416789  0.9588519460832355  0.2136632144498272
  0.6868509756115634  0.2878945808573735  0.6099835771633375
  0.3139778176221746  0.0379019870915750  0.6102757251817990
  0.9372171959174739  0.1176840866570789  0.7864393545738873
  0.4389489248942099  0.7877346118051828  0.8746957139586395
  0.8123624955302619  0.0377917693125761  0.7418940631576093
  0.9372512551847887  0.4541292961108898  0.6980630610477633
  0.1876943802304375  0.6211928891862187  0.6538601704149481
  0.3129488465849369  0.7034865301023723  0.6979882792541162
  0.9374533843931830  0.2916006454689685  0.1256862427462428
  0.4390637198788340  0.4560690791559761  0.4785336811335787
  0.0628146315530257  0.7076239264503371  0.4786598990746129
  0.9356620310568312  0.1234353205860746  0.4345029206571323
  0.4376302162088004  0.1239715084241163  0.3015459727739393
  0.1866862324103727  0.1225378194201943  0.4348602306977372
  0.5634728042572070  0.0381234572442485  0.8751029237592111
  0.1881994753634384  0.9568652501050008  0.5651363757980425
  0.6868000606691549  0.7939701217109353  0.1262402482939839
  0.5607947115423743  0.5366261882856401  0.1261191817855803
  0.3134024624305151  0.0387987997025822  0.3896270362560031
  0.6880517830976762  0.1203091709391576  0.1686475111617312
  0.8125242263463254  0.2086224707661115  0.2135343299073588
  0.0624912827025496  0.5410130149975716  0.2584554107022433
  0.5628143505712450  0.7042410220313847  0.4782091788503793
  0.0630328018808167  0.2073066105164982  0.5652906898477212
  0.5633573110104005  0.3748711917975890  0.3019938692421884
  0.4379952551334063  0.9574666108813401  0.3460372264370216
  0.1882120642630311  0.9532092962956311  0.6979719860371546
  0.4365733359522694  0.6206561396429938  0.1691310611300955
  0.9380401229496104  0.4591005369293232  0.2138525246364705
  0.0634527930983116  0.5362922969041766  0.1260185424006457
  0.8114551798384718  0.3709466668367817  0.5210944234309213
  0.9366465363887184  0.6237436157267064  0.3021501397417573
  0.3120612194429728  0.0403185231269868  0.2584458652914437
  0.6881988963403913  0.7868912908869666  0.6101137663524939
  0.1869479920802700  0.4571059728816313  0.8312068983351837
  0.4369371921709510  0.1197202495290738  0.1687165454917359
  0.3135106337785632  0.3712381105158797  0.5212513482910706
  0.4377893674064243  0.6171161376722234  0.7862970257352953
  0.0622247158613749  0.0401642030014631  0.2585710259670690
  0.5618095923257918  0.7067015936369466  0.5653818181647504
  0.9367915955440422  0.2872220988491844  0.7418948969836141
  0.6876213469776886  0.1176528738885474  0.7864298880025513
  0.1871765701067657  0.4592873604940820  0.2136984270270974
  0.9371639196932946  0.7913742906118543  0.3895849218798789
  0.6878971286043176  0.2910739439169782  0.8751280229536551
  0.3124425744770084  0.8710158196397265  0.1690838100873750
  0.4379864611251448  0.4547295015839417  0.6982118112413918
  0.9371952634111597  0.9581230838218658  0.3454782371140530
  0.6868822497980142  0.6201372672882451  0.5209778947627656
  0.0628950506104306  0.8704983448550706  0.6537878276934739
  0.0621810447997565  0.8681419329111193  0.7862457322457009
  0.0619454340018917  0.3692216443089288  0.6537212050130691
  0.6862983075758802  0.4557631450129376  0.4782414016815548
  0.1865780602661864  0.7902751587775945  0.2585055008428058
  0.4393569951216589  0.1252864562885718  0.4344775453744023
  0.8130412612038065  0.0362680517566817  0.1258170953091468
  0.9384654088703565  0.6221450477568196  0.5209183259505699
  0.0620893792054984  0.8735344738426707  0.4351158465621931
  0.8124678942596630  0.5344117486868862  0.1261013936465794
  0.4385216748940051  0.4572494800676428  0.3459983246431875
  0.8134548490206674  0.2078873295777375  0.3457903190760589
  0.3111043399282110  0.7071049235014828  0.3458283861970170
  0.6872574407064597  0.1207549978139861  0.6535822382252127
  0.5638761462208619  0.8729653066649256  0.3015921219317048
  0.0634326943682412  0.5373253887740098  0.7418545866494954
  0.9372398019186088  0.9589102845421571  0.2136668457462423
  0.8124639515007341  0.7091400792398407  0.2136705629570436
  0.0614819704501477  0.8734404492404668  0.3018251642160743
  0.1855426587840459  0.1242835641337878  0.3017603113699839
  0.0614299168304837  0.7075248899635996  0.3455106561521566
  0.8113965941603460  0.0381979130478751  0.6101674418754846
  0.0612020557099452  0.3746955209667244  0.4346899413529937
  0.5643892315306090  0.2076792693794972  0.3460752545769913
  0.8141556068589547  0.3754664891434410  0.3023989474399310
  0.4370032633085542  0.9556198987009463  0.4784099709953626
  0.5646601911880882  0.5399456211718363  0.3897032830782312
  0.0620705337895569  0.2050332336840293  0.4784830869101199
  0.3127325657153527  0.8674198300507091  0.7862422409380400
  0.9381489490952732  0.9532555578174674  0.6981371249859945
  0.0611540327337124  0.3737736103778316  0.3020751978957105
  0.6869117385252032  0.6204809044037726  0.6537748314021117
  0.6868307488099216  0.4563090074983956  0.5653159682043437
  0.4366527515604802  0.9593377606553326  0.2136176152055506
  0.3127787228304100  0.2066585875362686  0.4785325343585085
  0.4378320064475628  0.1197657243870909  0.6536840468252759
  0.6878261662844763  0.6231033983933921  0.4344049095935903
  0.8130131222380513  0.2036233170684150  0.6981503902623817
  0.8129610187962372  0.7058720209698295  0.4782099479822299
  0.8117965550056770  0.8737948123784263  0.4343244800836304
  0.9386122819549138  0.9544241029516654  0.4785700845881697
  0.5630785249825965  0.2087283606743953  0.4783973398383854
  0.1875987582925547  0.6259170678183665  0.4346565902930677
  0.3120483758295779  0.0378300870106055  0.7416524788330323
  0.9377721665006075  0.6201697949142518  0.6537270904221878
  0.5636297866561332  0.7055869410295122  0.8316108333051722
  0.3114973790193677  0.3743878219576277  0.3015845770966146
  0.5621572392261028  0.7083745306078001  0.2135998887605227
  0.1883489026540716  0.4576220918128617  0.4785562728074540
  0.3139150518731206  0.0390651204177738  0.8748531517023349
  0.1867579660325611  0.4543577886059331  0.6982064404516557
  0.8108526023316748  0.5375558656325665  0.8749145868859488
  0.1875679525902625  0.2910884425916767  0.3896708056058596
  0.4386175317394330  0.6237298087101466  0.4347340359105145
  0.0626880087357364  0.7085145264506497  0.2136874413081197
  0.5637113334618028  0.3743943303180779  0.4349029311283993
  0.4377474954916000  0.6203792078565687  0.5211118103087213
  0.8112864890350457  0.7074078873227261  0.8314063543927374
  0.0623572044511413  0.3702205231417563  0.7859863391657810
  0.4397351527012900  0.2910599698447744  0.8752508229590540
  0.3133448818777939  0.0376808065617802  0.1260239792418095
  0.6874471580421633  0.1241144565757128  0.4340273490021545
  0.1850191547303129  0.9563241877918808  0.3457309210904363
  0.0614296664634895  0.2069694604234758  0.8317639444791388
  0.5626591563488720  0.0365675267351917  0.6104179844519306
  0.6869538206841844  0.4587868976984824  0.2137241624196006
  0.1875059092050735  0.7857681483214859  0.7417756049100463
  0.1868992260341161  0.6243795709721450  0.3018974715970076
  0.4373262020245375  0.7911525230483480  0.3898260192372343
  0.4366401448868800  0.2906527526955779  0.2584056742460623
  0.0619630661607796  0.5384389841052335  0.8747871785552700
  0.5637532541479726  0.0372303724721858  0.7417381618976179
  0.1852764009326526  0.7876902687126495  0.8747934989065523
  0.9367085506603103  0.4569855836433299  0.4783621137807296
  0.8110560396621724  0.5401004682504156  0.3893606646183388
  0.8115626927423403  0.2072312484501372  0.5653330149298014
  0.1865199214545149  0.6172954259441478  0.7861232851309479
  0.0627714695500997  0.5434396005710205  0.3897970532316214
  0.0631607731791791  0.7033762619204222  0.6980269252125237
  0.3119460039050849  0.5403218990725064  0.2584907121589820
  0.3122404979096334  0.7091908588365691  0.2134974597287019
  0.5619028555957775  0.8710400370915227  0.1688972322595565
  0.5623389747145716  0.5387605823420074  0.7417032315677566
  0.6899546854504450  0.4569277709198482  0.3458802799999837
  0.9344003013562019  0.2894574453491671  0.8749885881636715
  0.5622548798837045  0.0402589177224251  0.2583653894184049
  0.0604432982763133  0.0366140763414434  0.8750567639678044
  0.1864926058448353  0.7915351950676012  0.3893226501636794
  0.8125493070763495  0.3689554993605394  0.1676986060304108
  0.5626931733370074  0.3712353416723703  0.5209331119000717
  0.0623632805523063  0.8710055081694265  0.5207066880438062
  0.8119670696573731  0.8692970961080017  0.7859335742683483
  0.3116484907250366  0.5375400758925427  0.7418379045596099
 
  0.00000000E+00  0.00000000E+00  0.00000000E+00
  0.00000000E+00  0.00000000E+00  0.00000000E+00
  0.00000000E+00  0.00000000E+00  0.00000000E+00
  0.00000000E+00  0.00000000E+00  0.00000000E+00
  0.00000000E+00  0.00000000E+00  0.00000000E+00
  0.00000000E+00  0.00000000E+00  0.00000000E+00
  0.00000000E+00  0.00000000E+00  0.00000000E+00
  0.00000000E+00  0.00000000E+00  0.00000000E+00
  0.00000000E+00  0.00000000E+00  0.00000000E+00
  0.00000000E+00  0.00000000E+00  0.00000000E+00
  0.00000000E+00  0.00000000E+00  0.00000000E+00
  0.00000000E+00  0.00000000E+00  0.00000000E+00
  0.00000000E+00  0.00000000E+00  0.00000000E+00
  0.00000000E+00  0.00000000E+00  0.00000000E+00
  0.00000000E+00  0.00000000E+00  0.00000000E+00
  0.00000000E+00  0.00000000E+00  0.00000000E+00
  0.00000000E+00  0.00000000E+00  0.00000000E+00
  0.00000000E+00  0.00000000E+00  0.00000000E+00
  0.00000000E+00  0.00000000E+00  0.00000000E+00
  0.00000000E+00  0.00000000E+00  0.00000000E+00
  0.00000000E+00  0.00000000E+00  0.00000000E+00
  0.00000000E+00  0.00000000E+00  0.00000000E+00
  0.00000000E+00  0.00000000E+00  0.00000000E+00
  0.00000000E+00  0.00000000E+00  0.00000000E+00
  0.00000000E+00  0.00000000E+00  0.00000000E+00
  0.00000000E+00  0.00000000E+00  0.00000000E+00
  0.00000000E+00  0.00000000E+00  0.00000000E+00
  0.00000000E+00  0.00000000E+00  0.00000000E+00
  0.00000000E+00  0.00000000E+00  0.00000000E+00
  0.00000000E+00  0.00000000E+00  0.00000000E+00
  0.00000000E+00  0.00000000E+00  0.00000000E+00
  0.00000000E+00  0.00000000E+00  0.00000000E+00
  0.00000000E+00  0.00000000E+00  0.00000000E+00
  0.00000000E+00  0.00000000E+00  0.00000000E+00
  0.00000000E+00  0.00000000E+00  0.00000000E+00
  0.00000000E+00  0.00000000E+00  0.00000000E+00
  0.00000000E+00  0.00000000E+00  0.00000000E+00
  0.00000000E+00  0.00000000E+00  0.00000000E+00
  0.00000000E+00  0.00000000E+00  0.00000000E+00
  0.00000000E+00  0.00000000E+00  0.00000000E+00
  0.00000000E+00  0.00000000E+00  0.00000000E+00
  0.00000000E+00  0.00000000E+00  0.00000000E+00
  0.00000000E+00  0.00000000E+00  0.00000000E+00
  0.00000000E+00  0.00000000E+00  0.00000000E+00
  0.00000000E+00  0.00000000E+00  0.00000000E+00
  0.00000000E+00  0.00000000E+00  0.00000000E+00
  0.00000000E+00  0.00000000E+00  0.00000000E+00
  0.00000000E+00  0.00000000E+00  0.00000000E+00
  0.00000000E+00  0.00000000E+00  0.00000000E+00
  0.00000000E+00  0.00000000E+00  0.00000000E+00
  0.00000000E+00  0.00000000E+00  0.00000000E+00
  0.00000000E+00  0.00000000E+00  0.00000000E+00
  0.00000000E+00  0.00000000E+00  0.00000000E+00
  0.00000000E+00  0.00000000E+00  0.00000000E+00
  0.00000000E+00  0.00000000E+00  0.00000000E+00
  0.00000000E+00  0.00000000E+00  0.00000000E+00
  0.00000000E+00  0.00000000E+00  0.00000000E+00
  0.00000000E+00  0.00000000E+00  0.00000000E+00
  0.00000000E+00  0.00000000E+00  0.00000000E+00
  0.00000000E+00  0.00000000E+00  0.00000000E+00
  0.00000000E+00  0.00000000E+00  0.00000000E+00
  0.00000000E+00  0.00000000E+00  0.00000000E+00
  0.00000000E+00  0.00000000E+00  0.00000000E+00
  0.00000000E+00  0.00000000E+00  0.00000000E+00
  0.00000000E+00  0.00000000E+00  0.00000000E+00
  0.00000000E+00  0.00000000E+00  0.00000000E+00
  0.00000000E+00  0.00000000E+00  0.00000000E+00
  0.00000000E+00  0.00000000E+00  0.00000000E+00
  0.00000000E+00  0.00000000E+00  0.00000000E+00
  0.00000000E+00  0.00000000E+00  0.00000000E+00
  0.00000000E+00  0.00000000E+00  0.00000000E+00
  0.00000000E+00  0.00000000E+00  0.00000000E+00
  0.00000000E+00  0.00000000E+00  0.00000000E+00
  0.00000000E+00  0.00000000E+00  0.00000000E+00
  0.00000000E+00  0.00000000E+00  0.00000000E+00
  0.00000000E+00  0.00000000E+00  0.00000000E+00
  0.00000000E+00  0.00000000E+00  0.00000000E+00
  0.00000000E+00  0.00000000E+00  0.00000000E+00
  0.00000000E+00  0.00000000E+00  0.00000000E+00
  0.00000000E+00  0.00000000E+00  0.00000000E+00
  0.00000000E+00  0.00000000E+00  0.00000000E+00
  0.00000000E+00  0.00000000E+00  0.00000000E+00
  0.00000000E+00  0.00000000E+00  0.00000000E+00
  0.00000000E+00  0.00000000E+00  0.00000000E+00
  0.00000000E+00  0.00000000E+00  0.00000000E+00
  0.00000000E+00  0.00000000E+00  0.00000000E+00
  0.00000000E+00  0.00000000E+00  0.00000000E+00
  0.00000000E+00  0.00000000E+00  0.00000000E+00
  0.00000000E+00  0.00000000E+00  0.00000000E+00
  0.00000000E+00  0.00000000E+00  0.00000000E+00
  0.00000000E+00  0.00000000E+00  0.00000000E+00
  0.00000000E+00  0.00000000E+00  0.00000000E+00
  0.00000000E+00  0.00000000E+00  0.00000000E+00
  0.00000000E+00  0.00000000E+00  0.00000000E+00
  0.00000000E+00  0.00000000E+00  0.00000000E+00
  0.00000000E+00  0.00000000E+00  0.00000000E+00
  0.00000000E+00  0.00000000E+00  0.00000000E+00
  0.00000000E+00  0.00000000E+00  0.00000000E+00
  0.00000000E+00  0.00000000E+00  0.00000000E+00
  0.00000000E+00  0.00000000E+00  0.00000000E+00
  0.00000000E+00  0.00000000E+00  0.00000000E+00
  0.00000000E+00  0.00000000E+00  0.00000000E+00
  0.00000000E+00  0.00000000E+00  0.00000000E+00
  0.00000000E+00  0.00000000E+00  0.00000000E+00
  0.00000000E+00  0.00000000E+00  0.00000000E+00
  0.00000000E+00  0.00000000E+00  0.00000000E+00
  0.00000000E+00  0.00000000E+00  0.00000000E+00
  0.00000000E+00  0.00000000E+00  0.00000000E+00
  0.00000000E+00  0.00000000E+00  0.00000000E+00
  0.00000000E+00  0.00000000E+00  0.00000000E+00
  0.00000000E+00  0.00000000E+00  0.00000000E+00
  0.00000000E+00  0.00000000E+00  0.00000000E+00
  0.00000000E+00  0.00000000E+00  0.00000000E+00
  0.00000000E+00  0.00000000E+00  0.00000000E+00
  0.00000000E+00  0.00000000E+00  0.00000000E+00
  0.00000000E+00  0.00000000E+00  0.00000000E+00
  0.00000000E+00  0.00000000E+00  0.00000000E+00
  0.00000000E+00  0.00000000E+00  0.00000000E+00
  0.00000000E+00  0.00000000E+00  0.00000000E+00
  0.00000000E+00  0.00000000E+00  0.00000000E+00
  0.00000000E+00  0.00000000E+00  0.00000000E+00
  0.00000000E+00  0.00000000E+00  0.00000000E+00
  0.00000000E+00  0.00000000E+00  0.00000000E+00
  0.00000000E+00  0.00000000E+00  0.00000000E+00
  0.00000000E+00  0.00000000E+00  0.00000000E+00
  0.00000000E+00  0.00000000E+00  0.00000000E+00
  0.00000000E+00  0.00000000E+00  0.00000000E+00
  0.00000000E+00  0.00000000E+00  0.00000000E+00
  0.00000000E+00  0.00000000E+00  0.00000000E+00
  0.00000000E+00  0.00000000E+00  0.00000000E+00
  0.00000000E+00  0.00000000E+00  0.00000000E+00
  0.00000000E+00  0.00000000E+00  0.00000000E+00
  0.00000000E+00  0.00000000E+00  0.00000000E+00
  0.00000000E+00  0.00000000E+00  0.00000000E+00
  0.00000000E+00  0.00000000E+00  0.00000000E+00
  0.00000000E+00  0.00000000E+00  0.00000000E+00
  0.00000000E+00  0.00000000E+00  0.00000000E+00
  0.00000000E+00  0.00000000E+00  0.00000000E+00
  0.00000000E+00  0.00000000E+00  0.00000000E+00
  0.00000000E+00  0.00000000E+00  0.00000000E+00
  0.00000000E+00  0.00000000E+00  0.00000000E+00
  0.00000000E+00  0.00000000E+00  0.00000000E+00
  0.00000000E+00  0.00000000E+00  0.00000000E+00
  0.00000000E+00  0.00000000E+00  0.00000000E+00
  0.00000000E+00  0.00000000E+00  0.00000000E+00
  0.00000000E+00  0.00000000E+00  0.00000000E+00
  0.00000000E+00  0.00000000E+00  0.00000000E+00
  0.00000000E+00  0.00000000E+00  0.00000000E+00
  0.00000000E+00  0.00000000E+00  0.00000000E+00
  0.00000000E+00  0.00000000E+00  0.00000000E+00
  0.00000000E+00  0.00000000E+00  0.00000000E+00
  0.00000000E+00  0.00000000E+00  0.00000000E+00
  0.00000000E+00  0.00000000E+00  0.00000000E+00
  0.00000000E+00  0.00000000E+00  0.00000000E+00
  0.00000000E+00  0.00000000E+00  0.00000000E+00
  0.00000000E+00  0.00000000E+00  0.00000000E+00
  0.00000000E+00  0.00000000E+00  0.00000000E+00
  0.00000000E+00  0.00000000E+00  0.00000000E+00
  0.00000000E+00  0.00000000E+00  0.00000000E+00
  0.00000000E+00  0.00000000E+00  0.00000000E+00
  0.00000000E+00  0.00000000E+00  0.00000000E+00
  0.00000000E+00  0.00000000E+00  0.00000000E+00
  0.00000000E+00  0.00000000E+00  0.00000000E+00
  0.00000000E+00  0.00000000E+00  0.00000000E+00
  0.00000000E+00  0.00000000E+00  0.00000000E+00
  0.00000000E+00  0.00000000E+00  0.00000000E+00
  0.00000000E+00  0.00000000E+00  0.00000000E+00
  0.00000000E+00  0.00000000E+00  0.00000000E+00
  0.00000000E+00  0.00000000E+00  0.00000000E+00
  0.00000000E+00  0.00000000E+00  0.00000000E+00
  0.00000000E+00  0.00000000E+00  0.00000000E+00
  0.00000000E+00  0.00000000E+00  0.00000000E+00
  0.00000000E+00  0.00000000E+00  0.00000000E+00
  0.00000000E+00  0.00000000E+00  0.00000000E+00
  0.00000000E+00  0.00000000E+00  0.00000000E+00
  0.00000000E+00  0.00000000E+00  0.00000000E+00
  0.00000000E+00  0.00000000E+00  0.00000000E+00
  0.00000000E+00  0.00000000E+00  0.00000000E+00
  0.00000000E+00  0.00000000E+00  0.00000000E+00
  0.00000000E+00  0.00000000E+00  0.00000000E+00
  0.00000000E+00  0.00000000E+00  0.00000000E+00
  0.00000000E+00  0.00000000E+00  0.00000000E+00
  0.00000000E+00  0.00000000E+00  0.00000000E+00
  0.00000000E+00  0.00000000E+00  0.00000000E+00
  0.00000000E+00  0.00000000E+00  0.00000000E+00
  0.00000000E+00  0.00000000E+00  0.00000000E+00
  0.00000000E+00  0.00000000E+00  0.00000000E+00
  0.00000000E+00  0.00000000E+00  0.00000000E+00
  0.00000000E+00  0.00000000E+00  0.00000000E+00
  0.00000000E+00  0.00000000E+00  0.00000000E+00
  0.00000000E+00  0.00000000E+00  0.00000000E+00
  0.00000000E+00  0.00000000E+00  0.00000000E+00
  0.00000000E+00  0.00000000E+00  0.00000000E+00
  0.00000000E+00  0.00000000E+00  0.00000000E+00
  0.00000000E+00  0.00000000E+00  0.00000000E+00
  0.00000000E+00  0.00000000E+00  0.00000000E+00
  0.00000000E+00  0.00000000E+00  0.00000000E+00
  0.00000000E+00  0.00000000E+00  0.00000000E+00
  0.00000000E+00  0.00000000E+00  0.00000000E+00
  0.00000000E+00  0.00000000E+00  0.00000000E+00
  0.00000000E+00  0.00000000E+00  0.00000000E+00
  0.00000000E+00  0.00000000E+00  0.00000000E+00
  0.00000000E+00  0.00000000E+00  0.00000000E+00
  0.00000000E+00  0.00000000E+00  0.00000000E+00
  0.00000000E+00  0.00000000E+00  0.00000000E+00
  0.00000000E+00  0.00000000E+00  0.00000000E+00
  0.00000000E+00  0.00000000E+00  0.00000000E+00
  0.00000000E+00  0.00000000E+00  0.00000000E+00
  0.00000000E+00  0.00000000E+00  0.00000000E+00
  0.00000000E+00  0.00000000E+00  0.00000000E+00
  0.00000000E+00  0.00000000E+00  0.00000000E+00
  0.00000000E+00  0.00000000E+00  0.00000000E+00
  0.00000000E+00  0.00000000E+00  0.00000000E+00
  0.00000000E+00  0.00000000E+00  0.00000000E+00
  0.00000000E+00  0.00000000E+00  0.00000000E+00
  0.00000000E+00  0.00000000E+00  0.00000000E+00
  0.00000000E+00  0.00000000E+00  0.00000000E+00
  0.00000000E+00  0.00000000E+00  0.00000000E+00
  0.00000000E+00  0.00000000E+00  0.00000000E+00
  0.00000000E+00  0.00000000E+00  0.00000000E+00
  0.00000000E+00  0.00000000E+00  0.00000000E+00
  0.00000000E+00  0.00000000E+00  0.00000000E+00
  0.00000000E+00  0.00000000E+00  0.00000000E+00
  0.00000000E+00  0.00000000E+00  0.00000000E+00
  0.00000000E+00  0.00000000E+00  0.00000000E+00
  0.00000000E+00  0.00000000E+00  0.00000000E+00
  0.00000000E+00  0.00000000E+00  0.00000000E+00
  0.00000000E+00  0.00000000E+00  0.00000000E+00
  0.00000000E+00  0.00000000E+00  0.00000000E+00
  0.00000000E+00  0.00000000E+00  0.00000000E+00
  0.00000000E+00  0.00000000E+00  0.00000000E+00
  0.00000000E+00  0.00000000E+00  0.00000000E+00
  0.00000000E+00  0.00000000E+00  0.00000000E+00
  0.00000000E+00  0.00000000E+00  0.00000000E+00
  0.00000000E+00  0.00000000E+00  0.00000000E+00
  0.00000000E+00  0.00000000E+00  0.00000000E+00
  0.00000000E+00  0.00000000E+00  0.00000000E+00
  0.00000000E+00  0.00000000E+00  0.00000000E+00
  0.00000000E+00  0.00000000E+00  0.00000000E+00
  0.00000000E+00  0.00000000E+00  0.00000000E+00
  0.00000000E+00  0.00000000E+00  0.00000000E+00
  0.00000000E+00  0.00000000E+00  0.00000000E+00
  0.00000000E+00  0.00000000E+00  0.00000000E+00
  0.00000000E+00  0.00000000E+00  0.00000000E+00
  0.00000000E+00  0.00000000E+00  0.00000000E+00
  0.00000000E+00  0.00000000E+00  0.00000000E+00
  0.00000000E+00  0.00000000E+00  0.00000000E+00