CuInSe2gb                               
   1.00000000000000     
     9.7266780392896699    0.0000000000000000    0.0000000000000000
     0.0000000000000000    8.4235502764570693    0.0000000000000000
     0.0000000000000000    0.0000000000000000   45.0000000000000000
   Fe   Mn
   274    14
Direct
  0.0627424719866931  0.0295087507892639  0.1240537112658543
  0.3164319235694161  0.8744657072554191  0.6549884867738933
  0.1837760032598335  0.1233542276605405  0.7886443730772187
  0.4414469912087651  0.2875034904423373  0.3891075456995477
  0.3181367875189569  0.7138969085745773  0.8331870170462873
  0.8181758341201602  0.2152280523147812  0.8336747671138579
  0.1916583232371407  0.9636073484710277  0.8335788861740628
  0.5620669045687057  0.2070401119536281  0.5654997045819961
  0.0655451275479433  0.0403404541493921  0.7441371912748048
  0.8116369385909084  0.8714981446051978  0.5213456097614636
  0.1904384303847372  0.2911524919029890  0.7443460678777141
  0.9334389906978110  0.4521322218000955  0.3448707688615878
  0.9411425857231361  0.2865741098639409  0.3889039425516439
  0.8128162808312562  0.0406927847603125  0.8757872852156571
  0.1837166002800317  0.7880688504061483  0.6109167551035953
  0.5665680668664733  0.0376707371932675  0.3890768482288135
  0.9426028265165325  0.9648478640354015  0.8338990471024443
  0.3132789989756470  0.5407149811537202  0.8760682428999385
  0.6901295590164634  0.2915685375960907  0.7442186730314618
  0.1823141047154323  0.6136788126646128  0.1666157557493112
  0.8121512364943880  0.2060103232655047  0.4787006755010226
  0.8089126061488974  0.5382854833169551  0.6110207033115092
  0.3118785132734306  0.8702499516031386  0.4344416716141440
  0.8088333511173648  0.0373050255648457  0.2557680658581014
  0.6830589162075129  0.9513052237213416  0.3446754405978131
  0.9310175202027816  0.1142155425224494  0.1668885236427959
  0.0618006834632488  0.8719396457972561  0.5213819060985460
  0.5589252060142627  0.5380809531909977  0.2557407616159195
  0.6847826330885621  0.7979032136470023  0.8759194496686812
  0.5567309186009596  0.3655494500165880  0.1665988872621237
  0.4395922854377955  0.7918909069509967  0.7444298782745334
  0.8115252260657979  0.7067299559317617  0.5654883432839188
  0.5590579862287277  0.8738144897409162  0.7886772957960185
  0.6867800791870534  0.1215706934339100  0.5213610945053427
  0.8161692721135315  0.3747835135167722  0.6550292856399286
  0.9422056275045126  0.4643843478048420  0.8337444837588944
  0.0604659294306054  0.2076833691337863  0.6997163801399654
  0.4355249660903590  0.9575999922062268  0.6997374114203744
  0.3169934468097597  0.2128719921515577  0.8334874078575927
  0.4412683366401017  0.6246420366916663  0.6550039768223866
  0.3089747455435375  0.5381101778877591  0.6109848122037255
  0.9366268455062456  0.4568592396684787  0.5655695658741151
  0.6900575905844466  0.7916642243143455  0.7443030308826518
  0.9345094124954100  0.7888699689825035  0.1244317047427624
  0.6918407087457390  0.7878926881907836  0.3890408849929009
  0.9402476384599358  0.7908760390959643  0.7445073384980454
  0.0585827195850491  0.2024314843413112  0.3449116698723483
  0.6833902716197484  0.4521647648078436  0.3451011160819095
  0.4338231845017169  0.1229517449647963  0.7889579196109958
  0.0643363365411950  0.2042075400186335  0.2111129727227860
  0.0553678658523917  0.3656869735128181  0.1665989118098728
  0.9337823328449913  0.7874084808603286  0.2555412280405594
  0.5607060003383429  0.2073716075049605  0.6997730356478002
  0.6852656078825206  0.9573212001803181  0.6997933610687044
  0.8086543585182446  0.8738310366112595  0.7884211281419136
  0.4365520961497982  0.9569891248438357  0.5654658406436636
  0.8088281239519061  0.3748880664896441  0.7885341748267473
  0.6844565811889117  0.2882918204905052  0.2559783419792140
  0.1872363523999076  0.4570614496428019  0.5655347977624964
  0.0566606262057793  0.8655221599162987  0.1666132238119550
  0.1839492787475880  0.2884228170950990  0.6110358021980730
  0.0620445613880968  0.2072923897460616  0.5654065657725806
  0.3108207297205160  0.2074106660569702  0.6998325480634142
  0.5623615951515026  0.5409358866128112  0.8759818322339663
  0.0616947881948482  0.7064653621120435  0.5655276037973911
  0.6829398608461420  0.6225243265696041  0.7886019902340933
  0.3162907892565567  0.5376337353958941  0.3888488444564305
  0.1869101346322944  0.6217737943305847  0.5214437477805675
  0.5625143851406680  0.8704928780204518  0.4344372052268067
  0.4368089922708721  0.4570167109680263  0.5655552260909885
  0.4398789567010495  0.2916415223448019  0.7442427637593232
  0.8209119366589792  0.8734025568940584  0.3001922725211039
  0.8085558247720481  0.7026212674272138  0.3449736894335788
  0.4424550988915705  0.4628837978062143  0.8333667934558172
  0.6874307170076318  0.9558663027127320  0.4786954038077389
  0.6847938361414672  0.4577635081749444  0.6997865452606701
  0.5618983177972494  0.8721283570771572  0.5214152754559047
  0.5663323920991730  0.3747192581989248  0.6549599041737908
  0.8160647175498073  0.8747923742697647  0.6550631986022343
  0.8121155016260447  0.3717162748000124  0.4341875446224551
  0.8088923750313164  0.5372498884693095  0.2560020308754883
  0.6922160848228484  0.4621952250147626  0.8333291430654474
  0.1861947963769444  0.7887344724650494  0.1239963437256120
  0.6912094617693495  0.2874066182081981  0.3890037142783905
  0.3160792778232017  0.3739973365699085  0.6549693347794179
  0.3089832798273859  0.2025311897559983  0.3447886707407821
  0.8156816159779345  0.5404306655209706  0.7442213282653932
  0.6917691771266284  0.9623523055384720  0.8335095977142799
  0.5659622438295533  0.8743864054132314  0.6549672863705546
  0.3115461573769098  0.7069012837149847  0.5654672997541444
  0.3129079809760220  0.5301164490024849  0.1239120046660417
  0.6891303858600347  0.9541401048421844  0.2117607904362146
  0.3114278662855776  0.2064426861798992  0.5655057413220099
  0.1874272532322182  0.9559651211977788  0.4786916972462681
  0.6873618289957402  0.9569896418663337  0.5655093964633527
  0.4338408164441075  0.7883506324279764  0.6110079970378032
  0.6826450108643696  0.6123354284677612  0.1661795138625349
  0.3193130632930158  0.8729144334047007  0.3001109800800372
  0.3123243452730809  0.7056586096960260  0.4786490740119918
  0.9336340435274602  0.2878456995450507  0.6109097852285512
  0.4462043774119150  0.6239205872103867  0.3001128517596551
  0.8071978906686614  0.8635201354870498  0.1667633547387011
  0.5660028751052497  0.2028157214696103  0.2114354456406489
  0.9329224953132453  0.6128743173614479  0.1665583014708161
  0.4373724089953561  0.9557583095152973  0.4786965603007177
  0.5588670135756912  0.3735357695902430  0.7887394813610942
  0.0615715489543235  0.3722359904548881  0.5214067534583724
  0.3072006611563566  0.3648106588862569  0.1665858232850653
  0.6956862337786558  0.1230338934362166  0.3002906345686540
  0.4427343831885807  0.9632942669241980  0.8333366553843212
  0.1852797148233076  0.2866351012230573  0.1240895913785791
  0.1848651797058048  0.2882469711399437  0.2559769265281752
  0.3124416008578202  0.3703772654429457  0.4344318700644407
  0.5627472499300035  0.0320740469622114  0.1242680915706120
  0.4339149567792625  0.2881919482543566  0.6109776712704246
  0.1837899553324888  0.4526921973618924  0.3450600428486953
  0.4351207351646414  0.2866939253244918  0.1240744271805045
  0.4372772948635179  0.6203261189005974  0.4344697189663311
  0.4368066513942181  0.1214079332024620  0.5214096889317528
  0.1884772480535100  0.2968356406517533  0.8761811654181271
  0.1911762673477824  0.1247868955866884  0.6551127328779189
  0.9411315451793614  0.1248406486434197  0.6549772742080837
  0.8162181233657507  0.5376557071469884  0.3889903377619601
  0.0665408869506060  0.0378638229964619  0.3891195195673464
  0.1834193515348099  0.1121533830391504  0.1664663075503149
  0.0587473333062316  0.5380253424170143  0.6109452004904993
  0.9347464474675653  0.2886825255768077  0.2559610854611601
  0.5587675271176635  0.5383878450647808  0.6110009563692237
  0.9364457264457570  0.9575845537460783  0.5654842508334775
  0.6945495877877123  0.6237218746467182  0.3001879696878477
  0.9374930780574281  0.6204528951936658  0.4344936626325063
  0.9332577264324750  0.6244563274037496  0.7883884755678173
  0.5604735833177268  0.7071742547180736  0.6997364548345908
  0.0660739572812496  0.7168536639437035  0.8339128453019307
  0.9456571142237465  0.1226660508108579  0.3001593252459646
  0.9338011617430758  0.7876932767866625  0.6109251729400170
  0.4338069950257695  0.7877256737094884  0.2557222601875061
  0.3089741461668658  0.3739823652651875  0.7887445314403605
  0.4394318948386425  0.4533616821536373  0.2113024298498530
  0.1868945555249043  0.1216821400247437  0.5213892011038916
  0.8105737288052846  0.7075535171289039  0.6997824113129116
  0.0588114573796255  0.0379657412431083  0.6108857327489613
  0.5660705786339374  0.2134946754518148  0.8332678933875112
  0.3116401502463834  0.8719076848812209  0.5214007741017473
  0.6867630927209148  0.2857279982215965  0.1239303525002361
  0.1898620888965728  0.9548264437603889  0.2116848190228924
  0.6839166728098227  0.2884844182896115  0.6109805206881543
  0.3089692646208683  0.0384399458605875  0.6109987510544488
  0.9340681707204814  0.1247218603412008  0.7886276169655148
  0.4364922912863296  0.7978120189206251  0.8762108718249301
  0.8154810810175122  0.0409152935602362  0.7442496153182956
  0.9352344880725493  0.4581148091632694  0.6996486067354786
  0.1912141618396225  0.6249447928908386  0.6550874573561366
  0.3104721234145998  0.7071128484975493  0.6997612754901998
  0.9344508461271019  0.2870878971375897  0.1238800480981163
  0.4373791261153755  0.4557979695186247  0.4786415263712825
  0.0623697381000834  0.7057337514794709  0.4786273216474810
  0.9370660778686104  0.1204260449148275  0.4345316515080038
  0.4439053848364852  0.1235665785069129  0.3003931993481134
  0.1872877425440555  0.1204234710274015  0.4344141789697152
  0.5628351613438831  0.0406506491948484  0.8760303102540951
  0.1867498942407338  0.9570836101273122  0.5655233728120529
  0.6846759873252958  0.7883445498382615  0.1242486080819761
  0.5590721934667922  0.7026659896308405  0.3450110603160865
  0.3161307035449377  0.0368292516635610  0.3888427757733616
  0.6827427190131915  0.1138177012402532  0.1667471621728507
  0.8153057758661161  0.2036423085656152  0.2110778555507119
  0.0602328897788311  0.5369245865626948  0.2555881387853777
  0.5622443523645770  0.7057366255637132  0.4786781047532761
  0.4347834780574875  0.7869161515610563  0.1241107424241914
  0.5700274258312449  0.3715666070227250  0.3001915239735586
  0.4331795436878203  0.9520799793187090  0.3450622211949876
  0.1852147911052044  0.9577319712630826  0.6997418332054217
  0.4318740272074283  0.6130860271415725  0.1660937517736406
  0.9397198972173938  0.4533697431935506  0.2115848998792278
  0.0616459791303614  0.5300554774700127  0.1240304088793054
  0.8118092878866435  0.3720560234594990  0.5213874171170604
  0.9445913114293755  0.6231972417781542  0.2998729358732956
  0.3095813614132228  0.0373428755237513  0.2557131366108086
  0.6837588924463476  0.7881530921368761  0.6109150652154414
  0.1917258872599153  0.4633603302252954  0.8335322021651709
  0.4329870036714329  0.1123558338639588  0.1665150580259762
  0.3117892340505354  0.3720759074480367  0.5213505680423191
  0.4331270584375351  0.6229890665396856  0.7889218912404034
  0.0589529075203756  0.0371792994313399  0.2557989070211520
  0.5617277993029154  0.7067872454369225  0.5655797642053604
  0.9399263815266922  0.2907383530418339  0.7445062096058188
  0.6824074666172114  0.1230207417360640  0.7886026123005485
  0.1896663501857455  0.4530693848319515  0.2110813694989539
  0.9411685641876897  0.7880805466442709  0.3889586925362716
  0.6855372430376078  0.2992603466759960  0.8760234016491180
  0.5569553099503847  0.8626938225288595  0.1661517498044311
  0.4356600132893894  0.4576986960940367  0.6997348618573752
  0.9342402505857084  0.9509907907341880  0.3447809618832874
  0.6865876557856747  0.6216128990909199  0.5213669451192419
  0.0665116831920112  0.8745902060057755  0.6549343451614451
  0.0590205325214492  0.8742464613417875  0.7884974953402815
  0.0663261443470820  0.3746369300499406  0.6549450255782223
  0.6871951790186080  0.4557590925293272  0.4786376875033562
  0.1838261890223082  0.7873150420014329  0.2553739960888697
  0.4368964521113198  0.1208881373547363  0.4343510930651400
  0.8138694550354434  0.0308514474727905  0.1240322111968576
  0.9368310476348449  0.6219085013842857  0.5214400012095680
  0.4412849674402330  0.1243725592469803  0.6549197041519347
  0.8135023914423738  0.5288078465239190  0.1239222503684406
  0.4336683544627721  0.4523205362916467  0.3449724223026511
  0.8090218305813551  0.2024947778955701  0.3450540287612813
  0.3089220378030155  0.7016108280817727  0.3449042344818282
  0.6911391814059166  0.1248972424375151  0.6550310812442187
  0.5700532503992428  0.8729671337345860  0.3003503262278094
  0.0653913074188951  0.5409779619344818  0.7443225926421728
  0.9403018901817793  0.9537221160215770  0.2112042111324949
  0.8158472177213040  0.7035847813859227  0.2112274458725037
  0.0699881584211947  0.8722127726629272  0.3001543945091919
  0.1951585743197748  0.1234818089304935  0.3002710073277433
  0.0585898374397550  0.7019688914428652  0.3449543044207446
  0.8090480887250344  0.0383403345641266  0.6109839132950032
  0.0625618073043790  0.3715974619109272  0.4343636929831622
  0.5585832062992122  0.2026695926652606  0.3448665814615349
  0.8200126389555067  0.3722923365509981  0.2999789168755000
  0.5602162978826962  0.0370082746306283  0.2554026800620395
  0.5662182487831589  0.5374904674329100  0.3890827353312928
  0.0625592670599692  0.2058009769575016  0.4786734082109698
  0.3102182476286525  0.8734246019459687  0.7884518514188015
  0.9352251222898592  0.9582832272288686  0.6996838209049181
  0.0696303467591016  0.3730330568578499  0.2998865601078909
  0.6909998047718775  0.6249004052391165  0.6551514213628706
  0.6868147477273165  0.4570013487948494  0.5654801514477786
  0.4400861812727910  0.9547450772132899  0.2119971569987551
  0.3123422841955033  0.2058019741513895  0.4787101608227061
  0.8120867826627816  0.5403276496340010  0.8758717697264297
  0.6878201966243457  0.6204851324367721  0.4344304104693664
  0.8107281802191127  0.2074067785222062  0.6998646358369331
  0.8125471434769737  0.7057564111036922  0.4786494855759200
  0.8116477088778281  0.8710704636150292  0.4342511878605700
  0.9372449041587204  0.9556248051317897  0.4786965047763819
  0.5622696360714072  0.2057457866115085  0.4787078206014624
  0.1870016643565765  0.6208212232088564  0.4344105965630056
  0.3149837538840918  0.0418290437238800  0.7440784690516505
  0.9414143565410029  0.6249774775114968  0.6549103716777304
  0.5661707452001405  0.7136026276684923  0.8333383809408078
  0.3200646751773170  0.3719646971513754  0.3001518431459481
  0.3151398227387434  0.5414897805046809  0.7442638354701719
  0.1872116428224019  0.4556824050063296  0.4786884058986726
  0.3143149289655305  0.0411759492443970  0.8758925914399672
  0.1852094528176834  0.4577922173883220  0.6996857695928167
  0.5618201818556003  0.3718259367794375  0.5213737571611848
  0.1913468688102426  0.2875225200019512  0.3890585396672087
  0.3154936591209640  0.2043673543264194  0.2111697886334992
  0.0673377556339728  0.7041256041860403  0.2114047100599074
  0.5619650211288657  0.3705344653893191  0.4344686083477968
  0.4368709734065762  0.6220353635448238  0.5214290793035903
  0.8171500069856776  0.7153482393480997  0.8333523420396364
  0.0588577026601164  0.3750716755010885  0.7884667628824896
  0.4367776001636708  0.2983779410325167  0.8763382385267217
  0.3108395779001236  0.0308881172680635  0.1241258938785012
  0.6873017672394410  0.1195235140462392  0.4343535476517512
  0.1835957829230060  0.9522721063981436  0.3449174955454192
  0.0668482002212586  0.2153096275298552  0.8340319194823723
  0.5590507380781522  0.0385136232261763  0.6110780009043327
  0.6890242531890217  0.4541866685218920  0.2116987477345142
  0.1897069255927705  0.7916683670201224  0.7443841082812168
  0.1944664615535238  0.6229579724851910  0.3003432225933352
  0.4412631434256504  0.7875715879439191  0.3890946717129320
  0.4337079227684870  0.2883563362493964  0.2558070195016706
  0.0633889169125106  0.5408332034498127  0.8758942694225021
  0.5654713555479453  0.0413132547267180  0.7442619779753297
  0.1877447386493190  0.7973164058521397  0.8760757231654509
  0.9372394180995355  0.4556231386161961  0.4786774078853571
  0.5650841548793839  0.5414938303746454  0.7441065442081853
  0.8111368982138597  0.2070425578919432  0.5654740020193154
  0.1846215574013186  0.6227037956706643  0.7885120195239923
  0.0673683194648290  0.5381398206539696  0.3890604205503839
  0.0605374508679081  0.7075065868577801  0.6996703356501195
  0.3095662590739713  0.5364985349887033  0.2557631812724041
  0.3142160952082541  0.7037402122592658  0.2122411391741299
  0.3060473465155131  0.8649753525280075  0.1658465197556158
  0.6834812744949389  0.7890283733226822  0.2560402024778614
  0.8177846027909862  0.0394819734909112  0.3893024961023553
  0.9349909363041384  0.2979897602678103  0.8755856777966108
  0.9370887942048463  0.7956080562543495  0.8755655855363405
  0.0654234593935893  0.0390128449705401  0.8757779983490772
  0.5620494483196802  0.5287580305514187  0.1244409755812888
  0.8058666285846627  0.3656660761891863  0.1659533907158131
  0.0618960757574878  0.8712313812665036  0.4343937454161317
  0.9365164942322423  0.1218353201353979  0.5214828262915348
  0.1928670545492606  0.7876130266952119  0.3888934244474679
  0.5667626957572405  0.7034090937615901  0.2117786320395176
 
  0.00000000E+00  0.00000000E+00  0.00000000E+00
  0.00000000E+00  0.00000000E+00  0.00000000E+00
  0.00000000E+00  0.00000000E+00  0.00000000E+00
  0.00000000E+00  0.00000000E+00  0.00000000E+00
  0.00000000E+00  0.00000000E+00  0.00000000E+00
  0.00000000E+00  0.00000000E+00  0.00000000E+00
  0.00000000E+00  0.00000000E+00  0.00000000E+00
  0.00000000E+00  0.00000000E+00  0.00000000E+00
  0.00000000E+00  0.00000000E+00  0.00000000E+00
  0.00000000E+00  0.00000000E+00  0.00000000E+00
  0.00000000E+00  0.00000000E+00  0.00000000E+00
  0.00000000E+00  0.00000000E+00  0.00000000E+00
  0.00000000E+00  0.00000000E+00  0.00000000E+00
  0.00000000E+00  0.00000000E+00  0.00000000E+00
  0.00000000E+00  0.00000000E+00  0.00000000E+00
  0.00000000E+00  0.00000000E+00  0.00000000E+00
  0.00000000E+00  0.00000000E+00  0.00000000E+00
  0.00000000E+00  0.00000000E+00  0.00000000E+00
  0.00000000E+00  0.00000000E+00  0.00000000E+00
  0.00000000E+00  0.00000000E+00  0.00000000E+00
  0.00000000E+00  0.00000000E+00  0.00000000E+00
  0.00000000E+00  0.00000000E+00  0.00000000E+00
  0.00000000E+00  0.00000000E+00  0.00000000E+00
  0.00000000E+00  0.00000000E+00  0.00000000E+00
  0.00000000E+00  0.00000000E+00  0.00000000E+00
  0.00000000E+00  0.00000000E+00  0.00000000E+00
  0.00000000E+00  0.00000000E+00  0.00000000E+00
  0.00000000E+00  0.00000000E+00  0.00000000E+00
  0.00000000E+00  0.00000000E+00  0.00000000E+00
  0.00000000E+00  0.00000000E+00  0.00000000E+00
  0.00000000E+00  0.00000000E+00  0.00000000E+00
  0.00000000E+00  0.00000000E+00  0.00000000E+00
  0.00000000E+00  0.00000000E+00  0.00000000E+00
  0.00000000E+00  0.00000000E+00  0.00000000E+00
  0.00000000E+00  0.00000000E+00  0.00000000E+00
  0.00000000E+00  0.00000000E+00  0.00000000E+00
  0.00000000E+00  0.00000000E+00  0.00000000E+00
  0.00000000E+00  0.00000000E+00  0.00000000E+00
  0.00000000E+00  0.00000000E+00  0.00000000E+00
  0.00000000E+00  0.00000000E+00  0.00000000E+00
  0.00000000E+00  0.00000000E+00  0.00000000E+00
  0.00000000E+00  0.00000000E+00  0.00000000E+00
  0.00000000E+00  0.00000000E+00  0.00000000E+00
  0.00000000E+00  0.00000000E+00  0.00000000E+00
  0.00000000E+00  0.00000000E+00  0.00000000E+00
  0.00000000E+00  0.00000000E+00  0.00000000E+00
  0.00000000E+00  0.00000000E+00  0.00000000E+00
  0.00000000E+00  0.00000000E+00  0.00000000E+00
  0.00000000E+00  0.00000000E+00  0.00000000E+00
  0.00000000E+00  0.00000000E+00  0.00000000E+00
  0.00000000E+00  0.00000000E+00  0.00000000E+00
  0.00000000E+00  0.00000000E+00  0.00000000E+00
  0.00000000E+00  0.00000000E+00  0.00000000E+00
  0.00000000E+00  0.00000000E+00  0.00000000E+00
  0.00000000E+00  0.00000000E+00  0.00000000E+00
  0.00000000E+00  0.00000000E+00  0.00000000E+00
  0.00000000E+00  0.00000000E+00  0.00000000E+00
  0.00000000E+00  0.00000000E+00  0.00000000E+00
  0.00000000E+00  0.00000000E+00  0.00000000E+00
  0.00000000E+00  0.00000000E+00  0.00000000E+00
  0.00000000E+00  0.00000000E+00  0.00000000E+00
  0.00000000E+00  0.00000000E+00  0.00000000E+00
  0.00000000E+00  0.00000000E+00  0.00000000E+00
  0.00000000E+00  0.00000000E+00  0.00000000E+00
  0.00000000E+00  0.00000000E+00  0.00000000E+00
  0.00000000E+00  0.00000000E+00  0.00000000E+00
  0.00000000E+00  0.00000000E+00  0.00000000E+00
  0.00000000E+00  0.00000000E+00  0.00000000E+00
  0.00000000E+00  0.00000000E+00  0.00000000E+00
  0.00000000E+00  0.00000000E+00  0.00000000E+00
  0.00000000E+00  0.00000000E+00  0.00000000E+00
  0.00000000E+00  0.00000000E+00  0.00000000E+00
  0.00000000E+00  0.00000000E+00  0.00000000E+00
  0.00000000E+00  0.00000000E+00  0.00000000E+00
  0.00000000E+00  0.00000000E+00  0.00000000E+00
  0.00000000E+00  0.00000000E+00  0.00000000E+00
  0.00000000E+00  0.00000000E+00  0.00000000E+00
  0.00000000E+00  0.00000000E+00  0.00000000E+00
  0.00000000E+00  0.00000000E+00  0.00000000E+00
  0.00000000E+00  0.00000000E+00  0.00000000E+00
  0.00000000E+00  0.00000000E+00  0.00000000E+00
  0.00000000E+00  0.00000000E+00  0.00000000E+00
  0.00000000E+00  0.00000000E+00  0.00000000E+00
  0.00000000E+00  0.00000000E+00  0.00000000E+00
  0.00000000E+00  0.00000000E+00  0.00000000E+00
  0.00000000E+00  0.00000000E+00  0.00000000E+00
  0.00000000E+00  0.00000000E+00  0.00000000E+00
  0.00000000E+00  0.00000000E+00  0.00000000E+00
  0.00000000E+00  0.00000000E+00  0.00000000E+00
  0.00000000E+00  0.00000000E+00  0.00000000E+00
  0.00000000E+00  0.00000000E+00  0.00000000E+00
  0.00000000E+00  0.00000000E+00  0.00000000E+00
  0.00000000E+00  0.00000000E+00  0.00000000E+00
  0.00000000E+00  0.00000000E+00  0.00000000E+00
  0.00000000E+00  0.00000000E+00  0.00000000E+00
  0.00000000E+00  0.00000000E+00  0.00000000E+00
  0.00000000E+00  0.00000000E+00  0.00000000E+00
  0.00000000E+00  0.00000000E+00  0.00000000E+00
  0.00000000E+00  0.00000000E+00  0.00000000E+00
  0.00000000E+00  0.00000000E+00  0.00000000E+00
  0.00000000E+00  0.00000000E+00  0.00000000E+00
  0.00000000E+00  0.00000000E+00  0.00000000E+00
  0.00000000E+00  0.00000000E+00  0.00000000E+00
  0.00000000E+00  0.00000000E+00  0.00000000E+00
  0.00000000E+00  0.00000000E+00  0.00000000E+00
  0.00000000E+00  0.00000000E+00  0.00000000E+00
  0.00000000E+00  0.00000000E+00  0.00000000E+00
  0.00000000E+00  0.00000000E+00  0.00000000E+00
  0.00000000E+00  0.00000000E+00  0.00000000E+00
  0.00000000E+00  0.00000000E+00  0.00000000E+00
  0.00000000E+00  0.00000000E+00  0.00000000E+00
  0.00000000E+00  0.00000000E+00  0.00000000E+00
  0.00000000E+00  0.00000000E+00  0.00000000E+00
  0.00000000E+00  0.00000000E+00  0.00000000E+00
  0.00000000E+00  0.00000000E+00  0.00000000E+00
  0.00000000E+00  0.00000000E+00  0.00000000E+00
  0.00000000E+00  0.00000000E+00  0.00000000E+00
  0.00000000E+00  0.00000000E+00  0.00000000E+00
  0.00000000E+00  0.00000000E+00  0.00000000E+00
  0.00000000E+00  0.00000000E+00  0.00000000E+00
  0.00000000E+00  0.00000000E+00  0.00000000E+00
  0.00000000E+00  0.00000000E+00  0.00000000E+00
  0.00000000E+00  0.00000000E+00  0.00000000E+00
  0.00000000E+00  0.00000000E+00  0.00000000E+00
  0.00000000E+00  0.00000000E+00  0.00000000E+00
  0.00000000E+00  0.00000000E+00  0.00000000E+00
  0.00000000E+00  0.00000000E+00  0.00000000E+00
  0.00000000E+00  0.00000000E+00  0.00000000E+00
  0.00000000E+00  0.00000000E+00  0.00000000E+00
  0.00000000E+00  0.00000000E+00  0.00000000E+00
  0.00000000E+00  0.00000000E+00  0.00000000E+00
  0.00000000E+00  0.00000000E+00  0.00000000E+00
  0.00000000E+00  0.00000000E+00  0.00000000E+00
  0.00000000E+00  0.00000000E+00  0.00000000E+00
  0.00000000E+00  0.00000000E+00  0.00000000E+00
  0.00000000E+00  0.00000000E+00  0.00000000E+00
  0.00000000E+00  0.00000000E+00  0.00000000E+00
  0.00000000E+00  0.00000000E+00  0.00000000E+00
  0.00000000E+00  0.00000000E+00  0.00000000E+00
  0.00000000E+00  0.00000000E+00  0.00000000E+00
  0.00000000E+00  0.00000000E+00  0.00000000E+00
  0.00000000E+00  0.00000000E+00  0.00000000E+00
  0.00000000E+00  0.00000000E+00  0.00000000E+00
  0.00000000E+00  0.00000000E+00  0.00000000E+00
  0.00000000E+00  0.00000000E+00  0.00000000E+00
  0.00000000E+00  0.00000000E+00  0.00000000E+00
  0.00000000E+00  0.00000000E+00  0.00000000E+00
  0.00000000E+00  0.00000000E+00  0.00000000E+00
  0.00000000E+00  0.00000000E+00  0.00000000E+00
  0.00000000E+00  0.00000000E+00  0.00000000E+00
  0.00000000E+00  0.00000000E+00  0.00000000E+00
  0.00000000E+00  0.00000000E+00  0.00000000E+00
  0.00000000E+00  0.00000000E+00  0.00000000E+00
  0.00000000E+00  0.00000000E+00  0.00000000E+00
  0.00000000E+00  0.00000000E+00  0.00000000E+00
  0.00000000E+00  0.00000000E+00  0.00000000E+00
  0.00000000E+00  0.00000000E+00  0.00000000E+00
  0.00000000E+00  0.00000000E+00  0.00000000E+00
  0.00000000E+00  0.00000000E+00  0.00000000E+00
  0.00000000E+00  0.00000000E+00  0.00000000E+00
  0.00000000E+00  0.00000000E+00  0.00000000E+00
  0.00000000E+00  0.00000000E+00  0.00000000E+00
  0.00000000E+00  0.00000000E+00  0.00000000E+00
  0.00000000E+00  0.00000000E+00  0.00000000E+00
  0.00000000E+00  0.00000000E+00  0.00000000E+00
  0.00000000E+00  0.00000000E+00  0.00000000E+00
  0.00000000E+00  0.00000000E+00  0.00000000E+00
  0.00000000E+00  0.00000000E+00  0.00000000E+00
  0.00000000E+00  0.00000000E+00  0.00000000E+00
  0.00000000E+00  0.00000000E+00  0.00000000E+00
  0.00000000E+00  0.00000000E+00  0.00000000E+00
  0.00000000E+00  0.00000000E+00  0.00000000E+00
  0.00000000E+00  0.00000000E+00  0.00000000E+00
  0.00000000E+00  0.00000000E+00  0.00000000E+00
  0.00000000E+00  0.00000000E+00  0.00000000E+00
  0.00000000E+00  0.00000000E+00  0.00000000E+00
  0.00000000E+00  0.00000000E+00  0.00000000E+00
  0.00000000E+00  0.00000000E+00  0.00000000E+00
  0.00000000E+00  0.00000000E+00  0.00000000E+00
  0.00000000E+00  0.00000000E+00  0.00000000E+00
  0.00000000E+00  0.00000000E+00  0.00000000E+00
  0.00000000E+00  0.00000000E+00  0.00000000E+00
  0.00000000E+00  0.00000000E+00  0.00000000E+00
  0.00000000E+00  0.00000000E+00  0.00000000E+00
  0.00000000E+00  0.00000000E+00  0.00000000E+00
  0.00000000E+00  0.00000000E+00  0.00000000E+00
  0.00000000E+00  0.00000000E+00  0.00000000E+00
  0.00000000E+00  0.00000000E+00  0.00000000E+00
  0.00000000E+00  0.00000000E+00  0.00000000E+00
  0.00000000E+00  0.00000000E+00  0.00000000E+00
  0.00000000E+00  0.00000000E+00  0.00000000E+00
  0.00000000E+00  0.00000000E+00  0.00000000E+00
  0.00000000E+00  0.00000000E+00  0.00000000E+00
  0.00000000E+00  0.00000000E+00  0.00000000E+00
  0.00000000E+00  0.00000000E+00  0.00000000E+00
  0.00000000E+00  0.00000000E+00  0.00000000E+00
  0.00000000E+00  0.00000000E+00  0.00000000E+00
  0.00000000E+00  0.00000000E+00  0.00000000E+00
  0.00000000E+00  0.00000000E+00  0.00000000E+00
  0.00000000E+00  0.00000000E+00  0.00000000E+00
  0.00000000E+00  0.00000000E+00  0.00000000E+00
  0.00000000E+00  0.00000000E+00  0.00000000E+00
  0.00000000E+00  0.00000000E+00  0.00000000E+00
  0.00000000E+00  0.00000000E+00  0.00000000E+00
  0.00000000E+00  0.00000000E+00  0.00000000E+00
  0.00000000E+00  0.00000000E+00  0.00000000E+00
  0.00000000E+00  0.00000000E+00  0.00000000E+00
  0.00000000E+00  0.00000000E+00  0.00000000E+00
  0.00000000E+00  0.00000000E+00  0.00000000E+00
  0.00000000E+00  0.00000000E+00  0.00000000E+00
  0.00000000E+00  0.00000000E+00  0.00000000E+00
  0.00000000E+00  0.00000000E+00  0.00000000E+00
  0.00000000E+00  0.00000000E+00  0.00000000E+00
  0.00000000E+00  0.00000000E+00  0.00000000E+00
  0.00000000E+00  0.00000000E+00  0.00000000E+00
  0.00000000E+00  0.00000000E+00  0.00000000E+00
  0.00000000E+00  0.00000000E+00  0.00000000E+00
  0.00000000E+00  0.00000000E+00  0.00000000E+00
  0.00000000E+00  0.00000000E+00  0.00000000E+00
  0.00000000E+00  0.00000000E+00  0.00000000E+00
  0.00000000E+00  0.00000000E+00  0.00000000E+00
  0.00000000E+00  0.00000000E+00  0.00000000E+00
  0.00000000E+00  0.00000000E+00  0.00000000E+00
  0.00000000E+00  0.00000000E+00  0.00000000E+00
  0.00000000E+00  0.00000000E+00  0.00000000E+00
  0.00000000E+00  0.00000000E+00  0.00000000E+00
  0.00000000E+00  0.00000000E+00  0.00000000E+00
  0.00000000E+00  0.00000000E+00  0.00000000E+00
  0.00000000E+00  0.00000000E+00  0.00000000E+00
  0.00000000E+00  0.00000000E+00  0.00000000E+00
  0.00000000E+00  0.00000000E+00  0.00000000E+00
  0.00000000E+00  0.00000000E+00  0.00000000E+00
  0.00000000E+00  0.00000000E+00  0.00000000E+00
  0.00000000E+00  0.00000000E+00  0.00000000E+00
  0.00000000E+00  0.00000000E+00  0.00000000E+00
  0.00000000E+00  0.00000000E+00  0.00000000E+00
  0.00000000E+00  0.00000000E+00  0.00000000E+00
  0.00000000E+00  0.00000000E+00  0.00000000E+00
  0.00000000E+00  0.00000000E+00  0.00000000E+00
  0.00000000E+00  0.00000000E+00  0.00000000E+00
  0.00000000E+00  0.00000000E+00  0.00000000E+00
  0.00000000E+00  0.00000000E+00  0.00000000E+00
  0.00000000E+00  0.00000000E+00  0.00000000E+00
  0.00000000E+00  0.00000000E+00  0.00000000E+00
  0.00000000E+00  0.00000000E+00  0.00000000E+00
  0.00000000E+00  0.00000000E+00  0.00000000E+00
  0.00000000E+00  0.00000000E+00  0.00000000E+00