CuInSe2gb                               
   1.00000000000000     
     9.7266780392896699    0.0000000000000000    0.0000000000000000
     0.0000000000000000    8.4235502764570693    0.0000000000000000
     0.0000000000000000    0.0000000000000000   45.0000000000000000
   Fe   Mn
   281     7
Direct
  0.0641140593300066  0.0336843399794474  0.1249486996626013
  0.0631403095289190  0.8724556367138937  0.5216218036291546
  0.1885794748569057  0.1235286409190886  0.7882008689089182
  0.4349939444717795  0.2873785332476796  0.3894865595538286
  0.3100706813175800  0.7109146691631244  0.8333346796272547
  0.8101773028406852  0.2107830427935211  0.8332756176500986
  0.1854643568074263  0.7879181518916605  0.3894661140440563
  0.5633472178623361  0.2066124327378125  0.5655433831204719
  0.0610294463989586  0.0407022304968787  0.7438884619087696
  0.8132541105323193  0.8726041009940766  0.5216921417928050
  0.1861821837022107  0.2906676313033156  0.7437916976206685
  0.9379634752024250  0.4534375722237869  0.3452358661552045
  0.9355022816251729  0.2874648022172372  0.3894918258605565
  0.8116955942824124  0.0424477461071756  0.8752350452159584
  0.1881673204039345  0.7909108340418295  0.6103408182525110
  0.5603322706419036  0.0372240816494805  0.3894900404180811
  0.9347602180649983  0.9608458590486600  0.8333724660419892
  0.3116147529625725  0.5424055917626073  0.8752438820615409
  0.6859610538004851  0.2908090530639741  0.7438496404098220
  0.1907781010300348  0.6163526293547362  0.1666635946026123
  0.8129867756178495  0.2046037271287315  0.4781615523253720
  0.8129954778123087  0.5406102178879981  0.6103735372561340
  0.3130037207088237  0.8704061754180317  0.4342050617306646
  0.8138483908847668  0.0371556028183565  0.2561708525074081
  0.6882885573302590  0.9536587424019765  0.3451476954590428
  0.9411345420842412  0.1148696031697686  0.1667791100199085
  0.9384807201606961  0.1227722938815188  0.5216878117298263
  0.5637918687743101  0.5380793861600431  0.2561895139605198
  0.6872074191238030  0.7926222106631413  0.8752816944615855
  0.5669849105671452  0.3667720266423089  0.1668365447670023
  0.4358597219921322  0.7909492380915959  0.7438452873606739
  0.8135185479265951  0.7065816112393161  0.5656104568768883
  0.5635983821807767  0.8734344791155216  0.7881307732507090
  0.6881806685766079  0.1227157514693329  0.5216705326652360
  0.8116163613016563  0.3746519176515000  0.6548148544830322
  0.9347353980404112  0.4608436990312893  0.8333253941304477
  0.0625106437833684  0.2073619425738927  0.6995126328864485
  0.4379950583427901  0.9575849721507068  0.6995151253780255
  0.3099756581906403  0.2107861076217861  0.8333333154067456
  0.4368038897748205  0.6247958843402377  0.6548036047896320
  0.3131159386530157  0.5410133299396477  0.6103717209628838
  0.9383880249184576  0.4562988147557310  0.5655820144179337
  0.6859757296703448  0.7908978773715736  0.7438100100521986
  0.3117501536853435  0.8747362654098904  0.6547923087426660
  0.6853849740868077  0.7874099249923304  0.3894932553358341
  0.9362130677170818  0.7907846391122706  0.7438354813495066
  0.0632557610451394  0.2033737968263266  0.3451487503755448
  0.8102845780586228  0.0375233040534772  0.3894728459418270
  0.4387639570771834  0.1236933997536595  0.7882572861133628
  0.0616261792587376  0.2044407232363965  0.2119107187856584
  0.0670651373914973  0.3667212840131349  0.1667579534718296
  0.9384106066780924  0.7877453413910965  0.2561685617570165
  0.5624871743265886  0.2079171067909040  0.6995356999343083
  0.6876223592270533  0.9576750921212441  0.6995482899885436
  0.4405221998505972  0.7846829498535540  0.1250770202820713
  0.4386944328856405  0.9566173682959833  0.5656410489797470
  0.8136503383430381  0.3734487873869345  0.7881357013105318
  0.6890994552016227  0.2878283283613715  0.2561781275857585
  0.1884904953642448  0.4563598841695251  0.5656027572271130
  0.0661535649743124  0.8660769173607028  0.1668279056335925
  0.1879647966262664  0.2906705285434602  0.6103059447852248
  0.5633460198847401  0.7036650872123407  0.3451747690445784
  0.3126937013451832  0.2075776474642113  0.6995226652946877
  0.5615989245381872  0.5423713389746226  0.8752479984558906
  0.0635222699563265  0.7063676519225307  0.5656706284593699
  0.6887227757296542  0.6233879004135938  0.7881889508266369
  0.3104886001662504  0.5378742230912533  0.3894867431750259
  0.1881848441111870  0.6230501076362261  0.5216497356014543
  0.5626902161253807  0.8704897626397874  0.4342692398285860
  0.4387100452213149  0.4563958048086715  0.5655795806869429
  0.4360564802841415  0.2906846529841078  0.7438362506441795
  0.8086449750571645  0.8727838576734899  0.3005063225912806
  0.8132837180871827  0.7037377143312051  0.3452399929858812
  0.4348540973183975  0.4608523792946098  0.8333166284544472
  0.6877530750047012  0.9544978152274178  0.4781738077018854
  0.6873071610791903  0.4576503928172952  0.6995474567447434
  0.5631187987237010  0.8725112141399294  0.5216789829074440
  0.5615674343675908  0.3747008259793027  0.6548000731599691
  0.8119630445847064  0.8747567804340439  0.6548348937108476
  0.8127483298512281  0.3706950903759900  0.4343022765871254
  0.8135945233211115  0.5376931872707226  0.2562670857250337
  0.6848292412064898  0.4607992095908576  0.8333315950761246
  0.1911513865989020  0.7828251694459504  0.1250890317046811
  0.0617173975629527  0.0423096990166619  0.8752566740962358
  0.3116619068729273  0.3748443626351709  0.6548067169653327
  0.3131746002928696  0.2031285454364496  0.3451118825513123
  0.8109697443404564  0.5408244137278321  0.7438506485006456
  0.6849050801034704  0.9607863859200300  0.8333593699511768
  0.5614318688564559  0.8747105050032069  0.6548239353853100
  0.3135217145750959  0.7064547777994269  0.5656670448263452
  0.3138367322330003  0.5341550236640612  0.1246960751688305
  0.6862354631783409  0.9552343516006125  0.2120832945769049
  0.3135204187668671  0.2066324344412949  0.5656615071636740
  0.3108632681183572  0.5405143672768284  0.7438333169898144
  0.6884492222370828  0.9567428385103188  0.5655843468708742
  0.4381756353450548  0.7906449515108283  0.6102798860872319
  0.6918577989369442  0.6161258418543026  0.1669270020574201
  0.3083605166457271  0.8722517397224328  0.3004306875469276
  0.3128324185521600  0.7039883478346267  0.4780972120596481
  0.9379760580569174  0.2906433501387846  0.6103577666796680
  0.4337582963306448  0.6221094660392191  0.3004817895507021
  0.8178251131792518  0.8655679123910334  0.1668192362905103
  0.5617461693652877  0.2044529530943027  0.2119183990918363
  0.9414077508944357  0.6166609334307361  0.1669406516417364
  0.9372521138966613  0.7925493133127790  0.8752974346738037
  0.5635829002564907  0.3734033760706549  0.7881446123740026
  0.0632821328346772  0.3725110636785577  0.5216905708419984
  0.5632411962536855  0.3726466868163449  0.5216833388128566
  0.6836172484568217  0.1225050960636779  0.3004616994102787
  0.4347735172347827  0.9608277325485438  0.8333906996147590
  0.1913087797739517  0.2844734397616424  0.1248690990388073
  0.8135960677014029  0.8734674363585764  0.7881591510764556
  0.3129035109916889  0.3707387920341464  0.4342884969783414
  0.5639467782854386  0.0333553439909799  0.1250185799996738
  0.4379792489155424  0.2906979433389237  0.6103660322736603
  0.1882741795682939  0.4530988286210130  0.3452214954378050
  0.4394814101851576  0.2842801239434121  0.1248870850864292
  0.6888920016862700  0.7873789308422392  0.2561789798359608
  0.4379726231607986  0.1227150662949613  0.5216699004997480
  0.1872056770117846  0.2923701681015968  0.8753398812471797
  0.1868512354760235  0.1247036049145454  0.6547714796604552
  0.9370581043752333  0.1246729159593826  0.6548265119970457
  0.3114882981027190  0.2044907409133115  0.2119753673524930
  0.0603441672329634  0.0371074794332113  0.3894836129152241
  0.1916037580958754  0.1159880723888894  0.1670024616488399
  0.0631315955929336  0.5408765005745537  0.6103734419011499
  0.9383286730668677  0.2880077687785284  0.2561785590306456
  0.5631726912327629  0.5406781813793152  0.6103639376883692
  0.9383796132215230  0.9566310818858370  0.5656519535979125
  0.6835563773991871  0.6225921761648840  0.3004110027166875
  0.9377404451465846  0.6204819512905264  0.4342824334681953
  0.9387452126542500  0.6234258658221825  0.7881968564529754
  0.5625338324426084  0.7073999448730052  0.6995089255480513
  0.0599182759085373  0.7109487793105583  0.8333241177584143
  0.9338737448305727  0.1219603242045857  0.3004093001041936
  0.9381167135973975  0.7907086829397622  0.6102869717120922
  0.4392234433986235  0.7876324661355397  0.2561274562936415
  0.3136292488084229  0.3732478278211421  0.7881313458906297
  0.4366372593803288  0.4549715525704099  0.2120481482538156
  0.1879631587441420  0.1230116005772962  0.5216374331096416
  0.8126547357970402  0.7074565129450952  0.6995343006204732
  0.0634119034977334  0.0405420004321416  0.6103426271593576
  0.5599782454915417  0.2107566764176874  0.8332688632928181
  0.3133814363913419  0.8724760807545117  0.5216577471462081
  0.6913178224652970  0.2847477420811634  0.1248413708984557
  0.1865761461921761  0.9553968499756165  0.2120925447184939
  0.6879786020500785  0.2906585658272066  0.6103744183415123
  0.3129799931693294  0.0406064087954457  0.6103378552826870
  0.9386131878397926  0.1236334345490709  0.7882772357401683
  0.4371822582398862  0.7925750347804622  0.8753292559532740
  0.8108891016860411  0.0407886227184817  0.7438680015713038
  0.9371564127306355  0.4573719445828270  0.6995582747791050
  0.1868478890496531  0.6248313824117868  0.6548049202154673
  0.3128795706945234  0.7074542666327325  0.6995183347038789
  0.9394943105413927  0.2848202502637830  0.1247664216574635
  0.4382158749582036  0.4543288049991933  0.4781891462548223
  0.0627864259613276  0.7038122397464335  0.4781167903972833
  0.9377700023790082  0.1206543932201414  0.4342151932414080
  0.4333446071196136  0.1223562543423604  0.3005238679132639
  0.1878364014752709  0.1210038086651487  0.4341966156997603
  0.5616347978214333  0.0423782694687240  0.8752544031322598
  0.1885873887094834  0.9566234179751888  0.5653266673677547
  0.6891618413335739  0.7832529683380344  0.1250815580405126
  0.5645026792561623  0.5341879335192328  0.1249253204246053
  0.3102800139146291  0.0369175423286660  0.3895461103843118
  0.6915561081655185  0.1160306320789985  0.1670706125770187
  0.8111662257695984  0.2038219338197615  0.2119498216930476
  0.0634330396139490  0.5378134191838052  0.2562137595982652
  0.5625572028879312  0.7042954502059823  0.4781386070281010
  0.0633767696555555  0.2065964199941525  0.5656335575185697
  0.5585256242075732  0.3726190615436670  0.3005136227742947
  0.4380028103010530  0.9534596152088830  0.3451080419499366
  0.1848753979836946  0.9608898180384716  0.8333545386598871
  0.4410060934243073  0.6162116323331842  0.1669821065326493
  0.9370896608644941  0.4546557143489215  0.2121256724684291
  0.0651711816932583  0.5344853276336661  0.1248248528745095
  0.8132714554302927  0.3726335680764321  0.5216729888364813
  0.9336424220938009  0.6222888112236459  0.3005086370052513
  0.3138176922248890  0.0373211980145052  0.2562027178874288
  0.6880926752649872  0.7906381011157951  0.6103394169583440
  0.1848188611078269  0.4609150027459272  0.8332675534976104
  0.4411495830173986  0.1157547381076048  0.1668753322244058
  0.3132969798535203  0.3725708152227554  0.5216713774951374
  0.4385848685511958  0.6235061520977457  0.7881866351629462
  0.0633273709094588  0.0376334324215102  0.2561372760366906
  0.5635153802054720  0.7065694352920601  0.5655886535153619
  0.9361026208660356  0.2907988269942461  0.7438603759865092
  0.6887354885357757  0.1234401363910557  0.7882161718337001
  0.1863310987688552  0.4554804320641959  0.2121024522616172
  0.9355708680309669  0.7873865424786360  0.3894455623678626
  0.6872129455767695  0.2925221092757981  0.8753783434685746
  0.3172987984783812  0.8664619223554951  0.1668559519835317
  0.4377118655712594  0.4573420749437937  0.6995584516518630
  0.9383267750924565  0.9536011492567699  0.3450937151694172
  0.6880917791912083  0.6226423315636125  0.5216796037912265
  0.0617924100449693  0.8748280143597080  0.6547893842773259
  0.0635997384092153  0.8733954183964219  0.7881556394626168
  0.0614928995318564  0.3747582525528743  0.6548263264129229
  0.6878695431294740  0.4544600545654998  0.4781569160576573
  0.1885985522390547  0.7875677458598470  0.2561847172654950
  0.4374657242398476  0.1206014478086492  0.4342355668441240
  0.8140954866367006  0.0360713841336277  0.1249776587532349
  0.9382387483194070  0.6227705469272246  0.5216789416106533
  0.0623965925081519  0.8703971467230016  0.4342162269763060
  0.8133191594847849  0.5342992114081575  0.1246493133571940
  0.4384239886713927  0.4534283327224825  0.3451696779840412
  0.8133579567884425  0.2033242741852326  0.3451059838690226
  0.3133497070801104  0.7031435743255680  0.3451801634079005
  0.6867623581738973  0.1247977096526805  0.6548278797205875
  0.5585813436438750  0.8726669192954594  0.3004491049685510
  0.0608187189785912  0.5405774313817749  0.7438417049733629
  0.9367292971814600  0.9551990190024023  0.2119787174863320
  0.8113571216465539  0.7040528533054592  0.2118464345609805
  0.0587147684187939  0.8721394483281106  0.3004588822600068
  0.1835935043127145  0.1224231533584460  0.3005308056877734
  0.0632051939124163  0.7033090705228774  0.3450635859394542
  0.8131223901823762  0.0405829738268409  0.6103566396818637
  0.0625544712792842  0.3708106925137826  0.4342899060441249
  0.5632430361953272  0.2034481788439640  0.3451345437643282
  0.8086019781204156  0.3727189855252563  0.3004645513930483
  0.4384221111885920  0.9546542155856865  0.4780869592446903
  0.5602281132265795  0.5371560883428742  0.3894283556220310
  0.0622356076012305  0.2044176754916847  0.4781071313955845
  0.3135477300972220  0.8734303728129198  0.7881652017088047
  0.9372506567500059  0.9575561009785248  0.6995371471691942
  0.0585476030151898  0.3726370839098523  0.3005671543508803
  0.6866204606774383  0.6244891069157342  0.6548003146578535
  0.6884723859070113  0.4566633414981336  0.5655763198826458
  0.4370301434339358  0.9549734646698380  0.2120278730537474
  0.3135647194948714  0.2046994030621172  0.4780883945519397
  0.4366100715626519  0.1247231752569416  0.6547922639611193
  0.6876785574609894  0.6204284423923300  0.4342805967967492
  0.8126769928590185  0.2078930104406617  0.6995241746116838
  0.8131997952528847  0.7041474749468705  0.4781310063839201
  0.8127147689106647  0.8704340229839507  0.4342478400439997
  0.9373582503433943  0.9545395808560124  0.4780868484270280
  0.5625778055260732  0.2044045432609138  0.4781714341586587
  0.1876639351316690  0.6208145929511708  0.4342636888809399
  0.3109685306382877  0.0406832876238404  0.7438485321475983
  0.9367423977164991  0.6246105112548666  0.6548081696941428
  0.5600502260615952  0.7108037414757723  0.8332965574723412
  0.3087571802213935  0.3723314862453537  0.3004860188639464
  0.5613338094619998  0.7045530957012840  0.2120288541727374
  0.1877139748629109  0.4544731216426719  0.4781357511585571
  0.3115862621864748  0.0423933861203770  0.8752508643420193
  0.1874736619439599  0.4576962099519974  0.6995659268705494
  0.8115860416229344  0.5423074607406707  0.8752385322016882
  0.1851782931538692  0.2877129350751457  0.3894207416161344
  0.4376767677006667  0.6205730624276053  0.4342566633127259
  0.0616422734015542  0.7047017807736268  0.2119195312858811
  0.5626498157145166  0.3707284521512350  0.4342786691871307
  0.4382652797207728  0.6229242634651401  0.5216961076905808
  0.8099782590919835  0.7108188545267191  0.8332964534690522
  0.0634102433666449  0.3731911616053863  0.7881251065338082
  0.4371738356037712  0.2924795745080837  0.8753056592014461
  0.3139654062555938  0.0353498253001983  0.1250105409292110
  0.6876940356776771  0.1204230483808338  0.4342923951410086
  0.1881844597715258  0.9532703026238099  0.3451838025769214
  0.0599237490441705  0.2108057862964238  0.8333188857296951
  0.5632429104906130  0.0406733964926579  0.6103413999113018
  0.6862303083850692  0.4550220268374234  0.2122032296862592
  0.1859769650546223  0.7907049233802353  0.7439116604756061
  0.1835570198615786  0.6224446563556393  0.3004693723950065
  0.4349766102943662  0.7873930401273362  0.3894054830261730
  0.4389179385150456  0.2874764498805368  0.2562404981102545
  0.0616935421199874  0.5424969062227648  0.8752332765119225
  0.5610487306319623  0.0408339442377163  0.7438701635499461
  0.1871746500303202  0.7926876460224127  0.8753164521387993
  0.9374138083082364  0.4544183527470251  0.4781579696276529
  0.8105612158043982  0.5372775329475317  0.3894826505418870
  0.8133869560844701  0.2065773417647363  0.5655732152548895
  0.1885377879948784  0.6232047410958521  0.7882646662857128
  0.0601440631631944  0.5378383256496831  0.3894953254277890
  0.0622343966196903  0.7074539614461649  0.6995248979411376
  0.3138311420533497  0.5374532451307207  0.2561669484678936
  0.3113420526133672  0.7042533649008060  0.2119210802129981
  0.5667473461243387  0.8663201625714216  0.1668667036564580
  0.5608687393554512  0.5408048371130436  0.7438339846519282
  0.6882635195217373  0.4533752508611448  0.3451485817099916
  0.9373367662174903  0.2925032574085714  0.8753052594979898
  0.5637000981662048  0.0372282322600206  0.2560481049682473
  0.6848822791975767  0.2874085883778092  0.3893635378841674
  0.3176189408669368  0.3657379395860936  0.1663015144018532
  0.8178346455179276  0.3648485317260278  0.1663802787605863
  0.1878697330805276  0.9577613653163287  0.6996013598476917
  0.9403971460343022  0.7853844583823757  0.1251422461877020
  0.1894370098604491  0.2879130765477189  0.2560292350735792
  0.1877876193372482  0.9542916436375054  0.4782984180551395
 
  0.00000000E+00  0.00000000E+00  0.00000000E+00
  0.00000000E+00  0.00000000E+00  0.00000000E+00
  0.00000000E+00  0.00000000E+00  0.00000000E+00
  0.00000000E+00  0.00000000E+00  0.00000000E+00
  0.00000000E+00  0.00000000E+00  0.00000000E+00
  0.00000000E+00  0.00000000E+00  0.00000000E+00
  0.00000000E+00  0.00000000E+00  0.00000000E+00
  0.00000000E+00  0.00000000E+00  0.00000000E+00
  0.00000000E+00  0.00000000E+00  0.00000000E+00
  0.00000000E+00  0.00000000E+00  0.00000000E+00
  0.00000000E+00  0.00000000E+00  0.00000000E+00
  0.00000000E+00  0.00000000E+00  0.00000000E+00
  0.00000000E+00  0.00000000E+00  0.00000000E+00
  0.00000000E+00  0.00000000E+00  0.00000000E+00
  0.00000000E+00  0.00000000E+00  0.00000000E+00
  0.00000000E+00  0.00000000E+00  0.00000000E+00
  0.00000000E+00  0.00000000E+00  0.00000000E+00
  0.00000000E+00  0.00000000E+00  0.00000000E+00
  0.00000000E+00  0.00000000E+00  0.00000000E+00
  0.00000000E+00  0.00000000E+00  0.00000000E+00
  0.00000000E+00  0.00000000E+00  0.00000000E+00
  0.00000000E+00  0.00000000E+00  0.00000000E+00
  0.00000000E+00  0.00000000E+00  0.00000000E+00
  0.00000000E+00  0.00000000E+00  0.00000000E+00
  0.00000000E+00  0.00000000E+00  0.00000000E+00
  0.00000000E+00  0.00000000E+00  0.00000000E+00
  0.00000000E+00  0.00000000E+00  0.00000000E+00
  0.00000000E+00  0.00000000E+00  0.00000000E+00
  0.00000000E+00  0.00000000E+00  0.00000000E+00
  0.00000000E+00  0.00000000E+00  0.00000000E+00
  0.00000000E+00  0.00000000E+00  0.00000000E+00
  0.00000000E+00  0.00000000E+00  0.00000000E+00
  0.00000000E+00  0.00000000E+00  0.00000000E+00
  0.00000000E+00  0.00000000E+00  0.00000000E+00
  0.00000000E+00  0.00000000E+00  0.00000000E+00
  0.00000000E+00  0.00000000E+00  0.00000000E+00
  0.00000000E+00  0.00000000E+00  0.00000000E+00
  0.00000000E+00  0.00000000E+00  0.00000000E+00
  0.00000000E+00  0.00000000E+00  0.00000000E+00
  0.00000000E+00  0.00000000E+00  0.00000000E+00
  0.00000000E+00  0.00000000E+00  0.00000000E+00
  0.00000000E+00  0.00000000E+00  0.00000000E+00
  0.00000000E+00  0.00000000E+00  0.00000000E+00
  0.00000000E+00  0.00000000E+00  0.00000000E+00
  0.00000000E+00  0.00000000E+00  0.00000000E+00
  0.00000000E+00  0.00000000E+00  0.00000000E+00
  0.00000000E+00  0.00000000E+00  0.00000000E+00
  0.00000000E+00  0.00000000E+00  0.00000000E+00
  0.00000000E+00  0.00000000E+00  0.00000000E+00
  0.00000000E+00  0.00000000E+00  0.00000000E+00
  0.00000000E+00  0.00000000E+00  0.00000000E+00
  0.00000000E+00  0.00000000E+00  0.00000000E+00
  0.00000000E+00  0.00000000E+00  0.00000000E+00
  0.00000000E+00  0.00000000E+00  0.00000000E+00
  0.00000000E+00  0.00000000E+00  0.00000000E+00
  0.00000000E+00  0.00000000E+00  0.00000000E+00
  0.00000000E+00  0.00000000E+00  0.00000000E+00
  0.00000000E+00  0.00000000E+00  0.00000000E+00
  0.00000000E+00  0.00000000E+00  0.00000000E+00
  0.00000000E+00  0.00000000E+00  0.00000000E+00
  0.00000000E+00  0.00000000E+00  0.00000000E+00
  0.00000000E+00  0.00000000E+00  0.00000000E+00
  0.00000000E+00  0.00000000E+00  0.00000000E+00
  0.00000000E+00  0.00000000E+00  0.00000000E+00
  0.00000000E+00  0.00000000E+00  0.00000000E+00
  0.00000000E+00  0.00000000E+00  0.00000000E+00
  0.00000000E+00  0.00000000E+00  0.00000000E+00
  0.00000000E+00  0.00000000E+00  0.00000000E+00
  0.00000000E+00  0.00000000E+00  0.00000000E+00
  0.00000000E+00  0.00000000E+00  0.00000000E+00
  0.00000000E+00  0.00000000E+00  0.00000000E+00
  0.00000000E+00  0.00000000E+00  0.00000000E+00
  0.00000000E+00  0.00000000E+00  0.00000000E+00
  0.00000000E+00  0.00000000E+00  0.00000000E+00
  0.00000000E+00  0.00000000E+00  0.00000000E+00
  0.00000000E+00  0.00000000E+00  0.00000000E+00
  0.00000000E+00  0.00000000E+00  0.00000000E+00
  0.00000000E+00  0.00000000E+00  0.00000000E+00
  0.00000000E+00  0.00000000E+00  0.00000000E+00
  0.00000000E+00  0.00000000E+00  0.00000000E+00
  0.00000000E+00  0.00000000E+00  0.00000000E+00
  0.00000000E+00  0.00000000E+00  0.00000000E+00
  0.00000000E+00  0.00000000E+00  0.00000000E+00
  0.00000000E+00  0.00000000E+00  0.00000000E+00
  0.00000000E+00  0.00000000E+00  0.00000000E+00
  0.00000000E+00  0.00000000E+00  0.00000000E+00
  0.00000000E+00  0.00000000E+00  0.00000000E+00
  0.00000000E+00  0.00000000E+00  0.00000000E+00
  0.00000000E+00  0.00000000E+00  0.00000000E+00
  0.00000000E+00  0.00000000E+00  0.00000000E+00
  0.00000000E+00  0.00000000E+00  0.00000000E+00
  0.00000000E+00  0.00000000E+00  0.00000000E+00
  0.00000000E+00  0.00000000E+00  0.00000000E+00
  0.00000000E+00  0.00000000E+00  0.00000000E+00
  0.00000000E+00  0.00000000E+00  0.00000000E+00
  0.00000000E+00  0.00000000E+00  0.00000000E+00
  0.00000000E+00  0.00000000E+00  0.00000000E+00
  0.00000000E+00  0.00000000E+00  0.00000000E+00
  0.00000000E+00  0.00000000E+00  0.00000000E+00
  0.00000000E+00  0.00000000E+00  0.00000000E+00
  0.00000000E+00  0.00000000E+00  0.00000000E+00
  0.00000000E+00  0.00000000E+00  0.00000000E+00
  0.00000000E+00  0.00000000E+00  0.00000000E+00
  0.00000000E+00  0.00000000E+00  0.00000000E+00
  0.00000000E+00  0.00000000E+00  0.00000000E+00
  0.00000000E+00  0.00000000E+00  0.00000000E+00
  0.00000000E+00  0.00000000E+00  0.00000000E+00
  0.00000000E+00  0.00000000E+00  0.00000000E+00
  0.00000000E+00  0.00000000E+00  0.00000000E+00
  0.00000000E+00  0.00000000E+00  0.00000000E+00
  0.00000000E+00  0.00000000E+00  0.00000000E+00
  0.00000000E+00  0.00000000E+00  0.00000000E+00
  0.00000000E+00  0.00000000E+00  0.00000000E+00
  0.00000000E+00  0.00000000E+00  0.00000000E+00
  0.00000000E+00  0.00000000E+00  0.00000000E+00
  0.00000000E+00  0.00000000E+00  0.00000000E+00
  0.00000000E+00  0.00000000E+00  0.00000000E+00
  0.00000000E+00  0.00000000E+00  0.00000000E+00
  0.00000000E+00  0.00000000E+00  0.00000000E+00
  0.00000000E+00  0.00000000E+00  0.00000000E+00
  0.00000000E+00  0.00000000E+00  0.00000000E+00
  0.00000000E+00  0.00000000E+00  0.00000000E+00
  0.00000000E+00  0.00000000E+00  0.00000000E+00
  0.00000000E+00  0.00000000E+00  0.00000000E+00
  0.00000000E+00  0.00000000E+00  0.00000000E+00
  0.00000000E+00  0.00000000E+00  0.00000000E+00
  0.00000000E+00  0.00000000E+00  0.00000000E+00
  0.00000000E+00  0.00000000E+00  0.00000000E+00
  0.00000000E+00  0.00000000E+00  0.00000000E+00
  0.00000000E+00  0.00000000E+00  0.00000000E+00
  0.00000000E+00  0.00000000E+00  0.00000000E+00
  0.00000000E+00  0.00000000E+00  0.00000000E+00
  0.00000000E+00  0.00000000E+00  0.00000000E+00
  0.00000000E+00  0.00000000E+00  0.00000000E+00
  0.00000000E+00  0.00000000E+00  0.00000000E+00
  0.00000000E+00  0.00000000E+00  0.00000000E+00
  0.00000000E+00  0.00000000E+00  0.00000000E+00
  0.00000000E+00  0.00000000E+00  0.00000000E+00
  0.00000000E+00  0.00000000E+00  0.00000000E+00
  0.00000000E+00  0.00000000E+00  0.00000000E+00
  0.00000000E+00  0.00000000E+00  0.00000000E+00
  0.00000000E+00  0.00000000E+00  0.00000000E+00
  0.00000000E+00  0.00000000E+00  0.00000000E+00
  0.00000000E+00  0.00000000E+00  0.00000000E+00
  0.00000000E+00  0.00000000E+00  0.00000000E+00
  0.00000000E+00  0.00000000E+00  0.00000000E+00
  0.00000000E+00  0.00000000E+00  0.00000000E+00
  0.00000000E+00  0.00000000E+00  0.00000000E+00
  0.00000000E+00  0.00000000E+00  0.00000000E+00
  0.00000000E+00  0.00000000E+00  0.00000000E+00
  0.00000000E+00  0.00000000E+00  0.00000000E+00
  0.00000000E+00  0.00000000E+00  0.00000000E+00
  0.00000000E+00  0.00000000E+00  0.00000000E+00
  0.00000000E+00  0.00000000E+00  0.00000000E+00
  0.00000000E+00  0.00000000E+00  0.00000000E+00
  0.00000000E+00  0.00000000E+00  0.00000000E+00
  0.00000000E+00  0.00000000E+00  0.00000000E+00
  0.00000000E+00  0.00000000E+00  0.00000000E+00
  0.00000000E+00  0.00000000E+00  0.00000000E+00
  0.00000000E+00  0.00000000E+00  0.00000000E+00
  0.00000000E+00  0.00000000E+00  0.00000000E+00
  0.00000000E+00  0.00000000E+00  0.00000000E+00
  0.00000000E+00  0.00000000E+00  0.00000000E+00
  0.00000000E+00  0.00000000E+00  0.00000000E+00
  0.00000000E+00  0.00000000E+00  0.00000000E+00
  0.00000000E+00  0.00000000E+00  0.00000000E+00
  0.00000000E+00  0.00000000E+00  0.00000000E+00
  0.00000000E+00  0.00000000E+00  0.00000000E+00
  0.00000000E+00  0.00000000E+00  0.00000000E+00
  0.00000000E+00  0.00000000E+00  0.00000000E+00
  0.00000000E+00  0.00000000E+00  0.00000000E+00
  0.00000000E+00  0.00000000E+00  0.00000000E+00
  0.00000000E+00  0.00000000E+00  0.00000000E+00
  0.00000000E+00  0.00000000E+00  0.00000000E+00
  0.00000000E+00  0.00000000E+00  0.00000000E+00
  0.00000000E+00  0.00000000E+00  0.00000000E+00
  0.00000000E+00  0.00000000E+00  0.00000000E+00
  0.00000000E+00  0.00000000E+00  0.00000000E+00
  0.00000000E+00  0.00000000E+00  0.00000000E+00
  0.00000000E+00  0.00000000E+00  0.00000000E+00
  0.00000000E+00  0.00000000E+00  0.00000000E+00
  0.00000000E+00  0.00000000E+00  0.00000000E+00
  0.00000000E+00  0.00000000E+00  0.00000000E+00
  0.00000000E+00  0.00000000E+00  0.00000000E+00
  0.00000000E+00  0.00000000E+00  0.00000000E+00
  0.00000000E+00  0.00000000E+00  0.00000000E+00
  0.00000000E+00  0.00000000E+00  0.00000000E+00
  0.00000000E+00  0.00000000E+00  0.00000000E+00
  0.00000000E+00  0.00000000E+00  0.00000000E+00
  0.00000000E+00  0.00000000E+00  0.00000000E+00
  0.00000000E+00  0.00000000E+00  0.00000000E+00
  0.00000000E+00  0.00000000E+00  0.00000000E+00
  0.00000000E+00  0.00000000E+00  0.00000000E+00
  0.00000000E+00  0.00000000E+00  0.00000000E+00
  0.00000000E+00  0.00000000E+00  0.00000000E+00
  0.00000000E+00  0.00000000E+00  0.00000000E+00
  0.00000000E+00  0.00000000E+00  0.00000000E+00
  0.00000000E+00  0.00000000E+00  0.00000000E+00
  0.00000000E+00  0.00000000E+00  0.00000000E+00
  0.00000000E+00  0.00000000E+00  0.00000000E+00
  0.00000000E+00  0.00000000E+00  0.00000000E+00
  0.00000000E+00  0.00000000E+00  0.00000000E+00
  0.00000000E+00  0.00000000E+00  0.00000000E+00
  0.00000000E+00  0.00000000E+00  0.00000000E+00
  0.00000000E+00  0.00000000E+00  0.00000000E+00
  0.00000000E+00  0.00000000E+00  0.00000000E+00
  0.00000000E+00  0.00000000E+00  0.00000000E+00
  0.00000000E+00  0.00000000E+00  0.00000000E+00
  0.00000000E+00  0.00000000E+00  0.00000000E+00
  0.00000000E+00  0.00000000E+00  0.00000000E+00
  0.00000000E+00  0.00000000E+00  0.00000000E+00
  0.00000000E+00  0.00000000E+00  0.00000000E+00
  0.00000000E+00  0.00000000E+00  0.00000000E+00
  0.00000000E+00  0.00000000E+00  0.00000000E+00
  0.00000000E+00  0.00000000E+00  0.00000000E+00
  0.00000000E+00  0.00000000E+00  0.00000000E+00
  0.00000000E+00  0.00000000E+00  0.00000000E+00
  0.00000000E+00  0.00000000E+00  0.00000000E+00
  0.00000000E+00  0.00000000E+00  0.00000000E+00
  0.00000000E+00  0.00000000E+00  0.00000000E+00
  0.00000000E+00  0.00000000E+00  0.00000000E+00
  0.00000000E+00  0.00000000E+00  0.00000000E+00
  0.00000000E+00  0.00000000E+00  0.00000000E+00
  0.00000000E+00  0.00000000E+00  0.00000000E+00
  0.00000000E+00  0.00000000E+00  0.00000000E+00
  0.00000000E+00  0.00000000E+00  0.00000000E+00
  0.00000000E+00  0.00000000E+00  0.00000000E+00
  0.00000000E+00  0.00000000E+00  0.00000000E+00
  0.00000000E+00  0.00000000E+00  0.00000000E+00
  0.00000000E+00  0.00000000E+00  0.00000000E+00
  0.00000000E+00  0.00000000E+00  0.00000000E+00
  0.00000000E+00  0.00000000E+00  0.00000000E+00
  0.00000000E+00  0.00000000E+00  0.00000000E+00
  0.00000000E+00  0.00000000E+00  0.00000000E+00
  0.00000000E+00  0.00000000E+00  0.00000000E+00
  0.00000000E+00  0.00000000E+00  0.00000000E+00
  0.00000000E+00  0.00000000E+00  0.00000000E+00
  0.00000000E+00  0.00000000E+00  0.00000000E+00
  0.00000000E+00  0.00000000E+00  0.00000000E+00
  0.00000000E+00  0.00000000E+00  0.00000000E+00
  0.00000000E+00  0.00000000E+00  0.00000000E+00
  0.00000000E+00  0.00000000E+00  0.00000000E+00
  0.00000000E+00  0.00000000E+00  0.00000000E+00
  0.00000000E+00  0.00000000E+00  0.00000000E+00
  0.00000000E+00  0.00000000E+00  0.00000000E+00
  0.00000000E+00  0.00000000E+00  0.00000000E+00
  0.00000000E+00  0.00000000E+00  0.00000000E+00