CuInSe2gb                               
   1.00000000000000     
     9.7266780392896699    0.0000000000000000    0.0000000000000000
     0.0000000000000000    8.4235502764570693    0.0000000000000000
     0.0000000000000000    0.0000000000000000   45.0000000000000000
   Fe   Mn
   281     7
Direct
  0.0617095608440999  0.0319320145870011  0.1246563134896478
  0.0630420633466880  0.8712319545313232  0.5212056429085840
  0.1905457139016314  0.1224018573732904  0.7883978810901489
  0.4335889797513372  0.2877194885531060  0.3890602766448666
  0.3084733365477256  0.7126845133636478  0.8331478283322878
  0.8082879608295137  0.2125984812060633  0.8331674434482029
  0.1835679969367361  0.7877791121875105  0.3890791345541233
  0.5633859416785699  0.2069683053356789  0.5653917514105485
  0.0595294747782582  0.0402845390670123  0.7439158916781914
  0.8134119634007870  0.8713554018631862  0.5212625215272271
  0.1846849654832712  0.2904786138276769  0.7438604462040379
  0.9408315004925377  0.4526380131407576  0.3450584463523272
  0.9335315319176158  0.2877904798509738  0.3890709430125008
  0.8120722556857699  0.0407516038890118  0.8755551428668356
  0.1882659099110336  0.7910603318691982  0.6106672602708945
  0.5587908138498691  0.0372190761638194  0.3890555821109158
  0.9334443156298603  0.9626568893448896  0.8331341194858000
  0.3119891424247849  0.5404450230393349  0.8754891895057000
  0.6848917701171022  0.2906960982440907  0.7439486269286727
  0.1920290189511439  0.6141578926841520  0.1669146725314660
  0.8128623232572861  0.2056722110770517  0.4786031666547616
  0.8136502335440396  0.5404897068795382  0.6106716667267439
  0.3131964497887905  0.8696961909874636  0.4344433571982303
  0.8160222549362797  0.0376326885639614  0.2561520521818042
  0.6911484789745839  0.9526561309852741  0.3451361845105643
  0.9416612645613588  0.1123969630816591  0.1668196686196395
  0.9384456988102952  0.1211420705897444  0.5212127528221130
  0.5662330035671620  0.5375525456019286  0.2562660922723065
  0.6879728376310054  0.7933093023502538  0.8756141898701489
  0.5686370248116368  0.3656115824892626  0.1669218360091906
  0.4347769968732429  0.7905009416351094  0.7439376899360093
  0.8140284211900021  0.7072368294067194  0.5654090143029359
  0.5652569404870450  0.8720635535190246  0.7883686178351970
  0.6884108030641336  0.1214111082617663  0.5212563679889451
  0.8100242186125437  0.3751518186596410  0.6547470421616194
  0.9334888139674065  0.4624983164162487  0.8331640720201429
  0.0636027361048090  0.2077527100198225  0.6995710625916419
  0.4382298871541555  0.9579308752438268  0.6996115504242437
  0.3084314552350615  0.2125273243082320  0.8331445130119572
  0.4361880287648108  0.6251595895640311  0.6546908093742231
  0.3137266788329786  0.5406524637062107  0.6106103922894984
  0.9389827584741713  0.4573391471142298  0.5654134015901722
  0.6846866707349817  0.7905268082184191  0.7439756839083819
  0.3114254335173118  0.8752167303230882  0.6546558664929140
  0.6837440852919676  0.7875604519587103  0.3890897173681853
  0.9348646178244211  0.7905727425727928  0.7439728308295005
  0.0665485593576205  0.2023553451181566  0.3450806438202165
  0.8083384621379179  0.0375340173321130  0.3890408441378667
  0.4408620879709778  0.1221300999420065  0.7885322358761040
  0.0604021614179731  0.2071164623476979  0.2121694757024637
  0.0686145362874563  0.3644837535348341  0.1668458647005478
  0.9414697574075277  0.7884093890769182  0.2562190812376385
  0.5629291006641550  0.2081911915031327  0.6995029635355096
  0.6882846355552430  0.9580730893254920  0.6996139782754829
  0.4394928922224546  0.7880526610441113  0.1246006177163920
  0.4389063528132083  0.9574364333076392  0.5654248093225833
  0.8150955686872928  0.3717858399126032  0.7882837163989381
  0.6915924352470926  0.2879377140909620  0.2562149357956324
  0.1889949077220158  0.4571272207362359  0.5654213422862299
  0.0678415338434670  0.8637116421540676  0.1669016417118280
  0.1884159774638310  0.2907319189642279  0.6106011071584437
  0.5662805668685397  0.7025470275493503  0.3450443108461219
  0.3126106194129831  0.2077403870862263  0.6994989576624762
  0.5619081406627516  0.5404324546770265  0.8755127168167032
  0.0637394839937958  0.7067022230541130  0.5654779193647973
  0.6904139507526280  0.6220884567064243  0.7883849009880484
  0.3085760521227016  0.5377777264265661  0.3890531563004930
  0.1884059550742560  0.6213975733407622  0.5212543307795394
  0.5629909111219684  0.8700598499364284  0.4344906795018987
  0.4387505237684728  0.4574955466608217  0.5653936057053339
  0.4349006503387966  0.2905488561063038  0.7439463906393401
  0.8047993037668499  0.8732560745586552  0.3003051905646717
  0.8166794400378502  0.7023510776578535  0.3451412132763338
  0.4336460773693575  0.4626137739104165  0.8331709172483468
  0.6878536421181650  0.9556094965386849  0.4786422827681064
  0.6880472229021892  0.4579871556927655  0.6995779647658109
  0.5634466497153996  0.8714514837826727  0.5212426867294199
  0.5600560975407137  0.3751421748725118  0.6547984482754137
  0.8107330791285420  0.8748056435970284  0.6547603657419893
  0.8129347112163602  0.3697021979691489  0.4344331391579882
  0.8157284576748143  0.5382073529524798  0.2561534917396387
  0.6834478699888604  0.4625946034918037  0.8331431484523307
  0.1913586276506672  0.7872065205952063  0.1248093540769337
  0.0621362941239920  0.0405573094600195  0.8755482365475460
  0.3099082593380101  0.3753521485745703  0.6547876976398148
  0.3160818804874250  0.2025967704317295  0.3450928798392627
  0.8095493119744869  0.5402913266703104  0.7439108544804998
  0.6834885076491281  0.9625213993512063  0.8331122166637104
  0.5619614866611143  0.8751292512785374  0.6546586779378070
  0.3137677473367258  0.7067320356617867  0.5654800668547799
  0.3139276669327574  0.5314925057916908  0.1244653667195034
  0.6851419598891065  0.9558140034524015  0.2120229913723332
  0.3139205517296911  0.2072460709685261  0.5654796443097413
  0.3094400511211913  0.5401954726465341  0.7439563419165803
  0.6888968958685933  0.9572873953918347  0.5654304887567567
  0.4387194530544634  0.7907966197144837  0.6106137776711255
  0.6931359251557151  0.6138328233075119  0.1670836489865514
  0.3048273217837903  0.8733444542143795  0.3004539056058145
  0.3125288984601077  0.7053089126412173  0.4786143145279277
  0.9386378164628302  0.2905997399333617  0.6106164790322762
  0.4302132957960881  0.6241164433675463  0.3004263998167763
  0.8184686885096872  0.8637085448203904  0.1668891775995761
  0.5606873269143070  0.2063544592602064  0.2120248444172423
  0.9427838375047516  0.6134565130771215  0.1667401707592319
  0.9380530892242603  0.7930406294772544  0.8756408292470889
  0.5648896518610372  0.3715712927585688  0.7882879541801810
  0.0633821041230939  0.3714756198408057  0.5212612437890051
  0.5634779648492622  0.3713558947692546  0.5212561976399388
  0.6802925809344386  0.1236709822132383  0.3004514592573723
  0.4334432122891236  0.9625968504021538  0.8331324400498058
  0.1913805382505708  0.2874062008904180  0.1246956864616530
  0.8151166087706671  0.8715401781367584  0.7883197366964830
  0.3125771545382441  0.3699464611119930  0.4344169557238053
  0.5624946348869324  0.0318034173843006  0.1248124373315928
  0.4383238329606887  0.2908921041775114  0.6106188688361226
  0.1915430249447518  0.4520279187345728  0.3450416798573880
  0.4398643697300170  0.2878772989621537  0.1245967625133888
  0.6912099004733030  0.7873202833774756  0.2562789763344877
  0.4381980087103470  0.1211616197759584  0.5212360392793205
  0.1879341729148207  0.2931078651242521  0.8755865077752311
  0.1866534157788446  0.1249334723008352  0.6547225863557590
  0.9366063472408576  0.1246696112919218  0.6546920652476362
  0.3100074467539968  0.2056371825419404  0.2118526253949435
  0.0586450197200309  0.0375066224490120  0.3890829539162876
  0.1942368471106531  0.1148382760841802  0.1673221435831073
  0.0632547492894508  0.5404870594695584  0.6106181648752251
  0.9413359747449087  0.2881854033098910  0.2561596579593060
  0.5633354749028288  0.5404996909057301  0.6106401680596077
  0.9387890598103552  0.9573925982262055  0.5654283720362761
  0.6801715521477214  0.6241326248607951  0.3003767267673048
  0.9380336530820008  0.6199435921734446  0.4344673921359759
  0.9404698819859940  0.6224380293748014  0.7884040378255569
  0.5630364551589293  0.7078395167815786  0.6995857831810973
  0.0584176406985239  0.7126608788515940  0.8331427226776931
  0.9304109288759485  0.1239963726453171  0.3004867260223573
  0.9383015812201878  0.7905719945892863  0.6106175212961186
  0.4416819148229271  0.7877267120173005  0.2561846658423504
  0.3151957542739779  0.3719926065278877  0.7883894741322840
  0.4359816364248356  0.4562261314483974  0.2121117265033372
  0.1885377416699805  0.1214728368777354  0.5211381730681305
  0.8131609415284707  0.7078055879972955  0.6995449009048861
  0.0634226197843997  0.0405088621671331  0.6106445350443489
  0.5584045145948737  0.2125867431981329  0.8331503578287959
  0.3136408197727890  0.8711150708706570  0.5211572708245649
  0.6909573397831984  0.2876897513261601  0.1246847938000394
  0.1863380697614875  0.9563732490958188  0.2121119822489863
  0.6882522242261753  0.2909769552767447  0.6106637640630340
  0.3135125061085964  0.0403909023392751  0.6106345819584331
  0.9404985197614274  0.1223467812363430  0.7884207305788630
  0.4381748030974654  0.7930646177901468  0.8756059428111587
  0.8095485486552761  0.0405161643978699  0.7438410438420202
  0.9379118304325879  0.4580263030546970  0.6995159078797347
  0.1859161005008949  0.6253605466120880  0.6547429310846972
  0.3129059432423042  0.7083106908913528  0.6995680317458066
  0.9395821847038992  0.2871062624756896  0.1245805000568068
  0.4378205546465933  0.4557561186823991  0.4786400382675065
  0.0629265258043976  0.7054799812087191  0.4786011433311933
  0.9382499016846225  0.1196004732252981  0.4344670486823130
  0.4296756465862796  0.1230479375556503  0.3003814458782554
  0.1879621088248383  0.1197276234801831  0.4346009679746195
  0.5623601542208320  0.0403995362805572  0.8755367114427723
  0.1886953906346960  0.9567030425408485  0.5651800451376876
  0.6902896310941943  0.7869856726393174  0.1249025418501948
  0.5626335995204607  0.5316510168749483  0.1246165457959351
  0.3085970621438816  0.0373846150366197  0.3891013501171895
  0.6929236253388904  0.1141962099687791  0.1672036922682804
  0.8094475581721627  0.2060418660666890  0.2121428615358511
  0.0666159194313323  0.5374450237296104  0.2562270109885680
  0.5627124241744975  0.7055962846095940  0.4786044044863485
  0.0632240354449588  0.2071521260479949  0.5654673514385203
  0.5549229220051387  0.3730496200876852  0.3004048677709317
  0.4412890349004837  0.9522511988805948  0.3450007000373498
  0.1833706125854529  0.9626038720849093  0.8331053449826062
  0.4423062652402617  0.6129845428837848  0.1672373354545884
  0.9358396222700266  0.4552667827142812  0.2121945353542984
  0.0631894629961751  0.5332923370753033  0.1245273077467436
  0.8132952399250946  0.3713455795359350  0.5212667900658559
  0.9297496332997761  0.6238317056123370  0.3004825046737037
  0.3150525294892847  0.0383609472269761  0.2561703970651142
  0.6884443884401664  0.7907808147274855  0.6106744873707166
  0.1833220120820239  0.4628882544599833  0.8330261265071003
  0.4423779085977301  0.1137702177224039  0.1669440270730347
  0.3134009550763523  0.3713967685517279  0.5212610681063516
  0.4402945657405683  0.6223749403163438  0.7883838206054659
  0.0660420747045254  0.0380244910603094  0.2560738352466406
  0.5636035656872428  0.7073930375230568  0.5654152918565634
  0.9345057680808322  0.2903316431567738  0.7439082213622614
  0.6904286724324544  0.1225895097556980  0.7884314806373071
  0.1836584918649478  0.4559441426284117  0.2120848756738532
  0.9336951172481857  0.7875464798953855  0.3890753935978436
  0.6882456409358227  0.2931991939894739  0.8756387034268607
  0.3184589866471000  0.8644850668396573  0.1671696167582500
  0.4381228162489348  0.4580554742159416  0.6995284134669582
  0.9416344025170560  0.9522631008566926  0.3450502088173489
  0.6884943115883944  0.6214277217975805  0.5212655712486024
  0.0609775180389991  0.8751080641630781  0.6546853516590633
  0.0652340779217857  0.8722221126715620  0.7883724626576607
  0.0601967517004765  0.3750881493951906  0.6547593106015996
  0.6877556052646484  0.4556641536309287  0.4786171873392425
  0.1911061458819247  0.7874625497162445  0.2561968712089381
  0.4376921483529186  0.1197640435764357  0.4344798982147820
  0.8143436272044566  0.0336091108631342  0.1245024030141271
  0.9384123188120419  0.6214043389834429  0.5212602896552341
  0.0628738674937745  0.8695342012377146  0.4344573868741533
  0.8126020009058218  0.5327487036335939  0.1246735102083742
  0.4415446477015894  0.4523355528636482  0.3451005969337266
  0.8166110137378241  0.2020409630085420  0.3450065660574327
  0.3167190066405774  0.7021160527482319  0.3450572882325019
  0.6867599004354968  0.1250784320684721  0.6546881960042067
  0.5543334003569509  0.8730553608220201  0.3003697665535421
  0.0596028333693216  0.5403462972127595  0.7439359996859821
  0.9350259287461347  0.9553026276792643  0.2119926204651419
  0.8101621909033772  0.7064002274531329  0.2118072095589376
  0.0544409103049444  0.8731372942229474  0.3003218444852521
  0.1797150398364389  0.1233405282830285  0.3002927379648696
  0.0666155664370150  0.7021388970106259  0.3450489128329094
  0.8137295438260012  0.0406845584171363  0.6106432792205453
  0.0633275833573812  0.3695092062589515  0.4344443545156511
  0.5663556177167597  0.2017688252870833  0.3449696020873199
  0.8046739398957585  0.3729163507940521  0.3004275521634566
  0.4378278201331117  0.9557761261007259  0.4785957821271543
  0.5585682737829976  0.5370412194288029  0.3890395685892558
  0.0625700615869420  0.2058136840934324  0.4786117214798849
  0.3152010162515496  0.8721138655885144  0.7884112659902106
  0.9383025462717071  0.9579488849180292  0.6996191845187045
  0.0544157632606518  0.3733460390294734  0.3004859269575032
  0.6862364969742983  0.6252274397498819  0.6547139703600747
  0.6890163456005849  0.4574297690804697  0.5653956987132356
  0.4353126563292243  0.9556770149708987  0.2120340180634517
  0.3127922173098807  0.2057392520592198  0.4785828871598899
  0.4368459286732826  0.1249571230872001  0.6546701942481706
  0.6881237300596657  0.6203115147676047  0.4344359684370024
  0.8132166668159758  0.2081509179318731  0.6996187293876354
  0.8127246130994794  0.7056648623351208  0.4786214511003491
  0.8130332060957914  0.8695099906408114  0.4344437396400008
  0.9375151685577573  0.9557907328001606  0.4785971884996045
  0.5626141946719880  0.2056187770731594  0.4786326423258460
  0.1879409539485369  0.6196247626545172  0.4344362802516739
  0.3096148411202255  0.0404563207199213  0.7439150063331349
  0.9359781314262288  0.6251807356867735  0.6546963085082734
  0.5584229230847333  0.7125742301088053  0.8331393233084169
  0.3048089304576657  0.3729907433617520  0.3004095912067997
  0.5596541445395140  0.7055284189363816  0.2118577679401323
  0.1878270196135395  0.4556619561096155  0.4786306289214988
  0.3120188999686029  0.0407108433196349  0.8755364384338445
  0.1876371136140091  0.4577651511570642  0.6994000303430072
  0.8122242560992875  0.5402006542237898  0.8755655467591621
  0.1834656613546294  0.2877988501045441  0.3890435301357282
  0.4379534958024681  0.6203076225925632  0.4344409893790911
  0.0593299953581588  0.7060323493584852  0.2119094190784399
  0.5632620113918373  0.3693687481106650  0.4344977352536413
  0.4384297518629175  0.6213365404533907  0.5212322712616924
  0.8084807627424079  0.7125700201456443  0.8331423769890225
  0.0652385122406013  0.3719582659797842  0.7884161806028351
  0.4379771367763058  0.2933170445912194  0.8756164537484022
  0.3125231189540413  0.0327066939354856  0.1246206326915518
  0.6879929459782548  0.1202851648318399  0.4344548624056172
  0.1912320464957426  0.9522161082510112  0.3451328316651786
  0.0585975401854469  0.2125767252297031  0.8331596659290271
  0.5633186124935495  0.0406608653469149  0.6106229912449154
  0.6845929071972080  0.4555339631587340  0.2120161642536316
  0.1846694999873378  0.7902227117218695  0.7439278208078713
  0.1799296772801028  0.6231462004618286  0.3003579364478856
  0.4336990730810064  0.7874443870342892  0.3890861802774153
  0.4412909062207102  0.2875445203160178  0.2562280928431042
  0.0620789478839658  0.5404128735394954  0.8755092270061561
  0.5595981880906048  0.0404680383087291  0.7438672348259703
  0.1880773036090885  0.7931701427012364  0.8756039503044494
  0.9377150669675640  0.4555972939061289  0.4786471623559868
  0.8085153733079917  0.5372492378522723  0.3890800639766847
  0.8138718111281569  0.2069593763525808  0.5653819199391086
  0.1908654892514867  0.6221297494471767  0.7885052282932369
  0.0586784264899856  0.5377247910572331  0.3890688428153882
  0.0635153739293472  0.7082028872910544  0.6995962546684712
  0.3156730022478781  0.5376230561006852  0.2561268767789974
  0.3101200718595405  0.7065108383507713  0.2118030338874506
  0.5676102881385475  0.8646810426247526  0.1671284389423316
  0.5593402602577328  0.5405064915139565  0.7439107263340180
  0.6916878586573942  0.4522943724400177  0.3450727541987896
  0.9383463125305019  0.2936090871299775  0.8756354270929759
  0.5664143584609628  0.0372319954369136  0.2561923000468225
  0.6824911299637144  0.2876888898757417  0.3890272595943843
  0.3195816045273572  0.3644477596566317  0.1665813529609975
  0.8195234293270081  0.3632715969632639  0.1664776780402443
  0.1885602895859268  0.9562654319509388  0.6996262039051517
  0.9401675962884194  0.7892163994894926  0.1248814433482936
  0.1921795309856578  0.2885784557553890  0.2560902994753933
  0.1876669861951737  0.9556533593329484  0.4785579838915314
 
  0.00000000E+00  0.00000000E+00  0.00000000E+00
  0.00000000E+00  0.00000000E+00  0.00000000E+00
  0.00000000E+00  0.00000000E+00  0.00000000E+00
  0.00000000E+00  0.00000000E+00  0.00000000E+00
  0.00000000E+00  0.00000000E+00  0.00000000E+00
  0.00000000E+00  0.00000000E+00  0.00000000E+00
  0.00000000E+00  0.00000000E+00  0.00000000E+00
  0.00000000E+00  0.00000000E+00  0.00000000E+00
  0.00000000E+00  0.00000000E+00  0.00000000E+00
  0.00000000E+00  0.00000000E+00  0.00000000E+00
  0.00000000E+00  0.00000000E+00  0.00000000E+00
  0.00000000E+00  0.00000000E+00  0.00000000E+00
  0.00000000E+00  0.00000000E+00  0.00000000E+00
  0.00000000E+00  0.00000000E+00  0.00000000E+00
  0.00000000E+00  0.00000000E+00  0.00000000E+00
  0.00000000E+00  0.00000000E+00  0.00000000E+00
  0.00000000E+00  0.00000000E+00  0.00000000E+00
  0.00000000E+00  0.00000000E+00  0.00000000E+00
  0.00000000E+00  0.00000000E+00  0.00000000E+00
  0.00000000E+00  0.00000000E+00  0.00000000E+00
  0.00000000E+00  0.00000000E+00  0.00000000E+00
  0.00000000E+00  0.00000000E+00  0.00000000E+00
  0.00000000E+00  0.00000000E+00  0.00000000E+00
  0.00000000E+00  0.00000000E+00  0.00000000E+00
  0.00000000E+00  0.00000000E+00  0.00000000E+00
  0.00000000E+00  0.00000000E+00  0.00000000E+00
  0.00000000E+00  0.00000000E+00  0.00000000E+00
  0.00000000E+00  0.00000000E+00  0.00000000E+00
  0.00000000E+00  0.00000000E+00  0.00000000E+00
  0.00000000E+00  0.00000000E+00  0.00000000E+00
  0.00000000E+00  0.00000000E+00  0.00000000E+00
  0.00000000E+00  0.00000000E+00  0.00000000E+00
  0.00000000E+00  0.00000000E+00  0.00000000E+00
  0.00000000E+00  0.00000000E+00  0.00000000E+00
  0.00000000E+00  0.00000000E+00  0.00000000E+00
  0.00000000E+00  0.00000000E+00  0.00000000E+00
  0.00000000E+00  0.00000000E+00  0.00000000E+00
  0.00000000E+00  0.00000000E+00  0.00000000E+00
  0.00000000E+00  0.00000000E+00  0.00000000E+00
  0.00000000E+00  0.00000000E+00  0.00000000E+00
  0.00000000E+00  0.00000000E+00  0.00000000E+00
  0.00000000E+00  0.00000000E+00  0.00000000E+00
  0.00000000E+00  0.00000000E+00  0.00000000E+00
  0.00000000E+00  0.00000000E+00  0.00000000E+00
  0.00000000E+00  0.00000000E+00  0.00000000E+00
  0.00000000E+00  0.00000000E+00  0.00000000E+00
  0.00000000E+00  0.00000000E+00  0.00000000E+00
  0.00000000E+00  0.00000000E+00  0.00000000E+00
  0.00000000E+00  0.00000000E+00  0.00000000E+00
  0.00000000E+00  0.00000000E+00  0.00000000E+00
  0.00000000E+00  0.00000000E+00  0.00000000E+00
  0.00000000E+00  0.00000000E+00  0.00000000E+00
  0.00000000E+00  0.00000000E+00  0.00000000E+00
  0.00000000E+00  0.00000000E+00  0.00000000E+00
  0.00000000E+00  0.00000000E+00  0.00000000E+00
  0.00000000E+00  0.00000000E+00  0.00000000E+00
  0.00000000E+00  0.00000000E+00  0.00000000E+00
  0.00000000E+00  0.00000000E+00  0.00000000E+00
  0.00000000E+00  0.00000000E+00  0.00000000E+00
  0.00000000E+00  0.00000000E+00  0.00000000E+00
  0.00000000E+00  0.00000000E+00  0.00000000E+00
  0.00000000E+00  0.00000000E+00  0.00000000E+00
  0.00000000E+00  0.00000000E+00  0.00000000E+00
  0.00000000E+00  0.00000000E+00  0.00000000E+00
  0.00000000E+00  0.00000000E+00  0.00000000E+00
  0.00000000E+00  0.00000000E+00  0.00000000E+00
  0.00000000E+00  0.00000000E+00  0.00000000E+00
  0.00000000E+00  0.00000000E+00  0.00000000E+00
  0.00000000E+00  0.00000000E+00  0.00000000E+00
  0.00000000E+00  0.00000000E+00  0.00000000E+00
  0.00000000E+00  0.00000000E+00  0.00000000E+00
  0.00000000E+00  0.00000000E+00  0.00000000E+00
  0.00000000E+00  0.00000000E+00  0.00000000E+00
  0.00000000E+00  0.00000000E+00  0.00000000E+00
  0.00000000E+00  0.00000000E+00  0.00000000E+00
  0.00000000E+00  0.00000000E+00  0.00000000E+00
  0.00000000E+00  0.00000000E+00  0.00000000E+00
  0.00000000E+00  0.00000000E+00  0.00000000E+00
  0.00000000E+00  0.00000000E+00  0.00000000E+00
  0.00000000E+00  0.00000000E+00  0.00000000E+00
  0.00000000E+00  0.00000000E+00  0.00000000E+00
  0.00000000E+00  0.00000000E+00  0.00000000E+00
  0.00000000E+00  0.00000000E+00  0.00000000E+00
  0.00000000E+00  0.00000000E+00  0.00000000E+00
  0.00000000E+00  0.00000000E+00  0.00000000E+00
  0.00000000E+00  0.00000000E+00  0.00000000E+00
  0.00000000E+00  0.00000000E+00  0.00000000E+00
  0.00000000E+00  0.00000000E+00  0.00000000E+00
  0.00000000E+00  0.00000000E+00  0.00000000E+00
  0.00000000E+00  0.00000000E+00  0.00000000E+00
  0.00000000E+00  0.00000000E+00  0.00000000E+00
  0.00000000E+00  0.00000000E+00  0.00000000E+00
  0.00000000E+00  0.00000000E+00  0.00000000E+00
  0.00000000E+00  0.00000000E+00  0.00000000E+00
  0.00000000E+00  0.00000000E+00  0.00000000E+00
  0.00000000E+00  0.00000000E+00  0.00000000E+00
  0.00000000E+00  0.00000000E+00  0.00000000E+00
  0.00000000E+00  0.00000000E+00  0.00000000E+00
  0.00000000E+00  0.00000000E+00  0.00000000E+00
  0.00000000E+00  0.00000000E+00  0.00000000E+00
  0.00000000E+00  0.00000000E+00  0.00000000E+00
  0.00000000E+00  0.00000000E+00  0.00000000E+00
  0.00000000E+00  0.00000000E+00  0.00000000E+00
  0.00000000E+00  0.00000000E+00  0.00000000E+00
  0.00000000E+00  0.00000000E+00  0.00000000E+00
  0.00000000E+00  0.00000000E+00  0.00000000E+00
  0.00000000E+00  0.00000000E+00  0.00000000E+00
  0.00000000E+00  0.00000000E+00  0.00000000E+00
  0.00000000E+00  0.00000000E+00  0.00000000E+00
  0.00000000E+00  0.00000000E+00  0.00000000E+00
  0.00000000E+00  0.00000000E+00  0.00000000E+00
  0.00000000E+00  0.00000000E+00  0.00000000E+00
  0.00000000E+00  0.00000000E+00  0.00000000E+00
  0.00000000E+00  0.00000000E+00  0.00000000E+00
  0.00000000E+00  0.00000000E+00  0.00000000E+00
  0.00000000E+00  0.00000000E+00  0.00000000E+00
  0.00000000E+00  0.00000000E+00  0.00000000E+00
  0.00000000E+00  0.00000000E+00  0.00000000E+00
  0.00000000E+00  0.00000000E+00  0.00000000E+00
  0.00000000E+00  0.00000000E+00  0.00000000E+00
  0.00000000E+00  0.00000000E+00  0.00000000E+00
  0.00000000E+00  0.00000000E+00  0.00000000E+00
  0.00000000E+00  0.00000000E+00  0.00000000E+00
  0.00000000E+00  0.00000000E+00  0.00000000E+00
  0.00000000E+00  0.00000000E+00  0.00000000E+00
  0.00000000E+00  0.00000000E+00  0.00000000E+00
  0.00000000E+00  0.00000000E+00  0.00000000E+00
  0.00000000E+00  0.00000000E+00  0.00000000E+00
  0.00000000E+00  0.00000000E+00  0.00000000E+00
  0.00000000E+00  0.00000000E+00  0.00000000E+00
  0.00000000E+00  0.00000000E+00  0.00000000E+00
  0.00000000E+00  0.00000000E+00  0.00000000E+00
  0.00000000E+00  0.00000000E+00  0.00000000E+00
  0.00000000E+00  0.00000000E+00  0.00000000E+00
  0.00000000E+00  0.00000000E+00  0.00000000E+00
  0.00000000E+00  0.00000000E+00  0.00000000E+00
  0.00000000E+00  0.00000000E+00  0.00000000E+00
  0.00000000E+00  0.00000000E+00  0.00000000E+00
  0.00000000E+00  0.00000000E+00  0.00000000E+00
  0.00000000E+00  0.00000000E+00  0.00000000E+00
  0.00000000E+00  0.00000000E+00  0.00000000E+00
  0.00000000E+00  0.00000000E+00  0.00000000E+00
  0.00000000E+00  0.00000000E+00  0.00000000E+00
  0.00000000E+00  0.00000000E+00  0.00000000E+00
  0.00000000E+00  0.00000000E+00  0.00000000E+00
  0.00000000E+00  0.00000000E+00  0.00000000E+00
  0.00000000E+00  0.00000000E+00  0.00000000E+00
  0.00000000E+00  0.00000000E+00  0.00000000E+00
  0.00000000E+00  0.00000000E+00  0.00000000E+00
  0.00000000E+00  0.00000000E+00  0.00000000E+00
  0.00000000E+00  0.00000000E+00  0.00000000E+00
  0.00000000E+00  0.00000000E+00  0.00000000E+00
  0.00000000E+00  0.00000000E+00  0.00000000E+00
  0.00000000E+00  0.00000000E+00  0.00000000E+00
  0.00000000E+00  0.00000000E+00  0.00000000E+00
  0.00000000E+00  0.00000000E+00  0.00000000E+00
  0.00000000E+00  0.00000000E+00  0.00000000E+00
  0.00000000E+00  0.00000000E+00  0.00000000E+00
  0.00000000E+00  0.00000000E+00  0.00000000E+00
  0.00000000E+00  0.00000000E+00  0.00000000E+00
  0.00000000E+00  0.00000000E+00  0.00000000E+00
  0.00000000E+00  0.00000000E+00  0.00000000E+00
  0.00000000E+00  0.00000000E+00  0.00000000E+00
  0.00000000E+00  0.00000000E+00  0.00000000E+00
  0.00000000E+00  0.00000000E+00  0.00000000E+00
  0.00000000E+00  0.00000000E+00  0.00000000E+00
  0.00000000E+00  0.00000000E+00  0.00000000E+00
  0.00000000E+00  0.00000000E+00  0.00000000E+00
  0.00000000E+00  0.00000000E+00  0.00000000E+00
  0.00000000E+00  0.00000000E+00  0.00000000E+00
  0.00000000E+00  0.00000000E+00  0.00000000E+00
  0.00000000E+00  0.00000000E+00  0.00000000E+00
  0.00000000E+00  0.00000000E+00  0.00000000E+00
  0.00000000E+00  0.00000000E+00  0.00000000E+00
  0.00000000E+00  0.00000000E+00  0.00000000E+00
  0.00000000E+00  0.00000000E+00  0.00000000E+00
  0.00000000E+00  0.00000000E+00  0.00000000E+00
  0.00000000E+00  0.00000000E+00  0.00000000E+00
  0.00000000E+00  0.00000000E+00  0.00000000E+00
  0.00000000E+00  0.00000000E+00  0.00000000E+00
  0.00000000E+00  0.00000000E+00  0.00000000E+00
  0.00000000E+00  0.00000000E+00  0.00000000E+00
  0.00000000E+00  0.00000000E+00  0.00000000E+00
  0.00000000E+00  0.00000000E+00  0.00000000E+00
  0.00000000E+00  0.00000000E+00  0.00000000E+00
  0.00000000E+00  0.00000000E+00  0.00000000E+00
  0.00000000E+00  0.00000000E+00  0.00000000E+00
  0.00000000E+00  0.00000000E+00  0.00000000E+00
  0.00000000E+00  0.00000000E+00  0.00000000E+00
  0.00000000E+00  0.00000000E+00  0.00000000E+00
  0.00000000E+00  0.00000000E+00  0.00000000E+00
  0.00000000E+00  0.00000000E+00  0.00000000E+00
  0.00000000E+00  0.00000000E+00  0.00000000E+00
  0.00000000E+00  0.00000000E+00  0.00000000E+00
  0.00000000E+00  0.00000000E+00  0.00000000E+00
  0.00000000E+00  0.00000000E+00  0.00000000E+00
  0.00000000E+00  0.00000000E+00  0.00000000E+00
  0.00000000E+00  0.00000000E+00  0.00000000E+00
  0.00000000E+00  0.00000000E+00  0.00000000E+00
  0.00000000E+00  0.00000000E+00  0.00000000E+00
  0.00000000E+00  0.00000000E+00  0.00000000E+00
  0.00000000E+00  0.00000000E+00  0.00000000E+00
  0.00000000E+00  0.00000000E+00  0.00000000E+00
  0.00000000E+00  0.00000000E+00  0.00000000E+00
  0.00000000E+00  0.00000000E+00  0.00000000E+00
  0.00000000E+00  0.00000000E+00  0.00000000E+00
  0.00000000E+00  0.00000000E+00  0.00000000E+00
  0.00000000E+00  0.00000000E+00  0.00000000E+00
  0.00000000E+00  0.00000000E+00  0.00000000E+00
  0.00000000E+00  0.00000000E+00  0.00000000E+00
  0.00000000E+00  0.00000000E+00  0.00000000E+00
  0.00000000E+00  0.00000000E+00  0.00000000E+00
  0.00000000E+00  0.00000000E+00  0.00000000E+00
  0.00000000E+00  0.00000000E+00  0.00000000E+00
  0.00000000E+00  0.00000000E+00  0.00000000E+00
  0.00000000E+00  0.00000000E+00  0.00000000E+00
  0.00000000E+00  0.00000000E+00  0.00000000E+00
  0.00000000E+00  0.00000000E+00  0.00000000E+00
  0.00000000E+00  0.00000000E+00  0.00000000E+00
  0.00000000E+00  0.00000000E+00  0.00000000E+00
  0.00000000E+00  0.00000000E+00  0.00000000E+00
  0.00000000E+00  0.00000000E+00  0.00000000E+00
  0.00000000E+00  0.00000000E+00  0.00000000E+00
  0.00000000E+00  0.00000000E+00  0.00000000E+00
  0.00000000E+00  0.00000000E+00  0.00000000E+00
  0.00000000E+00  0.00000000E+00  0.00000000E+00
  0.00000000E+00  0.00000000E+00  0.00000000E+00
  0.00000000E+00  0.00000000E+00  0.00000000E+00
  0.00000000E+00  0.00000000E+00  0.00000000E+00
  0.00000000E+00  0.00000000E+00  0.00000000E+00
  0.00000000E+00  0.00000000E+00  0.00000000E+00
  0.00000000E+00  0.00000000E+00  0.00000000E+00
  0.00000000E+00  0.00000000E+00  0.00000000E+00
  0.00000000E+00  0.00000000E+00  0.00000000E+00
  0.00000000E+00  0.00000000E+00  0.00000000E+00
  0.00000000E+00  0.00000000E+00  0.00000000E+00
  0.00000000E+00  0.00000000E+00  0.00000000E+00
  0.00000000E+00  0.00000000E+00  0.00000000E+00
  0.00000000E+00  0.00000000E+00  0.00000000E+00
  0.00000000E+00  0.00000000E+00  0.00000000E+00
  0.00000000E+00  0.00000000E+00  0.00000000E+00
  0.00000000E+00  0.00000000E+00  0.00000000E+00
  0.00000000E+00  0.00000000E+00  0.00000000E+00
  0.00000000E+00  0.00000000E+00  0.00000000E+00
  0.00000000E+00  0.00000000E+00  0.00000000E+00
  0.00000000E+00  0.00000000E+00  0.00000000E+00
  0.00000000E+00  0.00000000E+00  0.00000000E+00