CuInSe2gb                               
   1.00000000000000     
     9.7266780392896699    0.0000000000000000    0.0000000000000000
     0.0000000000000000    8.4235502764570693    0.0000000000000000
     0.0000000000000000    0.0000000000000000   45.0000000000000000
   Fe   Mn
   281     7
Direct
  0.0578522552854602  0.7009896173249476  0.2112893239331483
  0.3158668937541746  0.7197028253636991  0.8756421978061250
  0.6881320799084633  0.9578768749630661  0.6114071413954517
  0.4381517406837571  0.4576185413178789  0.6113863460631122
  0.4356485721292457  0.2873031996240288  0.2556156390161131
  0.0611386936523951  0.3864231204178072  0.8340119822388362
  0.3114061517061432  0.8865998978336991  0.8340403468791087
  0.4421091594126818  0.6263974392720734  0.7002913117243255
  0.0644294798030345  0.2130493880467247  0.7443787172887315
  0.1825695789690800  0.4520051131967301  0.2113619956405227
  0.5637057769594603  0.2090810961931827  0.4778981996034583
  0.0638445101267396  0.8745344399720822  0.5667820149469399
  0.5652856321618008  0.2193618250565072  0.8755399777653436
  0.8114152360929702  0.5314580222201901  0.1247910472699869
  0.4329163338614542  0.9516446462168042  0.2112658938213728
  0.5639228062730962  0.3744851465605893  0.5667435591145652
  0.8119131261362580  0.0423227090293778  0.3885334882227121
  0.6861348682871448  0.7905525036483216  0.5221463834710843
  0.4386692112267294  0.4588809107830452  0.4778804253095071
  0.4387449815906602  0.9623199629509867  0.7444456464959132
  0.4387269956063765  0.6244623470800064  0.5667897131648418
  0.5671995713552306  0.8763294132197302  0.7001921676984099
  0.3108361908195856  0.0311162442482265  0.1242649198569898
  0.6868032099027139  0.9586219428251285  0.3443771775229187
  0.6875370065031887  0.7799158323998214  0.1245451091245001
  0.0576997009333934  0.3734985600941093  0.2997319413885851
  0.6887614840721268  0.4713679398265066  0.8754060656681021
  0.4329653928005633  0.4514040967568703  0.2113353132907828
  0.8111997076371619  0.3751640586357647  0.4331381775680162
  0.5630161776010728  0.7078771890727052  0.6114650984767244
  0.5630928069955528  0.5412640017645493  0.6556190235941368
  0.9361043071543331  0.1252640058566521  0.4331616430098954
  0.5603102447505772  0.5372099919946786  0.2555151098133475
  0.6865760052573204  0.4583242262478337  0.3441754382875990
  0.1877888224025560  0.6129274405752457  0.1662417313578076
  0.1922287818741813  0.7989050816300506  0.7885758591943364
  0.4423698553444771  0.1263957128370083  0.7002961046380533
  0.9326233259678141  0.6234731647723247  0.2998180370595237
  0.3151701550554750  0.2193157040345550  0.8755695703494759
  0.3136570662151617  0.8746084732486962  0.5667628809227271
  0.8152517031797178  0.2195331261895447  0.8755958581588049
  0.8129441693516719  0.5414505757415510  0.6556332095957198
  0.5601567219900613  0.5296719463302196  0.1241391257722188
  0.5672031013471625  0.0492437170293878  0.7888050549996269
  0.1860353686394948  0.2873458360515489  0.2555645799092058
  0.8110941789383802  0.8756671538122975  0.4330994708568274
  0.5671416209359068  0.3766248605830355  0.7003656060312644
  0.0614445609250473  0.0296691538146895  0.1245708812503768
  0.3129902159571831  0.5411577419461207  0.6556074347224233
  0.5617490208871442  0.2085120163951505  0.3443350151609965
  0.1880632721798530  0.9579236431310496  0.6114048762156807
  0.3076758519231742  0.3735831995177470  0.2998095862104135
  0.4380543604955543  0.7914995592609327  0.6556597276890896
  0.1920487413620830  0.2980857579820374  0.7887201138051797
  0.0639150113386001  0.3642459087804105  0.1660585390853665
  0.6920614801275577  0.6263275553063334  0.7002436859842198
  0.3117171353130233  0.5419486680646776  0.3885305982760450
  0.0651811857026839  0.7193739263088923  0.8757352843246584
  0.9365894898100070  0.6366551446884697  0.8341624998245192
  0.3177781757277038  0.5495560875693711  0.7888150062532266
  0.3070923753953422  0.2003900513437567  0.2112360103361766
  0.0637078284388949  0.7089569740603054  0.4779588587451862
  0.5576414290032620  0.2012000718035586  0.2112746346616289
  0.3142097916963280  0.2133274730383497  0.7443296806868102
  0.0669700580752928  0.3767599317701874  0.7002859298733323
  0.1864835606579180  0.6368219702953776  0.8339036780710287
  0.0672261965151220  0.0489253017595682  0.7888599104408600
  0.4388808905069880  0.1245334891353204  0.5667516221623707
  0.9382054529644553  0.2916468367951321  0.6555404344573752
  0.8073784230076467  0.2007033749824474  0.2112547000486352
  0.9327554017822746  0.9521675576259772  0.2113948626771135
  0.9388377052851663  0.6246799500408502  0.5667620672395652
  0.8112027284865307  0.3863186506527861  0.8340310642908836
  0.1919480361540900  0.6265624688896353  0.7002709084183247
  0.8112965243181556  0.8865591439851093  0.8342160533752231
  0.6883263412367073  0.2914723801860950  0.6556694295456326
  0.3132022375477583  0.2078465713172328  0.6114779813454049
  0.4387496279245352  0.4624845156043476  0.7442911067760019
  0.4368757777801600  0.7921802687074480  0.3885834828200049
  0.6881601131550520  0.9623032744347164  0.7444979795663473
  0.8069690673254951  0.7006190681571736  0.2112834675714440
  0.8128698779738198  0.7076830633434117  0.6113714426697355
  0.4367889122744980  0.7799628810232281  0.1240703073745990
  0.3139116900606740  0.7128376658779397  0.7443533657273217
  0.3174315763400109  0.0491122946707197  0.7888384014398500
  0.8121855199030289  0.5422919312648303  0.3885830233081631
  0.6862847755443908  0.2910799874438688  0.5220952352221619
  0.6922431340504916  0.7992697782875955  0.7887392638866573
  0.1861146451196390  0.7877046119610402  0.2555770162367799
  0.6887660519979067  0.1125494827684698  0.1661646489142701
  0.6885205452163847  0.9591206099019812  0.4779163332959755
  0.9368680738877603  0.9589759021218414  0.3443427075353060
  0.8112630529837324  0.0402760176953764  0.5220630401262666
  0.6856466457463796  0.6251505955570963  0.4331257998374780
  0.4368168209174539  0.4587214551504664  0.3443023012262369
  0.8138520195172144  0.2133706991798223  0.7443485775141931
  0.4392301959088918  0.9716496890321766  0.8754177218655786
  0.5638413601233789  0.8744325473820640  0.5667172627911620
  0.8109635500034778  0.0303061865775316  0.1243103410826299
  0.4327905925887469  0.6235594454245029  0.2998568587965642
  0.8150867906489755  0.7200830935994335  0.8756812922412845
  0.6881365864810443  0.4577767605825963  0.6114302232786373
  0.5610255670531671  0.3866753279560923  0.8339627457075623
  0.8075463876650461  0.3737001357705149  0.2997484433840153
  0.1869833924328494  0.2920157767468377  0.3885277845967741
  0.8168073437268761  0.5491200950929631  0.7889573867399658
  0.1864011512683844  0.7904586748930493  0.5221762461281712
  0.3076749231678069  0.8736944246749778  0.2997205967795606
  0.1824868914144716  0.9519688758580493  0.2114153412616331
  0.1893881281946154  0.4626658336934170  0.7442860441990287
  0.4361915105615575  0.2908035628371290  0.5220711139470304
  0.0617797455605828  0.7086355347631085  0.3443364030762157
  0.1882744692158818  0.7910758383638730  0.6555584678060787
  0.4420228510345467  0.7992200702896617  0.7885965433357405
  0.6857213221596686  0.1251823410610322  0.4331648042090663
  0.9362118386834913  0.7905974430356885  0.5221331863233386
  0.6890221860425239  0.6139285121509630  0.1661989888510642
  0.8119190730590096  0.7085060601569219  0.3443483538616757
  0.9389815685172329  0.4624188608254159  0.7442767609599426
  0.1869670159151098  0.4586076050100527  0.3443124574589750
  0.5674730618632425  0.5490398432575976  0.7888737221547384
  0.5633784712859347  0.3639630354682406  0.1659086867823679
  0.5618069008699664  0.7086129697601061  0.3443612797502704
  0.5578226840366468  0.3735968182047326  0.2998511131649396
  0.1886320668779328  0.4711752627272354  0.8754839312571444
  0.1883626426815725  0.1135478803344775  0.1662021736772500
  0.4422326194072837  0.2986036522834082  0.7886453952191077
  0.6858035340870623  0.7876529997341911  0.2555344119631290
  0.9370252428652526  0.1362800459835942  0.8340309106768965
  0.4384890973085163  0.9588334786802020  0.4778862611741373
  0.5653110782893090  0.7198068818156172  0.8756074311464017
  0.1884604829820428  0.4589999415779359  0.4778855895838713
  0.9364931134688579  0.2801464150130235  0.1247545477938562
  0.3116913570713085  0.0420481599370184  0.3885244945021609
  0.0630029276868131  0.0410304794021616  0.6556227462014641
  0.5611824579273718  0.3747929016490808  0.4331172867100918
  0.6881506429339483  0.4622161404474510  0.7443083307547611
  0.5641580767692520  0.2131932463657983  0.7443634546666262
  0.9423117853514547  0.1269706225463153  0.7002661588021482
  0.5631138623292207  0.0411371025993470  0.6556172707143668
  0.5613897651884046  0.5406093957292331  0.5220561485089724
  0.1826626005914071  0.1232633961840071  0.2996767609063870
  0.4382734011491215  0.1133247720202120  0.1661611389823572
  0.6826936523671265  0.6233996457135038  0.2998047951183355
  0.9328610148972704  0.1232300907016297  0.2997231547950225
  0.8137922302905621  0.3746345917998077  0.5667827830383099
  0.0577897436021189  0.8735040351542807  0.2997389403904992
  0.1887551186099395  0.6245199682333851  0.5668378309050207
  0.9414357869011766  0.7987489605811570  0.7888109003984712
  0.3116158745330537  0.3864491134791879  0.8340297190317920
  0.9392306510799491  0.4713729019482068  0.8754150773017398
  0.4368113083078817  0.6368985045782931  0.8339352033771602
  0.0619028591410179  0.2087912251751926  0.3444029420225483
  0.1886681052545967  0.9712706015428808  0.8754104736614307
  0.9365724746042229  0.7796454466629871  0.1244750755127565
  0.6868946068030009  0.7921160044392641  0.3885463384671957
  0.9380629513922147  0.7913928516419644  0.6556552192834194
  0.9381904926110387  0.1133561343764133  0.1663234780117573
  0.4378875419860718  0.2915415944328941  0.6556755018430485
  0.0577037598034362  0.2008115962868705  0.2113332602048629
  0.6823078634756953  0.9517327652546066  0.2115170471816681
  0.1826758608359703  0.6236118738896413  0.2997977756582921
  0.8170073549311360  0.8764231181502250  0.7002043984094216
  0.9421791937304959  0.6265842431266621  0.7003234625962698
  0.1919316567187022  0.1267633501573923  0.7002625836800135
  0.9387867467007894  0.4587462756678347  0.4779244681295251
  0.8130963162086666  0.2077338358392657  0.6114327606184721
  0.1863837607773662  0.6252041369214161  0.4331236265711144
  0.4326734254758636  0.1234148665329581  0.2997623906201247
  0.6824973200462146  0.1233945877654988  0.2997706563327079
  0.5617142061683478  0.5419033972003758  0.3885794020865616
  0.8117638038414122  0.2086959756947668  0.3444610975628226
  0.4390135513075716  0.4714323116112299  0.8753399997405311
  0.5614664285842027  0.8865615911622419  0.8341018635562449
  0.3136707995142122  0.2090128169896385  0.4778986562406696
  0.1886877636858696  0.9589844688914541  0.4778832515975811
  0.0613463710224212  0.8866686278721087  0.8341173044530691
  0.0614620755695451  0.5405702885323136  0.5220935338002011
  0.9385430741200975  0.9587919182996919  0.4778374538059507
  0.0631404130499038  0.7076964324815964  0.6113937445285643
  0.5611575913264722  0.0410045698482520  0.5220916539277302
  0.6922215754031895  0.2984063740042880  0.7886723750092544
  0.8140575043187578  0.3631467703162434  0.1661165898475092
  0.4360285281560400  0.1250728063428583  0.4331384602242805
  0.0636785351496885  0.2086871923567918  0.4778930037444891
  0.3130899102102084  0.0412884214220608  0.6556004685860634
  0.4363086773055083  0.7903195430785410  0.5220552615842176
  0.1869817493432795  0.1366713414686087  0.8339824841793443
  0.1860706006801074  0.2785927176830958  0.1245319456305067
  0.9368694825161547  0.4588247561593467  0.3442814114099599
  0.5648647285737631  0.8639928024195838  0.1660376221014450
  0.3071254897378169  0.7009207256147190  0.2113009912662609
  0.9372151994118384  0.6134915010819626  0.1661942738168861
  0.1880622086293421  0.4577852698756186  0.6114157842805912
  0.0670964887836701  0.8766517250014288  0.7001557499324963
  0.0631643621759144  0.5412794443421364  0.6556985179038338
  0.3108450861026831  0.5315210733288078  0.1239792954760481
  0.9367148610713887  0.7921037451712332  0.3885362826006654
  0.9417693318389260  0.2983636479111652  0.7887216582611732
  0.1879155411661204  0.2914763086581341  0.6556438644334486
  0.9381357369682557  0.9578012160671623  0.6114813109092673
  0.8138556879110390  0.7130967671188846  0.7444717221399132
  0.6858180345082053  0.2873827138265184  0.2555203412199434
  0.0646806820675885  0.7129000416014849  0.7442864714652975
  0.6823042842238873  0.4514847554839558  0.2114513887503622
  0.8136251120224233  0.2085815642531182  0.4778877920342807
  0.5635563245283772  0.7090181315990638  0.4779656257394849
  0.0632888132014915  0.8648501821503343  0.1660486019216231
  0.9363375662708747  0.2906569510261405  0.5221606975646097
  0.6877684260449402  0.7912134431396743  0.6556660870643233
  0.0611535019287902  0.8751206222956787  0.4331089601690706
  0.0654608227497125  0.2190830862164107  0.8756685323505549
  0.8131782813501147  0.0411969090576932  0.6556162350192828
  0.5615099107579922  0.0297716160960642  0.1247053345521873
  0.3111065186384130  0.3748092415422697  0.4331311442402898
  0.3138904037652285  0.3745694806160307  0.5667207307866240
  0.3136413245935025  0.7089257781096056  0.4779031569458704
  0.0612699004430414  0.0405951910718185  0.5220355767460465
  0.3168920041857206  0.8762961314646183  0.7002567454815027
  0.0606005890082604  0.5372803627916291  0.2555268463079358
  0.6868245668631082  0.1369405729180735  0.8340020078396556
  0.8107336886531150  0.0371424255652162  0.2556653753227440
  0.1865840105295980  0.1250996937350834  0.4331494981040454
  0.6922193632393712  0.1264625011915542  0.7002105117252899
  0.1861976604494939  0.2908668737557569  0.5221085610324397
  0.4354212709397545  0.7867895756339812  0.2556846670507880
  0.8107166163636339  0.5371205585663773  0.2555178466369679
  0.0631195568548697  0.2078740359614165  0.6113861931337842
  0.1866564654817673  0.7921159985982734  0.3885864024259826
  0.3112307089456561  0.5406389398708189  0.5220815967787037
  0.8169495846563793  0.3766272239655680  0.7002963440335018
  0.6866785503695712  0.2920465248984608  0.3885299108566239
  0.1888208825292877  0.1246253581291206  0.5667391990515542
  0.6888881223041587  0.9713663166259106  0.8753565063560045
  0.6886961036336955  0.1246545630868767  0.5667676617104170
  0.4369006777820482  0.9587149586069059  0.3443758033978238
  0.1892099551762471  0.9624945802885611  0.7444237796632848
  0.9355527139461104  0.7871084470269711  0.2557095329811545
  0.5611225666510038  0.8756072790288358  0.4331478894609458
  0.3109433825943460  0.8755214318095609  0.4331484064536793
  0.8111676743307364  0.5402735153104586  0.5220810612777974
  0.9324870465637434  0.4518089787016975  0.2114072351707634
  0.3107584580861334  0.5370526039512407  0.2556208761854211
  0.5616205333841954  0.0419504921330907  0.3885268210287787
  0.9380305556334887  0.4574889841804433  0.6114181110436270
  0.0617405082770495  0.0421343179989219  0.3885588649841616
  0.0617549083651331  0.5420874872117870  0.3885702435798434
  0.4369058389379892  0.2919978273164574  0.3885508176079112
  0.6886727511048805  0.4589386052416978  0.4779810330133771
  0.0639989225155086  0.3746513073976459  0.5667633652963723
  0.5576926709370106  0.7014747251357710  0.2112770431086022
  0.9358210436670459  0.2870168459240212  0.2556267595283542
  0.8167862330591470  0.0489032022645092  0.7888292738310502
  0.1868793003290267  0.9587339621177153  0.3443570845280800
  0.5577910749010574  0.8734944609423374  0.2997760377060613
  0.0612771489372354  0.3752329140890515  0.4330987139138697
  0.3118103395323740  0.7085352006671641  0.3443387622975358
  0.3118176895684486  0.2083837678932668  0.3443848801615766
  0.9387260884716133  0.1246483557048244  0.5667216437457564
  0.4379672600587220  0.9578196703581672  0.6114404444077911
  0.5608164658746571  0.0375869307963543  0.2555914153391227
  0.1875756757606108  0.7798161271411395  0.1244994825529113
  0.0607383973432545  0.0379797320535087  0.2556850418348917
  0.6888369297128529  0.6246381098127854  0.5668380603573637
  0.0606611162503558  0.5295478873570657  0.1246117068752568
  0.3112582363454697  0.0409176367297532  0.5220822783629275
  0.6871493323100312  0.2793798867275746  0.1248211951240021
  0.8135044833658120  0.7089495464725262  0.4779477471629973
  0.4369423022308732  0.1365800783972872  0.8338206744241486
  0.3172543956360829  0.3761519229021358  0.7002420339091586
  0.6870983149405641  0.6370528397919961  0.8339064266544227
  0.5638163628767395  0.7125859183087633  0.7444142917267316
  0.9366266048050829  0.2921179192790200  0.3885500105313544
  0.9389895454690536  0.9709402040222905  0.8753973104670442
  0.5631201143570482  0.2077795936040775  0.6114148519085044
  0.8138259463013504  0.8745135995711547  0.5667731917488511
  0.8077163496548535  0.8734275917720017  0.2997241837777625
  0.3105612145355445  0.0371203722650313  0.2556808485997335
  0.4368659047690420  0.2801931404819572  0.1244204413975481
  0.3129486363271342  0.7077800745537730  0.6114036858278473
  0.4357855871410358  0.6251902026119904  0.4331627136301748
  0.9361616365495123  0.6250549584817294  0.4331727714161507
  0.3140817784791410  0.8632810469545400  0.1658189558562353
  0.0675640929542422  0.5489947140023268  0.7886840543899982
  0.8147496484393276  0.8637652266645119  0.1657396775464267
  0.3140244930534939  0.3622338935027815  0.1656517207193109
  0.9381911013993848  0.9628249054662067  0.7445697977613803
  0.4394508178344191  0.6127070621225131  0.1657726821890702
 
  0.00000000E+00  0.00000000E+00  0.00000000E+00
  0.00000000E+00  0.00000000E+00  0.00000000E+00
  0.00000000E+00  0.00000000E+00  0.00000000E+00
  0.00000000E+00  0.00000000E+00  0.00000000E+00
  0.00000000E+00  0.00000000E+00  0.00000000E+00
  0.00000000E+00  0.00000000E+00  0.00000000E+00
  0.00000000E+00  0.00000000E+00  0.00000000E+00
  0.00000000E+00  0.00000000E+00  0.00000000E+00
  0.00000000E+00  0.00000000E+00  0.00000000E+00
  0.00000000E+00  0.00000000E+00  0.00000000E+00
  0.00000000E+00  0.00000000E+00  0.00000000E+00
  0.00000000E+00  0.00000000E+00  0.00000000E+00
  0.00000000E+00  0.00000000E+00  0.00000000E+00
  0.00000000E+00  0.00000000E+00  0.00000000E+00
  0.00000000E+00  0.00000000E+00  0.00000000E+00
  0.00000000E+00  0.00000000E+00  0.00000000E+00
  0.00000000E+00  0.00000000E+00  0.00000000E+00
  0.00000000E+00  0.00000000E+00  0.00000000E+00
  0.00000000E+00  0.00000000E+00  0.00000000E+00
  0.00000000E+00  0.00000000E+00  0.00000000E+00
  0.00000000E+00  0.00000000E+00  0.00000000E+00
  0.00000000E+00  0.00000000E+00  0.00000000E+00
  0.00000000E+00  0.00000000E+00  0.00000000E+00
  0.00000000E+00  0.00000000E+00  0.00000000E+00
  0.00000000E+00  0.00000000E+00  0.00000000E+00
  0.00000000E+00  0.00000000E+00  0.00000000E+00
  0.00000000E+00  0.00000000E+00  0.00000000E+00
  0.00000000E+00  0.00000000E+00  0.00000000E+00
  0.00000000E+00  0.00000000E+00  0.00000000E+00
  0.00000000E+00  0.00000000E+00  0.00000000E+00
  0.00000000E+00  0.00000000E+00  0.00000000E+00
  0.00000000E+00  0.00000000E+00  0.00000000E+00
  0.00000000E+00  0.00000000E+00  0.00000000E+00
  0.00000000E+00  0.00000000E+00  0.00000000E+00
  0.00000000E+00  0.00000000E+00  0.00000000E+00
  0.00000000E+00  0.00000000E+00  0.00000000E+00
  0.00000000E+00  0.00000000E+00  0.00000000E+00
  0.00000000E+00  0.00000000E+00  0.00000000E+00
  0.00000000E+00  0.00000000E+00  0.00000000E+00
  0.00000000E+00  0.00000000E+00  0.00000000E+00
  0.00000000E+00  0.00000000E+00  0.00000000E+00
  0.00000000E+00  0.00000000E+00  0.00000000E+00
  0.00000000E+00  0.00000000E+00  0.00000000E+00
  0.00000000E+00  0.00000000E+00  0.00000000E+00
  0.00000000E+00  0.00000000E+00  0.00000000E+00
  0.00000000E+00  0.00000000E+00  0.00000000E+00
  0.00000000E+00  0.00000000E+00  0.00000000E+00
  0.00000000E+00  0.00000000E+00  0.00000000E+00
  0.00000000E+00  0.00000000E+00  0.00000000E+00
  0.00000000E+00  0.00000000E+00  0.00000000E+00
  0.00000000E+00  0.00000000E+00  0.00000000E+00
  0.00000000E+00  0.00000000E+00  0.00000000E+00
  0.00000000E+00  0.00000000E+00  0.00000000E+00
  0.00000000E+00  0.00000000E+00  0.00000000E+00
  0.00000000E+00  0.00000000E+00  0.00000000E+00
  0.00000000E+00  0.00000000E+00  0.00000000E+00
  0.00000000E+00  0.00000000E+00  0.00000000E+00
  0.00000000E+00  0.00000000E+00  0.00000000E+00
  0.00000000E+00  0.00000000E+00  0.00000000E+00
  0.00000000E+00  0.00000000E+00  0.00000000E+00
  0.00000000E+00  0.00000000E+00  0.00000000E+00
  0.00000000E+00  0.00000000E+00  0.00000000E+00
  0.00000000E+00  0.00000000E+00  0.00000000E+00
  0.00000000E+00  0.00000000E+00  0.00000000E+00
  0.00000000E+00  0.00000000E+00  0.00000000E+00
  0.00000000E+00  0.00000000E+00  0.00000000E+00
  0.00000000E+00  0.00000000E+00  0.00000000E+00
  0.00000000E+00  0.00000000E+00  0.00000000E+00
  0.00000000E+00  0.00000000E+00  0.00000000E+00
  0.00000000E+00  0.00000000E+00  0.00000000E+00
  0.00000000E+00  0.00000000E+00  0.00000000E+00
  0.00000000E+00  0.00000000E+00  0.00000000E+00
  0.00000000E+00  0.00000000E+00  0.00000000E+00
  0.00000000E+00  0.00000000E+00  0.00000000E+00
  0.00000000E+00  0.00000000E+00  0.00000000E+00
  0.00000000E+00  0.00000000E+00  0.00000000E+00
  0.00000000E+00  0.00000000E+00  0.00000000E+00
  0.00000000E+00  0.00000000E+00  0.00000000E+00
  0.00000000E+00  0.00000000E+00  0.00000000E+00
  0.00000000E+00  0.00000000E+00  0.00000000E+00
  0.00000000E+00  0.00000000E+00  0.00000000E+00
  0.00000000E+00  0.00000000E+00  0.00000000E+00
  0.00000000E+00  0.00000000E+00  0.00000000E+00
  0.00000000E+00  0.00000000E+00  0.00000000E+00
  0.00000000E+00  0.00000000E+00  0.00000000E+00
  0.00000000E+00  0.00000000E+00  0.00000000E+00
  0.00000000E+00  0.00000000E+00  0.00000000E+00
  0.00000000E+00  0.00000000E+00  0.00000000E+00
  0.00000000E+00  0.00000000E+00  0.00000000E+00
  0.00000000E+00  0.00000000E+00  0.00000000E+00
  0.00000000E+00  0.00000000E+00  0.00000000E+00
  0.00000000E+00  0.00000000E+00  0.00000000E+00
  0.00000000E+00  0.00000000E+00  0.00000000E+00
  0.00000000E+00  0.00000000E+00  0.00000000E+00
  0.00000000E+00  0.00000000E+00  0.00000000E+00
  0.00000000E+00  0.00000000E+00  0.00000000E+00
  0.00000000E+00  0.00000000E+00  0.00000000E+00
  0.00000000E+00  0.00000000E+00  0.00000000E+00
  0.00000000E+00  0.00000000E+00  0.00000000E+00
  0.00000000E+00  0.00000000E+00  0.00000000E+00
  0.00000000E+00  0.00000000E+00  0.00000000E+00
  0.00000000E+00  0.00000000E+00  0.00000000E+00
  0.00000000E+00  0.00000000E+00  0.00000000E+00
  0.00000000E+00  0.00000000E+00  0.00000000E+00
  0.00000000E+00  0.00000000E+00  0.00000000E+00
  0.00000000E+00  0.00000000E+00  0.00000000E+00
  0.00000000E+00  0.00000000E+00  0.00000000E+00
  0.00000000E+00  0.00000000E+00  0.00000000E+00
  0.00000000E+00  0.00000000E+00  0.00000000E+00
  0.00000000E+00  0.00000000E+00  0.00000000E+00
  0.00000000E+00  0.00000000E+00  0.00000000E+00
  0.00000000E+00  0.00000000E+00  0.00000000E+00
  0.00000000E+00  0.00000000E+00  0.00000000E+00
  0.00000000E+00  0.00000000E+00  0.00000000E+00
  0.00000000E+00  0.00000000E+00  0.00000000E+00
  0.00000000E+00  0.00000000E+00  0.00000000E+00
  0.00000000E+00  0.00000000E+00  0.00000000E+00
  0.00000000E+00  0.00000000E+00  0.00000000E+00
  0.00000000E+00  0.00000000E+00  0.00000000E+00
  0.00000000E+00  0.00000000E+00  0.00000000E+00
  0.00000000E+00  0.00000000E+00  0.00000000E+00
  0.00000000E+00  0.00000000E+00  0.00000000E+00
  0.00000000E+00  0.00000000E+00  0.00000000E+00
  0.00000000E+00  0.00000000E+00  0.00000000E+00
  0.00000000E+00  0.00000000E+00  0.00000000E+00
  0.00000000E+00  0.00000000E+00  0.00000000E+00
  0.00000000E+00  0.00000000E+00  0.00000000E+00
  0.00000000E+00  0.00000000E+00  0.00000000E+00
  0.00000000E+00  0.00000000E+00  0.00000000E+00
  0.00000000E+00  0.00000000E+00  0.00000000E+00
  0.00000000E+00  0.00000000E+00  0.00000000E+00
  0.00000000E+00  0.00000000E+00  0.00000000E+00
  0.00000000E+00  0.00000000E+00  0.00000000E+00
  0.00000000E+00  0.00000000E+00  0.00000000E+00
  0.00000000E+00  0.00000000E+00  0.00000000E+00
  0.00000000E+00  0.00000000E+00  0.00000000E+00
  0.00000000E+00  0.00000000E+00  0.00000000E+00
  0.00000000E+00  0.00000000E+00  0.00000000E+00
  0.00000000E+00  0.00000000E+00  0.00000000E+00
  0.00000000E+00  0.00000000E+00  0.00000000E+00
  0.00000000E+00  0.00000000E+00  0.00000000E+00
  0.00000000E+00  0.00000000E+00  0.00000000E+00
  0.00000000E+00  0.00000000E+00  0.00000000E+00
  0.00000000E+00  0.00000000E+00  0.00000000E+00
  0.00000000E+00  0.00000000E+00  0.00000000E+00
  0.00000000E+00  0.00000000E+00  0.00000000E+00
  0.00000000E+00  0.00000000E+00  0.00000000E+00
  0.00000000E+00  0.00000000E+00  0.00000000E+00
  0.00000000E+00  0.00000000E+00  0.00000000E+00
  0.00000000E+00  0.00000000E+00  0.00000000E+00
  0.00000000E+00  0.00000000E+00  0.00000000E+00
  0.00000000E+00  0.00000000E+00  0.00000000E+00
  0.00000000E+00  0.00000000E+00  0.00000000E+00
  0.00000000E+00  0.00000000E+00  0.00000000E+00
  0.00000000E+00  0.00000000E+00  0.00000000E+00
  0.00000000E+00  0.00000000E+00  0.00000000E+00
  0.00000000E+00  0.00000000E+00  0.00000000E+00
  0.00000000E+00  0.00000000E+00  0.00000000E+00
  0.00000000E+00  0.00000000E+00  0.00000000E+00
  0.00000000E+00  0.00000000E+00  0.00000000E+00
  0.00000000E+00  0.00000000E+00  0.00000000E+00
  0.00000000E+00  0.00000000E+00  0.00000000E+00
  0.00000000E+00  0.00000000E+00  0.00000000E+00
  0.00000000E+00  0.00000000E+00  0.00000000E+00
  0.00000000E+00  0.00000000E+00  0.00000000E+00
  0.00000000E+00  0.00000000E+00  0.00000000E+00
  0.00000000E+00  0.00000000E+00  0.00000000E+00
  0.00000000E+00  0.00000000E+00  0.00000000E+00
  0.00000000E+00  0.00000000E+00  0.00000000E+00
  0.00000000E+00  0.00000000E+00  0.00000000E+00
  0.00000000E+00  0.00000000E+00  0.00000000E+00
  0.00000000E+00  0.00000000E+00  0.00000000E+00
  0.00000000E+00  0.00000000E+00  0.00000000E+00
  0.00000000E+00  0.00000000E+00  0.00000000E+00
  0.00000000E+00  0.00000000E+00  0.00000000E+00
  0.00000000E+00  0.00000000E+00  0.00000000E+00
  0.00000000E+00  0.00000000E+00  0.00000000E+00
  0.00000000E+00  0.00000000E+00  0.00000000E+00
  0.00000000E+00  0.00000000E+00  0.00000000E+00
  0.00000000E+00  0.00000000E+00  0.00000000E+00
  0.00000000E+00  0.00000000E+00  0.00000000E+00
  0.00000000E+00  0.00000000E+00  0.00000000E+00
  0.00000000E+00  0.00000000E+00  0.00000000E+00
  0.00000000E+00  0.00000000E+00  0.00000000E+00
  0.00000000E+00  0.00000000E+00  0.00000000E+00
  0.00000000E+00  0.00000000E+00  0.00000000E+00
  0.00000000E+00  0.00000000E+00  0.00000000E+00
  0.00000000E+00  0.00000000E+00  0.00000000E+00
  0.00000000E+00  0.00000000E+00  0.00000000E+00
  0.00000000E+00  0.00000000E+00  0.00000000E+00
  0.00000000E+00  0.00000000E+00  0.00000000E+00
  0.00000000E+00  0.00000000E+00  0.00000000E+00
  0.00000000E+00  0.00000000E+00  0.00000000E+00
  0.00000000E+00  0.00000000E+00  0.00000000E+00
  0.00000000E+00  0.00000000E+00  0.00000000E+00
  0.00000000E+00  0.00000000E+00  0.00000000E+00
  0.00000000E+00  0.00000000E+00  0.00000000E+00
  0.00000000E+00  0.00000000E+00  0.00000000E+00
  0.00000000E+00  0.00000000E+00  0.00000000E+00
  0.00000000E+00  0.00000000E+00  0.00000000E+00
  0.00000000E+00  0.00000000E+00  0.00000000E+00
  0.00000000E+00  0.00000000E+00  0.00000000E+00
  0.00000000E+00  0.00000000E+00  0.00000000E+00
  0.00000000E+00  0.00000000E+00  0.00000000E+00
  0.00000000E+00  0.00000000E+00  0.00000000E+00
  0.00000000E+00  0.00000000E+00  0.00000000E+00
  0.00000000E+00  0.00000000E+00  0.00000000E+00
  0.00000000E+00  0.00000000E+00  0.00000000E+00
  0.00000000E+00  0.00000000E+00  0.00000000E+00
  0.00000000E+00  0.00000000E+00  0.00000000E+00
  0.00000000E+00  0.00000000E+00  0.00000000E+00
  0.00000000E+00  0.00000000E+00  0.00000000E+00
  0.00000000E+00  0.00000000E+00  0.00000000E+00
  0.00000000E+00  0.00000000E+00  0.00000000E+00
  0.00000000E+00  0.00000000E+00  0.00000000E+00
  0.00000000E+00  0.00000000E+00  0.00000000E+00
  0.00000000E+00  0.00000000E+00  0.00000000E+00
  0.00000000E+00  0.00000000E+00  0.00000000E+00
  0.00000000E+00  0.00000000E+00  0.00000000E+00
  0.00000000E+00  0.00000000E+00  0.00000000E+00
  0.00000000E+00  0.00000000E+00  0.00000000E+00
  0.00000000E+00  0.00000000E+00  0.00000000E+00
  0.00000000E+00  0.00000000E+00  0.00000000E+00
  0.00000000E+00  0.00000000E+00  0.00000000E+00
  0.00000000E+00  0.00000000E+00  0.00000000E+00
  0.00000000E+00  0.00000000E+00  0.00000000E+00
  0.00000000E+00  0.00000000E+00  0.00000000E+00
  0.00000000E+00  0.00000000E+00  0.00000000E+00
  0.00000000E+00  0.00000000E+00  0.00000000E+00
  0.00000000E+00  0.00000000E+00  0.00000000E+00
  0.00000000E+00  0.00000000E+00  0.00000000E+00
  0.00000000E+00  0.00000000E+00  0.00000000E+00
  0.00000000E+00  0.00000000E+00  0.00000000E+00
  0.00000000E+00  0.00000000E+00  0.00000000E+00
  0.00000000E+00  0.00000000E+00  0.00000000E+00
  0.00000000E+00  0.00000000E+00  0.00000000E+00
  0.00000000E+00  0.00000000E+00  0.00000000E+00
  0.00000000E+00  0.00000000E+00  0.00000000E+00
  0.00000000E+00  0.00000000E+00  0.00000000E+00
  0.00000000E+00  0.00000000E+00  0.00000000E+00
  0.00000000E+00  0.00000000E+00  0.00000000E+00
  0.00000000E+00  0.00000000E+00  0.00000000E+00
  0.00000000E+00  0.00000000E+00  0.00000000E+00
  0.00000000E+00  0.00000000E+00  0.00000000E+00
  0.00000000E+00  0.00000000E+00  0.00000000E+00
  0.00000000E+00  0.00000000E+00  0.00000000E+00
  0.00000000E+00  0.00000000E+00  0.00000000E+00