CuInSe2gb                               
   1.00000000000000     
     9.7266780392896699    0.0000000000000000    0.0000000000000000
     0.0000000000000000    8.4235502764570693    0.0000000000000000
     0.0000000000000000    0.0000000000000000   45.0000000000000000
   Fe   Mn
   281     7
Direct
  0.0534286001629670  0.7014299691121075  0.2113388554174540
  0.3180850699541395  0.7238462606713675  0.8761186940210920
  0.6877393826842558  0.9581380743347995  0.6113623278479550
  0.4378787514659227  0.4581857081740272  0.6114502437265319
  0.4399140364544966  0.2880934297100750  0.2554732363005177
  0.0586859045232552  0.3884669281698737  0.8333819750077185
  0.3085403220001799  0.8876770569706373  0.8334919665036006
  0.4471019235055391  0.6260548883055714  0.7002012128817734
  0.0602496665932203  0.2125214183011909  0.7448161490599480
  0.1786696185860358  0.4511583376814647  0.2114530535285961
  0.5679223960363351  0.2105425886330706  0.4775077295552170
  0.0665437561617611  0.8750342838731194  0.5668772286359061
  0.5682244619246353  0.2238780155066825  0.8760829655224545
  0.8088961043698161  0.5285295801928384  0.1240128401689489
  0.4296038281096149  0.9508683082134082  0.2114499023553414
  0.5665074708481624  0.3750757783790284  0.5668615796916415
  0.8121688452880201  0.0418689974932844  0.3885607495586170
  0.6816893578952394  0.7890553311857461  0.5224869432249480
  0.4430225723887481  0.4606821390481782  0.4775105302088771
  0.4341742174729466  0.9624171785632930  0.7445469142266254
  0.4416086208132803  0.6249624533577390  0.5668617985409041
  0.5717989166611932  0.8761172493379783  0.7004306922616079
  0.3102522251631261  0.0285035213759968  0.1240059249625923
  0.6902968085822875  0.9593832948765671  0.3441825797812923
  0.6881684557342577  0.7820396088458913  0.1242776264367304
  0.0525190656611267  0.3738328397263020  0.2997073523934196
  0.6894381019622567  0.4674254605652548  0.8758922235196733
  0.4285785916315822  0.4514514449658468  0.2114676053873761
  0.8085007818589960  0.3751141138164698  0.4331247869464949
  0.5630256705402050  0.7082271662010063  0.6115243642783708
  0.5597179388525391  0.5405986680300431  0.6558228287573717
  0.9334417759551819  0.1249901298857927  0.4330789617773347
  0.5649362206009160  0.5380421618972183  0.2554166760486190
  0.6902614804682128  0.4593181313935482  0.3441595006186751
  0.1912217267971187  0.6118380250164760  0.1663721724154944
  0.1952985277477577  0.7992776788781996  0.7886968728827116
  0.4472822102332767  0.1260046989152045  0.7002290664727998
  0.9276374967139724  0.6235892988534403  0.2996749462802173
  0.3174784920606212  0.2231363958220776  0.8760615153410608
  0.3165574890370406  0.8747215633112049  0.5668212474414419
  0.8173110063006609  0.2235457228016405  0.8761149136207433
  0.8096169469784221  0.5408567033574441  0.6557826643833984
  0.5579910695886363  0.5273999727122640  0.1238238815287411
  0.5700216003725626  0.0494153387515630  0.7888207779887758
  0.1900038171957080  0.2882126435693822  0.2554486445895192
  0.8084693360573935  0.8749939268109712  0.4330838807120257
  0.5723365695860093  0.3761097913671087  0.7002606479152932
  0.0587430680201952  0.0278658193313699  0.1240837849466450
  0.3096362813686262  0.5406784864208916  0.6558273505892430
  0.5651649224408242  0.2093486100353518  0.3441097737311435
  0.1876614294400190  0.9581555198805993  0.6113577648673222
  0.3027109735202276  0.3739463365421890  0.2997609630580741
  0.4345492825297889  0.7904673141446344  0.6558564081206413
  0.1960115732614768  0.2982724635656473  0.7886349916491961
  0.0670527612964483  0.3631573860295413  0.1666512599964229
  0.6971145074545763  0.6262280416607428  0.7003492584694133
  0.3120692489779236  0.5417832638443902  0.3885743778006431
  0.0678208252619501  0.7228148246396000  0.8761285605375522
  0.9336438418456613  0.6376045361236297  0.8336708416130716
  0.3201248125451782  0.5493647649425556  0.7887986041987657
  0.3042113020013272  0.2010240763744898  0.2113215736737479
  0.0679964472921026  0.7107115343390792  0.4774727146664108
  0.5531789370492406  0.2011801057916253  0.2113201798662065
  0.3103690408256177  0.2115717568838103  0.7446049583833869
  0.0721447374271554  0.3763142169147536  0.7003564868384478
  0.1832625081553051  0.6375570331380798  0.8335146330154022
  0.0701443091371293  0.0491021658957038  0.7888631420556166
  0.4415951497695101  0.1249771405362019  0.5669122204117460
  0.9346611353294152  0.2907427816821445  0.6558127356685134
  0.8036839798667239  0.2012811330408641  0.2112931876095020
  0.9295153562348157  0.9509477321704483  0.2115265355036056
  0.9415301409453094  0.6250268617293357  0.5668636983267672
  0.8081813025005554  0.3877294291111552  0.8334882523720252
  0.1972247066162632  0.6259752911582603  0.7001591720725505
  0.8085506647297311  0.8876604195634733  0.8335226073903849
  0.6847714279346369  0.2906134409068050  0.6559009585262515
  0.3126160708300499  0.2079501086906811  0.6113515184047020
  0.4349591207206017  0.4625748786730942  0.7447071301927175
  0.4367749618357005  0.7915606002050158  0.3884737177175027
  0.6849548024742146  0.9625623300913773  0.7445458494007061
  0.8033750016386703  0.7012833637505788  0.2112894318804520
  0.8131508039969421  0.7083214440365633  0.6115269893650832
  0.4372573272792953  0.7828963928500207  0.1242265289713624
  0.3100868071078374  0.7118019753031751  0.7445333970226110
  0.3210180664819308  0.0491909473137001  0.7887096589442794
  0.8115956408347231  0.5415630431108871  0.3884034782116796
  0.6823866807920053  0.2882799718178988  0.5223494204051211
  0.6957881806665042  0.7988546252520204  0.7887392484203254
  0.1899511076470179  0.7878615685575739  0.2554362194791812
  0.6913913181393746  0.1117735471371631  0.1665661168539982
  0.6925998096975448  0.9605549263806699  0.4774937495246890
  0.9403698287166656  0.9594388653731282  0.3441285843596151
  0.8068702032863603  0.0389005173771907  0.5225176476800225
  0.6834241559115815  0.6250042683691425  0.4331242980819078
  0.4403087159970700  0.4594004111621340  0.3441842647006602
  0.8108991136093849  0.2114061589505707  0.7445725043536346
  0.4394182483335251  0.9675345867268600  0.8758873460098241
  0.5665688070884860  0.8747506623482840  0.5668525101634945
  0.8109332860028777  0.0282136036760097  0.1239413928537720
  0.4276595951316300  0.6238628896863571  0.2997034869118415
  0.8169372857024432  0.7229259009688687  0.8761963868777372
  0.6876183289754858  0.4579906855956397  0.6113687605957625
  0.5585783953517174  0.3876009674333799  0.8332925479880636
  0.8028163745038842  0.3735732719508540  0.2996297630935785
  0.1869720791987888  0.2917559786062061  0.3884562359389321
  0.8204744494291727  0.5492058045100359  0.7888305475279730
  0.1822095051360684  0.7889442611409909  0.5225568460689294
  0.3027220764513574  0.8740854049014167  0.2997545391816968
  0.1782194285637319  0.9511820678587969  0.2114322931757438
  0.1847981392779337  0.4622812765235468  0.7448141995233086
  0.4323998582826979  0.2884803555877885  0.5223459298999196
  0.0651493536440346  0.7091507146283570  0.3440155354858053
  0.1847242968199680  0.7906118394106797  0.6558054806533093
  0.4457383625051287  0.7988535559362041  0.7887069415846528
  0.6832835492461193  0.1249899232692894  0.4330834953441698
  0.9320377889056018  0.7884471568278930  0.5223686625339372
  0.6913677382538308  0.6125784027368080  0.1666829575207686
  0.8152461076776334  0.7093528069013945  0.3440900416547761
  0.9346281381881840  0.4625223096140829  0.7449277411385050
  0.1903539259709878  0.4593700769871067  0.3441744440981226
  0.5705116290196102  0.5494117594059302  0.7888426047319614
  0.5660086200223293  0.3634919334134288  0.1666004699364156
  0.5652019702212538  0.7094251737211927  0.3441169177624613
  0.5525558646034958  0.3737638948304819  0.2997238747365196
  0.1892928090357930  0.4674041597485993  0.8758957383705055
  0.1913171392387667  0.1118221756932091  0.1665826426746902
  0.4451204126245056  0.2986645882423791  0.7886687864966760
  0.6899396929203223  0.7880052630975137  0.2554379924755841
  0.9335851405125044  0.1376046653714565  0.8335196337931698
  0.4427534103303368  0.9607269860488834  0.4774819307945358
  0.5676214251932484  0.7241807792983828  0.8760846707857728
  0.1926965026578324  0.4607890933396850  0.4774757944260646
  0.9347259383162291  0.2822630914775382  0.1242392601887574
  0.3122483318013295  0.0419093114366935  0.3886064493364793
  0.0597588401863702  0.0405597064369183  0.6559018972546078
  0.5584529040461056  0.3749497702674379  0.4331168588626167
  0.6844577896256751  0.4625787404559206  0.7449210810752941
  0.5604677299692804  0.2124138563417091  0.7445992944539090
  0.9471931228994453  0.1261784837670115  0.7002903369018207
  0.5596878066745814  0.0406364139487532  0.6557931272112238
  0.5568482408262111  0.5390682006498283  0.5225297426845104
  0.1776759299660242  0.1239543153303197  0.2997191569990326
  0.4403887736926762  0.1103120410609422  0.1665233421019940
  0.6776448719589804  0.6237505950350118  0.2996274775387971
  0.9276629854013194  0.1239354974892364  0.2998235237478777
  0.8165816829390836  0.3750144767436686  0.5668741082354489
  0.0526633466879069  0.8739951040292554  0.2997542110008674
  0.1916165255780217  0.6248731813768978  0.5668886383014643
  0.9455359036332532  0.7994656374955723  0.7887125760844471
  0.3083297662826327  0.3875031450976565  0.8334682372181230
  0.9392756122617010  0.4681235847999835  0.8758957822748268
  0.4336635818005414  0.6378661610693581  0.8334779089235473
  0.0651117036443046  0.2091832243795700  0.3440076410223706
  0.1895596731969815  0.9674154723711279  0.8760366940489457
  0.9352733834461924  0.7825359502257058  0.1240808826302703
  0.6869136976523893  0.7916147185313023  0.3885162609016389
  0.9346946026491223  0.7906810373053024  0.6558251345265589
  0.9406052162882057  0.1108889961756450  0.1665905806393384
  0.4349473254351239  0.2906842556763298  0.6559617698407522
  0.0538160788537333  0.2015915897861863  0.2112862325660645
  0.6785327652637820  0.9516506578901764  0.2114305928981168
  0.1776164329252050  0.6237217120084387  0.2996144225769762
  0.8221520698533510  0.8762612895769450  0.7003715209012634
  0.9470601350158407  0.6263800734949788  0.7003705102644895
  0.1971805490018664  0.1259960776753421  0.7001530659337083
  0.9429823568098576  0.4607653334118277  0.4774499397230334
  0.8127428762187576  0.2080647031055823  0.6113837854459210
  0.1833879357111318  0.6250674235083088  0.4331364036888357
  0.4277116912431658  0.1238391982677223  0.2996329057726388
  0.6777877418767734  0.1238129183005127  0.2996887615567525
  0.5620495471767205  0.5417877702794240  0.3885158154438512
  0.8150825476993945  0.2092303723907565  0.3440184543317039
  0.4392931092390579  0.4675331569491291  0.8757842938523637
  0.5586536875155420  0.8875410904234212  0.8333116094876091
  0.3178683220462447  0.2105714121195328  0.4774702014735020
  0.1927188155063293  0.9605151851122526  0.4775009419119054
  0.0584192985692725  0.8876023502605723  0.8334759870989789
  0.0568384188144786  0.5389244754777717  0.5224711291423353
  0.9427908027603007  0.9605517139721849  0.4774522541128022
  0.0628484198902522  0.7081905415160912  0.6114941248349592
  0.5570809077064615  0.0384498699235534  0.5223765475921056
  0.6957797600958765  0.2987405990513606  0.7886945623658043
  0.8167635636084433  0.3617757607184732  0.1667412177608159
  0.4334571185111846  0.1249901633002120  0.4330782667741293
  0.0678179410708284  0.2106547418794899  0.4774666218575945
  0.3097107719417725  0.0407106196230491  0.6558174330634076
  0.4317760756538503  0.7889224385365756  0.5224760988049270
  0.1835741926569673  0.1376356856715329  0.8335392609487627
  0.1859831597746903  0.2826343950917253  0.1242186584857534
  0.9402860475093420  0.4594319747549344  0.3441942407115443
  0.5665564701646790  0.8622080090412860  0.1664615900213976
  0.3029102423877157  0.7007870401122651  0.2114420127438211
  0.9409723620785485  0.6115151635810441  0.1666704300315661
  0.1877828459916670  0.4581115623147203  0.6113919164611863
  0.0722673322084569  0.8761910696222152  0.7001716060076927
  0.0596480337200449  0.5406209059849855  0.6558057833454727
  0.3095893527818945  0.5275160494862925  0.1238407658986501
  0.9368084806689483  0.7916020206164455  0.3884956568468120
  0.9458729396285702  0.2981179368886350  0.7886505538426125
  0.1845768459820511  0.2905853025439988  0.6558531887656898
  0.9375756532008050  0.9580103796163486  0.6113707552579112
  0.8110362932985514  0.7113915868523517  0.7446191641624426
  0.6900497927196089  0.2878978816119753  0.2554516570603501
  0.0597954256498259  0.7119783319267796  0.7448935267662820
  0.6784624295285191  0.4509548906797519  0.2113264280709183
  0.8179871696174631  0.2108917473114981  0.4775865055612654
  0.5677415101319216  0.7105725277976395  0.4774550018832143
  0.0673090541410173  0.8635592242064433  0.1665561989658928
  0.9322551969382921  0.2882375656311510  0.5224515677908018
  0.6845736054468445  0.7905434190607402  0.6558192703237763
  0.0582747668473686  0.8747170355909306  0.4331254033371366
  0.0677931613105512  0.2228266746710982  0.8760531820719072
  0.8096087572205658  0.0405689653322585  0.6558414286930423
  0.5607463139001196  0.0286646633650058  0.1240641938851488
  0.3083828256365023  0.3749083819033972  0.4330760058817738
  0.3165283690208633  0.3749071743560196  0.5668557967592975
  0.3178511485362118  0.7105950223466925  0.4774197623558285
  0.0571348345931295  0.0383918692209331  0.5224510420838679
  0.3222116985202170  0.8763526602407173  0.7003827423825840
  0.0649541859825560  0.5376072299524649  0.2553397081249887
  0.6834282873912724  0.1376816480347580  0.8334998977769130
  0.8148323342133622  0.0376501587981516  0.2554059621780281
  0.1835501262739474  0.1250218419565571  0.4331182123520643
  0.6973198000671116  0.1264076391506296  0.7003405083519818
  0.1823412502960096  0.2883876738366631  0.5223601562129820
  0.4399998387012768  0.7880815290992237  0.2554205521478757
  0.8146138050619840  0.5378522190458142  0.2555058547173511
  0.0627322530965144  0.2081378913218016  0.6113532127985593
  0.1865091619053754  0.7913758865512994  0.3884143479447551
  0.3071177471694270  0.5384625150782164  0.5224515260814491
  0.8220369954781396  0.3761777943903506  0.7001200202638486
  0.6870027826613696  0.2917490155229399  0.3885000847974385
  0.1916661505267643  0.1250301540650428  0.5668835781334947
  0.6896901030678061  0.9683013228609342  0.8760983797696130
  0.6915741815804343  0.1250088574645418  0.5668865809883479
  0.4402717813497368  0.9592304852107758  0.3441840912430156
  0.1840389675463197  0.9625222052544241  0.7445338748580600
  0.9401366352272578  0.7879778887815870  0.2554489341231584
  0.5584863082704674  0.8750119415162599  0.4331225118246976
  0.3083854284340921  0.8749821625606691  0.4330990088880898
  0.8071529314253545  0.5392402799453481  0.5225576323530027
  0.9285553784249093  0.4512382087368348  0.2113639850399096
  0.3145766691831186  0.5380858903869277  0.2554978925405202
  0.5623159484815795  0.0420273156330956  0.3886451182821477
  0.9378558937265521  0.4581506023583503  0.6114860258610274
  0.0621004270795150  0.0418045207287487  0.3885559996113642
  0.0619827642060317  0.5416170126812834  0.3884672907110959
  0.4368823860611478  0.2915844930608806  0.3884979052232129
  0.6929257352987498  0.4607099431371898  0.4774539935312658
  0.0665710399383265  0.3749026958245160  0.5668612443594261
  0.5537012864907299  0.7013651782713126  0.2114391981589602
  0.9399864340549302  0.2880117211501209  0.2554461892401141
  0.8199340310529745  0.0494414062466530  0.7889153479622869
  0.1903094101962916  0.9593366110666970  0.3441210793941906
  0.5527172875018682  0.8739390032364163  0.2998074228970318
  0.0583562511478783  0.3750980652127318  0.4331046574993735
  0.3152385411361585  0.7093773005365551  0.3441694962253195
  0.3151568943663906  0.2093271651959170  0.3441302688036041
  0.9417626563122022  0.1250488514327922  0.5667623285833007
  0.4378658344768193  0.9583610079664544  0.6114844004002948
  0.5648044295167631  0.0376318103981291  0.2554062353448670
  0.1870309311585620  0.7836577576567542  0.1243026264147585
  0.0650256060627540  0.0372591777302925  0.2552611331470276
  0.6916055607876360  0.6248230422125266  0.5668841428981848
  0.0568975873810074  0.5265625874854242  0.1242443939008611
  0.3069895942399027  0.0384939281527817  0.5223581025809719
  0.6868152962432004  0.2818206594495092  0.1243104178329611
  0.8177677924777623  0.7107818035601641  0.4774679393213894
  0.4335386836885807  0.1377525197117944  0.8334529967054274
  0.3223090401199608  0.3761459168383692  0.7002218700392930
  0.6835870229326825  0.6378184815221701  0.8334846974733284
  0.5603890676714979  0.7115388623347869  0.7445924129047629
  0.9372166553145848  0.2918815508357829  0.3886122251560469
  0.9396805162182218  0.9681243391592693  0.8761036698874031
  0.5626726493184684  0.2078951591791752  0.6113135485822969
  0.8166107747367817  0.8750346675119574  0.5668758460190698
  0.8026636258232094  0.8738957407626099  0.2997339664360151
  0.3149578353910177  0.0376670507528326  0.2552220119799942
  0.4355323471852386  0.2833289935983799  0.1238132867923781
  0.3130853165312502  0.7083585105124732  0.6115063044203182
  0.4332994922921594  0.6249579085281950  0.4331084117330246
  0.9323834950157177  0.6252756097095209  0.4333260305700622
  0.3178471102127572  0.8628471118461870  0.1658831353180734
  0.0715576206029279  0.5491247220197411  0.7885990339666865
  0.8181990938153522  0.8631182424560401  0.1660656166322925
  0.3182966003503772  0.3630495748067110  0.1657706493877390
  0.9336505677018205  0.9623385013440447  0.7445096503761163
  0.4415190670538485  0.6089194278957824  0.1656390478133911
 
  0.00000000E+00  0.00000000E+00  0.00000000E+00
  0.00000000E+00  0.00000000E+00  0.00000000E+00
  0.00000000E+00  0.00000000E+00  0.00000000E+00
  0.00000000E+00  0.00000000E+00  0.00000000E+00
  0.00000000E+00  0.00000000E+00  0.00000000E+00
  0.00000000E+00  0.00000000E+00  0.00000000E+00
  0.00000000E+00  0.00000000E+00  0.00000000E+00
  0.00000000E+00  0.00000000E+00  0.00000000E+00
  0.00000000E+00  0.00000000E+00  0.00000000E+00
  0.00000000E+00  0.00000000E+00  0.00000000E+00
  0.00000000E+00  0.00000000E+00  0.00000000E+00
  0.00000000E+00  0.00000000E+00  0.00000000E+00
  0.00000000E+00  0.00000000E+00  0.00000000E+00
  0.00000000E+00  0.00000000E+00  0.00000000E+00
  0.00000000E+00  0.00000000E+00  0.00000000E+00
  0.00000000E+00  0.00000000E+00  0.00000000E+00
  0.00000000E+00  0.00000000E+00  0.00000000E+00
  0.00000000E+00  0.00000000E+00  0.00000000E+00
  0.00000000E+00  0.00000000E+00  0.00000000E+00
  0.00000000E+00  0.00000000E+00  0.00000000E+00
  0.00000000E+00  0.00000000E+00  0.00000000E+00
  0.00000000E+00  0.00000000E+00  0.00000000E+00
  0.00000000E+00  0.00000000E+00  0.00000000E+00
  0.00000000E+00  0.00000000E+00  0.00000000E+00
  0.00000000E+00  0.00000000E+00  0.00000000E+00
  0.00000000E+00  0.00000000E+00  0.00000000E+00
  0.00000000E+00  0.00000000E+00  0.00000000E+00
  0.00000000E+00  0.00000000E+00  0.00000000E+00
  0.00000000E+00  0.00000000E+00  0.00000000E+00
  0.00000000E+00  0.00000000E+00  0.00000000E+00
  0.00000000E+00  0.00000000E+00  0.00000000E+00
  0.00000000E+00  0.00000000E+00  0.00000000E+00
  0.00000000E+00  0.00000000E+00  0.00000000E+00
  0.00000000E+00  0.00000000E+00  0.00000000E+00
  0.00000000E+00  0.00000000E+00  0.00000000E+00
  0.00000000E+00  0.00000000E+00  0.00000000E+00
  0.00000000E+00  0.00000000E+00  0.00000000E+00
  0.00000000E+00  0.00000000E+00  0.00000000E+00
  0.00000000E+00  0.00000000E+00  0.00000000E+00
  0.00000000E+00  0.00000000E+00  0.00000000E+00
  0.00000000E+00  0.00000000E+00  0.00000000E+00
  0.00000000E+00  0.00000000E+00  0.00000000E+00
  0.00000000E+00  0.00000000E+00  0.00000000E+00
  0.00000000E+00  0.00000000E+00  0.00000000E+00
  0.00000000E+00  0.00000000E+00  0.00000000E+00
  0.00000000E+00  0.00000000E+00  0.00000000E+00
  0.00000000E+00  0.00000000E+00  0.00000000E+00
  0.00000000E+00  0.00000000E+00  0.00000000E+00
  0.00000000E+00  0.00000000E+00  0.00000000E+00
  0.00000000E+00  0.00000000E+00  0.00000000E+00
  0.00000000E+00  0.00000000E+00  0.00000000E+00
  0.00000000E+00  0.00000000E+00  0.00000000E+00
  0.00000000E+00  0.00000000E+00  0.00000000E+00
  0.00000000E+00  0.00000000E+00  0.00000000E+00
  0.00000000E+00  0.00000000E+00  0.00000000E+00
  0.00000000E+00  0.00000000E+00  0.00000000E+00
  0.00000000E+00  0.00000000E+00  0.00000000E+00
  0.00000000E+00  0.00000000E+00  0.00000000E+00
  0.00000000E+00  0.00000000E+00  0.00000000E+00
  0.00000000E+00  0.00000000E+00  0.00000000E+00
  0.00000000E+00  0.00000000E+00  0.00000000E+00
  0.00000000E+00  0.00000000E+00  0.00000000E+00
  0.00000000E+00  0.00000000E+00  0.00000000E+00
  0.00000000E+00  0.00000000E+00  0.00000000E+00
  0.00000000E+00  0.00000000E+00  0.00000000E+00
  0.00000000E+00  0.00000000E+00  0.00000000E+00
  0.00000000E+00  0.00000000E+00  0.00000000E+00
  0.00000000E+00  0.00000000E+00  0.00000000E+00
  0.00000000E+00  0.00000000E+00  0.00000000E+00
  0.00000000E+00  0.00000000E+00  0.00000000E+00
  0.00000000E+00  0.00000000E+00  0.00000000E+00
  0.00000000E+00  0.00000000E+00  0.00000000E+00
  0.00000000E+00  0.00000000E+00  0.00000000E+00
  0.00000000E+00  0.00000000E+00  0.00000000E+00
  0.00000000E+00  0.00000000E+00  0.00000000E+00
  0.00000000E+00  0.00000000E+00  0.00000000E+00
  0.00000000E+00  0.00000000E+00  0.00000000E+00
  0.00000000E+00  0.00000000E+00  0.00000000E+00
  0.00000000E+00  0.00000000E+00  0.00000000E+00
  0.00000000E+00  0.00000000E+00  0.00000000E+00
  0.00000000E+00  0.00000000E+00  0.00000000E+00
  0.00000000E+00  0.00000000E+00  0.00000000E+00
  0.00000000E+00  0.00000000E+00  0.00000000E+00
  0.00000000E+00  0.00000000E+00  0.00000000E+00
  0.00000000E+00  0.00000000E+00  0.00000000E+00
  0.00000000E+00  0.00000000E+00  0.00000000E+00
  0.00000000E+00  0.00000000E+00  0.00000000E+00
  0.00000000E+00  0.00000000E+00  0.00000000E+00
  0.00000000E+00  0.00000000E+00  0.00000000E+00
  0.00000000E+00  0.00000000E+00  0.00000000E+00
  0.00000000E+00  0.00000000E+00  0.00000000E+00
  0.00000000E+00  0.00000000E+00  0.00000000E+00
  0.00000000E+00  0.00000000E+00  0.00000000E+00
  0.00000000E+00  0.00000000E+00  0.00000000E+00
  0.00000000E+00  0.00000000E+00  0.00000000E+00
  0.00000000E+00  0.00000000E+00  0.00000000E+00
  0.00000000E+00  0.00000000E+00  0.00000000E+00
  0.00000000E+00  0.00000000E+00  0.00000000E+00
  0.00000000E+00  0.00000000E+00  0.00000000E+00
  0.00000000E+00  0.00000000E+00  0.00000000E+00
  0.00000000E+00  0.00000000E+00  0.00000000E+00
  0.00000000E+00  0.00000000E+00  0.00000000E+00
  0.00000000E+00  0.00000000E+00  0.00000000E+00
  0.00000000E+00  0.00000000E+00  0.00000000E+00
  0.00000000E+00  0.00000000E+00  0.00000000E+00
  0.00000000E+00  0.00000000E+00  0.00000000E+00
  0.00000000E+00  0.00000000E+00  0.00000000E+00
  0.00000000E+00  0.00000000E+00  0.00000000E+00
  0.00000000E+00  0.00000000E+00  0.00000000E+00
  0.00000000E+00  0.00000000E+00  0.00000000E+00
  0.00000000E+00  0.00000000E+00  0.00000000E+00
  0.00000000E+00  0.00000000E+00  0.00000000E+00
  0.00000000E+00  0.00000000E+00  0.00000000E+00
  0.00000000E+00  0.00000000E+00  0.00000000E+00
  0.00000000E+00  0.00000000E+00  0.00000000E+00
  0.00000000E+00  0.00000000E+00  0.00000000E+00
  0.00000000E+00  0.00000000E+00  0.00000000E+00
  0.00000000E+00  0.00000000E+00  0.00000000E+00
  0.00000000E+00  0.00000000E+00  0.00000000E+00
  0.00000000E+00  0.00000000E+00  0.00000000E+00
  0.00000000E+00  0.00000000E+00  0.00000000E+00
  0.00000000E+00  0.00000000E+00  0.00000000E+00
  0.00000000E+00  0.00000000E+00  0.00000000E+00
  0.00000000E+00  0.00000000E+00  0.00000000E+00
  0.00000000E+00  0.00000000E+00  0.00000000E+00
  0.00000000E+00  0.00000000E+00  0.00000000E+00
  0.00000000E+00  0.00000000E+00  0.00000000E+00
  0.00000000E+00  0.00000000E+00  0.00000000E+00
  0.00000000E+00  0.00000000E+00  0.00000000E+00
  0.00000000E+00  0.00000000E+00  0.00000000E+00
  0.00000000E+00  0.00000000E+00  0.00000000E+00
  0.00000000E+00  0.00000000E+00  0.00000000E+00
  0.00000000E+00  0.00000000E+00  0.00000000E+00
  0.00000000E+00  0.00000000E+00  0.00000000E+00
  0.00000000E+00  0.00000000E+00  0.00000000E+00
  0.00000000E+00  0.00000000E+00  0.00000000E+00
  0.00000000E+00  0.00000000E+00  0.00000000E+00
  0.00000000E+00  0.00000000E+00  0.00000000E+00
  0.00000000E+00  0.00000000E+00  0.00000000E+00
  0.00000000E+00  0.00000000E+00  0.00000000E+00
  0.00000000E+00  0.00000000E+00  0.00000000E+00
  0.00000000E+00  0.00000000E+00  0.00000000E+00
  0.00000000E+00  0.00000000E+00  0.00000000E+00
  0.00000000E+00  0.00000000E+00  0.00000000E+00
  0.00000000E+00  0.00000000E+00  0.00000000E+00
  0.00000000E+00  0.00000000E+00  0.00000000E+00
  0.00000000E+00  0.00000000E+00  0.00000000E+00
  0.00000000E+00  0.00000000E+00  0.00000000E+00
  0.00000000E+00  0.00000000E+00  0.00000000E+00
  0.00000000E+00  0.00000000E+00  0.00000000E+00
  0.00000000E+00  0.00000000E+00  0.00000000E+00
  0.00000000E+00  0.00000000E+00  0.00000000E+00
  0.00000000E+00  0.00000000E+00  0.00000000E+00
  0.00000000E+00  0.00000000E+00  0.00000000E+00
  0.00000000E+00  0.00000000E+00  0.00000000E+00
  0.00000000E+00  0.00000000E+00  0.00000000E+00
  0.00000000E+00  0.00000000E+00  0.00000000E+00
  0.00000000E+00  0.00000000E+00  0.00000000E+00
  0.00000000E+00  0.00000000E+00  0.00000000E+00
  0.00000000E+00  0.00000000E+00  0.00000000E+00
  0.00000000E+00  0.00000000E+00  0.00000000E+00
  0.00000000E+00  0.00000000E+00  0.00000000E+00
  0.00000000E+00  0.00000000E+00  0.00000000E+00
  0.00000000E+00  0.00000000E+00  0.00000000E+00
  0.00000000E+00  0.00000000E+00  0.00000000E+00
  0.00000000E+00  0.00000000E+00  0.00000000E+00
  0.00000000E+00  0.00000000E+00  0.00000000E+00
  0.00000000E+00  0.00000000E+00  0.00000000E+00
  0.00000000E+00  0.00000000E+00  0.00000000E+00
  0.00000000E+00  0.00000000E+00  0.00000000E+00
  0.00000000E+00  0.00000000E+00  0.00000000E+00
  0.00000000E+00  0.00000000E+00  0.00000000E+00
  0.00000000E+00  0.00000000E+00  0.00000000E+00
  0.00000000E+00  0.00000000E+00  0.00000000E+00
  0.00000000E+00  0.00000000E+00  0.00000000E+00
  0.00000000E+00  0.00000000E+00  0.00000000E+00
  0.00000000E+00  0.00000000E+00  0.00000000E+00
  0.00000000E+00  0.00000000E+00  0.00000000E+00
  0.00000000E+00  0.00000000E+00  0.00000000E+00
  0.00000000E+00  0.00000000E+00  0.00000000E+00
  0.00000000E+00  0.00000000E+00  0.00000000E+00
  0.00000000E+00  0.00000000E+00  0.00000000E+00
  0.00000000E+00  0.00000000E+00  0.00000000E+00
  0.00000000E+00  0.00000000E+00  0.00000000E+00
  0.00000000E+00  0.00000000E+00  0.00000000E+00
  0.00000000E+00  0.00000000E+00  0.00000000E+00
  0.00000000E+00  0.00000000E+00  0.00000000E+00
  0.00000000E+00  0.00000000E+00  0.00000000E+00
  0.00000000E+00  0.00000000E+00  0.00000000E+00
  0.00000000E+00  0.00000000E+00  0.00000000E+00
  0.00000000E+00  0.00000000E+00  0.00000000E+00
  0.00000000E+00  0.00000000E+00  0.00000000E+00
  0.00000000E+00  0.00000000E+00  0.00000000E+00
  0.00000000E+00  0.00000000E+00  0.00000000E+00
  0.00000000E+00  0.00000000E+00  0.00000000E+00
  0.00000000E+00  0.00000000E+00  0.00000000E+00
  0.00000000E+00  0.00000000E+00  0.00000000E+00
  0.00000000E+00  0.00000000E+00  0.00000000E+00
  0.00000000E+00  0.00000000E+00  0.00000000E+00
  0.00000000E+00  0.00000000E+00  0.00000000E+00
  0.00000000E+00  0.00000000E+00  0.00000000E+00
  0.00000000E+00  0.00000000E+00  0.00000000E+00
  0.00000000E+00  0.00000000E+00  0.00000000E+00
  0.00000000E+00  0.00000000E+00  0.00000000E+00
  0.00000000E+00  0.00000000E+00  0.00000000E+00
  0.00000000E+00  0.00000000E+00  0.00000000E+00
  0.00000000E+00  0.00000000E+00  0.00000000E+00
  0.00000000E+00  0.00000000E+00  0.00000000E+00
  0.00000000E+00  0.00000000E+00  0.00000000E+00
  0.00000000E+00  0.00000000E+00  0.00000000E+00
  0.00000000E+00  0.00000000E+00  0.00000000E+00
  0.00000000E+00  0.00000000E+00  0.00000000E+00
  0.00000000E+00  0.00000000E+00  0.00000000E+00
  0.00000000E+00  0.00000000E+00  0.00000000E+00
  0.00000000E+00  0.00000000E+00  0.00000000E+00
  0.00000000E+00  0.00000000E+00  0.00000000E+00
  0.00000000E+00  0.00000000E+00  0.00000000E+00
  0.00000000E+00  0.00000000E+00  0.00000000E+00
  0.00000000E+00  0.00000000E+00  0.00000000E+00
  0.00000000E+00  0.00000000E+00  0.00000000E+00
  0.00000000E+00  0.00000000E+00  0.00000000E+00
  0.00000000E+00  0.00000000E+00  0.00000000E+00
  0.00000000E+00  0.00000000E+00  0.00000000E+00
  0.00000000E+00  0.00000000E+00  0.00000000E+00
  0.00000000E+00  0.00000000E+00  0.00000000E+00
  0.00000000E+00  0.00000000E+00  0.00000000E+00
  0.00000000E+00  0.00000000E+00  0.00000000E+00
  0.00000000E+00  0.00000000E+00  0.00000000E+00
  0.00000000E+00  0.00000000E+00  0.00000000E+00
  0.00000000E+00  0.00000000E+00  0.00000000E+00
  0.00000000E+00  0.00000000E+00  0.00000000E+00
  0.00000000E+00  0.00000000E+00  0.00000000E+00
  0.00000000E+00  0.00000000E+00  0.00000000E+00
  0.00000000E+00  0.00000000E+00  0.00000000E+00
  0.00000000E+00  0.00000000E+00  0.00000000E+00
  0.00000000E+00  0.00000000E+00  0.00000000E+00
  0.00000000E+00  0.00000000E+00  0.00000000E+00
  0.00000000E+00  0.00000000E+00  0.00000000E+00
  0.00000000E+00  0.00000000E+00  0.00000000E+00
  0.00000000E+00  0.00000000E+00  0.00000000E+00
  0.00000000E+00  0.00000000E+00  0.00000000E+00
  0.00000000E+00  0.00000000E+00  0.00000000E+00
  0.00000000E+00  0.00000000E+00  0.00000000E+00
  0.00000000E+00  0.00000000E+00  0.00000000E+00
  0.00000000E+00  0.00000000E+00  0.00000000E+00
  0.00000000E+00  0.00000000E+00  0.00000000E+00
  0.00000000E+00  0.00000000E+00  0.00000000E+00