CuInSe2gb                               
   1.00000000000000     
     9.7266780392896699    0.0000000000000000    0.0000000000000000
     0.0000000000000000    8.4235502764570693    0.0000000000000000
     0.0000000000000000    0.0000000000000000   45.0000000000000000
   Fe   Mn
   281     7
Direct
  0.0618998917369454  0.0322423683886378  0.1242499982501016
  0.8146584168374725  0.0428049939670416  0.8756641288319527
  0.1953500725960610  0.1250760294169166  0.7883942608055857
  0.4332478281587707  0.2872189162017860  0.3890867280599795
  0.3173053036864261  0.3627958585469436  0.1672391449993152
  0.8090674845987534  0.2131015308860058  0.8331491690988995
  0.1834514954168743  0.7874203192672200  0.3890710008089545
  0.5637428778234310  0.2073629279483715  0.5654902599565829
  0.0604418556988088  0.0421733199480684  0.7441314917901121
  0.8133030562594188  0.8719768058973036  0.5213018191871449
  0.1856873311846630  0.2918690087997768  0.7440795491540191
  0.9411363047870304  0.4519349629474075  0.3448787280486972
  0.9341809168119273  0.2870619465036320  0.3888843264474601
  0.4381794004189364  0.6224768001482117  0.5214347260050911
  0.1876936948165607  0.7920232491954846  0.6107668385334779
  0.5587730777703216  0.0374903830186375  0.3888358222972562
  0.9333909209881602  0.9635718376964801  0.8331523306867049
  0.3143422411191349  0.5432301045298537  0.8755621462403488
  0.6858542675868545  0.2915811700971198  0.7440183073477600
  0.1911036082936603  0.6127880905357023  0.1671433986253909
  0.8132543340941981  0.2052474347189902  0.4784408557256182
  0.8126817239850145  0.5418958246010336  0.6108001520229559
  0.3129555377820047  0.8702908565460814  0.4344681928091045
  0.8154363439018824  0.0351786676266636  0.2559622688060941
  0.6911303963240432  0.9517702636022110  0.3449299134865133
  0.9416119742770855  0.1123875247140099  0.1671450043718180
  0.9386595840080254  0.1224249030394678  0.5214012682267637
  0.5653042707389669  0.5351079318533563  0.2559816911769618
  0.6925866351342204  0.7957564022695732  0.8756202743451980
  0.5678057703889896  0.3628392188511107  0.1673002277405058
  0.4360977535729202  0.7917509230466901  0.7440855792087100
  0.8140035692720586  0.7075215331893487  0.5654912387499385
  0.5704538591986918  0.8742398845674978  0.7882500164975208
  0.6885429448446710  0.1221982273569153  0.5214001361665743
  0.1903399112876237  0.2848995427598613  0.2560426267677455
  0.9336207459838067  0.4631925069778240  0.8330184210433126
  0.0653136259572389  0.2082921963500910  0.6995632207776408
  0.8088647538195043  0.0372729198888417  0.3890800306877407
  0.3091866216164353  0.2137674274978046  0.8333221108227711
  0.4340447129005836  0.6259899525208001  0.6548032549451761
  0.3126755976817789  0.5419906974555085  0.6107786315687492
  0.9389491102606317  0.4573598832608144  0.5655158754413614
  0.6860164935914559  0.7919359735119185  0.7441155577216739
  0.3088189995616910  0.8756836599395839  0.6547770940675687
  0.6838802040857003  0.7879774965147048  0.3891045184146023
  0.9358447590698609  0.7919181371058703  0.7441230118081171
  0.0657442002536748  0.2025992603106212  0.3450124443886480
  0.4369358254849819  0.7821724371056044  0.1242363925771891
  0.4452989238020186  0.1251049433321897  0.7884734310713318
  0.0551507829785093  0.2025763438422216  0.2120027089423865
  0.0665393504093086  0.3628233908212097  0.1671879920442942
  0.9402685527686844  0.7856526220460033  0.2559486561160078
  0.5657011062481668  0.2081767880161228  0.6995919728928323
  0.6904508285226217  0.9583645677908917  0.6995943711001154
  0.6838826192633016  0.2870845727855832  0.3890421785476781
  0.4386106631930306  0.9575363838330045  0.5655570119928508
  0.8204907134864824  0.3746916010699940  0.7883316905418519
  0.6903076815728424  0.2852990123957475  0.2560017121519674
  0.1889340127988202  0.4577476063757138  0.5655328572287318
  0.0669114407287553  0.8614008106557841  0.1671579004144136
  0.1878587701596094  0.2916496617596352  0.6107206436494321
  0.5659259063732024  0.7018458139165246  0.3448245669938979
  0.3152666137872392  0.2082835022405007  0.6995369357179214
  0.5646577369706094  0.5421527882969690  0.8756124059679568
  0.0639829784527817  0.7078776206892928  0.5655072623458018
  0.6954055854525253  0.6245472896696670  0.7883839202020922
  0.3084063697453401  0.5373963559864703  0.3890720508225891
  0.1885348209017286  0.6224682758834149  0.5214047508820938
  0.5626757461331794  0.8702719752536395  0.4344286630901960
  0.4387348607456583  0.4578500755766715  0.5655353851516568
  0.4359761733002201  0.2919065175509316  0.7440735041604504
  0.8043130164816521  0.8723589983214928  0.3001226290958186
  0.8166684474671271  0.7025666132002333  0.3449659076662630
  0.4337176489388122  0.4638242705555610  0.8333049124464016
  0.6877620553659549  0.9557667523227861  0.4785869419743719
  0.6904952194678355  0.4583073803148548  0.6995881769106148
  0.5631795285203567  0.8719979925467548  0.5214246257628602
  0.5589839659226715  0.3754995731066218  0.6547958536220746
  0.8091235424823942  0.8757010176292300  0.6547864601668196
  0.8127818663403265  0.3703281845895317  0.4344872078096574
  0.8153980895706633  0.5354028938609732  0.2559141088050798
  0.6838672342042104  0.4631058727298419  0.8330298152684782
  0.1862817227241326  0.7822706943353762  0.1242364074234307
  0.0640800245510344  0.0425901668573507  0.8756091827737771
  0.3089328600654154  0.3756480662563779  0.6547527558039502
  0.1917110771993419  0.1117298765686590  0.1671953902721492
  0.8107856185022031  0.5422879272949827  0.7441262581667142
  0.6842659430191783  0.9635013466555692  0.8331341195563247
  0.5589406249207979  0.8756947385687883  0.6547801632047200
  0.3138485371958095  0.7079106778420216  0.5656104188808020
  0.3117500949446698  0.5329432967163111  0.1242610160131444
  0.6805218137610274  0.9527761661481152  0.2120859143864865
  0.3139417839229114  0.2074870135735765  0.5656333805327532
  0.3109096169470609  0.5424796707509981  0.7441464094420016
  0.6884935151917636  0.9576385871368298  0.5655271545299143
  0.4373689134899310  0.7919853831162244  0.6107552619519242
  0.6923022039264730  0.6121722188880535  0.1672859698112049
  0.3039436149270099  0.8723692131712363  0.3002720909580761
  0.3123533715571633  0.7057744927751215  0.4785454437068969
  0.9379728844002244  0.2916569155948517  0.6107482418605998
  0.4288284860316141  0.6222019176435991  0.3002933357063889
  0.8168770192048124  0.8619312880593635  0.1671710959948497
  0.5559551645698507  0.2023013938342507  0.2118979872503536
  0.9416691638563899  0.6125919648912317  0.1670992892027428
  0.9404394066637145  0.7950116877314594  0.8756772791845719
  0.5708924766691481  0.3745876664118300  0.7882888541757072
  0.0634625897996663  0.3723773900641725  0.5214211421485612
  0.5634268455430442  0.3723611963277844  0.5214223901302880
  0.6796842955594364  0.1219794777109747  0.3002213644373021
  0.4327095947554981  0.9625732631214406  0.8332533162030376
  0.1863805962813098  0.2826849769487342  0.1242081973976528
  0.8206279104650501  0.8743138746427399  0.7882469423345264
  0.3126220143663208  0.3706438874427780  0.4343878837242212
  0.9380106535128213  0.7918041618581272  0.6107489698301198
  0.4376685083209828  0.2918122355927587  0.6107053680486773
  0.1919430673818586  0.4517921616801886  0.3449227452449566
  0.4373757374153793  0.2825258711562185  0.1241427801505466
  0.6900839408595996  0.7856171275991696  0.2558968423453238
  0.1903086973369468  0.9583783434146215  0.6995441966672578
  0.1910073142396430  0.2960390317822731  0.8757981295930161
  0.1839923538047206  0.1256910812121459  0.6547699349345016
  0.9342170554363822  0.1259361518260241  0.6548440882916842
  0.3058514822905284  0.2024507494023364  0.2120708987197346
  0.0587938976375662  0.0372522289045931  0.3891078765436849
  0.4403162948413633  0.9582953197567329  0.6995660578070009
  0.0627939404650505  0.5417225356296091  0.6108868755236859
  0.9401571674610283  0.2854085814921965  0.2559465045092291
  0.5625274744468188  0.5418114003767620  0.6107669980240700
  0.9388481512595335  0.9577259680851475  0.5655403178642703
  0.6791327231775992  0.6218120122579691  0.3001290306699709
  0.9375614411564315  0.6196210923512258  0.4344680230839960
  0.9451861608946558  0.6248244270498715  0.7883659263170979
  0.5653030651396062  0.7085226765610879  0.6995595160222281
  0.0591247856444290  0.7131055439528221  0.8332678970514050
  0.9290547084002843  0.1220188256946757  0.3002421749988580
  0.9402960311672243  0.4583027418481814  0.6995622841143541
  0.4404465493743639  0.7857129526772264  0.2559704441988104
  0.3205214799026614  0.3745185759722473  0.7883345288271533
  0.4311564197216680  0.4524018341467997  0.2118797397606883
  0.1883617689874995  0.1224042873286483  0.5214258045049835
  0.8153454670630411  0.7084425146957190  0.6995911156660548
  0.0629325643318526  0.0417222481736053  0.6107394563822782
  0.5592203369431963  0.2135596559426945  0.8332872974892117
  0.3136795781169073  0.8718785571220471  0.5213918022886397
  0.6879169901840788  0.2828360320961579  0.1242903860912367
  0.1805177059289529  0.9519745210104030  0.2119348502419295
  0.6875582545838058  0.2919276199317492  0.6107934499710782
  0.3126909354420789  0.0418910401032693  0.6108366051854067
  0.9452748967862548  0.1248817909207006  0.7883786075821511
  0.4400071831795770  0.7957982162759393  0.8757004079025199
  0.8109021784748871  0.0421297853624481  0.7440071208557902
  0.4382210427732267  0.1218330666647026  0.5214491497036686
  0.1840726149917401  0.6259842894513291  0.6548005765238327
  0.3153406141540128  0.7085604332648870  0.6995595482414237
  0.9366242292565793  0.2829791750178978  0.1242962674585280
  0.4378580128176185  0.4559218946754660  0.4785666679155267
  0.0631713534115708  0.7054056893614423  0.4786153462621247
  0.9388897458353113  0.1199007771461793  0.4342328239053014
  0.4287460527710421  0.1219987164551791  0.3002395707214006
  0.1878582445372604  0.1203635785635036  0.4343982915546721
  0.5650257657457202  0.0433330695089838  0.8756133795483013
  0.1891615753807178  0.9572559479864506  0.5653325636658341
  0.6876499945326028  0.7820644844162403  0.1243331745635988
  0.5627492891944704  0.5324670247030292  0.1243147426154976
  0.3087638831456046  0.0375532878644727  0.3889900185367886
  0.6926151359133073  0.1122102565964533  0.1673297412191437
  0.8054684842971299  0.2027002555808827  0.2119832535572833
  0.0650122982704485  0.5355276219005296  0.2559428011889290
  0.5627543275401006  0.7058638931360161  0.4785923990380473
  0.0640151764937655  0.2075463148355129  0.5656169954913866
  0.5539009543779121  0.3719444562594122  0.3002864597816994
  0.4412481360341265  0.9522901887803097  0.3449117041124863
  0.1842139157861684  0.9627942746702404  0.8332511554217361
  0.4422054339011637  0.6123769108825489  0.1672466035584319
  0.9302857112873226  0.4533023111820890  0.2120111401867552
  0.0613344892070992  0.5330410534137555  0.1243478789461780
  0.8132047124692352  0.3721155252592041  0.5214002265490699
  0.9292336123835705  0.6221802231378000  0.3002510604656078
  0.3153548811388702  0.0350920369590778  0.2561031877843469
  0.6876282022210882  0.7919295032977948  0.6108213846368272
  0.1841391280786445  0.4644909850416453  0.8332928088085977
  0.4423442042535684  0.1119993713493077  0.1673072625426023
  0.3136102339539983  0.3722791411342595  0.5214005180800619
  0.4459749223519331  0.6245682671465075  0.7882807492961542
  0.0649420640878640  0.0349402696428911  0.2560443923484385
  0.5634701860792274  0.7076169613688473  0.5654800358838489
  0.9360697340219455  0.2916882971086492  0.7441132611304194
  0.6957157051595060  0.1247587293102396  0.7883392057744220
  0.1805636431638444  0.4530831734912473  0.2118836230092727
  0.9343749399876703  0.7873381779027165  0.3889685312681420
  0.6930014816912344  0.2966521889048601  0.8757718863255637
  0.3166312879067339  0.8618386453111020  0.1671808313220366
  0.4402322076910701  0.4583188871374602  0.6995330370197191
  0.8090971365086689  0.3755353268976593  0.6547993540581063
  0.6883662900272004  0.6224795031999414  0.5214912556888919
  0.0590280596768092  0.8757762897900678  0.6547586723789850
  0.0704501655715006  0.8745217004655120  0.7882882810824063
  0.0590563785704205  0.3757591033624894  0.6547715442662417
  0.6878778707370027  0.4557281459371311  0.4785959591759462
  0.1903013576264829  0.7858398105214466  0.2559644180766502
  0.4378669015478486  0.1203737669072636  0.4344301280086438
  0.8121042624587600  0.0326268192900352  0.1242479455442279
  0.9384706665426226  0.6222349945175381  0.5214266442584495
  0.0628882496516556  0.8713183233833561  0.4344897820791329
  0.8120403729558545  0.5325195982870392  0.1243597990914492
  0.4408372576426531  0.4518787984174338  0.3448742024884152
  0.8165421090683705  0.2021105468557402  0.3448709488102036
  0.3155372608136746  0.7016158032868236  0.3448576354062497
  0.6842125558690422  0.1259319178088962  0.6548231821644220
  0.5538429201835924  0.8720496475145731  0.3002942709206535
  0.0605205585181668  0.5421757912412010  0.7441493626063189
  0.9367952871486058  0.7815027320665977  0.1243802980581429
  0.8058637166600557  0.7025765666926492  0.2119205687096097
  0.0542538188214727  0.8730139810610870  0.3000107748225414
  0.1792167666136060  0.1218733455293688  0.3001618105339734
  0.0662821963375675  0.7020904979319921  0.3449299124390744
  0.8128879291167218  0.0418175068007879  0.6107162318325702
  0.0631959903241557  0.3704908878954205  0.4344322473986406
  0.5660740712552215  0.2019377006040937  0.3449053485274164
  0.8036711606848751  0.3716384348397295  0.3003307988254979
  0.4378369695815137  0.9558046904494578  0.4785577529688800
  0.5585756855684214  0.5373921206201095  0.3890446032424745
  0.0628902787514104  0.2054640223832873  0.4785768448869190
  0.3204633426825836  0.8745591116001813  0.7883392616686826
  0.9404713460040959  0.9584480233941400  0.6996085703560531
  0.0542878162250263  0.3721376649952033  0.3002688365238691
  0.6842003699633370  0.6261086902458690  0.6548377316284412
  0.6886331769051242  0.4578063469642012  0.5655271443314053
  0.4308520482235597  0.9524740477355675  0.2120018424439390
  0.3127477318532044  0.2054934347236455  0.4785005196797450
  0.4338208624482983  0.1257567050882378  0.6547592599061032
  0.6879750634296631  0.6205948231952215  0.4344561733592702
  0.8154895254819503  0.2083113774401914  0.6995312221750931
  0.8130536146413317  0.7058873741119264  0.4785924116939234
  0.5628712227258881  0.3701684147446973  0.4344579202109530
  0.9377420959835729  0.9558073319043628  0.4786030243401384
  0.5628433518200298  0.2054353117497393  0.4785599481127953
  0.1882627177382138  0.6202186406753566  0.4342517159374490
  0.3107710934416362  0.0421101646561560  0.7440351391679303
  0.9342721096323445  0.6260495368439623  0.6548271165675121
  0.5587228906181928  0.7130448341316175  0.8332289806056773
  0.3043103720882019  0.3721526330174680  0.3002868716140441
  0.5559782610039998  0.7024954374732171  0.2119205912061074
  0.1877446870547261  0.4558645858095873  0.4785332317623802
  0.3147811601680973  0.0416808620443095  0.8757297910640345
  0.1902594036002646  0.4582056081823095  0.6995299789151682
  0.8146237208032039  0.5430296610375172  0.8756032709272478
  0.1836131202382837  0.2876882976836364  0.3890776057254346
  0.4381068597813630  0.6206207520729545  0.4343567554088991
  0.0552626649191043  0.7022741794092315  0.2118397665836410
  0.5627601533183981  0.0324257851184040  0.1242244028964681
  0.8169249049252600  0.3630043003712192  0.1671044699673328
  0.8085889472021812  0.7135596392707942  0.8330852891961054
  0.0703636477001365  0.3745280138775831  0.7883051425678506
  0.4421372002866399  0.2962139337393679  0.8757296298036964
  0.3113856130332512  0.0321953880608902  0.1241214672121970
  0.6879292265946881  0.1200355627497505  0.4345071799304023
  0.1911122728603836  0.9519098896960597  0.3449504845103136
  0.0586995819304082  0.2134061305454134  0.8332797075618150
  0.5626719777165525  0.0417390678010219  0.6107102479298667
  0.6808338175195287  0.4525198980938975  0.2118588406712112
  0.1859371496239593  0.7918019507946596  0.7441055881308001
  0.1790429154885826  0.6220782779394987  0.3003858095395644
  0.4336032745706457  0.7877179936417906  0.3891050010058030
  0.4404481481470724  0.2851536339766468  0.2560229114843492
  0.0646173669075637  0.5429157604222685  0.8756913184854771
  0.5606999940011739  0.0420512560404310  0.7441306993856025
  0.1931444227854102  0.7960981648802347  0.8759052872670340
  0.9378383256524201  0.4557059569463142  0.4785476232888223
  0.8091305007133682  0.5378414668200897  0.3890970932408301
  0.8137886734811690  0.2076517036729094  0.5654671424848796
  0.1951096077792734  0.6247759770558086  0.7883092160795935
  0.9304112737554140  0.9523550454008264  0.2120582990155012
  0.0653302341333559  0.7085676995699222  0.6995386114503923
  0.3155741442110265  0.5354748746451483  0.2558784278011405
  0.3058134541860051  0.7025886549275426  0.2120265374558052
  0.5677307459838565  0.8618622109797915  0.1673885937528084
  0.5610242077829293  0.5424008591622514  0.7440620596826717
  0.6906827092215317  0.4517093073253035  0.3448030133828617
  0.9412943886933555  0.2962497859972198  0.8757697364662027
  0.5652935930419241  0.0355133546361026  0.2559729504275101
  0.3159887564338056  0.2027890395720592  0.3449325852064973
  0.3082223766190317  0.7146143377623685  0.8340255040646913
  0.0634330782863950  0.8719465176684770  0.5212419795965562
  0.8129968374925988  0.8712466213013125  0.4343665815540851
  0.0586048740295004  0.5381076725298587  0.3890334739887893
  0.9424598932833153  0.9518966901771152  0.3450010665632688
  0.1880493034550708  0.9557752771049088  0.4785534031530737
 
  0.00000000E+00  0.00000000E+00  0.00000000E+00
  0.00000000E+00  0.00000000E+00  0.00000000E+00
  0.00000000E+00  0.00000000E+00  0.00000000E+00
  0.00000000E+00  0.00000000E+00  0.00000000E+00
  0.00000000E+00  0.00000000E+00  0.00000000E+00
  0.00000000E+00  0.00000000E+00  0.00000000E+00
  0.00000000E+00  0.00000000E+00  0.00000000E+00
  0.00000000E+00  0.00000000E+00  0.00000000E+00
  0.00000000E+00  0.00000000E+00  0.00000000E+00
  0.00000000E+00  0.00000000E+00  0.00000000E+00
  0.00000000E+00  0.00000000E+00  0.00000000E+00
  0.00000000E+00  0.00000000E+00  0.00000000E+00
  0.00000000E+00  0.00000000E+00  0.00000000E+00
  0.00000000E+00  0.00000000E+00  0.00000000E+00
  0.00000000E+00  0.00000000E+00  0.00000000E+00
  0.00000000E+00  0.00000000E+00  0.00000000E+00
  0.00000000E+00  0.00000000E+00  0.00000000E+00
  0.00000000E+00  0.00000000E+00  0.00000000E+00
  0.00000000E+00  0.00000000E+00  0.00000000E+00
  0.00000000E+00  0.00000000E+00  0.00000000E+00
  0.00000000E+00  0.00000000E+00  0.00000000E+00
  0.00000000E+00  0.00000000E+00  0.00000000E+00
  0.00000000E+00  0.00000000E+00  0.00000000E+00
  0.00000000E+00  0.00000000E+00  0.00000000E+00
  0.00000000E+00  0.00000000E+00  0.00000000E+00
  0.00000000E+00  0.00000000E+00  0.00000000E+00
  0.00000000E+00  0.00000000E+00  0.00000000E+00
  0.00000000E+00  0.00000000E+00  0.00000000E+00
  0.00000000E+00  0.00000000E+00  0.00000000E+00
  0.00000000E+00  0.00000000E+00  0.00000000E+00
  0.00000000E+00  0.00000000E+00  0.00000000E+00
  0.00000000E+00  0.00000000E+00  0.00000000E+00
  0.00000000E+00  0.00000000E+00  0.00000000E+00
  0.00000000E+00  0.00000000E+00  0.00000000E+00
  0.00000000E+00  0.00000000E+00  0.00000000E+00
  0.00000000E+00  0.00000000E+00  0.00000000E+00
  0.00000000E+00  0.00000000E+00  0.00000000E+00
  0.00000000E+00  0.00000000E+00  0.00000000E+00
  0.00000000E+00  0.00000000E+00  0.00000000E+00
  0.00000000E+00  0.00000000E+00  0.00000000E+00
  0.00000000E+00  0.00000000E+00  0.00000000E+00
  0.00000000E+00  0.00000000E+00  0.00000000E+00
  0.00000000E+00  0.00000000E+00  0.00000000E+00
  0.00000000E+00  0.00000000E+00  0.00000000E+00
  0.00000000E+00  0.00000000E+00  0.00000000E+00
  0.00000000E+00  0.00000000E+00  0.00000000E+00
  0.00000000E+00  0.00000000E+00  0.00000000E+00
  0.00000000E+00  0.00000000E+00  0.00000000E+00
  0.00000000E+00  0.00000000E+00  0.00000000E+00
  0.00000000E+00  0.00000000E+00  0.00000000E+00
  0.00000000E+00  0.00000000E+00  0.00000000E+00
  0.00000000E+00  0.00000000E+00  0.00000000E+00
  0.00000000E+00  0.00000000E+00  0.00000000E+00
  0.00000000E+00  0.00000000E+00  0.00000000E+00
  0.00000000E+00  0.00000000E+00  0.00000000E+00
  0.00000000E+00  0.00000000E+00  0.00000000E+00
  0.00000000E+00  0.00000000E+00  0.00000000E+00
  0.00000000E+00  0.00000000E+00  0.00000000E+00
  0.00000000E+00  0.00000000E+00  0.00000000E+00
  0.00000000E+00  0.00000000E+00  0.00000000E+00
  0.00000000E+00  0.00000000E+00  0.00000000E+00
  0.00000000E+00  0.00000000E+00  0.00000000E+00
  0.00000000E+00  0.00000000E+00  0.00000000E+00
  0.00000000E+00  0.00000000E+00  0.00000000E+00
  0.00000000E+00  0.00000000E+00  0.00000000E+00
  0.00000000E+00  0.00000000E+00  0.00000000E+00
  0.00000000E+00  0.00000000E+00  0.00000000E+00
  0.00000000E+00  0.00000000E+00  0.00000000E+00
  0.00000000E+00  0.00000000E+00  0.00000000E+00
  0.00000000E+00  0.00000000E+00  0.00000000E+00
  0.00000000E+00  0.00000000E+00  0.00000000E+00
  0.00000000E+00  0.00000000E+00  0.00000000E+00
  0.00000000E+00  0.00000000E+00  0.00000000E+00
  0.00000000E+00  0.00000000E+00  0.00000000E+00
  0.00000000E+00  0.00000000E+00  0.00000000E+00
  0.00000000E+00  0.00000000E+00  0.00000000E+00
  0.00000000E+00  0.00000000E+00  0.00000000E+00
  0.00000000E+00  0.00000000E+00  0.00000000E+00
  0.00000000E+00  0.00000000E+00  0.00000000E+00
  0.00000000E+00  0.00000000E+00  0.00000000E+00
  0.00000000E+00  0.00000000E+00  0.00000000E+00
  0.00000000E+00  0.00000000E+00  0.00000000E+00
  0.00000000E+00  0.00000000E+00  0.00000000E+00
  0.00000000E+00  0.00000000E+00  0.00000000E+00
  0.00000000E+00  0.00000000E+00  0.00000000E+00
  0.00000000E+00  0.00000000E+00  0.00000000E+00
  0.00000000E+00  0.00000000E+00  0.00000000E+00
  0.00000000E+00  0.00000000E+00  0.00000000E+00
  0.00000000E+00  0.00000000E+00  0.00000000E+00
  0.00000000E+00  0.00000000E+00  0.00000000E+00
  0.00000000E+00  0.00000000E+00  0.00000000E+00
  0.00000000E+00  0.00000000E+00  0.00000000E+00
  0.00000000E+00  0.00000000E+00  0.00000000E+00
  0.00000000E+00  0.00000000E+00  0.00000000E+00
  0.00000000E+00  0.00000000E+00  0.00000000E+00
  0.00000000E+00  0.00000000E+00  0.00000000E+00
  0.00000000E+00  0.00000000E+00  0.00000000E+00
  0.00000000E+00  0.00000000E+00  0.00000000E+00
  0.00000000E+00  0.00000000E+00  0.00000000E+00
  0.00000000E+00  0.00000000E+00  0.00000000E+00
  0.00000000E+00  0.00000000E+00  0.00000000E+00
  0.00000000E+00  0.00000000E+00  0.00000000E+00
  0.00000000E+00  0.00000000E+00  0.00000000E+00
  0.00000000E+00  0.00000000E+00  0.00000000E+00
  0.00000000E+00  0.00000000E+00  0.00000000E+00
  0.00000000E+00  0.00000000E+00  0.00000000E+00
  0.00000000E+00  0.00000000E+00  0.00000000E+00
  0.00000000E+00  0.00000000E+00  0.00000000E+00
  0.00000000E+00  0.00000000E+00  0.00000000E+00
  0.00000000E+00  0.00000000E+00  0.00000000E+00
  0.00000000E+00  0.00000000E+00  0.00000000E+00
  0.00000000E+00  0.00000000E+00  0.00000000E+00
  0.00000000E+00  0.00000000E+00  0.00000000E+00
  0.00000000E+00  0.00000000E+00  0.00000000E+00
  0.00000000E+00  0.00000000E+00  0.00000000E+00
  0.00000000E+00  0.00000000E+00  0.00000000E+00
  0.00000000E+00  0.00000000E+00  0.00000000E+00
  0.00000000E+00  0.00000000E+00  0.00000000E+00
  0.00000000E+00  0.00000000E+00  0.00000000E+00
  0.00000000E+00  0.00000000E+00  0.00000000E+00
  0.00000000E+00  0.00000000E+00  0.00000000E+00
  0.00000000E+00  0.00000000E+00  0.00000000E+00
  0.00000000E+00  0.00000000E+00  0.00000000E+00
  0.00000000E+00  0.00000000E+00  0.00000000E+00
  0.00000000E+00  0.00000000E+00  0.00000000E+00
  0.00000000E+00  0.00000000E+00  0.00000000E+00
  0.00000000E+00  0.00000000E+00  0.00000000E+00
  0.00000000E+00  0.00000000E+00  0.00000000E+00
  0.00000000E+00  0.00000000E+00  0.00000000E+00
  0.00000000E+00  0.00000000E+00  0.00000000E+00
  0.00000000E+00  0.00000000E+00  0.00000000E+00
  0.00000000E+00  0.00000000E+00  0.00000000E+00
  0.00000000E+00  0.00000000E+00  0.00000000E+00
  0.00000000E+00  0.00000000E+00  0.00000000E+00
  0.00000000E+00  0.00000000E+00  0.00000000E+00
  0.00000000E+00  0.00000000E+00  0.00000000E+00
  0.00000000E+00  0.00000000E+00  0.00000000E+00
  0.00000000E+00  0.00000000E+00  0.00000000E+00
  0.00000000E+00  0.00000000E+00  0.00000000E+00
  0.00000000E+00  0.00000000E+00  0.00000000E+00
  0.00000000E+00  0.00000000E+00  0.00000000E+00
  0.00000000E+00  0.00000000E+00  0.00000000E+00
  0.00000000E+00  0.00000000E+00  0.00000000E+00
  0.00000000E+00  0.00000000E+00  0.00000000E+00
  0.00000000E+00  0.00000000E+00  0.00000000E+00
  0.00000000E+00  0.00000000E+00  0.00000000E+00
  0.00000000E+00  0.00000000E+00  0.00000000E+00
  0.00000000E+00  0.00000000E+00  0.00000000E+00
  0.00000000E+00  0.00000000E+00  0.00000000E+00
  0.00000000E+00  0.00000000E+00  0.00000000E+00
  0.00000000E+00  0.00000000E+00  0.00000000E+00
  0.00000000E+00  0.00000000E+00  0.00000000E+00
  0.00000000E+00  0.00000000E+00  0.00000000E+00
  0.00000000E+00  0.00000000E+00  0.00000000E+00
  0.00000000E+00  0.00000000E+00  0.00000000E+00
  0.00000000E+00  0.00000000E+00  0.00000000E+00
  0.00000000E+00  0.00000000E+00  0.00000000E+00
  0.00000000E+00  0.00000000E+00  0.00000000E+00
  0.00000000E+00  0.00000000E+00  0.00000000E+00
  0.00000000E+00  0.00000000E+00  0.00000000E+00
  0.00000000E+00  0.00000000E+00  0.00000000E+00
  0.00000000E+00  0.00000000E+00  0.00000000E+00
  0.00000000E+00  0.00000000E+00  0.00000000E+00
  0.00000000E+00  0.00000000E+00  0.00000000E+00
  0.00000000E+00  0.00000000E+00  0.00000000E+00
  0.00000000E+00  0.00000000E+00  0.00000000E+00
  0.00000000E+00  0.00000000E+00  0.00000000E+00
  0.00000000E+00  0.00000000E+00  0.00000000E+00
  0.00000000E+00  0.00000000E+00  0.00000000E+00
  0.00000000E+00  0.00000000E+00  0.00000000E+00
  0.00000000E+00  0.00000000E+00  0.00000000E+00
  0.00000000E+00  0.00000000E+00  0.00000000E+00
  0.00000000E+00  0.00000000E+00  0.00000000E+00
  0.00000000E+00  0.00000000E+00  0.00000000E+00
  0.00000000E+00  0.00000000E+00  0.00000000E+00
  0.00000000E+00  0.00000000E+00  0.00000000E+00
  0.00000000E+00  0.00000000E+00  0.00000000E+00
  0.00000000E+00  0.00000000E+00  0.00000000E+00
  0.00000000E+00  0.00000000E+00  0.00000000E+00
  0.00000000E+00  0.00000000E+00  0.00000000E+00
  0.00000000E+00  0.00000000E+00  0.00000000E+00
  0.00000000E+00  0.00000000E+00  0.00000000E+00
  0.00000000E+00  0.00000000E+00  0.00000000E+00
  0.00000000E+00  0.00000000E+00  0.00000000E+00
  0.00000000E+00  0.00000000E+00  0.00000000E+00
  0.00000000E+00  0.00000000E+00  0.00000000E+00
  0.00000000E+00  0.00000000E+00  0.00000000E+00
  0.00000000E+00  0.00000000E+00  0.00000000E+00
  0.00000000E+00  0.00000000E+00  0.00000000E+00
  0.00000000E+00  0.00000000E+00  0.00000000E+00
  0.00000000E+00  0.00000000E+00  0.00000000E+00
  0.00000000E+00  0.00000000E+00  0.00000000E+00
  0.00000000E+00  0.00000000E+00  0.00000000E+00
  0.00000000E+00  0.00000000E+00  0.00000000E+00
  0.00000000E+00  0.00000000E+00  0.00000000E+00
  0.00000000E+00  0.00000000E+00  0.00000000E+00
  0.00000000E+00  0.00000000E+00  0.00000000E+00
  0.00000000E+00  0.00000000E+00  0.00000000E+00
  0.00000000E+00  0.00000000E+00  0.00000000E+00
  0.00000000E+00  0.00000000E+00  0.00000000E+00
  0.00000000E+00  0.00000000E+00  0.00000000E+00
  0.00000000E+00  0.00000000E+00  0.00000000E+00
  0.00000000E+00  0.00000000E+00  0.00000000E+00
  0.00000000E+00  0.00000000E+00  0.00000000E+00
  0.00000000E+00  0.00000000E+00  0.00000000E+00
  0.00000000E+00  0.00000000E+00  0.00000000E+00
  0.00000000E+00  0.00000000E+00  0.00000000E+00
  0.00000000E+00  0.00000000E+00  0.00000000E+00
  0.00000000E+00  0.00000000E+00  0.00000000E+00
  0.00000000E+00  0.00000000E+00  0.00000000E+00
  0.00000000E+00  0.00000000E+00  0.00000000E+00
  0.00000000E+00  0.00000000E+00  0.00000000E+00
  0.00000000E+00  0.00000000E+00  0.00000000E+00
  0.00000000E+00  0.00000000E+00  0.00000000E+00
  0.00000000E+00  0.00000000E+00  0.00000000E+00
  0.00000000E+00  0.00000000E+00  0.00000000E+00
  0.00000000E+00  0.00000000E+00  0.00000000E+00
  0.00000000E+00  0.00000000E+00  0.00000000E+00
  0.00000000E+00  0.00000000E+00  0.00000000E+00
  0.00000000E+00  0.00000000E+00  0.00000000E+00
  0.00000000E+00  0.00000000E+00  0.00000000E+00
  0.00000000E+00  0.00000000E+00  0.00000000E+00
  0.00000000E+00  0.00000000E+00  0.00000000E+00
  0.00000000E+00  0.00000000E+00  0.00000000E+00
  0.00000000E+00  0.00000000E+00  0.00000000E+00
  0.00000000E+00  0.00000000E+00  0.00000000E+00
  0.00000000E+00  0.00000000E+00  0.00000000E+00
  0.00000000E+00  0.00000000E+00  0.00000000E+00
  0.00000000E+00  0.00000000E+00  0.00000000E+00
  0.00000000E+00  0.00000000E+00  0.00000000E+00
  0.00000000E+00  0.00000000E+00  0.00000000E+00
  0.00000000E+00  0.00000000E+00  0.00000000E+00
  0.00000000E+00  0.00000000E+00  0.00000000E+00
  0.00000000E+00  0.00000000E+00  0.00000000E+00
  0.00000000E+00  0.00000000E+00  0.00000000E+00
  0.00000000E+00  0.00000000E+00  0.00000000E+00
  0.00000000E+00  0.00000000E+00  0.00000000E+00
  0.00000000E+00  0.00000000E+00  0.00000000E+00
  0.00000000E+00  0.00000000E+00  0.00000000E+00
  0.00000000E+00  0.00000000E+00  0.00000000E+00
  0.00000000E+00  0.00000000E+00  0.00000000E+00
  0.00000000E+00  0.00000000E+00  0.00000000E+00
  0.00000000E+00  0.00000000E+00  0.00000000E+00
  0.00000000E+00  0.00000000E+00  0.00000000E+00
  0.00000000E+00  0.00000000E+00  0.00000000E+00
  0.00000000E+00  0.00000000E+00  0.00000000E+00
  0.00000000E+00  0.00000000E+00  0.00000000E+00