CuInSe2gb                               
   1.00000000000000     
     9.7266780392896699    0.0000000000000000    0.0000000000000000
     0.0000000000000000    8.4235502764570693    0.0000000000000000
     0.0000000000000000    0.0000000000000000   45.0000000000000000
   Fe   Mn
   281     7
Direct
  0.0627875708990089  0.0327545090681876  0.1245828522220895
  0.8144020952347568  0.0431305439606390  0.8757126311181495
  0.1956590733547892  0.1249428962743766  0.7880665093955842
  0.4338158606059607  0.2876136576712575  0.3891023392328267
  0.3173266792838720  0.3613676668084157  0.1668026896259075
  0.8087268711387487  0.2132221337669467  0.8326930161162620
  0.1833325778029184  0.7869795364750489  0.3891755909943672
  0.5637433500184114  0.2077750326954551  0.5655503726773318
  0.0605729383076242  0.0417719150655496  0.7447843463467030
  0.8134978543439820  0.8720084442664574  0.5214572234266617
  0.1859511685350619  0.2920304744256274  0.7448224979264118
  0.9411366513843866  0.4519859258841958  0.3450228076056444
  0.9339659554747882  0.2874539583906330  0.3890411413105320
  0.4385895635545248  0.6222096104713285  0.5214444905738379
  0.1877585064541101  0.7919608612075030  0.6107264673044785
  0.5587056626192656  0.0376655666391807  0.3889182620015092
  0.9335320483236937  0.9632542503994985  0.8325983148894834
  0.3140287596091125  0.5428092060771768  0.8755505071529757
  0.6855342205677476  0.2916213177865200  0.7446706990127738
  0.1915641684370839  0.6123186874488197  0.1668916712539930
  0.8130722497401045  0.2056415886581751  0.4785724008322633
  0.8124424726623011  0.5423281669822995  0.6107239752169746
  0.3131953163282368  0.8709141153868624  0.4343475258167596
  0.8154363949789956  0.0353237217436583  0.2559324349171483
  0.6912521635359931  0.9520213506434888  0.3450007967941711
  0.9419201930066573  0.1127278440051662  0.1668812305502523
  0.9386107467205038  0.1218762393168367  0.5214985345392734
  0.5650905682060394  0.5352222165944737  0.2559787964154662
  0.6921938144140711  0.7958601509311252  0.8755402735065709
  0.5670126536712538  0.3624669449505437  0.1669972019700441
  0.4359302506726190  0.7918245858923181  0.7448028044316263
  0.8137698119492699  0.7076678941189138  0.5655127607771013
  0.5705279247288289  0.8744950149856644  0.7879450757572005
  0.6885252341029787  0.1221907504072766  0.5214191720286995
  0.1900760158224599  0.2852892790259228  0.2559930701838062
  0.9338325230971596  0.4635745547934272  0.8325334078185581
  0.0650579967777591  0.2082041986704375  0.6999857342214523
  0.8087994412001993  0.0373055998690406  0.3890654335503470
  0.3093417203462263  0.2137818615539361  0.8328056256429579
  0.4341894170295054  0.6262288248156599  0.6547733991554460
  0.3127090778283149  0.5414456685904875  0.6106898211814743
  0.9389863470389904  0.4573842144626551  0.5655233049010738
  0.6857369140286689  0.7921297340447938  0.7448211353533019
  0.3088510241392719  0.8756933420536172  0.6547186214942412
  0.6838458043576359  0.7875429711854907  0.3891052636763113
  0.9356809217653212  0.7917888869045685  0.7448219068624693
  0.0655547009216903  0.2024681247906961  0.3451030503487813
  0.4370870497657996  0.7818648036659569  0.1244880653743076
  0.4457978815506772  0.1248479238845405  0.7881536563568544
  0.0552056150173434  0.2028985789031710  0.2118382264409879
  0.0673845327771476  0.3615362794375703  0.1669152626047975
  0.9404000981288168  0.7852286738268758  0.2559351127877967
  0.5657223512863025  0.2079259595444767  0.7001004572730337
  0.6903497851827519  0.9582875456015304  0.7000490163743683
  0.6837215353789937  0.2875621259356138  0.3890999109186071
  0.4386608243822117  0.9578370755315122  0.5655478690560150
  0.8203026396660213  0.3748986839217833  0.7879744886580110
  0.6903170452228375  0.2852003597262772  0.2559653632496440
  0.1888128940664436  0.4575004501001902  0.5655993944401586
  0.0679526449943887  0.8627467519308832  0.1667958645196860
  0.1878260647164666  0.2917545411770485  0.6106218320729234
  0.5659635264868867  0.7019651133501562  0.3449423122184045
  0.3156232438061241  0.2081280877707030  0.7000330268952417
  0.5648781025996078  0.5423408873628131  0.8755085898394890
  0.0638507583380688  0.7076939341569100  0.5656022078852871
  0.6955276913095905  0.6247332642669901  0.7880793261354337
  0.3083915298035023  0.5376690361459213  0.3891182464628737
  0.1884032442259310  0.6223387304804148  0.5214911687664647
  0.5625609939037863  0.8706236085705715  0.4343747969403961
  0.4386276930746789  0.4575478024629246  0.5655811299459688
  0.4359465134620605  0.2918255049897068  0.7448211015701909
  0.8043724930218641  0.8724740846307631  0.3001579760732180
  0.8164030240647743  0.7025912969055830  0.3450564766626067
  0.4341701957095249  0.4637231501867632  0.8326736738423599
  0.6877703579929094  0.9558017036378891  0.4786372620686809
  0.6904997306425941  0.4583332684468258  0.7000768609880479
  0.5633296085832522  0.8721563092749310  0.5214706853768237
  0.5589577039231118  0.3754196955613827  0.6547295798481840
  0.8088437623851803  0.8755340044984142  0.6547732082841006
  0.8126419355960284  0.3704605382121622  0.4343655935465970
  0.8156219121547077  0.5353102311974673  0.2559626297547201
  0.6835310127693658  0.4632458140654223  0.8325287126731106
  0.1866546423708093  0.7821250490464792  0.1243408950403483
  0.0643020870191233  0.0427904355052769  0.8755917696227495
  0.3088317012025260  0.3756377918880815  0.6546181227811591
  0.3164073474922682  0.2021666376410216  0.3448984935248864
  0.8106731941470597  0.5424790576531309  0.7448130364755062
  0.6836423460100252  0.9630894685603366  0.8325852161236447
  0.5590257115171219  0.8755636468722005  0.6548019339059604
  0.3137733670115511  0.7075375821685035  0.5656795488518557
  0.3124002253833298  0.5333268626954814  0.1245343150081211
  0.6803713965510048  0.9529487251570384  0.2118010609087386
  0.3137414418071015  0.2078261669056714  0.5657315552635108
  0.3109614531502462  0.5425862107352244  0.7448550926884550
  0.6886935002173526  0.9574588897634089  0.5655909004208823
  0.4378928247956395  0.7917956873955612  0.6107166667550484
  0.6919215402491325  0.6124926432343121  0.1669955754608087
  0.3041695967465051  0.8723346095959196  0.3002456933958123
  0.3126944160011525  0.7054439963501462  0.4786432202870303
  0.9382738446344997  0.2917129435622453  0.6105845293872398
  0.4290529861629369  0.6220707341463269  0.3002569476497718
  0.8166445271727866  0.8624785362616627  0.1668610492884854
  0.5555154877707705  0.2021708753343935  0.2116007084364029
  0.9416847750701257  0.6125668444261565  0.1668754166024346
  0.9406324967527726  0.7948828185209500  0.8756378544119463
  0.5710024952547726  0.3743543023588975  0.7879835945177871
  0.0634429635153711  0.3720701771980974  0.5215366013572432
  0.5636428531257910  0.3721336209185748  0.5214580417891095
  0.6793265262722366  0.1218802073889491  0.3002459171466817
  0.4332536139985615  0.9628919996105976  0.8326682442899194
  0.1874515380726478  0.2817021520226267  0.1246240020774280
  0.8202362996803315  0.8741044862141772  0.7879012602193673
  0.3130312870710913  0.3709599171855754  0.4343595413065418
  0.9377284338824607  0.7917576981150539  0.6106561183497344
  0.4373427359456643  0.2918368803310726  0.6106247196020180
  0.1915283065993713  0.4517187485255514  0.3450821276140352
  0.4370925589763836  0.2819488925158005  0.1244352954637514
  0.6899938829815671  0.7854247496603116  0.2559492058169657
  0.1905068776664663  0.9582275970519002  0.7000078027743192
  0.1906655049813623  0.2959044540489440  0.8758026624026853
  0.1839644345853532  0.1257947795567993  0.6546502851907223
  0.9343165373453340  0.1259610016344010  0.6547778387854064
  0.3055786711302587  0.2029842138637654  0.2118875920181945
  0.0584612264576269  0.0371498021754713  0.3891373952956923
  0.4404021942210916  0.9580907337258704  0.7000427902225854
  0.0628001439952388  0.5414251052452566  0.6106914929093772
  0.9403897310347842  0.2853508690058487  0.2559365926695946
  0.5627428860401116  0.5420894604185489  0.6106819818524226
  0.9388833158699159  0.9578576606639730  0.5655439619882525
  0.6791720292828857  0.6219708079568756  0.3001523942378321
  0.9378888538117696  0.6194162998012510  0.4343944802161673
  0.9451646621149864  0.6248540485615915  0.7880468704667531
  0.5654339516794701  0.7088365689508359  0.7000259386653616
  0.0589430809466228  0.7129476176332352  0.8327388589551441
  0.9289132144833141  0.1221035287418319  0.3002548918427279
  0.9399412048281038  0.4584511690071114  0.7000046969125793
  0.4399153056239468  0.7852781804565295  0.2559295928545844
  0.3206558899195159  0.3745215942574465  0.7880177365415209
  0.4307900816888360  0.4522612453576090  0.2116124162225020
  0.1884452392915648  0.1221773595370842  0.5215183924780848
  0.8150626096556073  0.7087174927359594  0.7000399435165723
  0.0627885943745363  0.0421108358831826  0.6106976365002593
  0.5592360572702487  0.2133294362703579  0.8327407816935753
  0.3135264602925321  0.8720130734239234  0.5214415422747618
  0.6870610896268637  0.2819423171590210  0.1244349960674791
  0.1806243890747263  0.9523689671764146  0.2115617596006574
  0.6875627829524328  0.2919940845317000  0.6107096330984400
  0.3125754259575195  0.0421792950942430  0.6107562327603676
  0.9450167704472144  0.1248778221236104  0.7880164771815082
  0.4405544282937010  0.7964824030258663  0.8757121478320350
  0.8104659883046631  0.0419412676510424  0.7447151751624305
  0.4382925836143563  0.1219150864444993  0.5215055101239112
  0.1842287472642458  0.6261490534672063  0.6547585520315454
  0.3155093181838243  0.7087670256433093  0.7000539198470652
  0.9369573659435542  0.2820649589997384  0.1245305099128251
  0.4378967609897919  0.4559114196824405  0.4786245998752677
  0.0631956967385588  0.7055455814249056  0.4786438969565543
  0.9386648992488247  0.1198381454467191  0.4342648505186310
  0.4288378605945979  0.1217458854858922  0.3003047738060266
  0.1881024509540706  0.1202963730042026  0.4343758325411955
  0.5648862001461054  0.0433297328070884  0.8755344946744757
  0.1887333792032568  0.9575935033515687  0.5653419800407765
  0.6870631152635336  0.7821720967893052  0.1244678561897305
  0.5625700913094747  0.5325317921284172  0.1244950026114396
  0.3088181371146019  0.0374312586605288  0.3891204123440754
  0.6923449701886333  0.1119142734441990  0.1669572501035751
  0.8058362029693735  0.2026206551542536  0.2116994597543644
  0.0653629816315299  0.5352521795167478  0.2558829345720766
  0.5628049697783121  0.7057685124200578  0.4786337383813572
  0.0639419361259959  0.2078260023515795  0.5656740034568355
  0.5539426385480846  0.3718336619760226  0.3002778489489565
  0.4417870520614067  0.9520996360578476  0.3449903458216988
  0.1842124931629790  0.9629886965998120  0.8327052244214277
  0.4422284737146646  0.6122073884512560  0.1668542094094299
  0.9302899269001196  0.4526882661724158  0.2118349409947025
  0.0620651800787936  0.5332444725255008  0.1245386905518112
  0.8133317638465324  0.3721651721939561  0.5214715458371483
  0.9289354819352166  0.6220277301665275  0.3001814581941230
  0.3148300793883209  0.0355449434786723  0.2560095540875680
  0.0632751094283396  0.8718791544237116  0.5214383115273319
  0.1839385191581795  0.4643988219475009  0.8327699477271535
  0.4418112026183147  0.1126170062844026  0.1668294283574586
  0.3134340411882799  0.3720462287005282  0.5214993246248267
  0.4464140179918921  0.6245482878810916  0.7879742290213467
  0.0654182205127949  0.0354850186352610  0.2559298115896661
  0.5637691753295998  0.7077839422314253  0.5655584143512922
  0.9358894710096177  0.2917373267249426  0.7448114890859647
  0.6954123684437463  0.1245481070616691  0.7879772393641694
  0.1806504422422462  0.4525093037321455  0.2117101861275335
  0.9340008966911927  0.7869781148304095  0.3890250238726337
  0.6931197826102149  0.2968454230458689  0.8757892576952138
  0.3163023514098304  0.8625880217003116  0.1668735566745586
  0.4405912858828618  0.4584042408043284  0.7000240996950238
  0.8089454157357541  0.3755062491329810  0.6547610262039121
  0.6884475830439443  0.6221386944599738  0.5215155063760899
  0.0592597891839967  0.8757180649089981  0.6547078313437938
  0.0704960464454385  0.8743288571829638  0.7879722606733547
  0.0592103404028578  0.3756301633122006  0.6546578383039975
  0.6877889738787846  0.4558298570098293  0.4786763734471948
  0.1903182502437418  0.7853228159864624  0.2559406737417073
  0.4380900007783096  0.1199900946481659  0.4343913951469713
  0.8115586116921134  0.0330511059971759  0.1245282017097969
  0.9383414641136641  0.6222337652368193  0.5214901657492190
  0.0626833750168603  0.8708191027290263  0.4342871177424950
  0.8113438316447442  0.5327346233079431  0.1244324426652939
  0.4412959278621537  0.4518920563115223  0.3450490373625273
  0.8161033007394614  0.2016760732774372  0.3450297144794884
  0.3162856444382100  0.7016238788223481  0.3450264924969008
  0.6840484722423793  0.1255585904347661  0.6547783050453411
  0.5538873436922401  0.8721497368038008  0.3003277732616398
  0.0606269997690948  0.5423553516139873  0.7448759885597644
  0.9365678198010602  0.7815080673421276  0.1245093415037290
  0.8057123120619025  0.7025508187738767  0.2117499111545353
  0.0544530286890635  0.8731670976694024  0.3000310392545554
  0.1796283292190703  0.1224088862802152  0.3001898030136954
  0.0660028742666235  0.7019833770283653  0.3451634026979634
  0.8126811227056672  0.0416371966847776  0.6105904647111978
  0.0630810648334867  0.3707838909564002  0.4343301870907073
  0.5659850519056827  0.2019674439119393  0.3449997063533516
  0.8039105531951521  0.3718354984229194  0.3002497213927328
  0.4379372313037999  0.9558652494671379  0.4785905259912683
  0.5584490338867378  0.5372585878086413  0.3890980580480803
  0.0628182798846327  0.2056712230968912  0.4786462601412239
  0.3208927102917170  0.8750105587005660  0.7879452241968365
  0.9401488673523380  0.9583452433043934  0.7000670583292619
  0.0541964583366843  0.3720114664188476  0.3001059167925801
  0.6841157415042668  0.6263106762267346  0.6547883401535874
  0.6887807607453258  0.4576343542581633  0.5655290350859240
  0.4303196823657923  0.9524272584961777  0.2116722682439390
  0.3128970629666626  0.2058255593237823  0.4785678280560371
  0.4338285980482218  0.1258299318118892  0.6547495229215677
  0.6880125673967655  0.6202413170956300  0.4343212226772744
  0.8150701931828681  0.2080933417463605  0.7000512318532357
  0.8127151414462457  0.7057370433937693  0.4786729628345678
  0.5630497818655029  0.3703552113680081  0.4343662053307277
  0.9377384247308865  0.9558413009889666  0.4786223795459840
  0.5627369955706347  0.2057198613303697  0.4785837690951204
  0.1882124834592289  0.6202711682861346  0.4341770243849681
  0.3110168124197168  0.0417415624055669  0.7447188079859077
  0.9340523069193450  0.6261814766164905  0.6547663136052221
  0.5592461750665679  0.7131429305875941  0.8326772338028517
  0.3038660102770651  0.3722632842191639  0.3001947709674245
  0.5556865914389634  0.7026141055284210  0.2117078039816443
  0.1879483566374192  0.4557853623324926  0.4786252604560886
  0.3146419034758982  0.0415899086236530  0.8756725768776883
  0.1902887326295928  0.4584222124604489  0.6999878432231649
  0.8144849007025293  0.5427685635861756  0.8756039360078712
  0.1834199217005939  0.2884023590771345  0.3891799545678774
  0.4382002414442558  0.6206213872908909  0.4342341185836997
  0.0557215227664367  0.7020646586341779  0.2116177221888888
  0.5630142257266521  0.0333126218170751  0.1245010905330868
  0.8170358230770236  0.3624346756749225  0.1669994959031041
  0.8083633494589764  0.7134984678447996  0.8325376720603709
  0.0703922972354664  0.3747617150767922  0.7879896240136727
  0.4425146140632490  0.2960860522648959  0.8756712304770022
  0.3113705610996975  0.0332117516808182  0.1244216477614441
  0.6878468876205303  0.1202535386200336  0.4343940963699190
  0.1911516071834828  0.9518360783455815  0.3450250222760384
  0.0589594697816625  0.2135098395522809  0.8328124750160336
  0.5631039154485692  0.0414340781365643  0.6106316459356741
  0.6807273880739112  0.4524141879287805  0.2116890466041162
  0.1861724698739646  0.7914844156497771  0.7448476591964412
  0.8131818899587151  0.8706978066398088  0.4343233139650337
  0.4337137742536961  0.7874437385179213  0.3891199688579197
  0.4401854311929077  0.2852851907117317  0.2559383583511021
  0.0645731453803560  0.5426901471979972  0.8756154497261656
  0.5606468643878566  0.0419224071472303  0.7448192646405956
  0.1928540561914145  0.7964614923139228  0.8759105787294912
  0.9377275145603154  0.4557342548777721  0.4786621464515628
  0.8089834420844154  0.5375489999197655  0.3891326268685867
  0.8138789284163497  0.2077212512322836  0.5655344963798883
  0.1948104040325569  0.6245975450339672  0.7879476649360883
  0.9309589372440483  0.9529756564350483  0.2118605016428422
  0.0651243683387945  0.7088632256337271  0.7000215794514502
  0.3154289556092611  0.5352492073795595  0.2559166128381962
  0.3054314912498176  0.7022813878893481  0.2118047803414381
  0.5671758758975144  0.8624595079292542  0.1669044623040222
  0.5608914167156042  0.5425670423456217  0.7447669110991955
  0.6907058082228397  0.4517619379299971  0.3450046145711318
  0.9411258599409900  0.2964938168399310  0.8758352441624208
  0.5652821292536117  0.0355721524690574  0.2559679730332106
  0.1929495563266362  0.1115647107964934  0.1663647172835825
  0.3082813375269257  0.7147757257336114  0.8332975295474405
  0.6878774645008614  0.7920890454414630  0.6107587838771017
  0.1791516974067573  0.6216915972751328  0.3000745181492677
  0.0581982031977288  0.5380471446095082  0.3891049306194757
  0.9420322142907299  0.9522846011881629  0.3451331613858288
  0.1880186574709981  0.9560269616254491  0.4786689544358945
 
  0.00000000E+00  0.00000000E+00  0.00000000E+00
  0.00000000E+00  0.00000000E+00  0.00000000E+00
  0.00000000E+00  0.00000000E+00  0.00000000E+00
  0.00000000E+00  0.00000000E+00  0.00000000E+00
  0.00000000E+00  0.00000000E+00  0.00000000E+00
  0.00000000E+00  0.00000000E+00  0.00000000E+00
  0.00000000E+00  0.00000000E+00  0.00000000E+00
  0.00000000E+00  0.00000000E+00  0.00000000E+00
  0.00000000E+00  0.00000000E+00  0.00000000E+00
  0.00000000E+00  0.00000000E+00  0.00000000E+00
  0.00000000E+00  0.00000000E+00  0.00000000E+00
  0.00000000E+00  0.00000000E+00  0.00000000E+00
  0.00000000E+00  0.00000000E+00  0.00000000E+00
  0.00000000E+00  0.00000000E+00  0.00000000E+00
  0.00000000E+00  0.00000000E+00  0.00000000E+00
  0.00000000E+00  0.00000000E+00  0.00000000E+00
  0.00000000E+00  0.00000000E+00  0.00000000E+00
  0.00000000E+00  0.00000000E+00  0.00000000E+00
  0.00000000E+00  0.00000000E+00  0.00000000E+00
  0.00000000E+00  0.00000000E+00  0.00000000E+00
  0.00000000E+00  0.00000000E+00  0.00000000E+00
  0.00000000E+00  0.00000000E+00  0.00000000E+00
  0.00000000E+00  0.00000000E+00  0.00000000E+00
  0.00000000E+00  0.00000000E+00  0.00000000E+00
  0.00000000E+00  0.00000000E+00  0.00000000E+00
  0.00000000E+00  0.00000000E+00  0.00000000E+00
  0.00000000E+00  0.00000000E+00  0.00000000E+00
  0.00000000E+00  0.00000000E+00  0.00000000E+00
  0.00000000E+00  0.00000000E+00  0.00000000E+00
  0.00000000E+00  0.00000000E+00  0.00000000E+00
  0.00000000E+00  0.00000000E+00  0.00000000E+00
  0.00000000E+00  0.00000000E+00  0.00000000E+00
  0.00000000E+00  0.00000000E+00  0.00000000E+00
  0.00000000E+00  0.00000000E+00  0.00000000E+00
  0.00000000E+00  0.00000000E+00  0.00000000E+00
  0.00000000E+00  0.00000000E+00  0.00000000E+00
  0.00000000E+00  0.00000000E+00  0.00000000E+00
  0.00000000E+00  0.00000000E+00  0.00000000E+00
  0.00000000E+00  0.00000000E+00  0.00000000E+00
  0.00000000E+00  0.00000000E+00  0.00000000E+00
  0.00000000E+00  0.00000000E+00  0.00000000E+00
  0.00000000E+00  0.00000000E+00  0.00000000E+00
  0.00000000E+00  0.00000000E+00  0.00000000E+00
  0.00000000E+00  0.00000000E+00  0.00000000E+00
  0.00000000E+00  0.00000000E+00  0.00000000E+00
  0.00000000E+00  0.00000000E+00  0.00000000E+00
  0.00000000E+00  0.00000000E+00  0.00000000E+00
  0.00000000E+00  0.00000000E+00  0.00000000E+00
  0.00000000E+00  0.00000000E+00  0.00000000E+00
  0.00000000E+00  0.00000000E+00  0.00000000E+00
  0.00000000E+00  0.00000000E+00  0.00000000E+00
  0.00000000E+00  0.00000000E+00  0.00000000E+00
  0.00000000E+00  0.00000000E+00  0.00000000E+00
  0.00000000E+00  0.00000000E+00  0.00000000E+00
  0.00000000E+00  0.00000000E+00  0.00000000E+00
  0.00000000E+00  0.00000000E+00  0.00000000E+00
  0.00000000E+00  0.00000000E+00  0.00000000E+00
  0.00000000E+00  0.00000000E+00  0.00000000E+00
  0.00000000E+00  0.00000000E+00  0.00000000E+00
  0.00000000E+00  0.00000000E+00  0.00000000E+00
  0.00000000E+00  0.00000000E+00  0.00000000E+00
  0.00000000E+00  0.00000000E+00  0.00000000E+00
  0.00000000E+00  0.00000000E+00  0.00000000E+00
  0.00000000E+00  0.00000000E+00  0.00000000E+00
  0.00000000E+00  0.00000000E+00  0.00000000E+00
  0.00000000E+00  0.00000000E+00  0.00000000E+00
  0.00000000E+00  0.00000000E+00  0.00000000E+00
  0.00000000E+00  0.00000000E+00  0.00000000E+00
  0.00000000E+00  0.00000000E+00  0.00000000E+00
  0.00000000E+00  0.00000000E+00  0.00000000E+00
  0.00000000E+00  0.00000000E+00  0.00000000E+00
  0.00000000E+00  0.00000000E+00  0.00000000E+00
  0.00000000E+00  0.00000000E+00  0.00000000E+00
  0.00000000E+00  0.00000000E+00  0.00000000E+00
  0.00000000E+00  0.00000000E+00  0.00000000E+00
  0.00000000E+00  0.00000000E+00  0.00000000E+00
  0.00000000E+00  0.00000000E+00  0.00000000E+00
  0.00000000E+00  0.00000000E+00  0.00000000E+00
  0.00000000E+00  0.00000000E+00  0.00000000E+00
  0.00000000E+00  0.00000000E+00  0.00000000E+00
  0.00000000E+00  0.00000000E+00  0.00000000E+00
  0.00000000E+00  0.00000000E+00  0.00000000E+00
  0.00000000E+00  0.00000000E+00  0.00000000E+00
  0.00000000E+00  0.00000000E+00  0.00000000E+00
  0.00000000E+00  0.00000000E+00  0.00000000E+00
  0.00000000E+00  0.00000000E+00  0.00000000E+00
  0.00000000E+00  0.00000000E+00  0.00000000E+00
  0.00000000E+00  0.00000000E+00  0.00000000E+00
  0.00000000E+00  0.00000000E+00  0.00000000E+00
  0.00000000E+00  0.00000000E+00  0.00000000E+00
  0.00000000E+00  0.00000000E+00  0.00000000E+00
  0.00000000E+00  0.00000000E+00  0.00000000E+00
  0.00000000E+00  0.00000000E+00  0.00000000E+00
  0.00000000E+00  0.00000000E+00  0.00000000E+00
  0.00000000E+00  0.00000000E+00  0.00000000E+00
  0.00000000E+00  0.00000000E+00  0.00000000E+00
  0.00000000E+00  0.00000000E+00  0.00000000E+00
  0.00000000E+00  0.00000000E+00  0.00000000E+00
  0.00000000E+00  0.00000000E+00  0.00000000E+00
  0.00000000E+00  0.00000000E+00  0.00000000E+00
  0.00000000E+00  0.00000000E+00  0.00000000E+00
  0.00000000E+00  0.00000000E+00  0.00000000E+00
  0.00000000E+00  0.00000000E+00  0.00000000E+00
  0.00000000E+00  0.00000000E+00  0.00000000E+00
  0.00000000E+00  0.00000000E+00  0.00000000E+00
  0.00000000E+00  0.00000000E+00  0.00000000E+00
  0.00000000E+00  0.00000000E+00  0.00000000E+00
  0.00000000E+00  0.00000000E+00  0.00000000E+00
  0.00000000E+00  0.00000000E+00  0.00000000E+00
  0.00000000E+00  0.00000000E+00  0.00000000E+00
  0.00000000E+00  0.00000000E+00  0.00000000E+00
  0.00000000E+00  0.00000000E+00  0.00000000E+00
  0.00000000E+00  0.00000000E+00  0.00000000E+00
  0.00000000E+00  0.00000000E+00  0.00000000E+00
  0.00000000E+00  0.00000000E+00  0.00000000E+00
  0.00000000E+00  0.00000000E+00  0.00000000E+00
  0.00000000E+00  0.00000000E+00  0.00000000E+00
  0.00000000E+00  0.00000000E+00  0.00000000E+00
  0.00000000E+00  0.00000000E+00  0.00000000E+00
  0.00000000E+00  0.00000000E+00  0.00000000E+00
  0.00000000E+00  0.00000000E+00  0.00000000E+00
  0.00000000E+00  0.00000000E+00  0.00000000E+00
  0.00000000E+00  0.00000000E+00  0.00000000E+00
  0.00000000E+00  0.00000000E+00  0.00000000E+00
  0.00000000E+00  0.00000000E+00  0.00000000E+00
  0.00000000E+00  0.00000000E+00  0.00000000E+00
  0.00000000E+00  0.00000000E+00  0.00000000E+00
  0.00000000E+00  0.00000000E+00  0.00000000E+00
  0.00000000E+00  0.00000000E+00  0.00000000E+00
  0.00000000E+00  0.00000000E+00  0.00000000E+00
  0.00000000E+00  0.00000000E+00  0.00000000E+00
  0.00000000E+00  0.00000000E+00  0.00000000E+00
  0.00000000E+00  0.00000000E+00  0.00000000E+00
  0.00000000E+00  0.00000000E+00  0.00000000E+00
  0.00000000E+00  0.00000000E+00  0.00000000E+00
  0.00000000E+00  0.00000000E+00  0.00000000E+00
  0.00000000E+00  0.00000000E+00  0.00000000E+00
  0.00000000E+00  0.00000000E+00  0.00000000E+00
  0.00000000E+00  0.00000000E+00  0.00000000E+00
  0.00000000E+00  0.00000000E+00  0.00000000E+00
  0.00000000E+00  0.00000000E+00  0.00000000E+00
  0.00000000E+00  0.00000000E+00  0.00000000E+00
  0.00000000E+00  0.00000000E+00  0.00000000E+00
  0.00000000E+00  0.00000000E+00  0.00000000E+00
  0.00000000E+00  0.00000000E+00  0.00000000E+00
  0.00000000E+00  0.00000000E+00  0.00000000E+00
  0.00000000E+00  0.00000000E+00  0.00000000E+00
  0.00000000E+00  0.00000000E+00  0.00000000E+00
  0.00000000E+00  0.00000000E+00  0.00000000E+00
  0.00000000E+00  0.00000000E+00  0.00000000E+00
  0.00000000E+00  0.00000000E+00  0.00000000E+00
  0.00000000E+00  0.00000000E+00  0.00000000E+00
  0.00000000E+00  0.00000000E+00  0.00000000E+00
  0.00000000E+00  0.00000000E+00  0.00000000E+00
  0.00000000E+00  0.00000000E+00  0.00000000E+00
  0.00000000E+00  0.00000000E+00  0.00000000E+00
  0.00000000E+00  0.00000000E+00  0.00000000E+00
  0.00000000E+00  0.00000000E+00  0.00000000E+00
  0.00000000E+00  0.00000000E+00  0.00000000E+00
  0.00000000E+00  0.00000000E+00  0.00000000E+00
  0.00000000E+00  0.00000000E+00  0.00000000E+00
  0.00000000E+00  0.00000000E+00  0.00000000E+00
  0.00000000E+00  0.00000000E+00  0.00000000E+00
  0.00000000E+00  0.00000000E+00  0.00000000E+00
  0.00000000E+00  0.00000000E+00  0.00000000E+00
  0.00000000E+00  0.00000000E+00  0.00000000E+00
  0.00000000E+00  0.00000000E+00  0.00000000E+00
  0.00000000E+00  0.00000000E+00  0.00000000E+00
  0.00000000E+00  0.00000000E+00  0.00000000E+00
  0.00000000E+00  0.00000000E+00  0.00000000E+00
  0.00000000E+00  0.00000000E+00  0.00000000E+00
  0.00000000E+00  0.00000000E+00  0.00000000E+00
  0.00000000E+00  0.00000000E+00  0.00000000E+00
  0.00000000E+00  0.00000000E+00  0.00000000E+00
  0.00000000E+00  0.00000000E+00  0.00000000E+00
  0.00000000E+00  0.00000000E+00  0.00000000E+00
  0.00000000E+00  0.00000000E+00  0.00000000E+00
  0.00000000E+00  0.00000000E+00  0.00000000E+00
  0.00000000E+00  0.00000000E+00  0.00000000E+00
  0.00000000E+00  0.00000000E+00  0.00000000E+00
  0.00000000E+00  0.00000000E+00  0.00000000E+00
  0.00000000E+00  0.00000000E+00  0.00000000E+00
  0.00000000E+00  0.00000000E+00  0.00000000E+00
  0.00000000E+00  0.00000000E+00  0.00000000E+00
  0.00000000E+00  0.00000000E+00  0.00000000E+00
  0.00000000E+00  0.00000000E+00  0.00000000E+00
  0.00000000E+00  0.00000000E+00  0.00000000E+00
  0.00000000E+00  0.00000000E+00  0.00000000E+00
  0.00000000E+00  0.00000000E+00  0.00000000E+00
  0.00000000E+00  0.00000000E+00  0.00000000E+00
  0.00000000E+00  0.00000000E+00  0.00000000E+00
  0.00000000E+00  0.00000000E+00  0.00000000E+00
  0.00000000E+00  0.00000000E+00  0.00000000E+00
  0.00000000E+00  0.00000000E+00  0.00000000E+00
  0.00000000E+00  0.00000000E+00  0.00000000E+00
  0.00000000E+00  0.00000000E+00  0.00000000E+00
  0.00000000E+00  0.00000000E+00  0.00000000E+00
  0.00000000E+00  0.00000000E+00  0.00000000E+00
  0.00000000E+00  0.00000000E+00  0.00000000E+00
  0.00000000E+00  0.00000000E+00  0.00000000E+00
  0.00000000E+00  0.00000000E+00  0.00000000E+00
  0.00000000E+00  0.00000000E+00  0.00000000E+00
  0.00000000E+00  0.00000000E+00  0.00000000E+00
  0.00000000E+00  0.00000000E+00  0.00000000E+00
  0.00000000E+00  0.00000000E+00  0.00000000E+00
  0.00000000E+00  0.00000000E+00  0.00000000E+00
  0.00000000E+00  0.00000000E+00  0.00000000E+00
  0.00000000E+00  0.00000000E+00  0.00000000E+00
  0.00000000E+00  0.00000000E+00  0.00000000E+00
  0.00000000E+00  0.00000000E+00  0.00000000E+00
  0.00000000E+00  0.00000000E+00  0.00000000E+00
  0.00000000E+00  0.00000000E+00  0.00000000E+00
  0.00000000E+00  0.00000000E+00  0.00000000E+00
  0.00000000E+00  0.00000000E+00  0.00000000E+00
  0.00000000E+00  0.00000000E+00  0.00000000E+00
  0.00000000E+00  0.00000000E+00  0.00000000E+00
  0.00000000E+00  0.00000000E+00  0.00000000E+00
  0.00000000E+00  0.00000000E+00  0.00000000E+00
  0.00000000E+00  0.00000000E+00  0.00000000E+00
  0.00000000E+00  0.00000000E+00  0.00000000E+00
  0.00000000E+00  0.00000000E+00  0.00000000E+00
  0.00000000E+00  0.00000000E+00  0.00000000E+00
  0.00000000E+00  0.00000000E+00  0.00000000E+00
  0.00000000E+00  0.00000000E+00  0.00000000E+00
  0.00000000E+00  0.00000000E+00  0.00000000E+00
  0.00000000E+00  0.00000000E+00  0.00000000E+00
  0.00000000E+00  0.00000000E+00  0.00000000E+00
  0.00000000E+00  0.00000000E+00  0.00000000E+00
  0.00000000E+00  0.00000000E+00  0.00000000E+00
  0.00000000E+00  0.00000000E+00  0.00000000E+00
  0.00000000E+00  0.00000000E+00  0.00000000E+00
  0.00000000E+00  0.00000000E+00  0.00000000E+00
  0.00000000E+00  0.00000000E+00  0.00000000E+00
  0.00000000E+00  0.00000000E+00  0.00000000E+00
  0.00000000E+00  0.00000000E+00  0.00000000E+00
  0.00000000E+00  0.00000000E+00  0.00000000E+00
  0.00000000E+00  0.00000000E+00  0.00000000E+00
  0.00000000E+00  0.00000000E+00  0.00000000E+00
  0.00000000E+00  0.00000000E+00  0.00000000E+00
  0.00000000E+00  0.00000000E+00  0.00000000E+00
  0.00000000E+00  0.00000000E+00  0.00000000E+00
  0.00000000E+00  0.00000000E+00  0.00000000E+00
  0.00000000E+00  0.00000000E+00  0.00000000E+00
  0.00000000E+00  0.00000000E+00  0.00000000E+00
  0.00000000E+00  0.00000000E+00  0.00000000E+00
  0.00000000E+00  0.00000000E+00  0.00000000E+00
  0.00000000E+00  0.00000000E+00  0.00000000E+00