CuInSe2gb                               
   1.00000000000000     
     9.7266780392896699    0.0000000000000000    0.0000000000000000
     0.0000000000000000    8.4235502764570693    0.0000000000000000
     0.0000000000000000    0.0000000000000000   45.0000000000000000
   Fe   Mn
   281     7
Direct
  0.0625862570382834  0.0328157475829422  0.1245404393406761
  0.8144496600921698  0.0426894718293421  0.8756891519199330
  0.1956949620902569  0.1250017436827643  0.7884851669454946
  0.4336559548322019  0.2875314572491153  0.3890685318797822
  0.3175656000270226  0.3615141699330359  0.1667902892296400
  0.8087904659071188  0.2132166774493384  0.8331816914621201
  0.1834866264835046  0.7873487173173318  0.3890765563493435
  0.5638510564143812  0.2076929554806461  0.5654230965178847
  0.0605209739918543  0.0420364124098692  0.7441651623777551
  0.8135071462278615  0.8720578524302051  0.5212721597364476
  0.1857241147292890  0.2919593036245514  0.7441272592965322
  0.9412820746046150  0.4518196718600317  0.3449175672572409
  0.9338450651532864  0.2871285753105093  0.3889603536480389
  0.4384860425373139  0.6221059793108429  0.5212885310485924
  0.1876968825481599  0.7919229085609109  0.6108267809227931
  0.5585809826885740  0.0375396914931148  0.3888703329585511
  0.9333166667468848  0.9636558082802208  0.8331120303912440
  0.3142942056086494  0.5425307840530245  0.8755410050855322
  0.6855387122086755  0.2916658955002256  0.7440165220555461
  0.1917130558303899  0.6121874782390809  0.1668706809497799
  0.8131348619927837  0.2056857120021303  0.4785469925794051
  0.8125228562657425  0.5422931003039222  0.6108698892387945
  0.3132188347857576  0.8709008796958519  0.4344142091070701
  0.8154052528958214  0.0352316279893192  0.2559836340773768
  0.6914148355750954  0.9519152694320667  0.3449599645705361
  0.9418430372157681  0.1126660210513225  0.1668592183856814
  0.9385314575638667  0.1218784442548449  0.5212965370536591
  0.5653262359534751  0.5352885252770484  0.2560357715281985
  0.6925565194160948  0.7961039705342646  0.8756122358552586
  0.5671451050044016  0.3625227899083915  0.1669891500051486
  0.4357485953561155  0.7917339287084222  0.7441698262965392
  0.8139079831856662  0.7077004277983234  0.5654056846016995
  0.5703488789905676  0.8742407715774843  0.7883631965154506
  0.6885270397101299  0.1221028742935371  0.5212445627416091
  0.1903176058880396  0.2852343679315609  0.2560242089707019
  0.9336126138834231  0.4632577157177560  0.8330368173922803
  0.0653411055018465  0.2083956006484952  0.6996829343158081
  0.8086120205599451  0.0374040542247722  0.3890452581700125
  0.3089170923730010  0.2139275680968311  0.8332834006214377
  0.4341756018222657  0.6260778230081878  0.6549651573507499
  0.3127748746472774  0.5417851418518161  0.6108148700109675
  0.9389673427615245  0.4574950115284471  0.5654093924633066
  0.6857408226782759  0.7920276120008402  0.7441679823264323
  0.3086935576439894  0.8756796139096817  0.6548947665834017
  0.6836712015264651  0.7876035740653077  0.3890638801659528
  0.9357136656762385  0.7918426267905562  0.7441574565740453
  0.0657391482201039  0.2026131390023601  0.3450765270889433
  0.4371876627913854  0.7816195052727006  0.1244620043715929
  0.4454251274983425  0.1250508815437000  0.7885725960895362
  0.0549463715535708  0.2029123489284031  0.2118310257505847
  0.0673858014709282  0.3616455598937670  0.1668843251251483
  0.9403923954082564  0.7853387253721709  0.2560245235001721
  0.5656121094085311  0.2082721551440910  0.6997598618938724
  0.6905526913646992  0.9583630086815342  0.6997149748486367
  0.6836877708307921  0.2875321777416819  0.3890538516505841
  0.4387501944172524  0.9577820754894579  0.5654190239209770
  0.8206741386430028  0.3745166338924592  0.7884120739784725
  0.6903465613968789  0.2851742709191057  0.2560078864428964
  0.1888479815992817  0.4577254829197471  0.5654395034608293
  0.0679706461272084  0.8625158544699763  0.1667941616030866
  0.1877687326226353  0.2917886027972343  0.6107621463255063
  0.5661662081306165  0.7019125275305297  0.3449033417069157
  0.3154587273267199  0.2084055084561542  0.6997068415586437
  0.5651519122598581  0.5418706960114736  0.8756084290125505
  0.0638920514995913  0.7077636493919744  0.5655181034427152
  0.6953933585367085  0.6245843093257573  0.7885064169797006
  0.3085681780393465  0.5376475733866170  0.3890708328202078
  0.1884789752044829  0.6221418959313182  0.5213180757147512
  0.5626288842580405  0.8705093870874197  0.4344335640175400
  0.4386904467251407  0.4577165162554991  0.5654318906421777
  0.4357061648837289  0.2918826499949297  0.7441436187970926
  0.8042502469226228  0.8724017345809447  0.3001805769765722
  0.8166082303740629  0.7023634465217611  0.3449675854468690
  0.4337719651318873  0.4637013261865475  0.8332043835531716
  0.6878449276226024  0.9558537326495401  0.4786217546417729
  0.6906400884480512  0.4582552914307466  0.6997422677790897
  0.5632837838267004  0.8722008144653534  0.5212976414783513
  0.5588868241694165  0.3755016416942862  0.6549253000644639
  0.8088595588436781  0.8756362743942239  0.6549104438559114
  0.8127368951587441  0.3704417725605554  0.4344674765007027
  0.8155330247514629  0.5353699897814471  0.2560194632805731
  0.6835362213693496  0.4631068762366817  0.8330725617146949
  0.1866684901574654  0.7820245697292506  0.1243578335240113
  0.0641419001124824  0.0426571816208681  0.8755762736359674
  0.3088258876407774  0.3757251149346085  0.6549177914044838
  0.3162479636241504  0.2020718039884204  0.3448875868850434
  0.8107128816897837  0.5422270939380494  0.7441210721859721
  0.6838844858296470  0.9634240515265304  0.8331416603093844
  0.5588398266951058  0.8756546162923698  0.6549300539470583
  0.3138497863937854  0.7076469662977187  0.5655687325861027
  0.3125608879689158  0.5334527539133643  0.1245020156527049
  0.6801384545656654  0.9529872189123350  0.2118174773369189
  0.3139469885267760  0.2078312824916235  0.5655664994934347
  0.3108201419882287  0.5423029279595236  0.7441984744489837
  0.6887057496986791  0.9575753406581307  0.5654578724576816
  0.4377923277787236  0.7917580164559958  0.6108319994673216
  0.6919777044594033  0.6123569717933173  0.1669699607772640
  0.3037074959199570  0.8720838005982522  0.3003293696203883
  0.3126681131814111  0.7054760968544926  0.4786356361471431
  0.9380571997767578  0.2917265332865835  0.6107291247331539
  0.4287531844082868  0.6220147771264983  0.3002993364857275
  0.8167213123256879  0.8623367225447950  0.1668453365912228
  0.5553786476501961  0.2021234424745450  0.2115880686196403
  0.9417197506485543  0.6124862084888593  0.1668512746915263
  0.9403568892035687  0.7951569657866066  0.8756649063987204
  0.5708037284286142  0.3744593529903766  0.7883820486344355
  0.0634738079517650  0.3720912024104827  0.5213248671075035
  0.5634714120243423  0.3719473978201623  0.5212799998713674
  0.6792474544167501  0.1219291854919232  0.3002649282220301
  0.4327928776733084  0.9629925797336145  0.8332080656229163
  0.1873776848889824  0.2819064601791046  0.1245888365526595
  0.8207650022239753  0.8742690634393186  0.7883792580939910
  0.3129509844916200  0.3710204889950013  0.4344234050936860
  0.9378748410912906  0.7916889632537275  0.6107781966686580
  0.4376179033238368  0.2918199121009530  0.6107717397160149
  0.1915883070327374  0.4516701830603676  0.3449503982757017
  0.4371256780021024  0.2821887294043308  0.1244306617368621
  0.6900467243332696  0.7854387885242038  0.2559983742549646
  0.1904897716891098  0.9584499862377014  0.6997045735040612
  0.1907197282779116  0.2959489687357862  0.8757804718221643
  0.1838112987032638  0.1257920599492330  0.6549103564409261
  0.9341377828943931  0.1260464598177653  0.6549625528319818
  0.3056339306052083  0.2030707009806433  0.2118906055544729
  0.0585628194391223  0.0374321510971524  0.3890754793984801
  0.4401577641630415  0.9582571465575346  0.6997109469782979
  0.0626589428914228  0.5417243892319352  0.6108179501614621
  0.9403817490070853  0.2852393700825882  0.2559875053722490
  0.5627913868320136  0.5420547135749467  0.6108263105263713
  0.9387873570317994  0.9577847645294231  0.5654379835603366
  0.6790338920212826  0.6220179786186892  0.3001741029009751
  0.9378034462160963  0.6193141136075156  0.4345503654428292
  0.9457376507655815  0.6248310230593318  0.7884880703281089
  0.5653615652784489  0.7084633822575686  0.6996798481675173
  0.0587827830670296  0.7130883263790069  0.8332098988925144
  0.9286631108329007  0.1221154310104001  0.3003181492082936
  0.9403533770805744  0.4583468061079996  0.6996826476395248
  0.4403056765086453  0.7853106205677755  0.2559578856394175
  0.3206410614523553  0.3745472047773273  0.7884251297318462
  0.4307803800431445  0.4522998468982655  0.2115763253812895
  0.1885329152472975  0.1222490296227505  0.5212998424190206
  0.8154634644958692  0.7083945675760838  0.6997014031789356
  0.0626566608875446  0.0418765101911846  0.6108388512967849
  0.5590273610317422  0.2134332756149748  0.8332803460138100
  0.3136191008638587  0.8719361572938013  0.5212548518815759
  0.6871117810184882  0.2821796539647258  0.1244007104033616
  0.1805450050535281  0.9523018342848846  0.2115499848091547
  0.6876370161416570  0.2919471175779348  0.6108649983238831
  0.3126637689546931  0.0419628947624646  0.6108920626469337
  0.9455507005889090  0.1248459464658987  0.7884644001086686
  0.4407415422156684  0.7967121102497555  0.8757499250812700
  0.8106353742522544  0.0421805560968337  0.7440525925476303
  0.4383292543091873  0.1219195105678276  0.5213285480151489
  0.1840701808109138  0.6260649916263883  0.6549818214831437
  0.3153860749045419  0.7083937947015341  0.6997121262465417
  0.9368186781216014  0.2821463253007871  0.1245090516926555
  0.4378882362867935  0.4559829081505765  0.4786262338662801
  0.0631518807069184  0.7055197090449504  0.4786088519144691
  0.9386205413831835  0.1198371115636814  0.4343403849070365
  0.4287235093145353  0.1218698140862217  0.3003362753410136
  0.1880406036551622  0.1203192528286120  0.4344515479213666
  0.5650774165072514  0.0430268468697985  0.8756104928389434
  0.1888237468856010  0.9573704979141783  0.5652434664674068
  0.6870087847333443  0.7819489465693702  0.1244390166830753
  0.5625527996166787  0.5327413809843269  0.1244609059087249
  0.3087245116667935  0.0374434327026546  0.3890346000279014
  0.6924682325871586  0.1118516533303153  0.1669595321417952
  0.8056092868120445  0.2026389365807713  0.2116812129964453
  0.0655235102996555  0.5353332522794211  0.2559754714289619
  0.5628222367335092  0.7058241438982484  0.4786063185106961
  0.0638271596289258  0.2078849692889420  0.5655258172330390
  0.5537971195520808  0.3720797032120511  0.3002986555484455
  0.4417609245372607  0.9519927878526152  0.3449934007125076
  0.1838510548625178  0.9632367583142571  0.8331683200237590
  0.4423703017341445  0.6121164428340247  0.1668113755441436
  0.9299853310288547  0.4527418206803565  0.2117977492391704
  0.0619733586969233  0.5332667167390204  0.1245197615347035
  0.8135108823017153  0.3719752455542832  0.5212681922087435
  0.9289062706380863  0.6222487527743616  0.3002845318316557
  0.3151826737068670  0.0354737508972944  0.2560225211050740
  0.0632471198699075  0.8717871778886580  0.5212285372834501
  0.1837825143013404  0.4643428127597377  0.8332460914600547
  0.4420209131112552  0.1124956756311839  0.1668459600210029
  0.3134345152846633  0.3720340021151948  0.5213104578500991
  0.4461477049742355  0.6244685793444039  0.7883596232989266
  0.0654625353506716  0.0353385396438936  0.2559845062615951
  0.5636260166375935  0.7078230447177285  0.5654382980563392
  0.9359554923961374  0.2917084968330610  0.7441624978883475
  0.6957547648767733  0.1246704018425964  0.7884514548667969
  0.1805835987937463  0.4525273168675980  0.2116602781011793
  0.9336971574460351  0.7870989520213678  0.3889835786282226
  0.6933473743049464  0.2971208681402324  0.8758084345550951
  0.3165811938311915  0.8623595641046555  0.1668686801203464
  0.4403536647183861  0.4582954058240286  0.6996818194283707
  0.8088128954673275  0.3755811769140884  0.6549384771661702
  0.6884118887357676  0.6221841719559608  0.5213261741707340
  0.0591219880460414  0.8756711809821447  0.6548882766152112
  0.0708385548225151  0.8745330155010620  0.7883965563388163
  0.0589645789495594  0.3756905287217768  0.6549379118436799
  0.6878959724943262  0.4558457466395011  0.4786408232602320
  0.1904837215893392  0.7853417944259785  0.2560365330355035
  0.4381143763213134  0.1199773144745965  0.4344439667556741
  0.8115905858365672  0.0330541612410795  0.1244982512018400
  0.9384409564241836  0.6220945438276236  0.5213039192109327
  0.0625927603198407  0.8708440902423322  0.4344007908046523
  0.8111552082003962  0.5328216535970018  0.1244143411430315
  0.4413790673646991  0.4518953147983828  0.3449854839908653
  0.8164288689369732  0.2018448186102656  0.3449831036318095
  0.3161669501044732  0.7015841051757457  0.3449357480473013
  0.6839538576596972  0.1257244205588747  0.6548917731733521
  0.5538235480769996  0.8721118794528436  0.3003439578627906
  0.0605405041575553  0.5421251684108097  0.7441731373256789
  0.9363445573735619  0.7814376111268971  0.1244953788518112
  0.8054353034911655  0.7026219048810585  0.2117264410094628
  0.0543691504154691  0.8728732770679516  0.3001016054896118
  0.1793084203405010  0.1223486141573793  0.3002978929901092
  0.0663286941183325  0.7019082206605273  0.3449850367686243
  0.8126803137113621  0.0417502008269722  0.6107303281503247
  0.0630583457237658  0.3707261922908583  0.4344504357769240
  0.5662447232891124  0.2019324177646689  0.3449583376562213
  0.8036770037292844  0.3719571474773614  0.3003224052999423
  0.4379291450530486  0.9559242420998906  0.4786010655373313
  0.5583662395717706  0.5373309122098828  0.3890641829271517
  0.0627694521442567  0.2057885649000498  0.4786311153619127
  0.3207501921749921  0.8746963245912408  0.7883893428544529
  0.9406603335576935  0.9584686766551389  0.6997379917486710
  0.0540330956799118  0.3723315716218507  0.3002273080454238
  0.6840238691460967  0.6260953993391344  0.6549415304723921
  0.6888168569243980  0.4576169525406361  0.5654440122660179
  0.4302908411463994  0.9524841583429846  0.2116612774525660
  0.3128444959241765  0.2058830347062705  0.4785816659611144
  0.4338091069924354  0.1259490881719135  0.6549346742640586
  0.6880577060922760  0.6202692748243960  0.4344074764221352
  0.8155036187075271  0.2083890111180584  0.6997226682050147
  0.8127895786542798  0.7057622393180804  0.4786217319945925
  0.5630686425837719  0.3703789556067997  0.4344355279847767
  0.9377271932061216  0.9558871016124684  0.4786036308594737
  0.5627966744619338  0.2057178476604813  0.4785815866055682
  0.1882498228428974  0.6201092671067288  0.4342978136866731
  0.3106674437379102  0.0420044491116788  0.7440694575160042
  0.9339080204227719  0.6260656828839608  0.6549457741856970
  0.5589146634913240  0.7131626094895402  0.8332306987764506
  0.3036414976563395  0.3726732118705651  0.3002830948600584
  0.5555988944356047  0.7026295833876163  0.2116951263720757
  0.1878449980723720  0.4557838453561431  0.4786206034139396
  0.3148900091693109  0.0414827813507318  0.8757208908916199
  0.1903616494666061  0.4582452628084457  0.6996767843155799
  0.8144695230677377  0.5425787072090535  0.8756466736587384
  0.1834275271699421  0.2880865722204707  0.3890992172977523
  0.4382363196149701  0.6205916700527982  0.4342834424778432
  0.0555411019823093  0.7021503418281408  0.2115577123416451
  0.5630201886610744  0.0332316903623018  0.1244856117401690
  0.8171169579265583  0.3624292062878310  0.1669781262595653
  0.8083046227220101  0.7137249350430073  0.8330875594240551
  0.0707847466485242  0.3744456379904118  0.7884065374898078
  0.4428386630377982  0.2961929983274748  0.8756975796532973
  0.3114160681492650  0.0331523061777119  0.1243769609751025
  0.6879686392541370  0.1201904704961725  0.4344691607615238
  0.1912909196319452  0.9517796877226130  0.3449868307544050
  0.0586771329928309  0.2134696913922811  0.8332981204122258
  0.5632171829188407  0.0415301679560742  0.6107682713478766
  0.6805293011107828  0.4524725120023446  0.2116697757648813
  0.1859254296584568  0.7916574628196437  0.7441720557870296
  0.8131808511392664  0.8706999212442825  0.4344014556968803
  0.4337099152976800  0.7875303561633683  0.3890717970955832
  0.4405699998434666  0.2852724264678774  0.2559775002619050
  0.0643572710937917  0.5422043162362535  0.8756617604840400
  0.5604926875902935  0.0421870263138834  0.7441769236019723
  0.1932408709307711  0.7967796929374538  0.8758933957869781
  0.9377555739591945  0.4557792394742195  0.4786304935170670
  0.8086315905470390  0.5375449241225947  0.3890727053233003
  0.8137922775662872  0.2076720047074360  0.5654251288641667
  0.1952387921764462  0.6246115323001922  0.7883735236431086
  0.9307201562925245  0.9530610874040669  0.2118445461021750
  0.0653450990218609  0.7085675265255827  0.6996934960002998
  0.3157645843295817  0.5353280255179169  0.2560008496267040
  0.3054078228256442  0.7023801958371751  0.2117632599581704
  0.5672317974002423  0.8622591651983432  0.1668975187494118
  0.5606774000628801  0.5423514286125709  0.7440967361494883
  0.6910215559888785  0.4517433599587389  0.3449411231819803
  0.9412260216017043  0.2966738899651974  0.8757970034093657
  0.5655224550620830  0.0355171517059462  0.2559855440752741
  0.1931492438381700  0.1114241717850659  0.1663302967818690
  0.3079479442307672  0.7148304942297273  0.8339007260321954
  0.6879550295391037  0.7921124780675315  0.6109079470210459
  0.1789269480628564  0.6218295467965905  0.3002283754427084
  0.0581057827254735  0.5379444154474184  0.3890258848904459
  0.9424563228151592  0.9522720465471141  0.3450377942401697
  0.1880095634281209  0.9560922501991478  0.4786484278182295
 
  0.00000000E+00  0.00000000E+00  0.00000000E+00
  0.00000000E+00  0.00000000E+00  0.00000000E+00
  0.00000000E+00  0.00000000E+00  0.00000000E+00
  0.00000000E+00  0.00000000E+00  0.00000000E+00
  0.00000000E+00  0.00000000E+00  0.00000000E+00
  0.00000000E+00  0.00000000E+00  0.00000000E+00
  0.00000000E+00  0.00000000E+00  0.00000000E+00
  0.00000000E+00  0.00000000E+00  0.00000000E+00
  0.00000000E+00  0.00000000E+00  0.00000000E+00
  0.00000000E+00  0.00000000E+00  0.00000000E+00
  0.00000000E+00  0.00000000E+00  0.00000000E+00
  0.00000000E+00  0.00000000E+00  0.00000000E+00
  0.00000000E+00  0.00000000E+00  0.00000000E+00
  0.00000000E+00  0.00000000E+00  0.00000000E+00
  0.00000000E+00  0.00000000E+00  0.00000000E+00
  0.00000000E+00  0.00000000E+00  0.00000000E+00
  0.00000000E+00  0.00000000E+00  0.00000000E+00
  0.00000000E+00  0.00000000E+00  0.00000000E+00
  0.00000000E+00  0.00000000E+00  0.00000000E+00
  0.00000000E+00  0.00000000E+00  0.00000000E+00
  0.00000000E+00  0.00000000E+00  0.00000000E+00
  0.00000000E+00  0.00000000E+00  0.00000000E+00
  0.00000000E+00  0.00000000E+00  0.00000000E+00
  0.00000000E+00  0.00000000E+00  0.00000000E+00
  0.00000000E+00  0.00000000E+00  0.00000000E+00
  0.00000000E+00  0.00000000E+00  0.00000000E+00
  0.00000000E+00  0.00000000E+00  0.00000000E+00
  0.00000000E+00  0.00000000E+00  0.00000000E+00
  0.00000000E+00  0.00000000E+00  0.00000000E+00
  0.00000000E+00  0.00000000E+00  0.00000000E+00
  0.00000000E+00  0.00000000E+00  0.00000000E+00
  0.00000000E+00  0.00000000E+00  0.00000000E+00
  0.00000000E+00  0.00000000E+00  0.00000000E+00
  0.00000000E+00  0.00000000E+00  0.00000000E+00
  0.00000000E+00  0.00000000E+00  0.00000000E+00
  0.00000000E+00  0.00000000E+00  0.00000000E+00
  0.00000000E+00  0.00000000E+00  0.00000000E+00
  0.00000000E+00  0.00000000E+00  0.00000000E+00
  0.00000000E+00  0.00000000E+00  0.00000000E+00
  0.00000000E+00  0.00000000E+00  0.00000000E+00
  0.00000000E+00  0.00000000E+00  0.00000000E+00
  0.00000000E+00  0.00000000E+00  0.00000000E+00
  0.00000000E+00  0.00000000E+00  0.00000000E+00
  0.00000000E+00  0.00000000E+00  0.00000000E+00
  0.00000000E+00  0.00000000E+00  0.00000000E+00
  0.00000000E+00  0.00000000E+00  0.00000000E+00
  0.00000000E+00  0.00000000E+00  0.00000000E+00
  0.00000000E+00  0.00000000E+00  0.00000000E+00
  0.00000000E+00  0.00000000E+00  0.00000000E+00
  0.00000000E+00  0.00000000E+00  0.00000000E+00
  0.00000000E+00  0.00000000E+00  0.00000000E+00
  0.00000000E+00  0.00000000E+00  0.00000000E+00
  0.00000000E+00  0.00000000E+00  0.00000000E+00
  0.00000000E+00  0.00000000E+00  0.00000000E+00
  0.00000000E+00  0.00000000E+00  0.00000000E+00
  0.00000000E+00  0.00000000E+00  0.00000000E+00
  0.00000000E+00  0.00000000E+00  0.00000000E+00
  0.00000000E+00  0.00000000E+00  0.00000000E+00
  0.00000000E+00  0.00000000E+00  0.00000000E+00
  0.00000000E+00  0.00000000E+00  0.00000000E+00
  0.00000000E+00  0.00000000E+00  0.00000000E+00
  0.00000000E+00  0.00000000E+00  0.00000000E+00
  0.00000000E+00  0.00000000E+00  0.00000000E+00
  0.00000000E+00  0.00000000E+00  0.00000000E+00
  0.00000000E+00  0.00000000E+00  0.00000000E+00
  0.00000000E+00  0.00000000E+00  0.00000000E+00
  0.00000000E+00  0.00000000E+00  0.00000000E+00
  0.00000000E+00  0.00000000E+00  0.00000000E+00
  0.00000000E+00  0.00000000E+00  0.00000000E+00
  0.00000000E+00  0.00000000E+00  0.00000000E+00
  0.00000000E+00  0.00000000E+00  0.00000000E+00
  0.00000000E+00  0.00000000E+00  0.00000000E+00
  0.00000000E+00  0.00000000E+00  0.00000000E+00
  0.00000000E+00  0.00000000E+00  0.00000000E+00
  0.00000000E+00  0.00000000E+00  0.00000000E+00
  0.00000000E+00  0.00000000E+00  0.00000000E+00
  0.00000000E+00  0.00000000E+00  0.00000000E+00
  0.00000000E+00  0.00000000E+00  0.00000000E+00
  0.00000000E+00  0.00000000E+00  0.00000000E+00
  0.00000000E+00  0.00000000E+00  0.00000000E+00
  0.00000000E+00  0.00000000E+00  0.00000000E+00
  0.00000000E+00  0.00000000E+00  0.00000000E+00
  0.00000000E+00  0.00000000E+00  0.00000000E+00
  0.00000000E+00  0.00000000E+00  0.00000000E+00
  0.00000000E+00  0.00000000E+00  0.00000000E+00
  0.00000000E+00  0.00000000E+00  0.00000000E+00
  0.00000000E+00  0.00000000E+00  0.00000000E+00
  0.00000000E+00  0.00000000E+00  0.00000000E+00
  0.00000000E+00  0.00000000E+00  0.00000000E+00
  0.00000000E+00  0.00000000E+00  0.00000000E+00
  0.00000000E+00  0.00000000E+00  0.00000000E+00
  0.00000000E+00  0.00000000E+00  0.00000000E+00
  0.00000000E+00  0.00000000E+00  0.00000000E+00
  0.00000000E+00  0.00000000E+00  0.00000000E+00
  0.00000000E+00  0.00000000E+00  0.00000000E+00
  0.00000000E+00  0.00000000E+00  0.00000000E+00
  0.00000000E+00  0.00000000E+00  0.00000000E+00
  0.00000000E+00  0.00000000E+00  0.00000000E+00
  0.00000000E+00  0.00000000E+00  0.00000000E+00
  0.00000000E+00  0.00000000E+00  0.00000000E+00
  0.00000000E+00  0.00000000E+00  0.00000000E+00
  0.00000000E+00  0.00000000E+00  0.00000000E+00
  0.00000000E+00  0.00000000E+00  0.00000000E+00
  0.00000000E+00  0.00000000E+00  0.00000000E+00
  0.00000000E+00  0.00000000E+00  0.00000000E+00
  0.00000000E+00  0.00000000E+00  0.00000000E+00
  0.00000000E+00  0.00000000E+00  0.00000000E+00
  0.00000000E+00  0.00000000E+00  0.00000000E+00
  0.00000000E+00  0.00000000E+00  0.00000000E+00
  0.00000000E+00  0.00000000E+00  0.00000000E+00
  0.00000000E+00  0.00000000E+00  0.00000000E+00
  0.00000000E+00  0.00000000E+00  0.00000000E+00
  0.00000000E+00  0.00000000E+00  0.00000000E+00
  0.00000000E+00  0.00000000E+00  0.00000000E+00
  0.00000000E+00  0.00000000E+00  0.00000000E+00
  0.00000000E+00  0.00000000E+00  0.00000000E+00
  0.00000000E+00  0.00000000E+00  0.00000000E+00
  0.00000000E+00  0.00000000E+00  0.00000000E+00
  0.00000000E+00  0.00000000E+00  0.00000000E+00
  0.00000000E+00  0.00000000E+00  0.00000000E+00
  0.00000000E+00  0.00000000E+00  0.00000000E+00
  0.00000000E+00  0.00000000E+00  0.00000000E+00
  0.00000000E+00  0.00000000E+00  0.00000000E+00
  0.00000000E+00  0.00000000E+00  0.00000000E+00
  0.00000000E+00  0.00000000E+00  0.00000000E+00
  0.00000000E+00  0.00000000E+00  0.00000000E+00
  0.00000000E+00  0.00000000E+00  0.00000000E+00
  0.00000000E+00  0.00000000E+00  0.00000000E+00
  0.00000000E+00  0.00000000E+00  0.00000000E+00
  0.00000000E+00  0.00000000E+00  0.00000000E+00
  0.00000000E+00  0.00000000E+00  0.00000000E+00
  0.00000000E+00  0.00000000E+00  0.00000000E+00
  0.00000000E+00  0.00000000E+00  0.00000000E+00
  0.00000000E+00  0.00000000E+00  0.00000000E+00
  0.00000000E+00  0.00000000E+00  0.00000000E+00
  0.00000000E+00  0.00000000E+00  0.00000000E+00
  0.00000000E+00  0.00000000E+00  0.00000000E+00
  0.00000000E+00  0.00000000E+00  0.00000000E+00
  0.00000000E+00  0.00000000E+00  0.00000000E+00
  0.00000000E+00  0.00000000E+00  0.00000000E+00
  0.00000000E+00  0.00000000E+00  0.00000000E+00
  0.00000000E+00  0.00000000E+00  0.00000000E+00
  0.00000000E+00  0.00000000E+00  0.00000000E+00
  0.00000000E+00  0.00000000E+00  0.00000000E+00
  0.00000000E+00  0.00000000E+00  0.00000000E+00
  0.00000000E+00  0.00000000E+00  0.00000000E+00
  0.00000000E+00  0.00000000E+00  0.00000000E+00
  0.00000000E+00  0.00000000E+00  0.00000000E+00
  0.00000000E+00  0.00000000E+00  0.00000000E+00
  0.00000000E+00  0.00000000E+00  0.00000000E+00
  0.00000000E+00  0.00000000E+00  0.00000000E+00
  0.00000000E+00  0.00000000E+00  0.00000000E+00
  0.00000000E+00  0.00000000E+00  0.00000000E+00
  0.00000000E+00  0.00000000E+00  0.00000000E+00
  0.00000000E+00  0.00000000E+00  0.00000000E+00
  0.00000000E+00  0.00000000E+00  0.00000000E+00
  0.00000000E+00  0.00000000E+00  0.00000000E+00
  0.00000000E+00  0.00000000E+00  0.00000000E+00
  0.00000000E+00  0.00000000E+00  0.00000000E+00
  0.00000000E+00  0.00000000E+00  0.00000000E+00
  0.00000000E+00  0.00000000E+00  0.00000000E+00
  0.00000000E+00  0.00000000E+00  0.00000000E+00
  0.00000000E+00  0.00000000E+00  0.00000000E+00
  0.00000000E+00  0.00000000E+00  0.00000000E+00
  0.00000000E+00  0.00000000E+00  0.00000000E+00
  0.00000000E+00  0.00000000E+00  0.00000000E+00
  0.00000000E+00  0.00000000E+00  0.00000000E+00
  0.00000000E+00  0.00000000E+00  0.00000000E+00
  0.00000000E+00  0.00000000E+00  0.00000000E+00
  0.00000000E+00  0.00000000E+00  0.00000000E+00
  0.00000000E+00  0.00000000E+00  0.00000000E+00
  0.00000000E+00  0.00000000E+00  0.00000000E+00
  0.00000000E+00  0.00000000E+00  0.00000000E+00
  0.00000000E+00  0.00000000E+00  0.00000000E+00
  0.00000000E+00  0.00000000E+00  0.00000000E+00
  0.00000000E+00  0.00000000E+00  0.00000000E+00
  0.00000000E+00  0.00000000E+00  0.00000000E+00
  0.00000000E+00  0.00000000E+00  0.00000000E+00
  0.00000000E+00  0.00000000E+00  0.00000000E+00
  0.00000000E+00  0.00000000E+00  0.00000000E+00
  0.00000000E+00  0.00000000E+00  0.00000000E+00
  0.00000000E+00  0.00000000E+00  0.00000000E+00
  0.00000000E+00  0.00000000E+00  0.00000000E+00
  0.00000000E+00  0.00000000E+00  0.00000000E+00
  0.00000000E+00  0.00000000E+00  0.00000000E+00
  0.00000000E+00  0.00000000E+00  0.00000000E+00
  0.00000000E+00  0.00000000E+00  0.00000000E+00
  0.00000000E+00  0.00000000E+00  0.00000000E+00
  0.00000000E+00  0.00000000E+00  0.00000000E+00
  0.00000000E+00  0.00000000E+00  0.00000000E+00
  0.00000000E+00  0.00000000E+00  0.00000000E+00
  0.00000000E+00  0.00000000E+00  0.00000000E+00
  0.00000000E+00  0.00000000E+00  0.00000000E+00
  0.00000000E+00  0.00000000E+00  0.00000000E+00
  0.00000000E+00  0.00000000E+00  0.00000000E+00
  0.00000000E+00  0.00000000E+00  0.00000000E+00
  0.00000000E+00  0.00000000E+00  0.00000000E+00
  0.00000000E+00  0.00000000E+00  0.00000000E+00
  0.00000000E+00  0.00000000E+00  0.00000000E+00
  0.00000000E+00  0.00000000E+00  0.00000000E+00
  0.00000000E+00  0.00000000E+00  0.00000000E+00
  0.00000000E+00  0.00000000E+00  0.00000000E+00
  0.00000000E+00  0.00000000E+00  0.00000000E+00
  0.00000000E+00  0.00000000E+00  0.00000000E+00
  0.00000000E+00  0.00000000E+00  0.00000000E+00
  0.00000000E+00  0.00000000E+00  0.00000000E+00
  0.00000000E+00  0.00000000E+00  0.00000000E+00
  0.00000000E+00  0.00000000E+00  0.00000000E+00
  0.00000000E+00  0.00000000E+00  0.00000000E+00
  0.00000000E+00  0.00000000E+00  0.00000000E+00
  0.00000000E+00  0.00000000E+00  0.00000000E+00
  0.00000000E+00  0.00000000E+00  0.00000000E+00
  0.00000000E+00  0.00000000E+00  0.00000000E+00
  0.00000000E+00  0.00000000E+00  0.00000000E+00
  0.00000000E+00  0.00000000E+00  0.00000000E+00
  0.00000000E+00  0.00000000E+00  0.00000000E+00
  0.00000000E+00  0.00000000E+00  0.00000000E+00
  0.00000000E+00  0.00000000E+00  0.00000000E+00
  0.00000000E+00  0.00000000E+00  0.00000000E+00
  0.00000000E+00  0.00000000E+00  0.00000000E+00
  0.00000000E+00  0.00000000E+00  0.00000000E+00
  0.00000000E+00  0.00000000E+00  0.00000000E+00
  0.00000000E+00  0.00000000E+00  0.00000000E+00
  0.00000000E+00  0.00000000E+00  0.00000000E+00
  0.00000000E+00  0.00000000E+00  0.00000000E+00
  0.00000000E+00  0.00000000E+00  0.00000000E+00
  0.00000000E+00  0.00000000E+00  0.00000000E+00
  0.00000000E+00  0.00000000E+00  0.00000000E+00
  0.00000000E+00  0.00000000E+00  0.00000000E+00
  0.00000000E+00  0.00000000E+00  0.00000000E+00
  0.00000000E+00  0.00000000E+00  0.00000000E+00
  0.00000000E+00  0.00000000E+00  0.00000000E+00
  0.00000000E+00  0.00000000E+00  0.00000000E+00
  0.00000000E+00  0.00000000E+00  0.00000000E+00
  0.00000000E+00  0.00000000E+00  0.00000000E+00
  0.00000000E+00  0.00000000E+00  0.00000000E+00
  0.00000000E+00  0.00000000E+00  0.00000000E+00
  0.00000000E+00  0.00000000E+00  0.00000000E+00
  0.00000000E+00  0.00000000E+00  0.00000000E+00
  0.00000000E+00  0.00000000E+00  0.00000000E+00
  0.00000000E+00  0.00000000E+00  0.00000000E+00
  0.00000000E+00  0.00000000E+00  0.00000000E+00
  0.00000000E+00  0.00000000E+00  0.00000000E+00
  0.00000000E+00  0.00000000E+00  0.00000000E+00
  0.00000000E+00  0.00000000E+00  0.00000000E+00
  0.00000000E+00  0.00000000E+00  0.00000000E+00
  0.00000000E+00  0.00000000E+00  0.00000000E+00