CuInSe2gb                               
   1.00000000000000     
     9.7266780392896699    0.0000000000000000    0.0000000000000000
     0.0000000000000000    8.4235502764570693    0.0000000000000000
     0.0000000000000000    0.0000000000000000   45.0000000000000000
   Fe   Mn
   281     7
Direct
  0.0613570756235129  0.7069686044753395  0.2116991431930804
  0.3134988495670517  0.7137865065757727  0.8754900297640072
  0.6882092229999341  0.9582165185906379  0.6110017512863732
  0.4378209970001274  0.4581971229064158  0.6110170468940720
  0.4370445730234811  0.2907243360745587  0.2559386799969076
  0.0618878799079514  0.3817881890449034  0.8335596854885325
  0.3110851333629494  0.8811613546511055  0.8333868853620734
  0.4409178103734483  0.6255087441967108  0.6997442835450748
  0.0615777955741899  0.2104255194536692  0.7441839156673109
  0.1862473022565277  0.4567989649757468  0.2116031716481481
  0.5633593581438955  0.2078749417419566  0.4778337758562862
  0.0625734815841732  0.8744238717380894  0.5664967940907212
  0.5623971652977217  0.2141677114204499  0.8756115694162381
  0.8120547214125809  0.5355841371684004  0.1247725281137503
  0.4361741836199513  0.9567455105688163  0.2116359977681892
  0.5625359753561768  0.3746364998737132  0.5665582680938274
  0.8125677864674836  0.0412366299406236  0.3888871223610383
  0.6871757903365489  0.7914756154271625  0.5221069871718974
  0.4382295745492381  0.4579929296344760  0.4778015820972349
  0.4371474539325579  0.9605420793471732  0.7440577179858147
  0.4373590987385710  0.6249038192475963  0.5665649978395350
  0.0619361330945268  0.5356781361834928  0.1247297364151794
  0.3118171451641432  0.0357975963862245  0.1247518697913897
  0.6874209059722145  0.9568232585981810  0.3446230805839392
  0.6867190575449397  0.7859847918930896  0.1245977625485554
  0.0608979527592166  0.3750752611995519  0.3002053398669824
  0.6865569028034083  0.4634013924076690  0.8755437388605046
  0.4361973178341780  0.4567965984353958  0.2116103270558511
  0.8123852634727162  0.3746570772799281  0.4333435076788490
  0.8159215390263826  0.3758789973880425  0.6996480954121737
  0.5623037620868300  0.5427465993246220  0.6553212256961064
  0.9372885217511183  0.1246992102569394  0.4333634305499676
  0.5622136756036086  0.5411010668274330  0.2559441716319026
  0.6873618774821186  0.4570121082891339  0.3446038402980198
  0.1874610580091010  0.6185619066333338  0.1667888344286459
  0.1888313864589021  0.7930996700044110  0.7881011308168906
  0.4411829109530631  0.1253224821467473  0.6997268825306352
  0.9360361352811770  0.6249210974832963  0.3000793681303155
  0.3126528372762348  0.2140971393902560  0.8755002208165240
  0.3124137319438818  0.8744839360712472  0.5664707618009021
  0.8133987719641250  0.2124410158055829  0.8758709771989354
  0.8123490138086565  0.5425202905786687  0.6553222954944837
  0.5621054558170151  0.5355908568224081  0.1247810841622572
  0.5621169190843283  0.8683953683382711  0.1668158388319457
  0.1870516069768080  0.2907819531359140  0.2559532834910778
  0.8124113667111292  0.8748400488628227  0.4333810272506536
  0.5658302493049266  0.3759662196741675  0.6997823416596785
  0.0617694028790431  0.0356992900423181  0.1247605353745062
  0.3124939980661194  0.5428507045170974  0.6552463539897054
  0.5625604858643309  0.2067633765785438  0.3445758697561681
  0.1880447251664631  0.9584002604051799  0.6110171852064414
  0.3109178122449417  0.3750026732521465  0.3002342560531603
  0.4375295156437989  0.7928482312518703  0.6552816327149414
  0.6869918088338635  0.4601961789054629  0.7441780675781744
  0.0622587963485734  0.3684889624609888  0.1667659417136596
  0.6907773118069317  0.6257901245680528  0.6997881461901363
  0.3125531176585410  0.5411440014533829  0.3888960073168347
  0.0640876957100780  0.7136010360448950  0.8755632752716365
  0.9363377212380679  0.6320825065888709  0.8336664777892649
  0.3142258936498455  0.5442573246048644  0.7883008036456371
  0.3112957538604483  0.2069524330080591  0.2117575430893188
  0.0632759076464270  0.7077321581112623  0.4777725311910098
  0.5611840452850744  0.2070804162290854  0.2117175563930153
  0.3123639121438083  0.2106046022197997  0.7440912706493882
  0.0653618346611183  0.3755528772302912  0.6998139679663642
  0.1866586460246715  0.6306730928883396  0.8331619947657217
  0.0639656882550470  0.0435328919958641  0.7883426664383033
  0.4373813333494676  0.1245006503015123  0.5665063321223897
  0.9374199790944937  0.2928352755255138  0.6552589433164716
  0.8111785363139354  0.2070155639096880  0.2117320485124669
  0.9361211418487965  0.9569374999799011  0.2116049031484915
  0.9376600257492316  0.6245629367194557  0.5665376035303458
  0.8115503138433672  0.3818958306490380  0.8336984458109794
  0.1907865216768865  0.6257443005284581  0.6996142867756238
  0.5659757192032570  0.8751710890187508  0.6998122448373651
  0.6871572502709478  0.2928562423964771  0.6552878418017941
  0.3126970822336773  0.2085753697915106  0.6110355392980696
  0.4371069633717175  0.4603730283913889  0.7441257291065002
  0.4375416866788557  0.7912004604277163  0.3888265422281411
  0.6870418430571511  0.9599841133879365  0.7441346709746284
  0.8113917916765924  0.7070937562640388  0.2116675204911746
  0.8131625008130503  0.7085453708768286  0.6110433951710086
  0.4366780763840696  0.7859289056303951  0.1246123204126171
  0.3118571676105972  0.7109687038826434  0.7440954235019058
  0.3147981428099640  0.0441137631826155  0.7883812878046326
  0.8125749900537214  0.5410699022398318  0.3888810415861165
  0.6871129255333583  0.2911431722476092  0.5220206334840316
  0.6885086641590427  0.7933130110740018  0.7884386835844489
  0.1871155846353681  0.7909225843585590  0.2560150285402440
  0.6871993149269312  0.1186411296882287  0.1667452382615988
  0.6882808417969087  0.9578909932292989  0.4777628491376158
  0.9374689504449902  0.9567729902243537  0.3445914437359233
  0.8121506179760130  0.0411629976885355  0.5219901958378907
  0.6873642539797005  0.6248866478940532  0.4333628204554427
  0.4374431107314313  0.4568125899445838  0.3445982299440971
  0.8114472854281163  0.2100229776292104  0.7441420401260864
  0.4371759020559763  0.9644226105630089  0.8753760642598317
  0.5625274161341927  0.8745621631125107  0.5664961126654597
  0.8118157411576503  0.0358402044256962  0.1247316969317428
  0.4360354768142028  0.6247650764948416  0.3001200857673642
  0.5620937565263431  0.2100853636705506  0.7442355967445308
  0.6878041032113407  0.4586061308274959  0.6110358411485497
  0.5605035694793243  0.3813540626351753  0.8333370938923701
  0.8110566237222081  0.3750348104981104  0.3001775360261158
  0.1876509455158419  0.2911955554235828  0.3889054072098510
  0.8141928822662872  0.5440772827046449  0.7885840047880138
  0.1869382781366372  0.7912382226596790  0.5220658584654320
  0.3109578252352264  0.8749945301757615  0.3001998378239564
  0.1862472169924187  0.9568483958341994  0.2116482363735571
  0.1866071110027598  0.4601340353666827  0.7441301673070276
  0.4370065371517524  0.2911910658660932  0.5220038175033371
  0.0624474671318927  0.7068772304771502  0.3445972137816554
  0.1875697339981814  0.7929798832396902  0.6553497398579533
  0.4392303445015227  0.7932521589951558  0.7881757213650236
  0.6872571146303852  0.1248985009717748  0.4333327702035948
  0.9370777104473448  0.7910058836317673  0.5220936969035609
  0.6873053374832157  0.6186582107746744  0.1667472763393510
  0.8126260465348291  0.7068508323220656  0.3445779856365423
  0.9368407679897018  0.4602204335255130  0.7441461420076081
  0.1874951960474978  0.4568787490568534  0.3445884541249474
  0.5634298291700177  0.5440318835641355  0.7883394288475268
  0.5620989287773294  0.3685107408760961  0.1667368663491030
  0.5623491287140406  0.7068301065840173  0.3445870205855414
  0.5608308501765580  0.3750195253038229  0.3001998798108786
  0.1872657264567513  0.4639260767354655  0.8754472121623024
  0.1872754530479826  0.1186402078712091  0.1667585258632386
  0.4384898510061381  0.2936874344227349  0.7883050961656177
  0.6871784232151673  0.7910212444963887  0.2559875446448785
  0.9362554678644229  0.1316377886855579  0.8335325870123682
  0.4383660513150853  0.9578378514720284  0.4777789168901257
  0.5620952380645102  0.7135083829972633  0.8756661638474610
  0.1882162987380427  0.4579734437595503  0.4778398053082209
  0.9367133449132962  0.2859369070676180  0.1246097095083604
  0.3124587630997971  0.0411352341841230  0.3888672031010695
  0.0622732957143464  0.0428658628869683  0.6551943556159110
  0.5623135157364170  0.3748510637185443  0.4333440933530365
  0.9373798669855248  0.6247547764380057  0.4333305209048333
  0.3122670350109886  0.3684322046714726  0.1667844821771517
  0.9406521639247115  0.1257588784956697  0.6996673289520338
  0.5622767586441153  0.0429383537629719  0.6553264564033815
  0.5620697971353826  0.5414541009910933  0.5219950761223346
  0.1860917258511560  0.1248923127285065  0.3001831802829000
  0.4373099912684871  0.1185592833250361  0.1667556752147008
  0.6860780430465944  0.6250028760019164  0.3000657442846263
  0.9360022344713922  0.1250846825121602  0.3001416065990506
  0.8123224040282379  0.3744883851193413  0.5665686630393069
  0.0608155716421010  0.8749816696271823  0.3001739110181515
  0.1873869019283166  0.6246129636279458  0.5665970483449149
  0.9382882434501372  0.7922791037824544  0.7882821529843300
  0.3110001051781753  0.3809086257538317  0.8334794057237604
  0.9378468256125715  0.4636930088278458  0.8755632455331734
  0.4362734314424943  0.6309504380731781  0.8333260733285577
  0.0626139698179235  0.2067315529318983  0.3445776044333980
  0.1876636968282846  0.9641311012024482  0.8753029535961582
  0.9366410366888042  0.7858748120104125  0.1246134140616218
  0.6874967800449201  0.7910612071332184  0.3888248762846286
  0.9374647977357057  0.7929753124215043  0.6552530022750269
  0.9372093838278683  0.1186361702999167  0.1667472774732784
  0.4371608162384989  0.2930755297601902  0.6553141712588375
  0.0612686611899830  0.2070263166822777  0.2117338827173758
  0.6860870959418347  0.9569051447070982  0.2115800085730608
  0.5630120633485267  0.7085552689754299  0.6110388675926242
  0.8159864195124024  0.8754049839483996  0.6997663656467429
  0.9410584257284222  0.6256377024272178  0.6997037556840199
  0.1906225156599269  0.1255998446687527  0.6997718539126470
  0.9382891463791818  0.4579830688106807  0.4778438263303378
  0.8131529247105203  0.2084956665405295  0.6110033868560910
  0.1873153638870252  0.6247303502389928  0.4333494322881792
  0.4361066438961240  0.1248973785848041  0.3001581037437221
  0.6859301235953187  0.1249541246267710  0.3001325881998447
  0.5624873148180313  0.5412056067025873  0.3888555977080326
  0.8127050650119138  0.2068640015278919  0.3445807383817119
  0.4377008353256608  0.4646462658209453  0.8752970065353729
  0.5617834353296801  0.8810564803611445  0.8337779018705165
  0.3133826823105776  0.2079049872314557  0.4777933488379615
  0.1882998118243436  0.9578809397021971  0.4778301849223009
  0.0609271541394865  0.8810256548700568  0.8335468999777881
  0.0621142142021545  0.5411906390208626  0.5220877287153368
  0.9381172563584187  0.9579323255341092  0.4778388921532231
  0.0629438431691587  0.7085587692716444  0.6110291258875929
  0.5620749534456254  0.0413781439563741  0.5220473004335050
  0.6884870064271322  0.2931315928490765  0.7884541521487229
  0.8121577109516229  0.3684919166791097  0.1667723719610943
  0.4373793290477105  0.1246828451826967  0.4333757895597719
  0.0632873423990601  0.2080190246072997  0.4778288178115204
  0.3126845428904558  0.0431855958332432  0.6551892143073319
  0.4371984492389127  0.7914891673497025  0.5220546783658175
  0.1863680402960257  0.1322356984304409  0.8332393961546782
  0.1866107793882723  0.2857649747953006  0.1246235341483063
  0.9374377181664759  0.4568899064700995  0.3445795186032043
  0.3122047546923835  0.8685717802520802  0.1668040105138224
  0.3113484503636362  0.7071237191285785  0.2116835854875144
  0.9373700890331281  0.6187372640849474  0.1667499896058649
  0.1880059691472635  0.4589235811459647  0.6109767703412960
  0.0663222221692288  0.8758603999555434  0.6996429672968750
  0.0623050400604201  0.5429124880347818  0.6553286203255621
  0.3119142555583772  0.5354638175445174  0.1247404144255227
  0.9374939512599733  0.7912046980834254  0.3888186467704967
  0.9386613459384339  0.2943834709737064  0.7884456815909933
  0.1870515940246414  0.2930388702766433  0.6552887628166678
  0.9378728057187201  0.9580947512010271  0.6110735668443762
  0.8123420210348902  0.7102214857283434  0.7441733446322770
  0.6871011992214626  0.2907649055519622  0.2559736049111909
  0.0620683138914653  0.7100965879343345  0.7440935101230015
  0.6862276787398479  0.4568648541057737  0.2116166151222753
  0.8131052316772623  0.2078886234211145  0.4777988352239511
  0.5632071812803678  0.7076916861856829  0.4777977142063157
  0.0621277220645367  0.8684393770619769  0.1667926172998185
  0.9370675573708444  0.2910034997135822  0.5220809490372624
  0.6874392053783920  0.7927804243681678  0.6552227621641689
  0.0623434149869312  0.8747268009033986  0.4333346385019252
  0.0643698309248103  0.2139922173696780  0.8756903592235559
  0.8123976316418861  0.0427930112081830  0.6553213510960146
  0.5617883802544562  0.0355811373800892  0.1247605241573799
  0.3123107300103393  0.3748639911483845  0.4333513490767695
  0.3124906145993213  0.3746769738466879  0.5665864734744709
  0.3132667581954345  0.7077571502685948  0.4777979576630341
  0.0621807635013795  0.0413017050601592  0.5220991501566570
  0.3158936698390402  0.8759305189219629  0.6997083705868427
  0.0620948487613361  0.5410922400112412  0.2559704629897174
  0.6870881394308235  0.1322514027377095  0.8335506472058327
  0.8120722891492894  0.0408987906979628  0.2559261769239973
  0.1873544402641149  0.1248294641663584  0.4333658635618688
  0.6908238866322056  0.1256776304183782  0.6998877508790470
  0.1869798683793585  0.2911123262708626  0.5220572464658444
  0.4370924221515288  0.7908995820485398  0.2560341241198807
  0.8121444902675756  0.5411727754545711  0.2559273267204602
  0.0629804263382815  0.2083910263504372  0.6110047844041600
  0.1874059859050242  0.7911841608345955  0.3888572660475797
  0.3121749919473367  0.5410922622272660  0.5220804369858871
  0.8122465004572060  0.8686081801819466  0.1667767627192165
  0.6877278335025838  0.2912798868410433  0.3888858038291262
  0.1875401664772156  0.1243666207378474  0.5665189792758413
  0.6864744802601628  0.9646510347643681  0.8759108966317685
  0.6876463152384731  0.1244973551517865  0.5664820435672987
  0.4374695237076267  0.9568230156797957  0.3445988104236292
  0.1873422925635783  0.9605510265537265  0.7440447516479688
  0.9372426873355100  0.7908861453556181  0.2560377335705861
  0.5622273342343697  0.8748636752850492  0.4333489572390615
  0.3121306143929941  0.8747781635169057  0.4333402597957857
  0.8118984097134080  0.5412766522931640  0.5220952945985294
  0.9361586254384797  0.4569383522171030  0.2116093971882343
  0.3122324617410024  0.5411353257915580  0.2559648376115292
  0.5624790290232108  0.0411227840526456  0.3888775921240548
  0.9381150599292369  0.4588335189203331  0.6109846407577024
  0.0624451256974898  0.0410437319295277  0.3888835970933938
  0.0624064589820353  0.5411617574075510  0.3888840581165440
  0.4376586555698830  0.2912556846331525  0.3888613993527460
  0.6882863618003406  0.4577712047160840  0.4778304502765483
  0.0623998299910897  0.3743685633621406  0.5665855975366519
  0.5613717785159120  0.7070119140870433  0.2117164383246206
  0.9370825182588609  0.2908569265886808  0.2559452873979826
  0.1859518775795737  0.6248069033056144  0.3000673511977837
  0.1873921301552374  0.9567509334983489  0.3446104493314028
  0.5608745007354391  0.8751770878760891  0.3001765083762090
  0.0624250576278388  0.3749158529378272  0.4333300327676802
  0.3124707004957186  0.7068497541624615  0.3446085983702625
  0.3126626215413251  0.2069381860473009  0.3445949600147385
  0.9374931411612005  0.1245507982875311  0.5665113179794108
  0.4378172628438734  0.9584047649131618  0.6110337873400441
  0.5620903324056409  0.0408800298767056  0.2559332823288998
  0.1867414504092799  0.7857842539621638  0.1246102929567799
  0.0621149684009719  0.0408923583791775  0.2558748730066674
  0.6875057361743554  0.6247008704978689  0.5665307379638242
  0.4374665321731739  0.6186259386377341  0.1667883347889126
  0.3120228944301562  0.0411217206810708  0.5219896146683787
  0.6865683862252423  0.2860233586333116  0.1246172517287050
  0.8133372831623922  0.7078394481570671  0.4777843348192938
  0.4370823656048632  0.1315425976327645  0.8333416152760874
  0.3156929334896340  0.3757655681094005  0.6997617302854945
  0.6870081431799731  0.6322876736969819  0.8336036455349056
  0.5621446593438582  0.7107921349430816  0.7441117982348673
  0.9377373133575706  0.2912175244794487  0.3888937942157540
  0.9385889272317040  0.9638712535622388  0.8757617410604742
  0.9375240727994764  0.9599183498420346  0.7439456360406849
  0.8125760845047577  0.8744879338951043  0.5664949716453387
  0.8110957186499270  0.8748756922796386  0.3001714664146598
  0.3121949237397849  0.0407961047992189  0.2559129371949427
  0.4366796559313674  0.2857382653235264  0.1246360149507689
  0.3127111431088143  0.7083254996724819  0.6109821443209443
  0.4372981048160803  0.6246474096916698  0.4333471461680016
  0.1888116733816192  0.2924896210368511  0.7879945849046157
  0.5641445477164542  0.0435476891600985  0.7881907612120589
  0.0642867871525590  0.5441591230891565  0.7881582712368044
  0.8105202382545057  0.8813290413463070  0.8341979778426551
  0.8128404064119279  0.7140983948228274  0.8758370302313173
  0.5629535173852296  0.2083893430926023  0.6109604681203783
  0.8158305382613875  0.0446939778345281  0.7881593396196070
 
  0.00000000E+00  0.00000000E+00  0.00000000E+00
  0.00000000E+00  0.00000000E+00  0.00000000E+00
  0.00000000E+00  0.00000000E+00  0.00000000E+00
  0.00000000E+00  0.00000000E+00  0.00000000E+00
  0.00000000E+00  0.00000000E+00  0.00000000E+00
  0.00000000E+00  0.00000000E+00  0.00000000E+00
  0.00000000E+00  0.00000000E+00  0.00000000E+00
  0.00000000E+00  0.00000000E+00  0.00000000E+00
  0.00000000E+00  0.00000000E+00  0.00000000E+00
  0.00000000E+00  0.00000000E+00  0.00000000E+00
  0.00000000E+00  0.00000000E+00  0.00000000E+00
  0.00000000E+00  0.00000000E+00  0.00000000E+00
  0.00000000E+00  0.00000000E+00  0.00000000E+00
  0.00000000E+00  0.00000000E+00  0.00000000E+00
  0.00000000E+00  0.00000000E+00  0.00000000E+00
  0.00000000E+00  0.00000000E+00  0.00000000E+00
  0.00000000E+00  0.00000000E+00  0.00000000E+00
  0.00000000E+00  0.00000000E+00  0.00000000E+00
  0.00000000E+00  0.00000000E+00  0.00000000E+00
  0.00000000E+00  0.00000000E+00  0.00000000E+00
  0.00000000E+00  0.00000000E+00  0.00000000E+00
  0.00000000E+00  0.00000000E+00  0.00000000E+00
  0.00000000E+00  0.00000000E+00  0.00000000E+00
  0.00000000E+00  0.00000000E+00  0.00000000E+00
  0.00000000E+00  0.00000000E+00  0.00000000E+00
  0.00000000E+00  0.00000000E+00  0.00000000E+00
  0.00000000E+00  0.00000000E+00  0.00000000E+00
  0.00000000E+00  0.00000000E+00  0.00000000E+00
  0.00000000E+00  0.00000000E+00  0.00000000E+00
  0.00000000E+00  0.00000000E+00  0.00000000E+00
  0.00000000E+00  0.00000000E+00  0.00000000E+00
  0.00000000E+00  0.00000000E+00  0.00000000E+00
  0.00000000E+00  0.00000000E+00  0.00000000E+00
  0.00000000E+00  0.00000000E+00  0.00000000E+00
  0.00000000E+00  0.00000000E+00  0.00000000E+00
  0.00000000E+00  0.00000000E+00  0.00000000E+00
  0.00000000E+00  0.00000000E+00  0.00000000E+00
  0.00000000E+00  0.00000000E+00  0.00000000E+00
  0.00000000E+00  0.00000000E+00  0.00000000E+00
  0.00000000E+00  0.00000000E+00  0.00000000E+00
  0.00000000E+00  0.00000000E+00  0.00000000E+00
  0.00000000E+00  0.00000000E+00  0.00000000E+00
  0.00000000E+00  0.00000000E+00  0.00000000E+00
  0.00000000E+00  0.00000000E+00  0.00000000E+00
  0.00000000E+00  0.00000000E+00  0.00000000E+00
  0.00000000E+00  0.00000000E+00  0.00000000E+00
  0.00000000E+00  0.00000000E+00  0.00000000E+00
  0.00000000E+00  0.00000000E+00  0.00000000E+00
  0.00000000E+00  0.00000000E+00  0.00000000E+00
  0.00000000E+00  0.00000000E+00  0.00000000E+00
  0.00000000E+00  0.00000000E+00  0.00000000E+00
  0.00000000E+00  0.00000000E+00  0.00000000E+00
  0.00000000E+00  0.00000000E+00  0.00000000E+00
  0.00000000E+00  0.00000000E+00  0.00000000E+00
  0.00000000E+00  0.00000000E+00  0.00000000E+00
  0.00000000E+00  0.00000000E+00  0.00000000E+00
  0.00000000E+00  0.00000000E+00  0.00000000E+00
  0.00000000E+00  0.00000000E+00  0.00000000E+00
  0.00000000E+00  0.00000000E+00  0.00000000E+00
  0.00000000E+00  0.00000000E+00  0.00000000E+00
  0.00000000E+00  0.00000000E+00  0.00000000E+00
  0.00000000E+00  0.00000000E+00  0.00000000E+00
  0.00000000E+00  0.00000000E+00  0.00000000E+00
  0.00000000E+00  0.00000000E+00  0.00000000E+00
  0.00000000E+00  0.00000000E+00  0.00000000E+00
  0.00000000E+00  0.00000000E+00  0.00000000E+00
  0.00000000E+00  0.00000000E+00  0.00000000E+00
  0.00000000E+00  0.00000000E+00  0.00000000E+00
  0.00000000E+00  0.00000000E+00  0.00000000E+00
  0.00000000E+00  0.00000000E+00  0.00000000E+00
  0.00000000E+00  0.00000000E+00  0.00000000E+00
  0.00000000E+00  0.00000000E+00  0.00000000E+00
  0.00000000E+00  0.00000000E+00  0.00000000E+00
  0.00000000E+00  0.00000000E+00  0.00000000E+00
  0.00000000E+00  0.00000000E+00  0.00000000E+00
  0.00000000E+00  0.00000000E+00  0.00000000E+00
  0.00000000E+00  0.00000000E+00  0.00000000E+00
  0.00000000E+00  0.00000000E+00  0.00000000E+00
  0.00000000E+00  0.00000000E+00  0.00000000E+00
  0.00000000E+00  0.00000000E+00  0.00000000E+00
  0.00000000E+00  0.00000000E+00  0.00000000E+00
  0.00000000E+00  0.00000000E+00  0.00000000E+00
  0.00000000E+00  0.00000000E+00  0.00000000E+00
  0.00000000E+00  0.00000000E+00  0.00000000E+00
  0.00000000E+00  0.00000000E+00  0.00000000E+00
  0.00000000E+00  0.00000000E+00  0.00000000E+00
  0.00000000E+00  0.00000000E+00  0.00000000E+00
  0.00000000E+00  0.00000000E+00  0.00000000E+00
  0.00000000E+00  0.00000000E+00  0.00000000E+00
  0.00000000E+00  0.00000000E+00  0.00000000E+00
  0.00000000E+00  0.00000000E+00  0.00000000E+00
  0.00000000E+00  0.00000000E+00  0.00000000E+00
  0.00000000E+00  0.00000000E+00  0.00000000E+00
  0.00000000E+00  0.00000000E+00  0.00000000E+00
  0.00000000E+00  0.00000000E+00  0.00000000E+00
  0.00000000E+00  0.00000000E+00  0.00000000E+00
  0.00000000E+00  0.00000000E+00  0.00000000E+00
  0.00000000E+00  0.00000000E+00  0.00000000E+00
  0.00000000E+00  0.00000000E+00  0.00000000E+00
  0.00000000E+00  0.00000000E+00  0.00000000E+00
  0.00000000E+00  0.00000000E+00  0.00000000E+00
  0.00000000E+00  0.00000000E+00  0.00000000E+00
  0.00000000E+00  0.00000000E+00  0.00000000E+00
  0.00000000E+00  0.00000000E+00  0.00000000E+00
  0.00000000E+00  0.00000000E+00  0.00000000E+00
  0.00000000E+00  0.00000000E+00  0.00000000E+00
  0.00000000E+00  0.00000000E+00  0.00000000E+00
  0.00000000E+00  0.00000000E+00  0.00000000E+00
  0.00000000E+00  0.00000000E+00  0.00000000E+00
  0.00000000E+00  0.00000000E+00  0.00000000E+00
  0.00000000E+00  0.00000000E+00  0.00000000E+00
  0.00000000E+00  0.00000000E+00  0.00000000E+00
  0.00000000E+00  0.00000000E+00  0.00000000E+00
  0.00000000E+00  0.00000000E+00  0.00000000E+00
  0.00000000E+00  0.00000000E+00  0.00000000E+00
  0.00000000E+00  0.00000000E+00  0.00000000E+00
  0.00000000E+00  0.00000000E+00  0.00000000E+00
  0.00000000E+00  0.00000000E+00  0.00000000E+00
  0.00000000E+00  0.00000000E+00  0.00000000E+00
  0.00000000E+00  0.00000000E+00  0.00000000E+00
  0.00000000E+00  0.00000000E+00  0.00000000E+00
  0.00000000E+00  0.00000000E+00  0.00000000E+00
  0.00000000E+00  0.00000000E+00  0.00000000E+00
  0.00000000E+00  0.00000000E+00  0.00000000E+00
  0.00000000E+00  0.00000000E+00  0.00000000E+00
  0.00000000E+00  0.00000000E+00  0.00000000E+00
  0.00000000E+00  0.00000000E+00  0.00000000E+00
  0.00000000E+00  0.00000000E+00  0.00000000E+00
  0.00000000E+00  0.00000000E+00  0.00000000E+00
  0.00000000E+00  0.00000000E+00  0.00000000E+00
  0.00000000E+00  0.00000000E+00  0.00000000E+00
  0.00000000E+00  0.00000000E+00  0.00000000E+00
  0.00000000E+00  0.00000000E+00  0.00000000E+00
  0.00000000E+00  0.00000000E+00  0.00000000E+00
  0.00000000E+00  0.00000000E+00  0.00000000E+00
  0.00000000E+00  0.00000000E+00  0.00000000E+00
  0.00000000E+00  0.00000000E+00  0.00000000E+00
  0.00000000E+00  0.00000000E+00  0.00000000E+00
  0.00000000E+00  0.00000000E+00  0.00000000E+00
  0.00000000E+00  0.00000000E+00  0.00000000E+00
  0.00000000E+00  0.00000000E+00  0.00000000E+00
  0.00000000E+00  0.00000000E+00  0.00000000E+00
  0.00000000E+00  0.00000000E+00  0.00000000E+00
  0.00000000E+00  0.00000000E+00  0.00000000E+00
  0.00000000E+00  0.00000000E+00  0.00000000E+00
  0.00000000E+00  0.00000000E+00  0.00000000E+00
  0.00000000E+00  0.00000000E+00  0.00000000E+00
  0.00000000E+00  0.00000000E+00  0.00000000E+00
  0.00000000E+00  0.00000000E+00  0.00000000E+00
  0.00000000E+00  0.00000000E+00  0.00000000E+00
  0.00000000E+00  0.00000000E+00  0.00000000E+00
  0.00000000E+00  0.00000000E+00  0.00000000E+00
  0.00000000E+00  0.00000000E+00  0.00000000E+00
  0.00000000E+00  0.00000000E+00  0.00000000E+00
  0.00000000E+00  0.00000000E+00  0.00000000E+00
  0.00000000E+00  0.00000000E+00  0.00000000E+00
  0.00000000E+00  0.00000000E+00  0.00000000E+00
  0.00000000E+00  0.00000000E+00  0.00000000E+00
  0.00000000E+00  0.00000000E+00  0.00000000E+00
  0.00000000E+00  0.00000000E+00  0.00000000E+00
  0.00000000E+00  0.00000000E+00  0.00000000E+00
  0.00000000E+00  0.00000000E+00  0.00000000E+00
  0.00000000E+00  0.00000000E+00  0.00000000E+00
  0.00000000E+00  0.00000000E+00  0.00000000E+00
  0.00000000E+00  0.00000000E+00  0.00000000E+00
  0.00000000E+00  0.00000000E+00  0.00000000E+00
  0.00000000E+00  0.00000000E+00  0.00000000E+00
  0.00000000E+00  0.00000000E+00  0.00000000E+00
  0.00000000E+00  0.00000000E+00  0.00000000E+00
  0.00000000E+00  0.00000000E+00  0.00000000E+00
  0.00000000E+00  0.00000000E+00  0.00000000E+00
  0.00000000E+00  0.00000000E+00  0.00000000E+00
  0.00000000E+00  0.00000000E+00  0.00000000E+00
  0.00000000E+00  0.00000000E+00  0.00000000E+00
  0.00000000E+00  0.00000000E+00  0.00000000E+00
  0.00000000E+00  0.00000000E+00  0.00000000E+00
  0.00000000E+00  0.00000000E+00  0.00000000E+00
  0.00000000E+00  0.00000000E+00  0.00000000E+00
  0.00000000E+00  0.00000000E+00  0.00000000E+00
  0.00000000E+00  0.00000000E+00  0.00000000E+00
  0.00000000E+00  0.00000000E+00  0.00000000E+00
  0.00000000E+00  0.00000000E+00  0.00000000E+00
  0.00000000E+00  0.00000000E+00  0.00000000E+00
  0.00000000E+00  0.00000000E+00  0.00000000E+00
  0.00000000E+00  0.00000000E+00  0.00000000E+00
  0.00000000E+00  0.00000000E+00  0.00000000E+00
  0.00000000E+00  0.00000000E+00  0.00000000E+00
  0.00000000E+00  0.00000000E+00  0.00000000E+00
  0.00000000E+00  0.00000000E+00  0.00000000E+00
  0.00000000E+00  0.00000000E+00  0.00000000E+00
  0.00000000E+00  0.00000000E+00  0.00000000E+00
  0.00000000E+00  0.00000000E+00  0.00000000E+00
  0.00000000E+00  0.00000000E+00  0.00000000E+00
  0.00000000E+00  0.00000000E+00  0.00000000E+00
  0.00000000E+00  0.00000000E+00  0.00000000E+00
  0.00000000E+00  0.00000000E+00  0.00000000E+00
  0.00000000E+00  0.00000000E+00  0.00000000E+00
  0.00000000E+00  0.00000000E+00  0.00000000E+00
  0.00000000E+00  0.00000000E+00  0.00000000E+00
  0.00000000E+00  0.00000000E+00  0.00000000E+00
  0.00000000E+00  0.00000000E+00  0.00000000E+00
  0.00000000E+00  0.00000000E+00  0.00000000E+00
  0.00000000E+00  0.00000000E+00  0.00000000E+00
  0.00000000E+00  0.00000000E+00  0.00000000E+00
  0.00000000E+00  0.00000000E+00  0.00000000E+00
  0.00000000E+00  0.00000000E+00  0.00000000E+00
  0.00000000E+00  0.00000000E+00  0.00000000E+00
  0.00000000E+00  0.00000000E+00  0.00000000E+00
  0.00000000E+00  0.00000000E+00  0.00000000E+00
  0.00000000E+00  0.00000000E+00  0.00000000E+00
  0.00000000E+00  0.00000000E+00  0.00000000E+00
  0.00000000E+00  0.00000000E+00  0.00000000E+00
  0.00000000E+00  0.00000000E+00  0.00000000E+00
  0.00000000E+00  0.00000000E+00  0.00000000E+00
  0.00000000E+00  0.00000000E+00  0.00000000E+00
  0.00000000E+00  0.00000000E+00  0.00000000E+00
  0.00000000E+00  0.00000000E+00  0.00000000E+00
  0.00000000E+00  0.00000000E+00  0.00000000E+00
  0.00000000E+00  0.00000000E+00  0.00000000E+00
  0.00000000E+00  0.00000000E+00  0.00000000E+00
  0.00000000E+00  0.00000000E+00  0.00000000E+00
  0.00000000E+00  0.00000000E+00  0.00000000E+00
  0.00000000E+00  0.00000000E+00  0.00000000E+00
  0.00000000E+00  0.00000000E+00  0.00000000E+00
  0.00000000E+00  0.00000000E+00  0.00000000E+00
  0.00000000E+00  0.00000000E+00  0.00000000E+00
  0.00000000E+00  0.00000000E+00  0.00000000E+00
  0.00000000E+00  0.00000000E+00  0.00000000E+00
  0.00000000E+00  0.00000000E+00  0.00000000E+00
  0.00000000E+00  0.00000000E+00  0.00000000E+00
  0.00000000E+00  0.00000000E+00  0.00000000E+00
  0.00000000E+00  0.00000000E+00  0.00000000E+00
  0.00000000E+00  0.00000000E+00  0.00000000E+00
  0.00000000E+00  0.00000000E+00  0.00000000E+00
  0.00000000E+00  0.00000000E+00  0.00000000E+00
  0.00000000E+00  0.00000000E+00  0.00000000E+00
  0.00000000E+00  0.00000000E+00  0.00000000E+00
  0.00000000E+00  0.00000000E+00  0.00000000E+00
  0.00000000E+00  0.00000000E+00  0.00000000E+00
  0.00000000E+00  0.00000000E+00  0.00000000E+00
  0.00000000E+00  0.00000000E+00  0.00000000E+00
  0.00000000E+00  0.00000000E+00  0.00000000E+00
  0.00000000E+00  0.00000000E+00  0.00000000E+00
  0.00000000E+00  0.00000000E+00  0.00000000E+00
  0.00000000E+00  0.00000000E+00  0.00000000E+00
  0.00000000E+00  0.00000000E+00  0.00000000E+00
  0.00000000E+00  0.00000000E+00  0.00000000E+00