CuInSe2gb                               
   1.00000000000000     
     9.7266780392896699    0.0000000000000000    0.0000000000000000
     0.0000000000000000    8.4235502764570693    0.0000000000000000
     0.0000000000000000    0.0000000000000000   45.0000000000000000
   Fe   Mn
   281     7
Direct
  0.0615886363082860  0.7093244821762262  0.2118798224206828
  0.3137443806478883  0.7185950103854698  0.8760262056319799
  0.6874194167891731  0.9585430224386738  0.6107219068103283
  0.4388384695962680  0.4593253791728364  0.6110219598166051
  0.4380104257470497  0.2923791501100744  0.2559157183561390
  0.0616479366910790  0.3834299870728459  0.8331888780058855
  0.3105476749332294  0.8830933068600699  0.8328120835174525
  0.4441114478523768  0.6258436075616498  0.6999717578435378
  0.0595537357731746  0.2096395938983337  0.7445936619571966
  0.1855542041840931  0.4577277152590463  0.2115633111527792
  0.5640910065820415  0.2073829615367386  0.4774605210063920
  0.0625573865529926  0.8743755043770736  0.5666497316026610
  0.5625372270937546  0.2180589175187617  0.8757551615528135
  0.8119995346956886  0.5391303697485298  0.1246306959349982
  0.4352748321148970  0.9577053923697184  0.2115023118109399
  0.5628939950204909  0.3737995972342972  0.5665107857024470
  0.8124916214482483  0.0417971612958590  0.3889045123562936
  0.6865161364696415  0.7910925882016142  0.5220749507940031
  0.4393708374192317  0.4571701644467667  0.4775119681417526
  0.4349749774186925  0.9603428506462177  0.7444866637751623
  0.4380428920877433  0.6239899907199069  0.5665182619538994
  0.0624881427772662  0.5394910767982828  0.1246177789880926
  0.3113902536799080  0.0380987628101253  0.1246269222702765
  0.6882711480493152  0.9548712079577384  0.3446937793881907
  0.6865690923494789  0.7830091332123545  0.1244941919056364
  0.0593833595745910  0.3754354903752282  0.3000703678805920
  0.6870927635833726  0.4573986925447369  0.8759072712000683
  0.4350608836145725  0.4579314523118717  0.2115443883178312
  0.8120642652359117  0.3755815261167375  0.4334024031534301
  0.8190932964129164  0.3751997938635859  0.6996317555331785
  0.5605140162741987  0.5434128631349684  0.6552396291119686
  0.9372265877639572  0.1256599636306656  0.4334671802512794
  0.5633565411414229  0.5412385135459951  0.2557391436126631
  0.6882238402253089  0.4552581327587817  0.3445706510613015
  0.1872685482757968  0.6165506237823558  0.1668751639999565
  0.1890323888598550  0.7915539722614027  0.7884063347502425
  0.4451042773314025  0.1260000831467046  0.6998374607931122
  0.9344853552595961  0.6257033809556090  0.3000332632545064
  0.3138538046990875  0.2172818277099883  0.8756146945876341
  0.3125399207561454  0.8741166368190447  0.5666417711743306
  0.8134280436670289  0.2167580938120665  0.8758971147811333
  0.8108873571760343  0.5434915723884971  0.6554460442215332
  0.5619754083639226  0.5398690767079131  0.1245175518600280
  0.5626422735284718  0.8659330576917713  0.1667953863884009
  0.1877080642906871  0.2917762585811263  0.2558800563415602
  0.8107334712194311  0.8748040910783145  0.4331335273735354
  0.5694109963768476  0.3754489304255306  0.6997268965038330
  0.0617361323823955  0.0382950707063313  0.1245625127686512
  0.3098040348386547  0.5439532453082430  0.6550992380816479
  0.5645906051002940  0.2055276037480182  0.3447578544048436
  0.1883233072991339  0.9580076275450297  0.6108130898724881
  0.3094481209062463  0.3756059838782644  0.3000250198876984
  0.4358876530310204  0.7943623823441414  0.6553326918698834
  0.6837721605237320  0.4607284523532572  0.7440051055945844
  0.0627797219999807  0.3664589329755654  0.1668205664849365
  0.6952712387100430  0.6250824780273017  0.6995818217992079
  0.3125558823884804  0.5418612450467923  0.3888456844536894
  0.0665510801278580  0.7181113323275952  0.8755539625418863
  0.9343702875254902  0.6352367730052659  0.8340129890032044
  0.3155705044335272  0.5417825739938104  0.7885580306529950
  0.3109230182063307  0.2086697121482764  0.2117022818515634
  0.0645752053402726  0.7075691268208711  0.4776528272921950
  0.5610739327176376  0.2089598402991371  0.2117209941613970
  0.3079479338041338  0.2100990194460599  0.7441121024046190
  0.0695746921067767  0.3753716198348333  0.7000177661974621
  0.1858665080241100  0.6326442230324993  0.8327612073812581
  0.0651794216357291  0.0418687230117623  0.7882671860095756
  0.4379167655012701  0.1247160777142674  0.5664912024402096
  0.9348445910414579  0.2937807048554277  0.6551165279813500
  0.8112777422830352  0.2092090241815252  0.2118110441782948
  0.9356425384773548  0.9576649542755025  0.2114921672933820
  0.9373796265949825  0.6241496834415845  0.5666663125825986
  0.8099483640123605  0.3844790125805843  0.8338176480218661
  0.1952689118816731  0.6252152702466115  0.6996770683838897
  0.5704202562217109  0.8750488362832014  0.6999106259792882
  0.6845487838687879  0.2940124111565265  0.6553396040734671
  0.3128520897471479  0.2082700411762118  0.6110691178921698
  0.4337675473374852  0.4617978692538867  0.7441192008746110
  0.4373157049955406  0.7918284563713107  0.3889484203287712
  0.6860640428006762  0.9617627261607476  0.7447340023544702
  0.8115259647842513  0.7095582810950661  0.2117745024663727
  0.8137524543001360  0.7081084544799346  0.6109955018885915
  0.4364635972538812  0.7827670925371885  0.1244015293758069
  0.3090383853713753  0.7098464567695845  0.7437997111106439
  0.3167783674019979  0.0407379686324158  0.7886154713915151
  0.8125580722532350  0.5416958121871536  0.3888296966745837
  0.6853933026880024  0.2914330980776061  0.5224758417616108
  0.6893271239681168  0.7910020428928212  0.7883314677892107
  0.1883597609397461  0.7915981032036720  0.2556256361865433
  0.6872555140004271  0.1164649723358358  0.1669628041074581
  0.6893181571715032  0.9578979246795725  0.4775507246823983
  0.9379346304134127  0.9553690360346436  0.3446058189977574
  0.8121935369934099  0.0403716919132448  0.5222036500471438
  0.6870612458374908  0.6246039224127908  0.4332351061732222
  0.4380210078055817  0.4552657257219885  0.3447141918347517
  0.8086039216478252  0.2096240839747027  0.7448899618144628
  0.4364101997963643  0.9597080269471684  0.8759013188954888
  0.5625105432017855  0.8747883363767627  0.5667636764490801
  0.8118216697649057  0.0388275192798594  0.1245317809069734
  0.4346502378308401  0.6257548636473763  0.3001445052468074
  0.5603107884844348  0.2106323173320718  0.7447385063635323
  0.6877077154397186  0.4580726156082333  0.6110107488399704
  0.5603227084546731  0.3828287012321575  0.8328794602737480
  0.8090089745370973  0.3760913414117646  0.3001015214983724
  0.1874228602557819  0.2919860788505048  0.3888105327569826
  0.8157467228744354  0.5429547820534006  0.7888597159746572
  0.1869131691018421  0.7907459259319587  0.5221572602664836
  0.3090056842031444  0.8753350557857403  0.3000814979190412
  0.1848124931098185  0.9577882538483243  0.2113827604068283
  0.1833259619227955  0.4600200539410872  0.7440496936569139
  0.4355274498912555  0.2914179447792638  0.5224038096367353
  0.0637546671579073  0.7050492132098650  0.3445305260293548
  0.1858713924001116  0.7952495202443771  0.6554855575841754
  0.4398858352401967  0.7918337654255246  0.7886045714105036
  0.6871649292535410  0.1255157383040113  0.4333909592050825
  0.9367228443684330  0.7911914483075748  0.5222610592832410
  0.6873378105191242  0.6161819230272914  0.1670726419422848
  0.8134102711573522  0.7048970921917831  0.3445698586580298
  0.9331602962591445  0.4594768366717511  0.7438630074952443
  0.1877043924906322  0.4549962948293367  0.3446917531701690
  0.5655287170095722  0.5420570496780630  0.7885699742868266
  0.5631142268527128  0.3662987149658739  0.1668995739215780
  0.5639385336402393  0.7052667611054564  0.3445660395122024
  0.5593715466278426  0.3755926196570633  0.3001658339414195
  0.1885348259244266  0.4603581911907770  0.8757128276813533
  0.1871680414258081  0.1164909320095001  0.1670040467344421
  0.4390254632401783  0.2919958583996162  0.7884449011804442
  0.6882425658519513  0.7916126094964353  0.2555725691187521
  0.9354047389945331  0.1336717635707242  0.8340498108405260
  0.4393392588305834  0.9578854488495667  0.4774823422726154
  0.5609349132952793  0.7176554852390642  0.8757950349875491
  0.1894437929249922  0.4576971975274763  0.4775017808957220
  0.9364063853583005  0.2829570068595425  0.1245107174018577
  0.3124224056609980  0.0420669698068191  0.3889516932389853
  0.0604192610211270  0.0440050494378219  0.6555155720837146
  0.5621196780208024  0.3753040438945929  0.4334564933636907
  0.9369571233436799  0.6254207353505364  0.4333156668760337
  0.3127103180990395  0.3657708008159610  0.1668954066844144
  0.9440013413160714  0.1234172855765216  0.6993476539497196
  0.5602873119088436  0.0442377158745053  0.6553087800438715
  0.5608202701589251  0.5417721238457089  0.5225012095076714
  0.1847958559376512  0.1253071594459439  0.2999291903016655
  0.4370006171109128  0.1166156117706281  0.1670016260960404
  0.6843780678792046  0.6259977180804214  0.3000234993362252
  0.9349129342676591  0.1252254903149453  0.2998625542159300
  0.8125743871720764  0.3740193314691491  0.5664595313780060
  0.0592782206511112  0.8756854026553799  0.3001413857003480
  0.1876835061049186  0.6242300467868369  0.5665359853687123
  0.9390827819060428  0.7916497251587332  0.7883346063612195
  0.3107787008710191  0.3826545181846090  0.8331838166581848
  0.9370030947872386  0.4585744104529246  0.8758058262742296
  0.4356879868209316  0.6330984449428403  0.8328983241132132
  0.0643680377383199  0.2051814330115603  0.3447962983139828
  0.1888371519487311  0.9591117090684015  0.8756558141725164
  0.9367898889218242  0.7831978183873131  0.1244378212170332
  0.6876528235725434  0.7916471078606000  0.3890517910861162
  0.9337803252445024  0.7937301510261832  0.6554689728008850
  0.9373977393507570  0.1165371175035627  0.1669694630158600
  0.4345412982123636  0.2944151437272579  0.6553614686095314
  0.0609642911338314  0.2093159548611537  0.2117582319799723
  0.6850761542000376  0.9579894730859152  0.2115026779246129
  0.5630328493111698  0.7084097441692024  0.6109665653024935
  0.8206491779377902  0.8749120120754453  0.6996760562133101
  0.9445865711159989  0.6244636641446324  0.6996182238721740
  0.1956053856837064  0.1252058926041113  0.6995603883595427
  0.9390042768352969  0.4577790184330380  0.4775127339574307
  0.8127665106254632  0.2078851544179799  0.6111355589378624
  0.1869117092563282  0.6253885275400013  0.4332628383964838
  0.4345278981734519  0.1256757721007971  0.2999405350287096
  0.6850543692506043  0.1253448587137168  0.2999926022988573
  0.5623570347151094  0.5416230271624906  0.3890152547226724
  0.8139044771956016  0.2054944098972131  0.3447066414471855
  0.4365697926784805  0.4604465778527745  0.8756793536073563
  0.5615086826914003  0.8825640668034612  0.8334748917004039
  0.3142148251936799  0.2076494426609766  0.4775251123913744
  0.1895268003281055  0.9581234174907307  0.4775180872733972
  0.0607698104691410  0.8820484281675968  0.8332451948898660
  0.0608370365610548  0.5407200401493317  0.5224449188321576
  0.9398261076843200  0.9581633293076696  0.4776459242124271
  0.0626143590578974  0.7081653527370020  0.6109919098079906
  0.5616988706312239  0.0406781711467233  0.5223209219042607
  0.6883992838193325  0.2917651912735563  0.7881237369877325
  0.8129653334103225  0.3659690980745681  0.1668764265000439
  0.4369092726518921  0.1258897147382360  0.4331192971915068
  0.0644075714076696  0.2077582016083775  0.4775450472224915
  0.3104428334675037  0.0445559537031077  0.6555514697281133
  0.4361646734222062  0.7906518709084992  0.5220767640331649
  0.1860874462048925  0.1348551200001392  0.8328670277436049
  0.1862665100382984  0.2828974501337376  0.1244401952302208
  0.9381311954714541  0.4546291508041281  0.3446075590046923
  0.3122865878951819  0.8657232601163350  0.1667523142577532
  0.3119688162686655  0.7089924925553714  0.2119739743096304
  0.9375948672602851  0.6161359352321492  0.1669361793152216
  0.1878923006574558  0.4586393924784186  0.6112034554071887
  0.0710353388767920  0.8747836183925810  0.6996496168208081
  0.0606619818251541  0.5445379044237160  0.6551592179358066
  0.3126261962187878  0.5388644962810464  0.1246620239675309
  0.9374281155547837  0.7918939989480187  0.3890192795905906
  0.9392773997862498  0.2922722723433908  0.7881581047943303
  0.1844728775104428  0.2939608787996882  0.6552887166304169
  0.9383283563905577  0.9582360536490608  0.6108299407936679
  0.8086176081214257  0.7103375537395097  0.7443523696708350
  0.6874210912461544  0.2921986899443597  0.2558126339387238
  0.0587333521371733  0.7099935419867273  0.7440478717411846
  0.6852683095632485  0.4575656294909737  0.2114995746341078
  0.8149019318848748  0.2075595689263124  0.4774870331620582
  0.5646365790138126  0.7076256826114767  0.4777109734401894
  0.0626402778637987  0.8659782298312515  0.1669419027908796
  0.9353831777800666  0.2920785571798301  0.5224882074601680
  0.6850316834042748  0.7934992724906251  0.6553801182315585
  0.0604227798741202  0.8745241475919782  0.4332363976469645
  0.0661688208063114  0.2163488013299173  0.8758527034654215
  0.8099956270050996  0.0454278701890526  0.6556257416200705
  0.5619841658962554  0.0383317578986677  0.1245593746029169
  0.3121742153417877  0.3752544365608413  0.4333755847891815
  0.3132712621104518  0.3735573462827187  0.5664683215341905
  0.3140629624621136  0.7078036921636560  0.4774936558321127
  0.0613333420612301  0.0406758950561076  0.5222708786211985
  0.3214249933548026  0.8748432313504197  0.6995453356493124
  0.0637195898830305  0.5413017143415645  0.2556333944637358
  0.6868343894142344  0.1339541132239597  0.8338274987834802
  0.8130447681444912  0.0422842068936541  0.2558480181928340
  0.1864282690059055  0.1252155854401693  0.4332789939157345
  0.6942927541904784  0.1248383874006524  0.6995940249798002
  0.1863763157021412  0.2914711095574827  0.5224125779214401
  0.4382583894634785  0.7916938856265778  0.2556696484086436
  0.8134772800615772  0.5417121235818744  0.2556289383763636
  0.0630832264419660  0.2085652903604728  0.6108631234358725
  0.1876744216987459  0.7918202137592802  0.3889594554449911
  0.3109138202603834  0.5416986839374522  0.5226277351559666
  0.8123246599851378  0.8666785000960725  0.1667323741212280
  0.6875973878003840  0.2913926142506095  0.3887054748959859
  0.1877950391939293  0.1244447195802685  0.5665600804038402
  0.6859606593032934  0.9613904758761659  0.8759485532834089
  0.6875856173445861  0.1244927212188010  0.5665855340297330
  0.4380739142125248  0.9555330015797193  0.3446264680190412
  0.1848813991471505  0.9607650271090796  0.7440908509363067
  0.9377660567440449  0.7917208374458448  0.2554332893242965
  0.5609191463956600  0.8751867211166150  0.4331359787266913
  0.3117142707855222  0.8750724310272114  0.4334114559322754
  0.8114707703976316  0.5408878478585654  0.5223353900058328
  0.9352928983889274  0.4577687990282837  0.2114493297251289
  0.3131082561315276  0.5412855310685694  0.2555848561506173
  0.5624573385176396  0.0415478043440371  0.3889789993813562
  0.9378515238404863  0.4582410775185935  0.6110460350491878
  0.0626490978457836  0.0416668045768954  0.3890052561952183
  0.0624622604409697  0.5419793296222409  0.3888376731292795
  0.4379226041507188  0.2912620749942021  0.3889421811144853
  0.6892095716329402  0.4582223883925443  0.4774360208300055
  0.0627025339079889  0.3736952493540298  0.5664213003368243
  0.5614985180708167  0.7090807233302235  0.2118618668267798
  0.9378915765801075  0.2920842946732503  0.2557832910081473
  0.1844761764204717  0.6258675306954373  0.3001747578144345
  0.1881206696226357  0.9551203011776190  0.3446731336467857
  0.5593816968796598  0.8753883884194684  0.3001861896907426
  0.0620240493279279  0.3751840952720482  0.4334409037714467
  0.3135614049951606  0.7047584258629380  0.3445596660829662
  0.3142209203886173  0.2051199089655275  0.3447268326656600
  0.9380999160787876  0.1239766634897380  0.5666320084070418
  0.4379768225039959  0.9582386046158847  0.6107717494338144
  0.5627855299271547  0.0424548206358948  0.2556810449048730
  0.1862917018785255  0.7830300075808717  0.1244212594476487
  0.0627742474996328  0.0422384090665581  0.2559550589508176
  0.6875666089586970  0.6245293369869226  0.5665736678035533
  0.4371753695534178  0.6164139546703187  0.1668847313747465
  0.3113186111594130  0.0405908439930316  0.5222887183361895
  0.6859287811252888  0.2825978394245068  0.1244500945071075
  0.8140223261313771  0.7079433779296765  0.4775523048237700
  0.4360292874982938  0.1331615993483626  0.8330783110620663
  0.3203241531360440  0.3742321042521703  0.6996699951005548
  0.6859349633973588  0.6346504492209158  0.8338527685943610
  0.5589857276230271  0.7110844247958071  0.7440590805567769
  0.9376994715313676  0.2912373046849230  0.3888264116283763
  0.9391725680161003  0.9592876332025214  0.8760781252946958
  0.9342217435614886  0.9577605170776262  0.7442137125879058
  0.8128511834472287  0.8739101438897434  0.5665862727357664
  0.8086257701590335  0.8766967021841741  0.3001726965363569
  0.3129569882859576  0.0419737695197800  0.2559896457349534
  0.4363526515346127  0.2826116572766318  0.1244450003776215
  0.3129191016339044  0.7082757606419776  0.6110446223590077
  0.4371749205160552  0.6256401676543080  0.4331456062053701
  0.1890812381062876  0.2927620376378065  0.7880053741158568
  0.5656201022490683  0.0413377659420224  0.7881542272506751
  0.0665533394718077  0.5429762247560090  0.7886060232308806
  0.8100632162605166  0.8828265979509928  0.8344805215525574
  0.8137015953918076  0.7182024130455383  0.8757103824981621
  0.5635505461964860  0.2065036635360358  0.6109037563132321
  0.8189440653265826  0.0449709516138311  0.7875743090811950
 
  0.00000000E+00  0.00000000E+00  0.00000000E+00
  0.00000000E+00  0.00000000E+00  0.00000000E+00
  0.00000000E+00  0.00000000E+00  0.00000000E+00
  0.00000000E+00  0.00000000E+00  0.00000000E+00
  0.00000000E+00  0.00000000E+00  0.00000000E+00
  0.00000000E+00  0.00000000E+00  0.00000000E+00
  0.00000000E+00  0.00000000E+00  0.00000000E+00
  0.00000000E+00  0.00000000E+00  0.00000000E+00
  0.00000000E+00  0.00000000E+00  0.00000000E+00
  0.00000000E+00  0.00000000E+00  0.00000000E+00
  0.00000000E+00  0.00000000E+00  0.00000000E+00
  0.00000000E+00  0.00000000E+00  0.00000000E+00
  0.00000000E+00  0.00000000E+00  0.00000000E+00
  0.00000000E+00  0.00000000E+00  0.00000000E+00
  0.00000000E+00  0.00000000E+00  0.00000000E+00
  0.00000000E+00  0.00000000E+00  0.00000000E+00
  0.00000000E+00  0.00000000E+00  0.00000000E+00
  0.00000000E+00  0.00000000E+00  0.00000000E+00
  0.00000000E+00  0.00000000E+00  0.00000000E+00
  0.00000000E+00  0.00000000E+00  0.00000000E+00
  0.00000000E+00  0.00000000E+00  0.00000000E+00
  0.00000000E+00  0.00000000E+00  0.00000000E+00
  0.00000000E+00  0.00000000E+00  0.00000000E+00
  0.00000000E+00  0.00000000E+00  0.00000000E+00
  0.00000000E+00  0.00000000E+00  0.00000000E+00
  0.00000000E+00  0.00000000E+00  0.00000000E+00
  0.00000000E+00  0.00000000E+00  0.00000000E+00
  0.00000000E+00  0.00000000E+00  0.00000000E+00
  0.00000000E+00  0.00000000E+00  0.00000000E+00
  0.00000000E+00  0.00000000E+00  0.00000000E+00
  0.00000000E+00  0.00000000E+00  0.00000000E+00
  0.00000000E+00  0.00000000E+00  0.00000000E+00
  0.00000000E+00  0.00000000E+00  0.00000000E+00
  0.00000000E+00  0.00000000E+00  0.00000000E+00
  0.00000000E+00  0.00000000E+00  0.00000000E+00
  0.00000000E+00  0.00000000E+00  0.00000000E+00
  0.00000000E+00  0.00000000E+00  0.00000000E+00
  0.00000000E+00  0.00000000E+00  0.00000000E+00
  0.00000000E+00  0.00000000E+00  0.00000000E+00
  0.00000000E+00  0.00000000E+00  0.00000000E+00
  0.00000000E+00  0.00000000E+00  0.00000000E+00
  0.00000000E+00  0.00000000E+00  0.00000000E+00
  0.00000000E+00  0.00000000E+00  0.00000000E+00
  0.00000000E+00  0.00000000E+00  0.00000000E+00
  0.00000000E+00  0.00000000E+00  0.00000000E+00
  0.00000000E+00  0.00000000E+00  0.00000000E+00
  0.00000000E+00  0.00000000E+00  0.00000000E+00
  0.00000000E+00  0.00000000E+00  0.00000000E+00
  0.00000000E+00  0.00000000E+00  0.00000000E+00
  0.00000000E+00  0.00000000E+00  0.00000000E+00
  0.00000000E+00  0.00000000E+00  0.00000000E+00
  0.00000000E+00  0.00000000E+00  0.00000000E+00
  0.00000000E+00  0.00000000E+00  0.00000000E+00
  0.00000000E+00  0.00000000E+00  0.00000000E+00
  0.00000000E+00  0.00000000E+00  0.00000000E+00
  0.00000000E+00  0.00000000E+00  0.00000000E+00
  0.00000000E+00  0.00000000E+00  0.00000000E+00
  0.00000000E+00  0.00000000E+00  0.00000000E+00
  0.00000000E+00  0.00000000E+00  0.00000000E+00
  0.00000000E+00  0.00000000E+00  0.00000000E+00
  0.00000000E+00  0.00000000E+00  0.00000000E+00
  0.00000000E+00  0.00000000E+00  0.00000000E+00
  0.00000000E+00  0.00000000E+00  0.00000000E+00
  0.00000000E+00  0.00000000E+00  0.00000000E+00
  0.00000000E+00  0.00000000E+00  0.00000000E+00
  0.00000000E+00  0.00000000E+00  0.00000000E+00
  0.00000000E+00  0.00000000E+00  0.00000000E+00
  0.00000000E+00  0.00000000E+00  0.00000000E+00
  0.00000000E+00  0.00000000E+00  0.00000000E+00
  0.00000000E+00  0.00000000E+00  0.00000000E+00
  0.00000000E+00  0.00000000E+00  0.00000000E+00
  0.00000000E+00  0.00000000E+00  0.00000000E+00
  0.00000000E+00  0.00000000E+00  0.00000000E+00
  0.00000000E+00  0.00000000E+00  0.00000000E+00
  0.00000000E+00  0.00000000E+00  0.00000000E+00
  0.00000000E+00  0.00000000E+00  0.00000000E+00
  0.00000000E+00  0.00000000E+00  0.00000000E+00
  0.00000000E+00  0.00000000E+00  0.00000000E+00
  0.00000000E+00  0.00000000E+00  0.00000000E+00
  0.00000000E+00  0.00000000E+00  0.00000000E+00
  0.00000000E+00  0.00000000E+00  0.00000000E+00
  0.00000000E+00  0.00000000E+00  0.00000000E+00
  0.00000000E+00  0.00000000E+00  0.00000000E+00
  0.00000000E+00  0.00000000E+00  0.00000000E+00
  0.00000000E+00  0.00000000E+00  0.00000000E+00
  0.00000000E+00  0.00000000E+00  0.00000000E+00
  0.00000000E+00  0.00000000E+00  0.00000000E+00
  0.00000000E+00  0.00000000E+00  0.00000000E+00
  0.00000000E+00  0.00000000E+00  0.00000000E+00
  0.00000000E+00  0.00000000E+00  0.00000000E+00
  0.00000000E+00  0.00000000E+00  0.00000000E+00
  0.00000000E+00  0.00000000E+00  0.00000000E+00
  0.00000000E+00  0.00000000E+00  0.00000000E+00
  0.00000000E+00  0.00000000E+00  0.00000000E+00
  0.00000000E+00  0.00000000E+00  0.00000000E+00
  0.00000000E+00  0.00000000E+00  0.00000000E+00
  0.00000000E+00  0.00000000E+00  0.00000000E+00
  0.00000000E+00  0.00000000E+00  0.00000000E+00
  0.00000000E+00  0.00000000E+00  0.00000000E+00
  0.00000000E+00  0.00000000E+00  0.00000000E+00
  0.00000000E+00  0.00000000E+00  0.00000000E+00
  0.00000000E+00  0.00000000E+00  0.00000000E+00
  0.00000000E+00  0.00000000E+00  0.00000000E+00
  0.00000000E+00  0.00000000E+00  0.00000000E+00
  0.00000000E+00  0.00000000E+00  0.00000000E+00
  0.00000000E+00  0.00000000E+00  0.00000000E+00
  0.00000000E+00  0.00000000E+00  0.00000000E+00
  0.00000000E+00  0.00000000E+00  0.00000000E+00
  0.00000000E+00  0.00000000E+00  0.00000000E+00
  0.00000000E+00  0.00000000E+00  0.00000000E+00
  0.00000000E+00  0.00000000E+00  0.00000000E+00
  0.00000000E+00  0.00000000E+00  0.00000000E+00
  0.00000000E+00  0.00000000E+00  0.00000000E+00
  0.00000000E+00  0.00000000E+00  0.00000000E+00
  0.00000000E+00  0.00000000E+00  0.00000000E+00
  0.00000000E+00  0.00000000E+00  0.00000000E+00
  0.00000000E+00  0.00000000E+00  0.00000000E+00
  0.00000000E+00  0.00000000E+00  0.00000000E+00
  0.00000000E+00  0.00000000E+00  0.00000000E+00
  0.00000000E+00  0.00000000E+00  0.00000000E+00
  0.00000000E+00  0.00000000E+00  0.00000000E+00
  0.00000000E+00  0.00000000E+00  0.00000000E+00
  0.00000000E+00  0.00000000E+00  0.00000000E+00
  0.00000000E+00  0.00000000E+00  0.00000000E+00
  0.00000000E+00  0.00000000E+00  0.00000000E+00
  0.00000000E+00  0.00000000E+00  0.00000000E+00
  0.00000000E+00  0.00000000E+00  0.00000000E+00
  0.00000000E+00  0.00000000E+00  0.00000000E+00
  0.00000000E+00  0.00000000E+00  0.00000000E+00
  0.00000000E+00  0.00000000E+00  0.00000000E+00
  0.00000000E+00  0.00000000E+00  0.00000000E+00
  0.00000000E+00  0.00000000E+00  0.00000000E+00
  0.00000000E+00  0.00000000E+00  0.00000000E+00
  0.00000000E+00  0.00000000E+00  0.00000000E+00
  0.00000000E+00  0.00000000E+00  0.00000000E+00
  0.00000000E+00  0.00000000E+00  0.00000000E+00
  0.00000000E+00  0.00000000E+00  0.00000000E+00
  0.00000000E+00  0.00000000E+00  0.00000000E+00
  0.00000000E+00  0.00000000E+00  0.00000000E+00
  0.00000000E+00  0.00000000E+00  0.00000000E+00
  0.00000000E+00  0.00000000E+00  0.00000000E+00
  0.00000000E+00  0.00000000E+00  0.00000000E+00
  0.00000000E+00  0.00000000E+00  0.00000000E+00
  0.00000000E+00  0.00000000E+00  0.00000000E+00
  0.00000000E+00  0.00000000E+00  0.00000000E+00
  0.00000000E+00  0.00000000E+00  0.00000000E+00
  0.00000000E+00  0.00000000E+00  0.00000000E+00
  0.00000000E+00  0.00000000E+00  0.00000000E+00
  0.00000000E+00  0.00000000E+00  0.00000000E+00
  0.00000000E+00  0.00000000E+00  0.00000000E+00
  0.00000000E+00  0.00000000E+00  0.00000000E+00
  0.00000000E+00  0.00000000E+00  0.00000000E+00
  0.00000000E+00  0.00000000E+00  0.00000000E+00
  0.00000000E+00  0.00000000E+00  0.00000000E+00
  0.00000000E+00  0.00000000E+00  0.00000000E+00
  0.00000000E+00  0.00000000E+00  0.00000000E+00
  0.00000000E+00  0.00000000E+00  0.00000000E+00
  0.00000000E+00  0.00000000E+00  0.00000000E+00
  0.00000000E+00  0.00000000E+00  0.00000000E+00
  0.00000000E+00  0.00000000E+00  0.00000000E+00
  0.00000000E+00  0.00000000E+00  0.00000000E+00
  0.00000000E+00  0.00000000E+00  0.00000000E+00
  0.00000000E+00  0.00000000E+00  0.00000000E+00
  0.00000000E+00  0.00000000E+00  0.00000000E+00
  0.00000000E+00  0.00000000E+00  0.00000000E+00
  0.00000000E+00  0.00000000E+00  0.00000000E+00
  0.00000000E+00  0.00000000E+00  0.00000000E+00
  0.00000000E+00  0.00000000E+00  0.00000000E+00
  0.00000000E+00  0.00000000E+00  0.00000000E+00
  0.00000000E+00  0.00000000E+00  0.00000000E+00
  0.00000000E+00  0.00000000E+00  0.00000000E+00
  0.00000000E+00  0.00000000E+00  0.00000000E+00
  0.00000000E+00  0.00000000E+00  0.00000000E+00
  0.00000000E+00  0.00000000E+00  0.00000000E+00
  0.00000000E+00  0.00000000E+00  0.00000000E+00
  0.00000000E+00  0.00000000E+00  0.00000000E+00
  0.00000000E+00  0.00000000E+00  0.00000000E+00
  0.00000000E+00  0.00000000E+00  0.00000000E+00
  0.00000000E+00  0.00000000E+00  0.00000000E+00
  0.00000000E+00  0.00000000E+00  0.00000000E+00
  0.00000000E+00  0.00000000E+00  0.00000000E+00
  0.00000000E+00  0.00000000E+00  0.00000000E+00
  0.00000000E+00  0.00000000E+00  0.00000000E+00
  0.00000000E+00  0.00000000E+00  0.00000000E+00
  0.00000000E+00  0.00000000E+00  0.00000000E+00
  0.00000000E+00  0.00000000E+00  0.00000000E+00
  0.00000000E+00  0.00000000E+00  0.00000000E+00
  0.00000000E+00  0.00000000E+00  0.00000000E+00
  0.00000000E+00  0.00000000E+00  0.00000000E+00
  0.00000000E+00  0.00000000E+00  0.00000000E+00
  0.00000000E+00  0.00000000E+00  0.00000000E+00
  0.00000000E+00  0.00000000E+00  0.00000000E+00
  0.00000000E+00  0.00000000E+00  0.00000000E+00
  0.00000000E+00  0.00000000E+00  0.00000000E+00
  0.00000000E+00  0.00000000E+00  0.00000000E+00
  0.00000000E+00  0.00000000E+00  0.00000000E+00
  0.00000000E+00  0.00000000E+00  0.00000000E+00
  0.00000000E+00  0.00000000E+00  0.00000000E+00
  0.00000000E+00  0.00000000E+00  0.00000000E+00
  0.00000000E+00  0.00000000E+00  0.00000000E+00
  0.00000000E+00  0.00000000E+00  0.00000000E+00
  0.00000000E+00  0.00000000E+00  0.00000000E+00
  0.00000000E+00  0.00000000E+00  0.00000000E+00
  0.00000000E+00  0.00000000E+00  0.00000000E+00
  0.00000000E+00  0.00000000E+00  0.00000000E+00
  0.00000000E+00  0.00000000E+00  0.00000000E+00
  0.00000000E+00  0.00000000E+00  0.00000000E+00
  0.00000000E+00  0.00000000E+00  0.00000000E+00
  0.00000000E+00  0.00000000E+00  0.00000000E+00
  0.00000000E+00  0.00000000E+00  0.00000000E+00
  0.00000000E+00  0.00000000E+00  0.00000000E+00
  0.00000000E+00  0.00000000E+00  0.00000000E+00
  0.00000000E+00  0.00000000E+00  0.00000000E+00
  0.00000000E+00  0.00000000E+00  0.00000000E+00
  0.00000000E+00  0.00000000E+00  0.00000000E+00
  0.00000000E+00  0.00000000E+00  0.00000000E+00
  0.00000000E+00  0.00000000E+00  0.00000000E+00
  0.00000000E+00  0.00000000E+00  0.00000000E+00
  0.00000000E+00  0.00000000E+00  0.00000000E+00
  0.00000000E+00  0.00000000E+00  0.00000000E+00
  0.00000000E+00  0.00000000E+00  0.00000000E+00
  0.00000000E+00  0.00000000E+00  0.00000000E+00
  0.00000000E+00  0.00000000E+00  0.00000000E+00
  0.00000000E+00  0.00000000E+00  0.00000000E+00
  0.00000000E+00  0.00000000E+00  0.00000000E+00
  0.00000000E+00  0.00000000E+00  0.00000000E+00
  0.00000000E+00  0.00000000E+00  0.00000000E+00
  0.00000000E+00  0.00000000E+00  0.00000000E+00
  0.00000000E+00  0.00000000E+00  0.00000000E+00
  0.00000000E+00  0.00000000E+00  0.00000000E+00
  0.00000000E+00  0.00000000E+00  0.00000000E+00
  0.00000000E+00  0.00000000E+00  0.00000000E+00
  0.00000000E+00  0.00000000E+00  0.00000000E+00
  0.00000000E+00  0.00000000E+00  0.00000000E+00
  0.00000000E+00  0.00000000E+00  0.00000000E+00
  0.00000000E+00  0.00000000E+00  0.00000000E+00
  0.00000000E+00  0.00000000E+00  0.00000000E+00
  0.00000000E+00  0.00000000E+00  0.00000000E+00
  0.00000000E+00  0.00000000E+00  0.00000000E+00
  0.00000000E+00  0.00000000E+00  0.00000000E+00
  0.00000000E+00  0.00000000E+00  0.00000000E+00
  0.00000000E+00  0.00000000E+00  0.00000000E+00
  0.00000000E+00  0.00000000E+00  0.00000000E+00
  0.00000000E+00  0.00000000E+00  0.00000000E+00
  0.00000000E+00  0.00000000E+00  0.00000000E+00
  0.00000000E+00  0.00000000E+00  0.00000000E+00
  0.00000000E+00  0.00000000E+00  0.00000000E+00