FeMn_288_15                             
    1.000000000000000     
     9.7266779999999997    0.0000000000000000    0.0000000000000000
     0.0000000000000000    8.4235500000000005    0.0000000000000000
     0.0000000000000000    0.0000000000000000   45.0000000000000000
   Fe   Mn
   273    15
Direct
  0.8125352364691683  0.2020844908223836  0.3445654573900868
  0.0625096951109682  0.6975438376413514  0.2112334863965568
  0.5624701459052338  0.6973243631131135  0.2112061270123942
  0.4383684520108995  0.8007362993845027  0.8763816124886540
  0.6876494210955382  0.6226878071867022  0.5213676831323334
  0.1877006284725443  0.2991778461372747  0.8763678762116032
  0.5623819996748951  0.2063338948804719  0.5655762803760651
  0.9372283823868031  0.1222121681323444  0.5214000399753982
  0.0625181151202079  0.5282448952251944  0.1241832246923944
  0.5626312908310036  0.3674817149138342  0.2997885503324709
  0.4368715641102746  0.6254758093723944  0.6552633043649343
  0.8121273677408691  0.3708560896240994  0.4339051630727589
  0.0629198045747417  0.7158775113578656  0.8344035943877298
  0.0625280182885477  0.2047591539571388  0.4782918843574644
  0.9375616722287438  0.9656981304018085  0.8343952262142079
  0.0625912305217103  0.8674163978403361  0.2997887986673365
  0.9378205682466288  0.7913879857859806  0.6108624315773065
  0.3126497988256586  0.0450795209739110  0.7446043412219763
  0.5629082924279668  0.8717017613825434  0.4340340986781884
  0.0624638812673589  0.2024910189621938  0.3446167421461824
  0.5620169600525838  0.3802875393588967  0.7891005904836883
  0.8126750843338099  0.0499536406948316  0.8764653868667051
  0.5630219022252962  0.3707170058027691  0.4338739469880163
  0.9374946855751858  0.6121489459419865  0.1661220950306209
  0.3125304437661863  0.5322769492508678  0.2555294230872229
  0.9372589042525057  0.1120965671136817  0.1662845694277219
  0.0626772419953504  0.8711499911316538  0.4338971692305438
  0.1881888646749963  0.4660843293640805  0.8345244091635134
  0.4374080435280150  0.9551668890540285  0.4781423149694725
  0.1876248596543629  0.9647907272770841  0.8342436093210506
  0.6873461002071586  0.9474654721426556  0.2112038738836763
  0.3118936473194429  0.7053161439279475  0.4781789606582761
  0.5625821958328744  0.0418512187476598  0.6107796827441863
  0.3124596452977501  0.7066308492678178  0.5655741155619863
  0.9374356404155729  0.2781643761821791  0.1241539342085271
  0.3136963784751862  0.0497473773010036  0.8763601920176473
  0.3127282666801642  0.3721028629949780  0.5214767463278290
  0.5627962855064377  0.8805431939920617  0.7891011338854149
  0.8122405091287322  0.8806229938277426  0.7890086625731856
  0.1875297179013891  0.9604821163040184  0.7000355086472221
  0.4373882227997530  0.7824479546712012  0.2554946258048590
  0.5624231127186411  0.5325390177881961  0.2555478572180064
  0.1871556594563125  0.4609570165334498  0.7002007594478327
  0.8123660927631383  0.8707642777611482  0.4339067768454209
  0.4376593864091944  0.4656023574291784  0.8340007486808984
  0.8121478057353380  0.7047008659137483  0.4781811234527256
  0.3125018960519018  0.8674831245293770  0.2997614881637423
  0.3122804668978563  0.2067427814172239  0.5657107377558683
  0.6874003048147447  0.1303787804958903  0.7891868634012670
  0.5623673608410190  0.5363777605867824  0.3888806002428475
  0.8125091081042379  0.6977535015345178  0.2111953701527648
  0.3125236603641853  0.8616855673976637  0.1663645996750966
  0.9375694703267228  0.2867425288235939  0.3888508121526337
  0.8126009840234502  0.8674199492302344  0.2998371020431285
  0.4375459231992568  0.9602217989757520  0.7001724064438866
  0.6871840587530497  0.7782520646791018  0.1241666884240166
  0.5624727400794705  0.5456966672546377  0.7447992326058600
  0.9375358384531538  0.7867168956994328  0.3888784923857906
  0.1874697097542639  0.4472206465391422  0.2112306437631354
  0.8124564396191520  0.5323761510799423  0.2555021524582380
  0.3122684150446133  0.0412019355158176  0.6107938974751042
  0.1878649936058971  0.9552153328669543  0.4781868001661552
  0.0623110043782614  0.7108944391307715  0.7002563442704487
  0.0625117617747444  0.2108382086687231  0.7000936015409890
  0.9373664758695115  0.2983026717018521  0.8764043358326371
  0.6882127193915453  0.4555218777831921  0.4781706566735226
  0.8124906040453109  0.0454789384938811  0.7448211565326638
  0.4376996916213415  0.9471603752855074  0.2112320021482912
  0.1873968221494251  0.1174586567113682  0.2997017383486857
  0.4374057004949750  0.9521184773421676  0.3446349247425470
  0.6876583682938268  0.1230849105213781  0.5213339765363254
  0.0633412637061158  0.5491922638963792  0.8763655223778672
  0.5627527157336274  0.7048848606367561  0.4781693743491079
  0.3125182006971869  0.6971783690224442  0.2112301594717717
  0.6874938460318888  0.6172979818814878  0.2997998210230485
  0.3126214967693974  0.2102892684115816  0.7001885568639269
  0.1873287930794030  0.1217317910327864  0.4339048004538957
  0.8125132761338797  0.0322971196339654  0.2555434215569595
  0.4375680080121910  0.1302082901108859  0.7891140123239038
  0.4372876502808776  0.4605497180269878  0.7003151444159239
  0.6875042102817029  0.6212395659839048  0.4340077552696308
  0.1874737878213762  0.6119810816604280  0.1663705648096448
  0.8125071769040227  0.7020628894249609  0.3445553292373773
  0.9371790906583283  0.1211680003127460  0.4338375128357260
  0.9379801254951847  0.1262865149345575  0.6553438837055329
  0.6877903890078719  0.9517978937848750  0.3445234318029009
  0.3125602271674632  0.3708696601746664  0.4337020650664649
  0.9367932228437819  0.4662304842778177  0.8342069606477858
  0.8122285027555847  0.3805386720508701  0.7892976778542284
  0.6876517974638705  0.4567881781507585  0.5655373225831081
  0.0629983764784807  0.2159634499750258  0.8340248099073949
  0.6865098903538603  0.7997973662975753  0.8763686697749539
  0.5625265849612174  0.7101576558329130  0.7003285503080429
  0.1876095498611269  0.9567770048186689  0.5655068068176325
  0.8126166005171161  0.8759504897748537  0.6552866404671274
  0.4368260606431040  0.9567514128228425  0.5654200074591601
  0.9380476316643744  0.9566262194861377  0.5653441160361170
  0.0622419791655444  0.8800088154338881  0.7890822516143671
  0.0627175773541073  0.7060876950669662  0.5654262159274017
  0.8122766220884380  0.0284301667775124  0.1241308658757098
  0.1877210366372377  0.7909692635342087  0.6107862540762597
  0.8122274048218696  0.8622135186744717  0.1662823227713610
  0.5624085672536088  0.0284758489777634  0.1241763614375771
  0.9375843612071175  0.1171411497586127  0.2997692467062540
  0.9374615232200023  0.4520560420670781  0.3445969820083507
  0.1872714094349274  0.4562818757128685  0.4781578304823383
  0.5626570106720558  0.7022413984976139  0.3445936681682560
  0.3125409749243092  0.5485635934665041  0.8763260440171236
  0.3124122912964116  0.5461892838733990  0.7447799422367849
  0.3124558035958581  0.2019127048135093  0.3444616544213705
  0.8123236779910222  0.5415137101735475  0.6108911702917997
  0.0625221506039364  0.0451599540151442  0.7446952122672192
  0.6876864587188016  0.1212815970662936  0.4340282872920139
  0.4373754095618603  0.1226454457690571  0.5211779070489663
  0.1877407780914053  0.6212646092038898  0.4338222398384401
  0.0622705916824055  0.0408384514055352  0.6108480969231088
  0.6877421171915257  0.2864039676847216  0.3887655869375622
  0.0626436300985997  0.0282223188024272  0.1241661332639427
  0.1878756150394166  0.1220694685758355  0.5215341940970795
  0.1877677765757268  0.2822368757045143  0.2555367948524568
  0.3123537476824543  0.8726210588039868  0.5212992102081293
  0.0626058054538637  0.5321277826013062  0.2554911955538499
  0.9375096780571288  0.4474377624486176  0.2112049892164907
  0.6872006421296644  0.2780466771514704  0.1241516478661941
  0.5625983553005917  0.2017597637312101  0.3445019210710769
  0.5623156518855259  0.8728294413970333  0.5213211689878168
  0.0618253269535988  0.0497299324889649  0.8764429288364239
  0.0624119142078119  0.3618502090763780  0.1663000620933406
  0.0625347008865171  0.2063507553922621  0.5655258907659859
  0.4374823925918476  0.1119853526941119  0.1663432697111344
  0.1878663002214988  0.7823688724111005  0.2555116186555808
  0.5622049851745030  0.2105899710798341  0.7002555346615388
  0.5620559129290006  0.0499143919446376  0.8764034349125723
  0.5621287769051875  0.5280412248915565  0.1241620089223085
  0.4368857775250509  0.7912092129837431  0.6107528601473906
  0.0625052312351493  0.7023080328666705  0.3444985832765276
  0.8127800104898401  0.2066937560554248  0.5654521280031183
  0.1875896690571948  0.1258787853551940  0.6551174438490830
  0.4375021701092993  0.4522536022016986  0.3445113087446240
  0.8125338386735704  0.2108578028891694  0.7000983667129076
  0.3125459426143656  0.8714099137019724  0.4340019673027603
  0.1874974258689133  0.2955496823936332  0.7449173051936105
  0.6873627919874421  0.2955602693790204  0.7447428235767105
  0.4374030135425401  0.2781537148676254  0.1241673998267604
  0.4374511348152772  0.6236749072472773  0.5212175818730795
  0.3124082826444578  0.3761055189538585  0.6553210137353732
  0.9378584560427967  0.6262064640714363  0.6551930884092416
  0.9371148134682549  0.6301076774568194  0.7890291607626370
  0.0626512774096668  0.3673302000553805  0.2998134606943805
  0.3128988954231585  0.3803762667296708  0.7890476985730362
  0.4372537891310615  0.6118008255255842  0.1662591169644987
  0.5626090889584772  0.2048281557944736  0.4781001540147478
  0.8122015225607301  0.1976087106135870  0.2111827259138916
  0.6873460697616666  0.4517707929801499  0.3445874898076123
  0.9375129714439935  0.6234278219082173  0.5212577633402445
  0.1876813143148102  0.9473565162691270  0.2112475724411177
  0.1876383727725821  0.4565898934816746  0.5656266470887134
  0.5624050627766896  0.1974046263773970  0.2112280398508625
  0.8124745408035337  0.2163456637003540  0.8342600503420416
  0.4373418209906478  0.7780314772849152  0.1241769989302869
  0.3121171156705477  0.7161955332838221  0.8342529841467707
  0.9375780193377227  0.9525164716656638  0.3445969006421785
  0.1871898678624575  0.7867198451676020  0.3888409467352832
  0.5624033206899899  0.0319462644902545  0.2554206589036673
  0.4373301539242901  0.1174267102991310  0.2997371228093901
  0.9375278408319236  0.1304094825276875  0.7890780028053511
  0.5625315989319798  0.5414454618882057  0.6109186808161390
  0.6875072302924038  0.2989192871635536  0.8763121249104499
  0.0625998611398559  0.1973168650716927  0.2112116329433802
  0.1876226540584672  0.4522177204084258  0.3445232300703409
  0.0629160405871689  0.3800087293777840  0.7889376272826180
  0.6869903055749049  0.7950509399342591  0.7447882246927701
  0.9376962262382298  0.2906914669911236  0.6108102120192100
  0.5626336002635232  0.8754201885048823  0.6552953820001671
  0.8117370422873325  0.3721736750040642  0.5214180102084718
  0.1872417654176555  0.9521411527703538  0.3444934028440067
  0.6874633694225796  0.7922478475174747  0.6108772801930205
  0.5632587557205083  0.7156853382704822  0.8342241254702311
  0.6874654042620711  0.6120553186263180  0.1662836053081176
  0.3123273396778125  0.5361988868531695  0.3888815974307973
  0.5619849590842025  0.3752424491159251  0.6552671026403178
  0.9374749602491879  0.9550045437172762  0.4780684300486060
  0.6875975804062449  0.4602840751778267  0.7000577925720534
  0.4373500943122808  0.2867080351402218  0.3888427138244913
  0.6878048055654500  0.6251372841806729  0.6552451384126997
  0.6873942545676611  0.9553432957713421  0.4781577911344886
  0.3127103321467860  0.1970884628162344  0.2112503163683457
  0.4376125745844424  0.7956340231950372  0.7447041429319100
  0.3123663524511612  0.0367883041903363  0.3887456891744500
  0.4376858291584104  0.7871700909828429  0.3888784622125294
  0.6876404020677332  0.9659078044486221  0.8340632832711248
  0.9374179077798653  0.9607823274843321  0.7001975163809080
  0.9372645123934407  0.9476538273245508  0.2112407505194436
  0.1874588711865425  0.6261342337933578  0.6552996964126603
  0.4374983800164083  0.4472901419972855  0.2112199387540040
  0.3124112777026589  0.3616813997323061  0.1663809825741000
  0.5624454527945493  0.0455335144515139  0.7447735109791235
  0.6877715603465455  0.4663987492123116  0.8343355161364950
  0.4378810492105394  0.2991537852021984  0.8762954188972460
  0.3123080223756440  0.0283123147467843  0.1242134900647680
  0.4375774489507332  0.9656602777156650  0.8342858230422442
  0.5624422481918339  0.8674246513175846  0.2998004400335692
  0.3121211782602329  0.2052441909044272  0.4781522610007390
  0.3123800121938298  0.7024162492939632  0.3445274875181847
  0.6877031327741507  0.7867885292858943  0.3888361012444811
  0.5627364003022647  0.0366477875586354  0.3888659660647624
  0.5629627851982867  0.3728034619625767  0.5212536754766578
  0.0626952268165450  0.3762739392902838  0.6552569008231389
  0.9375186800556556  0.7952426248278940  0.7446197103184008
  0.9373990692521673  0.6171992667793145  0.2997152444065682
  0.8127532745408357  0.3754697459480410  0.6553300329669497
  0.6874906178269784  0.9602196377038921  0.7001734348712190
  0.9378438140875172  0.4608986305059649  0.7002256943781553
  0.1875097176562765  0.2865535683018339  0.3887497528615172
  0.4370554067192522  0.1259873856114800  0.6553116618581017
  0.4378183111356939  0.2957257884436734  0.7449469081507891
  0.1874837885687119  0.2913294178619242  0.6108185734187085
  0.1875966054492407  0.1117685972033815  0.1662766360474238
  0.4372779695185346  0.6218721776030469  0.4340201566067557
  0.0623116080579540  0.8760313960388559  0.6552314785024688
  0.0624398878991164  0.8620984824933521  0.1663374646175318
  0.8127096199414631  0.5451264968209345  0.7448026059312564
  0.6875002476638886  0.4475522753255780  0.2112200527986143
  0.0624291383010012  0.5457437214388036  0.7446510188373457
  0.6871191562307539  0.2822263144277886  0.2554987486979461
  0.0625186386620545  0.0326748913955260  0.2555362733650777
  0.3124222544098695  0.7105422927719522  0.7000966997186114
  0.9377428169982425  0.8009879550687916  0.8763141746908090
  0.8124125606524718  0.3671469439804119  0.2998109312585054
  0.8126456319696856  0.2056163326641587  0.4781040040793786
  0.5621778318282183  0.2159696018183309  0.8339794759411890
  0.4374111091950241  0.2911651913362752  0.6108837054179658
  0.5624061172289260  0.3620637702911409  0.1663498455603776
  0.6872807125071433  0.1121111278923080  0.1661230502497927
  0.1875325369990954  0.1304535629528734  0.7889343081761102
  0.8121212524878877  0.7148861804583060  0.8342272950123025
  0.0626774081439275  0.5410024020197790  0.6107450366057893
  0.3124069050079800  0.8752440867068694  0.6551577124986662
  0.3126934269424358  0.5281295263205982  0.1242161669063578
  0.3127064034750433  0.2161597700132701  0.8340683636452823
  0.9376677493398997  0.4565332900904017  0.5655114236828398
  0.6873546821731079  0.6306058748426916  0.7892087141839583
  0.8124348874485093  0.3621111320930300  0.1663071163369881
  0.3125725671767910  0.0322969055513597  0.2555108150876219
  0.5621274327155814  0.5499754643443618  0.8761892717837121
  0.8128808318664541  0.5363181085009340  0.3888605971976317
  0.0622844757984605  0.0369303567178192  0.3888688636226987
  0.0630357847209219  0.7046488624233567  0.4781471797175947
  0.1877732674010600  0.6303281122189311  0.7891827972960089
  0.4371654053722475  0.2820044019978200  0.2554785879106805
  0.0624233847473617  0.5363923049473518  0.3887980926599753
  0.3127775275630330  0.8803047399628045  0.7892807431374854
  0.8129051508589521  0.8725745452743980  0.5213822002046268
  0.5624879457502792  0.8619590482995393  0.1662901633871741
  0.1876332790250111  0.2779936671976612  0.1241719879882957
  0.4378233136235281  0.6302532390807127  0.7890207955962280
  0.8124992627304176  0.7068614422409835  0.5655858232724394
  0.0624704060519855  0.8729447045990756  0.5213539809309531
  0.8127705644555648  0.0414769143849605  0.6108453918420489
  0.4368915819861865  0.4565508126193875  0.5651845739456218
  0.4375658053291731  0.6174918460175393  0.2997656717213397
  0.1873991912953444  0.6233642326147417  0.5213630881668592
  0.9375503596127973  0.7780523419950465  0.1241913485295243
  0.3123802547348107  0.3676175364542077  0.2997391280673800
  0.9376313074322545  0.7823937912838355  0.2554621160882963
  0.1876151191250722  0.6173998576838462  0.2997313269964637
  0.8125692049901517  0.0367473062552918  0.3889202540504582
  0.8126654330481685  0.7104330699003075  0.7001607004047139
  0.5622497705908971  0.7071953827706083  0.5656685777196682
  0.6877812480298584  0.1171685406118563  0.2997009567003182
  0.8123167718099812  0.5281349426029320  0.1241390519606192
  0.1875704059679631  0.7781228714483847  0.1241686224559146
  0.9373814570086314  0.4553635643465828  0.4782317083637812
  0.1877700075673228  0.7955866997780426  0.7448767029202531
  0.6873855456207345  0.9572860010926081  0.5655587918418130
  0.6875147570964599  0.1249644273252061  0.6552933047916425
  0.9369715562650797  0.6218943284675916  0.4338123502550689
  0.8122712762065301  0.5491354771598645  0.8760944644952059
  0.6870205355001274  0.2906604046138615  0.6107267944602421
  0.9377692469352273  0.2823287476041609  0.2553836631805429
  0.1876071120165051  0.8001937193335122  0.8762322873334732
  0.6871761787016023  0.7823333110494644  0.2553950056253884
  0.4373462700262528  0.1215397922031723  0.4340560025409295
  0.4373735734636983  0.4554101796439995  0.4781698071042110
  0.3122549626145092  0.5417130235638788  0.6110281511804465
  0.9373874828766230  0.2955828241622819  0.7449806399494145
  0.0630042436862218  0.3705610904343127  0.4343812670365593
  0.0627523216338763  0.3723857994789215  0.5211592131623111
 
  0.00000000E+00  0.00000000E+00  0.00000000E+00
  0.00000000E+00  0.00000000E+00  0.00000000E+00
  0.00000000E+00  0.00000000E+00  0.00000000E+00
  0.00000000E+00  0.00000000E+00  0.00000000E+00
  0.00000000E+00  0.00000000E+00  0.00000000E+00
  0.00000000E+00  0.00000000E+00  0.00000000E+00
  0.00000000E+00  0.00000000E+00  0.00000000E+00
  0.00000000E+00  0.00000000E+00  0.00000000E+00
  0.00000000E+00  0.00000000E+00  0.00000000E+00
  0.00000000E+00  0.00000000E+00  0.00000000E+00
  0.00000000E+00  0.00000000E+00  0.00000000E+00
  0.00000000E+00  0.00000000E+00  0.00000000E+00
  0.00000000E+00  0.00000000E+00  0.00000000E+00
  0.00000000E+00  0.00000000E+00  0.00000000E+00
  0.00000000E+00  0.00000000E+00  0.00000000E+00
  0.00000000E+00  0.00000000E+00  0.00000000E+00
  0.00000000E+00  0.00000000E+00  0.00000000E+00
  0.00000000E+00  0.00000000E+00  0.00000000E+00
  0.00000000E+00  0.00000000E+00  0.00000000E+00
  0.00000000E+00  0.00000000E+00  0.00000000E+00
  0.00000000E+00  0.00000000E+00  0.00000000E+00
  0.00000000E+00  0.00000000E+00  0.00000000E+00
  0.00000000E+00  0.00000000E+00  0.00000000E+00
  0.00000000E+00  0.00000000E+00  0.00000000E+00
  0.00000000E+00  0.00000000E+00  0.00000000E+00
  0.00000000E+00  0.00000000E+00  0.00000000E+00
  0.00000000E+00  0.00000000E+00  0.00000000E+00
  0.00000000E+00  0.00000000E+00  0.00000000E+00
  0.00000000E+00  0.00000000E+00  0.00000000E+00
  0.00000000E+00  0.00000000E+00  0.00000000E+00
  0.00000000E+00  0.00000000E+00  0.00000000E+00
  0.00000000E+00  0.00000000E+00  0.00000000E+00
  0.00000000E+00  0.00000000E+00  0.00000000E+00
  0.00000000E+00  0.00000000E+00  0.00000000E+00
  0.00000000E+00  0.00000000E+00  0.00000000E+00
  0.00000000E+00  0.00000000E+00  0.00000000E+00
  0.00000000E+00  0.00000000E+00  0.00000000E+00
  0.00000000E+00  0.00000000E+00  0.00000000E+00
  0.00000000E+00  0.00000000E+00  0.00000000E+00
  0.00000000E+00  0.00000000E+00  0.00000000E+00
  0.00000000E+00  0.00000000E+00  0.00000000E+00
  0.00000000E+00  0.00000000E+00  0.00000000E+00
  0.00000000E+00  0.00000000E+00  0.00000000E+00
  0.00000000E+00  0.00000000E+00  0.00000000E+00
  0.00000000E+00  0.00000000E+00  0.00000000E+00
  0.00000000E+00  0.00000000E+00  0.00000000E+00
  0.00000000E+00  0.00000000E+00  0.00000000E+00
  0.00000000E+00  0.00000000E+00  0.00000000E+00
  0.00000000E+00  0.00000000E+00  0.00000000E+00
  0.00000000E+00  0.00000000E+00  0.00000000E+00
  0.00000000E+00  0.00000000E+00  0.00000000E+00
  0.00000000E+00  0.00000000E+00  0.00000000E+00
  0.00000000E+00  0.00000000E+00  0.00000000E+00
  0.00000000E+00  0.00000000E+00  0.00000000E+00
  0.00000000E+00  0.00000000E+00  0.00000000E+00
  0.00000000E+00  0.00000000E+00  0.00000000E+00
  0.00000000E+00  0.00000000E+00  0.00000000E+00
  0.00000000E+00  0.00000000E+00  0.00000000E+00
  0.00000000E+00  0.00000000E+00  0.00000000E+00
  0.00000000E+00  0.00000000E+00  0.00000000E+00
  0.00000000E+00  0.00000000E+00  0.00000000E+00
  0.00000000E+00  0.00000000E+00  0.00000000E+00
  0.00000000E+00  0.00000000E+00  0.00000000E+00
  0.00000000E+00  0.00000000E+00  0.00000000E+00
  0.00000000E+00  0.00000000E+00  0.00000000E+00
  0.00000000E+00  0.00000000E+00  0.00000000E+00
  0.00000000E+00  0.00000000E+00  0.00000000E+00
  0.00000000E+00  0.00000000E+00  0.00000000E+00
  0.00000000E+00  0.00000000E+00  0.00000000E+00
  0.00000000E+00  0.00000000E+00  0.00000000E+00
  0.00000000E+00  0.00000000E+00  0.00000000E+00
  0.00000000E+00  0.00000000E+00  0.00000000E+00
  0.00000000E+00  0.00000000E+00  0.00000000E+00
  0.00000000E+00  0.00000000E+00  0.00000000E+00
  0.00000000E+00  0.00000000E+00  0.00000000E+00
  0.00000000E+00  0.00000000E+00  0.00000000E+00
  0.00000000E+00  0.00000000E+00  0.00000000E+00
  0.00000000E+00  0.00000000E+00  0.00000000E+00
  0.00000000E+00  0.00000000E+00  0.00000000E+00
  0.00000000E+00  0.00000000E+00  0.00000000E+00
  0.00000000E+00  0.00000000E+00  0.00000000E+00
  0.00000000E+00  0.00000000E+00  0.00000000E+00
  0.00000000E+00  0.00000000E+00  0.00000000E+00
  0.00000000E+00  0.00000000E+00  0.00000000E+00
  0.00000000E+00  0.00000000E+00  0.00000000E+00
  0.00000000E+00  0.00000000E+00  0.00000000E+00
  0.00000000E+00  0.00000000E+00  0.00000000E+00
  0.00000000E+00  0.00000000E+00  0.00000000E+00
  0.00000000E+00  0.00000000E+00  0.00000000E+00
  0.00000000E+00  0.00000000E+00  0.00000000E+00
  0.00000000E+00  0.00000000E+00  0.00000000E+00
  0.00000000E+00  0.00000000E+00  0.00000000E+00
  0.00000000E+00  0.00000000E+00  0.00000000E+00
  0.00000000E+00  0.00000000E+00  0.00000000E+00
  0.00000000E+00  0.00000000E+00  0.00000000E+00
  0.00000000E+00  0.00000000E+00  0.00000000E+00
  0.00000000E+00  0.00000000E+00  0.00000000E+00
  0.00000000E+00  0.00000000E+00  0.00000000E+00
  0.00000000E+00  0.00000000E+00  0.00000000E+00
  0.00000000E+00  0.00000000E+00  0.00000000E+00
  0.00000000E+00  0.00000000E+00  0.00000000E+00
  0.00000000E+00  0.00000000E+00  0.00000000E+00
  0.00000000E+00  0.00000000E+00  0.00000000E+00
  0.00000000E+00  0.00000000E+00  0.00000000E+00
  0.00000000E+00  0.00000000E+00  0.00000000E+00
  0.00000000E+00  0.00000000E+00  0.00000000E+00
  0.00000000E+00  0.00000000E+00  0.00000000E+00
  0.00000000E+00  0.00000000E+00  0.00000000E+00
  0.00000000E+00  0.00000000E+00  0.00000000E+00
  0.00000000E+00  0.00000000E+00  0.00000000E+00
  0.00000000E+00  0.00000000E+00  0.00000000E+00
  0.00000000E+00  0.00000000E+00  0.00000000E+00
  0.00000000E+00  0.00000000E+00  0.00000000E+00
  0.00000000E+00  0.00000000E+00  0.00000000E+00
  0.00000000E+00  0.00000000E+00  0.00000000E+00
  0.00000000E+00  0.00000000E+00  0.00000000E+00
  0.00000000E+00  0.00000000E+00  0.00000000E+00
  0.00000000E+00  0.00000000E+00  0.00000000E+00
  0.00000000E+00  0.00000000E+00  0.00000000E+00
  0.00000000E+00  0.00000000E+00  0.00000000E+00
  0.00000000E+00  0.00000000E+00  0.00000000E+00
  0.00000000E+00  0.00000000E+00  0.00000000E+00
  0.00000000E+00  0.00000000E+00  0.00000000E+00
  0.00000000E+00  0.00000000E+00  0.00000000E+00
  0.00000000E+00  0.00000000E+00  0.00000000E+00
  0.00000000E+00  0.00000000E+00  0.00000000E+00
  0.00000000E+00  0.00000000E+00  0.00000000E+00
  0.00000000E+00  0.00000000E+00  0.00000000E+00
  0.00000000E+00  0.00000000E+00  0.00000000E+00
  0.00000000E+00  0.00000000E+00  0.00000000E+00
  0.00000000E+00  0.00000000E+00  0.00000000E+00
  0.00000000E+00  0.00000000E+00  0.00000000E+00
  0.00000000E+00  0.00000000E+00  0.00000000E+00
  0.00000000E+00  0.00000000E+00  0.00000000E+00
  0.00000000E+00  0.00000000E+00  0.00000000E+00
  0.00000000E+00  0.00000000E+00  0.00000000E+00
  0.00000000E+00  0.00000000E+00  0.00000000E+00
  0.00000000E+00  0.00000000E+00  0.00000000E+00
  0.00000000E+00  0.00000000E+00  0.00000000E+00
  0.00000000E+00  0.00000000E+00  0.00000000E+00
  0.00000000E+00  0.00000000E+00  0.00000000E+00
  0.00000000E+00  0.00000000E+00  0.00000000E+00
  0.00000000E+00  0.00000000E+00  0.00000000E+00
  0.00000000E+00  0.00000000E+00  0.00000000E+00
  0.00000000E+00  0.00000000E+00  0.00000000E+00
  0.00000000E+00  0.00000000E+00  0.00000000E+00
  0.00000000E+00  0.00000000E+00  0.00000000E+00
  0.00000000E+00  0.00000000E+00  0.00000000E+00
  0.00000000E+00  0.00000000E+00  0.00000000E+00
  0.00000000E+00  0.00000000E+00  0.00000000E+00
  0.00000000E+00  0.00000000E+00  0.00000000E+00
  0.00000000E+00  0.00000000E+00  0.00000000E+00
  0.00000000E+00  0.00000000E+00  0.00000000E+00
  0.00000000E+00  0.00000000E+00  0.00000000E+00
  0.00000000E+00  0.00000000E+00  0.00000000E+00
  0.00000000E+00  0.00000000E+00  0.00000000E+00
  0.00000000E+00  0.00000000E+00  0.00000000E+00
  0.00000000E+00  0.00000000E+00  0.00000000E+00
  0.00000000E+00  0.00000000E+00  0.00000000E+00
  0.00000000E+00  0.00000000E+00  0.00000000E+00
  0.00000000E+00  0.00000000E+00  0.00000000E+00
  0.00000000E+00  0.00000000E+00  0.00000000E+00
  0.00000000E+00  0.00000000E+00  0.00000000E+00
  0.00000000E+00  0.00000000E+00  0.00000000E+00
  0.00000000E+00  0.00000000E+00  0.00000000E+00
  0.00000000E+00  0.00000000E+00  0.00000000E+00
  0.00000000E+00  0.00000000E+00  0.00000000E+00
  0.00000000E+00  0.00000000E+00  0.00000000E+00
  0.00000000E+00  0.00000000E+00  0.00000000E+00
  0.00000000E+00  0.00000000E+00  0.00000000E+00
  0.00000000E+00  0.00000000E+00  0.00000000E+00
  0.00000000E+00  0.00000000E+00  0.00000000E+00
  0.00000000E+00  0.00000000E+00  0.00000000E+00
  0.00000000E+00  0.00000000E+00  0.00000000E+00
  0.00000000E+00  0.00000000E+00  0.00000000E+00
  0.00000000E+00  0.00000000E+00  0.00000000E+00
  0.00000000E+00  0.00000000E+00  0.00000000E+00
  0.00000000E+00  0.00000000E+00  0.00000000E+00
  0.00000000E+00  0.00000000E+00  0.00000000E+00
  0.00000000E+00  0.00000000E+00  0.00000000E+00
  0.00000000E+00  0.00000000E+00  0.00000000E+00
  0.00000000E+00  0.00000000E+00  0.00000000E+00
  0.00000000E+00  0.00000000E+00  0.00000000E+00
  0.00000000E+00  0.00000000E+00  0.00000000E+00
  0.00000000E+00  0.00000000E+00  0.00000000E+00
  0.00000000E+00  0.00000000E+00  0.00000000E+00
  0.00000000E+00  0.00000000E+00  0.00000000E+00
  0.00000000E+00  0.00000000E+00  0.00000000E+00
  0.00000000E+00  0.00000000E+00  0.00000000E+00
  0.00000000E+00  0.00000000E+00  0.00000000E+00
  0.00000000E+00  0.00000000E+00  0.00000000E+00
  0.00000000E+00  0.00000000E+00  0.00000000E+00
  0.00000000E+00  0.00000000E+00  0.00000000E+00
  0.00000000E+00  0.00000000E+00  0.00000000E+00
  0.00000000E+00  0.00000000E+00  0.00000000E+00
  0.00000000E+00  0.00000000E+00  0.00000000E+00
  0.00000000E+00  0.00000000E+00  0.00000000E+00
  0.00000000E+00  0.00000000E+00  0.00000000E+00
  0.00000000E+00  0.00000000E+00  0.00000000E+00
  0.00000000E+00  0.00000000E+00  0.00000000E+00
  0.00000000E+00  0.00000000E+00  0.00000000E+00
  0.00000000E+00  0.00000000E+00  0.00000000E+00
  0.00000000E+00  0.00000000E+00  0.00000000E+00
  0.00000000E+00  0.00000000E+00  0.00000000E+00
  0.00000000E+00  0.00000000E+00  0.00000000E+00
  0.00000000E+00  0.00000000E+00  0.00000000E+00
  0.00000000E+00  0.00000000E+00  0.00000000E+00
  0.00000000E+00  0.00000000E+00  0.00000000E+00
  0.00000000E+00  0.00000000E+00  0.00000000E+00
  0.00000000E+00  0.00000000E+00  0.00000000E+00
  0.00000000E+00  0.00000000E+00  0.00000000E+00
  0.00000000E+00  0.00000000E+00  0.00000000E+00
  0.00000000E+00  0.00000000E+00  0.00000000E+00
  0.00000000E+00  0.00000000E+00  0.00000000E+00
  0.00000000E+00  0.00000000E+00  0.00000000E+00
  0.00000000E+00  0.00000000E+00  0.00000000E+00
  0.00000000E+00  0.00000000E+00  0.00000000E+00
  0.00000000E+00  0.00000000E+00  0.00000000E+00
  0.00000000E+00  0.00000000E+00  0.00000000E+00
  0.00000000E+00  0.00000000E+00  0.00000000E+00
  0.00000000E+00  0.00000000E+00  0.00000000E+00
  0.00000000E+00  0.00000000E+00  0.00000000E+00
  0.00000000E+00  0.00000000E+00  0.00000000E+00
  0.00000000E+00  0.00000000E+00  0.00000000E+00
  0.00000000E+00  0.00000000E+00  0.00000000E+00
  0.00000000E+00  0.00000000E+00  0.00000000E+00
  0.00000000E+00  0.00000000E+00  0.00000000E+00
  0.00000000E+00  0.00000000E+00  0.00000000E+00
  0.00000000E+00  0.00000000E+00  0.00000000E+00
  0.00000000E+00  0.00000000E+00  0.00000000E+00
  0.00000000E+00  0.00000000E+00  0.00000000E+00
  0.00000000E+00  0.00000000E+00  0.00000000E+00
  0.00000000E+00  0.00000000E+00  0.00000000E+00
  0.00000000E+00  0.00000000E+00  0.00000000E+00
  0.00000000E+00  0.00000000E+00  0.00000000E+00
  0.00000000E+00  0.00000000E+00  0.00000000E+00
  0.00000000E+00  0.00000000E+00  0.00000000E+00
  0.00000000E+00  0.00000000E+00  0.00000000E+00
  0.00000000E+00  0.00000000E+00  0.00000000E+00
  0.00000000E+00  0.00000000E+00  0.00000000E+00
  0.00000000E+00  0.00000000E+00  0.00000000E+00
  0.00000000E+00  0.00000000E+00  0.00000000E+00
  0.00000000E+00  0.00000000E+00  0.00000000E+00
  0.00000000E+00  0.00000000E+00  0.00000000E+00
  0.00000000E+00  0.00000000E+00  0.00000000E+00
  0.00000000E+00  0.00000000E+00  0.00000000E+00
  0.00000000E+00  0.00000000E+00  0.00000000E+00