FeMn_288_15                             
    1.000000000000000     
     9.7266779999999997    0.0000000000000000    0.0000000000000000
     0.0000000000000000    8.4235500000000005    0.0000000000000000
     0.0000000000000000    0.0000000000000000   45.0000000000000000
   Fe   Mn
   273    15
Direct
  0.8150231102263311  0.2023949698313746  0.3453479982650060
  0.0638464108626653  0.6991672386731522  0.2108059915184388
  0.5618844682162184  0.6988320459516257  0.2106309067262552
  0.4391881440713207  0.7991910574791359  0.8768284519009242
  0.6873889166985306  0.6220093702525870  0.5219448781984978
  0.1883002739693853  0.3018467162404279  0.8764384189818513
  0.5621781837511570  0.2042899412327093  0.5662145481735025
  0.9352287374658742  0.1218220787650725  0.5216094787690808
  0.0626164947205281  0.5281550782100127  0.1236035668780523
  0.5617263487409095  0.3667307972212104  0.2989691076775179
  0.4379207796821961  0.6258259614774591  0.6545636343479505
  0.8123292851166981  0.3688334748096032  0.4337840800380099
  0.0631772658425606  0.7187911341720207  0.8351975683865127
  0.0616574405080459  0.2040457604099543  0.4783835014800064
  0.9373355433025242  0.9653600483664411  0.8346259896207350
  0.0631762593570725  0.8680768573571500  0.2991287995755937
  0.9365750268349939  0.7911484670540565  0.6111700356746030
  0.3122237009045378  0.0440089967486001  0.7441588064355089
  0.5657769214172116  0.8738372325293280  0.4341400810480266
  0.0609431624890939  0.2033447090755973  0.3450125871268582
  0.5597326466836988  0.3794762809220961  0.7901917244541330
  0.8116692150050899  0.0479726125209417  0.8765641874448945
  0.5648179011878329  0.3691121750150404  0.4338565991380952
  0.9376045574292077  0.6098482868910714  0.1665033787862252
  0.3116510235624418  0.5313340672451994  0.2547952801755775
  0.9366916496326438  0.1098408861187417  0.1667444200629917
  0.0609219654883857  0.8722594441371556  0.4339660205421232
  0.1897364048046144  0.4697648556429151  0.8349495049607669
  0.4389396734030666  0.9572149235994521  0.4785101122720050
  0.1888180963408904  0.9658232168695894  0.8347261425634968
  0.6874891202176666  0.9485549542278914  0.2109126403456489
  0.3124104923687788  0.7066143523306869  0.4783152831600206
  0.5618799576709714  0.0418107555327769  0.6105500988149617
  0.3152029912308118  0.7076505128733365  0.5665105967624242
  0.9377083904381246  0.2777068133200229  0.1235318916642389
  0.3144866635136883  0.0463483387445536  0.8765475312854932
  0.3136694739348556  0.3701133385976006  0.5220122756939205
  0.5637148428388836  0.8783852443719243  0.7903096059297263
  0.8115887405787582  0.8772882167171415  0.7902115068960641
  0.1882855366294842  0.9585222403090095  0.6987817223538298
  0.4349711627835621  0.7834562626172427  0.2548696914515893
  0.5611049230558689  0.5317448552970754  0.2548997960802737
  0.1884099167254084  0.4609570940849982  0.6989081270311616
  0.8120259587021956  0.8729655681827183  0.4340519762712690
  0.4391754731223715  0.4685451194854803  0.8348054552537280
  0.8123389160730293  0.7089775038751072  0.4783298211253657
  0.3113985665974910  0.8678366050968276  0.2989767083122641
  0.3149735251113506  0.2062719454087480  0.5663079621152239
  0.6853601380845601  0.1270571498693723  0.7901024198558144
  0.5633374896497527  0.5362528260609766  0.3891710918786809
  0.8133661680390744  0.6983575857632857  0.2108462240962538
  0.3124710595941464  0.8593097383960956  0.1666516408032905
  0.9373592206934406  0.2867877562395114  0.3889942428761451
  0.8143933177312526  0.8687080365852154  0.2993387976396052
  0.4379780901794021  0.9602204509320441  0.6984152002664955
  0.6869682053737045  0.7777619685387732  0.1235114941019552
  0.5636696031761671  0.5464176456235911  0.7443998494294415
  0.9371797293538370  0.7886868083583359  0.3893077047520297
  0.1888726585730784  0.4475275061494930  0.2109223991847095
  0.8128038089479549  0.5329841550669557  0.2545546108848464
  0.3156906975951516  0.0410292714165859  0.6106433739710908
  0.1865516037828247  0.9579884313055153  0.4782787590472235
  0.0614659396115302  0.7103095681526210  0.6990126385434360
  0.0620952909952891  0.2103350406191247  0.6985133934261299
  0.9349194738478677  0.3029097541844332  0.8767365715587969
  0.6880320606353302  0.4552761547291094  0.4782033394298471
  0.8130194096586336  0.0443428971277235  0.7441397015369394
  0.4368399413357582  0.9488541900702553  0.2110789238508329
  0.1863820779089751  0.1179898575594228  0.2989534772307382
  0.4364682358847731  0.9507070822097463  0.3449799029936957
  0.6875082476048490  0.1203683661888480  0.5220728581627744
  0.0635324878619188  0.5529943664607662  0.8775353672931087
  0.5637972245794920  0.7078643909884020  0.4784315766463085
  0.3117906586255429  0.6978881331118674  0.2111649161294976
  0.6881270610171926  0.6179907729487136  0.2993005236668626
  0.3139583566717677  0.2102126419508081  0.6983516885903988
  0.1861238782059221  0.1222262776776397  0.4338421052563044
  0.8126826752236974  0.0325975935692058  0.2547918616307883
  0.4372814937188934  0.1294116776657320  0.7906164618143718
  0.4371092342073382  0.4602676915605203  0.6984755993186167
  0.6892324991840604  0.6218083594234762  0.4339686287788480
  0.1870708749322187  0.6090448561792252  0.1667077167443017
  0.8134201451764504  0.7012151831737924  0.3451760764489934
  0.9353493980350385  0.1210353420922598  0.4338839257668649
  0.9351941753692817  0.1256978006196875  0.6551191191853605
  0.6886893344044455  0.9510914211229670  0.3452024915483368
  0.3122534240561240  0.3699557108014581  0.4337656034301965
  0.9362326782304695  0.4707371477149528  0.8351261611129772
  0.8116881075444202  0.3813532044597466  0.7892493370220535
  0.6857765676302923  0.4548121665007364  0.5661622808495815
  0.0633143002794772  0.2184334331191615  0.8345219380738044
  0.6852682942949253  0.7968550407179831  0.8769416092020729
  0.5634080006872284  0.7102986376138236  0.6988355652040519
  0.1907301585414805  0.9565410736722585  0.5662081418374534
  0.8108752050319836  0.8767538785607718  0.6550246235856928
  0.4390488769418653  0.9565164533250106  0.5662054089629820
  0.9353683244201859  0.9571473985926046  0.5658390583409947
  0.0616114773736872  0.8772512894534777  0.7900659326415386
  0.0637131428715386  0.7063652257952402  0.5660227703842193
  0.8122761800814517  0.0273802266209005  0.1235859739284216
  0.1903369997476148  0.7902992402732543  0.6109299198836559
  0.8117737838698627  0.8595773399841649  0.1664536346693600
  0.5623845863802617  0.0273806562962289  0.1236496283161029
  0.9391219493005848  0.1171293235680158  0.2994314427265361
  0.9385012412055924  0.4502053821376066  0.3451524456568359
  0.1888394642725755  0.4551599920513673  0.4784361745514551
  0.5627208543249483  0.7028323755325481  0.3450485338567115
  0.3135242574071325  0.5517248460862831  0.8769577817890997
  0.3110074422309361  0.5463013769743617  0.7442477228565731
  0.3104594539658643  0.2012254435814047  0.3450216727844068
  0.8096348948043633  0.5410762062840135  0.6110373021688167
  0.0621612548225469  0.0429515249976489  0.7442188715103452
  0.6894860845380663  0.1210105539137050  0.4340359389671472
  0.4384736108809568  0.1220261285328674  0.5221222878236024
  0.1859648870278468  0.6214193142044822  0.4335826528337383
  0.0619848404724295  0.0403334461909237  0.6108462123751774
  0.6896452594384254  0.2863126244481856  0.3894746507783843
  0.0626021671884386  0.0274419107487733  0.1235785965122730
  0.1887116719610000  0.1232919204890085  0.5218703995206920
  0.1897501484023885  0.2811855988965242  0.2550105890179716
  0.3140331391948563  0.8724874479120196  0.5223687507443675
  0.0638229473832688  0.5326059354089857  0.2550714953899675
  0.9378856302926838  0.4484357088607464  0.2106809362589032
  0.6873315452300779  0.2772249669457836  0.1235711162839768
  0.5632299045412316  0.2010130856060391  0.3451134083011388
  0.5641013756371340  0.8738896928593071  0.5222368874993937
  0.0629083717731917  0.0459451589893830  0.8769204730990257
  0.0623323080682372  0.3599981552318328  0.1667101531449053
  0.0630153299165753  0.2065348627536812  0.5659002792793116
  0.4375323919974460  0.1102209057178176  0.1667934236778903
  0.1887816037081502  0.7836864318280078  0.2548690743655819
  0.5620757617609969  0.2100631138014145  0.6982894222364117
  0.5612781174984272  0.0475991681419287  0.8765629442764473
  0.5618512033634923  0.5285988148743306  0.1236289061259870
  0.4375976990636691  0.7916114384178045  0.6105456191525827
  0.0621642708482333  0.7006423308689690  0.3449053950549084
  0.8094544337222005  0.2046190106616730  0.5659026709112613
  0.1890711982015099  0.1260147411104325  0.6546847715840239
  0.4366725492525794  0.4527902151623105  0.3449918509887888
  0.8119756062846742  0.2104515193823273  0.6985003905202284
  0.3119123632913905  0.8723972204581379  0.4339405395705780
  0.1861976414231531  0.2968607524899080  0.7440843564024090
  0.6887607243879507  0.2965970910443103  0.7439894879890484
  0.4372449821575966  0.2777692824054370  0.1236046165225687
  0.4381305119876314  0.6209601186946186  0.5221026163027442
  0.3150846781608923  0.3755963020293768  0.6549045095694171
  0.9364594907014715  0.6271003978826847  0.6549019513115998
  0.9365843318150633  0.6323037073072437  0.7896367969335363
  0.0633971827135715  0.3664947189524493  0.2996298410232765
  0.3138744656075887  0.3793917544875318  0.7902536092303787
  0.4369410949304008  0.6094881010237592  0.1666345798682601
  0.5631806115579547  0.2051693480731210  0.4783997055909265
  0.8121399957186203  0.1980092021086364  0.2107935836431274
  0.6891367912119735  0.4513317609123975  0.3452049352931915
  0.9368843267231792  0.6222308168430287  0.5216239111236641
  0.1884606048171009  0.9485141225041926  0.2112708097349233
  0.1899751499243933  0.4560760973516292  0.5659918543481637
  0.5616222904780928  0.1988151492432591  0.2108847626859211
  0.8102389516349294  0.2189397972465408  0.8350899745829362
  0.4376394612573027  0.7773018554389962  0.1235894789867758
  0.3141142007384309  0.7185726294445640  0.8353143223055162
  0.9377628319793807  0.9533616024731304  0.3450133202557137
  0.1858790549254505  0.7872397112145484  0.3889936064532725
  0.5613387755471967  0.0335052890122574  0.2547616887225893
  0.4365562855803083  0.1172704866115296  0.2987112577459241
  0.9379411936587403  0.1269661338990082  0.7896097067929420
  0.5623583613134094  0.5413422198101079  0.6110022519101969
  0.6868877748470452  0.3032588260787157  0.8764731279895359
  0.0642534337469215  0.1982230504860439  0.2109383764464080
  0.1849077227274295  0.4511867766040757  0.3448792053741771
  0.0642102957382756  0.3809053499090421  0.7895392003781665
  0.6883089611396710  0.7939908495527283  0.7446015105448779
  0.9362163648644419  0.2898683425236774  0.6108928151145965
  0.5636238034568536  0.8773625808183069  0.6545848298818254
  0.8115301495680913  0.3697285268576928  0.5218723403420735
  0.1861126753620782  0.9520025279620161  0.3448609161759506
  0.6854107803879101  0.7926427266301914  0.6109168600939354
  0.5628250974995040  0.7172812558619615  0.8353232211010407
  0.6871030851393499  0.6097616813127523  0.1666304561435497
  0.3106225625247430  0.5361246003125532  0.3890822693349473
  0.5613888116538825  0.3752751832219040  0.6549788368184166
  0.9359406960652107  0.9567434224043854  0.4780588613712701
  0.6872275868502865  0.4605717498770249  0.6983999068673086
  0.4370571095997905  0.2877216831399353  0.3895431637360959
  0.6876473519396009  0.6260819274661272  0.6547863358959477
  0.6888689507406016  0.9571211565625961  0.4784230889031950
  0.3128363014179651  0.1985455604965142  0.2113499783482672
  0.4376651962411789  0.7950370530483365  0.7440430919643589
  0.3108445198291641  0.0387930814979892  0.3889899579692767
  0.4383387851265161  0.7878743389254708  0.3889322692489828
  0.6861279793956606  0.9668020382630015  0.8344491049889960
  0.9361231241906979  0.9593945201190162  0.6985714027487578
  0.9378548018080367  0.9486493105167919  0.2109217969708836
  0.1883882930175221  0.6264955325263748  0.6548653586041742
  0.4361635400655772  0.4477652617319794  0.2108739785847910
  0.3122076631170929  0.3597353143871300  0.1668397110830561
  0.5629429486699733  0.0445856716260631  0.7441093420544445
  0.6857454325543204  0.4696071733883286  0.8354733662886457
  0.4400648415820164  0.3033401365415265  0.8765217099481843
  0.3125930235178119  0.0272872251894041  0.1236031774002321
  0.4388896310336735  0.9669800987798673  0.8348475532226528
  0.5618184524716137  0.8682323640387357  0.2992737782131742
  0.3124667303634560  0.2066044794327611  0.4785261802083573
  0.3114062487555088  0.7022366304275423  0.3447339084074364
  0.6892618982166950  0.7885725077075209  0.3893106035923601
  0.5647847576755545  0.0378223534938751  0.3894906959489306
  0.5621906293648112  0.3702691853073197  0.5220573114036039
  0.0621403181362394  0.3764905204656379  0.6547395901328906
  0.9386272171634050  0.7941007223749141  0.7445548029681224
  0.9387425511811580  0.6169027796087438  0.2994358053780736
  0.8114850384726920  0.3755886504818979  0.6551805459750294
  0.6873968837580618  0.9596449183661728  0.6984630679958268
  0.9369508976812181  0.4602745384627720  0.6988471062445405
  0.1866109496440487  0.2868182247375791  0.3889799442727073
  0.4385716014359258  0.1266605616535390  0.6549395391620954
  0.4376555973607938  0.2960733222576739  0.7442384360531920
  0.1900325111782618  0.2913344162872802  0.6107257596175627
  0.1876564273063454  0.1102015789322421  0.1668768240651174
  0.4371577160215525  0.6201559913311131  0.4340721251121057
  0.0619228972202316  0.8754684307059790  0.6548150727101014
  0.0620779180448196  0.8596300591604887  0.1667173141260111
  0.8138827621599836  0.5465642833481876  0.7444336675898978
  0.6877574250575704  0.4482310840821718  0.2106594391175826
  0.0622217226502096  0.5465586523659635  0.7445210716333968
  0.6869204771941309  0.2814435811679463  0.2549375049404501
  0.0639661440463070  0.0330526161590632  0.2550480960774218
  0.3125307018596221  0.7104105879283251  0.6987352165074882
  0.9375245514873736  0.7978200993675915  0.8775399563547361
  0.8140249989304551  0.3668610096383606  0.2995127282982462
  0.8127531694099105  0.2050061010299455  0.4780384018031932
  0.5616737972820949  0.2183090225896644  0.8346924470961665
  0.4383425773903277  0.2900341560117476  0.6108737763964488
  0.5620104362548092  0.3597614577215071  0.1667419689508615
  0.6868236473711526  0.1098125323249473  0.1665816571616592
  0.1891475891840694  0.1292007069406905  0.7901050187170339
  0.8111254526859433  0.7174610947745634  0.8351229394076393
  0.0631514393592132  0.5408554425077016  0.6108335959929131
  0.3142317611118329  0.8760757440393173  0.6546297783122788
  0.3128609351824829  0.5286714524225560  0.1237145800198430
  0.3158073974839077  0.2182004260006004  0.8343331846673014
  0.9365742927586174  0.4558521714401517  0.5659043487001058
  0.6871606925448721  0.6321668064262529  0.7899843015936715
  0.8122898627580555  0.3595130709192811  0.1666497950057665
  0.3113960321873190  0.0339054254926273  0.2547657230500603
  0.5616390419980538  0.5525896116813267  0.8766407395984338
  0.8138625661099425  0.5353116956544594  0.3890823083864055
  0.0615474675189779  0.0391618666087163  0.3891100544395500
  0.0614082103976723  0.7074633417176986  0.4780759264405889
  0.1873137975591739  0.6300373608241959  0.7898568809074629
  0.4344254038564706  0.2814755715286491  0.2547930174089293
  0.0622414253097868  0.5355877021126956  0.3889567981542731
  0.3123851581840814  0.8786842481825382  0.7900741203444664
  0.8105428699041022  0.8732717912975927  0.5216573921259434
  0.5622976071742257  0.8596160665314012  0.1664958220775325
  0.1875824545696054  0.2777468324282129  0.1236667622418505
  0.4383192821041928  0.6287718524745353  0.7902348160163376
  0.8099627323042137  0.7082607099459787  0.5659006831308786
  0.0612052845927104  0.8725501178929367  0.5216675592801157
  0.8100402734787441  0.0408138831129717  0.6109459764381643
  0.4378360271597722  0.4550334432046070  0.5658483103128390
  0.4358333345586022  0.6181859918547752  0.2991695331111665
  0.1876504775219637  0.6212896062165232  0.5222899816909854
  0.9375159331190631  0.7771585378942264  0.1235705057414561
  0.3113210787106797  0.3679894709964612  0.2986275368124998
  0.9377800385193391  0.7836829139714894  0.2550525329875890
  0.1879008998271268  0.6176467632414545  0.2990930094380070
  0.8130505141178130  0.0385351504805483  0.3894717987222162
  0.8114695849527007  0.7111983940469924  0.6987897874481681
  0.5613086907050741  0.7088032217871806  0.5663220488990568
  0.6887681517356996  0.1167969759213531  0.2990747751344111
  0.8124610507163429  0.5282097347298487  0.1235482765804024
  0.1881820214873279  0.7771268192665439  0.1234991372391614
  0.9359114625664028  0.4552788846131878  0.4782276989828519
  0.1862616151281554  0.7942419341338044  0.7441415820666542
  0.6843161509736595  0.9585209034290096  0.5662159181752162
  0.6868574422876340  0.1248892999953374  0.6546926146097672
  0.9360514023424285  0.6222286297776555  0.4336928922030382
  0.8109204582277354  0.5511140691429496  0.8772344924384280
  0.6850030949378428  0.2891324145162629  0.6107092070200655
  0.9383309897370413  0.2812494444561426  0.2547395928714166
  0.1883979364085521  0.7981107048027302  0.8774141024004205
  0.6878555575433543  0.7846630922490437  0.2544466671119285
  0.4386612330278498  0.1222887917750245  0.4339700749721659
  0.4377527117513226  0.4532374608356978  0.4786470041670032
  0.3144744963396162  0.5416193059011891  0.6109934203007785
  0.9373739226942783  0.2968708023317007  0.7437145661693298
  0.0614930818603470  0.3693078619048413  0.4336708622226729
  0.0628301057703499  0.3711528087553470  0.5220234091790603
 
  0.00000000E+00  0.00000000E+00  0.00000000E+00
  0.00000000E+00  0.00000000E+00  0.00000000E+00
  0.00000000E+00  0.00000000E+00  0.00000000E+00
  0.00000000E+00  0.00000000E+00  0.00000000E+00
  0.00000000E+00  0.00000000E+00  0.00000000E+00
  0.00000000E+00  0.00000000E+00  0.00000000E+00
  0.00000000E+00  0.00000000E+00  0.00000000E+00
  0.00000000E+00  0.00000000E+00  0.00000000E+00
  0.00000000E+00  0.00000000E+00  0.00000000E+00
  0.00000000E+00  0.00000000E+00  0.00000000E+00
  0.00000000E+00  0.00000000E+00  0.00000000E+00
  0.00000000E+00  0.00000000E+00  0.00000000E+00
  0.00000000E+00  0.00000000E+00  0.00000000E+00
  0.00000000E+00  0.00000000E+00  0.00000000E+00
  0.00000000E+00  0.00000000E+00  0.00000000E+00
  0.00000000E+00  0.00000000E+00  0.00000000E+00
  0.00000000E+00  0.00000000E+00  0.00000000E+00
  0.00000000E+00  0.00000000E+00  0.00000000E+00
  0.00000000E+00  0.00000000E+00  0.00000000E+00
  0.00000000E+00  0.00000000E+00  0.00000000E+00
  0.00000000E+00  0.00000000E+00  0.00000000E+00
  0.00000000E+00  0.00000000E+00  0.00000000E+00
  0.00000000E+00  0.00000000E+00  0.00000000E+00
  0.00000000E+00  0.00000000E+00  0.00000000E+00
  0.00000000E+00  0.00000000E+00  0.00000000E+00
  0.00000000E+00  0.00000000E+00  0.00000000E+00
  0.00000000E+00  0.00000000E+00  0.00000000E+00
  0.00000000E+00  0.00000000E+00  0.00000000E+00
  0.00000000E+00  0.00000000E+00  0.00000000E+00
  0.00000000E+00  0.00000000E+00  0.00000000E+00
  0.00000000E+00  0.00000000E+00  0.00000000E+00
  0.00000000E+00  0.00000000E+00  0.00000000E+00
  0.00000000E+00  0.00000000E+00  0.00000000E+00
  0.00000000E+00  0.00000000E+00  0.00000000E+00
  0.00000000E+00  0.00000000E+00  0.00000000E+00
  0.00000000E+00  0.00000000E+00  0.00000000E+00
  0.00000000E+00  0.00000000E+00  0.00000000E+00
  0.00000000E+00  0.00000000E+00  0.00000000E+00
  0.00000000E+00  0.00000000E+00  0.00000000E+00
  0.00000000E+00  0.00000000E+00  0.00000000E+00
  0.00000000E+00  0.00000000E+00  0.00000000E+00
  0.00000000E+00  0.00000000E+00  0.00000000E+00
  0.00000000E+00  0.00000000E+00  0.00000000E+00
  0.00000000E+00  0.00000000E+00  0.00000000E+00
  0.00000000E+00  0.00000000E+00  0.00000000E+00
  0.00000000E+00  0.00000000E+00  0.00000000E+00
  0.00000000E+00  0.00000000E+00  0.00000000E+00
  0.00000000E+00  0.00000000E+00  0.00000000E+00
  0.00000000E+00  0.00000000E+00  0.00000000E+00
  0.00000000E+00  0.00000000E+00  0.00000000E+00
  0.00000000E+00  0.00000000E+00  0.00000000E+00
  0.00000000E+00  0.00000000E+00  0.00000000E+00
  0.00000000E+00  0.00000000E+00  0.00000000E+00
  0.00000000E+00  0.00000000E+00  0.00000000E+00
  0.00000000E+00  0.00000000E+00  0.00000000E+00
  0.00000000E+00  0.00000000E+00  0.00000000E+00
  0.00000000E+00  0.00000000E+00  0.00000000E+00
  0.00000000E+00  0.00000000E+00  0.00000000E+00
  0.00000000E+00  0.00000000E+00  0.00000000E+00
  0.00000000E+00  0.00000000E+00  0.00000000E+00
  0.00000000E+00  0.00000000E+00  0.00000000E+00
  0.00000000E+00  0.00000000E+00  0.00000000E+00
  0.00000000E+00  0.00000000E+00  0.00000000E+00
  0.00000000E+00  0.00000000E+00  0.00000000E+00
  0.00000000E+00  0.00000000E+00  0.00000000E+00
  0.00000000E+00  0.00000000E+00  0.00000000E+00
  0.00000000E+00  0.00000000E+00  0.00000000E+00
  0.00000000E+00  0.00000000E+00  0.00000000E+00
  0.00000000E+00  0.00000000E+00  0.00000000E+00
  0.00000000E+00  0.00000000E+00  0.00000000E+00
  0.00000000E+00  0.00000000E+00  0.00000000E+00
  0.00000000E+00  0.00000000E+00  0.00000000E+00
  0.00000000E+00  0.00000000E+00  0.00000000E+00
  0.00000000E+00  0.00000000E+00  0.00000000E+00
  0.00000000E+00  0.00000000E+00  0.00000000E+00
  0.00000000E+00  0.00000000E+00  0.00000000E+00
  0.00000000E+00  0.00000000E+00  0.00000000E+00
  0.00000000E+00  0.00000000E+00  0.00000000E+00
  0.00000000E+00  0.00000000E+00  0.00000000E+00
  0.00000000E+00  0.00000000E+00  0.00000000E+00
  0.00000000E+00  0.00000000E+00  0.00000000E+00
  0.00000000E+00  0.00000000E+00  0.00000000E+00
  0.00000000E+00  0.00000000E+00  0.00000000E+00
  0.00000000E+00  0.00000000E+00  0.00000000E+00
  0.00000000E+00  0.00000000E+00  0.00000000E+00
  0.00000000E+00  0.00000000E+00  0.00000000E+00
  0.00000000E+00  0.00000000E+00  0.00000000E+00
  0.00000000E+00  0.00000000E+00  0.00000000E+00
  0.00000000E+00  0.00000000E+00  0.00000000E+00
  0.00000000E+00  0.00000000E+00  0.00000000E+00
  0.00000000E+00  0.00000000E+00  0.00000000E+00
  0.00000000E+00  0.00000000E+00  0.00000000E+00
  0.00000000E+00  0.00000000E+00  0.00000000E+00
  0.00000000E+00  0.00000000E+00  0.00000000E+00
  0.00000000E+00  0.00000000E+00  0.00000000E+00
  0.00000000E+00  0.00000000E+00  0.00000000E+00
  0.00000000E+00  0.00000000E+00  0.00000000E+00
  0.00000000E+00  0.00000000E+00  0.00000000E+00
  0.00000000E+00  0.00000000E+00  0.00000000E+00
  0.00000000E+00  0.00000000E+00  0.00000000E+00
  0.00000000E+00  0.00000000E+00  0.00000000E+00
  0.00000000E+00  0.00000000E+00  0.00000000E+00
  0.00000000E+00  0.00000000E+00  0.00000000E+00
  0.00000000E+00  0.00000000E+00  0.00000000E+00
  0.00000000E+00  0.00000000E+00  0.00000000E+00
  0.00000000E+00  0.00000000E+00  0.00000000E+00
  0.00000000E+00  0.00000000E+00  0.00000000E+00
  0.00000000E+00  0.00000000E+00  0.00000000E+00
  0.00000000E+00  0.00000000E+00  0.00000000E+00
  0.00000000E+00  0.00000000E+00  0.00000000E+00
  0.00000000E+00  0.00000000E+00  0.00000000E+00
  0.00000000E+00  0.00000000E+00  0.00000000E+00
  0.00000000E+00  0.00000000E+00  0.00000000E+00
  0.00000000E+00  0.00000000E+00  0.00000000E+00
  0.00000000E+00  0.00000000E+00  0.00000000E+00
  0.00000000E+00  0.00000000E+00  0.00000000E+00
  0.00000000E+00  0.00000000E+00  0.00000000E+00
  0.00000000E+00  0.00000000E+00  0.00000000E+00
  0.00000000E+00  0.00000000E+00  0.00000000E+00
  0.00000000E+00  0.00000000E+00  0.00000000E+00
  0.00000000E+00  0.00000000E+00  0.00000000E+00
  0.00000000E+00  0.00000000E+00  0.00000000E+00
  0.00000000E+00  0.00000000E+00  0.00000000E+00
  0.00000000E+00  0.00000000E+00  0.00000000E+00
  0.00000000E+00  0.00000000E+00  0.00000000E+00
  0.00000000E+00  0.00000000E+00  0.00000000E+00
  0.00000000E+00  0.00000000E+00  0.00000000E+00
  0.00000000E+00  0.00000000E+00  0.00000000E+00
  0.00000000E+00  0.00000000E+00  0.00000000E+00
  0.00000000E+00  0.00000000E+00  0.00000000E+00
  0.00000000E+00  0.00000000E+00  0.00000000E+00
  0.00000000E+00  0.00000000E+00  0.00000000E+00
  0.00000000E+00  0.00000000E+00  0.00000000E+00
  0.00000000E+00  0.00000000E+00  0.00000000E+00
  0.00000000E+00  0.00000000E+00  0.00000000E+00
  0.00000000E+00  0.00000000E+00  0.00000000E+00
  0.00000000E+00  0.00000000E+00  0.00000000E+00
  0.00000000E+00  0.00000000E+00  0.00000000E+00
  0.00000000E+00  0.00000000E+00  0.00000000E+00
  0.00000000E+00  0.00000000E+00  0.00000000E+00
  0.00000000E+00  0.00000000E+00  0.00000000E+00
  0.00000000E+00  0.00000000E+00  0.00000000E+00
  0.00000000E+00  0.00000000E+00  0.00000000E+00
  0.00000000E+00  0.00000000E+00  0.00000000E+00
  0.00000000E+00  0.00000000E+00  0.00000000E+00
  0.00000000E+00  0.00000000E+00  0.00000000E+00
  0.00000000E+00  0.00000000E+00  0.00000000E+00
  0.00000000E+00  0.00000000E+00  0.00000000E+00
  0.00000000E+00  0.00000000E+00  0.00000000E+00
  0.00000000E+00  0.00000000E+00  0.00000000E+00
  0.00000000E+00  0.00000000E+00  0.00000000E+00
  0.00000000E+00  0.00000000E+00  0.00000000E+00
  0.00000000E+00  0.00000000E+00  0.00000000E+00
  0.00000000E+00  0.00000000E+00  0.00000000E+00
  0.00000000E+00  0.00000000E+00  0.00000000E+00
  0.00000000E+00  0.00000000E+00  0.00000000E+00
  0.00000000E+00  0.00000000E+00  0.00000000E+00
  0.00000000E+00  0.00000000E+00  0.00000000E+00
  0.00000000E+00  0.00000000E+00  0.00000000E+00
  0.00000000E+00  0.00000000E+00  0.00000000E+00
  0.00000000E+00  0.00000000E+00  0.00000000E+00
  0.00000000E+00  0.00000000E+00  0.00000000E+00
  0.00000000E+00  0.00000000E+00  0.00000000E+00
  0.00000000E+00  0.00000000E+00  0.00000000E+00
  0.00000000E+00  0.00000000E+00  0.00000000E+00
  0.00000000E+00  0.00000000E+00  0.00000000E+00
  0.00000000E+00  0.00000000E+00  0.00000000E+00
  0.00000000E+00  0.00000000E+00  0.00000000E+00
  0.00000000E+00  0.00000000E+00  0.00000000E+00
  0.00000000E+00  0.00000000E+00  0.00000000E+00
  0.00000000E+00  0.00000000E+00  0.00000000E+00
  0.00000000E+00  0.00000000E+00  0.00000000E+00
  0.00000000E+00  0.00000000E+00  0.00000000E+00
  0.00000000E+00  0.00000000E+00  0.00000000E+00
  0.00000000E+00  0.00000000E+00  0.00000000E+00
  0.00000000E+00  0.00000000E+00  0.00000000E+00
  0.00000000E+00  0.00000000E+00  0.00000000E+00
  0.00000000E+00  0.00000000E+00  0.00000000E+00
  0.00000000E+00  0.00000000E+00  0.00000000E+00
  0.00000000E+00  0.00000000E+00  0.00000000E+00
  0.00000000E+00  0.00000000E+00  0.00000000E+00
  0.00000000E+00  0.00000000E+00  0.00000000E+00
  0.00000000E+00  0.00000000E+00  0.00000000E+00
  0.00000000E+00  0.00000000E+00  0.00000000E+00
  0.00000000E+00  0.00000000E+00  0.00000000E+00
  0.00000000E+00  0.00000000E+00  0.00000000E+00
  0.00000000E+00  0.00000000E+00  0.00000000E+00
  0.00000000E+00  0.00000000E+00  0.00000000E+00
  0.00000000E+00  0.00000000E+00  0.00000000E+00
  0.00000000E+00  0.00000000E+00  0.00000000E+00
  0.00000000E+00  0.00000000E+00  0.00000000E+00
  0.00000000E+00  0.00000000E+00  0.00000000E+00
  0.00000000E+00  0.00000000E+00  0.00000000E+00
  0.00000000E+00  0.00000000E+00  0.00000000E+00
  0.00000000E+00  0.00000000E+00  0.00000000E+00
  0.00000000E+00  0.00000000E+00  0.00000000E+00
  0.00000000E+00  0.00000000E+00  0.00000000E+00
  0.00000000E+00  0.00000000E+00  0.00000000E+00
  0.00000000E+00  0.00000000E+00  0.00000000E+00
  0.00000000E+00  0.00000000E+00  0.00000000E+00
  0.00000000E+00  0.00000000E+00  0.00000000E+00
  0.00000000E+00  0.00000000E+00  0.00000000E+00
  0.00000000E+00  0.00000000E+00  0.00000000E+00
  0.00000000E+00  0.00000000E+00  0.00000000E+00
  0.00000000E+00  0.00000000E+00  0.00000000E+00
  0.00000000E+00  0.00000000E+00  0.00000000E+00
  0.00000000E+00  0.00000000E+00  0.00000000E+00
  0.00000000E+00  0.00000000E+00  0.00000000E+00
  0.00000000E+00  0.00000000E+00  0.00000000E+00
  0.00000000E+00  0.00000000E+00  0.00000000E+00
  0.00000000E+00  0.00000000E+00  0.00000000E+00
  0.00000000E+00  0.00000000E+00  0.00000000E+00
  0.00000000E+00  0.00000000E+00  0.00000000E+00
  0.00000000E+00  0.00000000E+00  0.00000000E+00
  0.00000000E+00  0.00000000E+00  0.00000000E+00
  0.00000000E+00  0.00000000E+00  0.00000000E+00
  0.00000000E+00  0.00000000E+00  0.00000000E+00
  0.00000000E+00  0.00000000E+00  0.00000000E+00
  0.00000000E+00  0.00000000E+00  0.00000000E+00
  0.00000000E+00  0.00000000E+00  0.00000000E+00
  0.00000000E+00  0.00000000E+00  0.00000000E+00
  0.00000000E+00  0.00000000E+00  0.00000000E+00
  0.00000000E+00  0.00000000E+00  0.00000000E+00
  0.00000000E+00  0.00000000E+00  0.00000000E+00
  0.00000000E+00  0.00000000E+00  0.00000000E+00
  0.00000000E+00  0.00000000E+00  0.00000000E+00
  0.00000000E+00  0.00000000E+00  0.00000000E+00
  0.00000000E+00  0.00000000E+00  0.00000000E+00
  0.00000000E+00  0.00000000E+00  0.00000000E+00
  0.00000000E+00  0.00000000E+00  0.00000000E+00
  0.00000000E+00  0.00000000E+00  0.00000000E+00
  0.00000000E+00  0.00000000E+00  0.00000000E+00
  0.00000000E+00  0.00000000E+00  0.00000000E+00
  0.00000000E+00  0.00000000E+00  0.00000000E+00
  0.00000000E+00  0.00000000E+00  0.00000000E+00
  0.00000000E+00  0.00000000E+00  0.00000000E+00
  0.00000000E+00  0.00000000E+00  0.00000000E+00
  0.00000000E+00  0.00000000E+00  0.00000000E+00
  0.00000000E+00  0.00000000E+00  0.00000000E+00
  0.00000000E+00  0.00000000E+00  0.00000000E+00
  0.00000000E+00  0.00000000E+00  0.00000000E+00
  0.00000000E+00  0.00000000E+00  0.00000000E+00
  0.00000000E+00  0.00000000E+00  0.00000000E+00
  0.00000000E+00  0.00000000E+00  0.00000000E+00
  0.00000000E+00  0.00000000E+00  0.00000000E+00
  0.00000000E+00  0.00000000E+00  0.00000000E+00
  0.00000000E+00  0.00000000E+00  0.00000000E+00