CuInSe2gb                               
   1.00000000000000     
     9.7266780392896699    0.0000000000000000    0.0000000000000000
     0.0000000000000000    8.4235502764570693    0.0000000000000000
     0.0000000000000000    0.0000000000000000   45.0000000000000000
   Fe   Mn
   274    14
Direct
  0.0626487597323014  0.0342130198589613  0.1254522330981098
  0.3131859160916490  0.8718681521531538  0.6539956297172813
  0.1874776578278174  0.1169331789846454  0.7871414160875437
  0.4376930979098034  0.2912441795560020  0.3897117490100928
  0.3150665103755836  0.7081108402855604  0.8315246376854006
  0.8141616635936366  0.2096106988513763  0.8325658188971924
  0.1876698955806994  0.9593396557980705  0.8323115613569678
  0.5629901395959065  0.2073790043959936  0.5650692975577244
  0.0622988268299449  0.0355310063666902  0.7427543731410594
  0.8124625767054611  0.8710109205350162  0.5211256546694644
  0.1893694692403989  0.2859343664556473  0.7426160471197704
  0.9365321590723501  0.4563777175613564  0.3462832860399160
  0.9360721815606752  0.2906612099215707  0.3899120679247814
  0.8120998107516729  0.0349023893377171  0.8742929752232017
  0.1859693978606802  0.7871745395273992  0.6100730599022529
  0.5619888883695409  0.0410819962248046  0.3899946616189029
  0.9391259037776039  0.9596705328666472  0.8324823940587079
  0.3139703842870429  0.5350244920173701  0.8746141321441291
  0.6886210300417697  0.2864355707859369  0.7425141606366212
  0.1890491257042183  0.6193435242502338  0.1677881082145010
  0.8114267552414893  0.2059797846135962  0.4789114719809990
  0.8123352690507674  0.5359832665158671  0.6102562023684828
  0.3125296490951993  0.8728929675822431  0.4346413337038919
  0.8120242318520369  0.0404814368195344  0.2574274680913903
  0.6875160042276978  0.9554477275013586  0.3459219417388419
  0.9361729284425400  0.1200450588318106  0.1685752399070128
  0.0628687346249650  0.8710758451425298  0.5211429065554561
  0.5624663464179002  0.5413210407634675  0.2571706266189761
  0.6862472957813136  0.7908362914518677  0.8745003373391198
  0.5638234884843697  0.3696722580424552  0.1679136439424085
  0.4374508471647713  0.7872434025722579  0.7428687608942065
  0.8124501326060819  0.7069186179369074  0.5649696758329253
  0.5622490236574857  0.8672106037242674  0.7871249342432671
  0.6866584070224407  0.1209120026958818  0.5211965632113718
  0.8136873697135346  0.3711710134249567  0.6540136660606741
  0.9381050785590483  0.4585532782475516  0.8324579736793970
  0.0621511442025105  0.2059692180527556  0.6985697688010744
  0.4368813663201951  0.9559006093213165  0.6983865147199682
  0.3129408499459053  0.2070857218732480  0.8322665370310545
  0.4379225832765544  0.6217508938335522  0.6539330704355577
  0.3118073469458204  0.5364930656258303  0.6101502639190562
  0.9372681443660443  0.4573253234941807  0.5650693505281105
  0.6876796956845399  0.7876585517594644  0.7428723255229297
  0.9370096824616361  0.7919172881737012  0.1255037016632593
  0.6875226449149247  0.7894959296566302  0.3896616725766222
  0.9377216951019820  0.7866023856157620  0.7430992520913917
  0.0631615244792652  0.2059737063751771  0.3459126743411056
  0.8117759829316386  0.0408082697485856  0.3900419116754189
  0.4376463080500533  0.1170317870602869  0.7872930368788386
  0.0623321759625309  0.2075723410725355  0.2127739591750568
  0.0613903467539007  0.3701298646628660  0.1680290128014260
  0.9358502346071021  0.7912498728035136  0.2572226000706667
  0.5626238916833164  0.2056780795647610  0.6985888048571757
  0.6870878390055996  0.9560670779235866  0.6985470596308614
  0.8119385201166257  0.8675189516116050  0.7870964580277051
  0.4376363123726489  0.9566249748921810  0.5648039011877901
  0.8126633819465465  0.3682528644089073  0.7871567654122554
  0.6853063341319837  0.2916470856708292  0.2574224700707097
  0.1878406462283005  0.4572881872964760  0.5649576042807978
  0.0618940501051316  0.8704553172894314  0.1680401302168676
  0.1868691701193314  0.2867966080721454  0.6102424118325173
  0.5638329805399867  0.7065148834996754  0.3463038328829962
  0.3123564228595489  0.2060241897181004  0.6986066041226624
  0.5617958686791948  0.5346793768784714  0.8745133761708853
  0.0629063392678918  0.7068290887117832  0.5648894851275410
  0.6880597774613119  0.6172734742607019  0.7872603426940782
  0.3117870051795767  0.5405085877985408  0.3896938828673024
  0.1876987898057716  0.6207688060924040  0.5211158375173875
  0.5632976638941908  0.8740998782449887  0.4350016972192296
  0.4371100840926117  0.4570796237411184  0.5648743253671534
  0.4373924281894331  0.2874553177350262  0.7428213039734044
  0.8123411138731784  0.8772884205826884  0.3015264174185675
  0.8118374744741912  0.7065398208923485  0.3463867256766900
  0.4382597545676863  0.4567275407181467  0.8316457394607389
  0.6875387425770394  0.9560349286960009  0.4787684836442402
  0.6871024719487829  0.4563063604964241  0.6985852367261679
  0.5629335242500986  0.8711432501282095  0.5211548039553638
  0.5634982613337114  0.3713467709972040  0.6538047834394380
  0.8131915129521339  0.8719665068567816  0.6539262588072070
  0.8126659130493088  0.3736639098751179  0.4346556534153133
  0.8126185374826906  0.5407203757643222  0.2573734441520369
  0.6892548995787794  0.4555824286630781  0.8318809056186556
  0.1881265628482326  0.7897654564803728  0.1253867256775885
  0.6879092632494030  0.2908826903929699  0.3895874467911034
  0.3131217189572016  0.3715384594051777  0.6538448125379099
  0.3128228603269538  0.2055805523906381  0.3460303668761588
  0.8128531646654679  0.5362665851583437  0.7428155942359513
  0.6877292849911303  0.9573429375332586  0.8320324456194172
  0.5625958478077252  0.8718861020459411  0.6539443644163446
  0.3125896724262375  0.7073625267665197  0.5650930867655723
  0.3112679693981820  0.5351119617610275  0.1253461046050469
  0.6876269915198437  0.9579624623323156  0.2129853915774073
  0.3124911546174936  0.2075143620751519  0.5651924137839950
  0.1869549774253714  0.9565787999686338  0.4787197332078458
  0.6877619442176882  0.9572782612275003  0.5650728438650889
  0.4367649936655385  0.7864078481489126  0.6100489582558318
  0.6865743885652065  0.6179945212248534  0.1676967126616023
  0.3126912588227463  0.8752753394699103  0.3014240924371395
  0.3127416285954865  0.7057131073463438  0.4787170309503125
  0.9361113032532622  0.2871896356054101  0.6101514592778845
  0.4376779053643257  0.6264448493696202  0.3016936145629467
  0.8128761986355066  0.8692721556024851  0.1683885981643480
  0.5631845734958791  0.2072623962262043  0.2128892795452676
  0.9369379114300279  0.6178011516686968  0.1681362771262323
  0.9396528753953862  0.7889457655452803  0.8746603075829544
  0.5623874168455938  0.3670387555524712  0.7871261587338950
  0.0620264744336971  0.3713802504000974  0.5211876270982332
  0.3122552786533783  0.3685465581881859  0.1683156513456472
  0.6880992551831128  0.1252559541926135  0.3013592022769351
  0.4398437660922953  0.9575382569285655  0.8318067383829154
  0.1868342525937660  0.2914619955575564  0.1254637215523220
  0.1861305625693909  0.2921861873304419  0.2574413512409817
  0.3123242399924371  0.3733676242525645  0.4347795727554501
  0.5623478533554035  0.0351397917606255  0.1254344826111299
  0.4362322821740270  0.2868098087647331  0.6100327782269255
  0.1867819288875751  0.4580727737182120  0.3465927512546603
  0.4374254573884506  0.2912696489949108  0.1255134073997469
  0.6865468015509131  0.7912934959535445  0.2573237768013266
  0.4370034470740533  0.1214635583185872  0.5211456834261096
  0.1888511153371448  0.2907249787747714  0.8745732668772849
  0.1878804298554176  0.1216920787754973  0.6539148357793219
  0.9379722919185065  0.1218517604965478  0.6539081000400641
  0.3125773139439187  0.2080645791182235  0.2129352726408809
  0.0627666101355878  0.0396356040266662  0.3897134369079374
  0.1870499069864308  0.1173468504630577  0.1676162342534783
  0.0622033066944726  0.5355228441207693  0.6102230212393105
  0.9370603925195932  0.2914016939661335  0.2573950013563134
  0.5621124018478417  0.5362501246136198  0.6101623122999916
  0.9374518830174511  0.9576021292977503  0.5650486449463055
  0.6873041749596464  0.6250774561500008  0.3014748031421379
  0.9366112798749399  0.6237941378197451  0.4349761947030444
  0.9370459907602817  0.6178584572708659  0.7870287414619735
  0.5620198948940414  0.7051380839399313  0.6984505180450673
  0.0627287301694259  0.7104553139912456  0.8324518597048940
  0.9380862100884062  0.1251507427203258  0.3014124010743242
  0.9372448768538121  0.7855617759914968  0.6102461251046206
  0.4356857097594940  0.7921330189877342  0.2572935288804715
  0.3122718791452580  0.3676068447756717  0.7870430541894321
  0.4370894940623756  0.4571733168892184  0.2129088646258508
  0.1879671459235515  0.1207254513642677  0.5211756730517720
  0.8121648420013957  0.7059073316109827  0.6984842861663001
  0.0614063672202664  0.0361661282518609  0.6100514520279161
  0.5624225214484848  0.2069608411339954  0.8316763750342919
  0.3114514482588522  0.8710473925218897  0.5210998020279128
  0.6882275811214239  0.2911735217877497  0.1254170205695664
  0.1871459525798652  0.9581571763106849  0.2130594040169371
  0.6857887933766701  0.2872837344705368  0.6101319720074303
  0.3113699949026065  0.0364617452782036  0.6103316383605553
  0.9378954918265836  0.1172381589467628  0.7872421440126490
  0.4377828889812135  0.7913689700888140  0.8744791967272851
  0.8128995509679172  0.0374654429070772  0.7427448351399688
  0.9369112019347881  0.4566646426368951  0.6985409631328098
  0.1877833303246014  0.6217497745244961  0.6538986317072797
  0.3123183026003913  0.7059953243918372  0.6985527980789045
  0.9368385923571539  0.2909110794232391  0.1254645743104665
  0.4373406586679776  0.4557406101956019  0.4787488459326532
  0.0623987233831504  0.7060600209143402  0.4786649801384761
  0.9365194581501395  0.1241770940618742  0.4352982746617318
  0.4375260894693818  0.1257390937652684  0.3016393990653112
  0.1876754975953868  0.1236423388440012  0.4347050109880683
  0.5627263688417258  0.0335531818379062  0.8745905809322931
  0.1874308682749737  0.9576023153759815  0.5651082737527527
  0.6885687082025428  0.7904939200134350  0.1257501844808077
  0.5638551964425298  0.5343394753251455  0.1254173273516510
  0.3126203774149272  0.0401683674776584  0.3898739188226807
  0.6887667465960533  0.1203034251455571  0.1687115395534922
  0.8124387135437861  0.2083340963831950  0.2125703181122727
  0.0642952089975121  0.5416759517869139  0.2573130633436766
  0.5621513769375555  0.7059208501376394  0.4786787241809425
  0.0629336956936346  0.2069308398322719  0.5648972273978876
  0.5621848840114753  0.3767729834322822  0.3015141378578982
  0.4368735970029667  0.9566106832574686  0.3462857299522272
  0.1875276985545791  0.9559325836896179  0.6985732608442785
  0.4364802096437095  0.6182562084994289  0.1674212722333547
  0.9375187018983880  0.4580036916315195  0.2130657583292556
  0.0621622476117514  0.5332996829505252  0.1253653852860768
  0.8132853051901596  0.3715969800874953  0.5212219367247525
  0.9374622584260743  0.6251631896763047  0.3012672056512816
  0.3133175006275920  0.0411512001708064  0.2570241450081691
  0.6871648922741787  0.7858711762865002  0.6102317906012741
  0.1883827803490177  0.4585428860203026  0.8322054158122785
  0.4370085395553128  0.1160539000071181  0.1674646182181578
  0.3119129889737424  0.3709799976508270  0.5211161312388709
  0.4374945881334856  0.6172220804343888  0.7873372170001788
  0.0617167463498403  0.0410261541523456  0.2572088724497564
  0.5625551010934632  0.7074523470324392  0.5652235282831215
  0.9379173355383282  0.2857766633132658  0.7426096803034035
  0.6869013558307823  0.1175144402427306  0.7870206675115067
  0.1879950158672752  0.4573409933282339  0.2128378057419784
  0.9374165469505237  0.7906612609891521  0.3897875486197137
  0.6864755827224726  0.2926502867933945  0.8746080636598408
  0.5619420665486510  0.8686891058746068  0.1675863692533863
  0.4374232989327155  0.4560598988100024  0.6986386687868594
  0.9386757101674605  0.9562312925387770  0.3461446025002861
  0.6866187433576445  0.6216386317563038  0.5211515104328308
  0.0628717814467019  0.8718041568410552  0.6539119814134396
  0.0621529848171458  0.8680908432318351  0.7870704340911588
  0.0626843256016033  0.3709576745286907  0.6539118915447671
  0.6878981708821582  0.4556839537561723  0.4788513457720926
  0.1873291345106360  0.7917639043780024  0.2572550142138018
  0.4374158618783623  0.1230231248281814  0.4346543752316361
  0.8134862424657753  0.0338936799190912  0.1254651775213003
  0.9370911694691407  0.6212140206049809  0.5212251094078998
  0.0628754978442232  0.8729870964284472  0.4346452162752641
  0.8128685871245915  0.5328209951030916  0.1250842246178953
  0.4371456598398645  0.4568651082301333  0.3464051587852487
  0.8128557129382381  0.2073960190099500  0.3463524160524101
  0.3128861091551894  0.7054212850304179  0.3459832439549885
  0.6876885666587556  0.1220725789357927  0.6539738249415954
  0.5631870382049211  0.8758754044173220  0.3017758472740514
  0.0634492802528584  0.5356192932600450  0.7428097706551982
  0.9382098621192640  0.9578078779656221  0.2128183400244473
  0.8128544687073656  0.7080706574991753  0.2128376881504181
  0.0620265475726621  0.8755635841824839  0.3017738286794900
  0.1877356098023278  0.1265529766999993  0.3017061748995104
  0.0618970480779645  0.7062448466901077  0.3462845826834564
  0.8116871024523770  0.0361696703963577  0.6099602401335420
  0.0626016638537961  0.3727546050729497  0.4346099915223989
  0.5625231883576504  0.2071465615619882  0.3463203237906903
  0.8129582538932908  0.3763064452812806  0.3015605889702722
  0.5630319097579893  0.0421478156858594  0.2572179934750883
  0.5627318719861604  0.5406347930661828  0.3898446383398981
  0.0627201980935456  0.2057573798170711  0.4786926166609961
  0.3129781354969122  0.8671409650375606  0.7869597636019011
  0.9374164885511721  0.9561170542134350  0.6985584346883983
  0.0628561906556296  0.3759587907731595  0.3013602385085277
  0.6878816515072858  0.6223992182032844  0.6540313948756180
  0.6874179679266409  0.4569036220823979  0.5649366473167324
  0.4377027569234345  0.9579569297147301  0.2130623867644074
  0.3123953592107500  0.2056785515376165  0.4787103431101765
  0.4383794960067388  0.1213572500357156  0.6537671851114688
  0.6874081466374438  0.6230108040162957  0.4346209121919501
  0.8125336875127619  0.2057592197095638  0.6986010029553043
  0.8123128572097057  0.7057859704135296  0.4787111247959495
  0.8117309163881219  0.8738548350637227  0.4348563383906179
  0.9374868263323981  0.9554872905840169  0.4788714752200353
  0.5625172768998882  0.2059270688147697  0.4787802221206842
  0.1875265804809453  0.6239727935421836  0.4348518967827066
  0.3127388827392987  0.0376421892423984  0.7428018598909073
  0.9377008443369605  0.6219897522670532  0.6538349491286010
  0.5636810795030369  0.7080690075858485  0.8318880654241019
  0.3127370036191070  0.3739259838849964  0.3014142233384749
  0.5621238422395894  0.7078981687783898  0.2127592871761500
  0.1872429114873204  0.4559121178306244  0.4787056391623343
  0.3136607637954904  0.0352551591259068  0.8743458869709210
  0.1866322381203522  0.4565030354359639  0.6984994095601006
  0.8110524849068129  0.5343062348258227  0.8746480100159694
  0.1876045065561654  0.2907190691717468  0.3898612845821443
  0.4367279426309675  0.6238864702093637  0.4347787734772340
  0.0625347772405373  0.7080244831240214  0.2128261071203685
  0.5622679534373535  0.3743798589480642  0.4353672228081488
  0.4378927245306705  0.6220973358495459  0.5212217336605398
  0.8132964355064251  0.7097045897201062  0.8316996405193362
  0.0622126951245032  0.3679625458822746  0.7870884768990473
  0.4374924815272879  0.2921449320425220  0.8747839705720857
  0.3143312423120981  0.0355779835586936  0.1253576101272140
  0.6875538356098294  0.1213146200470989  0.4345599113554749
  0.1867195708625571  0.9573398149283837  0.3462787336010600
  0.0633067985074298  0.2094064649345377  0.8327707168372311
  0.5620044188842306  0.0356786829278850  0.6102935251770153
  0.6872241798201826  0.4577688418240727  0.2131203425442115
  0.1876094227627102  0.7865076305915606  0.7428104958723296
  0.1873335829478207  0.6270137706796532  0.3017966476963908
  0.4365293523141923  0.7915152821303414  0.3900797651191182
  0.4350224649842569  0.2925559281949599  0.2572979578157770
  0.0635121476101991  0.5358036772082961  0.8745223469259846
  0.5635724682002476  0.0362324554781801  0.7428060312167676
  0.1879469420497279  0.7910423244789938  0.8745182313928790
  0.9373984424671796  0.4556261579850199  0.4787450063119110
  0.5634838302274414  0.5370301803152082  0.7423684884471754
  0.8120338932018472  0.2071655117402309  0.5648665216217429
  0.1875854670758710  0.6169584815157457  0.7871353410299047
  0.0630657408004754  0.5402952870443378  0.3897413389842698
  0.0625382264510117  0.7059685437930666  0.6986124804173879
  0.3123935570098804  0.5424453201367924  0.2568877582461394
  0.3132319595294158  0.7059241355798991  0.2134075790798584
  0.3128237166239626  0.8692572655866395  0.1669220320400969
  0.8130798639980888  0.5394961750485722  0.3901461395184370
  0.6860527956724990  0.4548138806293521  0.3459819534634760
  0.9348512765760835  0.2921928383525491  0.8741243639734280
  0.4373204243853566  0.9566175340855199  0.4788536037886252
  0.0636360676776599  0.0314886219251488  0.8743268031927292
  0.1867098616516306  0.7928730008108564  0.3901581183195504
  0.8124787574081426  0.3702767325427589  0.1674843830151471
  0.5624353263700049  0.3709146948229370  0.5212566865936537
  0.9371376944390942  0.1209967775194129  0.5212094096529937
  0.4368754581685431  0.7918423492611163  0.1253498162509260
  0.3129743170313590  0.5350372812023869  0.7428709679795917
 
  0.00000000E+00  0.00000000E+00  0.00000000E+00
  0.00000000E+00  0.00000000E+00  0.00000000E+00
  0.00000000E+00  0.00000000E+00  0.00000000E+00
  0.00000000E+00  0.00000000E+00  0.00000000E+00
  0.00000000E+00  0.00000000E+00  0.00000000E+00
  0.00000000E+00  0.00000000E+00  0.00000000E+00
  0.00000000E+00  0.00000000E+00  0.00000000E+00
  0.00000000E+00  0.00000000E+00  0.00000000E+00
  0.00000000E+00  0.00000000E+00  0.00000000E+00
  0.00000000E+00  0.00000000E+00  0.00000000E+00
  0.00000000E+00  0.00000000E+00  0.00000000E+00
  0.00000000E+00  0.00000000E+00  0.00000000E+00
  0.00000000E+00  0.00000000E+00  0.00000000E+00
  0.00000000E+00  0.00000000E+00  0.00000000E+00
  0.00000000E+00  0.00000000E+00  0.00000000E+00
  0.00000000E+00  0.00000000E+00  0.00000000E+00
  0.00000000E+00  0.00000000E+00  0.00000000E+00
  0.00000000E+00  0.00000000E+00  0.00000000E+00
  0.00000000E+00  0.00000000E+00  0.00000000E+00
  0.00000000E+00  0.00000000E+00  0.00000000E+00
  0.00000000E+00  0.00000000E+00  0.00000000E+00
  0.00000000E+00  0.00000000E+00  0.00000000E+00
  0.00000000E+00  0.00000000E+00  0.00000000E+00
  0.00000000E+00  0.00000000E+00  0.00000000E+00
  0.00000000E+00  0.00000000E+00  0.00000000E+00
  0.00000000E+00  0.00000000E+00  0.00000000E+00
  0.00000000E+00  0.00000000E+00  0.00000000E+00
  0.00000000E+00  0.00000000E+00  0.00000000E+00
  0.00000000E+00  0.00000000E+00  0.00000000E+00
  0.00000000E+00  0.00000000E+00  0.00000000E+00
  0.00000000E+00  0.00000000E+00  0.00000000E+00
  0.00000000E+00  0.00000000E+00  0.00000000E+00
  0.00000000E+00  0.00000000E+00  0.00000000E+00
  0.00000000E+00  0.00000000E+00  0.00000000E+00
  0.00000000E+00  0.00000000E+00  0.00000000E+00
  0.00000000E+00  0.00000000E+00  0.00000000E+00
  0.00000000E+00  0.00000000E+00  0.00000000E+00
  0.00000000E+00  0.00000000E+00  0.00000000E+00
  0.00000000E+00  0.00000000E+00  0.00000000E+00
  0.00000000E+00  0.00000000E+00  0.00000000E+00
  0.00000000E+00  0.00000000E+00  0.00000000E+00
  0.00000000E+00  0.00000000E+00  0.00000000E+00
  0.00000000E+00  0.00000000E+00  0.00000000E+00
  0.00000000E+00  0.00000000E+00  0.00000000E+00
  0.00000000E+00  0.00000000E+00  0.00000000E+00
  0.00000000E+00  0.00000000E+00  0.00000000E+00
  0.00000000E+00  0.00000000E+00  0.00000000E+00
  0.00000000E+00  0.00000000E+00  0.00000000E+00
  0.00000000E+00  0.00000000E+00  0.00000000E+00
  0.00000000E+00  0.00000000E+00  0.00000000E+00
  0.00000000E+00  0.00000000E+00  0.00000000E+00
  0.00000000E+00  0.00000000E+00  0.00000000E+00
  0.00000000E+00  0.00000000E+00  0.00000000E+00
  0.00000000E+00  0.00000000E+00  0.00000000E+00
  0.00000000E+00  0.00000000E+00  0.00000000E+00
  0.00000000E+00  0.00000000E+00  0.00000000E+00
  0.00000000E+00  0.00000000E+00  0.00000000E+00
  0.00000000E+00  0.00000000E+00  0.00000000E+00
  0.00000000E+00  0.00000000E+00  0.00000000E+00
  0.00000000E+00  0.00000000E+00  0.00000000E+00
  0.00000000E+00  0.00000000E+00  0.00000000E+00
  0.00000000E+00  0.00000000E+00  0.00000000E+00
  0.00000000E+00  0.00000000E+00  0.00000000E+00
  0.00000000E+00  0.00000000E+00  0.00000000E+00
  0.00000000E+00  0.00000000E+00  0.00000000E+00
  0.00000000E+00  0.00000000E+00  0.00000000E+00
  0.00000000E+00  0.00000000E+00  0.00000000E+00
  0.00000000E+00  0.00000000E+00  0.00000000E+00
  0.00000000E+00  0.00000000E+00  0.00000000E+00
  0.00000000E+00  0.00000000E+00  0.00000000E+00
  0.00000000E+00  0.00000000E+00  0.00000000E+00
  0.00000000E+00  0.00000000E+00  0.00000000E+00
  0.00000000E+00  0.00000000E+00  0.00000000E+00
  0.00000000E+00  0.00000000E+00  0.00000000E+00
  0.00000000E+00  0.00000000E+00  0.00000000E+00
  0.00000000E+00  0.00000000E+00  0.00000000E+00
  0.00000000E+00  0.00000000E+00  0.00000000E+00
  0.00000000E+00  0.00000000E+00  0.00000000E+00
  0.00000000E+00  0.00000000E+00  0.00000000E+00
  0.00000000E+00  0.00000000E+00  0.00000000E+00
  0.00000000E+00  0.00000000E+00  0.00000000E+00
  0.00000000E+00  0.00000000E+00  0.00000000E+00
  0.00000000E+00  0.00000000E+00  0.00000000E+00
  0.00000000E+00  0.00000000E+00  0.00000000E+00
  0.00000000E+00  0.00000000E+00  0.00000000E+00
  0.00000000E+00  0.00000000E+00  0.00000000E+00
  0.00000000E+00  0.00000000E+00  0.00000000E+00
  0.00000000E+00  0.00000000E+00  0.00000000E+00
  0.00000000E+00  0.00000000E+00  0.00000000E+00
  0.00000000E+00  0.00000000E+00  0.00000000E+00
  0.00000000E+00  0.00000000E+00  0.00000000E+00
  0.00000000E+00  0.00000000E+00  0.00000000E+00
  0.00000000E+00  0.00000000E+00  0.00000000E+00
  0.00000000E+00  0.00000000E+00  0.00000000E+00
  0.00000000E+00  0.00000000E+00  0.00000000E+00
  0.00000000E+00  0.00000000E+00  0.00000000E+00
  0.00000000E+00  0.00000000E+00  0.00000000E+00
  0.00000000E+00  0.00000000E+00  0.00000000E+00
  0.00000000E+00  0.00000000E+00  0.00000000E+00
  0.00000000E+00  0.00000000E+00  0.00000000E+00
  0.00000000E+00  0.00000000E+00  0.00000000E+00
  0.00000000E+00  0.00000000E+00  0.00000000E+00
  0.00000000E+00  0.00000000E+00  0.00000000E+00
  0.00000000E+00  0.00000000E+00  0.00000000E+00
  0.00000000E+00  0.00000000E+00  0.00000000E+00
  0.00000000E+00  0.00000000E+00  0.00000000E+00
  0.00000000E+00  0.00000000E+00  0.00000000E+00
  0.00000000E+00  0.00000000E+00  0.00000000E+00
  0.00000000E+00  0.00000000E+00  0.00000000E+00
  0.00000000E+00  0.00000000E+00  0.00000000E+00
  0.00000000E+00  0.00000000E+00  0.00000000E+00
  0.00000000E+00  0.00000000E+00  0.00000000E+00
  0.00000000E+00  0.00000000E+00  0.00000000E+00
  0.00000000E+00  0.00000000E+00  0.00000000E+00
  0.00000000E+00  0.00000000E+00  0.00000000E+00
  0.00000000E+00  0.00000000E+00  0.00000000E+00
  0.00000000E+00  0.00000000E+00  0.00000000E+00
  0.00000000E+00  0.00000000E+00  0.00000000E+00
  0.00000000E+00  0.00000000E+00  0.00000000E+00
  0.00000000E+00  0.00000000E+00  0.00000000E+00
  0.00000000E+00  0.00000000E+00  0.00000000E+00
  0.00000000E+00  0.00000000E+00  0.00000000E+00
  0.00000000E+00  0.00000000E+00  0.00000000E+00
  0.00000000E+00  0.00000000E+00  0.00000000E+00
  0.00000000E+00  0.00000000E+00  0.00000000E+00
  0.00000000E+00  0.00000000E+00  0.00000000E+00
  0.00000000E+00  0.00000000E+00  0.00000000E+00
  0.00000000E+00  0.00000000E+00  0.00000000E+00
  0.00000000E+00  0.00000000E+00  0.00000000E+00
  0.00000000E+00  0.00000000E+00  0.00000000E+00
  0.00000000E+00  0.00000000E+00  0.00000000E+00
  0.00000000E+00  0.00000000E+00  0.00000000E+00
  0.00000000E+00  0.00000000E+00  0.00000000E+00
  0.00000000E+00  0.00000000E+00  0.00000000E+00
  0.00000000E+00  0.00000000E+00  0.00000000E+00
  0.00000000E+00  0.00000000E+00  0.00000000E+00
  0.00000000E+00  0.00000000E+00  0.00000000E+00
  0.00000000E+00  0.00000000E+00  0.00000000E+00
  0.00000000E+00  0.00000000E+00  0.00000000E+00
  0.00000000E+00  0.00000000E+00  0.00000000E+00
  0.00000000E+00  0.00000000E+00  0.00000000E+00
  0.00000000E+00  0.00000000E+00  0.00000000E+00
  0.00000000E+00  0.00000000E+00  0.00000000E+00
  0.00000000E+00  0.00000000E+00  0.00000000E+00
  0.00000000E+00  0.00000000E+00  0.00000000E+00
  0.00000000E+00  0.00000000E+00  0.00000000E+00
  0.00000000E+00  0.00000000E+00  0.00000000E+00
  0.00000000E+00  0.00000000E+00  0.00000000E+00
  0.00000000E+00  0.00000000E+00  0.00000000E+00
  0.00000000E+00  0.00000000E+00  0.00000000E+00
  0.00000000E+00  0.00000000E+00  0.00000000E+00
  0.00000000E+00  0.00000000E+00  0.00000000E+00
  0.00000000E+00  0.00000000E+00  0.00000000E+00
  0.00000000E+00  0.00000000E+00  0.00000000E+00
  0.00000000E+00  0.00000000E+00  0.00000000E+00
  0.00000000E+00  0.00000000E+00  0.00000000E+00
  0.00000000E+00  0.00000000E+00  0.00000000E+00
  0.00000000E+00  0.00000000E+00  0.00000000E+00
  0.00000000E+00  0.00000000E+00  0.00000000E+00
  0.00000000E+00  0.00000000E+00  0.00000000E+00
  0.00000000E+00  0.00000000E+00  0.00000000E+00
  0.00000000E+00  0.00000000E+00  0.00000000E+00
  0.00000000E+00  0.00000000E+00  0.00000000E+00
  0.00000000E+00  0.00000000E+00  0.00000000E+00
  0.00000000E+00  0.00000000E+00  0.00000000E+00
  0.00000000E+00  0.00000000E+00  0.00000000E+00
  0.00000000E+00  0.00000000E+00  0.00000000E+00
  0.00000000E+00  0.00000000E+00  0.00000000E+00
  0.00000000E+00  0.00000000E+00  0.00000000E+00
  0.00000000E+00  0.00000000E+00  0.00000000E+00
  0.00000000E+00  0.00000000E+00  0.00000000E+00
  0.00000000E+00  0.00000000E+00  0.00000000E+00
  0.00000000E+00  0.00000000E+00  0.00000000E+00
  0.00000000E+00  0.00000000E+00  0.00000000E+00
  0.00000000E+00  0.00000000E+00  0.00000000E+00
  0.00000000E+00  0.00000000E+00  0.00000000E+00
  0.00000000E+00  0.00000000E+00  0.00000000E+00
  0.00000000E+00  0.00000000E+00  0.00000000E+00
  0.00000000E+00  0.00000000E+00  0.00000000E+00
  0.00000000E+00  0.00000000E+00  0.00000000E+00
  0.00000000E+00  0.00000000E+00  0.00000000E+00
  0.00000000E+00  0.00000000E+00  0.00000000E+00
  0.00000000E+00  0.00000000E+00  0.00000000E+00
  0.00000000E+00  0.00000000E+00  0.00000000E+00
  0.00000000E+00  0.00000000E+00  0.00000000E+00
  0.00000000E+00  0.00000000E+00  0.00000000E+00
  0.00000000E+00  0.00000000E+00  0.00000000E+00
  0.00000000E+00  0.00000000E+00  0.00000000E+00
  0.00000000E+00  0.00000000E+00  0.00000000E+00
  0.00000000E+00  0.00000000E+00  0.00000000E+00
  0.00000000E+00  0.00000000E+00  0.00000000E+00
  0.00000000E+00  0.00000000E+00  0.00000000E+00
  0.00000000E+00  0.00000000E+00  0.00000000E+00
  0.00000000E+00  0.00000000E+00  0.00000000E+00
  0.00000000E+00  0.00000000E+00  0.00000000E+00
  0.00000000E+00  0.00000000E+00  0.00000000E+00
  0.00000000E+00  0.00000000E+00  0.00000000E+00
  0.00000000E+00  0.00000000E+00  0.00000000E+00
  0.00000000E+00  0.00000000E+00  0.00000000E+00
  0.00000000E+00  0.00000000E+00  0.00000000E+00
  0.00000000E+00  0.00000000E+00  0.00000000E+00
  0.00000000E+00  0.00000000E+00  0.00000000E+00
  0.00000000E+00  0.00000000E+00  0.00000000E+00
  0.00000000E+00  0.00000000E+00  0.00000000E+00
  0.00000000E+00  0.00000000E+00  0.00000000E+00
  0.00000000E+00  0.00000000E+00  0.00000000E+00
  0.00000000E+00  0.00000000E+00  0.00000000E+00
  0.00000000E+00  0.00000000E+00  0.00000000E+00
  0.00000000E+00  0.00000000E+00  0.00000000E+00
  0.00000000E+00  0.00000000E+00  0.00000000E+00
  0.00000000E+00  0.00000000E+00  0.00000000E+00
  0.00000000E+00  0.00000000E+00  0.00000000E+00
  0.00000000E+00  0.00000000E+00  0.00000000E+00
  0.00000000E+00  0.00000000E+00  0.00000000E+00
  0.00000000E+00  0.00000000E+00  0.00000000E+00
  0.00000000E+00  0.00000000E+00  0.00000000E+00
  0.00000000E+00  0.00000000E+00  0.00000000E+00
  0.00000000E+00  0.00000000E+00  0.00000000E+00
  0.00000000E+00  0.00000000E+00  0.00000000E+00
  0.00000000E+00  0.00000000E+00  0.00000000E+00
  0.00000000E+00  0.00000000E+00  0.00000000E+00
  0.00000000E+00  0.00000000E+00  0.00000000E+00
  0.00000000E+00  0.00000000E+00  0.00000000E+00
  0.00000000E+00  0.00000000E+00  0.00000000E+00
  0.00000000E+00  0.00000000E+00  0.00000000E+00
  0.00000000E+00  0.00000000E+00  0.00000000E+00
  0.00000000E+00  0.00000000E+00  0.00000000E+00
  0.00000000E+00  0.00000000E+00  0.00000000E+00
  0.00000000E+00  0.00000000E+00  0.00000000E+00
  0.00000000E+00  0.00000000E+00  0.00000000E+00
  0.00000000E+00  0.00000000E+00  0.00000000E+00
  0.00000000E+00  0.00000000E+00  0.00000000E+00
  0.00000000E+00  0.00000000E+00  0.00000000E+00
  0.00000000E+00  0.00000000E+00  0.00000000E+00
  0.00000000E+00  0.00000000E+00  0.00000000E+00
  0.00000000E+00  0.00000000E+00  0.00000000E+00
  0.00000000E+00  0.00000000E+00  0.00000000E+00
  0.00000000E+00  0.00000000E+00  0.00000000E+00
  0.00000000E+00  0.00000000E+00  0.00000000E+00
  0.00000000E+00  0.00000000E+00  0.00000000E+00
  0.00000000E+00  0.00000000E+00  0.00000000E+00
  0.00000000E+00  0.00000000E+00  0.00000000E+00
  0.00000000E+00  0.00000000E+00  0.00000000E+00
  0.00000000E+00  0.00000000E+00  0.00000000E+00
  0.00000000E+00  0.00000000E+00  0.00000000E+00
  0.00000000E+00  0.00000000E+00  0.00000000E+00
  0.00000000E+00  0.00000000E+00  0.00000000E+00