CuInSe2gb                               
   1.00000000000000     
     9.7266780392896699    0.0000000000000000    0.0000000000000000
     0.0000000000000000    8.4235502764570693    0.0000000000000000
     0.0000000000000000    0.0000000000000000   45.0000000000000000
   Fe   Mn
   281     7
Direct
  0.0574408268704621  0.7014024597409260  0.2115879749565053
  0.3152496611984805  0.7188274213389081  0.8754641667165666
  0.6888648799132751  0.9573668572810623  0.6112793305858580
  0.4379439527058894  0.4570362230160407  0.6113005489909188
  0.4366491304116098  0.2869616277708980  0.2557784883144161
  0.0612021302221677  0.3861980767234769  0.8341682319900047
  0.3111781301567467  0.8862497872170728  0.8340139956850994
  0.4428125483531086  0.6259972546833267  0.7001654347615806
  0.0639016143355675  0.2128411583608456  0.7443482880843884
  0.1822531326380172  0.4513379336352135  0.2113434520705773
  0.5640487842751448  0.2086965251417444  0.4778381448540219
  0.0642741634275746  0.8739996988417797  0.5666420035719317
  0.5644365024150265  0.2192384446421473  0.8756035481598400
  0.8098520595425198  0.5320054245168595  0.1247364728672205
  0.4323770609528727  0.9514903689736046  0.2114332223998750
  0.5644373362905276  0.3744072086339235  0.5666066963773256
  0.8122978257154641  0.0421717167831328  0.3885641521608622
  0.6865766832513748  0.7903225297030450  0.5221077499271997
  0.4388858622209836  0.4586598971069025  0.4777471114787902
  0.4391991352108707  0.9623002090142850  0.7443191561173976
  0.4390914314801400  0.6243410304297524  0.5666395635606920
  0.0598227406907273  0.5318603520331979  0.1247724867890194
  0.3098871036911299  0.0319490296226348  0.1247647636506361
  0.6873339899680168  0.9587050365892311  0.3443734276455002
  0.6838966092307694  0.7832826082758302  0.1246329039904950
  0.0581137946558085  0.3730970421810910  0.2997659347836795
  0.6874467967170914  0.4706561767757197  0.8752733705796545
  0.4324090686139797  0.4513681966061809  0.2113656176875964
  0.8110433740405668  0.3749667019961153  0.4331370906714171
  0.8177754470961159  0.3762766911827818  0.7001734537562380
  0.5628414092188657  0.5407955876252560  0.6554667548121165
  0.9361137417900156  0.1250250867072383  0.4331556555450044
  0.5616392369211722  0.5373749045067168  0.2557023509367627
  0.6875248723031596  0.4587746492831780  0.3443669782355598
  0.1873676604296133  0.6153795144805357  0.1662468069617778
  0.1930190395206302  0.7980117254596957  0.7884236258928360
  0.4431138184784554  0.1251819193161954  0.7000082826232507
  0.9331235268780271  0.6230667980058480  0.2998249773130121
  0.3141638843131024  0.2191427066744419  0.8756630992095384
  0.3140456761791779  0.8742022564988163  0.5666305346472318
  0.8153897576850572  0.2184319954860192  0.8755566477811942
  0.8132008703380322  0.5412316256367765  0.6554789880723935
  0.5598544638909260  0.5320406176509124  0.1248192204605344
  0.5620840395347868  0.8651965970198098  0.1663467920149252
  0.1862358620207840  0.2869111781812077  0.2557980078254433
  0.8111882303100197  0.8751722526276396  0.4331270409688551
  0.5677836519569438  0.3761663997074368  0.7001957120747899
  0.0599077838150268  0.0319871826184143  0.1247921861431980
  0.3133456243954290  0.5409648629755780  0.6554335905522981
  0.5625490159970364  0.2083600021189623  0.3443812667157918
  0.1884775520033863  0.9578401082556169  0.6113424856300033
  0.3079248343920056  0.3731614401477567  0.2998067969918558
  0.4381704667365955  0.7912892474084520  0.6555012674876817
  0.6894215208253621  0.4625308447733031  0.7443688807501436
  0.0619857148605700  0.3653609902709650  0.1663067087331807
  0.6930092018199953  0.6260633165662247  0.7001876112586285
  0.3124909260431109  0.5422343750245567  0.3886188730390147
  0.0643706618072368  0.7190732154930968  0.8756719272737988
  0.9364068108903829  0.6372070262336426  0.8339085107643808
  0.3177978320781185  0.5486968744608439  0.7886663207463256
  0.3073179597708028  0.2015291076663927  0.2116033466097761
  0.0641050228292548  0.7088599428677966  0.4778389530627057
  0.5572626944327868  0.2016849589482919  0.2115745077763493
  0.3145151529317362  0.2119128297629090  0.7443390714964254
  0.0678444971697056  0.3757743412532361  0.7002337234852625
  0.1864034659832852  0.6355531807973049  0.8337791363604626
  0.0669525833390253  0.0479071154974520  0.7888257847060863
  0.4390697189409388  0.1245921011764744  0.5666501844105525
  0.9383522099499459  0.2913492856564252  0.6555058422063321
  0.8072202698271297  0.2016452498529899  0.2115514491896488
  0.9324863159216469  0.9518380259457022  0.2113277275222416
  0.9396022372691599  0.6241409650160060  0.5665987112389291
  0.8108798845414503  0.3868279133756254  0.8341383787208380
  0.1928979617831551  0.6261761579866401  0.7001047958060519
  0.5679962063461454  0.8758774599218113  0.7002540449271776
  0.6881604184402258  0.2914065115459516  0.6554946798924413
  0.3124193221955427  0.2072175613909671  0.6112428804799963
  0.4388855804711030  0.4629836925481314  0.7442904591309153
  0.4368352537504342  0.7917605734268516  0.3885736238127553
  0.6897297367329368  0.9623221805557883  0.7443757146268941
  0.8071563186216782  0.7010687976732376  0.2115907682755778
  0.8142547695050852  0.7076177084563656  0.6113731694817953
  0.4338596470374075  0.7831916485036609  0.1246839282121134
  0.3134981232475855  0.7121011264881926  0.7442826827437494
  0.3177046615144603  0.0483200248407639  0.7888249214446842
  0.8118262995723516  0.5421551583222486  0.3885708750700676
  0.6863905500940514  0.2902993002247868  0.5220604760595916
  0.6924752199662851  0.7977202504225477  0.7886135604888740
  0.1861773949380486  0.7870870709408349  0.2557930518615111
  0.6874687036180993  0.1157658853486414  0.1662397734180536
  0.6891018263114042  0.9589940528198495  0.4777912884856922
  0.9374733555659536  0.9587961957016347  0.3443748960437546
  0.8113885134938031  0.0396128651422751  0.5219516645272599
  0.6860026387538368  0.6250509945692458  0.4331672033214538
  0.4372890332883796  0.4585174345968902  0.3443883501591105
  0.8144004461033357  0.2120375437159225  0.7443897657475361
  0.4380515330825359  0.9702949773479931  0.8752843694781643
  0.5645779220127867  0.8745196145064322  0.5665659855287443
  0.8097040644079354  0.0319076679329004  0.1247592055169550
  0.4332318060537682  0.6230969541018104  0.2997954927040534
  0.8142207443255974  0.7190595088081373  0.8759559115092330
  0.6887442412399344  0.4571247241442449  0.6113075189287167
  0.5597902110255298  0.3863813999412267  0.8340368045454400
  0.8080379463306767  0.3732030407901585  0.2998110871576999
  0.1870528033120044  0.2921261939149419  0.3886096700619325
  0.8176672934544982  0.5490553821961965  0.7888528499016892
  0.1861974180694904  0.7898455162757100  0.5220531846998979
  0.3079407349239699  0.8730690916363726  0.2998399290955173
  0.1822325732099732  0.9514547345511130  0.2114150085041666
  0.1889977313695186  0.4622877853394095  0.7443236195083177
  0.4362435026583274  0.2901676576541263  0.5220410952940369
  0.0624032400839336  0.7083339157575280  0.3443791802996251
  0.1881864970775365  0.7908251033194748  0.6555709718629202
  0.4429192638593126  0.7981242502181406  0.7885686075213464
  0.6861376390530614  0.1250400535187928  0.4331694469627249
  0.9364311658433896  0.7899282892972104  0.5220778120556222
  0.6873576871103692  0.6153852122080476  0.1662433754825167
  0.8124611925647520  0.7082924551473244  0.3443398248593427
  0.9393102603937985  0.4620185124170301  0.7443939794282423
  0.1873632132006907  0.4585856296967908  0.3443739426661013
  0.5675408758692640  0.5486619735239753  0.7887099804252475
  0.5622912978401184  0.3655317731574275  0.1663581932653719
  0.5625691075060230  0.7084060890223766  0.3443279206148904
  0.5579757427182478  0.3732894879999669  0.2998059980342967
  0.1879182404407028  0.4701488918475384  0.8754169714405945
  0.1871287243543379  0.1154133929626948  0.1662415527121184
  0.4423557647031715  0.2981074538520630  0.7884814518965164
  0.6864664962765257  0.7869769956092779  0.2558134171271662
  0.9363128484088338  0.1362111362370722  0.8339120639343968
  0.4388753729616682  0.9588830959221601  0.4777790139445865
  0.5651032642203054  0.7187350479663538  0.8755786725458795
  0.1889000508729310  0.4587562167765022  0.4778278074788280
  0.9338969612211430  0.2832638899020124  0.1246068440706594
  0.3119173308587198  0.0420940697451494  0.3885956923087639
  0.0632927685444755  0.0411139233946478  0.6554216158655333
  0.5611554265340788  0.3752529546005889  0.4331186565316030
  0.9361665094176931  0.6253121771112672  0.4331363868817037
  0.3122839524299976  0.3655628473394771  0.1663401986924389
  0.9429917355068987  0.1261314310431897  0.7001458340177448
  0.5631002183400436  0.0407552694235170  0.6555504886605501
  0.5613065987080432  0.5407075559219540  0.5220009560943234
  0.1830401146874788  0.1231010449332054  0.2998150721704893
  0.4373977206364474  0.1156339212826916  0.1662632574859486
  0.6832179273397853  0.6230891190431623  0.2998041581468077
  0.9333185622870170  0.1230269407796449  0.2998137811634231
  0.8139394634384933  0.3744965683313399  0.5665932454750613
  0.0579568171499696  0.8730962034329817  0.2998216344840311
  0.1891959874231288  0.6243237120761578  0.5666022226484521
  0.9417458614805225  0.7979007845358124  0.7884835608248362
  0.3103464088683788  0.3860778999925758  0.8340427095716919
  0.9389842430337122  0.4705624973146763  0.8754345036095055
  0.4361573790005801  0.6357329828192047  0.8339604318168572
  0.0624037726687175  0.2082433639021335  0.3443393935096005
  0.1885028257573329  0.9697973650629983  0.8754056634100278
  0.9339817396611351  0.7832881030555000  0.1246345349091360
  0.6871181802151959  0.7919677941779948  0.3885708747023172
  0.9380867922097016  0.7911914068507692  0.6555110016414638
  0.9374059698118989  0.1154725470086317  0.1662295027290948
  0.4381714788144497  0.2915198794156185  0.6555479239245010
  0.0572414225993915  0.2015262906416241  0.2115627463053493
  0.6824450533412074  0.9515898832383238  0.2113694824456877
  0.1830997153261829  0.6229998644709195  0.2998053167038671
  0.8180789953813767  0.8759426436061021  0.7001879308979757
  0.9433569938869318  0.6257725950723207  0.7001724579348212
  0.1928848124954356  0.1260579834293244  0.6999919506619310
  0.9390454961876943  0.4588157092794523  0.4778453632024885
  0.8142272725794285  0.2074794132366105  0.6113022790982664
  0.1860127249798489  0.6251054223247532  0.4331385585356365
  0.4332397009952756  0.1231258431650936  0.2998051409661953
  0.6832403348834503  0.1229457745664928  0.2997871625842590
  0.5620126922022256  0.5420274915281176  0.3886132609548474
  0.8125722649127979  0.2083756340601730  0.3443761918654173
  0.4387660123046022  0.4708718854278884  0.8752652145335721
  0.5604095473142261  0.8855340483809939  0.8340887029153013
  0.3138652023190624  0.2089152293123771  0.4777698457791021
  0.1890465644288025  0.9591119359909341  0.4778615510916270
  0.0606839782510297  0.8859950151281442  0.8339350786575329
  0.0613584815482986  0.5403840761821170  0.5221175104972772
  0.9390187196544766  0.9589171281272195  0.4778281155531423
  0.0634919612869256  0.7075438623567946  0.6112887337296791
  0.5612335444297254  0.0405000371111932  0.5219576718859669
  0.6929372360568687  0.2976177447491418  0.7885540228196612
  0.8120260690498080  0.3654100126661181  0.1663335639340968
  0.4359713504118817  0.1252513309003266  0.4331395084016694
  0.0641207620712006  0.2088347027886844  0.4777577902088971
  0.3133711210600614  0.0409400908386858  0.6553835035749889
  0.4363063170145103  0.7901472313587601  0.5220601099940253
  0.1864926234294394  0.1368419963478182  0.8338292025476569
  0.1838729377466729  0.2832978324900672  0.1246526002128553
  0.9374649616353602  0.4587637435112012  0.3443690785729477
  0.3120922682671146  0.8652679226658367  0.1663353449980980
  0.3074704718070911  0.7015370007463499  0.2116145875658786
  0.9373137278845234  0.6152254063876236  0.1662655212555514
  0.1885366859218902  0.4574559360450927  0.6113422041707869
  0.0678056679310888  0.8762336865534680  0.7001556440318744
  0.0632748960798313  0.5411242427587677  0.6555051154576562
  0.3098942426498361  0.5319612365457280  0.1248579474596675
  0.9373886026605013  0.7920516029594632  0.3885717149221224
  0.9423334696558776  0.2987539555705361  0.7886051727679813
  0.1879847201143807  0.2913605475782947  0.6555564829091186
  0.9383130039859627  0.9577706689822870  0.6113524682212920
  0.8153631074519501  0.7129269842711725  0.7442821939395819
  0.6863823258003098  0.2871542367197404  0.2557251180896022
  0.0642882561068193  0.7128342587656945  0.7442683425400225
  0.6824044630599505  0.4513126072370790  0.2113526576374599
  0.8139118089245601  0.2088000313842439  0.4777842323919015
  0.5639882889641539  0.7085045018536670  0.4777538330787450
  0.0622079696755128  0.8657410096744261  0.1663428088462303
  0.9362099566861301  0.2900343214578304  0.5220495249435033
  0.6883000457398133  0.7915279258760388  0.6555574300148251
  0.0609838057332842  0.8751322158843967  0.4330734825729263
  0.0651017032950868  0.2196004707567288  0.8756238297082671
  0.8130962674116087  0.0408755128535165  0.6554560951002902
  0.5596905533087242  0.0321065649469159  0.1247445438236663
  0.3111043903465112  0.3748827226576718  0.4331466234575039
  0.3142580983737321  0.3742351261685173  0.5666082852398266
  0.3141670182301461  0.7089688984280509  0.4777659822233983
  0.0615333775708978  0.0401125997488389  0.5220716092183095
  0.3175412001671968  0.8765327047850423  0.7002214243900193
  0.0612646902845597  0.5373971023500141  0.2557568593039868
  0.6867433961600855  0.1363961501677037  0.8338520165719184
  0.8115142876425063  0.0375003280989996  0.2556917833540379
  0.1860150947406448  0.1250874938547911  0.4331627734623751
  0.6929551456946828  0.1255332741670961  0.7000944373305347
  0.1864062184610938  0.2897389423385096  0.5220682985412584
  0.4363416780430873  0.7869645790559412  0.2557833335993771
  0.8114307965301335  0.5373926909720206  0.2557008287341726
  0.0631934775373967  0.2073834658892891  0.6112672684064158
  0.1870665138545375  0.7921343155670826  0.3885890340012325
  0.3112142456455247  0.5400403548387824  0.5221154936468327
  0.8121473533629460  0.8655406065074583  0.1663217113601684
  0.6870496843871505  0.2921543971854114  0.3885468493992533
  0.1894323278650297  0.1242045523943739  0.5666381295202557
  0.6880628681911907  0.9704005659758830  0.8757810425546241
  0.6891363021739976  0.1244664523202162  0.5666498865315232
  0.4373886802289168  0.9584874065603367  0.3444050783643842
  0.1893020538043863  0.9617467323915772  0.7442538612308925
  0.9364829744937937  0.7870269866271650  0.2558032646957947
  0.5610517638036928  0.8750544927859909  0.4331194591997620
  0.3111535173254842  0.8751211241411878  0.4331451802882534
  0.8114142211060669  0.5398365490522256  0.5219663660810637
  0.9323464674103843  0.4514664770623288  0.2113041064573426
  0.3116491313089791  0.5372648832396878  0.2557483486973710
  0.5620111192064309  0.0420614917325322  0.3885677001056922
  0.9383612956951790  0.4574924214449628  0.6113475662474230
  0.0618494258635977  0.0419014637484128  0.3885989865797025
  0.0619659140296314  0.5419791142716214  0.3885769594447074
  0.4369283102172688  0.2920629471698907  0.3885762940318915
  0.6889862185119999  0.4587954482925930  0.4777592413994031
  0.0642612423480859  0.3742347548646577  0.5666634672897701
  0.5572210710514294  0.7015791722538587  0.2115902137680892
  0.9363436364623524  0.2870007798528736  0.2557916153930166
  0.8173576634547000  0.0485338417116430  0.7885782042445608
  0.1874653433293888  0.9585488969237745  0.3443694435227673
  0.5582086580722888  0.8730299169790697  0.2997936973052441
  0.0610153991905345  0.3748052875007096  0.4330788511204900
  0.3125738970576746  0.7086107059794641  0.3443761034667969
  0.3123771393287407  0.2086986924500542  0.3443630077112370
  0.9393587458065833  0.1239303480775282  0.5666699816087462
  0.4379287244836474  0.9573500393754856  0.6113073677424972
  0.5613927012095071  0.0373741242063853  0.2557218459516648
  0.1839457920269603  0.7833180094612359  0.1246695934500669
  0.0614891849065831  0.0373407163877670  0.2556884254275462
  0.6891846481024341  0.6243221888889601  0.5665817484129735
  0.4374991889398430  0.6152481866228585  0.1662429113834586
  0.3111047060894028  0.0399934388132507  0.5220264458928722
  0.6838993159410978  0.2832423332528638  0.1245974849433662
  0.8139117308240746  0.7087925035036420  0.4778051105472124
  0.4362033120054053  0.1369158533329862  0.8340427910790563
  0.3180109421729125  0.3765113283218927  0.7001756462490341
  0.6866091046373541  0.6369952208757262  0.8339203619476799
  0.5644085481486311  0.7125849275985237  0.7443863399019542
  0.9371954923760369  0.2920129432778164  0.3885661767642858
  0.9384880896159231  0.9704436702819791  0.8754545526531685
  0.9390528218732618  0.9613478023039035  0.7442448098280222
  0.8141816148652148  0.8746008517417739  0.5666554991113090
  0.8078928801984104  0.8729459842728231  0.2998103555983545
  0.3115358521079049  0.0374408823652489  0.2556812731079839
  0.4336832014616174  0.2832775006581507  0.1246188780252306
  0.3124363444237587  0.7072545503331712  0.6112786070532735
  0.4360398106237066  0.6251724466277609  0.4331137065285775
  0.1931679330574267  0.2971186457904038  0.7884040777268837
  0.5685621972257998  0.0479962719289608  0.7886282402348139
  0.0673582220186166  0.5489915741685139  0.7885908630550695
  0.8098641226893220  0.8865723199673451  0.8343217214373972
  0.5642017972613455  0.2125218854363593  0.7443462554339337
  0.5633072085050463  0.2078264409089918  0.6112503153016456
  0.5631266040740515  0.7076891188585607  0.6113058448063641
 
  0.00000000E+00  0.00000000E+00  0.00000000E+00
  0.00000000E+00  0.00000000E+00  0.00000000E+00
  0.00000000E+00  0.00000000E+00  0.00000000E+00
  0.00000000E+00  0.00000000E+00  0.00000000E+00
  0.00000000E+00  0.00000000E+00  0.00000000E+00
  0.00000000E+00  0.00000000E+00  0.00000000E+00
  0.00000000E+00  0.00000000E+00  0.00000000E+00
  0.00000000E+00  0.00000000E+00  0.00000000E+00
  0.00000000E+00  0.00000000E+00  0.00000000E+00
  0.00000000E+00  0.00000000E+00  0.00000000E+00
  0.00000000E+00  0.00000000E+00  0.00000000E+00
  0.00000000E+00  0.00000000E+00  0.00000000E+00
  0.00000000E+00  0.00000000E+00  0.00000000E+00
  0.00000000E+00  0.00000000E+00  0.00000000E+00
  0.00000000E+00  0.00000000E+00  0.00000000E+00
  0.00000000E+00  0.00000000E+00  0.00000000E+00
  0.00000000E+00  0.00000000E+00  0.00000000E+00
  0.00000000E+00  0.00000000E+00  0.00000000E+00
  0.00000000E+00  0.00000000E+00  0.00000000E+00
  0.00000000E+00  0.00000000E+00  0.00000000E+00
  0.00000000E+00  0.00000000E+00  0.00000000E+00
  0.00000000E+00  0.00000000E+00  0.00000000E+00
  0.00000000E+00  0.00000000E+00  0.00000000E+00
  0.00000000E+00  0.00000000E+00  0.00000000E+00
  0.00000000E+00  0.00000000E+00  0.00000000E+00
  0.00000000E+00  0.00000000E+00  0.00000000E+00
  0.00000000E+00  0.00000000E+00  0.00000000E+00
  0.00000000E+00  0.00000000E+00  0.00000000E+00
  0.00000000E+00  0.00000000E+00  0.00000000E+00
  0.00000000E+00  0.00000000E+00  0.00000000E+00
  0.00000000E+00  0.00000000E+00  0.00000000E+00
  0.00000000E+00  0.00000000E+00  0.00000000E+00
  0.00000000E+00  0.00000000E+00  0.00000000E+00
  0.00000000E+00  0.00000000E+00  0.00000000E+00
  0.00000000E+00  0.00000000E+00  0.00000000E+00
  0.00000000E+00  0.00000000E+00  0.00000000E+00
  0.00000000E+00  0.00000000E+00  0.00000000E+00
  0.00000000E+00  0.00000000E+00  0.00000000E+00
  0.00000000E+00  0.00000000E+00  0.00000000E+00
  0.00000000E+00  0.00000000E+00  0.00000000E+00
  0.00000000E+00  0.00000000E+00  0.00000000E+00
  0.00000000E+00  0.00000000E+00  0.00000000E+00
  0.00000000E+00  0.00000000E+00  0.00000000E+00
  0.00000000E+00  0.00000000E+00  0.00000000E+00
  0.00000000E+00  0.00000000E+00  0.00000000E+00
  0.00000000E+00  0.00000000E+00  0.00000000E+00
  0.00000000E+00  0.00000000E+00  0.00000000E+00
  0.00000000E+00  0.00000000E+00  0.00000000E+00
  0.00000000E+00  0.00000000E+00  0.00000000E+00
  0.00000000E+00  0.00000000E+00  0.00000000E+00
  0.00000000E+00  0.00000000E+00  0.00000000E+00
  0.00000000E+00  0.00000000E+00  0.00000000E+00
  0.00000000E+00  0.00000000E+00  0.00000000E+00
  0.00000000E+00  0.00000000E+00  0.00000000E+00
  0.00000000E+00  0.00000000E+00  0.00000000E+00
  0.00000000E+00  0.00000000E+00  0.00000000E+00
  0.00000000E+00  0.00000000E+00  0.00000000E+00
  0.00000000E+00  0.00000000E+00  0.00000000E+00
  0.00000000E+00  0.00000000E+00  0.00000000E+00
  0.00000000E+00  0.00000000E+00  0.00000000E+00
  0.00000000E+00  0.00000000E+00  0.00000000E+00
  0.00000000E+00  0.00000000E+00  0.00000000E+00
  0.00000000E+00  0.00000000E+00  0.00000000E+00
  0.00000000E+00  0.00000000E+00  0.00000000E+00
  0.00000000E+00  0.00000000E+00  0.00000000E+00
  0.00000000E+00  0.00000000E+00  0.00000000E+00
  0.00000000E+00  0.00000000E+00  0.00000000E+00
  0.00000000E+00  0.00000000E+00  0.00000000E+00
  0.00000000E+00  0.00000000E+00  0.00000000E+00
  0.00000000E+00  0.00000000E+00  0.00000000E+00
  0.00000000E+00  0.00000000E+00  0.00000000E+00
  0.00000000E+00  0.00000000E+00  0.00000000E+00
  0.00000000E+00  0.00000000E+00  0.00000000E+00
  0.00000000E+00  0.00000000E+00  0.00000000E+00
  0.00000000E+00  0.00000000E+00  0.00000000E+00
  0.00000000E+00  0.00000000E+00  0.00000000E+00
  0.00000000E+00  0.00000000E+00  0.00000000E+00
  0.00000000E+00  0.00000000E+00  0.00000000E+00
  0.00000000E+00  0.00000000E+00  0.00000000E+00
  0.00000000E+00  0.00000000E+00  0.00000000E+00
  0.00000000E+00  0.00000000E+00  0.00000000E+00
  0.00000000E+00  0.00000000E+00  0.00000000E+00
  0.00000000E+00  0.00000000E+00  0.00000000E+00
  0.00000000E+00  0.00000000E+00  0.00000000E+00
  0.00000000E+00  0.00000000E+00  0.00000000E+00
  0.00000000E+00  0.00000000E+00  0.00000000E+00
  0.00000000E+00  0.00000000E+00  0.00000000E+00
  0.00000000E+00  0.00000000E+00  0.00000000E+00
  0.00000000E+00  0.00000000E+00  0.00000000E+00
  0.00000000E+00  0.00000000E+00  0.00000000E+00
  0.00000000E+00  0.00000000E+00  0.00000000E+00
  0.00000000E+00  0.00000000E+00  0.00000000E+00
  0.00000000E+00  0.00000000E+00  0.00000000E+00
  0.00000000E+00  0.00000000E+00  0.00000000E+00
  0.00000000E+00  0.00000000E+00  0.00000000E+00
  0.00000000E+00  0.00000000E+00  0.00000000E+00
  0.00000000E+00  0.00000000E+00  0.00000000E+00
  0.00000000E+00  0.00000000E+00  0.00000000E+00
  0.00000000E+00  0.00000000E+00  0.00000000E+00
  0.00000000E+00  0.00000000E+00  0.00000000E+00
  0.00000000E+00  0.00000000E+00  0.00000000E+00
  0.00000000E+00  0.00000000E+00  0.00000000E+00
  0.00000000E+00  0.00000000E+00  0.00000000E+00
  0.00000000E+00  0.00000000E+00  0.00000000E+00
  0.00000000E+00  0.00000000E+00  0.00000000E+00
  0.00000000E+00  0.00000000E+00  0.00000000E+00
  0.00000000E+00  0.00000000E+00  0.00000000E+00
  0.00000000E+00  0.00000000E+00  0.00000000E+00
  0.00000000E+00  0.00000000E+00  0.00000000E+00
  0.00000000E+00  0.00000000E+00  0.00000000E+00
  0.00000000E+00  0.00000000E+00  0.00000000E+00
  0.00000000E+00  0.00000000E+00  0.00000000E+00
  0.00000000E+00  0.00000000E+00  0.00000000E+00
  0.00000000E+00  0.00000000E+00  0.00000000E+00
  0.00000000E+00  0.00000000E+00  0.00000000E+00
  0.00000000E+00  0.00000000E+00  0.00000000E+00
  0.00000000E+00  0.00000000E+00  0.00000000E+00
  0.00000000E+00  0.00000000E+00  0.00000000E+00
  0.00000000E+00  0.00000000E+00  0.00000000E+00
  0.00000000E+00  0.00000000E+00  0.00000000E+00
  0.00000000E+00  0.00000000E+00  0.00000000E+00
  0.00000000E+00  0.00000000E+00  0.00000000E+00
  0.00000000E+00  0.00000000E+00  0.00000000E+00
  0.00000000E+00  0.00000000E+00  0.00000000E+00
  0.00000000E+00  0.00000000E+00  0.00000000E+00
  0.00000000E+00  0.00000000E+00  0.00000000E+00
  0.00000000E+00  0.00000000E+00  0.00000000E+00
  0.00000000E+00  0.00000000E+00  0.00000000E+00
  0.00000000E+00  0.00000000E+00  0.00000000E+00
  0.00000000E+00  0.00000000E+00  0.00000000E+00
  0.00000000E+00  0.00000000E+00  0.00000000E+00
  0.00000000E+00  0.00000000E+00  0.00000000E+00
  0.00000000E+00  0.00000000E+00  0.00000000E+00
  0.00000000E+00  0.00000000E+00  0.00000000E+00
  0.00000000E+00  0.00000000E+00  0.00000000E+00
  0.00000000E+00  0.00000000E+00  0.00000000E+00
  0.00000000E+00  0.00000000E+00  0.00000000E+00
  0.00000000E+00  0.00000000E+00  0.00000000E+00
  0.00000000E+00  0.00000000E+00  0.00000000E+00
  0.00000000E+00  0.00000000E+00  0.00000000E+00
  0.00000000E+00  0.00000000E+00  0.00000000E+00
  0.00000000E+00  0.00000000E+00  0.00000000E+00
  0.00000000E+00  0.00000000E+00  0.00000000E+00
  0.00000000E+00  0.00000000E+00  0.00000000E+00
  0.00000000E+00  0.00000000E+00  0.00000000E+00
  0.00000000E+00  0.00000000E+00  0.00000000E+00
  0.00000000E+00  0.00000000E+00  0.00000000E+00
  0.00000000E+00  0.00000000E+00  0.00000000E+00
  0.00000000E+00  0.00000000E+00  0.00000000E+00
  0.00000000E+00  0.00000000E+00  0.00000000E+00
  0.00000000E+00  0.00000000E+00  0.00000000E+00
  0.00000000E+00  0.00000000E+00  0.00000000E+00
  0.00000000E+00  0.00000000E+00  0.00000000E+00
  0.00000000E+00  0.00000000E+00  0.00000000E+00
  0.00000000E+00  0.00000000E+00  0.00000000E+00
  0.00000000E+00  0.00000000E+00  0.00000000E+00
  0.00000000E+00  0.00000000E+00  0.00000000E+00
  0.00000000E+00  0.00000000E+00  0.00000000E+00
  0.00000000E+00  0.00000000E+00  0.00000000E+00
  0.00000000E+00  0.00000000E+00  0.00000000E+00
  0.00000000E+00  0.00000000E+00  0.00000000E+00
  0.00000000E+00  0.00000000E+00  0.00000000E+00
  0.00000000E+00  0.00000000E+00  0.00000000E+00
  0.00000000E+00  0.00000000E+00  0.00000000E+00
  0.00000000E+00  0.00000000E+00  0.00000000E+00
  0.00000000E+00  0.00000000E+00  0.00000000E+00
  0.00000000E+00  0.00000000E+00  0.00000000E+00
  0.00000000E+00  0.00000000E+00  0.00000000E+00
  0.00000000E+00  0.00000000E+00  0.00000000E+00
  0.00000000E+00  0.00000000E+00  0.00000000E+00
  0.00000000E+00  0.00000000E+00  0.00000000E+00
  0.00000000E+00  0.00000000E+00  0.00000000E+00
  0.00000000E+00  0.00000000E+00  0.00000000E+00
  0.00000000E+00  0.00000000E+00  0.00000000E+00
  0.00000000E+00  0.00000000E+00  0.00000000E+00
  0.00000000E+00  0.00000000E+00  0.00000000E+00
  0.00000000E+00  0.00000000E+00  0.00000000E+00
  0.00000000E+00  0.00000000E+00  0.00000000E+00
  0.00000000E+00  0.00000000E+00  0.00000000E+00
  0.00000000E+00  0.00000000E+00  0.00000000E+00
  0.00000000E+00  0.00000000E+00  0.00000000E+00
  0.00000000E+00  0.00000000E+00  0.00000000E+00
  0.00000000E+00  0.00000000E+00  0.00000000E+00
  0.00000000E+00  0.00000000E+00  0.00000000E+00
  0.00000000E+00  0.00000000E+00  0.00000000E+00
  0.00000000E+00  0.00000000E+00  0.00000000E+00
  0.00000000E+00  0.00000000E+00  0.00000000E+00
  0.00000000E+00  0.00000000E+00  0.00000000E+00
  0.00000000E+00  0.00000000E+00  0.00000000E+00
  0.00000000E+00  0.00000000E+00  0.00000000E+00
  0.00000000E+00  0.00000000E+00  0.00000000E+00
  0.00000000E+00  0.00000000E+00  0.00000000E+00
  0.00000000E+00  0.00000000E+00  0.00000000E+00
  0.00000000E+00  0.00000000E+00  0.00000000E+00
  0.00000000E+00  0.00000000E+00  0.00000000E+00
  0.00000000E+00  0.00000000E+00  0.00000000E+00
  0.00000000E+00  0.00000000E+00  0.00000000E+00
  0.00000000E+00  0.00000000E+00  0.00000000E+00
  0.00000000E+00  0.00000000E+00  0.00000000E+00
  0.00000000E+00  0.00000000E+00  0.00000000E+00
  0.00000000E+00  0.00000000E+00  0.00000000E+00
  0.00000000E+00  0.00000000E+00  0.00000000E+00
  0.00000000E+00  0.00000000E+00  0.00000000E+00
  0.00000000E+00  0.00000000E+00  0.00000000E+00
  0.00000000E+00  0.00000000E+00  0.00000000E+00
  0.00000000E+00  0.00000000E+00  0.00000000E+00
  0.00000000E+00  0.00000000E+00  0.00000000E+00
  0.00000000E+00  0.00000000E+00  0.00000000E+00
  0.00000000E+00  0.00000000E+00  0.00000000E+00
  0.00000000E+00  0.00000000E+00  0.00000000E+00
  0.00000000E+00  0.00000000E+00  0.00000000E+00
  0.00000000E+00  0.00000000E+00  0.00000000E+00
  0.00000000E+00  0.00000000E+00  0.00000000E+00
  0.00000000E+00  0.00000000E+00  0.00000000E+00
  0.00000000E+00  0.00000000E+00  0.00000000E+00
  0.00000000E+00  0.00000000E+00  0.00000000E+00
  0.00000000E+00  0.00000000E+00  0.00000000E+00
  0.00000000E+00  0.00000000E+00  0.00000000E+00
  0.00000000E+00  0.00000000E+00  0.00000000E+00
  0.00000000E+00  0.00000000E+00  0.00000000E+00
  0.00000000E+00  0.00000000E+00  0.00000000E+00
  0.00000000E+00  0.00000000E+00  0.00000000E+00
  0.00000000E+00  0.00000000E+00  0.00000000E+00
  0.00000000E+00  0.00000000E+00  0.00000000E+00
  0.00000000E+00  0.00000000E+00  0.00000000E+00
  0.00000000E+00  0.00000000E+00  0.00000000E+00
  0.00000000E+00  0.00000000E+00  0.00000000E+00
  0.00000000E+00  0.00000000E+00  0.00000000E+00
  0.00000000E+00  0.00000000E+00  0.00000000E+00
  0.00000000E+00  0.00000000E+00  0.00000000E+00
  0.00000000E+00  0.00000000E+00  0.00000000E+00
  0.00000000E+00  0.00000000E+00  0.00000000E+00
  0.00000000E+00  0.00000000E+00  0.00000000E+00
  0.00000000E+00  0.00000000E+00  0.00000000E+00
  0.00000000E+00  0.00000000E+00  0.00000000E+00
  0.00000000E+00  0.00000000E+00  0.00000000E+00
  0.00000000E+00  0.00000000E+00  0.00000000E+00
  0.00000000E+00  0.00000000E+00  0.00000000E+00
  0.00000000E+00  0.00000000E+00  0.00000000E+00
  0.00000000E+00  0.00000000E+00  0.00000000E+00
  0.00000000E+00  0.00000000E+00  0.00000000E+00
  0.00000000E+00  0.00000000E+00  0.00000000E+00
  0.00000000E+00  0.00000000E+00  0.00000000E+00
  0.00000000E+00  0.00000000E+00  0.00000000E+00
  0.00000000E+00  0.00000000E+00  0.00000000E+00
  0.00000000E+00  0.00000000E+00  0.00000000E+00
  0.00000000E+00  0.00000000E+00  0.00000000E+00