CuInSe2gb                               
   1.00000000000000     
     9.7266780392896699    0.0000000000000000    0.0000000000000000
     0.0000000000000000    8.4235502764570693    0.0000000000000000
     0.0000000000000000    0.0000000000000000   45.0000000000000000
   Fe   Mn
   281     7
Direct
  0.0535872809105057  0.7018060699407005  0.2114615726349358
  0.3169828463303775  0.7230025376445059  0.8762507692127771
  0.6877140410233682  0.9582510933688603  0.6112469542850569
  0.4380842400610318  0.4576487476613300  0.6112578585118633
  0.4395193950968245  0.2876186505015466  0.2555553672294917
  0.0581114681886582  0.3880103418202591  0.8334731745167828
  0.3075755915789614  0.8874502253357511  0.8333715632451105
  0.4478446270945926  0.6258299016292773  0.7000948702955820
  0.0609001114059728  0.2111401283084763  0.7447642650196420
  0.1789297644252500  0.4505244119265649  0.2113354744394700
  0.5678002655794779  0.2104381235085426  0.4774697340980101
  0.0670704497076620  0.8745249357374925  0.5667186873509805
  0.5661747145505077  0.2241636459076583  0.8761292229533622
  0.8087542782609517  0.5363471756177643  0.1244150313933311
  0.4291296006136877  0.9505946986890392  0.2112916272038360
  0.5667210975232061  0.3749101050846236  0.5668828253155792
  0.8119991208775503  0.0418898662099266  0.3886050493194612
  0.6825027697296435  0.7880988700290431  0.5221387067858384
  0.4430298805102604  0.4607847346474666  0.4774639976776576
  0.4356335556163400  0.9614473125225119  0.7446383337173260
  0.4416905823940642  0.6250553448508595  0.5667141208294446
  0.0593276828761478  0.5364319284164508  0.1244265960224695
  0.3086161058876842  0.0358395766664834  0.1244604239211059
  0.6905345292413868  0.9591206888054026  0.3442482594640247
  0.6824627642244497  0.7803717290894651  0.1242107208321290
  0.0534024170480925  0.3733526840747332  0.2998759568713831
  0.6884221691267207  0.4658972916072153  0.8759923473448296
  0.4291733145747679  0.4505979944203523  0.2113753520077180
  0.8084087317181424  0.3749436336288915  0.4331121642204002
  0.8223964153988971  0.3750350758195600  0.7001035198124959
  0.5603000361985022  0.5414795508243899  0.6555212642763241
  0.9334287357192053  0.1251465950908726  0.4330580804128656
  0.5659000183447466  0.5373627327673679  0.2554856047582335
  0.6904713447716989  0.4590797364324660  0.3442285620088616
  0.1900259203761419  0.6147589708081773  0.1670035115460331
  0.1948822641998232  0.7980367367703050  0.7886328350544822
  0.4479597322195708  0.1255618412824308  0.7001730412188779
  0.9289258730156764  0.6231395086316074  0.2996928807869562
  0.3169668708513499  0.2230969245763318  0.8761908727896481
  0.3173364836239291  0.8744675328740442  0.5667336191681561
  0.8169771424191424  0.2229853516514531  0.8762774390549872
  0.8097789154846995  0.5410622157944928  0.6557279709498223
  0.5586075840358639  0.5359858522894034  0.1244109858467036
  0.5648150612181697  0.8648237382992082  0.1666989430179840
  0.1900083209788588  0.2877311115276820  0.2554721580692815
  0.8083311864776298  0.8748282385251751  0.4330777755582895
  0.5729354966379346  0.3754760496433053  0.7001601552362291
  0.0585775588233396  0.0359269135428798  0.1243880165575285
  0.3102096943509642  0.5411366370663963  0.6557031770916624
  0.5655134947480642  0.2095809798728485  0.3441413484105247
  0.1880531311614408  0.9578107727637236  0.6113319441139675
  0.3034696295329766  0.3732107191088224  0.2998037159332956
  0.4346308330313010  0.7906146309891491  0.6557513897203862
  0.6852541315090058  0.4618467731503245  0.7445411267726766
  0.0648497729605690  0.3641287372538687  0.1667297364426876
  0.6981126181218907  0.6257752286053747  0.7001965234353946
  0.3117472799859863  0.5418515109942567  0.3885351734779687
  0.0679390241900374  0.7235157043944729  0.8759967445962611
  0.9335576583023664  0.6374404146113724  0.8334606309175505
  0.3201159824905426  0.5490652027066336  0.7887118297544958
  0.3038154643708116  0.2014258459527993  0.2114341248674328
  0.0678542345114450  0.7104876623831212  0.4774486566618039
  0.5538088942911008  0.2014165577824694  0.2114265449909249
  0.3109152420134129  0.2115974459939007  0.7442350046386121
  0.0727353918709670  0.3754648176956343  0.7002188229422254
  0.1833201860268331  0.6378546085498400  0.8333730178356676
  0.0716180407978898  0.0483655115851740  0.7886705108690057
  0.4419281369604937  0.1249881650850649  0.5667342475468502
  0.9348252330976594  0.2907702267244510  0.6557254793422950
  0.8038167900877418  0.2017232434558303  0.2113889429132928
  0.9290101942689492  0.9502810836677318  0.2113555775272369
  0.9415113583994168  0.6249075739966279  0.5669313806255470
  0.8083885722937951  0.3876932910391348  0.8334763127121901
  0.1980617050240692  0.6252389640330763  0.7000525414370423
  0.5726666601328597  0.8755864149597753  0.7002979617629831
  0.6853286697496780  0.2905370795393121  0.6558211831775582
  0.3128757641662781  0.2081444265814613  0.6114416321055871
  0.4358591959005986  0.4612840323649119  0.7446034019364735
  0.4374557622805496  0.7922082224831002  0.3886051705815741
  0.6856236750660347  0.9621618986695567  0.7445677183861684
  0.8037519445404200  0.7017722558219098  0.2114283186639876
  0.8129529483869040  0.7073320582940325  0.6112031232999440
  0.4324675710571644  0.7805491536594430  0.1242107047486856
  0.3107937126454326  0.7124904578939937  0.7444455525570809
  0.3214183659976798  0.0485495750234956  0.7885742358629234
  0.8123449996847182  0.5416263206804663  0.3886212384083624
  0.6823412866733838  0.2882630769831038  0.5223027088075402
  0.6945672671519079  0.7973607197462990  0.7884405909863907
  0.1900741176360664  0.7875145547738790  0.2555796482358426
  0.6901037060113807  0.1139083302441653  0.1669341044135982
  0.6928656246780625  0.9605460222728525  0.4774299407230254
  0.9403823558596965  0.9588735806166101  0.3442345655157692
  0.8077147797025569  0.0381006259450443  0.5222932225667629
  0.6836907472565519  0.6249051384793228  0.4330545216876728
  0.4407271599641723  0.4595219666928431  0.3442719896983651
  0.8110068096451872  0.2120383038459163  0.7445052844422294
  0.4379232754859191  0.9665543100332377  0.8758931010854373
  0.5669506170939979  0.8746686746807977  0.5669208397653190
  0.8087604409472289  0.0357696031048238  0.1243944451367826
  0.4288225169663863  0.6232454371034566  0.2997597920077853
  0.8153212173026120  0.7234719497576826  0.8759486239466538
  0.6876329669268393  0.4583459408766452  0.6112421426300598
  0.5578338461447806  0.3871553998285056  0.8332681645108885
  0.8033608689792963  0.3732985733906325  0.2997655779512627
  0.1871545365783486  0.2916504148787609  0.3885452175457255
  0.8213925178517159  0.5490661366792696  0.7888085910807466
  0.1826451353635687  0.7881332405880007  0.5223356063303487
  0.3035790382161875  0.8733265001015420  0.2998007050235627
  0.1794278603329021  0.9504461768781605  0.2113334587888348
  0.1858340106780288  0.4611677079174377  0.7446985427347748
  0.4323909347943299  0.2879494422446447  0.5222089775722808
  0.0657186551630816  0.7094265168766627  0.3441727555858050
  0.1847474654382069  0.7906403807662555  0.6558082551991831
  0.4460270830211748  0.7975121209354261  0.7886544094118064
  0.6833892489319747  0.1250520187543210  0.4330392688367510
  0.9325424963480985  0.7882620756849059  0.5223145601349423
  0.6900424507701655  0.6143581003871863  0.1669449206770066
  0.8156014694025087  0.7093936593771158  0.3441856657301918
  0.9355361600064421  0.4619755608519351  0.7444524223134920
  0.1905966897702600  0.4590183917768723  0.3442595685212921
  0.5697569028624928  0.5484040624049907  0.7887997025786706
  0.5645827678529334  0.3640350514781608  0.1666599602665301
  0.5655290898314481  0.7092939583361438  0.3442022822791380
  0.5534920737675305  0.3732752444096497  0.2998120155040210
  0.1892721382449803  0.4669673628243131  0.8758202456122207
  0.1900720706272668  0.1146792805703385  0.1669490849489841
  0.4452717727153372  0.2980963737043843  0.7886878034809147
  0.6898021222549831  0.7876654608979791  0.2554806448660308
  0.9327217650629408  0.1371304730441692  0.8334509350976116
  0.4431206751118408  0.9606049759421007  0.4774618043148504
  0.5656815400900366  0.7221997561507109  0.8761212167439567
  0.1931013338131178  0.4607737141857988  0.4775410406424809
  0.9323682411465011  0.2802129099365728  0.1241139699178886
  0.3123776214361142  0.0418903551424465  0.3885700775010948
  0.0597104583340374  0.0406276908077727  0.6558463221983780
  0.5582772145941921  0.3747588381030810  0.4330625724682592
  0.9335520946757824  0.6245693931777074  0.4330875363473750
  0.3145323032767037  0.3645042063698117  0.1668445482753107
  0.9471859513882969  0.1249313773190897  0.7000421357316077
  0.5600295069782560  0.0412473451042786  0.6556214347146239
  0.5573486935573748  0.5378045081568172  0.5222361329847672
  0.1787431564439730  0.1232925656946207  0.2996934371000098
  0.4398169849214899  0.1143627304073939  0.1668964675153864
  0.6788720991243807  0.6233726195545184  0.2997244612901257
  0.9284919741080062  0.1232733132726182  0.2997219089646952
  0.8169034953728628  0.3740568323951443  0.5667444809265411
  0.0533789717341674  0.8733027930373463  0.2998340941509950
  0.1915990409541306  0.6248525680331301  0.5668723021735279
  0.9458360521166408  0.7972489549877171  0.7885598888768240
  0.3072417980763855  0.3865891597815970  0.8333776663919032
  0.9379482168255125  0.4658372065449910  0.8759182198396395
  0.4337310488758991  0.6370550725720469  0.8331690897990940
  0.0655195128960306  0.2095059523606249  0.3442183970103298
  0.1901805117388951  0.9649248034394307  0.8759325020473939
  0.9325071032966775  0.7804243662944151  0.1242187881115604
  0.6870867632900829  0.7917183045671921  0.3885489218119864
  0.9346476100571146  0.7906884057376850  0.6558393172460893
  0.9398274527416597  0.1146195448727796  0.1668474653168488
  0.4346115791279979  0.2903145975767516  0.6557989135301997
  0.0538025447533024  0.2010963445750885  0.2113961063750166
  0.6791068552206723  0.9505661560133833  0.2113295046470953
  0.1790027482829470  0.6232259601321257  0.2998022358923731
  0.8230025020982474  0.8752445015120263  0.7000956035194669
  0.9476966322252560  0.6253607209870673  0.7001216480295334
  0.1978049984021628  0.1253985472179401  0.7001191086624422
  0.9427571680975509  0.4607148644374757  0.4774422185113535
  0.8130213976471199  0.2075148731503773  0.6112306599540900
  0.1837204903348101  0.6251033642002614  0.4331586193497207
  0.4286317613889097  0.1232659582371398  0.2998140405469230
  0.6785186732507451  0.1232816663022779  0.2997333873574122
  0.5622098783137041  0.5419821561654081  0.3885764327444354
  0.8154197382882341  0.2093691057730903  0.3441552059992002
  0.4383963697910974  0.4659464513740038  0.8759389467621157
  0.5588095222340865  0.8879089421315407  0.8333889293942852
  0.3178396703549958  0.2104123076610041  0.4774174082972877
  0.1929988476742696  0.9604460834366837  0.4774664781579079
  0.0584897699441514  0.8867364218578938  0.8333669496148659
  0.0573033107121718  0.5375280448334205  0.5222657279785603
  0.9427313458733775  0.9606367716815305  0.4774086480988909
  0.0627958840340954  0.7077909595869066  0.6112295294785932
  0.5576126574996428  0.0382426096376325  0.5223511257079654
  0.6963371359877065  0.2986506154398162  0.7885895366547119
  0.8147714320027062  0.3644925926261571  0.1665731088385999
  0.4334440604153998  0.1248017457978080  0.4331068319743431
  0.0677790070012160  0.2105260741951137  0.4774813085265736
  0.3094713729226602  0.0409312997511200  0.6556855589101193
  0.4326410970208909  0.7882390014468964  0.5221454939479062
  0.1836306278350542  0.1381692880313310  0.8335073303709635
  0.1825672401715937  0.2802137579856855  0.1241783632282897
  0.9405705119339847  0.4590449385532895  0.3442506682747308
  0.3150616885321123  0.8645213489963429  0.1668360809127536
  0.3035182128308004  0.7014792310563195  0.2114629586930081
  0.9403501920686018  0.6144360343506852  0.1668991517059617
  0.1877782208644982  0.4583880986036031  0.6111903792018455
  0.0727814996494776  0.8758656571644413  0.6999551825433937
  0.0598608921657458  0.5404990356806575  0.6558265442407006
  0.3088504317832809  0.5360062855900923  0.1244506515245444
  0.9368518440992748  0.7917087418031082  0.3885859568759480
  0.9458287804098783  0.2978877421614701  0.7885589359003374
  0.1848916190792845  0.2907101396375878  0.6556297441695503
  0.9377957250741706  0.9579250353192552  0.6113697974358874
  0.8112365916106712  0.7111308210113834  0.7446169719348752
  0.6897317143930720  0.2874195193396129  0.2555472078738695
  0.0611951602802146  0.7109232428202331  0.7446778938218749
  0.6789341622707104  0.4507339443365564  0.2113068778498058
  0.8178534601632904  0.2103284117808360  0.4774579892525088
  0.5680115675565990  0.7105609156251083  0.4775680488659849
  0.0648352146717771  0.8642263434386009  0.1667517004960283
  0.9325315561995777  0.2881421139943264  0.5222631429972516
  0.6845600077388403  0.7907666974011204  0.6557585700675880
  0.0585704376953208  0.8748325296977839  0.4331501611505623
  0.0659961691683141  0.2227006194810258  0.8759509998623797
  0.8102513703707467  0.0411444065213165  0.6557427465426303
  0.5586813931872815  0.0357806914649688  0.1244149842390708
  0.3084809174301023  0.3751577965172014  0.4330390477016945
  0.3168782419413556  0.3745038148729546  0.5667637352814656
  0.3177887770045890  0.7104461467644959  0.4774597355379279
  0.0572706306219423  0.0377747227731371  0.5222563681760308
  0.3226070242690051  0.8751127451393734  0.7000318872365690
  0.0661806185659414  0.5373479628579600  0.2554420586928000
  0.6836682074707869  0.1378176663771911  0.8335398398428090
  0.8159510428881444  0.0373887467570786  0.2554514599450662
  0.1833871524905278  0.1249349734423715  0.4330887360555812
  0.6981365932890036  0.1256518118408852  0.7001228955457889
  0.1823844110656997  0.2882704475117575  0.5222616820387632
  0.4400088332590427  0.7878296879822138  0.2555337915878366
  0.8159659637944165  0.5370252549718156  0.2554894306384443
  0.0630989906597322  0.2083648123008455  0.6112690386234763
  0.1870992744786072  0.7918460721886693  0.3885543208222182
  0.3073617231768350  0.5379704550784714  0.5222209815051159
  0.8149252707317738  0.8636734725166045  0.1667967119814973
  0.6871781841015140  0.2917548497792272  0.3886167037103602
  0.1912395491524497  0.1245197775900744  0.5668361989036355
  0.6892164532721433  0.9664598789389062  0.8761970983467644
  0.6919804297735980  0.1251037469274403  0.5666884609783416
  0.4405994043401500  0.9593768798260549  0.3442527195950910
  0.1856938831418518  0.9621220892661504  0.7445517332184968
  0.9397400172789627  0.7875243450496968  0.2555293397265903
  0.5586022615073430  0.8750313679381514  0.4330663629920002
  0.3085503562802420  0.8747921440741185  0.4330841403091165
  0.8076594731525962  0.5380302952882071  0.5221845762577557
  0.9291368756889659  0.4503415134381670  0.2113577915881355
  0.3158681995419118  0.5374634591943752  0.2554648436454566
  0.5623484456635393  0.0418410337995650  0.3885830533355303
  0.9377794591934627  0.4580282376670881  0.6112811594670332
  0.0624557602740978  0.0417521860184297  0.3885711815202263
  0.0622496378413642  0.5420415908157897  0.3885949922341433
  0.4373162245858208  0.2919479905193245  0.3885787935922935
  0.6930561475537601  0.4605304826721613  0.4774704006962431
  0.0668973611031463  0.3741671152274174  0.5667522937796522
  0.5538673525649251  0.7015380184004844  0.2114427041919207
  0.9400561169554501  0.2875841572824737  0.2554721145871647
  0.8209110077652135  0.0500726999008770  0.7885942413903859
  0.1903262393077525  0.9593873321859528  0.3442424421027642
  0.5532130308038972  0.8733420896861902  0.2998518947285970
  0.0585958915390492  0.3750967597862137  0.4330735413733189
  0.3154228496216687  0.7092462885834792  0.3441918783887062
  0.3157735918752637  0.2089475180754223  0.3442001363688429
  0.9418140585603260  0.1249528114013514  0.5667523601321733
  0.4382380484869322  0.9575790623949086  0.6111722441210867
  0.5660517053663824  0.0372954767317502  0.2554610729605835
  0.1826231881881440  0.7803690187071738  0.1242512413176581
  0.0660206963421692  0.0372312186975668  0.2555421896882855
  0.6919086631348486  0.6252303516582414  0.5667258048809900
  0.4399821667045836  0.6146358096887112  0.1669920104911936
  0.3075297191122134  0.0378689031665130  0.5223073930114013
  0.6824604201570658  0.2802598343288775  0.1241981712248746
  0.8181162527070879  0.7105946851277496  0.4774378575129834
  0.4340635665589001  0.1375649955146031  0.8335675720766730
  0.3228384167592551  0.3754085196810775  0.7001465777506342
  0.6836751846209291  0.6380143342241698  0.8335247594483487
  0.5613560894854757  0.7124524537379530  0.7444876503710534
  0.9371239977019699  0.2916922482841279  0.3885355590312700
  0.9382964876469800  0.9665840674083199  0.8759218386952060
  0.9353268440848720  0.9614748698370437  0.7444461010460163
  0.8169749679472189  0.8740573168086987  0.5667452452895940
  0.8035314046826901  0.8735797875724439  0.2998021184995330
  0.3159552135047126  0.0372097273564292  0.2555885044995111
  0.4323943833552308  0.2804076983169791  0.1242799825078938
  0.3130152678851468  0.7080269658628281  0.6114373319302030
  0.4335657729736839  0.6248708457516373  0.4331136205824122
  0.1966834333808456  0.2962859342066333  0.7883922602472361
  0.5717774626684802  0.0490801735202215  0.7885887751521993
  0.0703245288237823  0.5504677854077441  0.7885986178011025
  0.8069212550372667  0.8879822562381533  0.8342993616581791
  0.5604550809039690  0.2130191162231926  0.7443605686533935
  0.5629274266657174  0.2064540971180990  0.6113097807669653
  0.5635118685625062  0.7067093526878669  0.6113185283577804
 
  0.00000000E+00  0.00000000E+00  0.00000000E+00
  0.00000000E+00  0.00000000E+00  0.00000000E+00
  0.00000000E+00  0.00000000E+00  0.00000000E+00
  0.00000000E+00  0.00000000E+00  0.00000000E+00
  0.00000000E+00  0.00000000E+00  0.00000000E+00
  0.00000000E+00  0.00000000E+00  0.00000000E+00
  0.00000000E+00  0.00000000E+00  0.00000000E+00
  0.00000000E+00  0.00000000E+00  0.00000000E+00
  0.00000000E+00  0.00000000E+00  0.00000000E+00
  0.00000000E+00  0.00000000E+00  0.00000000E+00
  0.00000000E+00  0.00000000E+00  0.00000000E+00
  0.00000000E+00  0.00000000E+00  0.00000000E+00
  0.00000000E+00  0.00000000E+00  0.00000000E+00
  0.00000000E+00  0.00000000E+00  0.00000000E+00
  0.00000000E+00  0.00000000E+00  0.00000000E+00
  0.00000000E+00  0.00000000E+00  0.00000000E+00
  0.00000000E+00  0.00000000E+00  0.00000000E+00
  0.00000000E+00  0.00000000E+00  0.00000000E+00
  0.00000000E+00  0.00000000E+00  0.00000000E+00
  0.00000000E+00  0.00000000E+00  0.00000000E+00
  0.00000000E+00  0.00000000E+00  0.00000000E+00
  0.00000000E+00  0.00000000E+00  0.00000000E+00
  0.00000000E+00  0.00000000E+00  0.00000000E+00
  0.00000000E+00  0.00000000E+00  0.00000000E+00
  0.00000000E+00  0.00000000E+00  0.00000000E+00
  0.00000000E+00  0.00000000E+00  0.00000000E+00
  0.00000000E+00  0.00000000E+00  0.00000000E+00
  0.00000000E+00  0.00000000E+00  0.00000000E+00
  0.00000000E+00  0.00000000E+00  0.00000000E+00
  0.00000000E+00  0.00000000E+00  0.00000000E+00
  0.00000000E+00  0.00000000E+00  0.00000000E+00
  0.00000000E+00  0.00000000E+00  0.00000000E+00
  0.00000000E+00  0.00000000E+00  0.00000000E+00
  0.00000000E+00  0.00000000E+00  0.00000000E+00
  0.00000000E+00  0.00000000E+00  0.00000000E+00
  0.00000000E+00  0.00000000E+00  0.00000000E+00
  0.00000000E+00  0.00000000E+00  0.00000000E+00
  0.00000000E+00  0.00000000E+00  0.00000000E+00
  0.00000000E+00  0.00000000E+00  0.00000000E+00
  0.00000000E+00  0.00000000E+00  0.00000000E+00
  0.00000000E+00  0.00000000E+00  0.00000000E+00
  0.00000000E+00  0.00000000E+00  0.00000000E+00
  0.00000000E+00  0.00000000E+00  0.00000000E+00
  0.00000000E+00  0.00000000E+00  0.00000000E+00
  0.00000000E+00  0.00000000E+00  0.00000000E+00
  0.00000000E+00  0.00000000E+00  0.00000000E+00
  0.00000000E+00  0.00000000E+00  0.00000000E+00
  0.00000000E+00  0.00000000E+00  0.00000000E+00
  0.00000000E+00  0.00000000E+00  0.00000000E+00
  0.00000000E+00  0.00000000E+00  0.00000000E+00
  0.00000000E+00  0.00000000E+00  0.00000000E+00
  0.00000000E+00  0.00000000E+00  0.00000000E+00
  0.00000000E+00  0.00000000E+00  0.00000000E+00
  0.00000000E+00  0.00000000E+00  0.00000000E+00
  0.00000000E+00  0.00000000E+00  0.00000000E+00
  0.00000000E+00  0.00000000E+00  0.00000000E+00
  0.00000000E+00  0.00000000E+00  0.00000000E+00
  0.00000000E+00  0.00000000E+00  0.00000000E+00
  0.00000000E+00  0.00000000E+00  0.00000000E+00
  0.00000000E+00  0.00000000E+00  0.00000000E+00
  0.00000000E+00  0.00000000E+00  0.00000000E+00
  0.00000000E+00  0.00000000E+00  0.00000000E+00
  0.00000000E+00  0.00000000E+00  0.00000000E+00
  0.00000000E+00  0.00000000E+00  0.00000000E+00
  0.00000000E+00  0.00000000E+00  0.00000000E+00
  0.00000000E+00  0.00000000E+00  0.00000000E+00
  0.00000000E+00  0.00000000E+00  0.00000000E+00
  0.00000000E+00  0.00000000E+00  0.00000000E+00
  0.00000000E+00  0.00000000E+00  0.00000000E+00
  0.00000000E+00  0.00000000E+00  0.00000000E+00
  0.00000000E+00  0.00000000E+00  0.00000000E+00
  0.00000000E+00  0.00000000E+00  0.00000000E+00
  0.00000000E+00  0.00000000E+00  0.00000000E+00
  0.00000000E+00  0.00000000E+00  0.00000000E+00
  0.00000000E+00  0.00000000E+00  0.00000000E+00
  0.00000000E+00  0.00000000E+00  0.00000000E+00
  0.00000000E+00  0.00000000E+00  0.00000000E+00
  0.00000000E+00  0.00000000E+00  0.00000000E+00
  0.00000000E+00  0.00000000E+00  0.00000000E+00
  0.00000000E+00  0.00000000E+00  0.00000000E+00
  0.00000000E+00  0.00000000E+00  0.00000000E+00
  0.00000000E+00  0.00000000E+00  0.00000000E+00
  0.00000000E+00  0.00000000E+00  0.00000000E+00
  0.00000000E+00  0.00000000E+00  0.00000000E+00
  0.00000000E+00  0.00000000E+00  0.00000000E+00
  0.00000000E+00  0.00000000E+00  0.00000000E+00
  0.00000000E+00  0.00000000E+00  0.00000000E+00
  0.00000000E+00  0.00000000E+00  0.00000000E+00
  0.00000000E+00  0.00000000E+00  0.00000000E+00
  0.00000000E+00  0.00000000E+00  0.00000000E+00
  0.00000000E+00  0.00000000E+00  0.00000000E+00
  0.00000000E+00  0.00000000E+00  0.00000000E+00
  0.00000000E+00  0.00000000E+00  0.00000000E+00
  0.00000000E+00  0.00000000E+00  0.00000000E+00
  0.00000000E+00  0.00000000E+00  0.00000000E+00
  0.00000000E+00  0.00000000E+00  0.00000000E+00
  0.00000000E+00  0.00000000E+00  0.00000000E+00
  0.00000000E+00  0.00000000E+00  0.00000000E+00
  0.00000000E+00  0.00000000E+00  0.00000000E+00
  0.00000000E+00  0.00000000E+00  0.00000000E+00
  0.00000000E+00  0.00000000E+00  0.00000000E+00
  0.00000000E+00  0.00000000E+00  0.00000000E+00
  0.00000000E+00  0.00000000E+00  0.00000000E+00
  0.00000000E+00  0.00000000E+00  0.00000000E+00
  0.00000000E+00  0.00000000E+00  0.00000000E+00
  0.00000000E+00  0.00000000E+00  0.00000000E+00
  0.00000000E+00  0.00000000E+00  0.00000000E+00
  0.00000000E+00  0.00000000E+00  0.00000000E+00
  0.00000000E+00  0.00000000E+00  0.00000000E+00
  0.00000000E+00  0.00000000E+00  0.00000000E+00
  0.00000000E+00  0.00000000E+00  0.00000000E+00
  0.00000000E+00  0.00000000E+00  0.00000000E+00
  0.00000000E+00  0.00000000E+00  0.00000000E+00
  0.00000000E+00  0.00000000E+00  0.00000000E+00
  0.00000000E+00  0.00000000E+00  0.00000000E+00
  0.00000000E+00  0.00000000E+00  0.00000000E+00
  0.00000000E+00  0.00000000E+00  0.00000000E+00
  0.00000000E+00  0.00000000E+00  0.00000000E+00
  0.00000000E+00  0.00000000E+00  0.00000000E+00
  0.00000000E+00  0.00000000E+00  0.00000000E+00
  0.00000000E+00  0.00000000E+00  0.00000000E+00
  0.00000000E+00  0.00000000E+00  0.00000000E+00
  0.00000000E+00  0.00000000E+00  0.00000000E+00
  0.00000000E+00  0.00000000E+00  0.00000000E+00
  0.00000000E+00  0.00000000E+00  0.00000000E+00
  0.00000000E+00  0.00000000E+00  0.00000000E+00
  0.00000000E+00  0.00000000E+00  0.00000000E+00
  0.00000000E+00  0.00000000E+00  0.00000000E+00
  0.00000000E+00  0.00000000E+00  0.00000000E+00
  0.00000000E+00  0.00000000E+00  0.00000000E+00
  0.00000000E+00  0.00000000E+00  0.00000000E+00
  0.00000000E+00  0.00000000E+00  0.00000000E+00
  0.00000000E+00  0.00000000E+00  0.00000000E+00
  0.00000000E+00  0.00000000E+00  0.00000000E+00
  0.00000000E+00  0.00000000E+00  0.00000000E+00
  0.00000000E+00  0.00000000E+00  0.00000000E+00
  0.00000000E+00  0.00000000E+00  0.00000000E+00
  0.00000000E+00  0.00000000E+00  0.00000000E+00
  0.00000000E+00  0.00000000E+00  0.00000000E+00
  0.00000000E+00  0.00000000E+00  0.00000000E+00
  0.00000000E+00  0.00000000E+00  0.00000000E+00
  0.00000000E+00  0.00000000E+00  0.00000000E+00
  0.00000000E+00  0.00000000E+00  0.00000000E+00
  0.00000000E+00  0.00000000E+00  0.00000000E+00
  0.00000000E+00  0.00000000E+00  0.00000000E+00
  0.00000000E+00  0.00000000E+00  0.00000000E+00
  0.00000000E+00  0.00000000E+00  0.00000000E+00
  0.00000000E+00  0.00000000E+00  0.00000000E+00
  0.00000000E+00  0.00000000E+00  0.00000000E+00
  0.00000000E+00  0.00000000E+00  0.00000000E+00
  0.00000000E+00  0.00000000E+00  0.00000000E+00
  0.00000000E+00  0.00000000E+00  0.00000000E+00
  0.00000000E+00  0.00000000E+00  0.00000000E+00
  0.00000000E+00  0.00000000E+00  0.00000000E+00
  0.00000000E+00  0.00000000E+00  0.00000000E+00
  0.00000000E+00  0.00000000E+00  0.00000000E+00
  0.00000000E+00  0.00000000E+00  0.00000000E+00
  0.00000000E+00  0.00000000E+00  0.00000000E+00
  0.00000000E+00  0.00000000E+00  0.00000000E+00
  0.00000000E+00  0.00000000E+00  0.00000000E+00
  0.00000000E+00  0.00000000E+00  0.00000000E+00
  0.00000000E+00  0.00000000E+00  0.00000000E+00
  0.00000000E+00  0.00000000E+00  0.00000000E+00
  0.00000000E+00  0.00000000E+00  0.00000000E+00
  0.00000000E+00  0.00000000E+00  0.00000000E+00
  0.00000000E+00  0.00000000E+00  0.00000000E+00
  0.00000000E+00  0.00000000E+00  0.00000000E+00
  0.00000000E+00  0.00000000E+00  0.00000000E+00
  0.00000000E+00  0.00000000E+00  0.00000000E+00
  0.00000000E+00  0.00000000E+00  0.00000000E+00
  0.00000000E+00  0.00000000E+00  0.00000000E+00
  0.00000000E+00  0.00000000E+00  0.00000000E+00
  0.00000000E+00  0.00000000E+00  0.00000000E+00
  0.00000000E+00  0.00000000E+00  0.00000000E+00
  0.00000000E+00  0.00000000E+00  0.00000000E+00
  0.00000000E+00  0.00000000E+00  0.00000000E+00
  0.00000000E+00  0.00000000E+00  0.00000000E+00
  0.00000000E+00  0.00000000E+00  0.00000000E+00
  0.00000000E+00  0.00000000E+00  0.00000000E+00
  0.00000000E+00  0.00000000E+00  0.00000000E+00
  0.00000000E+00  0.00000000E+00  0.00000000E+00
  0.00000000E+00  0.00000000E+00  0.00000000E+00
  0.00000000E+00  0.00000000E+00  0.00000000E+00
  0.00000000E+00  0.00000000E+00  0.00000000E+00
  0.00000000E+00  0.00000000E+00  0.00000000E+00
  0.00000000E+00  0.00000000E+00  0.00000000E+00
  0.00000000E+00  0.00000000E+00  0.00000000E+00
  0.00000000E+00  0.00000000E+00  0.00000000E+00
  0.00000000E+00  0.00000000E+00  0.00000000E+00
  0.00000000E+00  0.00000000E+00  0.00000000E+00
  0.00000000E+00  0.00000000E+00  0.00000000E+00
  0.00000000E+00  0.00000000E+00  0.00000000E+00
  0.00000000E+00  0.00000000E+00  0.00000000E+00
  0.00000000E+00  0.00000000E+00  0.00000000E+00
  0.00000000E+00  0.00000000E+00  0.00000000E+00
  0.00000000E+00  0.00000000E+00  0.00000000E+00
  0.00000000E+00  0.00000000E+00  0.00000000E+00
  0.00000000E+00  0.00000000E+00  0.00000000E+00
  0.00000000E+00  0.00000000E+00  0.00000000E+00
  0.00000000E+00  0.00000000E+00  0.00000000E+00
  0.00000000E+00  0.00000000E+00  0.00000000E+00
  0.00000000E+00  0.00000000E+00  0.00000000E+00
  0.00000000E+00  0.00000000E+00  0.00000000E+00
  0.00000000E+00  0.00000000E+00  0.00000000E+00
  0.00000000E+00  0.00000000E+00  0.00000000E+00
  0.00000000E+00  0.00000000E+00  0.00000000E+00
  0.00000000E+00  0.00000000E+00  0.00000000E+00
  0.00000000E+00  0.00000000E+00  0.00000000E+00
  0.00000000E+00  0.00000000E+00  0.00000000E+00
  0.00000000E+00  0.00000000E+00  0.00000000E+00
  0.00000000E+00  0.00000000E+00  0.00000000E+00
  0.00000000E+00  0.00000000E+00  0.00000000E+00
  0.00000000E+00  0.00000000E+00  0.00000000E+00
  0.00000000E+00  0.00000000E+00  0.00000000E+00
  0.00000000E+00  0.00000000E+00  0.00000000E+00
  0.00000000E+00  0.00000000E+00  0.00000000E+00
  0.00000000E+00  0.00000000E+00  0.00000000E+00
  0.00000000E+00  0.00000000E+00  0.00000000E+00
  0.00000000E+00  0.00000000E+00  0.00000000E+00
  0.00000000E+00  0.00000000E+00  0.00000000E+00
  0.00000000E+00  0.00000000E+00  0.00000000E+00
  0.00000000E+00  0.00000000E+00  0.00000000E+00
  0.00000000E+00  0.00000000E+00  0.00000000E+00
  0.00000000E+00  0.00000000E+00  0.00000000E+00
  0.00000000E+00  0.00000000E+00  0.00000000E+00
  0.00000000E+00  0.00000000E+00  0.00000000E+00
  0.00000000E+00  0.00000000E+00  0.00000000E+00
  0.00000000E+00  0.00000000E+00  0.00000000E+00
  0.00000000E+00  0.00000000E+00  0.00000000E+00
  0.00000000E+00  0.00000000E+00  0.00000000E+00
  0.00000000E+00  0.00000000E+00  0.00000000E+00
  0.00000000E+00  0.00000000E+00  0.00000000E+00
  0.00000000E+00  0.00000000E+00  0.00000000E+00
  0.00000000E+00  0.00000000E+00  0.00000000E+00
  0.00000000E+00  0.00000000E+00  0.00000000E+00
  0.00000000E+00  0.00000000E+00  0.00000000E+00
  0.00000000E+00  0.00000000E+00  0.00000000E+00
  0.00000000E+00  0.00000000E+00  0.00000000E+00
  0.00000000E+00  0.00000000E+00  0.00000000E+00
  0.00000000E+00  0.00000000E+00  0.00000000E+00
  0.00000000E+00  0.00000000E+00  0.00000000E+00
  0.00000000E+00  0.00000000E+00  0.00000000E+00
  0.00000000E+00  0.00000000E+00  0.00000000E+00
  0.00000000E+00  0.00000000E+00  0.00000000E+00
  0.00000000E+00  0.00000000E+00  0.00000000E+00
  0.00000000E+00  0.00000000E+00  0.00000000E+00
  0.00000000E+00  0.00000000E+00  0.00000000E+00