FeMn_288_20                             
    1.000000000000000     
     9.7266779999999997    0.0000000000000000    0.0000000000000000
     0.0000000000000000    8.4235500000000005    0.0000000000000000
     0.0000000000000000    0.0000000000000000   45.0000000000000000
   Fe   Mn
   268    20
Direct
  0.6878540764988855  0.4555696488980610  0.4786338993038579
  0.8128482469402191  0.2056587579213069  0.4788041811716657
  0.0622842963245593  0.0380776228519391  0.2575497637581974
  0.5628494340597066  0.8731326658491975  0.7863313413482780
  0.6875142681393799  0.4568906473399712  0.6981498945084702
  0.5622499454931676  0.3721751371409562  0.1685873890246667
  0.8127582089298916  0.5398716687248137  0.7422361668177038
  0.0627823467322671  0.0375672099123995  0.1262042868159021
  0.4375031570672219  0.7882951885102508  0.3902034189740032
  0.6873355246291523  0.9558737093245844  0.8312991703791969
  0.5621546307844396  0.3710076651041037  0.3018831544439552
  0.0628005347042353  0.8722591647541800  0.4348220903348410
  0.6872829283940473  0.7895258021419923  0.6099589694213932
  0.9375831559619314  0.9563214604552632  0.6981826074237196
  0.4369936115804357  0.7877102385746844  0.2576484087658138
  0.4370898820827177  0.6225200848629203  0.5214951497248382
  0.1879338224122052  0.6220196037071246  0.4347091989392423
  0.3128163051822907  0.0383659217259702  0.3902092250033409
  0.8124223410891807  0.3732902620902057  0.6538522481153100
  0.1877842637631099  0.6217494126428097  0.3019341988407790
  0.1874956217901110  0.7880422392805383  0.3902517580819499
  0.9374791027140552  0.7899181058013184  0.7422371533826483
  0.5625595652837634  0.3732085450834830  0.6537400225749167
  0.1876927632773785  0.9556462798080519  0.8311679935284739
  0.0616355898840825  0.0401990886832729  0.8733480131859652
  0.8116854078792030  0.3724660059522064  0.5215260536391891
  0.1876291864365531  0.6235261114860781  0.7863720282926622
  0.3122910610819840  0.7058221960612622  0.5652094756072337
  0.6875619077603300  0.6232083780879950  0.6537556409255131
  0.0626730978016203  0.2066199254888269  0.6981526499262511
  0.9371169210299015  0.4546914901056001  0.2135240744540780
  0.4375747833664846  0.7902339466071642  0.7422436779995452
  0.5628192771265403  0.5399052349817419  0.8732115120765070
  0.9379602020634273  0.6231576694175591  0.7863256066850102
  0.5626951325718457  0.7059022540889530  0.5651929678606720
  0.9373865516343983  0.1221564151198633  0.4347470528600103
  0.5625473631132240  0.8730860785459708  0.6537624482032186
  0.5623722692150269  0.5395300991169649  0.6099487199398812
  0.1871904122849087  0.7892555077801627  0.1263436527522160
  0.5626612068106348  0.7047102942816230  0.2137164833873634
  0.3123996708642537  0.8730265914145933  0.6536753677956453
  0.5626183963698750  0.5400002301296219  0.7422877360593135
  0.9374179686426726  0.2900805333792233  0.7423393543993845
  0.0626417024490317  0.7063705992311271  0.6982093025098234
  0.3122944610100820  0.5400048656898246  0.7423301348759465
  0.6873698384749062  0.4548963041096570  0.3462634833012854
  0.4373256613646603  0.4551730541722890  0.3462705193727252
  0.0624061312334603  0.8728265727571819  0.5215079312527836
  0.4371612123599620  0.2879791892877533  0.2576853389815294
  0.0625546384177605  0.3731031369756314  0.6537547072554468
  0.4374793432712060  0.6217807786785409  0.4348456878240323
  0.9375574241637733  0.9551683699355252  0.2135323509918360
  0.8128984529403929  0.8724582590530305  0.4346644156186447
  0.1873702513217283  0.9547458622077081  0.3462486645890741
  0.1878285194855246  0.1222502396833392  0.5214686875519182
  0.5624982797524225  0.2044522251431551  0.2134894742870391
  0.9375232016524243  0.1218647376733039  0.5215225949223725
  0.3128136497216150  0.2064684984142001  0.8312321854965580
  0.9374291645734167  0.7878682875697834  0.3902110487959617
  0.4375969494300976  0.4559663518539956  0.5653034092967669
  0.0627960328783879  0.5378636941059185  0.2576168947803220
  0.6872578782651915  0.1210302929459627  0.3018564982411846
  0.0623411657431478  0.5397752786309321  0.6098300684357532
  0.8126474050801586  0.5377539215475132  0.2576109355722253
  0.9386931827637467  0.7903900382291605  0.8732445985695692
  0.3123461941970064  0.3731987632768352  0.7864576055783461
  0.5633310213099146  0.0376424572983961  0.1265811386326902
  0.5626563474358582  0.0399471090808981  0.6098568584479227
  0.5615480280743799  0.0401716111538856  0.8735047238334315
  0.8118115252993375  0.7058348377997672  0.4786253121727306
  0.9373963994355452  0.4555563933013643  0.5652191136015933
  0.0627211891613797  0.0395809861570352  0.6100056707163696
  0.6873306295415614  0.9545785348268991  0.3463278643942957
  0.8126869362322189  0.2046917278803081  0.2135289841306101
  0.6873982483624077  0.6212378139797714  0.3017480720523039
  0.9379548854547208  0.7883875891569062  0.2576807971936191
  0.3123715539253818  0.3713142840678253  0.3018731033242341
  0.3125871071991750  0.7055115476882681  0.4785683736513144
  0.6884884555957681  0.4566717340696536  0.8313409303278533
  0.1872074635673796  0.4559026694515981  0.4786496255520655
  0.1875774305291006  0.2902976726541134  0.7423002972824827
  0.8123421883718633  0.0382432166359465  0.3901715470717993
  0.0624435152072596  0.8732865621821954  0.6537850167044055
  0.3123588741215746  0.8732917097053836  0.7863213537079570
  0.5619797000668860  0.2060974681111871  0.8312446016657853
  0.3119736265251490  0.8719992962438053  0.4349720199883645
  0.1875208434914107  0.4547342498450021  0.3462280249055466
  0.3124958261276040  0.2037546096634315  0.2137990443528292
  0.8124327651427729  0.3720780643321324  0.1685172053164032
  0.6870969633080183  0.2873902533571249  0.1264512986753240
  0.5623108148254355  0.5374374863250856  0.2576777992052944
  0.5627186242104540  0.7071282486405325  0.8313502572662994
  0.5623134267194646  0.8709645328229388  0.1687127686911047
  0.1875902274244811  0.6229987664860898  0.6538422755502383
  0.4375694857040326  0.2880784707703298  0.3902249298087404
  0.0623642692828972  0.5405729519688536  0.8732232674161984
  0.3123103295406013  0.7065667024815387  0.6981466695432758
  0.9373329082482863  0.7893449270348820  0.6099056777169630
  0.9376023971438674  0.2880674311288027  0.2577245836017147
  0.4371310131312118  0.9545965004312390  0.2135099551952812
  0.6875183050230848  0.9554237327763536  0.4786955330381541
  0.4365018817694888  0.7907855221306643  0.8735377529752232
  0.5624688742064886  0.2063328453123747  0.5653155234724007
  0.0624895873305141  0.2046591411367042  0.3462824230294894
  0.0624218849198259  0.0400217568337805  0.7422685167930589
  0.3127441819228679  0.5397350705712466  0.6099730543353352
  0.1875911405715860  0.2882151318555324  0.2577204471325003
  0.6880891478031109  0.4559004413751461  0.5652287833733605
  0.8126971206115416  0.5397743062824391  0.6099440737164347
  0.6877801204842733  0.9556523786930242  0.5652376611493681
  0.6874940949258036  0.1217432118591222  0.1688284721119127
  0.6873925054849376  0.6232067474795777  0.7864254538618713
  0.0623422396367641  0.2058357509354786  0.5653545349580897
  0.6873212302444953  0.9551163374035638  0.2135533957440209
  0.8123411762431835  0.2064966082995220  0.6981642612213418
  0.9372343655352595  0.1212867322303216  0.3018900151084395
  0.6875291340108541  0.2884434234034653  0.3901556108544336
  0.4381966789436081  0.2871025082484362  0.1264222711636047
  0.5626501448653730  0.2050640684882528  0.3462440324273213
  0.4377204740528148  0.9546889620554908  0.3462462248199861
  0.0629445993093100  0.7058967724858503  0.8310926103815590
  0.5628465261277084  0.7047927420921033  0.3462976367220357
  0.8140085246250331  0.0404504144855503  0.8734814271213965
  0.6871088661269821  0.6217525884869792  0.4347762966705551
  0.0622642566111904  0.8711901466834507  0.3018853751132369
  0.8120680213552440  0.7050814700235806  0.2137377239021324
  0.8124626207568982  0.3715537246803248  0.4346115847842699
  0.6873147408109137  0.1219220922693655  0.4351604757349422
  0.4376049501328653  0.4568351909330353  0.6981474286332120
  0.4373938138070507  0.1221534863509079  0.5214846534261631
  0.0628399449161289  0.7054922314832582  0.5651658080986078
  0.4380370196575299  0.7886019711130007  0.1266933443053993
  0.5624809688634020  0.8724134671981542  0.5214137087859680
  0.8123203287347612  0.8735359245649580  0.7864249728497307
  0.0622107612538557  0.2051518719526280  0.4787272006171582
  0.1877889276204854  0.6223641897375780  0.5214483657739697
  0.4375818374529862  0.6215163550560759  0.3018728183489081
  0.3123631256509270  0.8716247707008722  0.3018333152002908
  0.8124324111616538  0.2048768839675882  0.3462742941167180
  0.6875794351435286  0.7899585796003109  0.7423039747026353
  0.8117915651415881  0.7068290567940023  0.8312548742470859
  0.6873258095975453  0.6219084860954112  0.5214594214333992
  0.9372019089970851  0.4561653947826884  0.8310586119176376
  0.8118061448326137  0.0374242738780919  0.1265866779802859
  0.0623135289117525  0.2060952260146861  0.8312121341576141
  0.9374311070312142  0.9552408840963241  0.4786769608178858
  0.9367824648896015  0.2877560006737173  0.1265175153111245
  0.8128744110298314  0.8723439753692104  0.5215491423224479
  0.4375304896975414  0.1229889454547937  0.6538200870487456
  0.5626233104879608  0.7052771873759318  0.4785972312440757
  0.8120196680675080  0.5363956599387540  0.1265359498745033
  0.1874380736611589  0.2895998621300544  0.6099526913955828
  0.4374011900682261  0.6229033519840745  0.6537970020276664
  0.6873274446019328  0.6220947526608509  0.1687798771037536
  0.3123496794297597  0.5383379418825548  0.3900381470623857
  0.8123435056547025  0.0397454844338774  0.6099141480567013
  0.8122440594018826  0.8712536560805224  0.3018676300808148
  0.9375266012304363  0.7887765259852512  0.1264000788483485
  0.4375584276240351  0.2898606451646908  0.7423501771372503
  0.1872604544394036  0.9555291603728820  0.5653394633531229
  0.5625699471124054  0.7069281306830032  0.6982255755129492
  0.3126474724850883  0.7047004139088697  0.2136284288452622
  0.1874301316692229  0.1231298835796300  0.6538639402663380
  0.5628173285846034  0.8714977640479551  0.3018621131394442
  0.8120434304031905  0.8719575744118416  0.1686558623867042
  0.9375480441517787  0.4566482204345426  0.6981769292488400
  0.1875927091085679  0.4544209492828520  0.2134108038381205
  0.1873990838285508  0.9564794758922497  0.6981727556371651
  0.1875792652620729  0.9553523826196374  0.4786894782069518
  0.3124924792127451  0.3712812706721236  0.1685377704006456
  0.4367327447395948  0.2897902252588491  0.8733149950270134
  0.9381065127016770  0.6215137661299318  0.1686225183919925
  0.4373845360771623  0.1219524113704083  0.4347670215995160
  0.9378263565480126  0.1202952897399241  0.1686910021160549
  0.8128085711091237  0.3738665351856997  0.7862880448331906
  0.6876028662855832  0.9565591852526888  0.6981380417262021
  0.6870788346132651  0.1236693731196002  0.7862106565925684
  0.4375290193535507  0.9553344606796623  0.4787907067752735
  0.0623321566171717  0.7041195675484956  0.2136340451350482
  0.1876266956403589  0.7901858257434392  0.8733565358651714
  0.6876172141850162  0.2898268015517190  0.7423088912943133
  0.9378237210954519  0.1233377221653973  0.7862947934670429
  0.6874235749353473  0.4546647826104356  0.2134893886392896
  0.8125668454308720  0.3707047628191630  0.3018339687218923
  0.0627202536960716  0.3716210961135936  0.3017950471369884
  0.9374669415557976  0.2882276259853521  0.3902733630585212
  0.5626185657729368  0.3725069266711167  0.5213993493859661
  0.5627992810219086  0.0379652943974098  0.2576057341236469
  0.6875359401056726  0.7883576640696778  0.3902396658510425
  0.0622489282404800  0.3714315705082825  0.1684131441399886
  0.1874862462872549  0.1232360250012652  0.7864456868823858
  0.8119335794754106  0.7055160982638941  0.5651973170432086
  0.4375809429857884  0.7896395778069757  0.6098733612157494
  0.4372209192066449  0.2897467152711451  0.6099369361899589
  0.5624498180984865  0.0384563334693820  0.3901296950519883
  0.5626205564863876  0.3731178778707838  0.7863731274510817
  0.9378317407568648  0.2896497614501712  0.6099889619330511
  0.9377787898960076  0.4550240093452081  0.3463247248510137
  0.8128892849624244  0.0400631408775801  0.7422730178084279
  0.8124908103522097  0.5388931882758020  0.8733319501770006
  0.1878559856067157  0.7898563458948711  0.6099615635126588
  0.3121970892283003  0.5396371224802796  0.8732432472654026
  0.0621553221115081  0.7048627931183971  0.3463078240257964
  0.6876238712924608  0.7878451076458372  0.2576211224249038
  0.4374907636131331  0.6208917932032723  0.1686180456470298
  0.3128174697588063  0.3726198861130645  0.5213797109736458
  0.5625757748290441  0.3720490713160874  0.4347978423139348
  0.0624352116725691  0.5399238130485855  0.7423037569444283
  0.3132961368000781  0.0399590426502898  0.8735479676169993
  0.0621854621434697  0.2035741879138726  0.2137120611861977
  0.0624722673902487  0.0382556487858315  0.3901336106601792
  0.1874209291124700  0.2881049779702795  0.3901450346610913
  0.4375827886868487  0.1213206235317765  0.3017622018621897
  0.1874332049839618  0.4565569657145314  0.6981764726637041
  0.9375506379971892  0.6231863368742319  0.6537599580430039
  0.4374659996859398  0.9567171912478699  0.6981670709588399
  0.0625619818002548  0.8734087046167321  0.7863453337724644
  0.6876907542167912  0.1233207356914414  0.6538258819355177
  0.4372718565362445  0.1216431708923022  0.1687220843871760
  0.9370733130666700  0.9571356606475647  0.8312897127281280
  0.3124334804548070  0.0378761661277025  0.2575838637352884
  0.9374193040335541  0.9556454225536565  0.5652849688440799
  0.3123402201710764  0.7066235875402148  0.8310981055912898
  0.0627384061293153  0.7059242160126020  0.4787175790869010
  0.3126112636485651  0.3729397157504616  0.6537832233246715
  0.8127560105338278  0.7042792462402904  0.3462294258929285
  0.4370494846472894  0.4567313232033379  0.8311051779548928
  0.3125782190705186  0.8721138171043614  0.5214621777725985
  0.9374949519538248  0.4550908761683524  0.4787210953045055
  0.0622521926506458  0.3731323902253716  0.7864049928498799
  0.5626255700191858  0.5384497989261381  0.3902250374958242
  0.9374297083587533  0.9547774366082541  0.3462544506991754
  0.9371366162766405  0.2897316280683623  0.8735373957193892
  0.1876922840125621  0.9541161267996887  0.2136247883933639
  0.5624934842511012  0.2068054885822571  0.6981744802846854
  0.4370479894740342  0.6230790177574952  0.7862442045906126
  0.1871549818012574  0.6200602023564489  0.1685510309928206
  0.8126545190407236  0.5382823124403581  0.3901663800012715
  0.1878990651820767  0.1212794956826143  0.3018288013958733
  0.3124331366697971  0.0399745028000767  0.6099218846649561
  0.1881834917156194  0.2905763078885648  0.8731965717920260
  0.3123565209990256  0.2062720304758364  0.5650590539541287
  0.3124402645343524  0.0399480838497258  0.7422580582775198
  0.3124662024943872  0.7047472177066030  0.3462233855024478
  0.8126131086386287  0.7066951956804569  0.6981652111102032
  0.6876697692953851  0.2893869004664160  0.6099163672156613
  0.3126587109017717  0.2067242657933469  0.6982274026978844
  0.4375446432908618  0.1238713057049829  0.7863085668394060
  0.1870965068248318  0.4565775013761878  0.8311829690568050
  0.3121440000370109  0.0380271502955545  0.1263768202588226
  0.5628949094724056  0.5369507818443651  0.1264660042829014
  0.3120700485943898  0.8713294240201226  0.1684599691853292
  0.4377107582628307  0.4555888726377566  0.4786287086306400
  0.1879144934348484  0.1219311530314953  0.4348364526823930
  0.5626853116851503  0.2058605081385304  0.4785996716811933
  0.9374839104057220  0.1232193193263030  0.6538171026913437
  0.0623970639436567  0.5380650469052408  0.3901599950066356
  0.6880865522735959  0.2903565150842069  0.8735149557179607
  0.1870764727883711  0.4563134336390184  0.5653255478183840
  0.8128707364097173  0.2062050086581644  0.5652871483731636
  0.6868695962799867  0.7878580536553158  0.1266687943528807
  0.4375693098835671  0.4543389174468849  0.2135679929931253
  0.1871434074512458  0.7876257238603827  0.2577460832351062
  0.1876842566860099  0.2874472612019114  0.1263506509086395
  0.8126725541177606  0.8732057646965806  0.6537315292862333
  0.3123215141563556  0.3719593173138764  0.4348068926735174
  0.1875283909649501  0.7898595631571672  0.7422903376526162
  0.0627310071161548  0.3718723029952185  0.4350391847466927
  0.6871191207720062  0.2882727132421223  0.2576374759852965
  0.3122863744807000  0.2058170071918751  0.4787362973160133
  0.9373747359850193  0.6214371800700218  0.3018462798439591
  0.1877731744501206  0.1210351836274662  0.1681122975795191
  0.4378478481244126  0.9561010783259909  0.5653885558948610
  0.9377077365282430  0.6228483169707719  0.5212689056533808
  0.3125393881230667  0.5382424262873526  0.2575457998263167
  0.5628634991667035  0.8718336841783911  0.4347628402927454
  0.0625033729367560  0.8694818022184493  0.1679315136500565
  0.5623608910904100  0.0397562432374573  0.7423758292100299
  0.8128114842461750  0.0373890906580912  0.2575108158031355
  0.0633028761147530  0.3720097294306168  0.5213940175057309
  0.3123722443692457  0.2044422923260922  0.3464187603821208
  0.0606867384129642  0.5379427985701319  0.1268099850446489
  0.3143303959614250  0.5367273940374014  0.1268471952718283
  0.6870908454652030  0.1222204923674926  0.5214934272933277
  0.4379214569230376  0.9558389773714596  0.8319167863726389
  0.8125823769440789  0.2072952649634964  0.8318867952108602
  0.9372938997160375  0.6220346303961556  0.4349820041749035
  0.6872771650290667  0.7896722837432431  0.8730462863929775
 
  0.00000000E+00  0.00000000E+00  0.00000000E+00
  0.00000000E+00  0.00000000E+00  0.00000000E+00
  0.00000000E+00  0.00000000E+00  0.00000000E+00
  0.00000000E+00  0.00000000E+00  0.00000000E+00
  0.00000000E+00  0.00000000E+00  0.00000000E+00
  0.00000000E+00  0.00000000E+00  0.00000000E+00
  0.00000000E+00  0.00000000E+00  0.00000000E+00
  0.00000000E+00  0.00000000E+00  0.00000000E+00
  0.00000000E+00  0.00000000E+00  0.00000000E+00
  0.00000000E+00  0.00000000E+00  0.00000000E+00
  0.00000000E+00  0.00000000E+00  0.00000000E+00
  0.00000000E+00  0.00000000E+00  0.00000000E+00
  0.00000000E+00  0.00000000E+00  0.00000000E+00
  0.00000000E+00  0.00000000E+00  0.00000000E+00
  0.00000000E+00  0.00000000E+00  0.00000000E+00
  0.00000000E+00  0.00000000E+00  0.00000000E+00
  0.00000000E+00  0.00000000E+00  0.00000000E+00
  0.00000000E+00  0.00000000E+00  0.00000000E+00
  0.00000000E+00  0.00000000E+00  0.00000000E+00
  0.00000000E+00  0.00000000E+00  0.00000000E+00
  0.00000000E+00  0.00000000E+00  0.00000000E+00
  0.00000000E+00  0.00000000E+00  0.00000000E+00
  0.00000000E+00  0.00000000E+00  0.00000000E+00
  0.00000000E+00  0.00000000E+00  0.00000000E+00
  0.00000000E+00  0.00000000E+00  0.00000000E+00
  0.00000000E+00  0.00000000E+00  0.00000000E+00
  0.00000000E+00  0.00000000E+00  0.00000000E+00
  0.00000000E+00  0.00000000E+00  0.00000000E+00
  0.00000000E+00  0.00000000E+00  0.00000000E+00
  0.00000000E+00  0.00000000E+00  0.00000000E+00
  0.00000000E+00  0.00000000E+00  0.00000000E+00
  0.00000000E+00  0.00000000E+00  0.00000000E+00
  0.00000000E+00  0.00000000E+00  0.00000000E+00
  0.00000000E+00  0.00000000E+00  0.00000000E+00
  0.00000000E+00  0.00000000E+00  0.00000000E+00
  0.00000000E+00  0.00000000E+00  0.00000000E+00
  0.00000000E+00  0.00000000E+00  0.00000000E+00
  0.00000000E+00  0.00000000E+00  0.00000000E+00
  0.00000000E+00  0.00000000E+00  0.00000000E+00
  0.00000000E+00  0.00000000E+00  0.00000000E+00
  0.00000000E+00  0.00000000E+00  0.00000000E+00
  0.00000000E+00  0.00000000E+00  0.00000000E+00
  0.00000000E+00  0.00000000E+00  0.00000000E+00
  0.00000000E+00  0.00000000E+00  0.00000000E+00
  0.00000000E+00  0.00000000E+00  0.00000000E+00
  0.00000000E+00  0.00000000E+00  0.00000000E+00
  0.00000000E+00  0.00000000E+00  0.00000000E+00
  0.00000000E+00  0.00000000E+00  0.00000000E+00
  0.00000000E+00  0.00000000E+00  0.00000000E+00
  0.00000000E+00  0.00000000E+00  0.00000000E+00
  0.00000000E+00  0.00000000E+00  0.00000000E+00
  0.00000000E+00  0.00000000E+00  0.00000000E+00
  0.00000000E+00  0.00000000E+00  0.00000000E+00
  0.00000000E+00  0.00000000E+00  0.00000000E+00
  0.00000000E+00  0.00000000E+00  0.00000000E+00
  0.00000000E+00  0.00000000E+00  0.00000000E+00
  0.00000000E+00  0.00000000E+00  0.00000000E+00
  0.00000000E+00  0.00000000E+00  0.00000000E+00
  0.00000000E+00  0.00000000E+00  0.00000000E+00
  0.00000000E+00  0.00000000E+00  0.00000000E+00
  0.00000000E+00  0.00000000E+00  0.00000000E+00
  0.00000000E+00  0.00000000E+00  0.00000000E+00
  0.00000000E+00  0.00000000E+00  0.00000000E+00
  0.00000000E+00  0.00000000E+00  0.00000000E+00
  0.00000000E+00  0.00000000E+00  0.00000000E+00
  0.00000000E+00  0.00000000E+00  0.00000000E+00
  0.00000000E+00  0.00000000E+00  0.00000000E+00
  0.00000000E+00  0.00000000E+00  0.00000000E+00
  0.00000000E+00  0.00000000E+00  0.00000000E+00
  0.00000000E+00  0.00000000E+00  0.00000000E+00
  0.00000000E+00  0.00000000E+00  0.00000000E+00
  0.00000000E+00  0.00000000E+00  0.00000000E+00
  0.00000000E+00  0.00000000E+00  0.00000000E+00
  0.00000000E+00  0.00000000E+00  0.00000000E+00
  0.00000000E+00  0.00000000E+00  0.00000000E+00
  0.00000000E+00  0.00000000E+00  0.00000000E+00
  0.00000000E+00  0.00000000E+00  0.00000000E+00
  0.00000000E+00  0.00000000E+00  0.00000000E+00
  0.00000000E+00  0.00000000E+00  0.00000000E+00
  0.00000000E+00  0.00000000E+00  0.00000000E+00
  0.00000000E+00  0.00000000E+00  0.00000000E+00
  0.00000000E+00  0.00000000E+00  0.00000000E+00
  0.00000000E+00  0.00000000E+00  0.00000000E+00
  0.00000000E+00  0.00000000E+00  0.00000000E+00
  0.00000000E+00  0.00000000E+00  0.00000000E+00
  0.00000000E+00  0.00000000E+00  0.00000000E+00
  0.00000000E+00  0.00000000E+00  0.00000000E+00
  0.00000000E+00  0.00000000E+00  0.00000000E+00
  0.00000000E+00  0.00000000E+00  0.00000000E+00
  0.00000000E+00  0.00000000E+00  0.00000000E+00
  0.00000000E+00  0.00000000E+00  0.00000000E+00
  0.00000000E+00  0.00000000E+00  0.00000000E+00
  0.00000000E+00  0.00000000E+00  0.00000000E+00
  0.00000000E+00  0.00000000E+00  0.00000000E+00
  0.00000000E+00  0.00000000E+00  0.00000000E+00
  0.00000000E+00  0.00000000E+00  0.00000000E+00
  0.00000000E+00  0.00000000E+00  0.00000000E+00
  0.00000000E+00  0.00000000E+00  0.00000000E+00
  0.00000000E+00  0.00000000E+00  0.00000000E+00
  0.00000000E+00  0.00000000E+00  0.00000000E+00
  0.00000000E+00  0.00000000E+00  0.00000000E+00
  0.00000000E+00  0.00000000E+00  0.00000000E+00
  0.00000000E+00  0.00000000E+00  0.00000000E+00
  0.00000000E+00  0.00000000E+00  0.00000000E+00
  0.00000000E+00  0.00000000E+00  0.00000000E+00
  0.00000000E+00  0.00000000E+00  0.00000000E+00
  0.00000000E+00  0.00000000E+00  0.00000000E+00
  0.00000000E+00  0.00000000E+00  0.00000000E+00
  0.00000000E+00  0.00000000E+00  0.00000000E+00
  0.00000000E+00  0.00000000E+00  0.00000000E+00
  0.00000000E+00  0.00000000E+00  0.00000000E+00
  0.00000000E+00  0.00000000E+00  0.00000000E+00
  0.00000000E+00  0.00000000E+00  0.00000000E+00
  0.00000000E+00  0.00000000E+00  0.00000000E+00
  0.00000000E+00  0.00000000E+00  0.00000000E+00
  0.00000000E+00  0.00000000E+00  0.00000000E+00
  0.00000000E+00  0.00000000E+00  0.00000000E+00
  0.00000000E+00  0.00000000E+00  0.00000000E+00
  0.00000000E+00  0.00000000E+00  0.00000000E+00
  0.00000000E+00  0.00000000E+00  0.00000000E+00
  0.00000000E+00  0.00000000E+00  0.00000000E+00
  0.00000000E+00  0.00000000E+00  0.00000000E+00
  0.00000000E+00  0.00000000E+00  0.00000000E+00
  0.00000000E+00  0.00000000E+00  0.00000000E+00
  0.00000000E+00  0.00000000E+00  0.00000000E+00
  0.00000000E+00  0.00000000E+00  0.00000000E+00
  0.00000000E+00  0.00000000E+00  0.00000000E+00
  0.00000000E+00  0.00000000E+00  0.00000000E+00
  0.00000000E+00  0.00000000E+00  0.00000000E+00
  0.00000000E+00  0.00000000E+00  0.00000000E+00
  0.00000000E+00  0.00000000E+00  0.00000000E+00
  0.00000000E+00  0.00000000E+00  0.00000000E+00
  0.00000000E+00  0.00000000E+00  0.00000000E+00
  0.00000000E+00  0.00000000E+00  0.00000000E+00
  0.00000000E+00  0.00000000E+00  0.00000000E+00
  0.00000000E+00  0.00000000E+00  0.00000000E+00
  0.00000000E+00  0.00000000E+00  0.00000000E+00
  0.00000000E+00  0.00000000E+00  0.00000000E+00
  0.00000000E+00  0.00000000E+00  0.00000000E+00
  0.00000000E+00  0.00000000E+00  0.00000000E+00
  0.00000000E+00  0.00000000E+00  0.00000000E+00
  0.00000000E+00  0.00000000E+00  0.00000000E+00
  0.00000000E+00  0.00000000E+00  0.00000000E+00
  0.00000000E+00  0.00000000E+00  0.00000000E+00
  0.00000000E+00  0.00000000E+00  0.00000000E+00
  0.00000000E+00  0.00000000E+00  0.00000000E+00
  0.00000000E+00  0.00000000E+00  0.00000000E+00
  0.00000000E+00  0.00000000E+00  0.00000000E+00
  0.00000000E+00  0.00000000E+00  0.00000000E+00
  0.00000000E+00  0.00000000E+00  0.00000000E+00
  0.00000000E+00  0.00000000E+00  0.00000000E+00
  0.00000000E+00  0.00000000E+00  0.00000000E+00
  0.00000000E+00  0.00000000E+00  0.00000000E+00
  0.00000000E+00  0.00000000E+00  0.00000000E+00
  0.00000000E+00  0.00000000E+00  0.00000000E+00
  0.00000000E+00  0.00000000E+00  0.00000000E+00
  0.00000000E+00  0.00000000E+00  0.00000000E+00
  0.00000000E+00  0.00000000E+00  0.00000000E+00
  0.00000000E+00  0.00000000E+00  0.00000000E+00
  0.00000000E+00  0.00000000E+00  0.00000000E+00
  0.00000000E+00  0.00000000E+00  0.00000000E+00
  0.00000000E+00  0.00000000E+00  0.00000000E+00
  0.00000000E+00  0.00000000E+00  0.00000000E+00
  0.00000000E+00  0.00000000E+00  0.00000000E+00
  0.00000000E+00  0.00000000E+00  0.00000000E+00
  0.00000000E+00  0.00000000E+00  0.00000000E+00
  0.00000000E+00  0.00000000E+00  0.00000000E+00
  0.00000000E+00  0.00000000E+00  0.00000000E+00
  0.00000000E+00  0.00000000E+00  0.00000000E+00
  0.00000000E+00  0.00000000E+00  0.00000000E+00
  0.00000000E+00  0.00000000E+00  0.00000000E+00
  0.00000000E+00  0.00000000E+00  0.00000000E+00
  0.00000000E+00  0.00000000E+00  0.00000000E+00
  0.00000000E+00  0.00000000E+00  0.00000000E+00
  0.00000000E+00  0.00000000E+00  0.00000000E+00
  0.00000000E+00  0.00000000E+00  0.00000000E+00
  0.00000000E+00  0.00000000E+00  0.00000000E+00
  0.00000000E+00  0.00000000E+00  0.00000000E+00
  0.00000000E+00  0.00000000E+00  0.00000000E+00
  0.00000000E+00  0.00000000E+00  0.00000000E+00
  0.00000000E+00  0.00000000E+00  0.00000000E+00
  0.00000000E+00  0.00000000E+00  0.00000000E+00
  0.00000000E+00  0.00000000E+00  0.00000000E+00
  0.00000000E+00  0.00000000E+00  0.00000000E+00
  0.00000000E+00  0.00000000E+00  0.00000000E+00
  0.00000000E+00  0.00000000E+00  0.00000000E+00
  0.00000000E+00  0.00000000E+00  0.00000000E+00
  0.00000000E+00  0.00000000E+00  0.00000000E+00
  0.00000000E+00  0.00000000E+00  0.00000000E+00
  0.00000000E+00  0.00000000E+00  0.00000000E+00
  0.00000000E+00  0.00000000E+00  0.00000000E+00
  0.00000000E+00  0.00000000E+00  0.00000000E+00
  0.00000000E+00  0.00000000E+00  0.00000000E+00
  0.00000000E+00  0.00000000E+00  0.00000000E+00
  0.00000000E+00  0.00000000E+00  0.00000000E+00
  0.00000000E+00  0.00000000E+00  0.00000000E+00
  0.00000000E+00  0.00000000E+00  0.00000000E+00
  0.00000000E+00  0.00000000E+00  0.00000000E+00
  0.00000000E+00  0.00000000E+00  0.00000000E+00
  0.00000000E+00  0.00000000E+00  0.00000000E+00
  0.00000000E+00  0.00000000E+00  0.00000000E+00
  0.00000000E+00  0.00000000E+00  0.00000000E+00
  0.00000000E+00  0.00000000E+00  0.00000000E+00
  0.00000000E+00  0.00000000E+00  0.00000000E+00
  0.00000000E+00  0.00000000E+00  0.00000000E+00
  0.00000000E+00  0.00000000E+00  0.00000000E+00
  0.00000000E+00  0.00000000E+00  0.00000000E+00
  0.00000000E+00  0.00000000E+00  0.00000000E+00
  0.00000000E+00  0.00000000E+00  0.00000000E+00
  0.00000000E+00  0.00000000E+00  0.00000000E+00
  0.00000000E+00  0.00000000E+00  0.00000000E+00
  0.00000000E+00  0.00000000E+00  0.00000000E+00
  0.00000000E+00  0.00000000E+00  0.00000000E+00
  0.00000000E+00  0.00000000E+00  0.00000000E+00
  0.00000000E+00  0.00000000E+00  0.00000000E+00
  0.00000000E+00  0.00000000E+00  0.00000000E+00
  0.00000000E+00  0.00000000E+00  0.00000000E+00
  0.00000000E+00  0.00000000E+00  0.00000000E+00
  0.00000000E+00  0.00000000E+00  0.00000000E+00
  0.00000000E+00  0.00000000E+00  0.00000000E+00
  0.00000000E+00  0.00000000E+00  0.00000000E+00
  0.00000000E+00  0.00000000E+00  0.00000000E+00
  0.00000000E+00  0.00000000E+00  0.00000000E+00
  0.00000000E+00  0.00000000E+00  0.00000000E+00
  0.00000000E+00  0.00000000E+00  0.00000000E+00
  0.00000000E+00  0.00000000E+00  0.00000000E+00
  0.00000000E+00  0.00000000E+00  0.00000000E+00
  0.00000000E+00  0.00000000E+00  0.00000000E+00
  0.00000000E+00  0.00000000E+00  0.00000000E+00
  0.00000000E+00  0.00000000E+00  0.00000000E+00
  0.00000000E+00  0.00000000E+00  0.00000000E+00
  0.00000000E+00  0.00000000E+00  0.00000000E+00
  0.00000000E+00  0.00000000E+00  0.00000000E+00
  0.00000000E+00  0.00000000E+00  0.00000000E+00
  0.00000000E+00  0.00000000E+00  0.00000000E+00
  0.00000000E+00  0.00000000E+00  0.00000000E+00
  0.00000000E+00  0.00000000E+00  0.00000000E+00
  0.00000000E+00  0.00000000E+00  0.00000000E+00
  0.00000000E+00  0.00000000E+00  0.00000000E+00
  0.00000000E+00  0.00000000E+00  0.00000000E+00
  0.00000000E+00  0.00000000E+00  0.00000000E+00
  0.00000000E+00  0.00000000E+00  0.00000000E+00
  0.00000000E+00  0.00000000E+00  0.00000000E+00
  0.00000000E+00  0.00000000E+00  0.00000000E+00
  0.00000000E+00  0.00000000E+00  0.00000000E+00
  0.00000000E+00  0.00000000E+00  0.00000000E+00
  0.00000000E+00  0.00000000E+00  0.00000000E+00