FeMn_288_15                             
    1.000000000000000     
     9.7266779999999997    0.0000000000000000    0.0000000000000000
     0.0000000000000000    8.4235500000000005    0.0000000000000000
     0.0000000000000000    0.0000000000000000   45.0000000000000000
   Fe   Mn
   273    15
Direct
  0.4372915521614122  0.9650335947530722  0.8325440511897033
  0.4372422325736531  0.4480970048761393  0.2124601726429662
  0.3125530344022153  0.8663298676839075  0.3008883022811835
  0.8124881627669331  0.3773181565891229  0.6544049765707344
  0.6877922350974929  0.7974942082900852  0.8748565994644152
  0.4372036689104513  0.6278755446037836  0.6544642376968062
  0.9374760495149325  0.4504544084478813  0.3456708373556164
  0.9374397283448036  0.6159141794301917  0.3009535481992037
  0.8125144275306884  0.8627224795798253  0.1674910250195059
  0.6877028219673003  0.7917240647421415  0.6102257267553660
  0.0625013371699341  0.7116016450693533  0.6989274835336661
  0.6873654593627420  0.7856509855298586  0.3896479029950882
  0.3126232016803437  0.1972201667245650  0.2124528505671637
  0.5625703336610368  0.8773823237844720  0.6543442025531526
  0.8125731447151179  0.5358770400695526  0.3896863002478963
  0.3126667935617019  0.8618658506297764  0.1674922015134040
  0.5622296821493483  0.2074690478217779  0.5654720325932640
  0.3118786545117874  0.8727767713033013  0.5213683070199546
  0.6870003623659858  0.4656599633606520  0.8324590920950743
  0.0622733517603153  0.5420467814618930  0.6102706618216798
  0.4375403940133037  0.9481567835571345  0.2124594480863443
  0.9377315253271391  0.1121230516568551  0.1676073208659771
  0.8125682595723852  0.0315732449422167  0.2568281361355889
  0.8113080803802057  0.5480567601790043  0.8746867733619889
  0.8124740829334036  0.3707026081793424  0.4344283077771888
  0.0623285264034116  0.0419970726125728  0.6102990085390613
  0.3122349802272863  0.0305531502028533  0.1253467279316819
  0.1877351792141859  0.1275992364419961  0.6542378904304889
  0.6874292664340824  0.6270849124460098  0.6544915859011123
  0.3125706188756407  0.3664677721989592  0.3008792362324628
  0.6879844345555367  0.4619378169679614  0.6990208361299179
  0.0620986991645456  0.0356507305126781  0.3896795823402121
  0.8123046077254902  0.5299985354738090  0.1252840821753558
  0.4374511531434631  0.2858719714638957  0.3895924960933500
  0.8126107973497657  0.5418208060539618  0.6102213556654315
  0.5623218698440583  0.0315736091723885  0.2566957309146670
  0.4373871206345119  0.4552475999442441  0.4786014600509720
  0.0624286369884496  0.3726479761543292  0.5214570107468198
  0.3123897512507522  0.3728395558691397  0.5214578437982481
  0.4371852825122346  0.1275879480078280  0.6544954878820601
  0.0625876610412090  0.0320972376936098  0.2567089974273180
  0.9377068588009541  0.6281346945374592  0.6544025413392919
  0.1873803847212758  0.4479571706119407  0.2124457442812550
  0.5624139098738223  0.5315828207216219  0.2567806730456660
  0.5632308138003490  0.0471494958901411  0.8746782257369391
  0.0621512084587528  0.8803815675297038  0.7874337189112794
  0.5625524721247342  0.2003074381184259  0.3455822564719362
  0.1879301215170624  0.1114146674341209  0.1675461739295236
  0.6876761851604214  0.4552473829377996  0.4785232450346963
  0.9371401133653768  0.1157193200148432  0.3010511295055546
  0.5625257472768697  0.8658667626577135  0.3009050577271714
  0.3123183250025431  0.8776654520319429  0.6542569521882543
  0.8124564583465255  0.2122566110850529  0.6989940943280911
  0.1877570749975365  0.4506762935141045  0.3456696827411778
  0.3125459637947727  0.2005851497701133  0.3456291630285345
  0.3119886456630999  0.7163260615184701  0.8325962247501913
  0.1877150785575689  0.2815222061504629  0.2566936191440618
  0.0621639467191103  0.0300475148982870  0.1252853911534187
  0.8126441118322770  0.3623611683842097  0.1675601596691620
  0.0625100559312560  0.5312241950795746  0.2567613972626447
  0.5624279881936799  0.7121183986398243  0.6990060635352074
  0.8119800617161143  0.7051671179245439  0.4784427274596600
  0.6876222360883204  0.1158037289215283  0.3009961707793353
  0.9377378410360214  0.4619310227205308  0.6989864442303952
  0.3124180037673656  0.5317254279808191  0.2567785622727339
  0.0631001981004608  0.0471058329887845  0.8748457995588595
  0.4378428765198996  0.2923606706152097  0.6102617246693915
  0.4375353183133358  0.7858061711816706  0.3896439687340643
  0.4368307341738117  0.7982844837573352  0.8748638081770034
  0.8125570217060681  0.7119415553157803  0.6990407057012189
  0.3125714377381266  0.2115261432392792  0.6989431075459482
  0.3124233495483609  0.5422066724808811  0.6102976665317864
  0.5629739661042994  0.6982921808249754  0.2124793761645549
  0.4372131755511020  0.2962798529192354  0.7432719677431650
  0.4377297807757365  0.2978478304800563  0.8746555834207100
  0.3132380798269387  0.3793058620325801  0.7874664038259682
  0.0629169576428739  0.2163722942629951  0.8325881680363455
  0.4380403152299613  0.2813961591912708  0.2567028723826682
  0.6875517693653375  0.2963374221707637  0.7434386122801934
  0.5625426953901109  0.3727356947847726  0.5214302382093884
  0.6873814695009325  0.9656957160974581  0.8324632376695783
  0.4369565154551836  0.1293227712705992  0.7876265506954967
  0.8124742997531486  0.8708028109200638  0.4344430923526839
  0.9373165634168451  0.4482867374565216  0.2125896540704793
  0.3130421520251310  0.2075622618370553  0.5654733678149048
  0.8122716688614969  0.3726330617178742  0.5213785295166834
  0.9376026949355736  0.9619284438623783  0.6990689035948733
  0.0622459296710861  0.7158637166503349  0.8325432989449819
  0.8123403611018136  0.0417318332851369  0.6103028119161642
  0.5622837907901799  0.8792700088867862  0.7876873228532841
  0.6873284380842017  0.7810684107128326  0.2567606653092044
  0.4376957419848149  0.7817429945493484  0.2567737140849226
  0.5624823787313903  0.7073051733674109  0.5654274182907026
  0.0619433222602111  0.5357637274549234  0.3897154647281795
  0.5628374049530124  0.7150741629900804  0.8324681233919691
  0.4377508637080318  0.9505919135242805  0.3455544658604804
  0.3125450538043809  0.0421615565992175  0.6103178891461508
  0.4386253225506113  0.2806376026521810  0.1253918185296305
  0.1873130647197700  0.2962711325398469  0.7432783444123322
  0.6880382392377230  0.6121960100899222  0.1676414437857323
  0.3121239969860695  0.8706953478669561  0.4345818307882021
  0.5631555073097747  0.5468945739828845  0.8747818192131043
  0.5627110503404055  0.2051911126764041  0.4784090660581588
  0.8123579928664468  0.3659551946098883  0.3010885696725897
  0.1876204615181638  0.6208443263982457  0.4345078527123513
  0.3125911307232645  0.3625925527182414  0.1674507136411118
  0.4372593627692248  0.6113767182214268  0.1674608176329692
  0.6876982739186783  0.9503124442814019  0.3455951815276887
  0.4376929801351180  0.1116188211285146  0.1676474870976710
  0.4376106143627211  0.1212856349090796  0.4346480892630740
  0.5624510984410963  0.7044163869375180  0.4784312613735398
  0.5624062243963260  0.7004464582426055  0.3456344004808296
  0.0624977317882680  0.3796498162344500  0.7875528115921788
  0.4373734234428011  0.6162573842692998  0.3009514540920107
  0.1873875207657323  0.2855777920560912  0.3896694072695380
  0.4373880027953777  0.1161056406752543  0.3009542546237961
  0.3125231647319415  0.3709981823399611  0.4345689925707865
  0.3122064387855010  0.2155865551433422  0.8323213068509694
  0.9377591811413231  0.4662927257518494  0.8326493175579930
  0.9375768685807351  0.2916886825176537  0.6103705559747882
  0.1880954368253710  0.6112968046737588  0.1674233130416586
  0.1876615104078474  0.7815005523120516  0.1254044078620481
  0.8115247586621035  0.0470049058859262  0.8747441527258777
  0.3122508974762167  0.0468546310155468  0.8748713924057949
  0.1885693936259991  0.7980759763354769  0.8748944961889096
  0.5627574551419344  0.3660033907890230  0.3008833215948665
  0.9376593315036252  0.4545000131346466  0.4784562667732417
  0.8124931269736142  0.8773560122166482  0.6544714511678873
  0.1874038349894322  0.1304041672664259  0.7875776951776909
  0.0624744663630684  0.0460852880411059  0.7432414335858017
  0.4374168219481543  0.7962416053946370  0.7432705955327299
  0.8123637850416424  0.0295787512640531  0.1253331779758185
  0.8126210567679287  0.2003231502475770  0.3457239254143502
  0.4372824506434432  0.7813880084374510  0.1254245230960443
  0.6871647998758331  0.7808769186103507  0.1253920576629859
  0.9372939078662662  0.6124532058447032  0.1675562914819626
  0.8126134850255655  0.7147341762008316  0.8326563202511619
  0.4375630038618171  0.7922716205329616  0.6102844524852805
  0.9377260022203631  0.4567299553647662  0.5653523138503385
  0.0625021123329717  0.8777770308684335  0.6543777435987632
  0.8120537506485445  0.3789975432576151  0.7873430334657856
  0.8125246559451622  0.6983626882866474  0.2123322309189430
  0.6872343355851268  0.2803303735593339  0.1253218829557108
  0.8123550013154355  0.7004677967305706  0.3457294409380790
  0.6874704772183736  0.9624936155255173  0.6989119777870124
  0.3129294668582415  0.8798923936571839  0.7874844404485335
  0.1871132585748002  0.4553192931642940  0.4785929501675822
  0.0627025280650611  0.3708333210441735  0.4345179992525017
  0.9374537281519700  0.9652086585864557  0.8326474121487640
  0.1873585002623089  0.2965755597890519  0.8746967569899432
  0.6870621622528615  0.6159772240388820  0.3010806354227087
  0.6875244431782996  0.2966474782675702  0.8746980229580742
  0.6877270900610783  0.4504954778164336  0.3457223637402650
  0.1870447611945165  0.7853404359461246  0.3895688336533716
  0.5623788765544722  0.0461156002478616  0.7432368569921736
  0.4380465015547428  0.4653420323711716  0.8324002620311798
  0.4371290671092401  0.9571365807693670  0.5650643787209572
  0.0629817675781307  0.7074887840680737  0.5653982629143230
  0.1874614314503762  0.6161114893724410  0.3009969602026844
  0.3121598722190735  0.5464676065646057  0.7432812655133252
  0.5629678830339937  0.8621664760039833  0.1677111065421821
  0.6874901609071451  0.6210071730147727  0.4344473546524809
  0.1863827930550202  0.2807129961292823  0.1253737031756768
  0.3124647531854039  0.7048732459340341  0.4786119419245716
  0.6880396768283631  0.1293913387731695  0.7876727306372894
  0.0626828512790579  0.2051765913772785  0.4785645279522331
  0.9375151192057630  0.6208164096765828  0.4347911303264050
  0.9377981767131253  0.1296816450947177  0.7874957018404651
  0.0624679265335225  0.8657512547149038  0.3009209583103535
  0.9378939161826424  0.2974239016357031  0.8746592335338690
  0.4377590434757622  0.1232982049841380  0.5213271750270714
  0.6872201863674852  0.1225663180751783  0.5214039015295613
  0.5627671875282164  0.5359009927915852  0.3896531818816671
  0.9377301179606793  0.6298344212483602  0.7875578881116509
  0.1869554137888467  0.4575882799674717  0.5654301655820085
  0.0618152345496447  0.6983987891071755  0.2125035653658218
  0.9373212873738128  0.7915722040879588  0.6103011195215845
  0.0627245070488110  0.2119392610601758  0.6989272734973576
  0.9375143826937026  0.1278505279584874  0.6544407626527824
  0.3126007552718345  0.3778224515597143  0.6544361540486618
  0.5623438060510506  0.2116809428528700  0.6989949375883766
  0.1877382093479256  0.7920456677916207  0.6102583617965028
  0.3125923729455500  0.7117464286906146  0.6989669677543698
  0.5628842779798272  0.0302789969824069  0.1253153252695229
  0.6874685744817560  0.1119894319618140  0.1675685432440689
  0.9378790362717030  0.9574608547594901  0.5653203974963269
  0.8120065333639881  0.2158236816226657  0.8323171937582717
  0.1879402970013248  0.1226387026857078  0.5213996663975721
  0.4374971326876939  0.6211916529919485  0.4346093210396617
  0.9376108120810908  0.2802728816383639  0.1253171056115908
  0.1872511504678149  0.9481262092082889  0.2124646233456352
  0.1875448715625088  0.2920112340659819  0.6101990202838660
  0.1878463723101659  0.1205977120295968  0.4345620352524709
  0.0625662701917122  0.2070866184257598  0.5653086655063694
  0.5625655762025759  0.0420108069594672  0.6103146193458723
  0.9376820157064356  0.1207499276728975  0.4345668296510075
  0.6873706143830961  0.6227742540439958  0.5214416314651792
  0.8125643671534456  0.8657897498047611  0.3010684974674305
  0.3124648154058107  0.0313375269669746  0.2567420230090632
  0.8124111465820660  0.0356852119048313  0.3896715187284858
  0.1873552810237739  0.6277874013645551  0.6543246399122177
  0.1874903051682225  0.6300972559331188  0.7876788349214814
  0.5622404159789663  0.1979689208521203  0.2123988499642104
  0.3121642903107240  0.0456476654361598  0.7432756213267480
  0.3135721799395402  0.5473911205039736  0.8745340339529822
  0.0628126827854603  0.7004943925629953  0.3457147682434069
  0.4370154785536237  0.4570701854806100  0.5654100848229655
  0.9375919553798653  0.2858109201083691  0.3897106144951502
  0.5624061250012771  0.5463643514238830  0.7433204800020277
  0.5623288650276055  0.5420324226534551  0.6103401799053499
  0.3123101499697844  0.2052873930285827  0.4785951927565732
  0.8129183658663889  0.8794396903903133  0.7875370043366825
  0.3125813682460601  0.7006364285034520  0.3456224836391880
  0.9375237643429419  0.1224784256737507  0.5213168889392233
  0.1881681616342559  0.7816666144470018  0.2567654961334622
  0.5624792018306323  0.8707798988231158  0.4345680752861549
  0.6872640067057940  0.9484042143672912  0.2124307463947858
  0.5625874189599531  0.0357802093213508  0.3896968029158320
  0.1869598060769656  0.9570548269367877  0.5654207227634732
  0.6870723060815785  0.7963622939418094  0.7433632705862289
  0.4377207761452878  0.6229259540678368  0.5213874271722921
  0.9379452319909625  0.7814218542323249  0.2567388063132008
  0.1875827955334103  0.9507011075538404  0.3455464930972857
  0.8125322472657430  0.2048890784668163  0.4784514046698383
  0.4371398425231124  0.4616540946034996  0.6989183106362713
  0.5623310719405187  0.3710100225895603  0.4346384473390555
  0.6874507603158677  0.4483405946383346  0.2125446753368276
  0.5622922669425620  0.3777436584464853  0.6544677917770629
  0.5624776221358219  0.3792073916846084  0.7874888507413296
  0.1867537990041898  0.4666099555125299  0.8326533834246989
  0.0624075885710676  0.8622324118277973  0.1676881999579596
  0.8126029975083523  0.0463241461063397  0.7433456882212389
  0.0622808682850277  0.8732503058922113  0.5214113909740360
  0.3127757200716384  0.7071989059140263  0.5654442286682223
  0.9374844958309801  0.9549880263046017  0.4784083540984707
  0.6871392649658886  0.2857028305001528  0.3897370086523695
  0.1879967112833019  0.7964248477636926  0.7433206924075059
  0.4372317696003680  0.6292830745144993  0.7876273262250403
  0.9372656148216639  0.9484590775091959  0.2124459635126634
  0.0626866497953121  0.1980812918554318  0.2123792894514858
  0.9376690088212191  0.9500110235208865  0.3457183591120995
  0.8125168724426967  0.5461817511735928  0.7432220635603916
  0.1872400096641199  0.1161491720140356  0.3009794514165676
  0.6878569529008788  0.9553136786234740  0.4784886816103308
  0.1873923680773448  0.9617916985093887  0.6989922235721772
  0.9370377649699487  0.7980634848105140  0.8747539080374362
  0.5625676141314594  0.2157185955100323  0.8325225755464177
  0.5629892093276914  0.5296085685327089  0.1253497558796774
  0.1870075402185220  0.4616357670244580  0.6989849415742628
  0.6871957702906698  0.1207562758065479  0.4345116941218918
  0.1879220613677820  0.6226865424848804  0.5214870223466684
  0.0626330757008093  0.3778494156336903  0.6544743777750683
  0.9377127966699317  0.7806119075990799  0.1254237095673930
  0.0626368782947825  0.8709793471094034  0.4344750343897399
  0.5621556010921199  0.3623988604795005  0.1674090629972161
  0.0631181397083974  0.7052666391984497  0.4786447098196597
  0.6877294668427275  0.2817993452056946  0.2568378275656319
  0.8123706266567707  0.1984215331047727  0.2123123710763354
  0.0618972996282522  0.5296578943726821  0.1253114566479414
  0.6873473134132514  0.2918368106988083  0.6102164825084048
  0.6871843871472704  0.1271033741629262  0.6544628554625879
  0.1870644345406257  0.9554086785082598  0.4785342819711949
  0.0622270422849091  0.3660847211805931  0.3009157117192104
  0.8126438673935394  0.7075398319009073  0.5654265995138329
  0.3124930192392120  0.6981552510594723  0.2122979655934846
  0.4377589769199286  0.4502761178518824  0.3455806224021429
  0.9375469184450524  0.7856128915835063  0.3896505980948839
  0.9372181862148177  0.7961139337601183  0.7432184330671734
  0.0630534403595419  0.3625142265787278  0.1673715401569216
  0.5627949748549103  0.8726733761595653  0.5212671794873078
  0.0624775258445133  0.5459736038920388  0.7432468587336611
  0.0625418145108872  0.2004530010088081  0.3456165618614221
  0.8126101148412892  0.8731235415201645  0.5214144951647692
  0.4373869260414984  0.9552245852328161  0.4785638581017376
  0.9382669579535879  0.2810875213688819  0.2567901458359418
  0.0624770314786472  0.5459308910004963  0.8744324698665199
  0.6868726751900207  0.9567553209814926  0.5655049132612870
  0.9372742702984637  0.6226494409875550  0.5212907136230637
  0.1872220112673018  0.9660422296126991  0.8331397015104969
  0.6870217718582680  0.6294914332170133  0.7873439005778277
  0.6874746002876218  0.4580661511663546  0.5654538640618713
  0.3125502979269564  0.5300586831213718  0.1255660921738397
  0.9378102076824500  0.2962199287092271  0.7433308020307190
  0.4377164324187579  0.9617992573372013  0.6990723110096349
  0.8122311370358589  0.5319042093251942  0.2566529178575800
  0.3126201246342632  0.0355325289129329  0.3895757617682686
  0.3122021465477666  0.5356699260996363  0.3894661851241757
  0.8138434287807724  0.2073553196302733  0.5653567085762661
 
  0.00000000E+00  0.00000000E+00  0.00000000E+00
  0.00000000E+00  0.00000000E+00  0.00000000E+00
  0.00000000E+00  0.00000000E+00  0.00000000E+00
  0.00000000E+00  0.00000000E+00  0.00000000E+00
  0.00000000E+00  0.00000000E+00  0.00000000E+00
  0.00000000E+00  0.00000000E+00  0.00000000E+00
  0.00000000E+00  0.00000000E+00  0.00000000E+00
  0.00000000E+00  0.00000000E+00  0.00000000E+00
  0.00000000E+00  0.00000000E+00  0.00000000E+00
  0.00000000E+00  0.00000000E+00  0.00000000E+00
  0.00000000E+00  0.00000000E+00  0.00000000E+00
  0.00000000E+00  0.00000000E+00  0.00000000E+00
  0.00000000E+00  0.00000000E+00  0.00000000E+00
  0.00000000E+00  0.00000000E+00  0.00000000E+00
  0.00000000E+00  0.00000000E+00  0.00000000E+00
  0.00000000E+00  0.00000000E+00  0.00000000E+00
  0.00000000E+00  0.00000000E+00  0.00000000E+00
  0.00000000E+00  0.00000000E+00  0.00000000E+00
  0.00000000E+00  0.00000000E+00  0.00000000E+00
  0.00000000E+00  0.00000000E+00  0.00000000E+00
  0.00000000E+00  0.00000000E+00  0.00000000E+00
  0.00000000E+00  0.00000000E+00  0.00000000E+00
  0.00000000E+00  0.00000000E+00  0.00000000E+00
  0.00000000E+00  0.00000000E+00  0.00000000E+00
  0.00000000E+00  0.00000000E+00  0.00000000E+00
  0.00000000E+00  0.00000000E+00  0.00000000E+00
  0.00000000E+00  0.00000000E+00  0.00000000E+00
  0.00000000E+00  0.00000000E+00  0.00000000E+00
  0.00000000E+00  0.00000000E+00  0.00000000E+00
  0.00000000E+00  0.00000000E+00  0.00000000E+00
  0.00000000E+00  0.00000000E+00  0.00000000E+00
  0.00000000E+00  0.00000000E+00  0.00000000E+00
  0.00000000E+00  0.00000000E+00  0.00000000E+00
  0.00000000E+00  0.00000000E+00  0.00000000E+00
  0.00000000E+00  0.00000000E+00  0.00000000E+00
  0.00000000E+00  0.00000000E+00  0.00000000E+00
  0.00000000E+00  0.00000000E+00  0.00000000E+00
  0.00000000E+00  0.00000000E+00  0.00000000E+00
  0.00000000E+00  0.00000000E+00  0.00000000E+00
  0.00000000E+00  0.00000000E+00  0.00000000E+00
  0.00000000E+00  0.00000000E+00  0.00000000E+00
  0.00000000E+00  0.00000000E+00  0.00000000E+00
  0.00000000E+00  0.00000000E+00  0.00000000E+00
  0.00000000E+00  0.00000000E+00  0.00000000E+00
  0.00000000E+00  0.00000000E+00  0.00000000E+00
  0.00000000E+00  0.00000000E+00  0.00000000E+00
  0.00000000E+00  0.00000000E+00  0.00000000E+00
  0.00000000E+00  0.00000000E+00  0.00000000E+00
  0.00000000E+00  0.00000000E+00  0.00000000E+00
  0.00000000E+00  0.00000000E+00  0.00000000E+00
  0.00000000E+00  0.00000000E+00  0.00000000E+00
  0.00000000E+00  0.00000000E+00  0.00000000E+00
  0.00000000E+00  0.00000000E+00  0.00000000E+00
  0.00000000E+00  0.00000000E+00  0.00000000E+00
  0.00000000E+00  0.00000000E+00  0.00000000E+00
  0.00000000E+00  0.00000000E+00  0.00000000E+00
  0.00000000E+00  0.00000000E+00  0.00000000E+00
  0.00000000E+00  0.00000000E+00  0.00000000E+00
  0.00000000E+00  0.00000000E+00  0.00000000E+00
  0.00000000E+00  0.00000000E+00  0.00000000E+00
  0.00000000E+00  0.00000000E+00  0.00000000E+00
  0.00000000E+00  0.00000000E+00  0.00000000E+00
  0.00000000E+00  0.00000000E+00  0.00000000E+00
  0.00000000E+00  0.00000000E+00  0.00000000E+00
  0.00000000E+00  0.00000000E+00  0.00000000E+00
  0.00000000E+00  0.00000000E+00  0.00000000E+00
  0.00000000E+00  0.00000000E+00  0.00000000E+00
  0.00000000E+00  0.00000000E+00  0.00000000E+00
  0.00000000E+00  0.00000000E+00  0.00000000E+00
  0.00000000E+00  0.00000000E+00  0.00000000E+00
  0.00000000E+00  0.00000000E+00  0.00000000E+00
  0.00000000E+00  0.00000000E+00  0.00000000E+00
  0.00000000E+00  0.00000000E+00  0.00000000E+00
  0.00000000E+00  0.00000000E+00  0.00000000E+00
  0.00000000E+00  0.00000000E+00  0.00000000E+00
  0.00000000E+00  0.00000000E+00  0.00000000E+00
  0.00000000E+00  0.00000000E+00  0.00000000E+00
  0.00000000E+00  0.00000000E+00  0.00000000E+00
  0.00000000E+00  0.00000000E+00  0.00000000E+00
  0.00000000E+00  0.00000000E+00  0.00000000E+00
  0.00000000E+00  0.00000000E+00  0.00000000E+00
  0.00000000E+00  0.00000000E+00  0.00000000E+00
  0.00000000E+00  0.00000000E+00  0.00000000E+00
  0.00000000E+00  0.00000000E+00  0.00000000E+00
  0.00000000E+00  0.00000000E+00  0.00000000E+00
  0.00000000E+00  0.00000000E+00  0.00000000E+00
  0.00000000E+00  0.00000000E+00  0.00000000E+00
  0.00000000E+00  0.00000000E+00  0.00000000E+00
  0.00000000E+00  0.00000000E+00  0.00000000E+00
  0.00000000E+00  0.00000000E+00  0.00000000E+00
  0.00000000E+00  0.00000000E+00  0.00000000E+00
  0.00000000E+00  0.00000000E+00  0.00000000E+00
  0.00000000E+00  0.00000000E+00  0.00000000E+00
  0.00000000E+00  0.00000000E+00  0.00000000E+00
  0.00000000E+00  0.00000000E+00  0.00000000E+00
  0.00000000E+00  0.00000000E+00  0.00000000E+00
  0.00000000E+00  0.00000000E+00  0.00000000E+00
  0.00000000E+00  0.00000000E+00  0.00000000E+00
  0.00000000E+00  0.00000000E+00  0.00000000E+00
  0.00000000E+00  0.00000000E+00  0.00000000E+00
  0.00000000E+00  0.00000000E+00  0.00000000E+00
  0.00000000E+00  0.00000000E+00  0.00000000E+00
  0.00000000E+00  0.00000000E+00  0.00000000E+00
  0.00000000E+00  0.00000000E+00  0.00000000E+00
  0.00000000E+00  0.00000000E+00  0.00000000E+00
  0.00000000E+00  0.00000000E+00  0.00000000E+00
  0.00000000E+00  0.00000000E+00  0.00000000E+00
  0.00000000E+00  0.00000000E+00  0.00000000E+00
  0.00000000E+00  0.00000000E+00  0.00000000E+00
  0.00000000E+00  0.00000000E+00  0.00000000E+00
  0.00000000E+00  0.00000000E+00  0.00000000E+00
  0.00000000E+00  0.00000000E+00  0.00000000E+00
  0.00000000E+00  0.00000000E+00  0.00000000E+00
  0.00000000E+00  0.00000000E+00  0.00000000E+00
  0.00000000E+00  0.00000000E+00  0.00000000E+00
  0.00000000E+00  0.00000000E+00  0.00000000E+00
  0.00000000E+00  0.00000000E+00  0.00000000E+00
  0.00000000E+00  0.00000000E+00  0.00000000E+00
  0.00000000E+00  0.00000000E+00  0.00000000E+00
  0.00000000E+00  0.00000000E+00  0.00000000E+00
  0.00000000E+00  0.00000000E+00  0.00000000E+00
  0.00000000E+00  0.00000000E+00  0.00000000E+00
  0.00000000E+00  0.00000000E+00  0.00000000E+00
  0.00000000E+00  0.00000000E+00  0.00000000E+00
  0.00000000E+00  0.00000000E+00  0.00000000E+00
  0.00000000E+00  0.00000000E+00  0.00000000E+00
  0.00000000E+00  0.00000000E+00  0.00000000E+00
  0.00000000E+00  0.00000000E+00  0.00000000E+00
  0.00000000E+00  0.00000000E+00  0.00000000E+00
  0.00000000E+00  0.00000000E+00  0.00000000E+00
  0.00000000E+00  0.00000000E+00  0.00000000E+00
  0.00000000E+00  0.00000000E+00  0.00000000E+00
  0.00000000E+00  0.00000000E+00  0.00000000E+00
  0.00000000E+00  0.00000000E+00  0.00000000E+00
  0.00000000E+00  0.00000000E+00  0.00000000E+00
  0.00000000E+00  0.00000000E+00  0.00000000E+00
  0.00000000E+00  0.00000000E+00  0.00000000E+00
  0.00000000E+00  0.00000000E+00  0.00000000E+00
  0.00000000E+00  0.00000000E+00  0.00000000E+00
  0.00000000E+00  0.00000000E+00  0.00000000E+00
  0.00000000E+00  0.00000000E+00  0.00000000E+00
  0.00000000E+00  0.00000000E+00  0.00000000E+00
  0.00000000E+00  0.00000000E+00  0.00000000E+00
  0.00000000E+00  0.00000000E+00  0.00000000E+00
  0.00000000E+00  0.00000000E+00  0.00000000E+00
  0.00000000E+00  0.00000000E+00  0.00000000E+00
  0.00000000E+00  0.00000000E+00  0.00000000E+00
  0.00000000E+00  0.00000000E+00  0.00000000E+00
  0.00000000E+00  0.00000000E+00  0.00000000E+00
  0.00000000E+00  0.00000000E+00  0.00000000E+00
  0.00000000E+00  0.00000000E+00  0.00000000E+00
  0.00000000E+00  0.00000000E+00  0.00000000E+00
  0.00000000E+00  0.00000000E+00  0.00000000E+00
  0.00000000E+00  0.00000000E+00  0.00000000E+00
  0.00000000E+00  0.00000000E+00  0.00000000E+00
  0.00000000E+00  0.00000000E+00  0.00000000E+00
  0.00000000E+00  0.00000000E+00  0.00000000E+00
  0.00000000E+00  0.00000000E+00  0.00000000E+00
  0.00000000E+00  0.00000000E+00  0.00000000E+00
  0.00000000E+00  0.00000000E+00  0.00000000E+00
  0.00000000E+00  0.00000000E+00  0.00000000E+00
  0.00000000E+00  0.00000000E+00  0.00000000E+00
  0.00000000E+00  0.00000000E+00  0.00000000E+00
  0.00000000E+00  0.00000000E+00  0.00000000E+00
  0.00000000E+00  0.00000000E+00  0.00000000E+00
  0.00000000E+00  0.00000000E+00  0.00000000E+00
  0.00000000E+00  0.00000000E+00  0.00000000E+00
  0.00000000E+00  0.00000000E+00  0.00000000E+00
  0.00000000E+00  0.00000000E+00  0.00000000E+00
  0.00000000E+00  0.00000000E+00  0.00000000E+00
  0.00000000E+00  0.00000000E+00  0.00000000E+00
  0.00000000E+00  0.00000000E+00  0.00000000E+00
  0.00000000E+00  0.00000000E+00  0.00000000E+00
  0.00000000E+00  0.00000000E+00  0.00000000E+00
  0.00000000E+00  0.00000000E+00  0.00000000E+00
  0.00000000E+00  0.00000000E+00  0.00000000E+00
  0.00000000E+00  0.00000000E+00  0.00000000E+00
  0.00000000E+00  0.00000000E+00  0.00000000E+00
  0.00000000E+00  0.00000000E+00  0.00000000E+00
  0.00000000E+00  0.00000000E+00  0.00000000E+00
  0.00000000E+00  0.00000000E+00  0.00000000E+00
  0.00000000E+00  0.00000000E+00  0.00000000E+00
  0.00000000E+00  0.00000000E+00  0.00000000E+00
  0.00000000E+00  0.00000000E+00  0.00000000E+00
  0.00000000E+00  0.00000000E+00  0.00000000E+00
  0.00000000E+00  0.00000000E+00  0.00000000E+00
  0.00000000E+00  0.00000000E+00  0.00000000E+00
  0.00000000E+00  0.00000000E+00  0.00000000E+00
  0.00000000E+00  0.00000000E+00  0.00000000E+00
  0.00000000E+00  0.00000000E+00  0.00000000E+00
  0.00000000E+00  0.00000000E+00  0.00000000E+00
  0.00000000E+00  0.00000000E+00  0.00000000E+00
  0.00000000E+00  0.00000000E+00  0.00000000E+00
  0.00000000E+00  0.00000000E+00  0.00000000E+00
  0.00000000E+00  0.00000000E+00  0.00000000E+00
  0.00000000E+00  0.00000000E+00  0.00000000E+00
  0.00000000E+00  0.00000000E+00  0.00000000E+00
  0.00000000E+00  0.00000000E+00  0.00000000E+00
  0.00000000E+00  0.00000000E+00  0.00000000E+00
  0.00000000E+00  0.00000000E+00  0.00000000E+00
  0.00000000E+00  0.00000000E+00  0.00000000E+00
  0.00000000E+00  0.00000000E+00  0.00000000E+00
  0.00000000E+00  0.00000000E+00  0.00000000E+00
  0.00000000E+00  0.00000000E+00  0.00000000E+00
  0.00000000E+00  0.00000000E+00  0.00000000E+00
  0.00000000E+00  0.00000000E+00  0.00000000E+00
  0.00000000E+00  0.00000000E+00  0.00000000E+00
  0.00000000E+00  0.00000000E+00  0.00000000E+00
  0.00000000E+00  0.00000000E+00  0.00000000E+00
  0.00000000E+00  0.00000000E+00  0.00000000E+00
  0.00000000E+00  0.00000000E+00  0.00000000E+00
  0.00000000E+00  0.00000000E+00  0.00000000E+00
  0.00000000E+00  0.00000000E+00  0.00000000E+00
  0.00000000E+00  0.00000000E+00  0.00000000E+00
  0.00000000E+00  0.00000000E+00  0.00000000E+00
  0.00000000E+00  0.00000000E+00  0.00000000E+00
  0.00000000E+00  0.00000000E+00  0.00000000E+00
  0.00000000E+00  0.00000000E+00  0.00000000E+00
  0.00000000E+00  0.00000000E+00  0.00000000E+00
  0.00000000E+00  0.00000000E+00  0.00000000E+00
  0.00000000E+00  0.00000000E+00  0.00000000E+00
  0.00000000E+00  0.00000000E+00  0.00000000E+00
  0.00000000E+00  0.00000000E+00  0.00000000E+00
  0.00000000E+00  0.00000000E+00  0.00000000E+00
  0.00000000E+00  0.00000000E+00  0.00000000E+00
  0.00000000E+00  0.00000000E+00  0.00000000E+00
  0.00000000E+00  0.00000000E+00  0.00000000E+00
  0.00000000E+00  0.00000000E+00  0.00000000E+00
  0.00000000E+00  0.00000000E+00  0.00000000E+00
  0.00000000E+00  0.00000000E+00  0.00000000E+00
  0.00000000E+00  0.00000000E+00  0.00000000E+00
  0.00000000E+00  0.00000000E+00  0.00000000E+00
  0.00000000E+00  0.00000000E+00  0.00000000E+00
  0.00000000E+00  0.00000000E+00  0.00000000E+00
  0.00000000E+00  0.00000000E+00  0.00000000E+00
  0.00000000E+00  0.00000000E+00  0.00000000E+00
  0.00000000E+00  0.00000000E+00  0.00000000E+00
  0.00000000E+00  0.00000000E+00  0.00000000E+00
  0.00000000E+00  0.00000000E+00  0.00000000E+00
  0.00000000E+00  0.00000000E+00  0.00000000E+00
  0.00000000E+00  0.00000000E+00  0.00000000E+00
  0.00000000E+00  0.00000000E+00  0.00000000E+00
  0.00000000E+00  0.00000000E+00  0.00000000E+00
  0.00000000E+00  0.00000000E+00  0.00000000E+00
  0.00000000E+00  0.00000000E+00  0.00000000E+00
  0.00000000E+00  0.00000000E+00  0.00000000E+00
  0.00000000E+00  0.00000000E+00  0.00000000E+00