FeMn_288_15                             
    1.000000000000000     
     9.7266779999999997    0.0000000000000000    0.0000000000000000
     0.0000000000000000    8.4235500000000005    0.0000000000000000
     0.0000000000000000    0.0000000000000000   45.0000000000000000
   Fe   Mn
   273    15
Direct
  0.4371701257866993  0.9653014362071725  0.8329862821826358
  0.4376663446955398  0.4453111754077700  0.2116437912168746
  0.3125678836784189  0.8669151182945287  0.3003582914975370
  0.8125265766983318  0.3754042725212017  0.6549221765509178
  0.6878884365610982  0.8003638529598844  0.8755616631852584
  0.4373649579440668  0.6261718194918839  0.6550362829231945
  0.9371824703908299  0.4513926224424883  0.3451332379105317
  0.9375785370642673  0.6159483719123640  0.3002960225459502
  0.8124078496868673  0.8625916122831593  0.1669066860327525
  0.6874031808823345  0.7915772882338449  0.6107354111962298
  0.0621939222486036  0.7109276891965801  0.6995716157191124
  0.6877157086786710  0.7860195391243506  0.3892661925490895
  0.3127679685124676  0.1948421054556373  0.2117452433500226
  0.5626533412459620  0.8756967887047051  0.6548865901607641
  0.8126986650111925  0.5360880235627951  0.3893409180135772
  0.3124364739572034  0.8612824287450105  0.1667813513305455
  0.5619448217116708  0.2074927226271757  0.5657631153085214
  0.3122589029004353  0.8729109036359423  0.5214616013384158
  0.6873508771317354  0.4654288951781359  0.8331228690942654
  0.0625174455669791  0.5421490759975522  0.6107392537197966
  0.4375651751613743  0.9454218359649769  0.2115937184738572
  0.9375100513950383  0.1127197024274985  0.1669238230648611
  0.8123864413177607  0.0313794498441987  0.2561245320685536
  0.8120197759382376  0.5514701920689330  0.8755309466839376
  0.8123109051196622  0.3705550111182536  0.4343157284577742
  0.0624700045787725  0.0421404389166599  0.6108122124981438
  0.3124090679630671  0.0269442433145266  0.1246351512503864
  0.1877129688217289  0.1261374185044243  0.6548550954774263
  0.6876891327723997  0.6251900920092882  0.6550257209734890
  0.3126578641006312  0.3673242474509413  0.3002896552186324
  0.6878855921166476  0.4615006585382364  0.6995930510046454
  0.0618866552367498  0.0361028406986143  0.3893116845455792
  0.8127109680970541  0.5276005353105722  0.1246583222606599
  0.4376367498718636  0.2864006818156959  0.3892342184599276
  0.8126255551417148  0.5416147955079484  0.6107405876497336
  0.5620770729327785  0.0310638269065911  0.2559865853853452
  0.4375205543537243  0.4551570864278388  0.4784190739310982
  0.0627398796252455  0.3730519729809681  0.5215670003443224
  0.3122061086357745  0.3729390909461182  0.5215626566886609
  0.4374922162478317  0.1259535516345324  0.6549698253429429
  0.0626635513014455  0.0317062317250238  0.2560373374586180
  0.9376692685921627  0.6262498450827687  0.6548472467067681
  0.1874564351278842  0.4453490016200907  0.2116304509131843
  0.5623866142613378  0.5313652411361149  0.2560860914403936
  0.5631425816730767  0.0509386342130622  0.8753877269664150
  0.0623207995183595  0.8828039358592479  0.7879958717270873
  0.5624960419855382  0.2019010479517892  0.3451158781716646
  0.1875986103804576  0.1115657862053603  0.1668585854359092
  0.6880886356451349  0.4554869064280293  0.4785066207528844
  0.9375555664282725  0.1158639630441827  0.3003975724296733
  0.5623676485961402  0.8664117574350360  0.3003224094580524
  0.3124795037557174  0.8762120903991735  0.6548624995679815
  0.8123467297052466  0.2116708340640467  0.6996213700449349
  0.1872596474096623  0.4523311384798793  0.3452528009395235
  0.3123797587782259  0.2024836309585776  0.3451643751002549
  0.3118425546465220  0.7163659634558737  0.8332457790170420
  0.1873489877943909  0.2810468173377666  0.2559998304220724
  0.0626314442630365  0.0275401096248405  0.1245366015978970
  0.8124686972898907  0.3623139457523114  0.1668424275366978
  0.0625569181233488  0.5309401877259931  0.2560615308997631
  0.5622526590256801  0.7115980229215096  0.6996132399611920
  0.8123182577268937  0.7051316994694581  0.4784410482757773
  0.6876609533168970  0.1159768628952922  0.3003385838860148
  0.9378190917141940  0.4614144376373522  0.6995682924714782
  0.3125041826495017  0.5314398082356778  0.2560924687602054
  0.0629119678745311  0.0510000400005981  0.8756744335966327
  0.4375352978842697  0.2926248374696470  0.6106943264680081
  0.4377975600796542  0.7863451585179742  0.3893060568891943
  0.4366768333562341  0.8011444972741258  0.8755813098744587
  0.8126241476085688  0.7114892664101522  0.6995668471109218
  0.3125434530218275  0.2108137986517619  0.6995515314437075
  0.3124456327029831  0.5426466751674940  0.6108562940336377
  0.5630275547349562  0.6958444586406636  0.2117957238709062
  0.4372205931452599  0.2965272270796059  0.7438685872654165
  0.4368455477040957  0.3002951325053235  0.8753004342678474
  0.3131413392864060  0.3815925827193115  0.7880663187325591
  0.0631015502584278  0.2159399262604328  0.8332054847448417
  0.4373835053518372  0.2809431212869633  0.2560128454096632
  0.6878181937729599  0.2968315478157802  0.7440381805390232
  0.5626119583112380  0.3726356829555483  0.5216096282361298
  0.6877377547041631  0.9657319271632360  0.8330553463679878
  0.4371630386783209  0.1317051937801843  0.7881730341810188
  0.8124812352297039  0.8706078379569852  0.4343122785439808
  0.9377594612953004  0.4457864368050184  0.2117421735521108
  0.3124996468916936  0.2074041623809940  0.5657350776465152
  0.8122546123498147  0.3732097776701056  0.5215361726795080
  0.9372983477163318  0.9615435757432216  0.6996830309544585
  0.0623614647139451  0.7147612982623767  0.8331307163973992
  0.8124447198535117  0.0417224937147396  0.6107512942278334
  0.5621203641463800  0.8818438763212478  0.7882751879575827
  0.6867717488049934  0.7804300962663508  0.2560592522360318
  0.4374131470557932  0.7813543900607951  0.2560959426002697
  0.5622505708876135  0.7073283579078029  0.5657550514291132
  0.0618850292317172  0.5362261669687579  0.3893005259511336
  0.5627015095367648  0.7150948849377173  0.8331400438952933
  0.4374267322287167  0.9524784646824298  0.3451649821874692
  0.3124696396426371  0.0423318633035273  0.6108178949637696
  0.4386272037745049  0.2768012474454118  0.1245759996555280
  0.1875542741528358  0.2965443078972908  0.7438611143680081
  0.6877386972040116  0.6124608806570062  0.1669413085545751
  0.3121183613047627  0.8702606004520109  0.4343290375828334
  0.5625640823507673  0.5510499587692463  0.8754986679592929
  0.5627627153354159  0.2053446249127537  0.4783170105478762
  0.8124390790902997  0.3660196859781998  0.3004041816854559
  0.1876126026412758  0.6206929809609719  0.4342412596709372
  0.3124151689294305  0.3629292850284254  0.1667463463232209
  0.4370832586616045  0.6114309987003002  0.1668124902500525
  0.6876063734399241  0.9515514044487675  0.3450548959234828
  0.4374879957340680  0.1117254368480024  0.1669616612935958
  0.4376256308177399  0.1210818170061145  0.4343478516590270
  0.5627644892232785  0.7048130642035755  0.4783626666504667
  0.5623576204021189  0.7020278883368458  0.3451979551155905
  0.0622968198356149  0.3817732728354514  0.7882358734111926
  0.4374304004496762  0.6169805834201556  0.3004023688621378
  0.1874947491328920  0.2862112075304953  0.3893079354278189
  0.4375928650813515  0.1167153065069585  0.3003726279527415
  0.3125562829590651  0.3705186600262478  0.4343656061317802
  0.3120652817522024  0.2154523914533994  0.8330613888053623
  0.9376760589069294  0.4660893019309064  0.8331757668651483
  0.9374792814456152  0.2913375533823968  0.6108467295192678
  0.1877676222281414  0.6115338878135811  0.1668005833598925
  0.1875384452373776  0.7775498119840446  0.1245429545331145
  0.8121005298035235  0.0507112900812758  0.8754904878168032
  0.3119764305302041  0.0506195063079874  0.8756844863084601
  0.1880723350247688  0.8010678721083718  0.8756650390831426
  0.5626802793698316  0.3664964459182611  0.3003363482557987
  0.9375996751458729  0.4551070749821811  0.4783500857603290
  0.8126607250795103  0.8755263331440755  0.6550151472461745
  0.1869511633120614  0.1326175315161152  0.7882329864676496
  0.0626284850544819  0.0469484260270369  0.7439724024281640
  0.4377152312517359  0.7966638067435337  0.7438915131032177
  0.8126768173069469  0.0273553688215881  0.1246483164224470
  0.8124514104119712  0.2013526438656663  0.3452093736898437
  0.4375578918698703  0.7773599804959116  0.1245399095282447
  0.6874940412134583  0.7772457208903726  0.1245954518762085
  0.9371867931299329  0.6127556982482145  0.1668534430292623
  0.8127813160664723  0.7146635304909297  0.8332708192048168
  0.4374773755809857  0.7923867737040939  0.6107563985402411
  0.9381856985710528  0.4561727161054885  0.5657554458952915
  0.0623867586081841  0.8762577010756774  0.6549433786461997
  0.8120370892263827  0.3818091636832676  0.7880486169894114
  0.8126484080071857  0.6961972496141061  0.2116430873823923
  0.6871372880277847  0.2763315902343932  0.1244513669797559
  0.8123542283778257  0.7014848531614900  0.3451698215601317
  0.6876468574765503  0.9618226132222092  0.6994321613844385
  0.3125155317629486  0.8822773181664147  0.7881986568861027
  0.1868293739942731  0.4549500033406559  0.4784341634143939
  0.0626666223530063  0.3703772982793653  0.4342703473249552
  0.9378966191865741  0.9649236647002335  0.8330498945072293
  0.1875910001379521  0.2993578627960599  0.8753697755966411
  0.6873306129403325  0.6162011533939433  0.3004590261231769
  0.6877730487131504  0.2992655171890805  0.8753638917984963
  0.6874367225943214  0.4517309647713765  0.3452072735020965
  0.1869729253569967  0.7860734325059722  0.3892002799508270
  0.5626211080479042  0.0464588788570134  0.7439648587047464
  0.4380737219324161  0.4655190231507697  0.8329286033093205
  0.4369949408472006  0.9569565783920573  0.5653349104539662
  0.0631593783091995  0.7073019922808389  0.5656781227144158
  0.1878684651978905  0.6168091165711529  0.3004325010642381
  0.3124125255564214  0.5468358492291896  0.7438987605680071
  0.5626949350871200  0.8619964491277153  0.1670163587560055
  0.6874922005566914  0.6209996895169011  0.4342713224478283
  0.1865193806017689  0.2767210182592726  0.1245547749370536
  0.3125220551863480  0.7047077837669510  0.4784271967845541
  0.6875284181167436  0.1319104521163704  0.7882842755723117
  0.0626889241598093  0.2054037196603836  0.4784344899297133
  0.9372376117421413  0.6207424840764052  0.4346711192781248
  0.9379558643574830  0.1318979182752008  0.7881373952941358
  0.0625155173350961  0.8662229169452883  0.3003167990494448
  0.9375181251199601  0.3000650167263079  0.8753701718453832
  0.4376409612244493  0.1232326259705812  0.5215224626645379
  0.6869460466124800  0.1232558528324639  0.5216229945751069
  0.5631760837442719  0.5362352866442515  0.3892541115086052
  0.9376017155766279  0.6320009182380298  0.7881735281976234
  0.1871429697021160  0.4574438606988446  0.5657093769686666
  0.0620002334024619  0.6963094614151185  0.2118467875800461
  0.9374476370744712  0.7915848899920216  0.6106895810681968
  0.0625155817988459  0.2115099164414030  0.6995053388477573
  0.9377931365876681  0.1260294413682833  0.6549817241479224
  0.3125940947632800  0.3764500853396736  0.6550117567294289
  0.5623643577876506  0.2110710168705138  0.6995393812706930
  0.1875638411618597  0.7922402100347927  0.6108004552394614
  0.3126200461666286  0.7111176172001670  0.6994913939381833
  0.5628937103399806  0.0276132613769316  0.1246077795286764
  0.6871000173411320  0.1123944709785029  0.1668696159705082
  0.9381928375663269  0.9575700641673620  0.5656373451609311
  0.8122173221216172  0.2155945182700247  0.8330811994309010
  0.1879072159560698  0.1227734562612410  0.5215250196910419
  0.4374966059333245  0.6209892263881641  0.4344141640540436
  0.9381141462910150  0.2762456432035812  0.1244374800054655
  0.1878742116048437  0.9454067709109881  0.2116072486314582
  0.1876374830373145  0.2922482038909012  0.6108064551614448
  0.1876964506846974  0.1203608758642374  0.4343378643471050
  0.0626374799354428  0.2070638946597091  0.5655607595680907
  0.5626185698312208  0.0420636204995981  0.6108011052157789
  0.9373906608012823  0.1207697563593365  0.4344403289418891
  0.6873607390674561  0.6233975259081627  0.5216497327812987
  0.8124913486023778  0.8658344869419274  0.3004525018198306
  0.3123634504346165  0.0310510856342430  0.2560220015932557
  0.8125252467492768  0.0360121748841943  0.3892692027275221
  0.1875131631205093  0.6265374314690538  0.6549755373249829
  0.1878600272567510  0.6320622871537053  0.7882310944756493
  0.5621906616947469  0.1955660179166235  0.2116468780062775
  0.3123049476070360  0.0463152307788060  0.7438983137494533
  0.3128038038150351  0.5508291510641001  0.8754021524201419
  0.0625954415176389  0.7018161228201958  0.3452286558883842
  0.4370817755729406  0.4568929389574542  0.5656784153345572
  0.9375157398961901  0.2861937847402742  0.3893416544399375
  0.5625490922422448  0.5471098071689504  0.7439839966529166
  0.5623566657758184  0.5421133100170893  0.6107908685642859
  0.3123177486727255  0.2051823399496137  0.4784307297915570
  0.8127401067488761  0.8818124934710568  0.7881897109297338
  0.3124800545670906  0.7023174121583762  0.3451615394143136
  0.9374817985786734  0.1227967378917427  0.5215669531642156
  0.1878000380988875  0.7812763832452267  0.2560978274843013
  0.5626428095053764  0.8704989300658619  0.4343166668192354
  0.6875818916122666  0.9457073500533237  0.2116265649905162
  0.5630535225693146  0.0360894154371344  0.3893160001406631
  0.1872255088399458  0.9567353395721588  0.5656679468668265
  0.6870533464192080  0.7964068138562423  0.7438798302514812
  0.4375470049294233  0.6231907244367744  0.5215640036603552
  0.9377714293393823  0.7809306896957691  0.2560481263100945
  0.1873295375410487  0.9523149461970530  0.3451359263198268
  0.8122734935046740  0.2053966374874590  0.4785196119010047
  0.4374823289033579  0.4609846793954099  0.6995251323811927
  0.5623704507175000  0.3705877479090764  0.4344389091976797
  0.6875144607326226  0.4457614741777934  0.2116738770602427
  0.5623334768310794  0.3758514142181406  0.6550060997846233
  0.5623328723288540  0.3821665304831260  0.7882479141743080
  0.1870954394218927  0.4666983303025223  0.8331495711014885
  0.0622069846568981  0.8623850562382870  0.1670202467487545
  0.8127158040425158  0.0471281283709717  0.7440242672143355
  0.0624438309968035  0.8731682818572108  0.5215244664632559
  0.3128458795925978  0.7073598313446565  0.5656780099289657
  0.9373788506685559  0.9548459821743949  0.4783632322851286
  0.6873819004564132  0.2860234761178292  0.3893365847111357
  0.1878927188518554  0.7967744649357926  0.7438259695831743
  0.4368625109761635  0.6316147088346350  0.7883130925467038
  0.9375254359718262  0.9458940156483623  0.2116523039732459
  0.0629585326575036  0.1957277120672344  0.2116699310294950
  0.9372467225094840  0.9511157429054722  0.3451813442278724
  0.8125600240478733  0.5466761696037705  0.7438587604820625
  0.1875354949187055  0.1167263493955095  0.3003969800712866
  0.6881078684840465  0.9551516546604184  0.4784214383460614
  0.1874131389478925  0.9611505430760168  0.6995719794322572
  0.9371591425392483  0.8009755590806863  0.8754292417909215
  0.5625969338491511  0.2159836473053707  0.8330626709171175
  0.5629589721967062  0.5269297716861776  0.1246485298310663
  0.1868136106526422  0.4611117228696322  0.6995881568427076
  0.6874164463780674  0.1206797700613186  0.4343693585904697
  0.1879429975855361  0.6226310498182224  0.5216637687509786
  0.0625579668494391  0.3762291021625780  0.6550444375644464
  0.9378213445191211  0.7771670871441243  0.1246349902093138
  0.0624600351215685  0.8706647989860690  0.4342247025194497
  0.5619939674418041  0.3619929104444545  0.1667004761902150
  0.0624835541654024  0.7050519232267519  0.4785796137329145
  0.6871332130829032  0.2813479197287311  0.2561139140643818
  0.8125100587464928  0.1960840616228170  0.2116306942561510
  0.0622310681039061  0.5268445906502810  0.1246524826434131
  0.6873154476339509  0.2917077492457184  0.6106807142343663
  0.6873211234508585  0.1251291399399341  0.6549786648124173
  0.1868814558891400  0.9549533022466350  0.4782774295570378
  0.0623483796961005  0.3663839452681201  0.3003230302139290
  0.8127499457209602  0.7074842203898580  0.5657623461290467
  0.3126528011753006  0.6956447676074416  0.2116517243341892
  0.4375146442595785  0.4521643944151983  0.3451643776627881
  0.9375664298042131  0.7861188304404688  0.3892728535938333
  0.9375121499565209  0.7967979623547164  0.7438730575147438
  0.0630577149853656  0.3622169983720759  0.1666882178041610
  0.5624898429180032  0.8730223856548941  0.5214312398537306
  0.0625654849713402  0.5466442058625144  0.7439183591774268
  0.0623410596536786  0.2016737605494231  0.3451294179655822
  0.8127115845865913  0.8734631384892143  0.5215865774262141
  0.4376145919542377  0.9551553296723249  0.4784152429273874
  0.9375953682838422  0.2806374542806769  0.2559915196584304
  0.0625096744335843  0.5512177452283005  0.8751149850523799
  0.6871958126568756  0.9561256275819101  0.5657949961718551
  0.9375014050141374  0.6227312554303089  0.5213795706800122
  0.1875372598845738  0.9661530345880980  0.8338205644873748
  0.6875098521647774  0.6322959703994614  0.7879463038603274
  0.6871088880662799  0.4576759617074891  0.5656705233667869
  0.3126230111578321  0.5276479072464844  0.1249302536688597
  0.9375060188934996  0.2965809272069254  0.7439788038853435
  0.4374223447549380  0.9614309215440743  0.6996708964951882
  0.8122050857356489  0.5313527364444430  0.2559419269832375
  0.3125999824987150  0.0359783574780930  0.3891465623726128
  0.3124233294898462  0.5359984049134339  0.3891517507276603
  0.8133121157542175  0.2072446203145368  0.5656380651481572
 
  0.00000000E+00  0.00000000E+00  0.00000000E+00
  0.00000000E+00  0.00000000E+00  0.00000000E+00
  0.00000000E+00  0.00000000E+00  0.00000000E+00
  0.00000000E+00  0.00000000E+00  0.00000000E+00
  0.00000000E+00  0.00000000E+00  0.00000000E+00
  0.00000000E+00  0.00000000E+00  0.00000000E+00
  0.00000000E+00  0.00000000E+00  0.00000000E+00
  0.00000000E+00  0.00000000E+00  0.00000000E+00
  0.00000000E+00  0.00000000E+00  0.00000000E+00
  0.00000000E+00  0.00000000E+00  0.00000000E+00
  0.00000000E+00  0.00000000E+00  0.00000000E+00
  0.00000000E+00  0.00000000E+00  0.00000000E+00
  0.00000000E+00  0.00000000E+00  0.00000000E+00
  0.00000000E+00  0.00000000E+00  0.00000000E+00
  0.00000000E+00  0.00000000E+00  0.00000000E+00
  0.00000000E+00  0.00000000E+00  0.00000000E+00
  0.00000000E+00  0.00000000E+00  0.00000000E+00
  0.00000000E+00  0.00000000E+00  0.00000000E+00
  0.00000000E+00  0.00000000E+00  0.00000000E+00
  0.00000000E+00  0.00000000E+00  0.00000000E+00
  0.00000000E+00  0.00000000E+00  0.00000000E+00
  0.00000000E+00  0.00000000E+00  0.00000000E+00
  0.00000000E+00  0.00000000E+00  0.00000000E+00
  0.00000000E+00  0.00000000E+00  0.00000000E+00
  0.00000000E+00  0.00000000E+00  0.00000000E+00
  0.00000000E+00  0.00000000E+00  0.00000000E+00
  0.00000000E+00  0.00000000E+00  0.00000000E+00
  0.00000000E+00  0.00000000E+00  0.00000000E+00
  0.00000000E+00  0.00000000E+00  0.00000000E+00
  0.00000000E+00  0.00000000E+00  0.00000000E+00
  0.00000000E+00  0.00000000E+00  0.00000000E+00
  0.00000000E+00  0.00000000E+00  0.00000000E+00
  0.00000000E+00  0.00000000E+00  0.00000000E+00
  0.00000000E+00  0.00000000E+00  0.00000000E+00
  0.00000000E+00  0.00000000E+00  0.00000000E+00
  0.00000000E+00  0.00000000E+00  0.00000000E+00
  0.00000000E+00  0.00000000E+00  0.00000000E+00
  0.00000000E+00  0.00000000E+00  0.00000000E+00
  0.00000000E+00  0.00000000E+00  0.00000000E+00
  0.00000000E+00  0.00000000E+00  0.00000000E+00
  0.00000000E+00  0.00000000E+00  0.00000000E+00
  0.00000000E+00  0.00000000E+00  0.00000000E+00
  0.00000000E+00  0.00000000E+00  0.00000000E+00
  0.00000000E+00  0.00000000E+00  0.00000000E+00
  0.00000000E+00  0.00000000E+00  0.00000000E+00
  0.00000000E+00  0.00000000E+00  0.00000000E+00
  0.00000000E+00  0.00000000E+00  0.00000000E+00
  0.00000000E+00  0.00000000E+00  0.00000000E+00
  0.00000000E+00  0.00000000E+00  0.00000000E+00
  0.00000000E+00  0.00000000E+00  0.00000000E+00
  0.00000000E+00  0.00000000E+00  0.00000000E+00
  0.00000000E+00  0.00000000E+00  0.00000000E+00
  0.00000000E+00  0.00000000E+00  0.00000000E+00
  0.00000000E+00  0.00000000E+00  0.00000000E+00
  0.00000000E+00  0.00000000E+00  0.00000000E+00
  0.00000000E+00  0.00000000E+00  0.00000000E+00
  0.00000000E+00  0.00000000E+00  0.00000000E+00
  0.00000000E+00  0.00000000E+00  0.00000000E+00
  0.00000000E+00  0.00000000E+00  0.00000000E+00
  0.00000000E+00  0.00000000E+00  0.00000000E+00
  0.00000000E+00  0.00000000E+00  0.00000000E+00
  0.00000000E+00  0.00000000E+00  0.00000000E+00
  0.00000000E+00  0.00000000E+00  0.00000000E+00
  0.00000000E+00  0.00000000E+00  0.00000000E+00
  0.00000000E+00  0.00000000E+00  0.00000000E+00
  0.00000000E+00  0.00000000E+00  0.00000000E+00
  0.00000000E+00  0.00000000E+00  0.00000000E+00
  0.00000000E+00  0.00000000E+00  0.00000000E+00
  0.00000000E+00  0.00000000E+00  0.00000000E+00
  0.00000000E+00  0.00000000E+00  0.00000000E+00
  0.00000000E+00  0.00000000E+00  0.00000000E+00
  0.00000000E+00  0.00000000E+00  0.00000000E+00
  0.00000000E+00  0.00000000E+00  0.00000000E+00
  0.00000000E+00  0.00000000E+00  0.00000000E+00
  0.00000000E+00  0.00000000E+00  0.00000000E+00
  0.00000000E+00  0.00000000E+00  0.00000000E+00
  0.00000000E+00  0.00000000E+00  0.00000000E+00
  0.00000000E+00  0.00000000E+00  0.00000000E+00
  0.00000000E+00  0.00000000E+00  0.00000000E+00
  0.00000000E+00  0.00000000E+00  0.00000000E+00
  0.00000000E+00  0.00000000E+00  0.00000000E+00
  0.00000000E+00  0.00000000E+00  0.00000000E+00
  0.00000000E+00  0.00000000E+00  0.00000000E+00
  0.00000000E+00  0.00000000E+00  0.00000000E+00
  0.00000000E+00  0.00000000E+00  0.00000000E+00
  0.00000000E+00  0.00000000E+00  0.00000000E+00
  0.00000000E+00  0.00000000E+00  0.00000000E+00
  0.00000000E+00  0.00000000E+00  0.00000000E+00
  0.00000000E+00  0.00000000E+00  0.00000000E+00
  0.00000000E+00  0.00000000E+00  0.00000000E+00
  0.00000000E+00  0.00000000E+00  0.00000000E+00
  0.00000000E+00  0.00000000E+00  0.00000000E+00
  0.00000000E+00  0.00000000E+00  0.00000000E+00
  0.00000000E+00  0.00000000E+00  0.00000000E+00
  0.00000000E+00  0.00000000E+00  0.00000000E+00
  0.00000000E+00  0.00000000E+00  0.00000000E+00
  0.00000000E+00  0.00000000E+00  0.00000000E+00
  0.00000000E+00  0.00000000E+00  0.00000000E+00
  0.00000000E+00  0.00000000E+00  0.00000000E+00
  0.00000000E+00  0.00000000E+00  0.00000000E+00
  0.00000000E+00  0.00000000E+00  0.00000000E+00
  0.00000000E+00  0.00000000E+00  0.00000000E+00
  0.00000000E+00  0.00000000E+00  0.00000000E+00
  0.00000000E+00  0.00000000E+00  0.00000000E+00
  0.00000000E+00  0.00000000E+00  0.00000000E+00
  0.00000000E+00  0.00000000E+00  0.00000000E+00
  0.00000000E+00  0.00000000E+00  0.00000000E+00
  0.00000000E+00  0.00000000E+00  0.00000000E+00
  0.00000000E+00  0.00000000E+00  0.00000000E+00
  0.00000000E+00  0.00000000E+00  0.00000000E+00
  0.00000000E+00  0.00000000E+00  0.00000000E+00
  0.00000000E+00  0.00000000E+00  0.00000000E+00
  0.00000000E+00  0.00000000E+00  0.00000000E+00
  0.00000000E+00  0.00000000E+00  0.00000000E+00
  0.00000000E+00  0.00000000E+00  0.00000000E+00
  0.00000000E+00  0.00000000E+00  0.00000000E+00
  0.00000000E+00  0.00000000E+00  0.00000000E+00
  0.00000000E+00  0.00000000E+00  0.00000000E+00
  0.00000000E+00  0.00000000E+00  0.00000000E+00
  0.00000000E+00  0.00000000E+00  0.00000000E+00
  0.00000000E+00  0.00000000E+00  0.00000000E+00
  0.00000000E+00  0.00000000E+00  0.00000000E+00
  0.00000000E+00  0.00000000E+00  0.00000000E+00
  0.00000000E+00  0.00000000E+00  0.00000000E+00
  0.00000000E+00  0.00000000E+00  0.00000000E+00
  0.00000000E+00  0.00000000E+00  0.00000000E+00
  0.00000000E+00  0.00000000E+00  0.00000000E+00
  0.00000000E+00  0.00000000E+00  0.00000000E+00
  0.00000000E+00  0.00000000E+00  0.00000000E+00
  0.00000000E+00  0.00000000E+00  0.00000000E+00
  0.00000000E+00  0.00000000E+00  0.00000000E+00
  0.00000000E+00  0.00000000E+00  0.00000000E+00
  0.00000000E+00  0.00000000E+00  0.00000000E+00
  0.00000000E+00  0.00000000E+00  0.00000000E+00
  0.00000000E+00  0.00000000E+00  0.00000000E+00
  0.00000000E+00  0.00000000E+00  0.00000000E+00
  0.00000000E+00  0.00000000E+00  0.00000000E+00
  0.00000000E+00  0.00000000E+00  0.00000000E+00
  0.00000000E+00  0.00000000E+00  0.00000000E+00
  0.00000000E+00  0.00000000E+00  0.00000000E+00
  0.00000000E+00  0.00000000E+00  0.00000000E+00
  0.00000000E+00  0.00000000E+00  0.00000000E+00
  0.00000000E+00  0.00000000E+00  0.00000000E+00
  0.00000000E+00  0.00000000E+00  0.00000000E+00
  0.00000000E+00  0.00000000E+00  0.00000000E+00
  0.00000000E+00  0.00000000E+00  0.00000000E+00
  0.00000000E+00  0.00000000E+00  0.00000000E+00
  0.00000000E+00  0.00000000E+00  0.00000000E+00
  0.00000000E+00  0.00000000E+00  0.00000000E+00
  0.00000000E+00  0.00000000E+00  0.00000000E+00
  0.00000000E+00  0.00000000E+00  0.00000000E+00
  0.00000000E+00  0.00000000E+00  0.00000000E+00
  0.00000000E+00  0.00000000E+00  0.00000000E+00
  0.00000000E+00  0.00000000E+00  0.00000000E+00
  0.00000000E+00  0.00000000E+00  0.00000000E+00
  0.00000000E+00  0.00000000E+00  0.00000000E+00
  0.00000000E+00  0.00000000E+00  0.00000000E+00
  0.00000000E+00  0.00000000E+00  0.00000000E+00
  0.00000000E+00  0.00000000E+00  0.00000000E+00
  0.00000000E+00  0.00000000E+00  0.00000000E+00
  0.00000000E+00  0.00000000E+00  0.00000000E+00
  0.00000000E+00  0.00000000E+00  0.00000000E+00
  0.00000000E+00  0.00000000E+00  0.00000000E+00
  0.00000000E+00  0.00000000E+00  0.00000000E+00
  0.00000000E+00  0.00000000E+00  0.00000000E+00
  0.00000000E+00  0.00000000E+00  0.00000000E+00
  0.00000000E+00  0.00000000E+00  0.00000000E+00
  0.00000000E+00  0.00000000E+00  0.00000000E+00
  0.00000000E+00  0.00000000E+00  0.00000000E+00
  0.00000000E+00  0.00000000E+00  0.00000000E+00
  0.00000000E+00  0.00000000E+00  0.00000000E+00
  0.00000000E+00  0.00000000E+00  0.00000000E+00
  0.00000000E+00  0.00000000E+00  0.00000000E+00
  0.00000000E+00  0.00000000E+00  0.00000000E+00
  0.00000000E+00  0.00000000E+00  0.00000000E+00
  0.00000000E+00  0.00000000E+00  0.00000000E+00
  0.00000000E+00  0.00000000E+00  0.00000000E+00
  0.00000000E+00  0.00000000E+00  0.00000000E+00
  0.00000000E+00  0.00000000E+00  0.00000000E+00
  0.00000000E+00  0.00000000E+00  0.00000000E+00
  0.00000000E+00  0.00000000E+00  0.00000000E+00
  0.00000000E+00  0.00000000E+00  0.00000000E+00
  0.00000000E+00  0.00000000E+00  0.00000000E+00
  0.00000000E+00  0.00000000E+00  0.00000000E+00
  0.00000000E+00  0.00000000E+00  0.00000000E+00
  0.00000000E+00  0.00000000E+00  0.00000000E+00
  0.00000000E+00  0.00000000E+00  0.00000000E+00
  0.00000000E+00  0.00000000E+00  0.00000000E+00
  0.00000000E+00  0.00000000E+00  0.00000000E+00
  0.00000000E+00  0.00000000E+00  0.00000000E+00
  0.00000000E+00  0.00000000E+00  0.00000000E+00
  0.00000000E+00  0.00000000E+00  0.00000000E+00
  0.00000000E+00  0.00000000E+00  0.00000000E+00
  0.00000000E+00  0.00000000E+00  0.00000000E+00
  0.00000000E+00  0.00000000E+00  0.00000000E+00
  0.00000000E+00  0.00000000E+00  0.00000000E+00
  0.00000000E+00  0.00000000E+00  0.00000000E+00
  0.00000000E+00  0.00000000E+00  0.00000000E+00
  0.00000000E+00  0.00000000E+00  0.00000000E+00
  0.00000000E+00  0.00000000E+00  0.00000000E+00
  0.00000000E+00  0.00000000E+00  0.00000000E+00
  0.00000000E+00  0.00000000E+00  0.00000000E+00
  0.00000000E+00  0.00000000E+00  0.00000000E+00
  0.00000000E+00  0.00000000E+00  0.00000000E+00
  0.00000000E+00  0.00000000E+00  0.00000000E+00
  0.00000000E+00  0.00000000E+00  0.00000000E+00
  0.00000000E+00  0.00000000E+00  0.00000000E+00
  0.00000000E+00  0.00000000E+00  0.00000000E+00
  0.00000000E+00  0.00000000E+00  0.00000000E+00
  0.00000000E+00  0.00000000E+00  0.00000000E+00
  0.00000000E+00  0.00000000E+00  0.00000000E+00
  0.00000000E+00  0.00000000E+00  0.00000000E+00
  0.00000000E+00  0.00000000E+00  0.00000000E+00
  0.00000000E+00  0.00000000E+00  0.00000000E+00
  0.00000000E+00  0.00000000E+00  0.00000000E+00
  0.00000000E+00  0.00000000E+00  0.00000000E+00
  0.00000000E+00  0.00000000E+00  0.00000000E+00
  0.00000000E+00  0.00000000E+00  0.00000000E+00
  0.00000000E+00  0.00000000E+00  0.00000000E+00
  0.00000000E+00  0.00000000E+00  0.00000000E+00
  0.00000000E+00  0.00000000E+00  0.00000000E+00
  0.00000000E+00  0.00000000E+00  0.00000000E+00
  0.00000000E+00  0.00000000E+00  0.00000000E+00
  0.00000000E+00  0.00000000E+00  0.00000000E+00
  0.00000000E+00  0.00000000E+00  0.00000000E+00
  0.00000000E+00  0.00000000E+00  0.00000000E+00
  0.00000000E+00  0.00000000E+00  0.00000000E+00
  0.00000000E+00  0.00000000E+00  0.00000000E+00
  0.00000000E+00  0.00000000E+00  0.00000000E+00
  0.00000000E+00  0.00000000E+00  0.00000000E+00
  0.00000000E+00  0.00000000E+00  0.00000000E+00
  0.00000000E+00  0.00000000E+00  0.00000000E+00
  0.00000000E+00  0.00000000E+00  0.00000000E+00
  0.00000000E+00  0.00000000E+00  0.00000000E+00
  0.00000000E+00  0.00000000E+00  0.00000000E+00
  0.00000000E+00  0.00000000E+00  0.00000000E+00
  0.00000000E+00  0.00000000E+00  0.00000000E+00
  0.00000000E+00  0.00000000E+00  0.00000000E+00
  0.00000000E+00  0.00000000E+00  0.00000000E+00
  0.00000000E+00  0.00000000E+00  0.00000000E+00
  0.00000000E+00  0.00000000E+00  0.00000000E+00
  0.00000000E+00  0.00000000E+00  0.00000000E+00
  0.00000000E+00  0.00000000E+00  0.00000000E+00
  0.00000000E+00  0.00000000E+00  0.00000000E+00
  0.00000000E+00  0.00000000E+00  0.00000000E+00
  0.00000000E+00  0.00000000E+00  0.00000000E+00
  0.00000000E+00  0.00000000E+00  0.00000000E+00