CuInSe2gb                               
   1.00000000000000     
     9.7266780392896699    0.0000000000000000    0.0000000000000000
     0.0000000000000000    8.4235502764570693    0.0000000000000000
     0.0000000000000000    0.0000000000000000   45.0000000000000000
   Fe   Mn
   274    14
Direct
  0.0618047071997790  0.0312104995376462  0.1243621410332592
  0.3165866893438800  0.8750791163213345  0.6548456349094353
  0.1848964964724287  0.1214333120628774  0.7882794762538350
  0.4413875761734590  0.2876342546635025  0.3890965125663104
  0.3176941646336636  0.7125444809365032  0.8327922072783501
  0.8178452860786736  0.2139239217668697  0.8333537867871456
  0.1912820968915374  0.9627102195773332  0.8332921420153732
  0.5624171057487117  0.2071237398858966  0.5654580606896208
  0.0656171857134589  0.0397296229343926  0.7439970442634901
  0.8114268669571766  0.8712470092479020  0.5213365322556595
  0.1911125991339009  0.2904809212324773  0.7439054838830966
  0.9337031861416414  0.4525923140634628  0.3449640188482831
  0.9413783372864617  0.2870940935019453  0.3890453420211266
  0.8131550812922125  0.0397351734662189  0.8754221053443779
  0.1837752372152251  0.7887460748382751  0.6108160281270989
  0.5663828963068400  0.0376778200234939  0.3890920142814979
  0.9416873288483537  0.9631292028847807  0.8335682906727817
  0.3143489923910290  0.5387825790333709  0.8757846826139593
  0.6905513540263617  0.2901618464338573  0.7439401312004704
  0.1823437393446647  0.6137990517307482  0.1666749169027621
  0.8121899523593286  0.2056957081839565  0.4787004564536761
  0.8087002674399681  0.5378576454321805  0.6109099239818873
  0.3121014119355653  0.8703988906496769  0.4344482064268063
  0.8092024756902149  0.0382253712702630  0.2561588924065767
  0.6836156749941660  0.9518315643028886  0.3449445069324444
  0.9312365546954240  0.1145710982834904  0.1672457801605965
  0.0615794522336835  0.8712611062002411  0.5212980904531618
  0.5588504442893174  0.5383455275289002  0.2560520645363518
  0.6847239272064337  0.7953744462907836  0.8754278466493080
  0.5560306754169979  0.3656794506676868  0.1667688186673285
  0.4398673953268316  0.7908168010130474  0.7440463903122601
  0.8115163172422333  0.7066009118983620  0.5654828615376545
  0.5600198990249106  0.8721829076065076  0.7882784835530278
  0.6864955788094621  0.1214587869759548  0.5213460083312880
  0.8165007737422219  0.3748870609445775  0.6548907696216499
  0.9414693068468106  0.4627565114319257  0.8335315745851253
  0.0599924660072552  0.2081588232208157  0.6995999794434500
  0.4350106927523480  0.9579334693570205  0.6995457656565981
  0.3169565807764816  0.2117994156414079  0.8332691378781131
  0.4414969390671235  0.6247792102434420  0.6548441083500214
  0.3087582065247536  0.5380060717761089  0.6108985631565718
  0.9365987176552117  0.4565842522762557  0.5655918411296467
  0.6900535314546801  0.7910024458296901  0.7440412304559466
  0.9336387528765464  0.7883557197887359  0.1246863462549854
  0.6914309947822399  0.7878469476689514  0.3890473776364702
  0.9406001334858278  0.7900983393638650  0.7441450672680681
  0.0587832681429935  0.2028287727526189  0.3449504407472487
  0.6835321040956888  0.4524113116031440  0.3450693042891304
  0.4351773913564524  0.1212222101702284  0.7886295437605914
  0.0647604551015217  0.2051457250003653  0.2116346934178230
  0.0550641641583446  0.3657852510037389  0.1668255911070008
  0.9336658794333061  0.7888451968270079  0.2559445232459078
  0.5605877270952158  0.2077750489481609  0.6996291722683344
  0.6848984341739223  0.9581094442260560  0.6996266914949090
  0.8100271024306013  0.8721503286433502  0.7882044624397589
  0.4371337682233543  0.9571969445732396  0.5653299159761230
  0.8104411486884863  0.3732756334578357  0.7882042947894551
  0.6840000632162707  0.2895086446228773  0.2561092588093422
  0.1875076169950775  0.4571423361359003  0.5654421430791612
  0.0557115076442276  0.8656118322861738  0.1667960843806921
  0.1840873139309873  0.2882516183344340  0.6109702171094938
  0.0622275332108979  0.2071790333509270  0.5653481047747662
  0.3104836814458347  0.2079103634149802  0.6996457777694239
  0.5635853969798406  0.5390629001830520  0.8756751038949107
  0.0618022840936211  0.7062399274723095  0.5655135210413414
  0.6849000826141504  0.6215916926428705  0.7881804898521010
  0.3162287316822970  0.5377439367455862  0.3890823731461178
  0.1867253373779408  0.6212124666034718  0.5213652186890841
  0.5621085698828734  0.8705303503024224  0.4345147814806226
  0.4369649753262014  0.4571751033116990  0.5654340795101342
  0.4398629811692196  0.2909382250692013  0.7440217285654338
  0.8191663312795340  0.8747836575732817  0.3004255794755096
  0.8087756890660858  0.7028089133287225  0.3449879268727440
  0.4415456673937928  0.4623167228692351  0.8331435113722993
  0.6874004939118509  0.9555684817352866  0.4786777959644605
  0.6849858386368254  0.4580587594529195  0.6996049854692288
  0.5617760789278401  0.8719100285134908  0.5213914397420275
  0.5665280575721854  0.3749080118048295  0.6548918542116420
  0.8163570513135641  0.8748317760971550  0.6549625128236295
  0.8119823679606096  0.3717412473148991  0.4342600071424645
  0.8088715641995947  0.5381017085744844  0.2562586771529419
  0.6919262901235420  0.4614428657966759  0.8330670660428938
  0.1861713670721644  0.7885215177337435  0.1242808455848208
  0.6913241481117361  0.2872928509083597  0.3890714593372172
  0.3164794524259741  0.3744481200172513  0.6548266299694905
  0.3088457054026756  0.2023631994069066  0.3449298242180678
  0.8156816517772494  0.5399942176689662  0.7439488661200561
  0.6915052292505875  0.9618226398242719  0.8331348872785461
  0.5661282794404986  0.8746626877240716  0.6549525856927175
  0.3115794193257257  0.7071708749784469  0.5654479021028832
  0.3124123673339629  0.5317042759936434  0.1242834967556212
  0.6895968452090793  0.9559086721045615  0.2119460972853463
  0.3114732553037421  0.2065730461539925  0.5654785999474126
  0.1872268426401027  0.9557940561225263  0.4786837464453910
  0.6875432073935956  0.9571445545354067  0.5655042899614307
  0.4336325109665442  0.7883994846632046  0.6108099374751000
  0.6825662448797225  0.6121624986002054  0.1667002142637287
  0.3190844431877251  0.8744736441962947  0.3003083997489703
  0.3121713247950577  0.7057741088136714  0.4786372723020987
  0.9337655306187329  0.2878531359956536  0.6109127084808296
  0.4445094466758995  0.6248620207167562  0.3005022495411735
  0.8066857478490189  0.8641876369301593  0.1672514096358584
  0.5663046491648777  0.2033859387445494  0.2118218633958733
  0.9330406274589070  0.6128978892327394  0.1668501027598381
  0.4372238785689152  0.9557508787900678  0.4786032131276368
  0.5601693011482149  0.3719001818485728  0.7883424096744028
  0.0613771003537837  0.3720635958948578  0.5213686695548949
  0.3068368639077995  0.3645026997091556  0.1668607192326430
  0.6949170770820311  0.1242231813023406  0.3003848023150077
  0.4426905137843490  0.9619151301542105  0.8331011353168783
  0.1847027665817537  0.2876140987660212  0.1245222592158221
  0.1841815294031300  0.2895748210562071  0.2560549481946344
  0.3126984241374737  0.3704371968268937  0.4344683607743359
  0.5623280989832296  0.0328065734048018  0.1245975633627643
  0.4334850940474024  0.2878200819149981  0.6108946345956238
  0.1834663062371790  0.4524197379468196  0.3449938035397261
  0.4345067544130477  0.2874732184390199  0.1245737655894248
  0.6839867487997875  0.7891468903421652  0.2561204679733147
  0.4366460514699610  0.1216097261554042  0.5213767581110147
  0.1884330863376764  0.2945491339127984  0.8757490234534308
  0.1914855141867239  0.1250489760462591  0.6548996418396981
  0.9414779747825024  0.1247497608169238  0.6548857075289932
  0.8162478386606873  0.5375084456015675  0.3891111336816316
  0.0663202367123761  0.0379342282199858  0.3890905514308264
  0.1830722600701071  0.1122554299573821  0.1665900016292750
  0.0586020686665427  0.5377689385936960  0.6109125636699748
  0.9342981246123868  0.2894871300500720  0.2560863935670905
  0.5588639380980788  0.5379421174721393  0.6108792055841148
  0.9366098214611438  0.9572358727132058  0.5654726660421379
  0.6941469578329077  0.6248428323463443  0.3003585453781907
  0.9373557085006313  0.6203017740192417  0.4344605363721415
  0.9340702984649628  0.6227052908586918  0.7879821409800628
  0.5603684148542707  0.7076037358083485  0.6995610610804434
  0.0658896951715790  0.7151582447372968  0.8336405932576173
  0.9446581591523271  0.1238274910165948  0.3003251615804281
  0.9337208961004682  0.7874622490760740  0.6108964933921381
  0.4336912154536087  0.7895201008425392  0.2561123304934706
  0.3106826317093113  0.3721181511775765  0.7882332052116128
  0.4398812886865150  0.4558395384614443  0.2118700725921861
  0.1866720982375590  0.1215338729273784  0.5213850900158407
  0.8103520283471259  0.7078858281292438  0.6995517679872537
  0.0587417199967760  0.0376099112457720  0.6108620901467487
  0.5660450367513017  0.2129982237993994  0.8330075445006451
  0.3116817395908775  0.8715913266601923  0.5213758524971216
  0.6862826827787556  0.2877082167542311  0.1243482589366746
  0.1897251991444842  0.9564873176272209  0.2120652742818307
  0.6836029515682482  0.2880779684590730  0.6109589187252552
  0.1913054136464558  0.7876045063532232  0.3890875948196283
  0.9352260401499388  0.1226987492852548  0.7883124654883111
  0.4369266291578873  0.7954418810328261  0.8756805453318878
  0.8155077702377977  0.0402808218418691  0.7438789440165776
  0.9351053623803525  0.4580260748712588  0.6996057705068103
  0.1914467347106568  0.6249388483987066  0.6549448045348917
  0.3102052979655716  0.7074231363474620  0.6996507114307606
  0.9344699803740478  0.2874364656047522  0.1244398832404591
  0.4373568895091952  0.4557649800571944  0.4785819052130748
  0.0622196321384380  0.7057466007902499  0.4785800193092394
  0.9372162498531551  0.1200176745998445  0.4346226123621212
  0.4442255922753305  0.1244028421108629  0.3004730137325487
  0.1875120020545305  0.1200055875724162  0.4344502278833805
  0.5634639353492008  0.0389592767836046  0.8758001405938201
  0.1870444832544183  0.9572543910008227  0.5653915312237440
  0.6842742139672351  0.7884489260540565  0.1247661013927511
  0.5584782607499665  0.7022573471044137  0.3449464358097545
  0.3164776026533087  0.0375719472701270  0.3890680326573434
  0.6824612655758591  0.1143789165781609  0.1672281345355996
  0.8150814921493229  0.2048914988679594  0.2116422801711865
  0.0598611370010350  0.5383722172198282  0.2559682905286477
  0.5622335231161579  0.7057372740214986  0.4786397312395884
  0.4346077225239707  0.7876809894032968  0.1245151653616144
  0.5692369265529973  0.3740684555149321  0.3003861000669460
  0.4337197041156457  0.9526909000471625  0.3450667719236520
  0.1852403244476584  0.9580385081282229  0.6996705216197082
  0.4318005025257199  0.6138809404942434  0.1666642428104138
  0.9400943349144846  0.4557863993767067  0.2119918027156861
  0.0618066163413111  0.5312095189590956  0.1243115543833181
  0.8117482387735883  0.3719178244117086  0.5213527604959403
  0.9444371405403672  0.6242669876880954  0.3001952531854407
  0.3091526720385596  0.0382040603648004  0.2559137171937647
  0.6837993736047356  0.7878574031520184  0.6108458612279668
  0.1917301274924557  0.4625519760075235  0.8331674984572112
  0.4321311906665617  0.1125473447090920  0.1667054271905447
  0.3112849647128499  0.3715546217945135  0.5213588485503822
  0.4340658197970870  0.6213235066315242  0.7885215646712204
  0.0590305979939852  0.0385330586881915  0.2561132728942315
  0.5622363894111206  0.7071058771102561  0.5654761122641380
  0.9400713612821401  0.2894698042203720  0.7439915759691451
  0.6835024796190460  0.1219243206521454  0.7883276566370389
  0.1896093818192651  0.4551134904743236  0.2116443868337077
  0.9412435706725510  0.7875989490774189  0.3890554775640452
  0.6862999442303661  0.2974407155846048  0.8757396156868480
  0.5557578434451264  0.8650124384904653  0.1666701537962616
  0.4354818805784862  0.4578539796082826  0.6996244899137596
  0.9336671199185332  0.9516304293158280  0.3449645871660739
  0.6865396281973337  0.6210278969342925  0.5212888589137601
  0.0665404742510931  0.8747841292135849  0.6548898516651811
  0.0600989309666064  0.8729514247315672  0.7881967711062952
  0.0663711939732063  0.3749065261735978  0.6549314447572528
  0.6871600584427782  0.4556214154549681  0.4786233902045131
  0.1841942399023334  0.7895634456670001  0.2559999567469467
  0.4370446290104730  0.1205594675873514  0.4343874619688098
  0.8135194545518856  0.0317346713631584  0.1243524244832901
  0.9364882399787962  0.6213609024312367  0.5214083346445101
  0.4415541306107564  0.1248242456062790  0.6548629954902998
  0.8127206274155397  0.5306701082833983  0.1243375442648994
  0.4336684991094727  0.4526874864639606  0.3450947868501065
  0.8088425898102698  0.2026396760677029  0.3450754018844214
  0.3089236517259051  0.7022544310920874  0.3449191808942926
  0.6915532215308623  0.1250321385581475  0.6548597401136916
  0.5693281029506778  0.8746554448325956  0.3005337160940922
  0.0655472283687049  0.5399163180925810  0.7440050408675102
  0.9405555360483376  0.9554635216007415  0.2116435104207054
  0.8166480213937330  0.7053206744977399  0.2117545485499471
  0.0690965768601067  0.8747237967537725  0.3004529269470466
  0.1944375628950981  0.1242563775160884  0.3004996339389576
  0.0584999990107440  0.7020545014356108  0.3450015175463610
  0.8087777821880774  0.0378905245942230  0.6108687636303519
  0.0625127664271741  0.3709649974664318  0.4343804700616054
  0.5588889222521327  0.2027066301352562  0.3449533865521425
  0.8190536744964007  0.3748034988788657  0.3004202724436418
  0.5594785870583787  0.0388589880734895  0.2559090018724312
  0.5665482747861991  0.5376715913103517  0.3890901623293676
  0.0624642618698526  0.2059693345486047  0.4786386144765069
  0.3113300581912589  0.8714068254923946  0.7880576180750057
  0.9352064136273160  0.9583269277279343  0.6996164026165148
  0.0690248599781094  0.3749323475735285  0.3004370543683118
  0.6914011902618085  0.6249494944053323  0.6549462284298031
  0.6868921069748991  0.4571447649982538  0.5653999682341415
  0.4398879285282730  0.9568118047917280  0.2122600351109508
  0.3122303327609444  0.2057271762143883  0.4786579057231425
  0.8133439402855143  0.5385350898251003  0.8756114264753104
  0.6878839642017346  0.6203893605088914  0.4344329273141250
  0.8104963179630472  0.2079221857785026  0.6996587039133941
  0.8122617029651523  0.7056882326406058  0.4786505260437356
  0.8117434244815158  0.8709485891974136  0.4343198572325050
  0.9371850466912592  0.9551806440867461  0.4787260641657288
  0.5621418522736843  0.2057637529590814  0.4786310891052456
  0.1868933071977885  0.6202269252702290  0.4344416166655489
  0.3152435062344619  0.0407638433280676  0.7438989665454642
  0.9415159216092820  0.6251779123011471  0.6548747590494990
  0.5663512868999636  0.7126873970807801  0.8330723121036803
  0.3194506284352201  0.3738356771095392  0.3004692137742733
  0.5651229936459771  0.7046382457489199  0.2117546169881603
  0.1873067646950056  0.4558499239061917  0.4786152745278287
  0.3145331629860920  0.0399624129883408  0.8755497129790231
  0.1847861768409101  0.4581948144542096  0.6996304773444969
  0.5616353209303574  0.3714007963769000  0.5213986690707437
  0.1912909209478449  0.2878889626750404  0.3890614934088443
  0.3156083424330375  0.2058124471131559  0.2116796474256841
  0.0667808193991118  0.7053957540811532  0.2117021296378112
  0.5620333162049664  0.3708008847129510  0.4344568404994881
  0.4365715402559796  0.6216967567173198  0.5212836986719931
  0.8168883401975187  0.7142730177000561  0.8330331002969712
  0.0608868644383131  0.3731755196286130  0.7881289474394298
  0.4366326330092663  0.2963787476160314  0.8760220427167693
  0.3113710952232668  0.0316482972712845  0.1244158840278616
  0.6876172472243891  0.1198979036159356  0.4343944700931482
  0.1837963036646746  0.9526288238617433  0.3451171262655558
  0.0664506996954056  0.2134944691682819  0.8336367430731965
  0.5587404955216000  0.0378744808675162  0.6109458526817119
  0.6893867598157242  0.4561899072853160  0.2120983905340494
  0.1903350686400198  0.7903549226851083  0.7439966254464032
  0.1942444875964090  0.6244448779346338  0.3004238252838797
  0.4413208662932886  0.7874941238705179  0.3890814881030809
  0.4337291136687458  0.2895809814553844  0.2561158990317977
  0.0646928274819690  0.5385881850916204  0.8755380124271009
  0.5660560793128798  0.0404066000825737  0.7439263266809829
  0.1875974909281873  0.7951657492315044  0.8756645870437263
  0.9372911438351552  0.4556702615268547  0.4786553223403689
  0.5656891776947128  0.5405959416588196  0.7438591244491219
  0.8112801596380420  0.2069526554360114  0.5653775598840660
  0.1854980847842989  0.6208405530416088  0.7880804216600360
  0.0663358231429995  0.5374612424459738  0.3891488302253585
  0.0605321286780546  0.7077385471974497  0.6995454131802310
  0.3085635296506187  0.5386192100035289  0.2557012907725808
  0.3151161843076154  0.7039094086355117  0.2124227714487261
  0.3053888241609758  0.8652346201602642  0.1660942670074109
  0.4370346016043070  0.6204452173266506  0.4343997834771995
  0.8177076500128543  0.0384417104530288  0.3891367000711681
  0.9352281006346067  0.2960464033618850  0.8752737346651096
  0.9376415508241049  0.7935990722002439  0.8751866860766521
  0.0655913349944546  0.0375530580492421  0.8753469825183909
  0.5628987061151240  0.5299718209431653  0.1248567642065410
  0.8050972273307223  0.3663386184290577  0.1664688911921376
  0.0625431754530543  0.8708045435065886  0.4343734796210659
  0.9364740350337905  0.1212515593005207  0.5214248661800199
  0.3081575086283341  0.0382278536061917  0.6110874767933414
  0.3155775406706846  0.5402731165719227  0.7440475328312038
 
  0.00000000E+00  0.00000000E+00  0.00000000E+00
  0.00000000E+00  0.00000000E+00  0.00000000E+00
  0.00000000E+00  0.00000000E+00  0.00000000E+00
  0.00000000E+00  0.00000000E+00  0.00000000E+00
  0.00000000E+00  0.00000000E+00  0.00000000E+00
  0.00000000E+00  0.00000000E+00  0.00000000E+00
  0.00000000E+00  0.00000000E+00  0.00000000E+00
  0.00000000E+00  0.00000000E+00  0.00000000E+00
  0.00000000E+00  0.00000000E+00  0.00000000E+00
  0.00000000E+00  0.00000000E+00  0.00000000E+00
  0.00000000E+00  0.00000000E+00  0.00000000E+00
  0.00000000E+00  0.00000000E+00  0.00000000E+00
  0.00000000E+00  0.00000000E+00  0.00000000E+00
  0.00000000E+00  0.00000000E+00  0.00000000E+00
  0.00000000E+00  0.00000000E+00  0.00000000E+00
  0.00000000E+00  0.00000000E+00  0.00000000E+00
  0.00000000E+00  0.00000000E+00  0.00000000E+00
  0.00000000E+00  0.00000000E+00  0.00000000E+00
  0.00000000E+00  0.00000000E+00  0.00000000E+00
  0.00000000E+00  0.00000000E+00  0.00000000E+00
  0.00000000E+00  0.00000000E+00  0.00000000E+00
  0.00000000E+00  0.00000000E+00  0.00000000E+00
  0.00000000E+00  0.00000000E+00  0.00000000E+00
  0.00000000E+00  0.00000000E+00  0.00000000E+00
  0.00000000E+00  0.00000000E+00  0.00000000E+00
  0.00000000E+00  0.00000000E+00  0.00000000E+00
  0.00000000E+00  0.00000000E+00  0.00000000E+00
  0.00000000E+00  0.00000000E+00  0.00000000E+00
  0.00000000E+00  0.00000000E+00  0.00000000E+00
  0.00000000E+00  0.00000000E+00  0.00000000E+00
  0.00000000E+00  0.00000000E+00  0.00000000E+00
  0.00000000E+00  0.00000000E+00  0.00000000E+00
  0.00000000E+00  0.00000000E+00  0.00000000E+00
  0.00000000E+00  0.00000000E+00  0.00000000E+00
  0.00000000E+00  0.00000000E+00  0.00000000E+00
  0.00000000E+00  0.00000000E+00  0.00000000E+00
  0.00000000E+00  0.00000000E+00  0.00000000E+00
  0.00000000E+00  0.00000000E+00  0.00000000E+00
  0.00000000E+00  0.00000000E+00  0.00000000E+00
  0.00000000E+00  0.00000000E+00  0.00000000E+00
  0.00000000E+00  0.00000000E+00  0.00000000E+00
  0.00000000E+00  0.00000000E+00  0.00000000E+00
  0.00000000E+00  0.00000000E+00  0.00000000E+00
  0.00000000E+00  0.00000000E+00  0.00000000E+00
  0.00000000E+00  0.00000000E+00  0.00000000E+00
  0.00000000E+00  0.00000000E+00  0.00000000E+00
  0.00000000E+00  0.00000000E+00  0.00000000E+00
  0.00000000E+00  0.00000000E+00  0.00000000E+00
  0.00000000E+00  0.00000000E+00  0.00000000E+00
  0.00000000E+00  0.00000000E+00  0.00000000E+00
  0.00000000E+00  0.00000000E+00  0.00000000E+00
  0.00000000E+00  0.00000000E+00  0.00000000E+00
  0.00000000E+00  0.00000000E+00  0.00000000E+00
  0.00000000E+00  0.00000000E+00  0.00000000E+00
  0.00000000E+00  0.00000000E+00  0.00000000E+00
  0.00000000E+00  0.00000000E+00  0.00000000E+00
  0.00000000E+00  0.00000000E+00  0.00000000E+00
  0.00000000E+00  0.00000000E+00  0.00000000E+00
  0.00000000E+00  0.00000000E+00  0.00000000E+00
  0.00000000E+00  0.00000000E+00  0.00000000E+00
  0.00000000E+00  0.00000000E+00  0.00000000E+00
  0.00000000E+00  0.00000000E+00  0.00000000E+00
  0.00000000E+00  0.00000000E+00  0.00000000E+00
  0.00000000E+00  0.00000000E+00  0.00000000E+00
  0.00000000E+00  0.00000000E+00  0.00000000E+00
  0.00000000E+00  0.00000000E+00  0.00000000E+00
  0.00000000E+00  0.00000000E+00  0.00000000E+00
  0.00000000E+00  0.00000000E+00  0.00000000E+00
  0.00000000E+00  0.00000000E+00  0.00000000E+00
  0.00000000E+00  0.00000000E+00  0.00000000E+00
  0.00000000E+00  0.00000000E+00  0.00000000E+00
  0.00000000E+00  0.00000000E+00  0.00000000E+00
  0.00000000E+00  0.00000000E+00  0.00000000E+00
  0.00000000E+00  0.00000000E+00  0.00000000E+00
  0.00000000E+00  0.00000000E+00  0.00000000E+00
  0.00000000E+00  0.00000000E+00  0.00000000E+00
  0.00000000E+00  0.00000000E+00  0.00000000E+00
  0.00000000E+00  0.00000000E+00  0.00000000E+00
  0.00000000E+00  0.00000000E+00  0.00000000E+00
  0.00000000E+00  0.00000000E+00  0.00000000E+00
  0.00000000E+00  0.00000000E+00  0.00000000E+00
  0.00000000E+00  0.00000000E+00  0.00000000E+00
  0.00000000E+00  0.00000000E+00  0.00000000E+00
  0.00000000E+00  0.00000000E+00  0.00000000E+00
  0.00000000E+00  0.00000000E+00  0.00000000E+00
  0.00000000E+00  0.00000000E+00  0.00000000E+00
  0.00000000E+00  0.00000000E+00  0.00000000E+00
  0.00000000E+00  0.00000000E+00  0.00000000E+00
  0.00000000E+00  0.00000000E+00  0.00000000E+00
  0.00000000E+00  0.00000000E+00  0.00000000E+00
  0.00000000E+00  0.00000000E+00  0.00000000E+00
  0.00000000E+00  0.00000000E+00  0.00000000E+00
  0.00000000E+00  0.00000000E+00  0.00000000E+00
  0.00000000E+00  0.00000000E+00  0.00000000E+00
  0.00000000E+00  0.00000000E+00  0.00000000E+00
  0.00000000E+00  0.00000000E+00  0.00000000E+00
  0.00000000E+00  0.00000000E+00  0.00000000E+00
  0.00000000E+00  0.00000000E+00  0.00000000E+00
  0.00000000E+00  0.00000000E+00  0.00000000E+00
  0.00000000E+00  0.00000000E+00  0.00000000E+00
  0.00000000E+00  0.00000000E+00  0.00000000E+00
  0.00000000E+00  0.00000000E+00  0.00000000E+00
  0.00000000E+00  0.00000000E+00  0.00000000E+00
  0.00000000E+00  0.00000000E+00  0.00000000E+00
  0.00000000E+00  0.00000000E+00  0.00000000E+00
  0.00000000E+00  0.00000000E+00  0.00000000E+00
  0.00000000E+00  0.00000000E+00  0.00000000E+00
  0.00000000E+00  0.00000000E+00  0.00000000E+00
  0.00000000E+00  0.00000000E+00  0.00000000E+00
  0.00000000E+00  0.00000000E+00  0.00000000E+00
  0.00000000E+00  0.00000000E+00  0.00000000E+00
  0.00000000E+00  0.00000000E+00  0.00000000E+00
  0.00000000E+00  0.00000000E+00  0.00000000E+00
  0.00000000E+00  0.00000000E+00  0.00000000E+00
  0.00000000E+00  0.00000000E+00  0.00000000E+00
  0.00000000E+00  0.00000000E+00  0.00000000E+00
  0.00000000E+00  0.00000000E+00  0.00000000E+00
  0.00000000E+00  0.00000000E+00  0.00000000E+00
  0.00000000E+00  0.00000000E+00  0.00000000E+00
  0.00000000E+00  0.00000000E+00  0.00000000E+00
  0.00000000E+00  0.00000000E+00  0.00000000E+00
  0.00000000E+00  0.00000000E+00  0.00000000E+00
  0.00000000E+00  0.00000000E+00  0.00000000E+00
  0.00000000E+00  0.00000000E+00  0.00000000E+00
  0.00000000E+00  0.00000000E+00  0.00000000E+00
  0.00000000E+00  0.00000000E+00  0.00000000E+00
  0.00000000E+00  0.00000000E+00  0.00000000E+00
  0.00000000E+00  0.00000000E+00  0.00000000E+00
  0.00000000E+00  0.00000000E+00  0.00000000E+00
  0.00000000E+00  0.00000000E+00  0.00000000E+00
  0.00000000E+00  0.00000000E+00  0.00000000E+00
  0.00000000E+00  0.00000000E+00  0.00000000E+00
  0.00000000E+00  0.00000000E+00  0.00000000E+00
  0.00000000E+00  0.00000000E+00  0.00000000E+00
  0.00000000E+00  0.00000000E+00  0.00000000E+00
  0.00000000E+00  0.00000000E+00  0.00000000E+00
  0.00000000E+00  0.00000000E+00  0.00000000E+00
  0.00000000E+00  0.00000000E+00  0.00000000E+00
  0.00000000E+00  0.00000000E+00  0.00000000E+00
  0.00000000E+00  0.00000000E+00  0.00000000E+00
  0.00000000E+00  0.00000000E+00  0.00000000E+00
  0.00000000E+00  0.00000000E+00  0.00000000E+00
  0.00000000E+00  0.00000000E+00  0.00000000E+00
  0.00000000E+00  0.00000000E+00  0.00000000E+00
  0.00000000E+00  0.00000000E+00  0.00000000E+00
  0.00000000E+00  0.00000000E+00  0.00000000E+00
  0.00000000E+00  0.00000000E+00  0.00000000E+00
  0.00000000E+00  0.00000000E+00  0.00000000E+00
  0.00000000E+00  0.00000000E+00  0.00000000E+00
  0.00000000E+00  0.00000000E+00  0.00000000E+00
  0.00000000E+00  0.00000000E+00  0.00000000E+00
  0.00000000E+00  0.00000000E+00  0.00000000E+00
  0.00000000E+00  0.00000000E+00  0.00000000E+00
  0.00000000E+00  0.00000000E+00  0.00000000E+00
  0.00000000E+00  0.00000000E+00  0.00000000E+00
  0.00000000E+00  0.00000000E+00  0.00000000E+00
  0.00000000E+00  0.00000000E+00  0.00000000E+00
  0.00000000E+00  0.00000000E+00  0.00000000E+00
  0.00000000E+00  0.00000000E+00  0.00000000E+00
  0.00000000E+00  0.00000000E+00  0.00000000E+00
  0.00000000E+00  0.00000000E+00  0.00000000E+00
  0.00000000E+00  0.00000000E+00  0.00000000E+00
  0.00000000E+00  0.00000000E+00  0.00000000E+00
  0.00000000E+00  0.00000000E+00  0.00000000E+00
  0.00000000E+00  0.00000000E+00  0.00000000E+00
  0.00000000E+00  0.00000000E+00  0.00000000E+00
  0.00000000E+00  0.00000000E+00  0.00000000E+00
  0.00000000E+00  0.00000000E+00  0.00000000E+00
  0.00000000E+00  0.00000000E+00  0.00000000E+00
  0.00000000E+00  0.00000000E+00  0.00000000E+00
  0.00000000E+00  0.00000000E+00  0.00000000E+00
  0.00000000E+00  0.00000000E+00  0.00000000E+00
  0.00000000E+00  0.00000000E+00  0.00000000E+00
  0.00000000E+00  0.00000000E+00  0.00000000E+00
  0.00000000E+00  0.00000000E+00  0.00000000E+00
  0.00000000E+00  0.00000000E+00  0.00000000E+00
  0.00000000E+00  0.00000000E+00  0.00000000E+00
  0.00000000E+00  0.00000000E+00  0.00000000E+00
  0.00000000E+00  0.00000000E+00  0.00000000E+00
  0.00000000E+00  0.00000000E+00  0.00000000E+00
  0.00000000E+00  0.00000000E+00  0.00000000E+00
  0.00000000E+00  0.00000000E+00  0.00000000E+00
  0.00000000E+00  0.00000000E+00  0.00000000E+00
  0.00000000E+00  0.00000000E+00  0.00000000E+00
  0.00000000E+00  0.00000000E+00  0.00000000E+00
  0.00000000E+00  0.00000000E+00  0.00000000E+00
  0.00000000E+00  0.00000000E+00  0.00000000E+00
  0.00000000E+00  0.00000000E+00  0.00000000E+00
  0.00000000E+00  0.00000000E+00  0.00000000E+00
  0.00000000E+00  0.00000000E+00  0.00000000E+00
  0.00000000E+00  0.00000000E+00  0.00000000E+00
  0.00000000E+00  0.00000000E+00  0.00000000E+00
  0.00000000E+00  0.00000000E+00  0.00000000E+00
  0.00000000E+00  0.00000000E+00  0.00000000E+00
  0.00000000E+00  0.00000000E+00  0.00000000E+00
  0.00000000E+00  0.00000000E+00  0.00000000E+00
  0.00000000E+00  0.00000000E+00  0.00000000E+00
  0.00000000E+00  0.00000000E+00  0.00000000E+00
  0.00000000E+00  0.00000000E+00  0.00000000E+00
  0.00000000E+00  0.00000000E+00  0.00000000E+00
  0.00000000E+00  0.00000000E+00  0.00000000E+00
  0.00000000E+00  0.00000000E+00  0.00000000E+00
  0.00000000E+00  0.00000000E+00  0.00000000E+00
  0.00000000E+00  0.00000000E+00  0.00000000E+00
  0.00000000E+00  0.00000000E+00  0.00000000E+00
  0.00000000E+00  0.00000000E+00  0.00000000E+00
  0.00000000E+00  0.00000000E+00  0.00000000E+00
  0.00000000E+00  0.00000000E+00  0.00000000E+00
  0.00000000E+00  0.00000000E+00  0.00000000E+00
  0.00000000E+00  0.00000000E+00  0.00000000E+00
  0.00000000E+00  0.00000000E+00  0.00000000E+00
  0.00000000E+00  0.00000000E+00  0.00000000E+00
  0.00000000E+00  0.00000000E+00  0.00000000E+00
  0.00000000E+00  0.00000000E+00  0.00000000E+00
  0.00000000E+00  0.00000000E+00  0.00000000E+00
  0.00000000E+00  0.00000000E+00  0.00000000E+00
  0.00000000E+00  0.00000000E+00  0.00000000E+00
  0.00000000E+00  0.00000000E+00  0.00000000E+00
  0.00000000E+00  0.00000000E+00  0.00000000E+00
  0.00000000E+00  0.00000000E+00  0.00000000E+00
  0.00000000E+00  0.00000000E+00  0.00000000E+00
  0.00000000E+00  0.00000000E+00  0.00000000E+00
  0.00000000E+00  0.00000000E+00  0.00000000E+00
  0.00000000E+00  0.00000000E+00  0.00000000E+00
  0.00000000E+00  0.00000000E+00  0.00000000E+00
  0.00000000E+00  0.00000000E+00  0.00000000E+00
  0.00000000E+00  0.00000000E+00  0.00000000E+00
  0.00000000E+00  0.00000000E+00  0.00000000E+00
  0.00000000E+00  0.00000000E+00  0.00000000E+00
  0.00000000E+00  0.00000000E+00  0.00000000E+00
  0.00000000E+00  0.00000000E+00  0.00000000E+00
  0.00000000E+00  0.00000000E+00  0.00000000E+00
  0.00000000E+00  0.00000000E+00  0.00000000E+00
  0.00000000E+00  0.00000000E+00  0.00000000E+00
  0.00000000E+00  0.00000000E+00  0.00000000E+00
  0.00000000E+00  0.00000000E+00  0.00000000E+00
  0.00000000E+00  0.00000000E+00  0.00000000E+00
  0.00000000E+00  0.00000000E+00  0.00000000E+00
  0.00000000E+00  0.00000000E+00  0.00000000E+00
  0.00000000E+00  0.00000000E+00  0.00000000E+00
  0.00000000E+00  0.00000000E+00  0.00000000E+00
  0.00000000E+00  0.00000000E+00  0.00000000E+00
  0.00000000E+00  0.00000000E+00  0.00000000E+00
  0.00000000E+00  0.00000000E+00  0.00000000E+00
  0.00000000E+00  0.00000000E+00  0.00000000E+00
  0.00000000E+00  0.00000000E+00  0.00000000E+00
  0.00000000E+00  0.00000000E+00  0.00000000E+00