FeMn_288_15                             
    1.000000000000000     
     9.7266779999999997    0.0000000000000000    0.0000000000000000
     0.0000000000000000    8.4235500000000005    0.0000000000000000
     0.0000000000000000    0.0000000000000000   45.0000000000000000
   Fe   Mn
   273    15
Direct
  0.6874391434334852  0.7913402236804211  0.6097631274242594
  0.4375280290130871  0.4603390183254318  0.8311710926960270
  0.5626344230164775  0.7034485601726710  0.3462915183617655
  0.5623871310868832  0.2070934995613695  0.5651324671453043
  0.5624073306639855  0.5411384054200095  0.6097655777794536
  0.6874347873108427  0.6191951319493856  0.3019832799250092
  0.8123306823042690  0.3766720696382213  0.7863729408043717
  0.8128584784110052  0.5372803394126109  0.3901349068096406
  0.8123476319615983  0.5425638951185271  0.7421597191439115
  0.8119059103809277  0.3725773616785450  0.5213409335457104
  0.9381161482545698  0.9613040996620935  0.8313480208861336
  0.5626396921626847  0.0440753897953890  0.8733549421683958
  0.8124030018128364  0.2055065242849707  0.4784751117606119
  0.5627175811308121  0.7087559543219251  0.6980858708970434
  0.3123940370862250  0.5370962184576843  0.3901530379707159
  0.1872286145505858  0.1224712945565390  0.5214515689907366
  0.6880331855649984  0.6246773913271640  0.6537829298966044
  0.9371596277971745  0.2830245697554186  0.1267656243642361
  0.5627741775396533  0.5352924359139107  0.2579637914124893
  0.9374161796363141  0.2872701334818281  0.3901457754901458
  0.0625311902194489  0.8678466371566264  0.1689575545021892
  0.1874064772298963  0.6225390069656920  0.5213951987747322
  0.8127102781221290  0.8668631379844481  0.1689604756886850
  0.3127018017195946  0.7109013960387565  0.8311050214927341
  0.3126657935560223  0.3766931946052683  0.7863000080834243
  0.3121420047671357  0.8724061597390482  0.5212572531017409
  0.8128922053812050  0.2102746623842379  0.8313786526423153
  0.0624508524565117  0.5406039614530049  0.6097525752079861
  0.0626972532245508  0.7067292131313514  0.5650567523043611
  0.0624610380449191  0.8684010715100263  0.3019836131032277
  0.1874906302419894  0.9528386975112214  0.3462586555213610
  0.9374326750611799  0.7933074469879011  0.7420414570276508
  0.6876148830847568  0.6221237689012095  0.5213728102642785
  0.1873788438008270  0.7842578633983034  0.1266775154728607
  0.6878849318326921  0.1209672344063075  0.4346721274331397
  0.8124595906427244  0.0429411683385894  0.7421409141678572
  0.5621382180058906  0.3747648726122020  0.6538607077038500
  0.5626793261622542  0.2056345881203883  0.4785336184181617
  0.1875550829389726  0.1175116895721141  0.1690628818685244
  0.4375621883841114  0.1270676440918513  0.7864505080987911
  0.0625624824949508  0.7026317224040224  0.3463055547769481
  0.4373908449100133  0.4549386163239309  0.4785552997673860
  0.9377161486822166  0.4530438945437288  0.3463221428482157
  0.8126524742841260  0.0402587454398074  0.6097313504212274
  0.5625295427538712  0.0345306504981653  0.2579518098972237
  0.1874300865304379  0.7930644784129568  0.7419769422661558
  0.5625911110500923  0.3728449106662398  0.5213864671138999
  0.8125802876944470  0.7051537082256029  0.4785148671801335
  0.3124381683547514  0.2030301342354984  0.3462582192974011
  0.0624170753944012  0.2010479479218262  0.2137700371661708
  0.8120828072871950  0.8769158287947691  0.7862473137208834
  0.0624791061795814  0.0348849721432740  0.2579320292516272
  0.9376218168773337  0.2902422087754803  0.6098500911158069
  0.3127480732416996  0.3712084155540601  0.4345380618644605
  0.5624947930955172  0.3692815856701179  0.3020120679384578
  0.6873996947786708  0.9606037111355554  0.8311364234958710
  0.1872391405746607  0.1248010698187047  0.6538369539103727
  0.6877744611252036  0.4550477062995840  0.4784267686987955
  0.8129901987480599  0.0345707045991636  0.1267023226746940
  0.0625055287358466  0.8710887329951419  0.4346928504728847
  0.4375416129979610  0.2909432088430827  0.6097334299335785
  0.5624611694185231  0.8748991442089518  0.6536780168335976
  0.0624373067985473  0.5372538377127496  0.3900745885234505
  0.3123392066084543  0.0431791241887386  0.7420260803518544
  0.4369797591077250  0.1169937735131128  0.1689470312503053
  0.3127418955456111  0.8689450114803740  0.3020679008780135
  0.6874175491777599  0.9552389906827035  0.4783448364559745
  0.9363710493437176  0.2936303148826497  0.8733860650628331
  0.9371355205228160  0.1212218948496287  0.4346546591294538
  0.9369900171245712  0.6271371584816701  0.7863629006395221
  0.6876592101497411  0.9533049764765689  0.3463181258318502
  0.1870953883909841  0.4531947149510301  0.3463060288899746
  0.5626185083668384  0.5428924613359379  0.7420506936190441
  0.3117921759405728  0.2069431981104619  0.5651781768138970
  0.0630314644514129  0.5344063904136698  0.1268113769923441
  0.5626193890400354  0.3710625943688637  0.4346173405109859
  0.6875138354612207  0.4507766698001832  0.2138567176619607
  0.9373256717467829  0.9527783886074780  0.3462568368281503
  0.9372817178981036  0.2848779177721423  0.2579357951614966
  0.1873003708184212  0.1268871020648227  0.7863838360966627
  0.3122066493126802  0.3690169172986326  0.3019807599090307
  0.9375653688203334  0.6214213363582347  0.4348694876784075
  0.3130187809987415  0.0446982832098518  0.8733409726437785
  0.6881166419827687  0.2841900735750814  0.1266872998512065
  0.1874099490120798  0.6249260720797355  0.6537800508004181
  0.0623360659461765  0.8746675307707804  0.6537289885957511
  0.6876560549520497  0.2926216016065046  0.7420996236009351
  0.1874383092532597  0.7849526788174391  0.2578901277028400
  0.3130720470057952  0.3729384795258536  0.5214374355974005
  0.9372957452268948  0.4512839834516553  0.2137782024503993
  0.3127653894134360  0.0348406112038050  0.2579354074678082
  0.6879295172762624  0.1222767917117929  0.5213806198437582
  0.6875671228734411  0.1270210182350872  0.7863439311542177
  0.8121263963482909  0.3710607715109821  0.4345304370996638
  0.9374113303704206  0.6187945365988725  0.3020622668332025
  0.1870539156151673  0.2908194004070053  0.6098854679942867
  0.6877178680056314  0.7938876831311802  0.8732779456271930
  0.3123054921385488  0.7062945569215762  0.5650454759668246
  0.4373935935727558  0.1189928358608077  0.3020610110788954
  0.0623528906699737  0.7049313980763066  0.4784941098612999
  0.1875362212569491  0.2872399149670090  0.3900905299120505
  0.3120546069961849  0.2101500767317500  0.8313074297048824
  0.9371854845020821  0.1228469953050472  0.5213679020330811
  0.5624580095132014  0.0430355551230664  0.7421233940088591
  0.5626278029098011  0.8709167560378409  0.4345960326864364
  0.1874141958463861  0.4512269706731631  0.2137453951958869
  0.0622457538444540  0.7085464171318288  0.6980123975727256
  0.4374063796083274  0.7841616990817926  0.1267710594378824
  0.9377224974229209  0.7932860343972807  0.8733821409212807
  0.9373503539270225  0.4551670489955835  0.4785317649265625
  0.8125284016878945  0.8713554749618354  0.4346387821807217
  0.5626143734157996  0.7106627829753545  0.8311939393761402
  0.0623672286858620  0.0373926309067106  0.3901252462056514
  0.1874828425685270  0.1209574505013964  0.4345928756257819
  0.0628236619331067  0.3747428415508895  0.6538236620127272
  0.6878349150809956  0.4534390215406537  0.3462791857239006
  0.3123024273259113  0.0406998478053984  0.6097273857278488
  0.8127615925337193  0.3688773335445597  0.3019356521112427
  0.5624255049049363  0.8694413580205047  0.3019914622772359
  0.0624782304079989  0.2029476571935600  0.3463218235146556
  0.4375394644933864  0.2868193991975847  0.3900722547711559
  0.6876599594039429  0.7846440868375737  0.2578771059601832
  0.3124363403026872  0.3669632138415082  0.1689289144231480
  0.4369600636846439  0.7907105833962141  0.6096706390766810
  0.9375519979764646  0.4606538508210680  0.8311151717957154
  0.9373695146759392  0.7848929586720740  0.2578766459279270
  0.4376477692811061  0.9547939939650510  0.4783852879528750
  0.3126633352072875  0.5428474776361200  0.7420760895736891
  0.5628362866872265  0.2084731373901069  0.6981510725178407
  0.6879945898935624  0.2938266871438502  0.8734729559727430
  0.8123467467037585  0.8687665997852412  0.3020580500223316
  0.4373831938040834  0.7870998459604699  0.3900935271062194
  0.4373494652005253  0.6208997634292881  0.4347476819380650
  0.5623879571194432  0.0342369442599956  0.1268501229106908
  0.1876975524182095  0.6212871251891505  0.4344965488270730
  0.8123095378595494  0.7106388976386722  0.8311335828585356
  0.8120120278890163  0.5350661441207267  0.2578902553961256
  0.0630409857853655  0.2061710352229488  0.5651358136770785
  0.9374424685822998  0.2926994276567589  0.7422176564281198
  0.0623132282301414  0.5436843809260415  0.8733540950135144
  0.5625030771131473  0.2009474740276446  0.2136671547523479
  0.8121424755719076  0.7064529306283795  0.5650406383648784
  0.0625955096983521  0.3687168707838210  0.3020567899255823
  0.9374891682123496  0.1269571508924778  0.7864612079128407
  0.4374673396019214  0.9590599787259076  0.6980819272893120
  0.8119101315208721  0.3672585677338361  0.1688693939511417
  0.1882400703516175  0.2936315451854590  0.8733999296884598
  0.3121173535476424  0.2057087382894444  0.4785202410065907
  0.8118974620349738  0.0448003161369980  0.8733537013661745
  0.5628276906322106  0.3765390348937662  0.7865437316536137
  0.0623724578071122  0.7012827242977250  0.2137702498150519
  0.5627112058820319  0.2105120193055562  0.8312425047662134
  0.0628258807259328  0.2049164782985139  0.4783562300114197
  0.9373117869074084  0.7871335005524233  0.3901424823372602
  0.3122768990619475  0.7088768098144652  0.6980141027187345
  0.1877664043452372  0.2927028431462680  0.7420535116409052
  0.4377467703790522  0.9605521270621336  0.8312275687252371
  0.6873970509334668  0.6211474005873403  0.4345879468082539
  0.8126216209060012  0.2008194373689883  0.2137402182729476
  0.3121229790960172  0.8748645841154932  0.6536595913744419
  0.4375437114788967  0.1209520618511101  0.4349139700374825
  0.6873729165538111  0.2910635002130007  0.6098376641603412
  0.6877424002732202  0.9507136201847260  0.2137081654452601
  0.8123870859979248  0.5438398705605245  0.8733192063927123
  0.8129640895693552  0.7012403203269055  0.2138491203799927
  0.9378040674017382  0.1174090342760698  0.1689610486683411
  0.8127453182222711  0.7089731910017816  0.6980010959452703
  0.6877071223842317  0.7841106827741894  0.1266304996230534
  0.5624269248101477  0.2033613580386653  0.3463024165167521
  0.4372116633617788  0.2930468319157293  0.7421577155010955
  0.9377544404152385  0.7902604948530907  0.6096464553646473
  0.4375196724566491  0.4533502982241492  0.3462702277767921
  0.0622904234132128  0.8774205945052284  0.7863633365261818
  0.3120408307120714  0.3749514049995964  0.6538578052986239
  0.6875799932792374  0.2848150320228813  0.2578984934106350
  0.4374938318621420  0.2834240902194435  0.1268623590388478
  0.4374008720921553  0.6179628533790635  0.1689686962737422
  0.1876575592687686  0.7908221270297840  0.6098269260755480
  0.4378358577465449  0.6265065619566057  0.7863418593986927
  0.1873175853357460  0.4586940658952355  0.6979975091520396
  0.1875939648072410  0.4553449369923541  0.4785365797918223
  0.4367470283093617  0.6252178638311038  0.6536653333489031
  0.4375217778607949  0.2851243976268847  0.2578598231707991
  0.3123261171769975  0.7010095162720862  0.2137357770867853
  0.9376016330612204  0.6178563010947702  0.1689129212320456
  0.8122576178547335  0.8726276444706716  0.5212854411523316
  0.0620563962061057  0.3771417880254949  0.7863735761491586
  0.0625431166436975  0.3712101640252693  0.4348662141968895
  0.4375866984989950  0.7928254034228407  0.7420451184736967
  0.8130100210621543  0.3747377991062851  0.6538306067876015
  0.5622988024125617  0.0369580377165503  0.3901072678019388
  0.1871369084716160  0.7934872232821527  0.8733304598991212
  0.3125559200984704  0.5437587585764871  0.8732988295533722
  0.6876189672604013  0.7930661717452216  0.7421493470993213
  0.0623939611198603  0.7113081125876065  0.8313490029626529
  0.4376467938979975  0.9555781844366221  0.5650789239013467
  0.6874771829368096  0.2873256837715784  0.3901526942293394
  0.3124319019489989  0.2009330665153672  0.2137627804425813
  0.5626404849283095  0.5440476844770176  0.8732533832204198
  0.9376330576757607  0.9588031893175952  0.6980040786060189
  0.1877693497400673  0.4564214567592026  0.5651339203146897
  0.1867120369026744  0.9612853949858564  0.8313415403020045
  0.6876505232125761  0.1168171364753604  0.1689418278617774
  0.5622493684196254  0.7011804227485612  0.2138675913434388
  0.1872729899047253  0.9592177500237512  0.6979927893218736
  0.1872922882056948  0.2837110941715154  0.1267545258267974
  0.9375777298168968  0.1185338147629476  0.3020472054042905
  0.4371180421721666  0.1246808009748473  0.6537812734236331
  0.3124644643961528  0.7051924694098497  0.4785000038783638
  0.8124602583417496  0.2087689856912348  0.6981375622853987
  0.5631876237248278  0.8724365917747511  0.5212845157210091
  0.6873639351596595  0.7869981055780003  0.3900526762690916
  0.1876118379334445  0.1185083803844221  0.3020525051430900
  0.3122136473832808  0.0336915367756573  0.1267340734465562
  0.1872960863246520  0.4607959493038978  0.8312559026815602
  0.0628381903439598  0.8726709137220591  0.5213291963130846
  0.6875467522974212  0.4601906788975423  0.8310843798961804
  0.0626379482706945  0.0430558472299228  0.7420971516969415
  0.8122756973874153  0.0346808778425800  0.2579163516782956
  0.9381402623931137  0.1246044750535196  0.6538100139657079
  0.8122206512551164  0.7029978613553431  0.3463605392073239
  0.6874740337898312  0.6263196089226394  0.7864087014117281
  0.9373647066440164  0.9548785273708332  0.4784816827635456
  0.4374228414103248  0.9507145139515414  0.2137662299758893
  0.4372763216323350  0.6226152068324962  0.5214008534113684
  0.3125631087971188  0.5413201619673697  0.6097393798828242
  0.4376169311982095  0.6193796234356613  0.3020465450972458
  0.3129229655479028  0.8767048897157577  0.7863100039839217
  0.1878471697953170  0.7872632051833763  0.3901656950100389
  0.4375642521097088  0.4567474125865223  0.5650569106938496
  0.4377706280009546  0.4512031619390113  0.2138100250506015
  0.9380158121513631  0.6241723293456579  0.6537954851527616
  0.6877210625343755  0.4564611096741314  0.5650693774434160
  0.4376048714311667  0.7851978226173586  0.2579141940658162
  0.3128277637035436  0.7034603591805342  0.3463585159582842
  0.9378774256983098  0.4590849189594686  0.6980630954704615
  0.0622461329898744  0.0335463138720685  0.1267456484583807
  0.8127135534437818  0.2033198724535193  0.3462784427383719
  0.9375326085064353  0.9511185957045170  0.2137994491264550
  0.0623856410731148  0.5429521894944140  0.7420246168312548
  0.5631936197520594  0.3674711977239593  0.1689790860113866
  0.3116367212812057  0.5345928894912344  0.1268359276799674
  0.5624156817941309  0.8666836416141038  0.1689538565136570
  0.1875429165335465  0.6269894664622214  0.7863310997655908
  0.5626125283948050  0.7054850870684271  0.4784360608924741
  0.1873219112040039  0.6173172559297497  0.1689918646370179
  0.0623061577727934  0.2095059545258511  0.8313392798780269
  0.8127246195335890  0.0372629415204425  0.3901666976160612
  0.1873224742192097  0.9511299505554592  0.2137467280445515
  0.6874451923256581  0.1191507932209481  0.3020688985536482
  0.3128426485379648  0.5352391497113641  0.2579075576927960
  0.9374339012798992  0.4568109018148250  0.5651199275097519
  0.3122884578230808  0.8676144916613243  0.1689877505984667
  0.6874601333185584  0.4589596078148874  0.6980609773578385
  0.8126721067067694  0.5410055606135588  0.6098197677330891
  0.0623485688574892  0.2089824990379562  0.6980452534443298
  0.1878714555516302  0.9562885719377230  0.5650288834559155
  0.4373307909146291  0.2938813721111389  0.8734231464395326
  0.1876543106574237  0.2848914345319430  0.2579596424277416
  0.5631522207692845  0.5344911208015443  0.1266468506504154
  0.6864804997600158  0.9566663717256890  0.5650605445091673
  0.3123088387503624  0.8708427400427435  0.4345906345357996
  0.8120947233149273  0.5342957135074818  0.1266174121997685
  0.8127860686653395  0.8748498678224065  0.6538458461181219
  0.5620875271447621  0.7066314810558165  0.5650351072058939
  0.1876523813089780  0.6189003921027164  0.3020927274772318
  0.0625223952156394  0.3672418206435046  0.1689820838161710
  0.4370982916846933  0.4585190864568060  0.6980913561684685
  0.4374331133061980  0.7938862898757824  0.8732557486343749
  0.1877572152103503  0.9556871176516606  0.4783827080892319
  0.9374349208300037  0.7842246224899925  0.1267780268669008
  0.5626921099714165  0.8769721109777501  0.7863856908797239
  0.3125746638389386  0.0369336043376783  0.3900869379633832
  0.4373613766017364  0.1226448749565992  0.5212402561399302
  0.5622709826684719  0.0411971043784572  0.6095522746941249
  0.5624431168585980  0.5372176642908316  0.3899886584947850
  0.0628609959398623  0.3724981982444521  0.5213550664104448
  0.9381226327505791  0.9548903510237774  0.5648871545499222
  0.6875217878103270  0.9579086451906723  0.6982600220135077
  0.9376538324600545  0.6232457635842389  0.5213386675111263
  0.0624100704978275  0.0439792990175240  0.8731007741086759
  0.8125536577962359  0.2071246026162729  0.5651145802314375
  0.4375498496793285  0.9533792716050687  0.3463752036523717
  0.0624483319210028  0.5349685672084259  0.2578304372316421
  0.6880339349602502  0.1251755648305596  0.6538156954344945
  0.6876492583014914  0.6174661166115266  0.1683545774416742
  0.3122980872810172  0.2091842577850507  0.6981657891327173
  0.0628425329403715  0.0406572618099006  0.6099918058490549
 
  0.00000000E+00  0.00000000E+00  0.00000000E+00
  0.00000000E+00  0.00000000E+00  0.00000000E+00
  0.00000000E+00  0.00000000E+00  0.00000000E+00
  0.00000000E+00  0.00000000E+00  0.00000000E+00
  0.00000000E+00  0.00000000E+00  0.00000000E+00
  0.00000000E+00  0.00000000E+00  0.00000000E+00
  0.00000000E+00  0.00000000E+00  0.00000000E+00
  0.00000000E+00  0.00000000E+00  0.00000000E+00
  0.00000000E+00  0.00000000E+00  0.00000000E+00
  0.00000000E+00  0.00000000E+00  0.00000000E+00
  0.00000000E+00  0.00000000E+00  0.00000000E+00
  0.00000000E+00  0.00000000E+00  0.00000000E+00
  0.00000000E+00  0.00000000E+00  0.00000000E+00
  0.00000000E+00  0.00000000E+00  0.00000000E+00
  0.00000000E+00  0.00000000E+00  0.00000000E+00
  0.00000000E+00  0.00000000E+00  0.00000000E+00
  0.00000000E+00  0.00000000E+00  0.00000000E+00
  0.00000000E+00  0.00000000E+00  0.00000000E+00
  0.00000000E+00  0.00000000E+00  0.00000000E+00
  0.00000000E+00  0.00000000E+00  0.00000000E+00
  0.00000000E+00  0.00000000E+00  0.00000000E+00
  0.00000000E+00  0.00000000E+00  0.00000000E+00
  0.00000000E+00  0.00000000E+00  0.00000000E+00
  0.00000000E+00  0.00000000E+00  0.00000000E+00
  0.00000000E+00  0.00000000E+00  0.00000000E+00
  0.00000000E+00  0.00000000E+00  0.00000000E+00
  0.00000000E+00  0.00000000E+00  0.00000000E+00
  0.00000000E+00  0.00000000E+00  0.00000000E+00
  0.00000000E+00  0.00000000E+00  0.00000000E+00
  0.00000000E+00  0.00000000E+00  0.00000000E+00
  0.00000000E+00  0.00000000E+00  0.00000000E+00
  0.00000000E+00  0.00000000E+00  0.00000000E+00
  0.00000000E+00  0.00000000E+00  0.00000000E+00
  0.00000000E+00  0.00000000E+00  0.00000000E+00
  0.00000000E+00  0.00000000E+00  0.00000000E+00
  0.00000000E+00  0.00000000E+00  0.00000000E+00
  0.00000000E+00  0.00000000E+00  0.00000000E+00
  0.00000000E+00  0.00000000E+00  0.00000000E+00
  0.00000000E+00  0.00000000E+00  0.00000000E+00
  0.00000000E+00  0.00000000E+00  0.00000000E+00
  0.00000000E+00  0.00000000E+00  0.00000000E+00
  0.00000000E+00  0.00000000E+00  0.00000000E+00
  0.00000000E+00  0.00000000E+00  0.00000000E+00
  0.00000000E+00  0.00000000E+00  0.00000000E+00
  0.00000000E+00  0.00000000E+00  0.00000000E+00
  0.00000000E+00  0.00000000E+00  0.00000000E+00
  0.00000000E+00  0.00000000E+00  0.00000000E+00
  0.00000000E+00  0.00000000E+00  0.00000000E+00
  0.00000000E+00  0.00000000E+00  0.00000000E+00
  0.00000000E+00  0.00000000E+00  0.00000000E+00
  0.00000000E+00  0.00000000E+00  0.00000000E+00
  0.00000000E+00  0.00000000E+00  0.00000000E+00
  0.00000000E+00  0.00000000E+00  0.00000000E+00
  0.00000000E+00  0.00000000E+00  0.00000000E+00
  0.00000000E+00  0.00000000E+00  0.00000000E+00
  0.00000000E+00  0.00000000E+00  0.00000000E+00
  0.00000000E+00  0.00000000E+00  0.00000000E+00
  0.00000000E+00  0.00000000E+00  0.00000000E+00
  0.00000000E+00  0.00000000E+00  0.00000000E+00
  0.00000000E+00  0.00000000E+00  0.00000000E+00
  0.00000000E+00  0.00000000E+00  0.00000000E+00
  0.00000000E+00  0.00000000E+00  0.00000000E+00
  0.00000000E+00  0.00000000E+00  0.00000000E+00
  0.00000000E+00  0.00000000E+00  0.00000000E+00
  0.00000000E+00  0.00000000E+00  0.00000000E+00
  0.00000000E+00  0.00000000E+00  0.00000000E+00
  0.00000000E+00  0.00000000E+00  0.00000000E+00
  0.00000000E+00  0.00000000E+00  0.00000000E+00
  0.00000000E+00  0.00000000E+00  0.00000000E+00
  0.00000000E+00  0.00000000E+00  0.00000000E+00
  0.00000000E+00  0.00000000E+00  0.00000000E+00
  0.00000000E+00  0.00000000E+00  0.00000000E+00
  0.00000000E+00  0.00000000E+00  0.00000000E+00
  0.00000000E+00  0.00000000E+00  0.00000000E+00
  0.00000000E+00  0.00000000E+00  0.00000000E+00
  0.00000000E+00  0.00000000E+00  0.00000000E+00
  0.00000000E+00  0.00000000E+00  0.00000000E+00
  0.00000000E+00  0.00000000E+00  0.00000000E+00
  0.00000000E+00  0.00000000E+00  0.00000000E+00
  0.00000000E+00  0.00000000E+00  0.00000000E+00
  0.00000000E+00  0.00000000E+00  0.00000000E+00
  0.00000000E+00  0.00000000E+00  0.00000000E+00
  0.00000000E+00  0.00000000E+00  0.00000000E+00
  0.00000000E+00  0.00000000E+00  0.00000000E+00
  0.00000000E+00  0.00000000E+00  0.00000000E+00
  0.00000000E+00  0.00000000E+00  0.00000000E+00
  0.00000000E+00  0.00000000E+00  0.00000000E+00
  0.00000000E+00  0.00000000E+00  0.00000000E+00
  0.00000000E+00  0.00000000E+00  0.00000000E+00
  0.00000000E+00  0.00000000E+00  0.00000000E+00
  0.00000000E+00  0.00000000E+00  0.00000000E+00
  0.00000000E+00  0.00000000E+00  0.00000000E+00
  0.00000000E+00  0.00000000E+00  0.00000000E+00
  0.00000000E+00  0.00000000E+00  0.00000000E+00
  0.00000000E+00  0.00000000E+00  0.00000000E+00
  0.00000000E+00  0.00000000E+00  0.00000000E+00
  0.00000000E+00  0.00000000E+00  0.00000000E+00
  0.00000000E+00  0.00000000E+00  0.00000000E+00
  0.00000000E+00  0.00000000E+00  0.00000000E+00
  0.00000000E+00  0.00000000E+00  0.00000000E+00
  0.00000000E+00  0.00000000E+00  0.00000000E+00
  0.00000000E+00  0.00000000E+00  0.00000000E+00
  0.00000000E+00  0.00000000E+00  0.00000000E+00
  0.00000000E+00  0.00000000E+00  0.00000000E+00
  0.00000000E+00  0.00000000E+00  0.00000000E+00
  0.00000000E+00  0.00000000E+00  0.00000000E+00
  0.00000000E+00  0.00000000E+00  0.00000000E+00
  0.00000000E+00  0.00000000E+00  0.00000000E+00
  0.00000000E+00  0.00000000E+00  0.00000000E+00
  0.00000000E+00  0.00000000E+00  0.00000000E+00
  0.00000000E+00  0.00000000E+00  0.00000000E+00
  0.00000000E+00  0.00000000E+00  0.00000000E+00
  0.00000000E+00  0.00000000E+00  0.00000000E+00
  0.00000000E+00  0.00000000E+00  0.00000000E+00
  0.00000000E+00  0.00000000E+00  0.00000000E+00
  0.00000000E+00  0.00000000E+00  0.00000000E+00
  0.00000000E+00  0.00000000E+00  0.00000000E+00
  0.00000000E+00  0.00000000E+00  0.00000000E+00
  0.00000000E+00  0.00000000E+00  0.00000000E+00
  0.00000000E+00  0.00000000E+00  0.00000000E+00
  0.00000000E+00  0.00000000E+00  0.00000000E+00
  0.00000000E+00  0.00000000E+00  0.00000000E+00
  0.00000000E+00  0.00000000E+00  0.00000000E+00
  0.00000000E+00  0.00000000E+00  0.00000000E+00
  0.00000000E+00  0.00000000E+00  0.00000000E+00
  0.00000000E+00  0.00000000E+00  0.00000000E+00
  0.00000000E+00  0.00000000E+00  0.00000000E+00
  0.00000000E+00  0.00000000E+00  0.00000000E+00
  0.00000000E+00  0.00000000E+00  0.00000000E+00
  0.00000000E+00  0.00000000E+00  0.00000000E+00
  0.00000000E+00  0.00000000E+00  0.00000000E+00
  0.00000000E+00  0.00000000E+00  0.00000000E+00
  0.00000000E+00  0.00000000E+00  0.00000000E+00
  0.00000000E+00  0.00000000E+00  0.00000000E+00
  0.00000000E+00  0.00000000E+00  0.00000000E+00
  0.00000000E+00  0.00000000E+00  0.00000000E+00
  0.00000000E+00  0.00000000E+00  0.00000000E+00
  0.00000000E+00  0.00000000E+00  0.00000000E+00
  0.00000000E+00  0.00000000E+00  0.00000000E+00
  0.00000000E+00  0.00000000E+00  0.00000000E+00
  0.00000000E+00  0.00000000E+00  0.00000000E+00
  0.00000000E+00  0.00000000E+00  0.00000000E+00
  0.00000000E+00  0.00000000E+00  0.00000000E+00
  0.00000000E+00  0.00000000E+00  0.00000000E+00
  0.00000000E+00  0.00000000E+00  0.00000000E+00
  0.00000000E+00  0.00000000E+00  0.00000000E+00
  0.00000000E+00  0.00000000E+00  0.00000000E+00
  0.00000000E+00  0.00000000E+00  0.00000000E+00
  0.00000000E+00  0.00000000E+00  0.00000000E+00
  0.00000000E+00  0.00000000E+00  0.00000000E+00
  0.00000000E+00  0.00000000E+00  0.00000000E+00
  0.00000000E+00  0.00000000E+00  0.00000000E+00
  0.00000000E+00  0.00000000E+00  0.00000000E+00
  0.00000000E+00  0.00000000E+00  0.00000000E+00
  0.00000000E+00  0.00000000E+00  0.00000000E+00
  0.00000000E+00  0.00000000E+00  0.00000000E+00
  0.00000000E+00  0.00000000E+00  0.00000000E+00
  0.00000000E+00  0.00000000E+00  0.00000000E+00
  0.00000000E+00  0.00000000E+00  0.00000000E+00
  0.00000000E+00  0.00000000E+00  0.00000000E+00
  0.00000000E+00  0.00000000E+00  0.00000000E+00
  0.00000000E+00  0.00000000E+00  0.00000000E+00
  0.00000000E+00  0.00000000E+00  0.00000000E+00
  0.00000000E+00  0.00000000E+00  0.00000000E+00
  0.00000000E+00  0.00000000E+00  0.00000000E+00
  0.00000000E+00  0.00000000E+00  0.00000000E+00
  0.00000000E+00  0.00000000E+00  0.00000000E+00
  0.00000000E+00  0.00000000E+00  0.00000000E+00
  0.00000000E+00  0.00000000E+00  0.00000000E+00
  0.00000000E+00  0.00000000E+00  0.00000000E+00
  0.00000000E+00  0.00000000E+00  0.00000000E+00
  0.00000000E+00  0.00000000E+00  0.00000000E+00
  0.00000000E+00  0.00000000E+00  0.00000000E+00
  0.00000000E+00  0.00000000E+00  0.00000000E+00
  0.00000000E+00  0.00000000E+00  0.00000000E+00
  0.00000000E+00  0.00000000E+00  0.00000000E+00
  0.00000000E+00  0.00000000E+00  0.00000000E+00
  0.00000000E+00  0.00000000E+00  0.00000000E+00
  0.00000000E+00  0.00000000E+00  0.00000000E+00
  0.00000000E+00  0.00000000E+00  0.00000000E+00
  0.00000000E+00  0.00000000E+00  0.00000000E+00
  0.00000000E+00  0.00000000E+00  0.00000000E+00
  0.00000000E+00  0.00000000E+00  0.00000000E+00
  0.00000000E+00  0.00000000E+00  0.00000000E+00
  0.00000000E+00  0.00000000E+00  0.00000000E+00
  0.00000000E+00  0.00000000E+00  0.00000000E+00
  0.00000000E+00  0.00000000E+00  0.00000000E+00
  0.00000000E+00  0.00000000E+00  0.00000000E+00
  0.00000000E+00  0.00000000E+00  0.00000000E+00
  0.00000000E+00  0.00000000E+00  0.00000000E+00
  0.00000000E+00  0.00000000E+00  0.00000000E+00
  0.00000000E+00  0.00000000E+00  0.00000000E+00
  0.00000000E+00  0.00000000E+00  0.00000000E+00
  0.00000000E+00  0.00000000E+00  0.00000000E+00
  0.00000000E+00  0.00000000E+00  0.00000000E+00
  0.00000000E+00  0.00000000E+00  0.00000000E+00
  0.00000000E+00  0.00000000E+00  0.00000000E+00
  0.00000000E+00  0.00000000E+00  0.00000000E+00
  0.00000000E+00  0.00000000E+00  0.00000000E+00
  0.00000000E+00  0.00000000E+00  0.00000000E+00
  0.00000000E+00  0.00000000E+00  0.00000000E+00
  0.00000000E+00  0.00000000E+00  0.00000000E+00
  0.00000000E+00  0.00000000E+00  0.00000000E+00
  0.00000000E+00  0.00000000E+00  0.00000000E+00
  0.00000000E+00  0.00000000E+00  0.00000000E+00
  0.00000000E+00  0.00000000E+00  0.00000000E+00
  0.00000000E+00  0.00000000E+00  0.00000000E+00
  0.00000000E+00  0.00000000E+00  0.00000000E+00
  0.00000000E+00  0.00000000E+00  0.00000000E+00
  0.00000000E+00  0.00000000E+00  0.00000000E+00
  0.00000000E+00  0.00000000E+00  0.00000000E+00
  0.00000000E+00  0.00000000E+00  0.00000000E+00
  0.00000000E+00  0.00000000E+00  0.00000000E+00
  0.00000000E+00  0.00000000E+00  0.00000000E+00
  0.00000000E+00  0.00000000E+00  0.00000000E+00
  0.00000000E+00  0.00000000E+00  0.00000000E+00
  0.00000000E+00  0.00000000E+00  0.00000000E+00
  0.00000000E+00  0.00000000E+00  0.00000000E+00
  0.00000000E+00  0.00000000E+00  0.00000000E+00
  0.00000000E+00  0.00000000E+00  0.00000000E+00
  0.00000000E+00  0.00000000E+00  0.00000000E+00
  0.00000000E+00  0.00000000E+00  0.00000000E+00
  0.00000000E+00  0.00000000E+00  0.00000000E+00
  0.00000000E+00  0.00000000E+00  0.00000000E+00
  0.00000000E+00  0.00000000E+00  0.00000000E+00
  0.00000000E+00  0.00000000E+00  0.00000000E+00
  0.00000000E+00  0.00000000E+00  0.00000000E+00
  0.00000000E+00  0.00000000E+00  0.00000000E+00
  0.00000000E+00  0.00000000E+00  0.00000000E+00
  0.00000000E+00  0.00000000E+00  0.00000000E+00
  0.00000000E+00  0.00000000E+00  0.00000000E+00
  0.00000000E+00  0.00000000E+00  0.00000000E+00
  0.00000000E+00  0.00000000E+00  0.00000000E+00
  0.00000000E+00  0.00000000E+00  0.00000000E+00
  0.00000000E+00  0.00000000E+00  0.00000000E+00
  0.00000000E+00  0.00000000E+00  0.00000000E+00
  0.00000000E+00  0.00000000E+00  0.00000000E+00
  0.00000000E+00  0.00000000E+00  0.00000000E+00
  0.00000000E+00  0.00000000E+00  0.00000000E+00
  0.00000000E+00  0.00000000E+00  0.00000000E+00
  0.00000000E+00  0.00000000E+00  0.00000000E+00
  0.00000000E+00  0.00000000E+00  0.00000000E+00
  0.00000000E+00  0.00000000E+00  0.00000000E+00
  0.00000000E+00  0.00000000E+00  0.00000000E+00
  0.00000000E+00  0.00000000E+00  0.00000000E+00
  0.00000000E+00  0.00000000E+00  0.00000000E+00
  0.00000000E+00  0.00000000E+00  0.00000000E+00