FeMn_288_15                             
    1.000000000000000     
     9.7266779999999997    0.0000000000000000    0.0000000000000000
     0.0000000000000000    8.4235500000000005    0.0000000000000000
     0.0000000000000000    0.0000000000000000   45.0000000000000000
   Fe   Mn
   273    15
Direct
  0.6876281312463122  0.7912592076277192  0.6097860342881508
  0.4373914483688709  0.4605285117340708  0.8310500388842612
  0.5626778990161422  0.7032676997597298  0.3463259450330657
  0.5623833202239016  0.2071232787339409  0.5651050656900685
  0.5624806818146558  0.5410088004440191  0.6098497034370116
  0.6875185495042035  0.6191553725188937  0.3019566752030159
  0.8125738095324714  0.3769505002859579  0.7862826935110823
  0.8129368433823012  0.5372641155610626  0.3902328230555349
  0.8125214183196254  0.5426054494013137  0.7422288560893463
  0.8117218621113268  0.3724759767959006  0.5212937761351314
  0.9381126035367133  0.9611146827752165  0.8311913454917720
  0.5625513220012590  0.0439245852250245  0.8733130878081726
  0.8124379152402914  0.2054051815366848  0.4785890339539334
  0.5626237640196327  0.7085152604481990  0.6980438738759281
  0.3122567904364921  0.5369374728581462  0.3902509113074956
  0.1873330193881793  0.1223570605917176  0.5213476566559527
  0.6876113866043110  0.6246775526037415  0.6536685198576176
  0.9374763217115147  0.2833248740665733  0.1268440685034790
  0.5626794773082718  0.5350305997108031  0.2578970677429869
  0.9375706552771137  0.2870905726520191  0.3902345159850684
  0.0625672022018926  0.8679179110749273  0.1690033443891596
  0.1876318416671926  0.6225552574397247  0.5213001284445024
  0.8126835602058389  0.8668102379558081  0.1690244657089175
  0.3126946647043797  0.7106851942043760  0.8309327694974272
  0.3124432818845209  0.3769431275907359  0.7862378544817498
  0.3122643636052812  0.8725520688497613  0.5211558136111992
  0.8129033572711770  0.2103101844614165  0.8312171836512873
  0.0624130463717077  0.5405117059478804  0.6097108588359303
  0.0627411391813600  0.7067778142278001  0.5651145775668573
  0.0624111623296632  0.8684236058410079  0.3019312315666552
  0.1872914417127758  0.9529215261591045  0.3463635344731667
  0.9375188294284208  0.7930350383211056  0.7421500391176692
  0.6874235312566092  0.6221976957231142  0.5212895561297721
  0.1874560664653153  0.7840399486519685  0.1268231396147048
  0.6878548849618074  0.1210756111290887  0.4347708904889465
  0.8125056088016424  0.0430229108381515  0.7422307445244526
  0.5620784314729335  0.3748102306408084  0.6537350980391788
  0.5625489813378339  0.2056699340002122  0.4786753378211331
  0.1875994705039587  0.1177111596329058  0.1690977909565166
  0.4373923264754735  0.1269266113524416  0.7863821382463480
  0.0625460947794692  0.7026779657399030  0.3463828897538576
  0.4374087364579773  0.4550091659870851  0.4786270730019728
  0.9377255560721401  0.4529941176816191  0.3463702646644723
  0.8124607341166720  0.0402593704662037  0.6097278704968310
  0.5624897550583349  0.0347843416836095  0.2578853013823578
  0.1874126349393187  0.7928790103137633  0.7421219393779303
  0.5626423522968507  0.3727804613892899  0.5213138156022057
  0.8123653859859289  0.7051919938011046  0.4786119673534360
  0.3123728406337217  0.2031658715748209  0.3463449373104933
  0.0624911896146548  0.2011585720252985  0.2137812113824742
  0.8121386042743594  0.8766638209512456  0.7861761618487251
  0.0625080547104099  0.0350123059567259  0.2579073606878444
  0.9375054844193275  0.2903652546740788  0.6097949140726537
  0.3127577008337611  0.3711652087639777  0.4346415699415201
  0.5625165811893590  0.3691558012633114  0.3019575333197530
  0.6872825453714883  0.9604450824027418  0.8309952639816546
  0.1874521121142521  0.1249021335498513  0.6537153415783168
  0.6876333283160410  0.4551940408599744  0.4785315104870021
  0.8129511198151980  0.0344672280667857  0.1268515051878623
  0.0625209610942714  0.8711822113115855  0.4347762482993566
  0.4376215040025847  0.2910429327134211  0.6097734087404676
  0.5625324769492778  0.8746134223506832  0.6535631332743377
  0.0624500609975525  0.5372107044710197  0.3901716892757765
  0.3123814535516075  0.0430601920986585  0.7421615715190739
  0.4370313823522863  0.1171808884802605  0.1689870383414247
  0.3125991103532546  0.8688929936139231  0.3019850903539206
  0.6873717528947324  0.9551556921359241  0.4785018390553838
  0.9364962935430026  0.2939667465241316  0.8732736180332242
  0.9373149941544331  0.1212247879131828  0.4347335522231420
  0.9373136206320923  0.6270959771656572  0.7862516779765844
  0.6878040379438622  0.9533734463054422  0.3463762940331880
  0.1870834978600132  0.4530984007110386  0.3463792802535843
  0.5626085389360436  0.5429147128316444  0.7421169820951674
  0.3119220982978114  0.2068840557835323  0.5651763509862451
  0.0631354813186293  0.5341820432081621  0.1268477799752093
  0.5625629432643590  0.3711487384709186  0.4347380982570584
  0.6874040755675186  0.4505432006737252  0.2138213792496728
  0.9374194036388479  0.9528412562137932  0.3463456480303802
  0.9373679299101723  0.2850001801102722  0.2579071604008334
  0.1874551958121253  0.1269535575708427  0.7863141484941000
  0.3121716733661101  0.3689967007396998  0.3018927966631749
  0.9376002707569777  0.6214042632831929  0.4349661399227069
  0.3131189294731601  0.0446334155756676  0.8732551789622822
  0.6877434262676897  0.2845266253252421  0.1268321650279999
  0.1876197600739219  0.6248114656203061  0.6536764930336384
  0.0622607531141723  0.8744244706281814  0.6536330194304061
  0.6877114955207945  0.2926779689854029  0.7421340420857451
  0.1873804858659144  0.7847941231505673  0.2578550559871172
  0.3130521081805679  0.3727710493314347  0.5213653318865563
  0.9373334872161014  0.4511211569345860  0.2137968244841487
  0.3128640320760685  0.0350440427671040  0.2578724973003292
  0.6877290507934758  0.1221322770530001  0.5213184219668330
  0.6873989615632612  0.1268771834179609  0.7862694188707836
  0.8120606795168799  0.3711121496212988  0.4346204131091754
  0.9374820688131071  0.6187461719656291  0.3019902670287007
  0.1871604854777691  0.2910947876122724  0.6098468653860682
  0.6875944037891422  0.7936413756771797  0.8732204789099993
  0.3123571795510461  0.7063359706054526  0.5650258930628623
  0.4374538654039671  0.1191766050264653  0.3019591920307829
  0.0625307759683591  0.7051273647165827  0.4785746763321105
  0.1874209706970551  0.2870510720881189  0.3901832094942447
  0.3120958381516838  0.2103729768545126  0.8311372250812609
  0.9372295082838051  0.1227957953128667  0.5212819296596428
  0.5623190035034058  0.0431395822214470  0.7422287708300161
  0.5626532159826908  0.8708438554972190  0.4347186775544414
  0.1875056579422498  0.4511027198077677  0.2137776552459763
  0.0622265306987977  0.7084564153899483  0.6980794382963280
  0.4375618185098000  0.7838948259188495  0.1268236359401212
  0.9377057782999415  0.7929891121727114  0.8732797513993266
  0.9374665283462010  0.4550067074535113  0.4785947337398717
  0.8125749066792198  0.8713190077322623  0.4347357816660931
  0.5624839020346261  0.7104833986505016  0.8310660247602425
  0.0623752279195022  0.0374321143951206  0.3902124014589951
  0.1873627686513862  0.1210529802657172  0.4346713287598007
  0.0628780749840066  0.3748614238340910  0.6536938871629744
  0.6878140365463646  0.4533638670341594  0.3463282337608804
  0.3123900267656988  0.0408581712142233  0.6096892500905952
  0.8128282586849686  0.3687708545074163  0.3018736983491666
  0.5625187248593981  0.8695160219937472  0.3019094325412033
  0.0625036580531791  0.2028929077623650  0.3464076644089679
  0.4374661653112012  0.2867657604265877  0.3901644517356146
  0.6876812403942865  0.7848616349341190  0.2578339070893403
  0.3124847785566609  0.3669278344530501  0.1689196000128202
  0.4370712611556546  0.7904901229530719  0.6096999440862964
  0.9377101969892701  0.4608680935737026  0.8309636736479677
  0.9374963151602644  0.7848194976235350  0.2578617522016395
  0.4376060326391439  0.9547675144764536  0.4785694378779850
  0.3125261812786593  0.5428870275818120  0.7422132407246288
  0.5629113664888870  0.2087457357683033  0.6981244462921399
  0.6877367994930509  0.2941639711968825  0.8733532242941426
  0.8124338068656480  0.8688245314173529  0.3020117958993028
  0.4372884492087857  0.7870934486265364  0.3902077611066994
  0.4374175912359616  0.6207266035415008  0.4349080662523253
  0.5621068407366067  0.0343061969595892  0.1268704249083212
  0.1876792671114868  0.6212389239284493  0.4346107179509062
  0.8123391762702226  0.7104684636911283  0.8309944969703501
  0.8122008631370479  0.5348721135517464  0.2578530116067318
  0.0630497273894681  0.2063748870521503  0.5651161231272275
  0.9375103805325837  0.2929047577861713  0.7422917394301308
  0.0624683502824805  0.5437455055556435  0.8732651348574803
  0.5624118382676978  0.2010228628667777  0.2136948113272335
  0.8119074658694303  0.7065553245763345  0.5650807421736576
  0.0625316664700900  0.3686669931380676  0.3019650709551903
  0.9376597159840677  0.1270368145661463  0.7863934258666031
  0.4374615184519382  0.9589430790983031  0.6980878306800076
  0.8118781253810244  0.3673134832629667  0.1689359060911828
  0.1884300013297530  0.2939800953598850  0.8733049973650805
  0.3121882457692894  0.2056409891468532  0.4786508353900265
  0.8118142349337261  0.0445553625229129  0.8732818220052859
  0.5625656646833515  0.3766648571988037  0.7864910608460040
  0.0624705522337556  0.7011352978749547  0.2137925600333670
  0.5625342103813757  0.2105493688067978  0.8311058442971618
  0.0628614843126395  0.2049151834824249  0.4784763773803515
  0.9374719323323772  0.7873097905201414  0.3902248109348570
  0.3124377999442115  0.7087469367477826  0.6980223785683728
  0.1876569287064548  0.2928583639236660  0.7421993046346105
  0.4377138292799382  0.9604533954264500  0.8310648175975411
  0.6873041126171792  0.6210251576261507  0.4347227958613162
  0.8124807417401472  0.2009575233588353  0.2137436100333920
  0.3124518441665361  0.8747161601819325  0.6535647535105853
  0.4375100553031183  0.1211211892895616  0.4350266518663263
  0.6872879712645579  0.2909875661025958  0.6098779085785064
  0.6875395198183567  0.9509089158353501  0.2137268261233569
  0.8123640198033590  0.5439657336733824  0.8733160700135063
  0.8128671961229238  0.7011428727388503  0.2138463112954531
  0.9378676084180079  0.1175596365799030  0.1690376384103503
  0.8127110017513262  0.7086986519153048  0.6980189040806829
  0.6875113575115315  0.7837572973676676  0.1266681687458379
  0.5624564504378688  0.2035298068660347  0.3463670791555251
  0.4371891990101156  0.2930373988336580  0.7422567026484915
  0.9374732049257246  0.7902263436181632  0.6096036758701219
  0.4375290556782184  0.4532832488475895  0.3463166948195086
  0.0624918513405251  0.8770181884432922  0.7862827504926773
  0.3125235740212137  0.3752228160404636  0.6537253209894935
  0.6875278204017877  0.2845956441816809  0.2578391499783923
  0.4372849641417446  0.2836144264526780  0.1268883711560185
  0.4374116222561202  0.6177508655572505  0.1689816429097087
  0.1876832547059143  0.7906594301017590  0.6098001270502167
  0.4375235418969254  0.6266391811965650  0.7862744360863234
  0.1873521625364258  0.4588695069624528  0.6980425602872259
  0.1876069170190537  0.4553395544680815  0.4786395005841005
  0.4370660140238239  0.6250144480393114  0.6535699520834323
  0.4374923013541491  0.2849621931210611  0.2577807189027802
  0.3124291114638111  0.7009418380647564  0.2137271229149222
  0.9375970893067856  0.6176938248467138  0.1689333599097985
  0.8120625443719852  0.8727630640271452  0.5212172962256048
  0.0623052702851004  0.3775891141807811  0.7862941565096213
  0.0626541235729268  0.3711446598613137  0.4349679598225829
  0.4374610212376245  0.7928484693960075  0.7421693836303236
  0.8125517088491382  0.3747147311872446  0.6537151853669905
  0.5623573033598364  0.0371558216488439  0.3902104049572320
  0.1872952065478700  0.7931402196665417  0.8732544186914786
  0.3125517446274511  0.5437760485433070  0.8733068891632944
  0.6876818631762983  0.7929500069846623  0.7422509315169822
  0.0624924406137460  0.7110613878296075  0.8311818018311614
  0.4375724394441071  0.9556605524223801  0.5649997444716041
  0.6874960073340882  0.2872733622322248  0.3902394554618122
  0.3125888358832216  0.2010251366686501  0.2137757109004197
  0.5625286161854661  0.5441380708841604  0.8732427348954588
  0.9376914218942749  0.9587064280854902  0.6980492366476864
  0.1876877505585153  0.4563255774706597  0.5651414579376416
  0.1868565431696257  0.9611173901294962  0.8311670492064712
  0.6874798533743747  0.1169236270981523  0.1690287585325105
  0.5621660025843345  0.7011439099208986  0.2138241879941461
  0.1873531203731655  0.9590003448533204  0.6980539369150542
  0.1875394659080880  0.2839154223985995  0.1267672846563275
  0.9375932392655967  0.1185942036827211  0.3019986048138248
  0.4374998425508783  0.1249317972060700  0.6536660281981376
  0.3124887346763078  0.7052257022754108  0.4786307905917145
  0.8123737205530386  0.2090041024227808  0.6981673216593052
  0.5631230016629032  0.8725176240256766  0.5211904080484828
  0.6875061027177787  0.7870095644510092  0.3901550155031737
  0.1875203172830817  0.1185939337613197  0.3019870420234265
  0.3123653933548822  0.0341254167305618  0.1267827118880725
  0.1873627242651486  0.4609764387509194  0.8310876526339069
  0.0629692619444320  0.8729484533510042  0.5212177826663001
  0.6874407006698743  0.4604830914407773  0.8309765449308183
  0.0626873700355635  0.0430030884941194  0.7421893004428256
  0.8121819853104304  0.0348589565277057  0.2578830866067103
  0.9377409940355426  0.1246405569194632  0.6536997420301642
  0.8122724655984814  0.7029889323261101  0.3464178987146705
  0.6874777097951590  0.6264101857227218  0.7863484862333563
  0.9374648667782662  0.9548937820541127  0.4786194105279152
  0.4375203200352903  0.9509282600594401  0.2137797095465605
  0.4373936906336265  0.6228476499312928  0.5213027699434797
  0.3125996510700030  0.5412088091149959  0.6097620147095855
  0.4375400550732443  0.6193068385377819  0.3020091160845845
  0.3129104405683814  0.8764265426960600  0.7862348596436753
  0.1876241678373013  0.7874372827045698  0.3902509945912675
  0.4375824408433656  0.4566647990266168  0.5650794380451712
  0.4377501749259590  0.4510023763010392  0.2137970206156498
  0.9378686027172211  0.6242051961285088  0.6536838736688864
  0.6877807063211910  0.4564563108221537  0.5650551981188534
  0.4375029696838533  0.7853440165910379  0.2578519379984937
  0.3127431106673775  0.7033315175219557  0.3464137754030031
  0.9378219211324907  0.4591539367396840  0.6981312979488320
  0.0625103591747514  0.0338024185912808  0.1268246134312880
  0.8127230790786016  0.2033299902189757  0.3463369109693041
  0.9374791939817304  0.9512391629606414  0.2138108741958740
  0.0623390693684681  0.5429942068802605  0.7421905500585012
  0.5630623181153135  0.3675342988300184  0.1690260974632772
  0.3118257785518529  0.5342146635794676  0.1268481797593311
  0.5623667640608112  0.8667474959915831  0.1690032128894987
  0.1875488933770286  0.6269299239315519  0.7862302623657583
  0.5626166793235521  0.7054502070028883  0.4785750448104714
  0.1874419128785297  0.6171299997173448  0.1690238535467700
  0.0624423911021034  0.2097902617052128  0.8311622422345604
  0.8129393293273482  0.0373184916445536  0.3902450576322411
  0.1874835855437899  0.9512315195258141  0.2137412358987872
  0.6874689165810927  0.1192325881747437  0.3019860630051194
  0.3126124806093511  0.5350503021669215  0.2578512532048203
  0.9374397459318263  0.4565914210134664  0.5651795943893114
  0.3123367852810189  0.8676692815022781  0.1690556108817015
  0.6873411857296085  0.4589839665218268  0.6980537320395581
  0.8125886039221314  0.5411188714636687  0.6098000252977896
  0.0621969134278219  0.2091471223774423  0.6981153315704118
  0.1880357645151816  0.9562719734324646  0.5649848382835558
  0.4372516542488645  0.2942292929252407  0.8733249611858382
  0.1876548015815652  0.2850866546088450  0.2579093005243218
  0.5629922600734992  0.5344305267535754  0.1266566123179894
  0.6865921379637412  0.9566588802021014  0.5650489749089318
  0.3122124923867001  0.8708354689852239  0.4347136665345389
  0.8119837960992451  0.5344345474686363  0.1266472570777060
  0.8124911062891301  0.8747545741575244  0.6536816444635544
  0.5622645983641577  0.7066909760817145  0.5650130451096619
  0.1875746219835140  0.6188264251977793  0.3020025874642028
  0.0626313474746086  0.3671481806480894  0.1690084291078969
  0.4372355294155815  0.4586382637182194  0.6980538662836958
  0.4374205418873171  0.7936333401736461  0.8732032705376603
  0.1877457525210213  0.9556067200072704  0.4785317486574204
  0.9374192359605784  0.7839725580427199  0.1267962340963619
  0.5624400258217637  0.8768621088467800  0.7863193888216183
  0.3122932373508550  0.0371168736270200  0.3901830540635868
  0.4374017846189054  0.1224481843886981  0.5211419791548667
  0.5625574717772863  0.0413231041385759  0.6095887501433730
  0.5625062994108514  0.5370068817557783  0.3901093801911360
  0.0629985511558346  0.3722737326037120  0.5212526249385344
  0.9378719000069472  0.9548057504891022  0.5648803295061789
  0.6873157960161738  0.9579553942200458  0.6982285855155531
  0.9375376571744933  0.6232857607429249  0.5212583618019703
  0.0625009867746784  0.0439086467524621  0.8730897312154587
  0.8124258845879789  0.2070915825225816  0.5651591556064115
  0.4375002968591964  0.9535101086527451  0.3464556186765144
  0.0625847693498327  0.5347598103851675  0.2577907250805508
  0.6877629992610463  0.1254437689713098  0.6536304140351767
  0.6875070643861115  0.6172243577025149  0.1683806033585245
  0.3125584793849140  0.2093207976920737  0.6981984713937380
  0.0626622736284779  0.0406622092443431  0.6099149629013877
 
  0.00000000E+00  0.00000000E+00  0.00000000E+00
  0.00000000E+00  0.00000000E+00  0.00000000E+00
  0.00000000E+00  0.00000000E+00  0.00000000E+00
  0.00000000E+00  0.00000000E+00  0.00000000E+00
  0.00000000E+00  0.00000000E+00  0.00000000E+00
  0.00000000E+00  0.00000000E+00  0.00000000E+00
  0.00000000E+00  0.00000000E+00  0.00000000E+00
  0.00000000E+00  0.00000000E+00  0.00000000E+00
  0.00000000E+00  0.00000000E+00  0.00000000E+00
  0.00000000E+00  0.00000000E+00  0.00000000E+00
  0.00000000E+00  0.00000000E+00  0.00000000E+00
  0.00000000E+00  0.00000000E+00  0.00000000E+00
  0.00000000E+00  0.00000000E+00  0.00000000E+00
  0.00000000E+00  0.00000000E+00  0.00000000E+00
  0.00000000E+00  0.00000000E+00  0.00000000E+00
  0.00000000E+00  0.00000000E+00  0.00000000E+00
  0.00000000E+00  0.00000000E+00  0.00000000E+00
  0.00000000E+00  0.00000000E+00  0.00000000E+00
  0.00000000E+00  0.00000000E+00  0.00000000E+00
  0.00000000E+00  0.00000000E+00  0.00000000E+00
  0.00000000E+00  0.00000000E+00  0.00000000E+00
  0.00000000E+00  0.00000000E+00  0.00000000E+00
  0.00000000E+00  0.00000000E+00  0.00000000E+00
  0.00000000E+00  0.00000000E+00  0.00000000E+00
  0.00000000E+00  0.00000000E+00  0.00000000E+00
  0.00000000E+00  0.00000000E+00  0.00000000E+00
  0.00000000E+00  0.00000000E+00  0.00000000E+00
  0.00000000E+00  0.00000000E+00  0.00000000E+00
  0.00000000E+00  0.00000000E+00  0.00000000E+00
  0.00000000E+00  0.00000000E+00  0.00000000E+00
  0.00000000E+00  0.00000000E+00  0.00000000E+00
  0.00000000E+00  0.00000000E+00  0.00000000E+00
  0.00000000E+00  0.00000000E+00  0.00000000E+00
  0.00000000E+00  0.00000000E+00  0.00000000E+00
  0.00000000E+00  0.00000000E+00  0.00000000E+00
  0.00000000E+00  0.00000000E+00  0.00000000E+00
  0.00000000E+00  0.00000000E+00  0.00000000E+00
  0.00000000E+00  0.00000000E+00  0.00000000E+00
  0.00000000E+00  0.00000000E+00  0.00000000E+00
  0.00000000E+00  0.00000000E+00  0.00000000E+00
  0.00000000E+00  0.00000000E+00  0.00000000E+00
  0.00000000E+00  0.00000000E+00  0.00000000E+00
  0.00000000E+00  0.00000000E+00  0.00000000E+00
  0.00000000E+00  0.00000000E+00  0.00000000E+00
  0.00000000E+00  0.00000000E+00  0.00000000E+00
  0.00000000E+00  0.00000000E+00  0.00000000E+00
  0.00000000E+00  0.00000000E+00  0.00000000E+00
  0.00000000E+00  0.00000000E+00  0.00000000E+00
  0.00000000E+00  0.00000000E+00  0.00000000E+00
  0.00000000E+00  0.00000000E+00  0.00000000E+00
  0.00000000E+00  0.00000000E+00  0.00000000E+00
  0.00000000E+00  0.00000000E+00  0.00000000E+00
  0.00000000E+00  0.00000000E+00  0.00000000E+00
  0.00000000E+00  0.00000000E+00  0.00000000E+00
  0.00000000E+00  0.00000000E+00  0.00000000E+00
  0.00000000E+00  0.00000000E+00  0.00000000E+00
  0.00000000E+00  0.00000000E+00  0.00000000E+00
  0.00000000E+00  0.00000000E+00  0.00000000E+00
  0.00000000E+00  0.00000000E+00  0.00000000E+00
  0.00000000E+00  0.00000000E+00  0.00000000E+00
  0.00000000E+00  0.00000000E+00  0.00000000E+00
  0.00000000E+00  0.00000000E+00  0.00000000E+00
  0.00000000E+00  0.00000000E+00  0.00000000E+00
  0.00000000E+00  0.00000000E+00  0.00000000E+00
  0.00000000E+00  0.00000000E+00  0.00000000E+00
  0.00000000E+00  0.00000000E+00  0.00000000E+00
  0.00000000E+00  0.00000000E+00  0.00000000E+00
  0.00000000E+00  0.00000000E+00  0.00000000E+00
  0.00000000E+00  0.00000000E+00  0.00000000E+00
  0.00000000E+00  0.00000000E+00  0.00000000E+00
  0.00000000E+00  0.00000000E+00  0.00000000E+00
  0.00000000E+00  0.00000000E+00  0.00000000E+00
  0.00000000E+00  0.00000000E+00  0.00000000E+00
  0.00000000E+00  0.00000000E+00  0.00000000E+00
  0.00000000E+00  0.00000000E+00  0.00000000E+00
  0.00000000E+00  0.00000000E+00  0.00000000E+00
  0.00000000E+00  0.00000000E+00  0.00000000E+00
  0.00000000E+00  0.00000000E+00  0.00000000E+00
  0.00000000E+00  0.00000000E+00  0.00000000E+00
  0.00000000E+00  0.00000000E+00  0.00000000E+00
  0.00000000E+00  0.00000000E+00  0.00000000E+00
  0.00000000E+00  0.00000000E+00  0.00000000E+00
  0.00000000E+00  0.00000000E+00  0.00000000E+00
  0.00000000E+00  0.00000000E+00  0.00000000E+00
  0.00000000E+00  0.00000000E+00  0.00000000E+00
  0.00000000E+00  0.00000000E+00  0.00000000E+00
  0.00000000E+00  0.00000000E+00  0.00000000E+00
  0.00000000E+00  0.00000000E+00  0.00000000E+00
  0.00000000E+00  0.00000000E+00  0.00000000E+00
  0.00000000E+00  0.00000000E+00  0.00000000E+00
  0.00000000E+00  0.00000000E+00  0.00000000E+00
  0.00000000E+00  0.00000000E+00  0.00000000E+00
  0.00000000E+00  0.00000000E+00  0.00000000E+00
  0.00000000E+00  0.00000000E+00  0.00000000E+00
  0.00000000E+00  0.00000000E+00  0.00000000E+00
  0.00000000E+00  0.00000000E+00  0.00000000E+00
  0.00000000E+00  0.00000000E+00  0.00000000E+00
  0.00000000E+00  0.00000000E+00  0.00000000E+00
  0.00000000E+00  0.00000000E+00  0.00000000E+00
  0.00000000E+00  0.00000000E+00  0.00000000E+00
  0.00000000E+00  0.00000000E+00  0.00000000E+00
  0.00000000E+00  0.00000000E+00  0.00000000E+00
  0.00000000E+00  0.00000000E+00  0.00000000E+00
  0.00000000E+00  0.00000000E+00  0.00000000E+00
  0.00000000E+00  0.00000000E+00  0.00000000E+00
  0.00000000E+00  0.00000000E+00  0.00000000E+00
  0.00000000E+00  0.00000000E+00  0.00000000E+00
  0.00000000E+00  0.00000000E+00  0.00000000E+00
  0.00000000E+00  0.00000000E+00  0.00000000E+00
  0.00000000E+00  0.00000000E+00  0.00000000E+00
  0.00000000E+00  0.00000000E+00  0.00000000E+00
  0.00000000E+00  0.00000000E+00  0.00000000E+00
  0.00000000E+00  0.00000000E+00  0.00000000E+00
  0.00000000E+00  0.00000000E+00  0.00000000E+00
  0.00000000E+00  0.00000000E+00  0.00000000E+00
  0.00000000E+00  0.00000000E+00  0.00000000E+00
  0.00000000E+00  0.00000000E+00  0.00000000E+00
  0.00000000E+00  0.00000000E+00  0.00000000E+00
  0.00000000E+00  0.00000000E+00  0.00000000E+00
  0.00000000E+00  0.00000000E+00  0.00000000E+00
  0.00000000E+00  0.00000000E+00  0.00000000E+00
  0.00000000E+00  0.00000000E+00  0.00000000E+00
  0.00000000E+00  0.00000000E+00  0.00000000E+00
  0.00000000E+00  0.00000000E+00  0.00000000E+00
  0.00000000E+00  0.00000000E+00  0.00000000E+00
  0.00000000E+00  0.00000000E+00  0.00000000E+00
  0.00000000E+00  0.00000000E+00  0.00000000E+00
  0.00000000E+00  0.00000000E+00  0.00000000E+00
  0.00000000E+00  0.00000000E+00  0.00000000E+00
  0.00000000E+00  0.00000000E+00  0.00000000E+00
  0.00000000E+00  0.00000000E+00  0.00000000E+00
  0.00000000E+00  0.00000000E+00  0.00000000E+00
  0.00000000E+00  0.00000000E+00  0.00000000E+00
  0.00000000E+00  0.00000000E+00  0.00000000E+00
  0.00000000E+00  0.00000000E+00  0.00000000E+00
  0.00000000E+00  0.00000000E+00  0.00000000E+00
  0.00000000E+00  0.00000000E+00  0.00000000E+00
  0.00000000E+00  0.00000000E+00  0.00000000E+00
  0.00000000E+00  0.00000000E+00  0.00000000E+00
  0.00000000E+00  0.00000000E+00  0.00000000E+00
  0.00000000E+00  0.00000000E+00  0.00000000E+00
  0.00000000E+00  0.00000000E+00  0.00000000E+00
  0.00000000E+00  0.00000000E+00  0.00000000E+00
  0.00000000E+00  0.00000000E+00  0.00000000E+00
  0.00000000E+00  0.00000000E+00  0.00000000E+00
  0.00000000E+00  0.00000000E+00  0.00000000E+00
  0.00000000E+00  0.00000000E+00  0.00000000E+00
  0.00000000E+00  0.00000000E+00  0.00000000E+00
  0.00000000E+00  0.00000000E+00  0.00000000E+00
  0.00000000E+00  0.00000000E+00  0.00000000E+00
  0.00000000E+00  0.00000000E+00  0.00000000E+00
  0.00000000E+00  0.00000000E+00  0.00000000E+00
  0.00000000E+00  0.00000000E+00  0.00000000E+00
  0.00000000E+00  0.00000000E+00  0.00000000E+00
  0.00000000E+00  0.00000000E+00  0.00000000E+00
  0.00000000E+00  0.00000000E+00  0.00000000E+00
  0.00000000E+00  0.00000000E+00  0.00000000E+00
  0.00000000E+00  0.00000000E+00  0.00000000E+00
  0.00000000E+00  0.00000000E+00  0.00000000E+00
  0.00000000E+00  0.00000000E+00  0.00000000E+00
  0.00000000E+00  0.00000000E+00  0.00000000E+00
  0.00000000E+00  0.00000000E+00  0.00000000E+00
  0.00000000E+00  0.00000000E+00  0.00000000E+00
  0.00000000E+00  0.00000000E+00  0.00000000E+00
  0.00000000E+00  0.00000000E+00  0.00000000E+00
  0.00000000E+00  0.00000000E+00  0.00000000E+00
  0.00000000E+00  0.00000000E+00  0.00000000E+00
  0.00000000E+00  0.00000000E+00  0.00000000E+00
  0.00000000E+00  0.00000000E+00  0.00000000E+00
  0.00000000E+00  0.00000000E+00  0.00000000E+00
  0.00000000E+00  0.00000000E+00  0.00000000E+00
  0.00000000E+00  0.00000000E+00  0.00000000E+00
  0.00000000E+00  0.00000000E+00  0.00000000E+00
  0.00000000E+00  0.00000000E+00  0.00000000E+00
  0.00000000E+00  0.00000000E+00  0.00000000E+00
  0.00000000E+00  0.00000000E+00  0.00000000E+00
  0.00000000E+00  0.00000000E+00  0.00000000E+00
  0.00000000E+00  0.00000000E+00  0.00000000E+00
  0.00000000E+00  0.00000000E+00  0.00000000E+00
  0.00000000E+00  0.00000000E+00  0.00000000E+00
  0.00000000E+00  0.00000000E+00  0.00000000E+00
  0.00000000E+00  0.00000000E+00  0.00000000E+00
  0.00000000E+00  0.00000000E+00  0.00000000E+00
  0.00000000E+00  0.00000000E+00  0.00000000E+00
  0.00000000E+00  0.00000000E+00  0.00000000E+00
  0.00000000E+00  0.00000000E+00  0.00000000E+00
  0.00000000E+00  0.00000000E+00  0.00000000E+00
  0.00000000E+00  0.00000000E+00  0.00000000E+00
  0.00000000E+00  0.00000000E+00  0.00000000E+00
  0.00000000E+00  0.00000000E+00  0.00000000E+00
  0.00000000E+00  0.00000000E+00  0.00000000E+00
  0.00000000E+00  0.00000000E+00  0.00000000E+00
  0.00000000E+00  0.00000000E+00  0.00000000E+00
  0.00000000E+00  0.00000000E+00  0.00000000E+00
  0.00000000E+00  0.00000000E+00  0.00000000E+00
  0.00000000E+00  0.00000000E+00  0.00000000E+00
  0.00000000E+00  0.00000000E+00  0.00000000E+00
  0.00000000E+00  0.00000000E+00  0.00000000E+00
  0.00000000E+00  0.00000000E+00  0.00000000E+00
  0.00000000E+00  0.00000000E+00  0.00000000E+00
  0.00000000E+00  0.00000000E+00  0.00000000E+00
  0.00000000E+00  0.00000000E+00  0.00000000E+00
  0.00000000E+00  0.00000000E+00  0.00000000E+00
  0.00000000E+00  0.00000000E+00  0.00000000E+00
  0.00000000E+00  0.00000000E+00  0.00000000E+00
  0.00000000E+00  0.00000000E+00  0.00000000E+00
  0.00000000E+00  0.00000000E+00  0.00000000E+00
  0.00000000E+00  0.00000000E+00  0.00000000E+00
  0.00000000E+00  0.00000000E+00  0.00000000E+00
  0.00000000E+00  0.00000000E+00  0.00000000E+00
  0.00000000E+00  0.00000000E+00  0.00000000E+00
  0.00000000E+00  0.00000000E+00  0.00000000E+00
  0.00000000E+00  0.00000000E+00  0.00000000E+00
  0.00000000E+00  0.00000000E+00  0.00000000E+00
  0.00000000E+00  0.00000000E+00  0.00000000E+00
  0.00000000E+00  0.00000000E+00  0.00000000E+00
  0.00000000E+00  0.00000000E+00  0.00000000E+00
  0.00000000E+00  0.00000000E+00  0.00000000E+00
  0.00000000E+00  0.00000000E+00  0.00000000E+00
  0.00000000E+00  0.00000000E+00  0.00000000E+00
  0.00000000E+00  0.00000000E+00  0.00000000E+00
  0.00000000E+00  0.00000000E+00  0.00000000E+00
  0.00000000E+00  0.00000000E+00  0.00000000E+00
  0.00000000E+00  0.00000000E+00  0.00000000E+00
  0.00000000E+00  0.00000000E+00  0.00000000E+00
  0.00000000E+00  0.00000000E+00  0.00000000E+00
  0.00000000E+00  0.00000000E+00  0.00000000E+00
  0.00000000E+00  0.00000000E+00  0.00000000E+00
  0.00000000E+00  0.00000000E+00  0.00000000E+00
  0.00000000E+00  0.00000000E+00  0.00000000E+00
  0.00000000E+00  0.00000000E+00  0.00000000E+00
  0.00000000E+00  0.00000000E+00  0.00000000E+00
  0.00000000E+00  0.00000000E+00  0.00000000E+00
  0.00000000E+00  0.00000000E+00  0.00000000E+00
  0.00000000E+00  0.00000000E+00  0.00000000E+00
  0.00000000E+00  0.00000000E+00  0.00000000E+00
  0.00000000E+00  0.00000000E+00  0.00000000E+00
  0.00000000E+00  0.00000000E+00  0.00000000E+00
  0.00000000E+00  0.00000000E+00  0.00000000E+00
  0.00000000E+00  0.00000000E+00  0.00000000E+00
  0.00000000E+00  0.00000000E+00  0.00000000E+00
  0.00000000E+00  0.00000000E+00  0.00000000E+00
  0.00000000E+00  0.00000000E+00  0.00000000E+00
  0.00000000E+00  0.00000000E+00  0.00000000E+00
  0.00000000E+00  0.00000000E+00  0.00000000E+00
  0.00000000E+00  0.00000000E+00  0.00000000E+00
  0.00000000E+00  0.00000000E+00  0.00000000E+00