FeMn_288_15                             
    1.000000000000000     
     9.7266779999999997    0.0000000000000000    0.0000000000000000
     0.0000000000000000    8.4235500000000005    0.0000000000000000
     0.0000000000000000    0.0000000000000000   45.0000000000000000
   Fe   Mn
   273    15
Direct
  0.4372584312623793  0.9531171408443022  0.2135398454801732
  0.1875804771123493  0.6214208542613597  0.4347508266795944
  0.6872556627461954  0.2899409324754795  0.6098384156776686
  0.1873322812833858  0.2864833108568334  0.1265734398253430
  0.6876182319038490  0.4530103363408943  0.2134764007760932
  0.3125698237472789  0.3726612437433458  0.5213340722618435
  0.5624765897542777  0.2030780732997755  0.2134236848459048
  0.0625447546624776  0.2072601410151222  0.6981996719443374
  0.9374416345405919  0.6194817120778949  0.1688137960526983
  0.4372970676042446  0.9543295707040953  0.3462664825263898
  0.4374562649495105  0.6213520872418752  0.4347944808536378
  0.6873651160556331  0.1215524918838428  0.4350739649062370
  0.8126310266626012  0.3721755407263307  0.4347250178983744
  0.8126765552081618  0.2027699765992516  0.2134312891554556
  0.5624914517168574  0.5366041765776030  0.2577623415040439
  0.1878597519964042  0.9575720405428135  0.6982551106699483
  0.6874125135974957  0.7865129636043642  0.2576377628011547
  0.4379442240697436  0.1247188526326407  0.7865035104164337
  0.6876739053582211  0.1204278726708452  0.3017651651110673
  0.1875408174768718  0.6246944767491959  0.7864853348449626
  0.6872746193746045  0.1253552340305529  0.7865868156947711
  0.3126932620939160  0.5409011282904423  0.8734664634432053
  0.4369051545330672  0.4588570739843138  0.8312522240262761
  0.0622004754661031  0.8749956826893009  0.7864719280408788
  0.6872366259422414  0.4567383612541865  0.5652249636691461
  0.0627312308262602  0.8732496684531391  0.6537368627036431
  0.8121269985121050  0.5364979919815041  0.2576745576754665
  0.3125087903576828  0.0415470037764317  0.7423133974128747
  0.8124606474439298  0.5401777859087353  0.6098076677851523
  0.9376627028142226  0.9558820150564796  0.5651695215550075
  0.1875975840927000  0.9528226614083033  0.2135194224046304
  0.1872584858307595  0.1225233713577704  0.5213652124158197
  0.3124504686414548  0.7052565528173717  0.4786223172277486
  0.3120296684323283  0.5379904626314067  0.3902222643318630
  0.6883128134276467  0.4593972189255547  0.8314001983123784
  0.6874610405042914  0.6239336369041933  0.6537279144216415
  0.8128505290946133  0.3703023238760613  0.3018164596091341
  0.0626840074095371  0.0410552354037735  0.7424025827094272
  0.1874916952391229  0.6224507766134825  0.5213057184200450
  0.4374862474608875  0.7878569162472693  0.3901725698825044
  0.9375260501565951  0.2911564923842960  0.7422769433745003
  0.1874491813366987  0.7915106033186617  0.7423461623937920
  0.3116765961787802  0.8702750467090963  0.3016697003740439
  0.3121860629714842  0.0380860624295927  0.3902379754416995
  0.4371978269051575  0.6233998075233121  0.6537146451658660
  0.0626008590408797  0.8717347514123215  0.4347907376607092
  0.5618803135816755  0.2059319872669561  0.4786443183966469
  0.0627307352009666  0.7054836218027717  0.4785747924450601
  0.1874799969179251  0.2884466094580378  0.3901939135076664
  0.6875635757145813  0.2910811045712713  0.7423402234520369
  0.8125455611075882  0.5408417359014519  0.7423840343838466
  0.9374436654273655  0.4543590987590215  0.3462101171062356
  0.1874090818660824  0.2863828689849294  0.2576997135897411
  0.3124894988160887  0.8716119878397675  0.4348452115835607
  0.3124244112467980  0.7072881344212359  0.6981471658088869
  0.3126714396483014  0.7028900219203654  0.2134564821729418
  0.8124172138363591  0.7062660650865996  0.5650485136734953
  0.9375616199409562  0.6244109688809263  0.7865129827083438
  0.3126270535831895  0.3752018278522657  0.7863701940672356
  0.9375104754210168  0.4570442194009808  0.6982549382382338
  0.3124824621609332  0.2052989022846963  0.4787077797308280
  0.5622443059768949  0.8715982798903078  0.4347040470742701
  0.0624372157273552  0.5383265075857512  0.3901017649126044
  0.3126372892687945  0.8730106209370293  0.6537783018208206
  0.4373929825813303  0.4576487935817418  0.6982047615322705
  0.0626458259268257  0.0381416229697133  0.3901005828654228
  0.6876530462063951  0.1189249847193297  0.1687060520525170
  0.5624944613116192  0.7030067067178009  0.2134325748056681
  0.4372704404813115  0.6204582504210499  0.3018227906076661
  0.8125226042007083  0.7053947156791036  0.4785979591919490
  0.9386996691532150  0.7914642809831336  0.8734352219031027
  0.3124140003278024  0.3715859283837350  0.4348650363292056
  0.4375810806605329  0.9576729388908856  0.6981794543642671
  0.9377415277068389  0.6224325362609928  0.5213014076475184
  0.4370524847049863  0.1236415507169110  0.6538164587032315
  0.4372782931242564  0.1203815347616902  0.3018040354472198
  0.8124689840394607  0.0409205344706775  0.7424310017391630
  0.6867229986709802  0.7915890340943065  0.8736330886912188
  0.0624983861980124  0.3701556944865067  0.1687413840039859
  0.6874811671428216  0.4544807958414404  0.3462296343481235
  0.9378179792924057  0.1214291851712782  0.4346660672173381
  0.5624298538655835  0.2081734186707741  0.8312089066166778
  0.8130406056238282  0.2089866401807812  0.8314820436075578
  0.4374297126012744  0.2876487284728997  0.3901639886060103
  0.0624817321964399  0.7030197894278566  0.2135189631156110
  0.1871949729649891  0.4554757282468049  0.4785665021651581
  0.1874146475171908  0.1199557806601597  0.1688166451869625
  0.5625422558926021  0.3736505377760268  0.6538264375529013
  0.8123012303414959  0.7029007333741663  0.2134511622934470
  0.0622912263902283  0.2064602009534177  0.5652435496026973
  0.9375493304252657  0.7908437968744596  0.7423116685136749
  0.6876835648566308  0.6204235513944554  0.3018147554450902
  0.1874583714629869  0.1214443875067590  0.4347922727843064
  0.0628171334996933  0.2077302280382006  0.8312232004586009
  0.1875412951498822  0.4562750767085682  0.5651550581901372
  0.1874160932568458  0.9552058618842711  0.4785846372633418
  0.3125766264932809  0.8698296073302197  0.1686298518333730
  0.4374464870636721  0.4545531898721685  0.3462441215432636
  0.6874442363844536  0.6223269849438319  0.5213183610781045
  0.5622652309865308  0.3747881683676158  0.7863464083039486
  0.4372560737997651  0.6222763572850001  0.5213191791697551
  0.3121084444154183  0.3703330493794365  0.3018303832499163
  0.1879822994002979  0.7896603439699483  0.6097107088214786
  0.5625131275585743  0.5375380746971968  0.3902420537337836
  0.3122923894666510  0.2027759320445612  0.2134403649088841
  0.0624504773862393  0.5412089654224786  0.7422773095071226
  0.1875731180016066  0.7878247670342016  0.3901399013026640
  0.9373725847309317  0.7881029129835343  0.3901402318125972
  0.1881618563309312  0.4578291161390556  0.8312235299883339
  0.3128406218167911  0.5364350174873455  0.2576716621533883
  0.5625136959808618  0.0403321267547486  0.6098079781660545
  0.9379571543402910  0.6238805780031966  0.6538432806410259
  0.0615784254183347  0.7080934009634074  0.8313956517251117
  0.5624913600891597  0.0366203310961202  0.2577317534113506
  0.3125656358810042  0.0425514202717144  0.8735913429230396
  0.1875715116769997  0.9589829849472411  0.8313702815247066
  0.9375803576893552  0.2863970184533906  0.2576930724158545
  0.6871849785695542  0.7868956320764863  0.1264564254072250
  0.5625632825224138  0.2075336620331235  0.6982459766143234
  0.5628206778378749  0.7070004730047916  0.6980664821098433
  0.1875314192334197  0.6194772656308296  0.1688155874275654
  0.8128845675762588  0.5383899067552735  0.3901537144607809
  0.4373049851731866  0.1189291807243350  0.1687028674262332
  0.3123501607592207  0.5357800022184102  0.1266206902890112
  0.1874784544331176  0.6200964462668683  0.3017994652768895
  0.4368896384948634  0.2910316357652958  0.8735223916057511
  0.8124830265265941  0.8755448489551793  0.7864067164995459
  0.1874962202075438  0.7864760542154656  0.2577083119627633
  0.9374851548685021  0.7864520739062587  0.2576968067384388
  0.0625342378164821  0.5400686622184542  0.6098394017237623
  0.0624941652363352  0.7040808110552839  0.3462678415601226
  0.0625744670876236  0.0398688584323163  0.6097937153566870
  0.5624788495371892  0.3691913798157643  0.1688091384511631
  0.6874893531000758  0.6215676108325289  0.4348571777038843
  0.3123695230142578  0.7043431949118848  0.3462220952050536
  0.0624775946223362  0.3700325442125648  0.3017577645944022
  0.4373661110835957  0.1212313836867975  0.4347905083281149
  0.1871589360423200  0.1246684841739727  0.7864342302566574
  0.9372527071594864  0.1201857010674909  0.3018255283524536
  0.6869988373877451  0.6194663571622798  0.1686973344759597
  0.3125027119716705  0.0362502262851918  0.1265494289707039
  0.3126998638468184  0.0364907803760158  0.2576803237784306
  0.0632998455784229  0.5427096920822018  0.8733674976100841
  0.1878668694521359  0.2912213048409307  0.8735684290154626
  0.0624192006304791  0.8725332017667675  0.5213236530498592
  0.9381770776932326  0.1221327811768944  0.5212310790399163
  0.4376313698766393  0.7912700237579821  0.7423023160167064
  0.9372447035734734  0.2883892308896451  0.3902009607657729
  0.6874562727754777  0.9555584966405590  0.5651975737035124
  0.8133126761700241  0.8704251507062911  0.3016928806563627
  0.0624759248980390  0.0361557921226654  0.1265721071640137
  0.4377146005518547  0.9563097857491132  0.5651655904710241
  0.1877449124280936  0.4578393055196890  0.6982486719815409
  0.3123913331727761  0.2081424110708954  0.6980646770084529
  0.1875019492914895  0.4543014570191773  0.3462393023160031
  0.4373254309543426  0.7897430767586412  0.6098150497368584
  0.6884133547950085  0.2906139862009288  0.8733824617859944
  0.0624955885302450  0.8695732565974131  0.1687610706867760
  0.8125864496026672  0.3734103467174410  0.6538016101797545
  0.6871403565465102  0.4550556629898106  0.4786154016865393
  0.0624804030166824  0.5359371133549654  0.1265805190420534
  0.4371352319747396  0.2868125251930603  0.1266331099525284
  0.1876432641436709  0.2899531099524841  0.6098771860461931
  0.9378523619865262  0.4554836376455682  0.4785844141613491
  0.6878160038847212  0.2868126136433468  0.1266352840645480
  0.3126508313745917  0.7082709764473097  0.8313456822855498
  0.1875009207387566  0.4530123942425539  0.2135684218363863
  0.3119692106377506  0.3696629435306276  0.1687311846004353
  0.9376782312305861  0.1233903027610577  0.6537362351310840
  0.9371298458552416  0.2906265926301422  0.8734574691339468
  0.9373947397372779  0.9528117920340128  0.2135196673332254
  0.5625815115911527  0.5414450033871601  0.7422687362817031
  0.9376035154319788  0.9543352241029903  0.3462343935983846
  0.3126467054083535  0.8724818270635800  0.5214411761690211
  0.6872037120658362  0.9580823942186387  0.8313025785661680
  0.4374480051226016  0.2915801455050167  0.7424524998404568
  0.8124591990681869  0.0402782754761658  0.6097324402287716
  0.5625057169020502  0.0411902622698828  0.7423645396432553
  0.9369548456112482  0.4590684558542765  0.8313181608749978
  0.5624660793690389  0.0360510480546621  0.1263933710149578
  0.6873228068292841  0.7897426437748777  0.6098474882143310
  0.6874932084143930  0.2869340206522384  0.2576662831944231
  0.4377302273468827  0.4552651618413093  0.4785710844948530
  0.0624872549513931  0.5363642410666130  0.2576987476356980
  0.1876056429819206  0.2913482387674680  0.7423791069990755
  0.3124199981690186  0.7061338926134018  0.5651749840750637
  0.5626053926804564  0.5394768011926289  0.6098600577755585
  0.8124626100630693  0.8718437832250837  0.4347160216519087
  0.3125528985887253  0.3736095737226934  0.6538135474946929
  0.8127043699756563  0.7073848554687884  0.8313458060382368
  0.0629205243721667  0.3743378201914946  0.7863119538940000
  0.9373805547716108  0.6215906425332951  0.4347682736739183
  0.8124626304487523  0.3733370094013723  0.5213310464590132
  0.0622408710596939  0.7062014124818897  0.5650981640131101
  0.0621783044636630  0.3713775057624529  0.4347984318112866
  0.9373553357043329  0.9588094307467412  0.8312418993479296
  0.1868366498210239  0.7865804424232331  0.1266343499570853
  0.5621941832723052  0.7052984364762018  0.4786742067791829
  0.0624303570360529  0.8701466138648856  0.3018220323013584
  0.1877389407181042  0.1201595182572524  0.3018438562455575
  0.0623306162789682  0.3724313711493914  0.5213788724997509
  0.0625438441527674  0.2043281897607513  0.3462627091292346
  0.8125439731230929  0.7072710819864998  0.6981675922534838
  0.8126046805682284  0.2063038684257398  0.5648820979294076
  0.6875037620980753  0.9545160018378764  0.4786466577030224
  0.0621796359329589  0.3736833962728474  0.6537572502837710
  0.8124560273367665  0.2071852077987033  0.6982088969355601
  0.4376142351703483  0.9551168270326916  0.4786215002645129
  0.8121415848874552  0.2044281841711767  0.3463282352685089
  0.9374770012602850  0.4530304828464398  0.2135630891644645
  0.5628074363616874  0.7062527498349445  0.5651552765641199
  0.1871642675142942  0.9561203282002209  0.5651186426518490
  0.4384532083612261  0.7912516252827170  0.8736690796098661
  0.8126671888520079  0.0422037658053335  0.8735052260595113
  0.3127368116267089  0.2044950961849465  0.3463271126456509
  0.8126199874623213  0.0384144667453380  0.3902364943503879
  0.6869858395169617  0.9575210922437217  0.6983025930575065
  0.5620869072167791  0.8724463300248647  0.5213915581070325
  0.6877208739665166  0.6245375910611471  0.7863846870626854
  0.5626174777582578  0.3717790772257727  0.4346573130150135
  0.8126011062505067  0.5357892277041713  0.1266215544430286
  0.5626343781986576  0.3724294815620912  0.5214020792737581
  0.3123032703207774  0.0398206978091791  0.6098592649660824
  0.4377630608245251  0.7868878867108597  0.1264574011486547
  0.9377557682917288  0.4564791081946826  0.5653122325547292
  0.8125573409916631  0.7042237894094614  0.3462405725462366
  0.3123804995820323  0.5395022729671318  0.6097391102802328
  0.8130072826098024  0.3696617394651558  0.1687272296256549
  0.5623858210194256  0.8735220092997804  0.6537592052262051
  0.9378018385690797  0.1250236175772681  0.7865366434308565
  0.1876402676105174  0.1234551205605479  0.6537974475438241
  0.6875172070354550  0.7905621848978771  0.7423531693158016
  0.9376199134553400  0.2864786003151685  0.1265764699946628
  0.5618046990477019  0.5426422189253469  0.8735690601093402
  0.4374860804355152  0.4561041999633126  0.5651320685999478
  0.4373262442310959  0.1220426985800364  0.5213864068933253
  0.5624070458417382  0.2064330444905939  0.5653024449856643
  0.1872536584727755  0.9543622057761233  0.3462697118424837
  0.6876644281022853  0.2875752789468131  0.3901556475578464
  0.5624529713905972  0.7044587045683209  0.3462317145320468
  0.0627387905962283  0.2059066666133152  0.4785693457335001
  0.9374689966259968  0.2904195049290997  0.6098748113292691
  0.4381363061542500  0.9584539229247458  0.8313616893716641
  0.8124418889327933  0.3748009820757359  0.7865229570650382
  0.4374690043852495  0.2869113623636412  0.2576634696117944
  0.1874249058268378  0.6235086373873492  0.6536976563747069
  0.8122870432782143  0.8735209600399130  0.6537805968411556
  0.0623965082537565  0.7073199491281443  0.6981132076075732
  0.4373592479798727  0.4530026185693452  0.2134810011181197
  0.9373368655070733  0.9551697863061943  0.4785293794878480
  0.6872377083357096  0.4570216138348540  0.6981457764394259
  0.4372905009721246  0.6246110108327307  0.7863426048109621
  0.5624362283110942  0.2041120415553692  0.3461916628822154
  0.8123963720902282  0.8698258257835082  0.1686297417521986
  0.4376445930631244  0.2897617351151942  0.6099139971820524
  0.5627763147474452  0.0417913734370303  0.8735022671788107
  0.9374534272904289  0.6200725575846551  0.3018080061406936
  0.5628694026903214  0.8755611663913184  0.7863749504852069
  0.8124370327230658  0.0362484817462095  0.1265495965752624
  0.3125346609948681  0.5415998128876802  0.7424100795971221
  0.8127535956995250  0.8727672967304756  0.5213044282064567
  0.6873522055560368  0.7881782819787836  0.3901593831810942
  0.9381246189624799  0.7865924514890452  0.1266338685967081
  0.4379563169444250  0.6194806225621609  0.1687000018431004
  0.0624972473991696  0.2027758857060013  0.2135347407626842
  0.4375237475452140  0.7865309399694791  0.2576427661819950
  0.9375482956799754  0.1199473057623280  0.1688227739961980
  0.6876828542122674  0.9541865264778702  0.3462016154742724
  0.6877056002880089  0.9531276108450606  0.2135431373607989
  0.1866623605502133  0.7915753276604623  0.8734484636098487
  0.8122688411157407  0.0364846784695295  0.2576853360050845
  0.0624944137163061  0.0421275869847421  0.8735404715575109
  0.5624579871370523  0.5365622706664749  0.1265563581018464
  0.5624817406083763  0.8704235254266438  0.3017832589117721
  0.3125430317687226  0.2063812787141820  0.5651302241406067
  0.6877524282050484  0.1233970352875708  0.6537383744895227
  0.0625003474863817  0.0364756875603352  0.2576505719767587
  0.3121137309944275  0.2078229088248194  0.8318726360424883
  0.5624778907522467  0.3708838838435152  0.3017024912382427
  0.8127378455787694  0.5416520924791256  0.8731868661155654
  0.5630288505119999  0.7080666307825773  0.8320268619537524
  0.9372182886717459  0.9575413044127322  0.6981966550540522
  0.6872757641684167  0.1223277847299569  0.5212803872668481
  0.3129256477326580  0.8749406659184384  0.7862945488600548
  0.5624779577285562  0.8693482029056684  0.1681714817900006
  0.8125971021392864  0.2055479156246672  0.4787285582117593
  0.9374426316525494  0.7902496419145264  0.6098958644109700
  0.5624168853358682  0.0375528860843589  0.3900580222161513
 
  0.00000000E+00  0.00000000E+00  0.00000000E+00
  0.00000000E+00  0.00000000E+00  0.00000000E+00
  0.00000000E+00  0.00000000E+00  0.00000000E+00
  0.00000000E+00  0.00000000E+00  0.00000000E+00
  0.00000000E+00  0.00000000E+00  0.00000000E+00
  0.00000000E+00  0.00000000E+00  0.00000000E+00
  0.00000000E+00  0.00000000E+00  0.00000000E+00
  0.00000000E+00  0.00000000E+00  0.00000000E+00
  0.00000000E+00  0.00000000E+00  0.00000000E+00
  0.00000000E+00  0.00000000E+00  0.00000000E+00
  0.00000000E+00  0.00000000E+00  0.00000000E+00
  0.00000000E+00  0.00000000E+00  0.00000000E+00
  0.00000000E+00  0.00000000E+00  0.00000000E+00
  0.00000000E+00  0.00000000E+00  0.00000000E+00
  0.00000000E+00  0.00000000E+00  0.00000000E+00
  0.00000000E+00  0.00000000E+00  0.00000000E+00
  0.00000000E+00  0.00000000E+00  0.00000000E+00
  0.00000000E+00  0.00000000E+00  0.00000000E+00
  0.00000000E+00  0.00000000E+00  0.00000000E+00
  0.00000000E+00  0.00000000E+00  0.00000000E+00
  0.00000000E+00  0.00000000E+00  0.00000000E+00
  0.00000000E+00  0.00000000E+00  0.00000000E+00
  0.00000000E+00  0.00000000E+00  0.00000000E+00
  0.00000000E+00  0.00000000E+00  0.00000000E+00
  0.00000000E+00  0.00000000E+00  0.00000000E+00
  0.00000000E+00  0.00000000E+00  0.00000000E+00
  0.00000000E+00  0.00000000E+00  0.00000000E+00
  0.00000000E+00  0.00000000E+00  0.00000000E+00
  0.00000000E+00  0.00000000E+00  0.00000000E+00
  0.00000000E+00  0.00000000E+00  0.00000000E+00
  0.00000000E+00  0.00000000E+00  0.00000000E+00
  0.00000000E+00  0.00000000E+00  0.00000000E+00
  0.00000000E+00  0.00000000E+00  0.00000000E+00
  0.00000000E+00  0.00000000E+00  0.00000000E+00
  0.00000000E+00  0.00000000E+00  0.00000000E+00
  0.00000000E+00  0.00000000E+00  0.00000000E+00
  0.00000000E+00  0.00000000E+00  0.00000000E+00
  0.00000000E+00  0.00000000E+00  0.00000000E+00
  0.00000000E+00  0.00000000E+00  0.00000000E+00
  0.00000000E+00  0.00000000E+00  0.00000000E+00
  0.00000000E+00  0.00000000E+00  0.00000000E+00
  0.00000000E+00  0.00000000E+00  0.00000000E+00
  0.00000000E+00  0.00000000E+00  0.00000000E+00
  0.00000000E+00  0.00000000E+00  0.00000000E+00
  0.00000000E+00  0.00000000E+00  0.00000000E+00
  0.00000000E+00  0.00000000E+00  0.00000000E+00
  0.00000000E+00  0.00000000E+00  0.00000000E+00
  0.00000000E+00  0.00000000E+00  0.00000000E+00
  0.00000000E+00  0.00000000E+00  0.00000000E+00
  0.00000000E+00  0.00000000E+00  0.00000000E+00
  0.00000000E+00  0.00000000E+00  0.00000000E+00
  0.00000000E+00  0.00000000E+00  0.00000000E+00
  0.00000000E+00  0.00000000E+00  0.00000000E+00
  0.00000000E+00  0.00000000E+00  0.00000000E+00
  0.00000000E+00  0.00000000E+00  0.00000000E+00
  0.00000000E+00  0.00000000E+00  0.00000000E+00
  0.00000000E+00  0.00000000E+00  0.00000000E+00
  0.00000000E+00  0.00000000E+00  0.00000000E+00
  0.00000000E+00  0.00000000E+00  0.00000000E+00
  0.00000000E+00  0.00000000E+00  0.00000000E+00
  0.00000000E+00  0.00000000E+00  0.00000000E+00
  0.00000000E+00  0.00000000E+00  0.00000000E+00
  0.00000000E+00  0.00000000E+00  0.00000000E+00
  0.00000000E+00  0.00000000E+00  0.00000000E+00
  0.00000000E+00  0.00000000E+00  0.00000000E+00
  0.00000000E+00  0.00000000E+00  0.00000000E+00
  0.00000000E+00  0.00000000E+00  0.00000000E+00
  0.00000000E+00  0.00000000E+00  0.00000000E+00
  0.00000000E+00  0.00000000E+00  0.00000000E+00
  0.00000000E+00  0.00000000E+00  0.00000000E+00
  0.00000000E+00  0.00000000E+00  0.00000000E+00
  0.00000000E+00  0.00000000E+00  0.00000000E+00
  0.00000000E+00  0.00000000E+00  0.00000000E+00
  0.00000000E+00  0.00000000E+00  0.00000000E+00
  0.00000000E+00  0.00000000E+00  0.00000000E+00
  0.00000000E+00  0.00000000E+00  0.00000000E+00
  0.00000000E+00  0.00000000E+00  0.00000000E+00
  0.00000000E+00  0.00000000E+00  0.00000000E+00
  0.00000000E+00  0.00000000E+00  0.00000000E+00
  0.00000000E+00  0.00000000E+00  0.00000000E+00
  0.00000000E+00  0.00000000E+00  0.00000000E+00
  0.00000000E+00  0.00000000E+00  0.00000000E+00
  0.00000000E+00  0.00000000E+00  0.00000000E+00
  0.00000000E+00  0.00000000E+00  0.00000000E+00
  0.00000000E+00  0.00000000E+00  0.00000000E+00
  0.00000000E+00  0.00000000E+00  0.00000000E+00
  0.00000000E+00  0.00000000E+00  0.00000000E+00
  0.00000000E+00  0.00000000E+00  0.00000000E+00
  0.00000000E+00  0.00000000E+00  0.00000000E+00
  0.00000000E+00  0.00000000E+00  0.00000000E+00
  0.00000000E+00  0.00000000E+00  0.00000000E+00
  0.00000000E+00  0.00000000E+00  0.00000000E+00
  0.00000000E+00  0.00000000E+00  0.00000000E+00
  0.00000000E+00  0.00000000E+00  0.00000000E+00
  0.00000000E+00  0.00000000E+00  0.00000000E+00
  0.00000000E+00  0.00000000E+00  0.00000000E+00
  0.00000000E+00  0.00000000E+00  0.00000000E+00
  0.00000000E+00  0.00000000E+00  0.00000000E+00
  0.00000000E+00  0.00000000E+00  0.00000000E+00
  0.00000000E+00  0.00000000E+00  0.00000000E+00
  0.00000000E+00  0.00000000E+00  0.00000000E+00
  0.00000000E+00  0.00000000E+00  0.00000000E+00
  0.00000000E+00  0.00000000E+00  0.00000000E+00
  0.00000000E+00  0.00000000E+00  0.00000000E+00
  0.00000000E+00  0.00000000E+00  0.00000000E+00
  0.00000000E+00  0.00000000E+00  0.00000000E+00
  0.00000000E+00  0.00000000E+00  0.00000000E+00
  0.00000000E+00  0.00000000E+00  0.00000000E+00
  0.00000000E+00  0.00000000E+00  0.00000000E+00
  0.00000000E+00  0.00000000E+00  0.00000000E+00
  0.00000000E+00  0.00000000E+00  0.00000000E+00
  0.00000000E+00  0.00000000E+00  0.00000000E+00
  0.00000000E+00  0.00000000E+00  0.00000000E+00
  0.00000000E+00  0.00000000E+00  0.00000000E+00
  0.00000000E+00  0.00000000E+00  0.00000000E+00
  0.00000000E+00  0.00000000E+00  0.00000000E+00
  0.00000000E+00  0.00000000E+00  0.00000000E+00
  0.00000000E+00  0.00000000E+00  0.00000000E+00
  0.00000000E+00  0.00000000E+00  0.00000000E+00
  0.00000000E+00  0.00000000E+00  0.00000000E+00
  0.00000000E+00  0.00000000E+00  0.00000000E+00
  0.00000000E+00  0.00000000E+00  0.00000000E+00
  0.00000000E+00  0.00000000E+00  0.00000000E+00
  0.00000000E+00  0.00000000E+00  0.00000000E+00
  0.00000000E+00  0.00000000E+00  0.00000000E+00
  0.00000000E+00  0.00000000E+00  0.00000000E+00
  0.00000000E+00  0.00000000E+00  0.00000000E+00
  0.00000000E+00  0.00000000E+00  0.00000000E+00
  0.00000000E+00  0.00000000E+00  0.00000000E+00
  0.00000000E+00  0.00000000E+00  0.00000000E+00
  0.00000000E+00  0.00000000E+00  0.00000000E+00
  0.00000000E+00  0.00000000E+00  0.00000000E+00
  0.00000000E+00  0.00000000E+00  0.00000000E+00
  0.00000000E+00  0.00000000E+00  0.00000000E+00
  0.00000000E+00  0.00000000E+00  0.00000000E+00
  0.00000000E+00  0.00000000E+00  0.00000000E+00
  0.00000000E+00  0.00000000E+00  0.00000000E+00
  0.00000000E+00  0.00000000E+00  0.00000000E+00
  0.00000000E+00  0.00000000E+00  0.00000000E+00
  0.00000000E+00  0.00000000E+00  0.00000000E+00
  0.00000000E+00  0.00000000E+00  0.00000000E+00
  0.00000000E+00  0.00000000E+00  0.00000000E+00
  0.00000000E+00  0.00000000E+00  0.00000000E+00
  0.00000000E+00  0.00000000E+00  0.00000000E+00
  0.00000000E+00  0.00000000E+00  0.00000000E+00
  0.00000000E+00  0.00000000E+00  0.00000000E+00
  0.00000000E+00  0.00000000E+00  0.00000000E+00
  0.00000000E+00  0.00000000E+00  0.00000000E+00
  0.00000000E+00  0.00000000E+00  0.00000000E+00
  0.00000000E+00  0.00000000E+00  0.00000000E+00
  0.00000000E+00  0.00000000E+00  0.00000000E+00
  0.00000000E+00  0.00000000E+00  0.00000000E+00
  0.00000000E+00  0.00000000E+00  0.00000000E+00
  0.00000000E+00  0.00000000E+00  0.00000000E+00
  0.00000000E+00  0.00000000E+00  0.00000000E+00
  0.00000000E+00  0.00000000E+00  0.00000000E+00
  0.00000000E+00  0.00000000E+00  0.00000000E+00
  0.00000000E+00  0.00000000E+00  0.00000000E+00
  0.00000000E+00  0.00000000E+00  0.00000000E+00
  0.00000000E+00  0.00000000E+00  0.00000000E+00
  0.00000000E+00  0.00000000E+00  0.00000000E+00
  0.00000000E+00  0.00000000E+00  0.00000000E+00
  0.00000000E+00  0.00000000E+00  0.00000000E+00
  0.00000000E+00  0.00000000E+00  0.00000000E+00
  0.00000000E+00  0.00000000E+00  0.00000000E+00
  0.00000000E+00  0.00000000E+00  0.00000000E+00
  0.00000000E+00  0.00000000E+00  0.00000000E+00
  0.00000000E+00  0.00000000E+00  0.00000000E+00
  0.00000000E+00  0.00000000E+00  0.00000000E+00
  0.00000000E+00  0.00000000E+00  0.00000000E+00
  0.00000000E+00  0.00000000E+00  0.00000000E+00
  0.00000000E+00  0.00000000E+00  0.00000000E+00
  0.00000000E+00  0.00000000E+00  0.00000000E+00
  0.00000000E+00  0.00000000E+00  0.00000000E+00
  0.00000000E+00  0.00000000E+00  0.00000000E+00
  0.00000000E+00  0.00000000E+00  0.00000000E+00
  0.00000000E+00  0.00000000E+00  0.00000000E+00
  0.00000000E+00  0.00000000E+00  0.00000000E+00
  0.00000000E+00  0.00000000E+00  0.00000000E+00
  0.00000000E+00  0.00000000E+00  0.00000000E+00
  0.00000000E+00  0.00000000E+00  0.00000000E+00
  0.00000000E+00  0.00000000E+00  0.00000000E+00
  0.00000000E+00  0.00000000E+00  0.00000000E+00
  0.00000000E+00  0.00000000E+00  0.00000000E+00
  0.00000000E+00  0.00000000E+00  0.00000000E+00
  0.00000000E+00  0.00000000E+00  0.00000000E+00
  0.00000000E+00  0.00000000E+00  0.00000000E+00
  0.00000000E+00  0.00000000E+00  0.00000000E+00
  0.00000000E+00  0.00000000E+00  0.00000000E+00
  0.00000000E+00  0.00000000E+00  0.00000000E+00
  0.00000000E+00  0.00000000E+00  0.00000000E+00
  0.00000000E+00  0.00000000E+00  0.00000000E+00
  0.00000000E+00  0.00000000E+00  0.00000000E+00
  0.00000000E+00  0.00000000E+00  0.00000000E+00
  0.00000000E+00  0.00000000E+00  0.00000000E+00
  0.00000000E+00  0.00000000E+00  0.00000000E+00
  0.00000000E+00  0.00000000E+00  0.00000000E+00
  0.00000000E+00  0.00000000E+00  0.00000000E+00
  0.00000000E+00  0.00000000E+00  0.00000000E+00
  0.00000000E+00  0.00000000E+00  0.00000000E+00
  0.00000000E+00  0.00000000E+00  0.00000000E+00
  0.00000000E+00  0.00000000E+00  0.00000000E+00
  0.00000000E+00  0.00000000E+00  0.00000000E+00
  0.00000000E+00  0.00000000E+00  0.00000000E+00
  0.00000000E+00  0.00000000E+00  0.00000000E+00
  0.00000000E+00  0.00000000E+00  0.00000000E+00
  0.00000000E+00  0.00000000E+00  0.00000000E+00
  0.00000000E+00  0.00000000E+00  0.00000000E+00
  0.00000000E+00  0.00000000E+00  0.00000000E+00
  0.00000000E+00  0.00000000E+00  0.00000000E+00
  0.00000000E+00  0.00000000E+00  0.00000000E+00
  0.00000000E+00  0.00000000E+00  0.00000000E+00
  0.00000000E+00  0.00000000E+00  0.00000000E+00
  0.00000000E+00  0.00000000E+00  0.00000000E+00
  0.00000000E+00  0.00000000E+00  0.00000000E+00
  0.00000000E+00  0.00000000E+00  0.00000000E+00
  0.00000000E+00  0.00000000E+00  0.00000000E+00
  0.00000000E+00  0.00000000E+00  0.00000000E+00
  0.00000000E+00  0.00000000E+00  0.00000000E+00
  0.00000000E+00  0.00000000E+00  0.00000000E+00
  0.00000000E+00  0.00000000E+00  0.00000000E+00
  0.00000000E+00  0.00000000E+00  0.00000000E+00
  0.00000000E+00  0.00000000E+00  0.00000000E+00
  0.00000000E+00  0.00000000E+00  0.00000000E+00
  0.00000000E+00  0.00000000E+00  0.00000000E+00
  0.00000000E+00  0.00000000E+00  0.00000000E+00
  0.00000000E+00  0.00000000E+00  0.00000000E+00
  0.00000000E+00  0.00000000E+00  0.00000000E+00
  0.00000000E+00  0.00000000E+00  0.00000000E+00
  0.00000000E+00  0.00000000E+00  0.00000000E+00
  0.00000000E+00  0.00000000E+00  0.00000000E+00
  0.00000000E+00  0.00000000E+00  0.00000000E+00
  0.00000000E+00  0.00000000E+00  0.00000000E+00
  0.00000000E+00  0.00000000E+00  0.00000000E+00
  0.00000000E+00  0.00000000E+00  0.00000000E+00
  0.00000000E+00  0.00000000E+00  0.00000000E+00
  0.00000000E+00  0.00000000E+00  0.00000000E+00
  0.00000000E+00  0.00000000E+00  0.00000000E+00
  0.00000000E+00  0.00000000E+00  0.00000000E+00
  0.00000000E+00  0.00000000E+00  0.00000000E+00
  0.00000000E+00  0.00000000E+00  0.00000000E+00
  0.00000000E+00  0.00000000E+00  0.00000000E+00
  0.00000000E+00  0.00000000E+00  0.00000000E+00
  0.00000000E+00  0.00000000E+00  0.00000000E+00
  0.00000000E+00  0.00000000E+00  0.00000000E+00
  0.00000000E+00  0.00000000E+00  0.00000000E+00
  0.00000000E+00  0.00000000E+00  0.00000000E+00