FeMn_288_15                             
    1.000000000000000     
     9.7266779999999997    0.0000000000000000    0.0000000000000000
     0.0000000000000000    8.4235500000000005    0.0000000000000000
     0.0000000000000000    0.0000000000000000   45.0000000000000000
   Fe   Mn
   273    15
Direct
  0.4372527881333437  0.9514444063354919  0.2135959150313385
  0.1875466145653668  0.6205488776203232  0.4347965332714064
  0.6872220044731963  0.2911511773238927  0.6098095646998739
  0.1872885555523401  0.2848501454145164  0.1266469267763894
  0.6875921078036934  0.4512806590170328  0.2135183561143380
  0.3125463792152393  0.3728308514760296  0.5213315064231453
  0.5625106350480866  0.2013560700770672  0.2134707440252198
  0.0625148325069462  0.2089678310009501  0.6981708257653332
  0.9373796573027136  0.6178890560531632  0.1689007617020873
  0.4372917135651817  0.9529309037147047  0.3463195606774663
  0.4374332789092975  0.6204945730587915  0.4348528159508809
  0.6873651643672167  0.1206654589222003  0.4351154210752633
  0.8126340764475214  0.3712797418272219  0.4347773118581247
  0.8126838465052869  0.2009941322655961  0.2134776884082862
  0.5625148892654638  0.5349363796067717  0.2578073623134505
  0.1878482743630596  0.9593200161463532  0.6982234591624789
  0.6874230738798577  0.7848264196895293  0.2576760695207125
  0.4378943438483678  0.1264296518930712  0.7864225213313468
  0.6877148871373459  0.1189413664098442  0.3017978884965584
  0.1875268848960558  0.6264951295367054  0.7864325699964576
  0.6872799496386106  0.1271050413369665  0.7865442818750692
  0.3126170281764267  0.5423792862159909  0.8733550738580413
  0.4369884350945594  0.4603337813123879  0.8311198859136162
  0.0622114391650182  0.8767421386052371  0.7864256011150400
  0.6872113343708187  0.4573656391818209  0.5651951186831906
  0.0627702718283077  0.8749525014147833  0.6537060359122482
  0.8120847116495870  0.5347472098973146  0.2577207094750789
  0.3124664877412386  0.0433652022548300  0.7422621943557046
  0.8124848858961320  0.5413392010356926  0.6097622721731627
  0.9376195933104537  0.9567088403003458  0.5651479748118267
  0.1876234714569531  0.9510293898116250  0.2135543408208124
  0.1872848769469802  0.1226366187996445  0.5213427833194741
  0.3124654968310214  0.7048569391699711  0.4786415663203931
  0.3119836968217747  0.5367863423596949  0.3902751321426555
  0.6882429287629792  0.4609434646072967  0.8312745104318665
  0.6874386590830841  0.6256306100321207  0.6536636365259414
  0.8128724302525273  0.3688285821680755  0.3018506645915454
  0.0626043669068823  0.0428047195869270  0.7423390177780508
  0.1875480951105661  0.6226090129631743  0.5213082790209596
  0.4374527351367809  0.7866642246441502  0.3902145766934283
  0.9374836728044095  0.2930473527613018  0.7422405207421910
  0.1873467596528834  0.7933601290696981  0.7422788335439472
  0.3116517617905569  0.8688247282030156  0.3017089824229550
  0.3121475659181855  0.0369445420527265  0.3902890093928768
  0.4372721050927588  0.6250241449970967  0.6536639631660933
  0.0625688501234623  0.8708349467740568  0.4348501489668742
  0.5617810529644671  0.2055388947319354  0.4786772565780936
  0.0626764182052769  0.7051425848269990  0.4786013141099021
  0.1874572212471698  0.2871730137880482  0.3902425111586465
  0.6875951617310005  0.2929125687306221  0.7422973857754063
  0.8125174784757864  0.5426204046464828  0.7423255836216903
  0.9374826365264102  0.4529077400362966  0.3462749352617114
  0.1874475585045098  0.2847480228612131  0.2577495675365423
  0.3124621089968974  0.8708727964764166  0.4349043885233087
  0.3124216457425846  0.7089912282108044  0.6980946370962861
  0.3126530044451667  0.7011945682482494  0.2135182623429956
  0.8124275816165785  0.7069300437707832  0.5650285712851686
  0.9375340692477734  0.6262938554710420  0.7864596380523501
  0.3125977052107644  0.3768813347200956  0.7863065092230109
  0.9375068159736677  0.4587937829949980  0.6982181355174991
  0.3124529599891216  0.2049229965266140  0.4787281182378039
  0.5622194519929866  0.8707326809355214  0.4347622006807593
  0.0624127861717067  0.5370596531731746  0.3901278864103529
  0.3126523260333985  0.8746627561630504  0.6537220073796004
  0.4374047154515948  0.4594290795516762  0.6981568558256638
  0.0626039069898694  0.0369116572689401  0.3901512774665851
  0.6876848355862711  0.1173323547474129  0.1688019742091809
  0.5625119637056986  0.7011578793882389  0.2134803455613083
  0.4372688915502204  0.6189480347156496  0.3018611356314623
  0.8124929287605004  0.7050490240851307  0.4786229950884471
  0.9387631414589470  0.7928986807812476  0.8733227119053588
  0.3123941853481274  0.3707235569683306  0.4349160940183636
  0.4376294095220877  0.9593846716136858  0.6981330376242489
  0.9377546474701900  0.6225430940194150  0.5213081180632514
  0.4370895670725191  0.1252289655750448  0.6537544719056687
  0.4372250274988607  0.1188757808886703  0.3018366406627228
  0.8124819049541908  0.0426899066483727  0.7424009750132748
  0.6867606304637661  0.7930723541997086  0.8735419072946234
  0.0624691930254240  0.3684386159084718  0.1688464999760072
  0.6874929362494530  0.4530844386621915  0.3462874238498059
  0.9378445630646017  0.1205649303110140  0.4347148511746258
  0.5624247137598783  0.2097087490811830  0.8311014773869967
  0.8130515657505256  0.2103888312424115  0.8313798143715270
  0.4374397687053866  0.2864584594965034  0.3902165540440648
  0.0624646114403535  0.7012697510002496  0.2135649950181585
  0.1872981240689214  0.4549989130152621  0.4786004897036297
  0.1873686232129017  0.1183273594294703  0.1689162952386911
  0.5625361997093711  0.3752477919868811  0.6537620817077490
  0.8123246187148925  0.7011636404937968  0.2135106852589631
  0.0622934565791273  0.2071534117758578  0.5651954502583492
  0.9375085988878193  0.7927180871346849  0.7422771075663762
  0.6877021856623238  0.6189434007943975  0.3018527338446314
  0.1874185299458184  0.1206048047170335  0.4348516954249221
  0.0627803033467502  0.2093295566851730  0.8311199202965567
  0.1875321471275187  0.4570127078560309  0.5651210290651830
  0.1874217509034574  0.9548202858902622  0.4786158809810196
  0.3126275949192773  0.8681325666802233  0.1687165397305807
  0.4373913051306491  0.4531265667283192  0.3462990436208537
  0.6874348197534131  0.6224282805050526  0.5213152167678948
  0.5622465060890667  0.3764757247318095  0.7862873958843600
  0.4372241381069863  0.6225076275887715  0.5213262630590780
  0.3120872023675803  0.3688599175885248  0.3018621748885817
  0.1879593210580911  0.7910407925806653  0.6096841002717348
  0.5625062301644013  0.5363648239726263  0.3902776053589970
  0.3123042564594262  0.2010235617300677  0.2134872725714544
  0.0623983439503292  0.5430803143376799  0.7422467705248069
  0.1875279521670682  0.7866243587858603  0.3901927825294748
  0.9374086938335527  0.7868537289289672  0.3901891092759749
  0.1880213609260807  0.4593378821374303  0.8310838873720082
  0.3128964717938916  0.5347204619216208  0.2577205013814968
  0.5625665254098045  0.0415427341239140  0.6097718389802161
  0.9379700590715284  0.6254938836650413  0.6537816606823732
  0.0616293291959638  0.7095723950601803  0.8312699837691198
  0.5625279403027219  0.0349001467684217  0.2577825517063922
  0.3124615521495018  0.0440721824358803  0.8735237674960978
  0.1876593978859811  0.9604756996917420  0.8312260556071288
  0.9375681085186193  0.2847921027198005  0.2577471252066959
  0.6872714721784318  0.7853384936792096  0.1265246256675618
  0.5625837060989112  0.2092489272626389  0.6982113411679752
  0.5628431043741638  0.7086821044417025  0.6980256812081242
  0.1875954620806402  0.6179014169470052  0.1688970209002229
  0.8129343648924555  0.5371939553090089  0.3902063472712883
  0.4373224003230800  0.1173360680230571  0.1687948352683869
  0.3123677887733785  0.5340590855462579  0.1266911771106033
  0.1875351422266051  0.6185790940841227  0.3018451975453024
  0.4369530264341830  0.2923731245384177  0.8734138730572691
  0.8124842796128101  0.8772807642171568  0.7863494990199528
  0.1874978422714063  0.7848379837379864  0.2577697775431711
  0.9375017448140792  0.7847994203545368  0.2577555791838997
  0.0625467560919940  0.5413644643190938  0.6098006812363779
  0.0624944562859785  0.7026470744302111  0.3463149886680889
  0.0625834430338214  0.0412301161144339  0.6097674274321864
  0.5624995627906454  0.3675627478588798  0.1688864929565294
  0.6875325150654003  0.6207124668790044  0.4349128796318768
  0.3123432491996038  0.7029416546181108  0.3462847716501930
  0.0625047701072603  0.3685212374910429  0.3018016113929722
  0.4373850833505312  0.1204451391901777  0.4348632677322179
  0.1871269058848810  0.1264983522262464  0.7863499234176388
  0.9372856929774412  0.1187326503911191  0.3018600384737824
  0.6870967213366102  0.6178484407155801  0.1687979036432810
  0.3125353831829981  0.0346000356095068  0.1266366222531933
  0.3127208865028868  0.0347638162812870  0.2577265325626036
  0.0632930163128896  0.5441152494150830  0.8732662011298717
  0.1877470405400292  0.2926840401111211  0.8734668282747734
  0.0624489753008962  0.8726627766717786  0.5213248877976517
  0.9381292905630867  0.1223269349232075  0.5212283752335106
  0.4376402584449760  0.7930298901454169  0.7422341795478962
  0.9372396736958382  0.2871275054505756  0.3902514531961283
  0.6875033599634277  0.9564093308039515  0.5651644481289676
  0.8133308580119974  0.8689821551253692  0.3017384181004771
  0.0624592068792447  0.0346068620145077  0.1266553996491216
  0.4377373980057734  0.9570008304437279  0.5651259923172497
  0.1876899745153802  0.4595732750165460  0.6982069776554171
  0.3123710842732216  0.2098621928977796  0.6980269091094629
  0.1874769389712916  0.4528568941585769  0.3463023093813256
  0.4373544038432640  0.7910770387607442  0.6097946780613458
  0.6883409160538946  0.2920216414142525  0.8732646933388307
  0.0624677575064697  0.8679185267752696  0.1688547789967310
  0.8126192944044450  0.3750249306604894  0.6537583637765488
  0.6870676526533672  0.4548057487135528  0.4786462825875605
  0.0624408725159495  0.5341493666045984  0.1266924752715907
  0.4371203691605829  0.2852073363808108  0.1267107377121865
  0.1876774087494122  0.2913073094592445  0.6098464150823589
  0.9378369184196046  0.4550989875356048  0.4786009692789371
  0.6878581767063480  0.2852304358989774  0.1267023173907394
  0.3125555076351919  0.7097972509004334  0.8312359792885785
  0.1874160359810346  0.4513252229964664  0.2136244472295629
  0.3119770129704882  0.3680284371799811  0.1688225688690357
  0.9376110237268304  0.1250791123920106  0.6537047802545641
  0.9373259432876094  0.2920423573349775  0.8733592939805217
  0.9373886363897026  0.9510010358966104  0.2135582617404262
  0.5625863268993015  0.5432102459969210  0.7422202967891163
  0.9376188730152604  0.9529767288752774  0.3462860899734775
  0.3126346564213225  0.8725420046913182  0.5214326834166260
  0.6872736765693993  0.9595824530151462  0.8311774529960744
  0.4373787177469316  0.2932724530181287  0.7423936431328683
  0.8124359348281127  0.0415358565367418  0.6096968454594884
  0.5625149997271334  0.0428864949790721  0.7422856895052465
  0.9370383102482300  0.4605650088506121  0.8311915767278983
  0.5624811737668614  0.0343438032945151  0.1264345074112820
  0.6873293859600317  0.7910696785005836  0.6098097884837683
  0.6875415906630011  0.2852356121621837  0.2576896662209550
  0.4377054132180861  0.4548668592610050  0.4786111170838002
  0.0624879846121214  0.5346507731436335  0.2577631443885214
  0.1875286208961018  0.2932018116029924  0.7423151095572621
  0.3124072985248529  0.7068300974764506  0.5651611571021944
  0.5626273345654978  0.5407806439450632  0.6098188687761090
  0.8124842984122698  0.8709928629160014  0.4347721252812393
  0.3126570824291374  0.3751510292231400  0.6537828654180385
  0.8127275917152066  0.7089154898554998  0.8312366267591603
  0.0628944030309518  0.3761425742308518  0.7862517796768962
  0.9373898507159398  0.6207250916865283  0.4348243294880622
  0.8125019688481089  0.3733848560246537  0.5213349785124197
  0.0622580405123759  0.7069541841847511  0.5650791650216209
  0.0621957798569183  0.3705890764653588  0.4348486758734076
  0.9373316341894762  0.9603732277209998  0.8311267167710138
  0.1868947568820681  0.7849852054007179  0.1267204945313984
  0.5622525354120071  0.7048971392955757  0.4787018890406428
  0.0624273703945092  0.8687066273416376  0.3018533401190385
  0.1877082524307199  0.1187334990855586  0.3018849112431939
  0.0623142872421062  0.3724863839803634  0.5213732410679699
  0.0625259918735294  0.2029227800466442  0.3463271385544766
  0.8125118888747284  0.7089350971669265  0.6981348119503495
  0.8126520248251121  0.2069990688976572  0.5648581675148496
  0.6875069085129436  0.9540955695694499  0.4786819168295581
  0.0621501886339138  0.3752348727509388  0.6537154443183253
  0.8124857603646872  0.2089909741913248  0.6981862132692714
  0.4376432913917331  0.9547822492277704  0.4786509562276256
  0.8121468897237335  0.2030359511140073  0.3464005650930396
  0.9375455401504400  0.4512885491250757  0.2136158267174748
  0.5628801544299129  0.7069841814216561  0.5651327141575420
  0.1872356849791723  0.9569215185152324  0.5650973958544008
  0.4384067252522427  0.7927155162475008  0.8735692556348369
  0.8127782304615933  0.0436869691126985  0.8734067389486346
  0.3127699799629614  0.2030386002924469  0.3463856752589828
  0.8125984931523134  0.0372296380632288  0.3902819981940173
  0.6870273076612785  0.9592496593527436  0.6982571144192912
  0.5620906586569904  0.8726233385077173  0.5213891280810435
  0.6877037976845484  0.6263351269130760  0.7863105567602661
  0.5626403196189451  0.3710113088580153  0.4347167148463785
  0.8125516261896957  0.5340678188243043  0.1266869219429813
  0.5626606351230699  0.3725953566640993  0.5214042175066537
  0.3123419543029739  0.0411894152442456  0.6098229464817730
  0.4376842206738544  0.7853138935050231  0.1265272117423558
  0.9377896101348503  0.4571652919497151  0.5652680617239357
  0.8125723729024777  0.7027990534587445  0.3463023220679436
  0.3124033722139712  0.5407677451234032  0.6097090949997139
  0.8130198142127647  0.3680139513306057  0.1688261426355807
  0.5624066299213413  0.8751112365937984  0.6537095460617339
  0.9377778367267445  0.1268190690340362  0.7864831660726491
  0.1877112173555294  0.1250792279475971  0.6537385716298413
  0.6875113868729962  0.7923800748581885  0.7423253075784220
  0.9376152685470993  0.2848709249473068  0.1266421192084250
  0.5617411296737289  0.5441260966146939  0.8735024669357401
  0.4375260321798396  0.4568674052500854  0.5651050018214224
  0.4373145097974729  0.1221165332564073  0.5213702470305135
  0.5623508929866410  0.2071112673699533  0.5652739891660141
  0.1872770883081513  0.9529698970829061  0.3463292284414168
  0.6876766770878711  0.2864050215538822  0.3902023326528591
  0.5624217768104748  0.7030100501157812  0.3462850510774120
  0.0628466618789552  0.2054835781606698  0.4785845562393096
  0.9374571766053349  0.2916447434147014  0.6098444790044600
  0.4380003769155515  0.9599990231610509  0.8312394536705203
  0.8124678737866321  0.3765833910341648  0.7864701952810220
  0.4374632096708129  0.2852204171223802  0.2576907897562323
  0.1873747651048703  0.6251130117879246  0.6536639418985970
  0.8122244342552444  0.8751700100878994  0.6537157982602297
  0.0623502099727447  0.7091017715312525  0.6980786780613188
  0.4374496314575039  0.4513036609298028  0.2135199878385727
  0.9372881956598084  0.9546678633507198  0.4785607513553266
  0.6872141553285027  0.4587870594780516  0.6981126217003669
  0.4372446319221207  0.6263909520633777  0.7862928564951920
  0.5623981703344105  0.2026928457388651  0.3462467833109978
  0.8123455072124339  0.8681252690239116  0.1687212617512839
  0.4377034902852971  0.2910709576345135  0.6098941536239126
  0.5627177906692792  0.0431216786550163  0.8733911901172212
  0.9374251235102072  0.6185493366829901  0.3018416549469831
  0.5628747350393847  0.8772798102880268  0.7863390755331453
  0.8123730176307016  0.0346650132312451  0.1266351780793992
  0.3124714676847278  0.5433722168160177  0.7423254213978611
  0.8127904803475595  0.8729298659533200  0.5213033448789883
  0.6874101574489139  0.7869956862661339  0.3902000998774956
  0.9380353177884629  0.7850031453528314  0.1267128705299995
  0.4378914760759593  0.6178770694849685  0.1687952426386272
  0.0624715847441230  0.2010345044803303  0.2135814521356739
  0.4375836622540858  0.7848715044331711  0.2576825912846312
  0.9375726484736656  0.1183268349898947  0.1689219649995800
  0.6877299189542291  0.9528162552429934  0.3462553218170752
  0.6877627164530754  0.9514342149557552  0.2135925532965335
  0.1866371124956000  0.7929435080831191  0.8733300675118810
  0.8123117770171430  0.0347191718612941  0.2577322062061497
  0.0625356125211436  0.0435781931739363  0.8734328703295704
  0.5624913990987025  0.5349033222916406  0.1266485563157902
  0.5625021508187907  0.8689894168411495  0.3018091338765506
  0.3125934596349366  0.2071104696223730  0.5651201695240438
  0.6877647537648863  0.1250069522904234  0.6537030725084443
  0.0625043758222950  0.0348357049064843  0.2576712936958082
  0.3120727672421612  0.2092160981364313  0.8317406874107198
  0.5624950127480705  0.3693113196601918  0.3017550460029524
  0.8127968169933316  0.5432630966187482  0.8730771292529266
  0.5629786006386770  0.7095133441937082  0.8318912745160368
  0.9371924297121347  0.9593035591196589  0.6981657137128895
  0.6873190681337504  0.1224760246559507  0.5212692892141011
  0.3128885668751462  0.8766239912365321  0.7862090952412997
  0.5625183978268127  0.8678394499948474  0.1682319669925207
  0.8125804003732735  0.2050957406811532  0.4787428156533328
  0.9374782625524877  0.7916280147556236  0.6098603626197551
  0.5623842892620859  0.0363926554446548  0.3901004084549682
 
  0.00000000E+00  0.00000000E+00  0.00000000E+00
  0.00000000E+00  0.00000000E+00  0.00000000E+00
  0.00000000E+00  0.00000000E+00  0.00000000E+00
  0.00000000E+00  0.00000000E+00  0.00000000E+00
  0.00000000E+00  0.00000000E+00  0.00000000E+00
  0.00000000E+00  0.00000000E+00  0.00000000E+00
  0.00000000E+00  0.00000000E+00  0.00000000E+00
  0.00000000E+00  0.00000000E+00  0.00000000E+00
  0.00000000E+00  0.00000000E+00  0.00000000E+00
  0.00000000E+00  0.00000000E+00  0.00000000E+00
  0.00000000E+00  0.00000000E+00  0.00000000E+00
  0.00000000E+00  0.00000000E+00  0.00000000E+00
  0.00000000E+00  0.00000000E+00  0.00000000E+00
  0.00000000E+00  0.00000000E+00  0.00000000E+00
  0.00000000E+00  0.00000000E+00  0.00000000E+00
  0.00000000E+00  0.00000000E+00  0.00000000E+00
  0.00000000E+00  0.00000000E+00  0.00000000E+00
  0.00000000E+00  0.00000000E+00  0.00000000E+00
  0.00000000E+00  0.00000000E+00  0.00000000E+00
  0.00000000E+00  0.00000000E+00  0.00000000E+00
  0.00000000E+00  0.00000000E+00  0.00000000E+00
  0.00000000E+00  0.00000000E+00  0.00000000E+00
  0.00000000E+00  0.00000000E+00  0.00000000E+00
  0.00000000E+00  0.00000000E+00  0.00000000E+00
  0.00000000E+00  0.00000000E+00  0.00000000E+00
  0.00000000E+00  0.00000000E+00  0.00000000E+00
  0.00000000E+00  0.00000000E+00  0.00000000E+00
  0.00000000E+00  0.00000000E+00  0.00000000E+00
  0.00000000E+00  0.00000000E+00  0.00000000E+00
  0.00000000E+00  0.00000000E+00  0.00000000E+00
  0.00000000E+00  0.00000000E+00  0.00000000E+00
  0.00000000E+00  0.00000000E+00  0.00000000E+00
  0.00000000E+00  0.00000000E+00  0.00000000E+00
  0.00000000E+00  0.00000000E+00  0.00000000E+00
  0.00000000E+00  0.00000000E+00  0.00000000E+00
  0.00000000E+00  0.00000000E+00  0.00000000E+00
  0.00000000E+00  0.00000000E+00  0.00000000E+00
  0.00000000E+00  0.00000000E+00  0.00000000E+00
  0.00000000E+00  0.00000000E+00  0.00000000E+00
  0.00000000E+00  0.00000000E+00  0.00000000E+00
  0.00000000E+00  0.00000000E+00  0.00000000E+00
  0.00000000E+00  0.00000000E+00  0.00000000E+00
  0.00000000E+00  0.00000000E+00  0.00000000E+00
  0.00000000E+00  0.00000000E+00  0.00000000E+00
  0.00000000E+00  0.00000000E+00  0.00000000E+00
  0.00000000E+00  0.00000000E+00  0.00000000E+00
  0.00000000E+00  0.00000000E+00  0.00000000E+00
  0.00000000E+00  0.00000000E+00  0.00000000E+00
  0.00000000E+00  0.00000000E+00  0.00000000E+00
  0.00000000E+00  0.00000000E+00  0.00000000E+00
  0.00000000E+00  0.00000000E+00  0.00000000E+00
  0.00000000E+00  0.00000000E+00  0.00000000E+00
  0.00000000E+00  0.00000000E+00  0.00000000E+00
  0.00000000E+00  0.00000000E+00  0.00000000E+00
  0.00000000E+00  0.00000000E+00  0.00000000E+00
  0.00000000E+00  0.00000000E+00  0.00000000E+00
  0.00000000E+00  0.00000000E+00  0.00000000E+00
  0.00000000E+00  0.00000000E+00  0.00000000E+00
  0.00000000E+00  0.00000000E+00  0.00000000E+00
  0.00000000E+00  0.00000000E+00  0.00000000E+00
  0.00000000E+00  0.00000000E+00  0.00000000E+00
  0.00000000E+00  0.00000000E+00  0.00000000E+00
  0.00000000E+00  0.00000000E+00  0.00000000E+00
  0.00000000E+00  0.00000000E+00  0.00000000E+00
  0.00000000E+00  0.00000000E+00  0.00000000E+00
  0.00000000E+00  0.00000000E+00  0.00000000E+00
  0.00000000E+00  0.00000000E+00  0.00000000E+00
  0.00000000E+00  0.00000000E+00  0.00000000E+00
  0.00000000E+00  0.00000000E+00  0.00000000E+00
  0.00000000E+00  0.00000000E+00  0.00000000E+00
  0.00000000E+00  0.00000000E+00  0.00000000E+00
  0.00000000E+00  0.00000000E+00  0.00000000E+00
  0.00000000E+00  0.00000000E+00  0.00000000E+00
  0.00000000E+00  0.00000000E+00  0.00000000E+00
  0.00000000E+00  0.00000000E+00  0.00000000E+00
  0.00000000E+00  0.00000000E+00  0.00000000E+00
  0.00000000E+00  0.00000000E+00  0.00000000E+00
  0.00000000E+00  0.00000000E+00  0.00000000E+00
  0.00000000E+00  0.00000000E+00  0.00000000E+00
  0.00000000E+00  0.00000000E+00  0.00000000E+00
  0.00000000E+00  0.00000000E+00  0.00000000E+00
  0.00000000E+00  0.00000000E+00  0.00000000E+00
  0.00000000E+00  0.00000000E+00  0.00000000E+00
  0.00000000E+00  0.00000000E+00  0.00000000E+00
  0.00000000E+00  0.00000000E+00  0.00000000E+00
  0.00000000E+00  0.00000000E+00  0.00000000E+00
  0.00000000E+00  0.00000000E+00  0.00000000E+00
  0.00000000E+00  0.00000000E+00  0.00000000E+00
  0.00000000E+00  0.00000000E+00  0.00000000E+00
  0.00000000E+00  0.00000000E+00  0.00000000E+00
  0.00000000E+00  0.00000000E+00  0.00000000E+00
  0.00000000E+00  0.00000000E+00  0.00000000E+00
  0.00000000E+00  0.00000000E+00  0.00000000E+00
  0.00000000E+00  0.00000000E+00  0.00000000E+00
  0.00000000E+00  0.00000000E+00  0.00000000E+00
  0.00000000E+00  0.00000000E+00  0.00000000E+00
  0.00000000E+00  0.00000000E+00  0.00000000E+00
  0.00000000E+00  0.00000000E+00  0.00000000E+00
  0.00000000E+00  0.00000000E+00  0.00000000E+00
  0.00000000E+00  0.00000000E+00  0.00000000E+00
  0.00000000E+00  0.00000000E+00  0.00000000E+00
  0.00000000E+00  0.00000000E+00  0.00000000E+00
  0.00000000E+00  0.00000000E+00  0.00000000E+00
  0.00000000E+00  0.00000000E+00  0.00000000E+00
  0.00000000E+00  0.00000000E+00  0.00000000E+00
  0.00000000E+00  0.00000000E+00  0.00000000E+00
  0.00000000E+00  0.00000000E+00  0.00000000E+00
  0.00000000E+00  0.00000000E+00  0.00000000E+00
  0.00000000E+00  0.00000000E+00  0.00000000E+00
  0.00000000E+00  0.00000000E+00  0.00000000E+00
  0.00000000E+00  0.00000000E+00  0.00000000E+00
  0.00000000E+00  0.00000000E+00  0.00000000E+00
  0.00000000E+00  0.00000000E+00  0.00000000E+00
  0.00000000E+00  0.00000000E+00  0.00000000E+00
  0.00000000E+00  0.00000000E+00  0.00000000E+00
  0.00000000E+00  0.00000000E+00  0.00000000E+00
  0.00000000E+00  0.00000000E+00  0.00000000E+00
  0.00000000E+00  0.00000000E+00  0.00000000E+00
  0.00000000E+00  0.00000000E+00  0.00000000E+00
  0.00000000E+00  0.00000000E+00  0.00000000E+00
  0.00000000E+00  0.00000000E+00  0.00000000E+00
  0.00000000E+00  0.00000000E+00  0.00000000E+00
  0.00000000E+00  0.00000000E+00  0.00000000E+00
  0.00000000E+00  0.00000000E+00  0.00000000E+00
  0.00000000E+00  0.00000000E+00  0.00000000E+00
  0.00000000E+00  0.00000000E+00  0.00000000E+00
  0.00000000E+00  0.00000000E+00  0.00000000E+00
  0.00000000E+00  0.00000000E+00  0.00000000E+00
  0.00000000E+00  0.00000000E+00  0.00000000E+00
  0.00000000E+00  0.00000000E+00  0.00000000E+00
  0.00000000E+00  0.00000000E+00  0.00000000E+00
  0.00000000E+00  0.00000000E+00  0.00000000E+00
  0.00000000E+00  0.00000000E+00  0.00000000E+00
  0.00000000E+00  0.00000000E+00  0.00000000E+00
  0.00000000E+00  0.00000000E+00  0.00000000E+00
  0.00000000E+00  0.00000000E+00  0.00000000E+00
  0.00000000E+00  0.00000000E+00  0.00000000E+00
  0.00000000E+00  0.00000000E+00  0.00000000E+00
  0.00000000E+00  0.00000000E+00  0.00000000E+00
  0.00000000E+00  0.00000000E+00  0.00000000E+00
  0.00000000E+00  0.00000000E+00  0.00000000E+00
  0.00000000E+00  0.00000000E+00  0.00000000E+00
  0.00000000E+00  0.00000000E+00  0.00000000E+00
  0.00000000E+00  0.00000000E+00  0.00000000E+00
  0.00000000E+00  0.00000000E+00  0.00000000E+00
  0.00000000E+00  0.00000000E+00  0.00000000E+00
  0.00000000E+00  0.00000000E+00  0.00000000E+00
  0.00000000E+00  0.00000000E+00  0.00000000E+00
  0.00000000E+00  0.00000000E+00  0.00000000E+00
  0.00000000E+00  0.00000000E+00  0.00000000E+00
  0.00000000E+00  0.00000000E+00  0.00000000E+00
  0.00000000E+00  0.00000000E+00  0.00000000E+00
  0.00000000E+00  0.00000000E+00  0.00000000E+00
  0.00000000E+00  0.00000000E+00  0.00000000E+00
  0.00000000E+00  0.00000000E+00  0.00000000E+00
  0.00000000E+00  0.00000000E+00  0.00000000E+00
  0.00000000E+00  0.00000000E+00  0.00000000E+00
  0.00000000E+00  0.00000000E+00  0.00000000E+00
  0.00000000E+00  0.00000000E+00  0.00000000E+00
  0.00000000E+00  0.00000000E+00  0.00000000E+00
  0.00000000E+00  0.00000000E+00  0.00000000E+00
  0.00000000E+00  0.00000000E+00  0.00000000E+00
  0.00000000E+00  0.00000000E+00  0.00000000E+00
  0.00000000E+00  0.00000000E+00  0.00000000E+00
  0.00000000E+00  0.00000000E+00  0.00000000E+00
  0.00000000E+00  0.00000000E+00  0.00000000E+00
  0.00000000E+00  0.00000000E+00  0.00000000E+00
  0.00000000E+00  0.00000000E+00  0.00000000E+00
  0.00000000E+00  0.00000000E+00  0.00000000E+00
  0.00000000E+00  0.00000000E+00  0.00000000E+00
  0.00000000E+00  0.00000000E+00  0.00000000E+00
  0.00000000E+00  0.00000000E+00  0.00000000E+00
  0.00000000E+00  0.00000000E+00  0.00000000E+00
  0.00000000E+00  0.00000000E+00  0.00000000E+00
  0.00000000E+00  0.00000000E+00  0.00000000E+00
  0.00000000E+00  0.00000000E+00  0.00000000E+00
  0.00000000E+00  0.00000000E+00  0.00000000E+00
  0.00000000E+00  0.00000000E+00  0.00000000E+00
  0.00000000E+00  0.00000000E+00  0.00000000E+00
  0.00000000E+00  0.00000000E+00  0.00000000E+00
  0.00000000E+00  0.00000000E+00  0.00000000E+00
  0.00000000E+00  0.00000000E+00  0.00000000E+00
  0.00000000E+00  0.00000000E+00  0.00000000E+00
  0.00000000E+00  0.00000000E+00  0.00000000E+00
  0.00000000E+00  0.00000000E+00  0.00000000E+00
  0.00000000E+00  0.00000000E+00  0.00000000E+00
  0.00000000E+00  0.00000000E+00  0.00000000E+00
  0.00000000E+00  0.00000000E+00  0.00000000E+00
  0.00000000E+00  0.00000000E+00  0.00000000E+00
  0.00000000E+00  0.00000000E+00  0.00000000E+00
  0.00000000E+00  0.00000000E+00  0.00000000E+00
  0.00000000E+00  0.00000000E+00  0.00000000E+00
  0.00000000E+00  0.00000000E+00  0.00000000E+00
  0.00000000E+00  0.00000000E+00  0.00000000E+00
  0.00000000E+00  0.00000000E+00  0.00000000E+00
  0.00000000E+00  0.00000000E+00  0.00000000E+00
  0.00000000E+00  0.00000000E+00  0.00000000E+00
  0.00000000E+00  0.00000000E+00  0.00000000E+00
  0.00000000E+00  0.00000000E+00  0.00000000E+00
  0.00000000E+00  0.00000000E+00  0.00000000E+00
  0.00000000E+00  0.00000000E+00  0.00000000E+00
  0.00000000E+00  0.00000000E+00  0.00000000E+00
  0.00000000E+00  0.00000000E+00  0.00000000E+00
  0.00000000E+00  0.00000000E+00  0.00000000E+00
  0.00000000E+00  0.00000000E+00  0.00000000E+00
  0.00000000E+00  0.00000000E+00  0.00000000E+00
  0.00000000E+00  0.00000000E+00  0.00000000E+00
  0.00000000E+00  0.00000000E+00  0.00000000E+00
  0.00000000E+00  0.00000000E+00  0.00000000E+00
  0.00000000E+00  0.00000000E+00  0.00000000E+00
  0.00000000E+00  0.00000000E+00  0.00000000E+00
  0.00000000E+00  0.00000000E+00  0.00000000E+00
  0.00000000E+00  0.00000000E+00  0.00000000E+00
  0.00000000E+00  0.00000000E+00  0.00000000E+00
  0.00000000E+00  0.00000000E+00  0.00000000E+00
  0.00000000E+00  0.00000000E+00  0.00000000E+00
  0.00000000E+00  0.00000000E+00  0.00000000E+00
  0.00000000E+00  0.00000000E+00  0.00000000E+00
  0.00000000E+00  0.00000000E+00  0.00000000E+00
  0.00000000E+00  0.00000000E+00  0.00000000E+00
  0.00000000E+00  0.00000000E+00  0.00000000E+00
  0.00000000E+00  0.00000000E+00  0.00000000E+00
  0.00000000E+00  0.00000000E+00  0.00000000E+00
  0.00000000E+00  0.00000000E+00  0.00000000E+00
  0.00000000E+00  0.00000000E+00  0.00000000E+00
  0.00000000E+00  0.00000000E+00  0.00000000E+00
  0.00000000E+00  0.00000000E+00  0.00000000E+00
  0.00000000E+00  0.00000000E+00  0.00000000E+00
  0.00000000E+00  0.00000000E+00  0.00000000E+00
  0.00000000E+00  0.00000000E+00  0.00000000E+00
  0.00000000E+00  0.00000000E+00  0.00000000E+00
  0.00000000E+00  0.00000000E+00  0.00000000E+00
  0.00000000E+00  0.00000000E+00  0.00000000E+00
  0.00000000E+00  0.00000000E+00  0.00000000E+00
  0.00000000E+00  0.00000000E+00  0.00000000E+00
  0.00000000E+00  0.00000000E+00  0.00000000E+00
  0.00000000E+00  0.00000000E+00  0.00000000E+00
  0.00000000E+00  0.00000000E+00  0.00000000E+00
  0.00000000E+00  0.00000000E+00  0.00000000E+00
  0.00000000E+00  0.00000000E+00  0.00000000E+00
  0.00000000E+00  0.00000000E+00  0.00000000E+00
  0.00000000E+00  0.00000000E+00  0.00000000E+00
  0.00000000E+00  0.00000000E+00  0.00000000E+00
  0.00000000E+00  0.00000000E+00  0.00000000E+00
  0.00000000E+00  0.00000000E+00  0.00000000E+00
  0.00000000E+00  0.00000000E+00  0.00000000E+00
  0.00000000E+00  0.00000000E+00  0.00000000E+00