FeMn_288_15                             
    1.000000000000000     
     9.7266779999999997    0.0000000000000000    0.0000000000000000
     0.0000000000000000    8.4235500000000005    0.0000000000000000
     0.0000000000000000    0.0000000000000000   45.0000000000000000
   Fe   Mn
   273    15
Direct
  0.1872150287587691  0.7904489143826583  0.6106572954112101
  0.1872543028902671  0.1135802181303536  0.1658518704300619
  0.9397500650764011  0.6145804469278215  0.1652328574312397
  0.0625338792279375  0.3762854082781826  0.6542570863037076
  0.6892320061715776  0.9662338780980274  0.8333617494793094
  0.6879027993543410  0.6219051431155561  0.5215334488618943
  0.3154503468135945  0.5485343437580688  0.7400816176133780
  0.0611918919824594  0.3747534827151887  0.5221954241585725
  0.0580703078367489  0.7010246849916232  0.3452530144311943
  0.6888547209364765  0.4633186580200925  0.8332463807847197
  0.4374539541498423  0.9576543373197710  0.6998743688050013
  0.4377631041313265  0.6324413963591370  0.7860798150853677
  0.9335606714932897  0.2879556344236040  0.3897740414256142
  0.0615322075871466  0.5492156549687751  0.8778559483487320
  0.4353575353358607  0.1141084473299296  0.1662166785213994
  0.0612172280559999  0.8806438847698735  0.7873934549703571
  0.6887123629067264  0.7998073500441678  0.8777806434223546
  0.4368557858163915  0.2933703466151324  0.6107372337318776
  0.9362358454031210  0.7999812911776941  0.8776973293497853
  0.5593802148975794  0.3626159082317260  0.1658973706017406
  0.0650079960196780  0.7105462781369776  0.6992632776483575
  0.1874419162373346  0.6255926026567589  0.6542669503965001
  0.5611290319425182  0.7111665088577117  0.7004153135215393
  0.5611847483772479  0.8639524866627477  0.1661902906562230
  0.8126051450377012  0.0478371567983592  0.8775351686667687
  0.9396957225897047  0.6261781993121844  0.6545582830137013
  0.1893101118941243  0.4625813321451718  0.6994939010592592
  0.6887400791448628  0.4547807860441046  0.4785306973544609
  0.3130605579766927  0.3612740303301563  0.1661198558246788
  0.1866169073961153  0.9546042660688668  0.4787490979121073
  0.3121565475525580  0.2077841851367253  0.5661635039433670
  0.1845860850927823  0.9505917266987493  0.3451293969352505
  0.6868420066861248  0.2986399425227289  0.8776481428539661
  0.6885800999972330  0.9555368403190618  0.4784256693375095
  0.6885758747215565  0.1255819212616987  0.6548114343144127
  0.4363983386625423  0.9573507508182680  0.5658871115885415
  0.3135473981595704  0.8713590158242864  0.4342999034017815
  0.5620074496937038  0.8757443608242628  0.6548893947073439
  0.8128905902335114  0.7159186871085743  0.8332371125616588
  0.1860398298354514  0.7779494452758539  0.1243455666300051
  0.4373434082119929  0.7923297695342644  0.7397496587788552
  0.5654660249860368  0.3707529807796015  0.4348438374380914
  0.9382238917243194  0.1326440899248760  0.7882145499489894
  0.3120104247121718  0.5480649866170635  0.8780353019788637
  0.3113220805755371  0.3770244504945727  0.6545212795076127
  0.8118717203369459  0.7050911721930155  0.4783683272264259
  0.9394709448435675  0.7923935448816204  0.6108068320680318
  0.1873212778862660  0.2781945997591438  0.1241845320284669
  0.8143427119996528  0.5282203633222535  0.1239832909090909
  0.4380747268251004  0.2992868322828848  0.7405707479820729
  0.1862499487405188  0.7990451554404929  0.8780269979780704
  0.8108117466300612  0.7107338387443533  0.6996579560070383
  0.1862358910928353  0.4554911538909698  0.4790660419749860
  0.8169175368893306  0.8636293680925990  0.1658007911393035
  0.9367207598390626  0.7850575583745532  0.3895221006933879
  0.3117213350241094  0.5271218823668506  0.1242603051667968
  0.8118603949722416  0.1941455424807338  0.2111861727486300
  0.0609610917240348  0.5284030460006447  0.1244105547223899
  0.4366635971528997  0.4572528669835290  0.5659034986243028
  0.9352426683700659  0.4552044940818456  0.4788792390765249
  0.6879813187982445  0.2912930746691484  0.6105870770091542
  0.5577286906045942  0.6949145869977027  0.2114235095866101
  0.0639022323220261  0.5410654089487292  0.6105680928458748
  0.1867216963667579  0.9564349307221562  0.5662938210059445
  0.8116928734053942  0.2143428153500380  0.6990193852962124
  0.8132960499158715  0.7011052364481092  0.3449977881071389
  0.9348788784264911  0.6210675729262879  0.4345721469351476
  0.8117464472826759  0.8713148004027155  0.4351144166746653
  0.0629739193393449  0.3639789254863332  0.1652421545632541
  0.5619332503018246  0.8738509102645080  0.5215203462183865
  0.4371997706382985  0.6233583578799962  0.5216880920752989
  0.0589540660262151  0.8663889498791003  0.3025027749740484
  0.1871032391987630  0.2995245224228807  0.8775916241966791
  0.1874703931107049  0.1169305559422463  0.2999909241361359
  0.5653126465083705  0.0362854207104779  0.3899797164919350
  0.8120505157129774  0.3709322917463952  0.4346004539318181
  0.3113756161382358  0.5427681125794399  0.6108135670904129
  0.9391661355963725  0.2907250630653024  0.6104485158938566
  0.4365102982425906  0.4459554343506010  0.2119557550958068
  0.6875080732482984  0.7923341213201109  0.6106964863049104
  0.1907128746002588  0.9477123129374805  0.2102818954224583
  0.6856978369662704  0.9581908577447311  0.6989503398248857
  0.5639885952157299  0.7155596718407053  0.8332711088417890
  0.8117088180290570  0.3670194444311834  0.3010319653636011
  0.8129459481844311  0.3736085978241970  0.5217759580710966
  0.6896520237887389  0.9506528324481627  0.3451570021706937
  0.1938218363191037  0.4454209921175740  0.2107384588882958
  0.8143332258357294  0.3798905281532375  0.7867101622689431
  0.5650812918291079  0.8670786856134683  0.3008982625737880
  0.4370652727250550  0.2782229987534586  0.1240010586280394
  0.4370955512089157  0.4635525602720184  0.7002078426948011
  0.8143996388452142  0.3630709592537764  0.1656358101261698
  0.8143480534759994  0.7062488453490188  0.5658744304789953
  0.8130250807236367  0.5353820098815275  0.3897008522544616
  0.4379507101555221  0.2989997751731815  0.8777562277896356
  0.3144509097459990  0.2053588044230828  0.4788130528214873
  0.6887672896735432  0.7783902035817699  0.1236983128933886
  0.4372856520847639  0.7782070894779068  0.1238457063445381
  0.6896315491094999  0.2872061428968677  0.3898661533389999
  0.5638886291989011  0.5499684995282857  0.8780195726776122
  0.6840591042045625  0.4436592654121784  0.2115013462777134
  0.5629640824311466  0.8819136457957681  0.7866093073749392
  0.4360352445980351  0.9458309967116754  0.2116113179314341
  0.6839377789509876  0.2825744609062320  0.2590226908124716
  0.3117560807594658  0.3801760744442237  0.7865668341272993
  0.3123756691971636  0.2005390944629468  0.3446210764335021
  0.3132323921632760  0.7045114157004010  0.4790316936965198
  0.1953266160528699  0.7828121941964724  0.2581838095080413
  0.3123991879116263  0.3660909365879043  0.2992912358739480
  0.9358746066586285  0.4450240639711912  0.2102938819534710
  0.0613840563180977  0.0499825453603011  0.8775192010137004
  0.5610145269169585  0.5277360092761985  0.2586343193651245
  0.5654590093169611  0.8720693401622139  0.4347397800895527
  0.4342188971909713  0.6121166716255165  0.1665402716173838
  0.1822256266143466  0.4557578581182922  0.3448198705836360
  0.5596151156508150  0.1974152486425689  0.2115858013082998
  0.9351761356362511  0.9486399290966718  0.3449247194319503
  0.4353285453769232  0.6258045337490923  0.6547285937272896
  0.6888149462609309  0.1125592053064967  0.1658786536104338
  0.8130043535590080  0.5511758836781131  0.8778560690056427
  0.8084950753528745  0.5447352928961130  0.7403556834717943
  0.0616999151842517  0.2081928639008135  0.5664940539191640
  0.9346743788387473  0.6171795791287461  0.3024243906643282
  0.0637501726693960  0.1952965839340856  0.2108260682835624
  0.1859331375340669  0.1196003564047103  0.4344867426096617
  0.6868394643274763  0.1320944814387818  0.7874865821604150
  0.3109043921760047  0.7036774388259757  0.3449190267851226
  0.0579785386070887  0.2020637902144524  0.3449999696541203
  0.8135662898958366  0.2120705362005863  0.8328298814857037
  0.4396123134512757  0.7874965187216384  0.3898485852746497
  0.3139541117560104  0.3703618541592475  0.4351666471199253
  0.5668742337609524  0.7021181205935474  0.3452044455603027
  0.8124671342143857  0.0364103152164423  0.3898897825197336
  0.6876744425407625  0.2784285870907300  0.1238279817669510
  0.6838557786207010  0.7823247668915952  0.2592228652089579
  0.0604108538429936  0.2059751113865556  0.4787299308489147
  0.0634967167268856  0.0378127264045506  0.2586605124098130
  0.4420069166665207  0.4541886036088058  0.3449782209144863
  0.6874891834786897  0.9478297739037541  0.2113953892881217
  0.0583081803956640  0.3710682348698270  0.4346786560768036
  0.5638928310872732  0.2048254295938677  0.4786996169172092
  0.8139119108631739  0.0278529547187290  0.1239546365285439
  0.3150940721562442  0.1979285523177732  0.2119941687944094
  0.9359601479277337  0.1144907014263162  0.3013154943163422
  0.5630843598934078  0.5262540996529276  0.1236676570709822
  0.3132657223054761  0.8722072173272557  0.5221139933178783
  0.3118546592245304  0.2143175447208839  0.8330365334791613
  0.4396218062403092  0.6188340498145288  0.3001592756468398
  0.9344567689801423  0.9545273011309399  0.4783241247175751
  0.9343365538330433  0.1201900822103861  0.4348125805665375
  0.9386119883889218  0.9578512739656126  0.5663185747502943
  0.8065571499965540  0.5284583060803851  0.2595110315195564
  0.9382075972203535  0.7783194982485744  0.1244618847547422
  0.1872309459611712  0.6225335315252674  0.5222678463963055
  0.5605499435484425  0.0345858692508129  0.2587558049009575
  0.1852578966424699  0.9666851124279991  0.8328022818532983
  0.5668722531730714  0.2013682538648732  0.3452230330631684
  0.5621368621631826  0.7074469107957873  0.5660814368389924
  0.5620521523110364  0.3761143151806294  0.6547107456376667
  0.0614541173247764  0.2133614908234618  0.8327429254165355
  0.1858027158797147  0.4591886394370424  0.5663556877812354
  0.5607756459925765  0.5415760890215320  0.6105678061178178
  0.1946559074614755  0.7896474321831705  0.7403250088911768
  0.8110797025153675  0.2054101886197419  0.4786170988743117
  0.4388553085208872  0.9666473879819865  0.8329874503243353
  0.6871643400569748  0.1237623316578177  0.5215853385628332
  0.9369352508432744  0.4613143994044935  0.6997757422857802
  0.9390058863382418  0.4560292923606413  0.5659536744535659
  0.4403166994300602  0.9557913482122246  0.4790175067132298
  0.1868854066898588  0.6319122207775346  0.7865719101179555
  0.4422887105617495  0.2841203825140756  0.3899249078340898
  0.6893873148666966  0.6174886892330604  0.3011086013228390
  0.5631811668092187  0.3722274511840064  0.5214741705649928
  0.5625856599169853  0.2071044372288050  0.5661344419931994
  0.6879014663157417  0.1158589447264512  0.3008718403746442
  0.9379457553918281  0.6205514431610264  0.5219333087766628
  0.8138859405764023  0.8806182077021696  0.7874003634665154
  0.5672000982232459  0.5371119047090924  0.3896556385126357
  0.0599924694556203  0.7043808969616916  0.4789591475077886
  0.8094468648145708  0.0464065286144744  0.7421586075670300
  0.8138264834339075  0.2080970052989458  0.5661154898353732
  0.0614838781768888  0.8621628729713354  0.1655440712064931
  0.3124589868185737  0.3734694168583113  0.5217474709847496
  0.8120219727519008  0.8660173030937940  0.3022034840686139
  0.3105755952303612  0.7077707319868111  0.5662979655485209
  0.0650312309463010  0.5253166750307309  0.2586875915612096
  0.9351323100174386  0.3064246481999968  0.7412357034766798
  0.5582813715002501  0.0447762620012797  0.7409539592002308
  0.8091265722574211  0.0339568533829704  0.2589479548704159
  0.5627033357199273  0.3804387528352867  0.7866612560896927
  0.0610927016501642  0.3655278021441066  0.3011346975470084
  0.6887599709417154  0.7859076093699482  0.3894396039890624
  0.1938820794277663  0.2787578423452456  0.2587159959896473
  0.4385414664483037  0.1221245492717023  0.5219412749442398
  0.5648072693136917  0.7054954858641462  0.4784914820400669
  0.1870203037074324  0.6153632801020407  0.1657881395731823
  0.6872193752778262  0.6259165972848049  0.6548155637475306
  0.6811146444268343  0.7883462757986857  0.7402218374289770
  0.4356249343248615  0.7906854291772945  0.6106030344938060
  0.3137252573948373  0.8691529898322815  0.3005858738712857
  0.1863196552373994  0.1249644198899633  0.6543188830008079
  0.3171998949371415  0.0445581291774172  0.7411910219260474
  0.3123378138653936  0.0302280646766485  0.1242681887266574
  0.8118045550281162  0.2023339527503238  0.3454176938226782
  0.3183888359030781  0.5260033816514195  0.2581774583425780
  0.3167043108141770  0.0387796374426926  0.2586901803929594
  0.0614818284152007  0.0279664470478123  0.1244291626032320
  0.9373170890022532  0.6316637322058563  0.7866460830633124
  0.9380972248059405  0.1254833354636972  0.6541685627934227
  0.3121194718485313  0.8826275966580068  0.7864214947501498
  0.0636011171032346  0.5460746358384349  0.7408259441299099
  0.0591605974058063  0.0336504729513340  0.3898946405558805
  0.8142537567592717  0.0428517986699247  0.6105163441450884
  0.0616255928317099  0.3784815227238623  0.7868197802818139
  0.3123784961654982  0.0511722616198215  0.8779030384685967
  0.6878856851933245  0.9583485546536249  0.5659416108444372
  0.8137620933961296  0.8767365519647773  0.6547609661823959
  0.6885672315744974  0.4555592747010524  0.5659305082289057
  0.0645521827769989  0.6976589552763286  0.2092424655662599
  0.6882293239697875  0.6326931021428424  0.7864612873863727
  0.1880324456958586  0.1228216801372981  0.5222571999675978
  0.4403616124487900  0.1204666341203927  0.4348352889220224
  0.0625085342683006  0.8712820178282726  0.5220523127455651
  0.1913145755269567  0.3012872610865709  0.7411969230260881
  0.9382628432865576  0.2785094776827426  0.1240603460699521
  0.9381759625560403  0.4628874759285477  0.8331428111413489
  0.0658339771999518  0.0464456151379362  0.7425226283220296
  0.3136834465677505  0.2123453749443343  0.6997358647714961
  0.6887240502462464  0.6119805797791541  0.1655279850296753
  0.8109146542242073  0.6979885482526164  0.2102177999593802
  0.4400580491612804  0.6207777563775068  0.4347033532538079
  0.9384024872605649  0.2994672408284343  0.8774293618115381
  0.9385642279391782  0.1111788368143797  0.1657541504517159
  0.3114039093114526  0.0409066904644160  0.6104871541925636
  0.6849598308751164  0.3044854432826686  0.7405896944839263
  0.3130032802874768  0.5396391090495658  0.3896131995476208
  0.4388400865601700  0.7832480355143828  0.2584172957850089
  0.1879539665150950  0.1326887730704804  0.7872572895216082
  0.1859749236493854  0.6179927731305661  0.3015901584262108
  0.1901762632354209  0.9571599450256078  0.6988403308062381
  0.3104998003121666  0.8604816314262246  0.1662733718094015
  0.5621729871520705  0.5475387526468390  0.7399300452163063
  0.0627232104471165  0.8752294802727658  0.6543863351738940
  0.4398461060159595  0.9509887347960992  0.3448515342990908
  0.0610343526208830  0.7150906809395249  0.8330971212114010
  0.5646227746288869  0.3660456028081223  0.3000065375786322
  0.5632545688585566  0.2132253783665804  0.8330973955710469
  0.1857610295037850  0.6209147468752674  0.4345383071179507
  0.4387675605502689  0.1169774767039001  0.2995997958397489
  0.4391974615404692  0.7992184834844827  0.8779615796443351
  0.9353102817852118  0.4544702965643574  0.3455088407466527
  0.9367119131191930  0.9669232543016956  0.8329111810072929
  0.4382431730602812  0.4629688895651191  0.8332835608466693
  0.4365210814571588  0.2819509136130492  0.2582866757298805
  0.9366366367995029  0.9592134034536240  0.6975482963720870
  0.8139221756316298  0.3751785576704064  0.6547414383550560
  0.3134545955469647  0.7100490619058817  0.7001049475377646
  0.4373473792014727  0.1316293961989709  0.7865759036150816
  0.5625060531134423  0.0294264394226247  0.1238294067830461
  0.1860667352365255  0.2930969063101395  0.6107983614547225
  0.5621684479120891  0.0426758095903893  0.6106675666989761
  0.6902979074938618  0.4540032249030413  0.3453740759744939
  0.8137085775512981  0.5398203265015287  0.6107238947229255
  0.5639587052613106  0.0500563329126453  0.8776257154854286
  0.1839814723052280  0.2852467601459913  0.3894571203514697
  0.0572118720768699  0.5390536411362581  0.3892364125524856
  0.9358617414963373  0.2797413293041797  0.2589703428930185
  0.6868100626054561  0.4619303125208404  0.7003861370266332
  0.3120997813123698  0.7149504659159642  0.8329763611667185
  0.1849379832510540  0.4624296297183936  0.8332862779174884
  0.6890572182696765  0.6206191078158021  0.4345904815674435
  0.4365181033267634  0.1252973538326150  0.6545464677885411
  0.0591177400963908  0.8707657905299693  0.4342546454111418
  0.9368240447365330  0.7871180930733771  0.7416303769781761
  0.0621737729449445  0.2148767909197728  0.6987321319627050
  0.4399578812221151  0.4548225040812753  0.4788948766000253
  0.0632284801667181  0.7059227996637111  0.5662130718580352
  0.6886527290305097  0.1208699927968993  0.4343668699294359
  0.1843487994896636  0.7864408683776596  0.3893896832816973
  0.8119694492035189  0.8726874345901323  0.5214680856592754
  0.0620995644863238  0.0423576462838192  0.6108751046991885
  0.3113151608037972  0.8741196835287026  0.6547361945320921
  0.9321761248369366  0.7851224809344661  0.2590654047835231
  0.9361248904501189  0.1248133338237693  0.5219547478865724
  0.3174454596753609  0.6937149034458610  0.2110421969588920
  0.3138091732935348  0.0329140303296606  0.3900078058738675
  0.9353567041777532  0.9511477532019418  0.2102740022120472
  0.5627926191015776  0.2117758617004166  0.7000530697095454
 
  0.00000000E+00  0.00000000E+00  0.00000000E+00
  0.00000000E+00  0.00000000E+00  0.00000000E+00
  0.00000000E+00  0.00000000E+00  0.00000000E+00
  0.00000000E+00  0.00000000E+00  0.00000000E+00
  0.00000000E+00  0.00000000E+00  0.00000000E+00
  0.00000000E+00  0.00000000E+00  0.00000000E+00
  0.00000000E+00  0.00000000E+00  0.00000000E+00
  0.00000000E+00  0.00000000E+00  0.00000000E+00
  0.00000000E+00  0.00000000E+00  0.00000000E+00
  0.00000000E+00  0.00000000E+00  0.00000000E+00
  0.00000000E+00  0.00000000E+00  0.00000000E+00
  0.00000000E+00  0.00000000E+00  0.00000000E+00
  0.00000000E+00  0.00000000E+00  0.00000000E+00
  0.00000000E+00  0.00000000E+00  0.00000000E+00
  0.00000000E+00  0.00000000E+00  0.00000000E+00
  0.00000000E+00  0.00000000E+00  0.00000000E+00
  0.00000000E+00  0.00000000E+00  0.00000000E+00
  0.00000000E+00  0.00000000E+00  0.00000000E+00
  0.00000000E+00  0.00000000E+00  0.00000000E+00
  0.00000000E+00  0.00000000E+00  0.00000000E+00
  0.00000000E+00  0.00000000E+00  0.00000000E+00
  0.00000000E+00  0.00000000E+00  0.00000000E+00
  0.00000000E+00  0.00000000E+00  0.00000000E+00
  0.00000000E+00  0.00000000E+00  0.00000000E+00
  0.00000000E+00  0.00000000E+00  0.00000000E+00
  0.00000000E+00  0.00000000E+00  0.00000000E+00
  0.00000000E+00  0.00000000E+00  0.00000000E+00
  0.00000000E+00  0.00000000E+00  0.00000000E+00
  0.00000000E+00  0.00000000E+00  0.00000000E+00
  0.00000000E+00  0.00000000E+00  0.00000000E+00
  0.00000000E+00  0.00000000E+00  0.00000000E+00
  0.00000000E+00  0.00000000E+00  0.00000000E+00
  0.00000000E+00  0.00000000E+00  0.00000000E+00
  0.00000000E+00  0.00000000E+00  0.00000000E+00
  0.00000000E+00  0.00000000E+00  0.00000000E+00
  0.00000000E+00  0.00000000E+00  0.00000000E+00
  0.00000000E+00  0.00000000E+00  0.00000000E+00
  0.00000000E+00  0.00000000E+00  0.00000000E+00
  0.00000000E+00  0.00000000E+00  0.00000000E+00
  0.00000000E+00  0.00000000E+00  0.00000000E+00
  0.00000000E+00  0.00000000E+00  0.00000000E+00
  0.00000000E+00  0.00000000E+00  0.00000000E+00
  0.00000000E+00  0.00000000E+00  0.00000000E+00
  0.00000000E+00  0.00000000E+00  0.00000000E+00
  0.00000000E+00  0.00000000E+00  0.00000000E+00
  0.00000000E+00  0.00000000E+00  0.00000000E+00
  0.00000000E+00  0.00000000E+00  0.00000000E+00
  0.00000000E+00  0.00000000E+00  0.00000000E+00
  0.00000000E+00  0.00000000E+00  0.00000000E+00
  0.00000000E+00  0.00000000E+00  0.00000000E+00
  0.00000000E+00  0.00000000E+00  0.00000000E+00
  0.00000000E+00  0.00000000E+00  0.00000000E+00
  0.00000000E+00  0.00000000E+00  0.00000000E+00
  0.00000000E+00  0.00000000E+00  0.00000000E+00
  0.00000000E+00  0.00000000E+00  0.00000000E+00
  0.00000000E+00  0.00000000E+00  0.00000000E+00
  0.00000000E+00  0.00000000E+00  0.00000000E+00
  0.00000000E+00  0.00000000E+00  0.00000000E+00
  0.00000000E+00  0.00000000E+00  0.00000000E+00
  0.00000000E+00  0.00000000E+00  0.00000000E+00
  0.00000000E+00  0.00000000E+00  0.00000000E+00
  0.00000000E+00  0.00000000E+00  0.00000000E+00
  0.00000000E+00  0.00000000E+00  0.00000000E+00
  0.00000000E+00  0.00000000E+00  0.00000000E+00
  0.00000000E+00  0.00000000E+00  0.00000000E+00
  0.00000000E+00  0.00000000E+00  0.00000000E+00
  0.00000000E+00  0.00000000E+00  0.00000000E+00
  0.00000000E+00  0.00000000E+00  0.00000000E+00
  0.00000000E+00  0.00000000E+00  0.00000000E+00
  0.00000000E+00  0.00000000E+00  0.00000000E+00
  0.00000000E+00  0.00000000E+00  0.00000000E+00
  0.00000000E+00  0.00000000E+00  0.00000000E+00
  0.00000000E+00  0.00000000E+00  0.00000000E+00
  0.00000000E+00  0.00000000E+00  0.00000000E+00
  0.00000000E+00  0.00000000E+00  0.00000000E+00
  0.00000000E+00  0.00000000E+00  0.00000000E+00
  0.00000000E+00  0.00000000E+00  0.00000000E+00
  0.00000000E+00  0.00000000E+00  0.00000000E+00
  0.00000000E+00  0.00000000E+00  0.00000000E+00
  0.00000000E+00  0.00000000E+00  0.00000000E+00
  0.00000000E+00  0.00000000E+00  0.00000000E+00
  0.00000000E+00  0.00000000E+00  0.00000000E+00
  0.00000000E+00  0.00000000E+00  0.00000000E+00
  0.00000000E+00  0.00000000E+00  0.00000000E+00
  0.00000000E+00  0.00000000E+00  0.00000000E+00
  0.00000000E+00  0.00000000E+00  0.00000000E+00
  0.00000000E+00  0.00000000E+00  0.00000000E+00
  0.00000000E+00  0.00000000E+00  0.00000000E+00
  0.00000000E+00  0.00000000E+00  0.00000000E+00
  0.00000000E+00  0.00000000E+00  0.00000000E+00
  0.00000000E+00  0.00000000E+00  0.00000000E+00
  0.00000000E+00  0.00000000E+00  0.00000000E+00
  0.00000000E+00  0.00000000E+00  0.00000000E+00
  0.00000000E+00  0.00000000E+00  0.00000000E+00
  0.00000000E+00  0.00000000E+00  0.00000000E+00
  0.00000000E+00  0.00000000E+00  0.00000000E+00
  0.00000000E+00  0.00000000E+00  0.00000000E+00
  0.00000000E+00  0.00000000E+00  0.00000000E+00
  0.00000000E+00  0.00000000E+00  0.00000000E+00
  0.00000000E+00  0.00000000E+00  0.00000000E+00
  0.00000000E+00  0.00000000E+00  0.00000000E+00
  0.00000000E+00  0.00000000E+00  0.00000000E+00
  0.00000000E+00  0.00000000E+00  0.00000000E+00
  0.00000000E+00  0.00000000E+00  0.00000000E+00
  0.00000000E+00  0.00000000E+00  0.00000000E+00
  0.00000000E+00  0.00000000E+00  0.00000000E+00
  0.00000000E+00  0.00000000E+00  0.00000000E+00
  0.00000000E+00  0.00000000E+00  0.00000000E+00
  0.00000000E+00  0.00000000E+00  0.00000000E+00
  0.00000000E+00  0.00000000E+00  0.00000000E+00
  0.00000000E+00  0.00000000E+00  0.00000000E+00
  0.00000000E+00  0.00000000E+00  0.00000000E+00
  0.00000000E+00  0.00000000E+00  0.00000000E+00
  0.00000000E+00  0.00000000E+00  0.00000000E+00
  0.00000000E+00  0.00000000E+00  0.00000000E+00
  0.00000000E+00  0.00000000E+00  0.00000000E+00
  0.00000000E+00  0.00000000E+00  0.00000000E+00
  0.00000000E+00  0.00000000E+00  0.00000000E+00
  0.00000000E+00  0.00000000E+00  0.00000000E+00
  0.00000000E+00  0.00000000E+00  0.00000000E+00
  0.00000000E+00  0.00000000E+00  0.00000000E+00
  0.00000000E+00  0.00000000E+00  0.00000000E+00
  0.00000000E+00  0.00000000E+00  0.00000000E+00
  0.00000000E+00  0.00000000E+00  0.00000000E+00
  0.00000000E+00  0.00000000E+00  0.00000000E+00
  0.00000000E+00  0.00000000E+00  0.00000000E+00
  0.00000000E+00  0.00000000E+00  0.00000000E+00
  0.00000000E+00  0.00000000E+00  0.00000000E+00
  0.00000000E+00  0.00000000E+00  0.00000000E+00
  0.00000000E+00  0.00000000E+00  0.00000000E+00
  0.00000000E+00  0.00000000E+00  0.00000000E+00
  0.00000000E+00  0.00000000E+00  0.00000000E+00
  0.00000000E+00  0.00000000E+00  0.00000000E+00
  0.00000000E+00  0.00000000E+00  0.00000000E+00
  0.00000000E+00  0.00000000E+00  0.00000000E+00
  0.00000000E+00  0.00000000E+00  0.00000000E+00
  0.00000000E+00  0.00000000E+00  0.00000000E+00
  0.00000000E+00  0.00000000E+00  0.00000000E+00
  0.00000000E+00  0.00000000E+00  0.00000000E+00
  0.00000000E+00  0.00000000E+00  0.00000000E+00
  0.00000000E+00  0.00000000E+00  0.00000000E+00
  0.00000000E+00  0.00000000E+00  0.00000000E+00
  0.00000000E+00  0.00000000E+00  0.00000000E+00
  0.00000000E+00  0.00000000E+00  0.00000000E+00
  0.00000000E+00  0.00000000E+00  0.00000000E+00
  0.00000000E+00  0.00000000E+00  0.00000000E+00
  0.00000000E+00  0.00000000E+00  0.00000000E+00
  0.00000000E+00  0.00000000E+00  0.00000000E+00
  0.00000000E+00  0.00000000E+00  0.00000000E+00
  0.00000000E+00  0.00000000E+00  0.00000000E+00
  0.00000000E+00  0.00000000E+00  0.00000000E+00
  0.00000000E+00  0.00000000E+00  0.00000000E+00
  0.00000000E+00  0.00000000E+00  0.00000000E+00
  0.00000000E+00  0.00000000E+00  0.00000000E+00
  0.00000000E+00  0.00000000E+00  0.00000000E+00
  0.00000000E+00  0.00000000E+00  0.00000000E+00
  0.00000000E+00  0.00000000E+00  0.00000000E+00
  0.00000000E+00  0.00000000E+00  0.00000000E+00
  0.00000000E+00  0.00000000E+00  0.00000000E+00
  0.00000000E+00  0.00000000E+00  0.00000000E+00
  0.00000000E+00  0.00000000E+00  0.00000000E+00
  0.00000000E+00  0.00000000E+00  0.00000000E+00
  0.00000000E+00  0.00000000E+00  0.00000000E+00
  0.00000000E+00  0.00000000E+00  0.00000000E+00
  0.00000000E+00  0.00000000E+00  0.00000000E+00
  0.00000000E+00  0.00000000E+00  0.00000000E+00
  0.00000000E+00  0.00000000E+00  0.00000000E+00
  0.00000000E+00  0.00000000E+00  0.00000000E+00
  0.00000000E+00  0.00000000E+00  0.00000000E+00
  0.00000000E+00  0.00000000E+00  0.00000000E+00
  0.00000000E+00  0.00000000E+00  0.00000000E+00
  0.00000000E+00  0.00000000E+00  0.00000000E+00
  0.00000000E+00  0.00000000E+00  0.00000000E+00
  0.00000000E+00  0.00000000E+00  0.00000000E+00
  0.00000000E+00  0.00000000E+00  0.00000000E+00
  0.00000000E+00  0.00000000E+00  0.00000000E+00
  0.00000000E+00  0.00000000E+00  0.00000000E+00
  0.00000000E+00  0.00000000E+00  0.00000000E+00
  0.00000000E+00  0.00000000E+00  0.00000000E+00
  0.00000000E+00  0.00000000E+00  0.00000000E+00
  0.00000000E+00  0.00000000E+00  0.00000000E+00
  0.00000000E+00  0.00000000E+00  0.00000000E+00
  0.00000000E+00  0.00000000E+00  0.00000000E+00
  0.00000000E+00  0.00000000E+00  0.00000000E+00
  0.00000000E+00  0.00000000E+00  0.00000000E+00
  0.00000000E+00  0.00000000E+00  0.00000000E+00
  0.00000000E+00  0.00000000E+00  0.00000000E+00
  0.00000000E+00  0.00000000E+00  0.00000000E+00
  0.00000000E+00  0.00000000E+00  0.00000000E+00
  0.00000000E+00  0.00000000E+00  0.00000000E+00
  0.00000000E+00  0.00000000E+00  0.00000000E+00
  0.00000000E+00  0.00000000E+00  0.00000000E+00
  0.00000000E+00  0.00000000E+00  0.00000000E+00
  0.00000000E+00  0.00000000E+00  0.00000000E+00
  0.00000000E+00  0.00000000E+00  0.00000000E+00
  0.00000000E+00  0.00000000E+00  0.00000000E+00
  0.00000000E+00  0.00000000E+00  0.00000000E+00
  0.00000000E+00  0.00000000E+00  0.00000000E+00
  0.00000000E+00  0.00000000E+00  0.00000000E+00
  0.00000000E+00  0.00000000E+00  0.00000000E+00
  0.00000000E+00  0.00000000E+00  0.00000000E+00
  0.00000000E+00  0.00000000E+00  0.00000000E+00
  0.00000000E+00  0.00000000E+00  0.00000000E+00
  0.00000000E+00  0.00000000E+00  0.00000000E+00
  0.00000000E+00  0.00000000E+00  0.00000000E+00
  0.00000000E+00  0.00000000E+00  0.00000000E+00
  0.00000000E+00  0.00000000E+00  0.00000000E+00
  0.00000000E+00  0.00000000E+00  0.00000000E+00
  0.00000000E+00  0.00000000E+00  0.00000000E+00
  0.00000000E+00  0.00000000E+00  0.00000000E+00
  0.00000000E+00  0.00000000E+00  0.00000000E+00
  0.00000000E+00  0.00000000E+00  0.00000000E+00
  0.00000000E+00  0.00000000E+00  0.00000000E+00
  0.00000000E+00  0.00000000E+00  0.00000000E+00
  0.00000000E+00  0.00000000E+00  0.00000000E+00
  0.00000000E+00  0.00000000E+00  0.00000000E+00
  0.00000000E+00  0.00000000E+00  0.00000000E+00
  0.00000000E+00  0.00000000E+00  0.00000000E+00
  0.00000000E+00  0.00000000E+00  0.00000000E+00
  0.00000000E+00  0.00000000E+00  0.00000000E+00
  0.00000000E+00  0.00000000E+00  0.00000000E+00
  0.00000000E+00  0.00000000E+00  0.00000000E+00
  0.00000000E+00  0.00000000E+00  0.00000000E+00
  0.00000000E+00  0.00000000E+00  0.00000000E+00
  0.00000000E+00  0.00000000E+00  0.00000000E+00
  0.00000000E+00  0.00000000E+00  0.00000000E+00
  0.00000000E+00  0.00000000E+00  0.00000000E+00
  0.00000000E+00  0.00000000E+00  0.00000000E+00
  0.00000000E+00  0.00000000E+00  0.00000000E+00
  0.00000000E+00  0.00000000E+00  0.00000000E+00
  0.00000000E+00  0.00000000E+00  0.00000000E+00
  0.00000000E+00  0.00000000E+00  0.00000000E+00
  0.00000000E+00  0.00000000E+00  0.00000000E+00
  0.00000000E+00  0.00000000E+00  0.00000000E+00
  0.00000000E+00  0.00000000E+00  0.00000000E+00
  0.00000000E+00  0.00000000E+00  0.00000000E+00
  0.00000000E+00  0.00000000E+00  0.00000000E+00
  0.00000000E+00  0.00000000E+00  0.00000000E+00
  0.00000000E+00  0.00000000E+00  0.00000000E+00
  0.00000000E+00  0.00000000E+00  0.00000000E+00
  0.00000000E+00  0.00000000E+00  0.00000000E+00
  0.00000000E+00  0.00000000E+00  0.00000000E+00
  0.00000000E+00  0.00000000E+00  0.00000000E+00
  0.00000000E+00  0.00000000E+00  0.00000000E+00
  0.00000000E+00  0.00000000E+00  0.00000000E+00
  0.00000000E+00  0.00000000E+00  0.00000000E+00
  0.00000000E+00  0.00000000E+00  0.00000000E+00