FeMn_288_15                             
    1.000000000000000     
     9.7266779999999997    0.0000000000000000    0.0000000000000000
     0.0000000000000000    8.4235500000000005    0.0000000000000000
     0.0000000000000000    0.0000000000000000   45.0000000000000000
   Fe   Mn
   273    15
Direct
  0.1877035754285980  0.7921103434158815  0.6107996652803569
  0.1874451196208559  0.1131429611298039  0.1668971273139771
  0.9373855792417845  0.6130617693057988  0.1668621916246873
  0.0620419159691611  0.3751482577872260  0.6550940970797602
  0.6873992184776504  0.9647167038529925  0.8332227351032101
  0.6868937314699342  0.6228650778004329  0.5215515098407077
  0.3125065256599842  0.5456558114226899  0.7440204362596289
  0.0626600263528365  0.3730637777375469  0.5216144548814909
  0.0622529269643193  0.7019495951557949  0.3450246228877523
  0.6876018783312533  0.4645413601472433  0.8330839192606354
  0.4373624962241143  0.9607645344401496  0.6996608681455142
  0.4376391894668544  0.6314485756327863  0.7882482544760115
  0.9371061451825089  0.2861959155266120  0.3891995295801252
  0.0625045237122395  0.5493969198957495  0.8755050995521672
  0.4374527057141069  0.1127388535466650  0.1669878208849228
  0.0626497056703989  0.8813424491426471  0.7883923050674038
  0.6875617306370729  0.7992905629507244  0.8753890865653610
  0.4375331174661458  0.2924497479730892  0.6108832251310462
  0.9375372729452001  0.7992735289208366  0.8753976119360320
  0.5624665726245421  0.3627681732056033  0.1668983568425499
  0.0627076113155239  0.7109084779507735  0.6997074871017985
  0.1876234134744426  0.6254537710854418  0.6548246012276528
  0.5623617600153259  0.7111514240447948  0.6996134724182731
  0.5625678368620720  0.8627500841427411  0.1668884248140786
  0.8125375716812588  0.0496979722916369  0.8754732539227310
  0.9375134859384491  0.6255182652730731  0.6548928137401778
  0.1877126008998135  0.4607945770221462  0.6996436870828054
  0.6877009615380884  0.4553468029134522  0.4783203983537526
  0.3125740888507796  0.3626198336921599  0.1669007952238201
  0.1870128219978176  0.9554110026713525  0.4784128799123276
  0.3126964436513381  0.2079024078731171  0.5657116750635404
  0.1876329228121620  0.9522823837583280  0.3452368207370186
  0.6875909587200471  0.2994557975549151  0.8754387490541561
  0.6878440047641161  0.9553011423979868  0.4785340762613008
  0.6871898748529093  0.1261439221137345  0.6550300901092093
  0.4372613247005998  0.9575386836720923  0.5655988987384426
  0.3127830161807150  0.8706048903460305  0.4343316198659574
  0.5626502938360753  0.8760827164947375  0.6549847894866864
  0.8125283510618334  0.7145759099196684  0.8330938643628625
  0.1880603268825317  0.7779393938075494  0.1244388678768887
  0.4374624235797870  0.7961751928844878  0.7439225941595800
  0.5627382596492888  0.3705806063494295  0.4342507946733667
  0.9376602627081579  0.1312288477547456  0.7882517667200091
  0.3126302065690643  0.5494617945326103  0.8754322253852062
  0.3124301731215675  0.3753487594999099  0.6549558385428911
  0.8122044362307590  0.7049301204073378  0.4783870415715479
  0.9371722742395012  0.7915574040874435  0.6108267591168242
  0.1875186764989870  0.2785059675882354  0.1246481186480743
  0.8128222200587240  0.5279269754396536  0.1244657729285639
  0.4373707534058265  0.2960738659404745  0.7439187464270975
  0.1877232626346981  0.7992146685779851  0.8754373543930838
  0.8124551280574447  0.7111465920019731  0.6995914206278425
  0.1871151253308583  0.4551791201943677  0.4784376451053937
  0.8126960273953402  0.8629076993953853  0.1668635398854496
  0.9373285843039112  0.7862917419129597  0.3892287159709526
  0.3124876985732258  0.5284208845382986  0.1244629074756167
  0.8126305595356403  0.1964694360419749  0.2117394083684294
  0.0620220949916160  0.5278534261382266  0.1244592090570282
  0.4373979042730983  0.4572423220183852  0.5653466222277574
  0.9375410196902626  0.4547644957428550  0.4784936140224245
  0.6873796839448348  0.2920751433839268  0.6108956767923193
  0.5627048966683871  0.6958132950011758  0.2116762238572951
  0.0622362579548387  0.5417321319802447  0.6107127746622004
  0.1873448646996184  0.9575904479709345  0.5656450749391311
  0.8125368668542027  0.2114549767746687  0.6998012590686494
  0.8121868175853802  0.7016669098326719  0.3450075005707707
  0.9378957836840049  0.6209531919029808  0.4343124134344246
  0.8122751089106246  0.8706756377805803  0.4344669097782814
  0.0624287899081819  0.3632212965454139  0.1668938227172022
  0.5620143907985471  0.8724988514064668  0.5215117022379799
  0.4376350905566896  0.6230640596259446  0.5214349490525392
  0.0621622780978445  0.8668813402054560  0.3004257476254056
  0.1874883742737214  0.2994533361396984  0.8754112431402736
  0.1878098057966545  0.1173216177711588  0.3003839510258324
  0.5627723030228646  0.0366203071099181  0.3892032925164996
  0.8125533474741977  0.3707707772306907  0.4342641896872504
  0.3128756932303909  0.5420727874835057  0.6108574268152700
  0.9373939259982306  0.2912596982627110  0.6107353948897430
  0.4376975277852811  0.4463370363274061  0.2116826964530829
  0.6877604580364667  0.7917411141960280  0.6107182157929451
  0.1878026253594054  0.9461704308913550  0.2117059938546169
  0.6880375914063491  0.9612055975999863  0.6996559792118640
  0.5626046871320589  0.7148455656927946  0.8330423544535627
  0.8125167505837461  0.3664964593806753  0.3003408364413864
  0.8122633637303655  0.3733770201291716  0.5215639430123271
  0.6873163448433905  0.9519450443458550  0.3451434107011140
  0.1877356262911794  0.4466124626509779  0.2116622573218274
  0.8125557586417600  0.3814774360731749  0.7884180677393812
  0.5626595290187262  0.8669317532072185  0.3003730409519612
  0.4373783091170195  0.2781638352545056  0.1246433850883684
  0.4375361257519957  0.4611901618427536  0.6997472862046645
  0.8124773929310748  0.3630855765327471  0.1668863996943223
  0.8122301814523173  0.7065709506874212  0.5656721112272414
  0.8125954592192526  0.5359326961940638  0.3892003451894331
  0.4377246737234540  0.2996466778479654  0.8754312063832725
  0.3125068992306371  0.2049381741072499  0.4784482895244482
  0.6873148764135208  0.7779905872912429  0.1245316168679238
  0.4374089848748284  0.7780435929671974  0.1244782912380031
  0.6875686414382050  0.2863145931315642  0.3892058785586112
  0.5626189329280168  0.5494074828774635  0.8754815805357652
  0.6871932449616825  0.4460867571739088  0.2116325064219117
  0.5624401911341580  0.8815230162241062  0.7883653237658069
  0.4374525290848389  0.9462649321484293  0.2117083411071804
  0.6870609601048473  0.2818185606766163  0.2561224597076984
  0.3126880263987102  0.3818972499470830  0.7884598695783408
  0.3124345255324497  0.2025824421070988  0.3450192752776799
  0.3124313239711877  0.7050947591714265  0.4784419894034606
  0.1876083918196420  0.7817302506256768  0.2559342545020197
  0.3125469892632096  0.3673066834269020  0.3004100975856285
  0.9376085165160114  0.4464402160645212  0.2117467440111090
  0.0626303542023711  0.0495914548942792  0.8754644318974956
  0.5622339206666427  0.5316922475318360  0.2560755780206855
  0.5622244899652483  0.8709964142866593  0.4342240298903201
  0.4373127299570091  0.6130186433767824  0.1667493163188772
  0.1872079606286634  0.4524966993270811  0.3450362539950633
  0.5627767624533893  0.1963153486069985  0.2117328882579280
  0.9376533290309254  0.9515929367737602  0.3449909319537060
  0.4374854659520679  0.6259252451979511  0.6549567302382343
  0.6875896923897957  0.1129524349661552  0.1668707747453465
  0.8125452745298286  0.5493930889523055  0.8754688855884721
  0.8125464191688535  0.5466727750330607  0.7439461221016398
  0.0629465836823078  0.2074470354334320  0.5657539666398574
  0.9373968377906118  0.6163457128420754  0.3002849185155018
  0.0622304369735581  0.1964498241907114  0.2117213268497287
  0.1873588068316526  0.1208062263845371  0.4341445508031061
  0.6873159085301945  0.1315543014746626  0.7882613006495600
  0.3123604026198393  0.7023851249851760  0.3450229469724028
  0.0625265511188151  0.2022463471581873  0.3451402817004947
  0.8124606156234219  0.2142970646074040  0.8331614370891530
  0.4375464546494456  0.7868162039868075  0.3891595877605436
  0.3121643306246844  0.3705722391394822  0.4342961765698486
  0.5628258941268550  0.7021519003537176  0.3450430088897229
  0.8126997050449489  0.0364589188812701  0.3892485410668083
  0.6877833236215857  0.2781811956523082  0.1246153972717676
  0.6874259776760399  0.7822122802215108  0.2560325128418777
  0.0628000828789022  0.2050125852802404  0.4785508826106521
  0.0623304601098083  0.0314413947959573  0.2560444652859720
  0.4376155697702016  0.4524162955006545  0.3450812231730763
  0.6873773828062381  0.9462977280913425  0.2117760653487448
  0.0622687408968239  0.3707335323919804  0.4342373740958259
  0.5623806602020105  0.2049308802736640  0.4784691715797764
  0.8126249837122858  0.0279696713285154  0.1245733101440718
  0.3124827722433846  0.1963855206850187  0.2117183217515906
  0.9376251308277643  0.1164302320828841  0.3003158374726795
  0.5629125211928355  0.5276777880129453  0.1244806585134540
  0.3121514996027984  0.8725795491535103  0.5214951360640324
  0.3125356843022678  0.2146184466691421  0.8331801338395207
  0.4377450485596840  0.6170729043168628  0.3002162044654190
  0.9374414169212846  0.9549172782689945  0.4784744096669419
  0.9375335665497536  0.1210185391831846  0.4345060190365227
  0.9372149719662158  0.9568095316369973  0.5657065198828272
  0.8126128390398240  0.5317473818213538  0.2560604335493062
  0.9374524030322516  0.7785916058474270  0.1245619277796255
  0.1880384705974890  0.6226653757691020  0.5215470564596223
  0.5625618007847146  0.0320703484284939  0.2561123551556757
  0.1878102608455778  0.9646717402315798  0.8332505766470313
  0.5623558839028461  0.2021801209532775  0.3450129683717585
  0.5630018961476533  0.7072239159759394  0.5657516088317314
  0.5628344521017057  0.3757490870344055  0.6549601520648504
  0.0625564672164816  0.2142584723176253  0.8330692392523734
  0.1875045483507368  0.4577867440106881  0.5658008643721177
  0.5625993396961987  0.5419689351128382  0.6106999805598526
  0.1875690382243404  0.7960099420022766  0.7439489696073808
  0.8122432724263254  0.2049651335297009  0.4785740078236133
  0.4374802299253076  0.9645354962198344  0.8331335978577541
  0.6870410771448298  0.1229648149680913  0.5215442407704113
  0.9373840564015786  0.4614011294916464  0.6997354027997248
  0.9373278913243455  0.4569539066479050  0.5656084625649187
  0.4377231415970018  0.9553553193659118  0.4785081894409060
  0.1874507645913077  0.6313773361378729  0.7882685162645320
  0.4378522732588340  0.2857358575888638  0.3892176127966851
  0.6876307914407774  0.6166100536769200  0.3003753597895052
  0.5626542490015011  0.3728476232570991  0.5214620298489687
  0.5624951157637693  0.2072132047092261  0.5658237539585963
  0.6872132660564159  0.1169083684984365  0.3005098849369485
  0.9376553022824382  0.6227367340152864  0.5215955413654961
  0.8124631497387369  0.8812614808916817  0.7882979115278799
  0.5627934700055945  0.5361508982299927  0.3891978122328425
  0.0625663405484023  0.7053153144708004  0.4785843514754933
  0.8125048323097988  0.0461398724317666  0.7438812686527436
  0.8121888270196709  0.2069935470882560  0.5656703576573425
  0.0622677324620056  0.8632081091195958  0.1668307130490642
  0.3122104689898600  0.3728619393178153  0.5214618184444796
  0.8124288585113916  0.8666250763404436  0.3003822663383400
  0.3128209761361474  0.7075526497399374  0.5657582552640031
  0.0624481626543999  0.5317093283148252  0.2559901826723727
  0.9375170083743981  0.2965162543093703  0.7440054207083124
  0.5626392465993741  0.0465028044180788  0.7440023183614332
  0.8124978764736410  0.0316437479658896  0.2560950737173854
  0.5625637622118317  0.3817340083960282  0.7883907760410644
  0.0626299937671278  0.3667364234070599  0.3003952285204585
  0.6876506988773005  0.7863270914750135  0.3891881644074343
  0.1878608576616513  0.2816910718957754  0.2561210073366294
  0.4375269585188604  0.1230765278900063  0.5215864843714737
  0.5628362626519813  0.7052977964565663  0.4783890601260630
  0.1878511090944260  0.6131896354774056  0.1667430465915785
  0.6872249332955823  0.6254803229409835  0.6548297679852373
  0.6872676902268554  0.7961784221394035  0.7439351540269696
  0.4374672964626429  0.7921535245275355  0.6108106824655549
  0.3126561205543554  0.8671129821994572  0.3004372970579015
  0.1875676472533034  0.1251799215262809  0.6548797974053627
  0.3124990635085244  0.0462852635684571  0.7439338727592437
  0.3127270215914872  0.0287720487604703  0.1245910138327734
  0.8124179350892275  0.2019453657050356  0.3450959796739219
  0.3124955002310383  0.5316386387077578  0.2560358113890892
  0.3124048206469542  0.0317293009766997  0.2560713543498166
  0.0625139647245817  0.0280970271702264  0.1245770817930967
  0.9376631444876703  0.6313311634429601  0.7882232161988805
  0.9372491233866835  0.1259154668962573  0.6548757222495837
  0.3127677842936681  0.8816244814227637  0.7883221905543687
  0.0625286217141612  0.5462176979064899  0.7438804697741100
  0.0622268283061061  0.0359181731144397  0.3892292650438668
  0.8123579402499983  0.0412811188881287  0.6106160153420334
  0.0625320333043131  0.3811987299482987  0.7883348619725012
  0.3124483279478478  0.0494720176118396  0.8754280163019159
  0.6875705330451021  0.9572204815766463  0.5656750848136186
  0.8122960019417663  0.8759645753223496  0.6549582708606910
  0.6876465815267850  0.4569891341186345  0.5656567460388007
  0.0623956255598701  0.6962176191798271  0.2116726234492779
  0.6876541768319646  0.6314662825718410  0.7882745750764203
  0.1878337819437345  0.1226318757129856  0.5216263451597608
  0.4373688918083792  0.1211707874220954  0.4344206124439247
  0.0632131456644855  0.8727099443784886  0.5215014411675229
  0.1877727192789970  0.2961582630529190  0.7439742016286937
  0.9375183861959057  0.2790098661049239  0.1245550965029486
  0.9374498344183210  0.4642450571833330  0.8331922332131952
  0.0624872001731950  0.0461622617918850  0.7440273519300455
  0.3129248616840522  0.2109749236403272  0.6997368158785587
  0.6873816884922013  0.6128538832112556  0.1667699800297562
  0.8123033084974471  0.6963025959115332  0.2116497214669913
  0.4369042051567982  0.6212738900597687  0.4342265282266164
  0.9375271356342685  0.2995328072948203  0.8753966374864816
  0.9374435744907482  0.1130581555009997  0.1668352464235569
  0.3127121580161893  0.0415008658108403  0.6106488317308644
  0.6871181464607190  0.2964871544423694  0.7439686910278742
  0.3126611344773798  0.5361739851273201  0.3892574655858325
  0.4374730303352535  0.7815922183648700  0.2560156639654368
  0.1878584796428443  0.1315376097249710  0.7883585973103781
  0.1873374254879640  0.6170309498337659  0.3003454195194575
  0.1874454101557459  0.9608775154339612  0.6996885146002086
  0.3124479839089829  0.8625849239598730  0.1668279080883006
  0.5624179671338904  0.5457489435886954  0.7438731977879265
  0.0622871559724782  0.8756943891370695  0.6550128876656290
  0.4370435072113234  0.9519285645471234  0.3449939910688452
  0.0625341688144245  0.7146410206275748  0.8330945287717726
  0.5623560129246024  0.3669638963552411  0.3003831308244198
  0.5625314530525668  0.2146466240666867  0.8330786581032356
  0.1877539952519292  0.6204406719036633  0.4343263108829967
  0.4374499060717380  0.1169575395117064  0.3003712217213230
  0.4374945349627998  0.7992232649807269  0.8753937908418897
  0.9372874092998223  0.4517706378278011  0.3450853095999594
  0.9373912418550298  0.9644446417891133  0.8331735935675800
  0.4374397680685911  0.4646447084022955  0.8330733467322126
  0.4374849186984368  0.2818402080940018  0.2560611161414320
  0.9372792003426357  0.9612839719602597  0.6996268096199509
  0.8124036818547095  0.3759715455495349  0.6550064342519718
  0.3126373986801244  0.7106696363976744  0.6996171625033515
  0.4376038666000164  0.1316473502360246  0.7883301956071168
  0.5622962882615493  0.0281082400672534  0.1246406326414160
  0.1876619265665336  0.2918584848241907  0.6108797466010529
  0.5623641078474803  0.0420281561147194  0.6108663188494797
  0.6874091872082532  0.4526034186325598  0.3448845857949953
  0.8122724175570218  0.5411537724728395  0.6108461743149882
  0.5627517265012663  0.0495471276481025  0.8754144392131460
  0.1872084570075782  0.2860506312272637  0.3891392981992988
  0.0623543080664826  0.5365653421936883  0.3892302519487857
  0.9373957657722647  0.2816467998689934  0.2560268262581811
  0.6875102790251147  0.4614289751910977  0.6996617301822351
  0.3124540740370234  0.7147600966787107  0.8330784401825989
  0.1875667590318172  0.4645017145454713  0.8331018440050013
  0.6871038699428766  0.6206800639539763  0.4341800459864296
  0.4375953831745025  0.1253812297395532  0.6548668427335889
  0.0626262852609632  0.8701879489067896  0.4340872701811875
  0.9374653034689175  0.7961694338843460  0.7440492462898296
  0.0624052730178042  0.2109053330770169  0.6997165108859024
  0.4374453680577264  0.4553265909318666  0.4785721462737327
  0.0619258932095233  0.7074414197535652  0.5656537336102425
  0.6871508611833519  0.1217340433741113  0.4340243361349227
  0.1873958108806619  0.7857242992531455  0.3891224037565990
  0.8123876616700164  0.8724391109252978  0.5215318716265287
  0.0627636243517450  0.0415183964471323  0.6109127233580327
  0.3122193158049020  0.8757712547653511  0.6548850254521580
  0.9375089684367579  0.7817585425303095  0.2561114927625067
  0.9375435837706901  0.1234616322575593  0.5215253987828586
  0.3124636695315753  0.6956499326194902  0.2118153026934111
  0.3126721532152528  0.0365161442959371  0.3891035472015259
  0.9376168022640127  0.9468816614754053  0.2118166351280973
  0.5625678906169823  0.2109603037393736  0.6996165605411874
 
  0.00000000E+00  0.00000000E+00  0.00000000E+00
  0.00000000E+00  0.00000000E+00  0.00000000E+00
  0.00000000E+00  0.00000000E+00  0.00000000E+00
  0.00000000E+00  0.00000000E+00  0.00000000E+00
  0.00000000E+00  0.00000000E+00  0.00000000E+00
  0.00000000E+00  0.00000000E+00  0.00000000E+00
  0.00000000E+00  0.00000000E+00  0.00000000E+00
  0.00000000E+00  0.00000000E+00  0.00000000E+00
  0.00000000E+00  0.00000000E+00  0.00000000E+00
  0.00000000E+00  0.00000000E+00  0.00000000E+00
  0.00000000E+00  0.00000000E+00  0.00000000E+00
  0.00000000E+00  0.00000000E+00  0.00000000E+00
  0.00000000E+00  0.00000000E+00  0.00000000E+00
  0.00000000E+00  0.00000000E+00  0.00000000E+00
  0.00000000E+00  0.00000000E+00  0.00000000E+00
  0.00000000E+00  0.00000000E+00  0.00000000E+00
  0.00000000E+00  0.00000000E+00  0.00000000E+00
  0.00000000E+00  0.00000000E+00  0.00000000E+00
  0.00000000E+00  0.00000000E+00  0.00000000E+00
  0.00000000E+00  0.00000000E+00  0.00000000E+00
  0.00000000E+00  0.00000000E+00  0.00000000E+00
  0.00000000E+00  0.00000000E+00  0.00000000E+00
  0.00000000E+00  0.00000000E+00  0.00000000E+00
  0.00000000E+00  0.00000000E+00  0.00000000E+00
  0.00000000E+00  0.00000000E+00  0.00000000E+00
  0.00000000E+00  0.00000000E+00  0.00000000E+00
  0.00000000E+00  0.00000000E+00  0.00000000E+00
  0.00000000E+00  0.00000000E+00  0.00000000E+00
  0.00000000E+00  0.00000000E+00  0.00000000E+00
  0.00000000E+00  0.00000000E+00  0.00000000E+00
  0.00000000E+00  0.00000000E+00  0.00000000E+00
  0.00000000E+00  0.00000000E+00  0.00000000E+00
  0.00000000E+00  0.00000000E+00  0.00000000E+00
  0.00000000E+00  0.00000000E+00  0.00000000E+00
  0.00000000E+00  0.00000000E+00  0.00000000E+00
  0.00000000E+00  0.00000000E+00  0.00000000E+00
  0.00000000E+00  0.00000000E+00  0.00000000E+00
  0.00000000E+00  0.00000000E+00  0.00000000E+00
  0.00000000E+00  0.00000000E+00  0.00000000E+00
  0.00000000E+00  0.00000000E+00  0.00000000E+00
  0.00000000E+00  0.00000000E+00  0.00000000E+00
  0.00000000E+00  0.00000000E+00  0.00000000E+00
  0.00000000E+00  0.00000000E+00  0.00000000E+00
  0.00000000E+00  0.00000000E+00  0.00000000E+00
  0.00000000E+00  0.00000000E+00  0.00000000E+00
  0.00000000E+00  0.00000000E+00  0.00000000E+00
  0.00000000E+00  0.00000000E+00  0.00000000E+00
  0.00000000E+00  0.00000000E+00  0.00000000E+00
  0.00000000E+00  0.00000000E+00  0.00000000E+00
  0.00000000E+00  0.00000000E+00  0.00000000E+00
  0.00000000E+00  0.00000000E+00  0.00000000E+00
  0.00000000E+00  0.00000000E+00  0.00000000E+00
  0.00000000E+00  0.00000000E+00  0.00000000E+00
  0.00000000E+00  0.00000000E+00  0.00000000E+00
  0.00000000E+00  0.00000000E+00  0.00000000E+00
  0.00000000E+00  0.00000000E+00  0.00000000E+00
  0.00000000E+00  0.00000000E+00  0.00000000E+00
  0.00000000E+00  0.00000000E+00  0.00000000E+00
  0.00000000E+00  0.00000000E+00  0.00000000E+00
  0.00000000E+00  0.00000000E+00  0.00000000E+00
  0.00000000E+00  0.00000000E+00  0.00000000E+00
  0.00000000E+00  0.00000000E+00  0.00000000E+00
  0.00000000E+00  0.00000000E+00  0.00000000E+00
  0.00000000E+00  0.00000000E+00  0.00000000E+00
  0.00000000E+00  0.00000000E+00  0.00000000E+00
  0.00000000E+00  0.00000000E+00  0.00000000E+00
  0.00000000E+00  0.00000000E+00  0.00000000E+00
  0.00000000E+00  0.00000000E+00  0.00000000E+00
  0.00000000E+00  0.00000000E+00  0.00000000E+00
  0.00000000E+00  0.00000000E+00  0.00000000E+00
  0.00000000E+00  0.00000000E+00  0.00000000E+00
  0.00000000E+00  0.00000000E+00  0.00000000E+00
  0.00000000E+00  0.00000000E+00  0.00000000E+00
  0.00000000E+00  0.00000000E+00  0.00000000E+00
  0.00000000E+00  0.00000000E+00  0.00000000E+00
  0.00000000E+00  0.00000000E+00  0.00000000E+00
  0.00000000E+00  0.00000000E+00  0.00000000E+00
  0.00000000E+00  0.00000000E+00  0.00000000E+00
  0.00000000E+00  0.00000000E+00  0.00000000E+00
  0.00000000E+00  0.00000000E+00  0.00000000E+00
  0.00000000E+00  0.00000000E+00  0.00000000E+00
  0.00000000E+00  0.00000000E+00  0.00000000E+00
  0.00000000E+00  0.00000000E+00  0.00000000E+00
  0.00000000E+00  0.00000000E+00  0.00000000E+00
  0.00000000E+00  0.00000000E+00  0.00000000E+00
  0.00000000E+00  0.00000000E+00  0.00000000E+00
  0.00000000E+00  0.00000000E+00  0.00000000E+00
  0.00000000E+00  0.00000000E+00  0.00000000E+00
  0.00000000E+00  0.00000000E+00  0.00000000E+00
  0.00000000E+00  0.00000000E+00  0.00000000E+00
  0.00000000E+00  0.00000000E+00  0.00000000E+00
  0.00000000E+00  0.00000000E+00  0.00000000E+00
  0.00000000E+00  0.00000000E+00  0.00000000E+00
  0.00000000E+00  0.00000000E+00  0.00000000E+00
  0.00000000E+00  0.00000000E+00  0.00000000E+00
  0.00000000E+00  0.00000000E+00  0.00000000E+00
  0.00000000E+00  0.00000000E+00  0.00000000E+00
  0.00000000E+00  0.00000000E+00  0.00000000E+00
  0.00000000E+00  0.00000000E+00  0.00000000E+00
  0.00000000E+00  0.00000000E+00  0.00000000E+00
  0.00000000E+00  0.00000000E+00  0.00000000E+00
  0.00000000E+00  0.00000000E+00  0.00000000E+00
  0.00000000E+00  0.00000000E+00  0.00000000E+00
  0.00000000E+00  0.00000000E+00  0.00000000E+00
  0.00000000E+00  0.00000000E+00  0.00000000E+00
  0.00000000E+00  0.00000000E+00  0.00000000E+00
  0.00000000E+00  0.00000000E+00  0.00000000E+00
  0.00000000E+00  0.00000000E+00  0.00000000E+00
  0.00000000E+00  0.00000000E+00  0.00000000E+00
  0.00000000E+00  0.00000000E+00  0.00000000E+00
  0.00000000E+00  0.00000000E+00  0.00000000E+00
  0.00000000E+00  0.00000000E+00  0.00000000E+00
  0.00000000E+00  0.00000000E+00  0.00000000E+00
  0.00000000E+00  0.00000000E+00  0.00000000E+00
  0.00000000E+00  0.00000000E+00  0.00000000E+00
  0.00000000E+00  0.00000000E+00  0.00000000E+00
  0.00000000E+00  0.00000000E+00  0.00000000E+00
  0.00000000E+00  0.00000000E+00  0.00000000E+00
  0.00000000E+00  0.00000000E+00  0.00000000E+00
  0.00000000E+00  0.00000000E+00  0.00000000E+00
  0.00000000E+00  0.00000000E+00  0.00000000E+00
  0.00000000E+00  0.00000000E+00  0.00000000E+00
  0.00000000E+00  0.00000000E+00  0.00000000E+00
  0.00000000E+00  0.00000000E+00  0.00000000E+00
  0.00000000E+00  0.00000000E+00  0.00000000E+00
  0.00000000E+00  0.00000000E+00  0.00000000E+00
  0.00000000E+00  0.00000000E+00  0.00000000E+00
  0.00000000E+00  0.00000000E+00  0.00000000E+00
  0.00000000E+00  0.00000000E+00  0.00000000E+00
  0.00000000E+00  0.00000000E+00  0.00000000E+00
  0.00000000E+00  0.00000000E+00  0.00000000E+00
  0.00000000E+00  0.00000000E+00  0.00000000E+00
  0.00000000E+00  0.00000000E+00  0.00000000E+00
  0.00000000E+00  0.00000000E+00  0.00000000E+00
  0.00000000E+00  0.00000000E+00  0.00000000E+00
  0.00000000E+00  0.00000000E+00  0.00000000E+00
  0.00000000E+00  0.00000000E+00  0.00000000E+00
  0.00000000E+00  0.00000000E+00  0.00000000E+00
  0.00000000E+00  0.00000000E+00  0.00000000E+00
  0.00000000E+00  0.00000000E+00  0.00000000E+00
  0.00000000E+00  0.00000000E+00  0.00000000E+00
  0.00000000E+00  0.00000000E+00  0.00000000E+00
  0.00000000E+00  0.00000000E+00  0.00000000E+00
  0.00000000E+00  0.00000000E+00  0.00000000E+00
  0.00000000E+00  0.00000000E+00  0.00000000E+00
  0.00000000E+00  0.00000000E+00  0.00000000E+00
  0.00000000E+00  0.00000000E+00  0.00000000E+00
  0.00000000E+00  0.00000000E+00  0.00000000E+00
  0.00000000E+00  0.00000000E+00  0.00000000E+00
  0.00000000E+00  0.00000000E+00  0.00000000E+00
  0.00000000E+00  0.00000000E+00  0.00000000E+00
  0.00000000E+00  0.00000000E+00  0.00000000E+00
  0.00000000E+00  0.00000000E+00  0.00000000E+00
  0.00000000E+00  0.00000000E+00  0.00000000E+00
  0.00000000E+00  0.00000000E+00  0.00000000E+00
  0.00000000E+00  0.00000000E+00  0.00000000E+00
  0.00000000E+00  0.00000000E+00  0.00000000E+00
  0.00000000E+00  0.00000000E+00  0.00000000E+00
  0.00000000E+00  0.00000000E+00  0.00000000E+00
  0.00000000E+00  0.00000000E+00  0.00000000E+00
  0.00000000E+00  0.00000000E+00  0.00000000E+00
  0.00000000E+00  0.00000000E+00  0.00000000E+00
  0.00000000E+00  0.00000000E+00  0.00000000E+00
  0.00000000E+00  0.00000000E+00  0.00000000E+00
  0.00000000E+00  0.00000000E+00  0.00000000E+00
  0.00000000E+00  0.00000000E+00  0.00000000E+00
  0.00000000E+00  0.00000000E+00  0.00000000E+00
  0.00000000E+00  0.00000000E+00  0.00000000E+00
  0.00000000E+00  0.00000000E+00  0.00000000E+00
  0.00000000E+00  0.00000000E+00  0.00000000E+00
  0.00000000E+00  0.00000000E+00  0.00000000E+00
  0.00000000E+00  0.00000000E+00  0.00000000E+00
  0.00000000E+00  0.00000000E+00  0.00000000E+00
  0.00000000E+00  0.00000000E+00  0.00000000E+00
  0.00000000E+00  0.00000000E+00  0.00000000E+00
  0.00000000E+00  0.00000000E+00  0.00000000E+00
  0.00000000E+00  0.00000000E+00  0.00000000E+00
  0.00000000E+00  0.00000000E+00  0.00000000E+00
  0.00000000E+00  0.00000000E+00  0.00000000E+00
  0.00000000E+00  0.00000000E+00  0.00000000E+00
  0.00000000E+00  0.00000000E+00  0.00000000E+00
  0.00000000E+00  0.00000000E+00  0.00000000E+00
  0.00000000E+00  0.00000000E+00  0.00000000E+00
  0.00000000E+00  0.00000000E+00  0.00000000E+00
  0.00000000E+00  0.00000000E+00  0.00000000E+00
  0.00000000E+00  0.00000000E+00  0.00000000E+00
  0.00000000E+00  0.00000000E+00  0.00000000E+00
  0.00000000E+00  0.00000000E+00  0.00000000E+00
  0.00000000E+00  0.00000000E+00  0.00000000E+00
  0.00000000E+00  0.00000000E+00  0.00000000E+00
  0.00000000E+00  0.00000000E+00  0.00000000E+00
  0.00000000E+00  0.00000000E+00  0.00000000E+00
  0.00000000E+00  0.00000000E+00  0.00000000E+00
  0.00000000E+00  0.00000000E+00  0.00000000E+00
  0.00000000E+00  0.00000000E+00  0.00000000E+00
  0.00000000E+00  0.00000000E+00  0.00000000E+00
  0.00000000E+00  0.00000000E+00  0.00000000E+00
  0.00000000E+00  0.00000000E+00  0.00000000E+00
  0.00000000E+00  0.00000000E+00  0.00000000E+00
  0.00000000E+00  0.00000000E+00  0.00000000E+00
  0.00000000E+00  0.00000000E+00  0.00000000E+00
  0.00000000E+00  0.00000000E+00  0.00000000E+00
  0.00000000E+00  0.00000000E+00  0.00000000E+00
  0.00000000E+00  0.00000000E+00  0.00000000E+00
  0.00000000E+00  0.00000000E+00  0.00000000E+00
  0.00000000E+00  0.00000000E+00  0.00000000E+00
  0.00000000E+00  0.00000000E+00  0.00000000E+00
  0.00000000E+00  0.00000000E+00  0.00000000E+00
  0.00000000E+00  0.00000000E+00  0.00000000E+00
  0.00000000E+00  0.00000000E+00  0.00000000E+00
  0.00000000E+00  0.00000000E+00  0.00000000E+00
  0.00000000E+00  0.00000000E+00  0.00000000E+00
  0.00000000E+00  0.00000000E+00  0.00000000E+00
  0.00000000E+00  0.00000000E+00  0.00000000E+00
  0.00000000E+00  0.00000000E+00  0.00000000E+00
  0.00000000E+00  0.00000000E+00  0.00000000E+00
  0.00000000E+00  0.00000000E+00  0.00000000E+00
  0.00000000E+00  0.00000000E+00  0.00000000E+00
  0.00000000E+00  0.00000000E+00  0.00000000E+00
  0.00000000E+00  0.00000000E+00  0.00000000E+00
  0.00000000E+00  0.00000000E+00  0.00000000E+00
  0.00000000E+00  0.00000000E+00  0.00000000E+00
  0.00000000E+00  0.00000000E+00  0.00000000E+00
  0.00000000E+00  0.00000000E+00  0.00000000E+00
  0.00000000E+00  0.00000000E+00  0.00000000E+00
  0.00000000E+00  0.00000000E+00  0.00000000E+00
  0.00000000E+00  0.00000000E+00  0.00000000E+00
  0.00000000E+00  0.00000000E+00  0.00000000E+00
  0.00000000E+00  0.00000000E+00  0.00000000E+00
  0.00000000E+00  0.00000000E+00  0.00000000E+00
  0.00000000E+00  0.00000000E+00  0.00000000E+00
  0.00000000E+00  0.00000000E+00  0.00000000E+00
  0.00000000E+00  0.00000000E+00  0.00000000E+00
  0.00000000E+00  0.00000000E+00  0.00000000E+00
  0.00000000E+00  0.00000000E+00  0.00000000E+00
  0.00000000E+00  0.00000000E+00  0.00000000E+00
  0.00000000E+00  0.00000000E+00  0.00000000E+00
  0.00000000E+00  0.00000000E+00  0.00000000E+00
  0.00000000E+00  0.00000000E+00  0.00000000E+00
  0.00000000E+00  0.00000000E+00  0.00000000E+00
  0.00000000E+00  0.00000000E+00  0.00000000E+00
  0.00000000E+00  0.00000000E+00  0.00000000E+00
  0.00000000E+00  0.00000000E+00  0.00000000E+00
  0.00000000E+00  0.00000000E+00  0.00000000E+00
  0.00000000E+00  0.00000000E+00  0.00000000E+00
  0.00000000E+00  0.00000000E+00  0.00000000E+00
  0.00000000E+00  0.00000000E+00  0.00000000E+00