CuInSe2gb                               
   1.00000000000000     
     9.7266780392896699    0.0000000000000000    0.0000000000000000
     0.0000000000000000    8.4235502764570693    0.0000000000000000
     0.0000000000000000    0.0000000000000000   45.0000000000000000
   Fe   Mn
   274    14
Direct
  0.0626897854831276  0.0371420904127189  0.1258132746176591
  0.3125600154500275  0.8719076247920885  0.6540151412800640
  0.1879642461665166  0.1195622116051443  0.7871545907750401
  0.4382490698646515  0.2903994587798511  0.3899380464745699
  0.3132928262604517  0.7059135530369492  0.8318857647933079
  0.8143607457353671  0.2065739186070505  0.8322991179713682
  0.1876078088109882  0.9566210921729592  0.8321629307576101
  0.5623931586149576  0.2053963046016324  0.5652917344972630
  0.0623635913373431  0.0372763767169073  0.7429669429760871
  0.8123893082204282  0.8721901932307117  0.5213566969886704
  0.1875564305893295  0.2874865993700835  0.7430051735511237
  0.9375614003130009  0.4570507672278202  0.3459430903724947
  0.9370354895873643  0.2903160437295085  0.3899461646017867
  0.8124009618776755  0.0390491931883168  0.8742829796012040
  0.1870455834832567  0.7878534744396463  0.6100016998289683
  0.5620853117901908  0.0404235809982434  0.3899798014742099
  0.9390416314522773  0.9572096163035194  0.8323366210659767
  0.3130044374406749  0.5386882148724761  0.8743533780284407
  0.6879346066337571  0.2874408181019826  0.7429754510545997
  0.1884331761875699  0.6210605415024365  0.1677373120431285
  0.8118318153109688  0.2058986316552648  0.4787643664559358
  0.8122143541592884  0.5378631844824565  0.6101294362724166
  0.3125210549554272  0.8730834713189539  0.4347939416149145
  0.8121673383713994  0.0408551668550819  0.2571156160510449
  0.6873426574566011  0.9573325080471552  0.3459670864913860
  0.9368051973257002  0.1208262703553702  0.1680495772106610
  0.0627384934800021  0.8724383780209956  0.5213586259946230
  0.5621575530372865  0.5412560963261528  0.2570566773171828
  0.6877475595611536  0.7881020442918876  0.8742363312415686
  0.5628209985237851  0.3706788706286362  0.1677784139518902
  0.4376814408484381  0.7872626287659041  0.7430027102012480
  0.8125541410990379  0.7053314205311429  0.5652845516820189
  0.5626994073718583  0.8696098000438408  0.7871467885193200
  0.6871290254773245  0.1220108044291547  0.5213526021388761
  0.8125674645138899  0.3719161457975796  0.6541049509701888
  0.9384758581042805  0.4558978266583388  0.8322924762935583
  0.0623511576850024  0.2047189393095548  0.6985996079561033
  0.4374806249603206  0.9547534304933895  0.6985877173809228
  0.3127862468716159  0.2055063221638658  0.8323168766061890
  0.4375621515908370  0.6216190776300294  0.6540672277719649
  0.3120355685311765  0.5382230209807857  0.6100736001131501
  0.9374043134338986  0.4552475717157018  0.5653221692925390
  0.6878411665262518  0.7877393913752073  0.7429855330220860
  0.9369978839655144  0.7874433923211597  0.1258595149442966
  0.6873167091870417  0.7898961094238731  0.3899251596842696
  0.9379524300015198  0.7872811406421258  0.7429433525319262
  0.0624357996682541  0.2071515548246071  0.3459473042363808
  0.8125003427411033  0.0404668895621093  0.3900243752787720
  0.4375475284154329  0.1197313205290512  0.7871873266009854
  0.0619355631279223  0.2068737396029984  0.2129154986922130
  0.0618455225332734  0.3709964607543625  0.1678563246576754
  0.9369894020565130  0.7910406347761137  0.2570348300017908
  0.5624286008212069  0.2046935275765670  0.6985812207750607
  0.6873289404462296  0.9547616594622278  0.6986468883847322
  0.8120941020259409  0.8696796749182136  0.7870490727662101
  0.4373549047569306  0.9555334116842946  0.5652455113257708
  0.8126870862656025  0.3696831285602365  0.7870466546757632
  0.6870848988322050  0.2911802337714808  0.2570364489838406
  0.1874548615151724  0.4555707539713550  0.5652826272815201
  0.0626654841245182  0.8712304877943058  0.1679010015842445
  0.1874677254733443  0.2878870931456005  0.6100889465269499
  0.5626957266602937  0.7070368424534090  0.3460646749207293
  0.3125797460458589  0.2047712244508905  0.6986321631971253
  0.5633019501079486  0.5393958700690620  0.8742457263543515
  0.0623529296062856  0.7052539278842883  0.5652826606940152
  0.6879522097796775  0.6200136962558263  0.7871568955766528
  0.3124443963323824  0.5406583353886727  0.3900186906006380
  0.1878130395438014  0.6222819553486001  0.5213002283328820
  0.5621689357918984  0.8728565614646527  0.4347258225933926
  0.4372644128038804  0.4561521153375034  0.5652506188099587
  0.4378584440578226  0.2876693916739262  0.7429787505477642
  0.8124543349004315  0.8753716997968358  0.3013377947533742
  0.8123127804471068  0.7067455346684113  0.3459550220822005
  0.4381236294831604  0.4557460154375801  0.8320755371263880
  0.6875578719683554  0.9557668622730444  0.4786179105986927
  0.6875349883816038  0.4545846514749307  0.6986003862626359
  0.5623308002934176  0.8723028278801878  0.5212789040798271
  0.5629412515249271  0.3714667081470396  0.6539429456683842
  0.8126341423593207  0.8712995393791620  0.6540642744420543
  0.8125447283664924  0.3728934298673129  0.4345923101553539
  0.8121795300948634  0.5407469973717841  0.2571095174746557
  0.6887538644624522  0.4559056575026244  0.8321543151759969
  0.1872225581410935  0.7866115573015926  0.1254622006657831
  0.6873925373126564  0.2903923781106985  0.3899778819505643
  0.3123734351926155  0.3716270510165620  0.6540202600587406
  0.3124366464262218  0.2069068813206905  0.3459773564641201
  0.8129086491079142  0.5371513093256749  0.7429780714762031
  0.6879255691802649  0.9561878268143378  0.8320284899182584
  0.5627363686454956  0.8717007511049395  0.6540159906562096
  0.3123101713704080  0.7057165017026086  0.5652933995408294
  0.3114680545211176  0.5381247760761092  0.1255670392793471
  0.6875813101526344  0.9573515317854708  0.2130623736716321
  0.3124987141395027  0.2058448672076594  0.5652831821876877
  0.1871422186206126  0.9559141248507853  0.4786732601686188
  0.6878139558229840  0.9554408505793861  0.5652584842799584
  0.4371671759198312  0.7880193624128152  0.6100281124818702
  0.6863848888232428  0.6197126686446291  0.1677536971333641
  0.3123491808002361  0.8747996586996516  0.3013688730038416
  0.3123779667522957  0.7056153253692801  0.4786396174582351
  0.9371790613913570  0.2875527581325469  0.6100623665674229
  0.4378823892177817  0.6246184063629432  0.3013666283418254
  0.8125270139955139  0.8703448603983061  0.1680656878224658
  0.5629927394055233  0.2067790010041650  0.2128611322210249
  0.9374217720244460  0.6197225215264389  0.1680088562929802
  0.9379877436837358  0.7870651346349895  0.8743334303337500
  0.5625798231660054  0.3696364795776168  0.7871231758639273
  0.0621996010218427  0.3726299398992007  0.5213440513337882
  0.3122211952925274  0.3700081951255527  0.1679014454060754
  0.6874833687328118  0.1252731768912204  0.3014662429201336
  0.4385906966846536  0.9555987038680394  0.8320228098341000
  0.1876504852844187  0.2876815179939611  0.1257647680767716
  0.1869200182478606  0.2907664608709079  0.2570730315565315
  0.3123529460926607  0.3729115957099945  0.4345629024203976
  0.5626623615719946  0.0380749091883433  0.1257624468416014
  0.4372114633345616  0.2879524624201962  0.6099283260117567
  0.1872885025280810  0.4571185646156074  0.3459789892052737
  0.4370488573131545  0.2876098200489279  0.1257608726771163
  0.6871479522937219  0.7914890955827646  0.2570427928579793
  0.4370820291191193  0.1223767245183096  0.5213214812832868
  0.1889625541558637  0.2885580730626076  0.8744725839851795
  0.1874519579823201  0.1216773005117511  0.6541019243157689
  0.9376561271014038  0.1214233317815543  0.6540594760473750
  0.3122957975086555  0.2071583042169622  0.2128038639030975
  0.0625328852010305  0.0404405028267348  0.3899726588508363
  0.1869818829936986  0.1198694718517961  0.1679782537507959
  0.0621524627681752  0.5377274879514595  0.6100210654299960
  0.9371933379435871  0.2906054027852027  0.2570614772448636
  0.5621403654118761  0.5379150617451334  0.6099752762902785
  0.9374567896395788  0.9552560862643307  0.5653121317224453
  0.6874948516335787  0.6253502355114071  0.3014174696386571
  0.9375748359373284  0.6230442964586161  0.4347206019525535
  0.9374737665979317  0.6208639122546699  0.7870424528414502
  0.5622800360643185  0.7043976823734546  0.6985823861999322
  0.0631917340367644  0.7073555770596576  0.8322667825812397
  0.9377038787205952  0.1252732191255236  0.3014442677711855
  0.9371075735321142  0.7876883317166240  0.6100758555539613
  0.4371686256534070  0.7912304280181482  0.2570987100851423
  0.3125931691988151  0.3695328106965107  0.7870813358793187
  0.4378108525727823  0.4564769087820907  0.2129006029841969
  0.1877364585662190  0.1219135529265429  0.5212888108039818
  0.8124555125039273  0.7047943021758579  0.6986535073970983
  0.0620048292484309  0.0378383151553453  0.6099456544576061
  0.5628687502894131  0.2057207186006722  0.8319510297433329
  0.3120331483044899  0.8723497897236989  0.5213052585855735
  0.6879118458728030  0.2874610151770170  0.1255679603350613
  0.1870951293760736  0.9576710441950672  0.2130171412859904
  0.6867469147603920  0.2879367650853561  0.6100714025504756
  0.3121706983768756  0.0378220604528373  0.6100219662754789
  0.9376297761671606  0.1200202003897052  0.7873262923685849
  0.4380906539823795  0.7880967800598289  0.8742202575674882
  0.8129594318104834  0.0373901991858450  0.7428640962550573
  0.9374779396859736  0.4545169146561044  0.6986616189098240
  0.1875210584434496  0.6215476055732986  0.6540186346659868
  0.3124039268190353  0.7047396813858602  0.6985751440071571
  0.9371027450357549  0.2870448254752024  0.1256798665252574
  0.4369900040916675  0.4556080316066008  0.4786493176822704
  0.0623138063761104  0.7055834226153050  0.4787055132979874
  0.9373360683089317  0.1226478083951024  0.4349197129581294
  0.4375734074893651  0.1246592430808157  0.3014201940771989
  0.1874238839752007  0.1227561406877087  0.4345529524686530
  0.5633120344499150  0.0384807875944032  0.8742854724531869
  0.1869658532673157  0.9556590590253197  0.5652723928939998
  0.6887340800702901  0.7868193228404484  0.1258563922049866
  0.5639664577497475  0.5368987260132783  0.1255512938807848
  0.3124630594086532  0.0403383700617878  0.3899645724656314
  0.6879282958327082  0.1207407167836245  0.1680886519560337
  0.8124291755031650  0.2066180115737136  0.2128830333776859
  0.0621151548300111  0.5410104801340004  0.2570291648764571
  0.5623540767221678  0.7055913892362441  0.4787539420235902
  0.0625804264239031  0.2056154049385696  0.5653088666797792
  0.5620553747210169  0.3749336928708701  0.3013346350022610
  0.4368712829906998  0.9568502930229695  0.3459516500680120
  0.1875710603020218  0.9549600486747583  0.6986785028404796
  0.4366742491250867  0.6216629244470497  0.1676611236713232
  0.9378228243064121  0.4570408594096180  0.2129309626596428
  0.0620032580849893  0.5364433186529860  0.1256407922778960
  0.8128836834865645  0.3724584862509866  0.5214034099558191
  0.9372266099710151  0.6250075319189831  0.3013848068997784
  0.3121812628080539  0.0406213161401038  0.2570725418517441
  0.6872425226374176  0.7877486051274115  0.6100353220786461
  0.1877366652963525  0.4560744019624158  0.8322512579994173
  0.4374720244737811  0.1191818544653413  0.1677986143476642
  0.3119277822490304  0.3720234594743969  0.5212880513316693
  0.4377955406409930  0.6195583163054317  0.7871382094927232
  0.0618233816095484  0.0408722622612816  0.2570662341900970
  0.5623761784161668  0.7054406858881410  0.5653152057407992
  0.9378905466377413  0.2871174467095610  0.7429459456463130
  0.6872093049503716  0.1195927888056177  0.7870400125102557
  0.1870938436700141  0.4570659650126854  0.2128880542130842
  0.9372561938864180  0.7905157616664485  0.3899807766637439
  0.6871622152952876  0.2889055647461370  0.8743627905702190
  0.5608846475186795  0.8705171063868715  0.1677423688033285
  0.4375736143574312  0.4545951161280906  0.6986180764787721
  0.9377029275222205  0.9571358134256859  0.3459519084734174
  0.6870217842749032  0.6225709775927668  0.5213672251712929
  0.0627308513979444  0.8712049876063515  0.6540663177820604
  0.0627001831329260  0.8698368315688706  0.7871719054618780
  0.0625660754764897  0.3716619181317601  0.6540414481844471
  0.6875477493731773  0.4557722484284804  0.4786920935611754
  0.1871277727417736  0.7910267990385113  0.2571721525154972
  0.4374008279919933  0.1229436073899307  0.4346165278650197
  0.8126818344856834  0.0381546975311294  0.1259301733756627
  0.9371857895553805  0.6223177678692394  0.5213314823506403
  0.0625249855594911  0.8729927302476822  0.4346594776732788
  0.8122779054724822  0.5366230488754751  0.1254041922594819
  0.4369046869151953  0.4570282208958311  0.3459648897024531
  0.8125741463795499  0.2072372830389297  0.3460127430897097
  0.3123930913013924  0.7076718512810758  0.3460336124265848
  0.6879382352190923  0.1214396355424273  0.6540749114919426
  0.5626147253658800  0.8751040797721008  0.3015116938438687
  0.0626431741656364  0.5370883488086597  0.7429508550974731
  0.9378299862343975  0.9571648240134520  0.2129271622351050
  0.8124073342708089  0.7065403933662430  0.2128731142168525
  0.0619491955840467  0.8749948488706105  0.3014638432716158
  0.1875752976377353  0.1248971685270658  0.3013178729472274
  0.0620570487282970  0.7074515567017573  0.3460819623187046
  0.8122500450403088  0.0378147244542996  0.6099919917491607
  0.0623535134953080  0.3732090113846895  0.4345758795675200
  0.5621303657786585  0.2069737934252666  0.3459189160454754
  0.8124020095168877  0.3749576518294564  0.3013544247716528
  0.5625412770233174  0.0412171816166268  0.2571566705833593
  0.5622291958753940  0.5398535993962421  0.3900085752946768
  0.0626674863556493  0.2058198259676572  0.4787042790707536
  0.3130764734889284  0.8691953155350892  0.7870003288442595
  0.9374511436788064  0.9548311714363595  0.6985970307319640
  0.0626736145468776  0.3749785392022784  0.3013345129925033
  0.6880171430283407  0.6215805920652504  0.6540751783206397
  0.6873398927858427  0.4555598383060055  0.5653111284029413
  0.4378326288330141  0.9574577329964863  0.2129386718868229
  0.3125512854540500  0.2058347374923913  0.4786080368064992
  0.4374515836104704  0.9558521294418697  0.4787237883108753
  0.6872977671422257  0.6231924815140321  0.4346548880060050
  0.8126350144507680  0.2046841804194254  0.6986034699391229
  0.8124448684465653  0.7058780296303475  0.4786701477917620
  0.8123704525337219  0.8729119121170510  0.4346586782654691
  0.9373507705283979  0.9550452660916520  0.4787671215282808
  0.5624324237375204  0.2052889756762076  0.4787255793615227
  0.1872565960506739  0.6229484717610686  0.4347172556737757
  0.3126938279359205  0.0376030296406716  0.7429422211338486
  0.9375850781648879  0.6216343403684861  0.6539955258243741
  0.5634828600278046  0.7061265263086367  0.8320803046186215
  0.3124057969163968  0.3749081402876688  0.3014380365178383
  0.5622597686556643  0.7067541576503373  0.2127567174254576
  0.1875417267225212  0.4555684995036838  0.4786397588690524
  0.3139211882876255  0.0397398424265130  0.8742306365863460
  0.1873253382446410  0.4548108279580045  0.6985999124374539
  0.8121586507459412  0.5385251477257893  0.8743156301051644
  0.1873494297678253  0.2900338764268340  0.3899223218671635
  0.4371941147309038  0.6234535860425011  0.4346695899980892
  0.0623343828053618  0.7067330699556511  0.2128707050354404
  0.5625543502979511  0.3729808719707627  0.4348895782182955
  0.4373963976000214  0.6227136466883532  0.5213617854325998
  0.8131707264173770  0.7063957975045645  0.8318929459527437
  0.0628816266226153  0.3702451709794260  0.7870915602722386
  0.4374991374245381  0.2887321771280512  0.8744137165124211
  0.3127090551955953  0.0382028274645027  0.1254723248394304
  0.6873721523590112  0.1224621686746556  0.4345915658580103
  0.1872352828926959  0.9570285640354784  0.3459633081771017
  0.0625100550119159  0.2059675122832283  0.8322965547680218
  0.5621486296542784  0.0376684567439190  0.6100403193316127
  0.6871642410521788  0.4569359147922881  0.2129429128248089
  0.1877214934920562  0.7870142571808436  0.7429198977195633
  0.1873942122029638  0.6247501935455797  0.3014636317694921
  0.4375981955416843  0.7905203853633854  0.3900611671578765
  0.4370105732620043  0.2910543829174970  0.2569530271310227
  0.0640433174076144  0.5391500388484504  0.8743504170408536
  0.5632943761397602  0.0375948816422508  0.7430242812068668
  0.1880201305566820  0.7875873454550341  0.8743388335278435
  0.9374474916740888  0.4554963190988113  0.4786916392998044
  0.5630503867951034  0.5375226908443369  0.7428597935557739
  0.8119403967736261  0.2056831738611212  0.5653358731786340
  0.1876714269239773  0.6199480899403054  0.7871747230230812
  0.0628414256193110  0.5403570512162977  0.3900622930534480
  0.0625301364901834  0.7048036466687931  0.6986886198389520
  0.3120833661158869  0.5410821214905992  0.2570393012265716
  0.3123906592466477  0.7065167491779938  0.2129985104352259
  0.3128407222696071  0.8704732430304571  0.1671333576398672
  0.8124946852367826  0.5400027030145453  0.3899993953066896
  0.6869329921437388  0.4568352222254891  0.3458791843415556
  0.9364400325659766  0.2891998573652097  0.8741984857548143
  0.4377991827842448  0.1216728989115053  0.6539796691506223
  0.0634988967662174  0.0367209764720463  0.8741712489538573
  0.1873845742388379  0.7907481447170895  0.3899312589003369
  0.8120480823306878  0.3708743929898320  0.1673649868228891
  0.5624751587256825  0.3724038284464748  0.5211869259938898
  0.9372879240147337  0.1223771205536835  0.5211953130817573
  0.4369683602004073  0.7878476121625968  0.1255250920967191
  0.3128425721335188  0.5370853201827412  0.7430826496268604
 
  0.00000000E+00  0.00000000E+00  0.00000000E+00
  0.00000000E+00  0.00000000E+00  0.00000000E+00
  0.00000000E+00  0.00000000E+00  0.00000000E+00
  0.00000000E+00  0.00000000E+00  0.00000000E+00
  0.00000000E+00  0.00000000E+00  0.00000000E+00
  0.00000000E+00  0.00000000E+00  0.00000000E+00
  0.00000000E+00  0.00000000E+00  0.00000000E+00
  0.00000000E+00  0.00000000E+00  0.00000000E+00
  0.00000000E+00  0.00000000E+00  0.00000000E+00
  0.00000000E+00  0.00000000E+00  0.00000000E+00
  0.00000000E+00  0.00000000E+00  0.00000000E+00
  0.00000000E+00  0.00000000E+00  0.00000000E+00
  0.00000000E+00  0.00000000E+00  0.00000000E+00
  0.00000000E+00  0.00000000E+00  0.00000000E+00
  0.00000000E+00  0.00000000E+00  0.00000000E+00
  0.00000000E+00  0.00000000E+00  0.00000000E+00
  0.00000000E+00  0.00000000E+00  0.00000000E+00
  0.00000000E+00  0.00000000E+00  0.00000000E+00
  0.00000000E+00  0.00000000E+00  0.00000000E+00
  0.00000000E+00  0.00000000E+00  0.00000000E+00
  0.00000000E+00  0.00000000E+00  0.00000000E+00
  0.00000000E+00  0.00000000E+00  0.00000000E+00
  0.00000000E+00  0.00000000E+00  0.00000000E+00
  0.00000000E+00  0.00000000E+00  0.00000000E+00
  0.00000000E+00  0.00000000E+00  0.00000000E+00
  0.00000000E+00  0.00000000E+00  0.00000000E+00
  0.00000000E+00  0.00000000E+00  0.00000000E+00
  0.00000000E+00  0.00000000E+00  0.00000000E+00
  0.00000000E+00  0.00000000E+00  0.00000000E+00
  0.00000000E+00  0.00000000E+00  0.00000000E+00
  0.00000000E+00  0.00000000E+00  0.00000000E+00
  0.00000000E+00  0.00000000E+00  0.00000000E+00
  0.00000000E+00  0.00000000E+00  0.00000000E+00
  0.00000000E+00  0.00000000E+00  0.00000000E+00
  0.00000000E+00  0.00000000E+00  0.00000000E+00
  0.00000000E+00  0.00000000E+00  0.00000000E+00
  0.00000000E+00  0.00000000E+00  0.00000000E+00
  0.00000000E+00  0.00000000E+00  0.00000000E+00
  0.00000000E+00  0.00000000E+00  0.00000000E+00
  0.00000000E+00  0.00000000E+00  0.00000000E+00
  0.00000000E+00  0.00000000E+00  0.00000000E+00
  0.00000000E+00  0.00000000E+00  0.00000000E+00
  0.00000000E+00  0.00000000E+00  0.00000000E+00
  0.00000000E+00  0.00000000E+00  0.00000000E+00
  0.00000000E+00  0.00000000E+00  0.00000000E+00
  0.00000000E+00  0.00000000E+00  0.00000000E+00
  0.00000000E+00  0.00000000E+00  0.00000000E+00
  0.00000000E+00  0.00000000E+00  0.00000000E+00
  0.00000000E+00  0.00000000E+00  0.00000000E+00
  0.00000000E+00  0.00000000E+00  0.00000000E+00
  0.00000000E+00  0.00000000E+00  0.00000000E+00
  0.00000000E+00  0.00000000E+00  0.00000000E+00
  0.00000000E+00  0.00000000E+00  0.00000000E+00
  0.00000000E+00  0.00000000E+00  0.00000000E+00
  0.00000000E+00  0.00000000E+00  0.00000000E+00
  0.00000000E+00  0.00000000E+00  0.00000000E+00
  0.00000000E+00  0.00000000E+00  0.00000000E+00
  0.00000000E+00  0.00000000E+00  0.00000000E+00
  0.00000000E+00  0.00000000E+00  0.00000000E+00
  0.00000000E+00  0.00000000E+00  0.00000000E+00
  0.00000000E+00  0.00000000E+00  0.00000000E+00
  0.00000000E+00  0.00000000E+00  0.00000000E+00
  0.00000000E+00  0.00000000E+00  0.00000000E+00
  0.00000000E+00  0.00000000E+00  0.00000000E+00
  0.00000000E+00  0.00000000E+00  0.00000000E+00
  0.00000000E+00  0.00000000E+00  0.00000000E+00
  0.00000000E+00  0.00000000E+00  0.00000000E+00
  0.00000000E+00  0.00000000E+00  0.00000000E+00
  0.00000000E+00  0.00000000E+00  0.00000000E+00
  0.00000000E+00  0.00000000E+00  0.00000000E+00
  0.00000000E+00  0.00000000E+00  0.00000000E+00
  0.00000000E+00  0.00000000E+00  0.00000000E+00
  0.00000000E+00  0.00000000E+00  0.00000000E+00
  0.00000000E+00  0.00000000E+00  0.00000000E+00
  0.00000000E+00  0.00000000E+00  0.00000000E+00
  0.00000000E+00  0.00000000E+00  0.00000000E+00
  0.00000000E+00  0.00000000E+00  0.00000000E+00
  0.00000000E+00  0.00000000E+00  0.00000000E+00
  0.00000000E+00  0.00000000E+00  0.00000000E+00
  0.00000000E+00  0.00000000E+00  0.00000000E+00
  0.00000000E+00  0.00000000E+00  0.00000000E+00
  0.00000000E+00  0.00000000E+00  0.00000000E+00
  0.00000000E+00  0.00000000E+00  0.00000000E+00
  0.00000000E+00  0.00000000E+00  0.00000000E+00
  0.00000000E+00  0.00000000E+00  0.00000000E+00
  0.00000000E+00  0.00000000E+00  0.00000000E+00
  0.00000000E+00  0.00000000E+00  0.00000000E+00
  0.00000000E+00  0.00000000E+00  0.00000000E+00
  0.00000000E+00  0.00000000E+00  0.00000000E+00
  0.00000000E+00  0.00000000E+00  0.00000000E+00
  0.00000000E+00  0.00000000E+00  0.00000000E+00
  0.00000000E+00  0.00000000E+00  0.00000000E+00
  0.00000000E+00  0.00000000E+00  0.00000000E+00
  0.00000000E+00  0.00000000E+00  0.00000000E+00
  0.00000000E+00  0.00000000E+00  0.00000000E+00
  0.00000000E+00  0.00000000E+00  0.00000000E+00
  0.00000000E+00  0.00000000E+00  0.00000000E+00
  0.00000000E+00  0.00000000E+00  0.00000000E+00
  0.00000000E+00  0.00000000E+00  0.00000000E+00
  0.00000000E+00  0.00000000E+00  0.00000000E+00
  0.00000000E+00  0.00000000E+00  0.00000000E+00
  0.00000000E+00  0.00000000E+00  0.00000000E+00
  0.00000000E+00  0.00000000E+00  0.00000000E+00
  0.00000000E+00  0.00000000E+00  0.00000000E+00
  0.00000000E+00  0.00000000E+00  0.00000000E+00
  0.00000000E+00  0.00000000E+00  0.00000000E+00
  0.00000000E+00  0.00000000E+00  0.00000000E+00
  0.00000000E+00  0.00000000E+00  0.00000000E+00
  0.00000000E+00  0.00000000E+00  0.00000000E+00
  0.00000000E+00  0.00000000E+00  0.00000000E+00
  0.00000000E+00  0.00000000E+00  0.00000000E+00
  0.00000000E+00  0.00000000E+00  0.00000000E+00
  0.00000000E+00  0.00000000E+00  0.00000000E+00
  0.00000000E+00  0.00000000E+00  0.00000000E+00
  0.00000000E+00  0.00000000E+00  0.00000000E+00
  0.00000000E+00  0.00000000E+00  0.00000000E+00
  0.00000000E+00  0.00000000E+00  0.00000000E+00
  0.00000000E+00  0.00000000E+00  0.00000000E+00
  0.00000000E+00  0.00000000E+00  0.00000000E+00
  0.00000000E+00  0.00000000E+00  0.00000000E+00
  0.00000000E+00  0.00000000E+00  0.00000000E+00
  0.00000000E+00  0.00000000E+00  0.00000000E+00
  0.00000000E+00  0.00000000E+00  0.00000000E+00
  0.00000000E+00  0.00000000E+00  0.00000000E+00
  0.00000000E+00  0.00000000E+00  0.00000000E+00
  0.00000000E+00  0.00000000E+00  0.00000000E+00
  0.00000000E+00  0.00000000E+00  0.00000000E+00
  0.00000000E+00  0.00000000E+00  0.00000000E+00
  0.00000000E+00  0.00000000E+00  0.00000000E+00
  0.00000000E+00  0.00000000E+00  0.00000000E+00
  0.00000000E+00  0.00000000E+00  0.00000000E+00
  0.00000000E+00  0.00000000E+00  0.00000000E+00
  0.00000000E+00  0.00000000E+00  0.00000000E+00
  0.00000000E+00  0.00000000E+00  0.00000000E+00
  0.00000000E+00  0.00000000E+00  0.00000000E+00
  0.00000000E+00  0.00000000E+00  0.00000000E+00
  0.00000000E+00  0.00000000E+00  0.00000000E+00
  0.00000000E+00  0.00000000E+00  0.00000000E+00
  0.00000000E+00  0.00000000E+00  0.00000000E+00
  0.00000000E+00  0.00000000E+00  0.00000000E+00
  0.00000000E+00  0.00000000E+00  0.00000000E+00
  0.00000000E+00  0.00000000E+00  0.00000000E+00
  0.00000000E+00  0.00000000E+00  0.00000000E+00
  0.00000000E+00  0.00000000E+00  0.00000000E+00
  0.00000000E+00  0.00000000E+00  0.00000000E+00
  0.00000000E+00  0.00000000E+00  0.00000000E+00
  0.00000000E+00  0.00000000E+00  0.00000000E+00
  0.00000000E+00  0.00000000E+00  0.00000000E+00
  0.00000000E+00  0.00000000E+00  0.00000000E+00
  0.00000000E+00  0.00000000E+00  0.00000000E+00
  0.00000000E+00  0.00000000E+00  0.00000000E+00
  0.00000000E+00  0.00000000E+00  0.00000000E+00
  0.00000000E+00  0.00000000E+00  0.00000000E+00
  0.00000000E+00  0.00000000E+00  0.00000000E+00
  0.00000000E+00  0.00000000E+00  0.00000000E+00
  0.00000000E+00  0.00000000E+00  0.00000000E+00
  0.00000000E+00  0.00000000E+00  0.00000000E+00
  0.00000000E+00  0.00000000E+00  0.00000000E+00
  0.00000000E+00  0.00000000E+00  0.00000000E+00
  0.00000000E+00  0.00000000E+00  0.00000000E+00
  0.00000000E+00  0.00000000E+00  0.00000000E+00
  0.00000000E+00  0.00000000E+00  0.00000000E+00
  0.00000000E+00  0.00000000E+00  0.00000000E+00
  0.00000000E+00  0.00000000E+00  0.00000000E+00
  0.00000000E+00  0.00000000E+00  0.00000000E+00
  0.00000000E+00  0.00000000E+00  0.00000000E+00
  0.00000000E+00  0.00000000E+00  0.00000000E+00
  0.00000000E+00  0.00000000E+00  0.00000000E+00
  0.00000000E+00  0.00000000E+00  0.00000000E+00
  0.00000000E+00  0.00000000E+00  0.00000000E+00
  0.00000000E+00  0.00000000E+00  0.00000000E+00
  0.00000000E+00  0.00000000E+00  0.00000000E+00
  0.00000000E+00  0.00000000E+00  0.00000000E+00
  0.00000000E+00  0.00000000E+00  0.00000000E+00
  0.00000000E+00  0.00000000E+00  0.00000000E+00
  0.00000000E+00  0.00000000E+00  0.00000000E+00
  0.00000000E+00  0.00000000E+00  0.00000000E+00
  0.00000000E+00  0.00000000E+00  0.00000000E+00
  0.00000000E+00  0.00000000E+00  0.00000000E+00
  0.00000000E+00  0.00000000E+00  0.00000000E+00
  0.00000000E+00  0.00000000E+00  0.00000000E+00
  0.00000000E+00  0.00000000E+00  0.00000000E+00
  0.00000000E+00  0.00000000E+00  0.00000000E+00
  0.00000000E+00  0.00000000E+00  0.00000000E+00
  0.00000000E+00  0.00000000E+00  0.00000000E+00
  0.00000000E+00  0.00000000E+00  0.00000000E+00
  0.00000000E+00  0.00000000E+00  0.00000000E+00
  0.00000000E+00  0.00000000E+00  0.00000000E+00
  0.00000000E+00  0.00000000E+00  0.00000000E+00
  0.00000000E+00  0.00000000E+00  0.00000000E+00
  0.00000000E+00  0.00000000E+00  0.00000000E+00
  0.00000000E+00  0.00000000E+00  0.00000000E+00
  0.00000000E+00  0.00000000E+00  0.00000000E+00
  0.00000000E+00  0.00000000E+00  0.00000000E+00
  0.00000000E+00  0.00000000E+00  0.00000000E+00
  0.00000000E+00  0.00000000E+00  0.00000000E+00
  0.00000000E+00  0.00000000E+00  0.00000000E+00
  0.00000000E+00  0.00000000E+00  0.00000000E+00
  0.00000000E+00  0.00000000E+00  0.00000000E+00
  0.00000000E+00  0.00000000E+00  0.00000000E+00
  0.00000000E+00  0.00000000E+00  0.00000000E+00
  0.00000000E+00  0.00000000E+00  0.00000000E+00
  0.00000000E+00  0.00000000E+00  0.00000000E+00
  0.00000000E+00  0.00000000E+00  0.00000000E+00
  0.00000000E+00  0.00000000E+00  0.00000000E+00
  0.00000000E+00  0.00000000E+00  0.00000000E+00
  0.00000000E+00  0.00000000E+00  0.00000000E+00
  0.00000000E+00  0.00000000E+00  0.00000000E+00
  0.00000000E+00  0.00000000E+00  0.00000000E+00
  0.00000000E+00  0.00000000E+00  0.00000000E+00
  0.00000000E+00  0.00000000E+00  0.00000000E+00
  0.00000000E+00  0.00000000E+00  0.00000000E+00
  0.00000000E+00  0.00000000E+00  0.00000000E+00
  0.00000000E+00  0.00000000E+00  0.00000000E+00
  0.00000000E+00  0.00000000E+00  0.00000000E+00
  0.00000000E+00  0.00000000E+00  0.00000000E+00
  0.00000000E+00  0.00000000E+00  0.00000000E+00
  0.00000000E+00  0.00000000E+00  0.00000000E+00
  0.00000000E+00  0.00000000E+00  0.00000000E+00
  0.00000000E+00  0.00000000E+00  0.00000000E+00
  0.00000000E+00  0.00000000E+00  0.00000000E+00
  0.00000000E+00  0.00000000E+00  0.00000000E+00
  0.00000000E+00  0.00000000E+00  0.00000000E+00
  0.00000000E+00  0.00000000E+00  0.00000000E+00
  0.00000000E+00  0.00000000E+00  0.00000000E+00
  0.00000000E+00  0.00000000E+00  0.00000000E+00
  0.00000000E+00  0.00000000E+00  0.00000000E+00
  0.00000000E+00  0.00000000E+00  0.00000000E+00
  0.00000000E+00  0.00000000E+00  0.00000000E+00
  0.00000000E+00  0.00000000E+00  0.00000000E+00
  0.00000000E+00  0.00000000E+00  0.00000000E+00
  0.00000000E+00  0.00000000E+00  0.00000000E+00
  0.00000000E+00  0.00000000E+00  0.00000000E+00
  0.00000000E+00  0.00000000E+00  0.00000000E+00
  0.00000000E+00  0.00000000E+00  0.00000000E+00
  0.00000000E+00  0.00000000E+00  0.00000000E+00
  0.00000000E+00  0.00000000E+00  0.00000000E+00
  0.00000000E+00  0.00000000E+00  0.00000000E+00
  0.00000000E+00  0.00000000E+00  0.00000000E+00
  0.00000000E+00  0.00000000E+00  0.00000000E+00
  0.00000000E+00  0.00000000E+00  0.00000000E+00
  0.00000000E+00  0.00000000E+00  0.00000000E+00
  0.00000000E+00  0.00000000E+00  0.00000000E+00
  0.00000000E+00  0.00000000E+00  0.00000000E+00
  0.00000000E+00  0.00000000E+00  0.00000000E+00
  0.00000000E+00  0.00000000E+00  0.00000000E+00
  0.00000000E+00  0.00000000E+00  0.00000000E+00