CuInSe2gb                               
   1.00000000000000     
     9.7266780392896699    0.0000000000000000    0.0000000000000000
     0.0000000000000000    8.4235502764570693    0.0000000000000000
     0.0000000000000000    0.0000000000000000   45.0000000000000000
   Fe   Mn
   274    14
Direct
  0.0630254528229110  0.0288024884471181  0.1241483631967518
  0.3163573805451380  0.8748745557890675  0.6550188186630513
  0.1838200924388642  0.1234780029913073  0.7886503291325485
  0.4413565738797470  0.2876023975240590  0.3891400155211692
  0.3179873165313332  0.7137150966170780  0.8331293451987176
  0.8180197277429488  0.2151456957437911  0.8336043019331026
  0.1914311612597950  0.9634222650461799  0.8336066514141168
  0.5623036584994602  0.2069662914176327  0.5654824718180513
  0.0656037032258234  0.0403870243779795  0.7442489725099642
  0.8116170787095486  0.8714185428987199  0.5214023914142571
  0.1907700418815129  0.2908429491777333  0.7442886904486182
  0.9334991000754947  0.4521551363325854  0.3448683443028505
  0.9410825807998614  0.2865283238647023  0.3889343273664792
  0.8127729958502665  0.0405784915437620  0.8757659420359785
  0.1837862495179483  0.7880489640323015  0.6110004396410867
  0.5664025989398070  0.0378691144408005  0.3890408993888673
  0.9425370220193420  0.9649254402529606  0.8338985593933738
  0.3134291663222393  0.5406396668445910  0.8760703722376418
  0.6904342683968288  0.2913348966880199  0.7441703829077986
  0.1819493228320589  0.6135465750983652  0.1666681250500221
  0.8123395489265784  0.2057198821100648  0.4786121892389273
  0.8088536054750821  0.5381684513894873  0.6110085186621356
  0.3119057278823658  0.8705632780232462  0.4344516552901594
  0.8094843109142972  0.0383326615497828  0.2558954589196596
  0.6827571124820146  0.9520223859332597  0.3447465809566705
  0.9309412372630724  0.1139456802156242  0.1668762564236325
  0.0615934446198851  0.8713936796085968  0.5213985262022561
  0.5577884171521905  0.5381236982578421  0.2556126395698989
  0.6841950627870490  0.7976720699473138  0.8759304276868404
  0.5570192979044639  0.3640747928603830  0.1665490548756403
  0.4397081152837619  0.7918813752070425  0.7444631088815752
  0.8116246693248059  0.7066332653105594  0.5654919108319610
  0.5593161601988034  0.8734570341662691  0.7885407411646393
  0.6865886102307988  0.1217279936038967  0.5213735782663067
  0.8162091621768559  0.3748875481398214  0.6550293831644664
  0.9423483728932674  0.4644513279696507  0.8337644735866389
  0.0605789687632354  0.2078124534016119  0.6997643336520355
  0.4349823212783991  0.9575386094473647  0.6997035452454604
  0.3170698754073358  0.2128588765863004  0.8334408527309232
  0.4413335368619491  0.6248746101611380  0.6549572724316757
  0.3088900143437789  0.5380659307574598  0.6109231604991840
  0.3065923216577745  0.8629422987241215  0.1669023987546599
  0.6902624032136588  0.7915436989359708  0.7442080671066970
  0.9363741280805649  0.7891836679690896  0.1243658166781386
  0.6916057342822304  0.7876881450010608  0.3890683899536980
  0.9405826585128485  0.7906402697727376  0.7445062562866154
  0.0585891992109974  0.2028418520445771  0.3448913213007774
  0.6836575974397843  0.4523378521905989  0.3449401698051731
  0.4339312452857179  0.1225377592709623  0.7890091786599673
  0.0656837030660442  0.2059529577692631  0.2112228891381960
  0.0554983996039948  0.3655140733461528  0.1666561027118921
  0.9337845526213965  0.7870898502604116  0.2555002784094618
  0.5604717897034081  0.2072173678624069  0.6998304282308677
  0.6850582931594401  0.9573535706357640  0.6997290231024051
  0.8090193548434005  0.8734646720988036  0.7883231838190586
  0.4366716631724945  0.9573736765190004  0.5654183370724727
  0.8088553645201563  0.3748914604837978  0.7885082110761216
  0.6838202393595737  0.2872922020269354  0.2559477946379027
  0.1872071614911712  0.4571519341548382  0.5654732550589899
  0.0559518119503522  0.8652702514464707  0.1667753867100824
  0.1839752714456776  0.2886324489116149  0.6110867458445658
  0.0621497294831152  0.2073095150090118  0.5653955596428630
  0.3101553907135597  0.2072029997105745  0.6998246968005148
  0.5625994165523749  0.5409464298866510  0.8759477772728120
  0.0614899229636531  0.7064728438914275  0.5655578340580341
  0.6828691362547850  0.6222914222323469  0.7885393258343248
  0.3157880563378936  0.5383558937415425  0.3889083142084431
  0.1866117476415503  0.6212545584956195  0.5214196538796160
  0.5623782535577908  0.8703872455695383  0.4343985988619692
  0.4365460128418185  0.4568517796217716  0.5655505347383100
  0.4399974684146557  0.2914884924514602  0.7442407821985727
  0.8208260396152552  0.8731422805382104  0.3002244966270488
  0.8085901838365518  0.7025717031875697  0.3449287942386240
  0.4422864626534058  0.4628256533598873  0.8332840230228951
  0.6874946736157156  0.9559738099408928  0.4786722912233953
  0.6841919243591679  0.4576280001006943  0.6998184529108640
  0.5619208934531938  0.8721004412377976  0.5214895329269430
  0.5660074193095378  0.3742674948295175  0.6549633566941008
  0.8161585461718845  0.8747182543456569  0.6551845792145397
  0.8113477780188054  0.3713924173640062  0.4342157656848694
  0.8086605132567926  0.5373107462677361  0.2558308110516134
  0.6921188707960118  0.4622273312895691  0.8332845258919594
  0.1865075301042544  0.7879338433919781  0.1242246280136415
  0.6912958840556019  0.2873153452011372  0.3890397606338520
  0.3161945564259959  0.3742947601494217  0.6549337110708122
  0.3087086145814796  0.2025966209991050  0.3446698229206361
  0.8155762841485883  0.5403402372708667  0.7442148666139904
  0.6917106755049458  0.9624696527511988  0.8335051556077440
  0.5662870055376599  0.8745100486932735  0.6549589520734546
  0.3110408925421504  0.7069517535020016  0.5655401832382040
  0.3115598658837832  0.5302653945224061  0.1240685056180680
  0.6902687821111038  0.9546947255395738  0.2117651624382678
  0.3111750846110579  0.2063721817568084  0.5655121952511361
  0.1873092958153305  0.9559690900547856  0.4786401024436589
  0.6871040040984644  0.9571317507407795  0.5655101187341571
  0.4337993864129880  0.7882362742558983  0.6109218662793999
  0.6820696598632828  0.6115964574768301  0.1661641045850528
  0.3195836513993063  0.8734674275442632  0.3000542175536867
  0.3121832092604673  0.7058727538043250  0.4786493302986823
  0.9336164087361214  0.2881738576903524  0.6108894988205560
  0.4460438619651685  0.6231915670895118  0.3001375365543825
  0.8074126566041127  0.8635924108346086  0.1667783184914901
  0.5668189478806693  0.2033908611443128  0.2114186099648580
  0.9325559212018106  0.6128176334730238  0.1667056626729981
  0.4372460236027671  0.9556746880758855  0.4786597936286751
  0.5589873037292775  0.3729259321359812  0.7887133060927143
  0.0615289958621393  0.3720638597893282  0.5214296252354245
  0.3072257062137666  0.3638011774117280  0.1666634167970536
  0.6953796240874641  0.1232248614476246  0.3003164953004837
  0.4428805594870397  0.9631679238492202  0.8333235415511264
  0.1858883479837353  0.2863548250499764  0.1240923416486359
  0.1840489951818176  0.2873529388942076  0.2559331841907536
  0.3121615028573773  0.3706546146873862  0.4344331132941741
  0.5624438985937437  0.0323749930230816  0.1244016247817411
  0.4339286690600861  0.2883356911428764  0.6109640142833729
  0.1836751356954648  0.4525717710018292  0.3449292803027388
  0.4334615582779971  0.2862043287064283  0.1241723904017453
  0.6832563552642746  0.7882811935266859  0.2558407463377393
  0.4368558867566060  0.1218863729417313  0.5214684484520368
  0.1887216832353860  0.2966763225861869  0.8761790898352740
  0.1911613921284545  0.1251748898452480  0.6551324448919620
  0.9410368138549765  0.1249258985571798  0.6550941154959299
  0.8162935187296640  0.5376715024969928  0.3890664033480803
  0.0664173864268124  0.0381618164280053  0.3891380261217121
  0.1827588539197322  0.1129530272124974  0.1666001719277817
  0.0589216085335988  0.5380012014975988  0.6109548922885264
  0.9337180495843742  0.2872546308087767  0.2558435827590282
  0.5588706562826454  0.5382137138883332  0.6109513549606902
  0.9364410357007174  0.9572140976308082  0.5655231704078763
  0.6949223457085967  0.6242130551122066  0.3001578039409417
  0.9370726912160776  0.6205823026645234  0.4344321085802806
  0.9329049832277788  0.6244359043132650  0.7883902613810611
  0.5602051589283854  0.7071847389773936  0.6996891261522133
  0.0659253993025203  0.7169604642821860  0.8339600682041004
  0.9455165007755949  0.1226874750578013  0.3000862393298648
  0.9337080466842538  0.7876278378335427  0.6108988272625178
  0.4336453245573648  0.7873668214385385  0.2556220984329774
  0.3089814977757428  0.3734518981659902  0.7887100799750625
  0.4408354815855056  0.4533269672850940  0.2113059959202273
  0.1867085079870671  0.1217372085072006  0.5213696431604147
  0.8101498112405245  0.7076672945767153  0.6996387758234439
  0.0585286158790134  0.0377648516391586  0.6109219197572504
  0.5661174704516133  0.2133157325034962  0.8332411457754392
  0.3117529138566618  0.8718573343485192  0.5214286251904223
  0.6860809252902773  0.2866389451179149  0.1239469670694224
  0.1911165391277531  0.9552255524312339  0.2116791134025776
  0.6841234590257524  0.2885432145649000  0.6110636645634823
  0.3089253962026108  0.0381670843454106  0.6110216282021170
  0.9341426530791979  0.1243115297758421  0.7885778649616906
  0.4365865500964171  0.7974576794349963  0.8761800437374332
  0.8158557508105532  0.0405639139111350  0.7442660789634973
  0.9351876715361028  0.4583855168819244  0.6996533364473976
  0.1914183058287671  0.6251935950923526  0.6552102997217272
  0.3102309639336134  0.7067770990769964  0.6997885431175253
  0.9357556033925785  0.2870391462699933  0.1240297771466779
  0.4375101987021216  0.4559502958857689  0.4785641918846620
  0.0624090549430934  0.7057010701068311  0.4784039088031359
  0.9369717042110292  0.1194636232622254  0.4346708350960887
  0.4446457950474522  0.1233667838579149  0.3004282270988837
  0.1871407607571340  0.1204827022674047  0.4342686307111101
  0.5626342002882729  0.0407733863073641  0.8760288775469365
  0.1868437490113239  0.9570966292709993  0.5654745771401517
  0.6838061201632258  0.7882407095750515  0.1243240109562028
  0.5588181349073542  0.7023056934237724  0.3448680835377516
  0.3162906515922175  0.0373158831662963  0.3888411085034746
  0.6821311043896061  0.1131991439161778  0.1667555870539440
  0.8163133226521585  0.2034665340244618  0.2112640228013286
  0.0585670701532435  0.5372328191272653  0.2558422405847708
  0.5623287319582955  0.7056089657676988  0.4786960562526261
  0.4353397743876340  0.7873220704462542  0.1241904321186465
  0.5699529460831118  0.3718547700835660  0.3002024823124075
  0.4336027898723034  0.9524451993757468  0.3449137362241925
  0.1849507993553459  0.9578184351810025  0.6997559269246180
  0.4325412695925765  0.6127139309654039  0.1661471179965975
  0.9407183821158267  0.4538898869150486  0.2116174082609791
  0.0628250257487094  0.5299566237489609  0.1239722247767957
  0.8116713924602347  0.3721429973632297  0.5214302307017081
  0.9445263501641104  0.6233090608689017  0.2999572672507720
  0.3095326599168128  0.0374030085011615  0.2555044883799442
  0.6839210304864582  0.7880809709153004  0.6110035569334999
  0.1918262878416493  0.4634154824341824  0.8334752709728593
  0.4323160427502089  0.1130193235932883  0.1666709903880015
  0.3116307440283156  0.3719495071298030  0.5214177856994668
  0.4330219776440078  0.6228262709573243  0.7888865125155596
  0.0588027762095880  0.0371397913648822  0.2557654896139405
  0.5622192563030244  0.7070174236086909  0.5655769674982797
  0.9399484207423253  0.2906195973209253  0.7444606496316182
  0.6825836203403380  0.1225790763734178  0.7885684359714316
  0.1895644360410035  0.4539888148327358  0.2112598697339317
  0.9412835814245437  0.7875217266983736  0.3888226754906969
  0.6857798489289337  0.2992289786253042  0.8760098478145714
  0.5571377641341687  0.8612346589402280  0.1664730135547673
  0.4350609180930987  0.4579525504584236  0.6997064623529631
  0.9339925079399459  0.9510956812352854  0.3447634137252044
  0.6866243142635087  0.6213593523354797  0.5213047755155726
  0.0660881311087588  0.8748926304166875  0.6550499803279065
  0.0591345694273468  0.8739450791761049  0.7884085068311630
  0.0659556587259714  0.3750204690518853  0.6550427858527753
  0.6868053548965359  0.4556487496323970  0.4785905906130429
  0.1835649956622954  0.7870577654888362  0.2553919303620240
  0.4369659036268466  0.1211520648724824  0.4342849736573802
  0.8142224484470981  0.0299672808169683  0.1240365461579770
  0.9365610649834067  0.6220124189183784  0.5214691692133674
  0.4414013618995810  0.1246646592747297  0.6548853579132236
  0.8131323777964523  0.5287360666798843  0.1240228345919354
  0.4337450784107656  0.4525470971756109  0.3450254957986240
  0.8087596422827235  0.2025694565377336  0.3449570439354785
  0.3092263142294878  0.7019208129155613  0.3447667696184944
  0.6910772966651136  0.1252580852920714  0.6550070477341280
  0.5707264665659146  0.8730692874630580  0.3001914154924785
  0.0653563953214528  0.5406206346947388  0.7443725508380822
  0.9400467070780878  0.9542273678290523  0.2113522776678632
  0.8163204754926429  0.7039342494794312  0.2113904069754771
  0.0708068068160484  0.8732821654561327  0.3002053374725346
  0.1946947670747419  0.1223215295606046  0.3001486964335163
  0.0585429458621761  0.7023504302484490  0.3449181444289056
  0.8091556581856755  0.0383331846881588  0.6110152663679587
  0.0632914579225705  0.3715675053029048  0.4342803293837157
  0.5587644229519241  0.2027245833119135  0.3447647052929105
  0.8203754803265911  0.3735476722825000  0.3000755611018273
  0.5597553546156309  0.0377602538344176  0.2554372551430941
  0.5663824678734165  0.5378084951579187  0.3890817374154128
  0.0625722529896519  0.2059253172152005  0.4786212938288504
  0.3104867959188200  0.8727764252133909  0.7882905737538543
  0.9350818666762049  0.9581015435277499  0.6996447248418936
  0.0693157410536518  0.3744293927226153  0.3000810801435633
  0.6913857223281843  0.6251011935454827  0.6552287531896817
  0.6866246149851186  0.4569515118400443  0.5653702330814150
  0.4400058032838286  0.9552504939295544  0.2119569988092155
  0.3126286322022997  0.2058467707946131  0.4786923330585017
  0.8120574675989506  0.5404084483205773  0.8758574007275164
  0.6880819277236625  0.6203426491789136  0.4344986478895339
  0.8104709661879731  0.2074847913696663  0.6998195426456792
  0.8124924754527207  0.7058302978628145  0.4786095000420100
  0.8114356060681184  0.8713203330607275  0.4342835727490794
  0.9373324186938232  0.9553163944801638  0.4787280264737465
  0.5620871947237057  0.2058325210707803  0.4786420364599567
  0.1872925627455551  0.6202404745650099  0.4344798751897885
  0.3151356229470600  0.0416117366175510  0.7441128736572830
  0.9414327042636224  0.6250382408387619  0.6549374334086219
  0.5661261903586534  0.7135645440067421  0.8333243094971012
  0.3202917452065335  0.3723132684320261  0.3000654181348892
  0.3151429859071327  0.5413724578371203  0.7442433164945010
  0.1872906482178752  0.4556672020874579  0.4786239729008699
  0.3143605167820036  0.0411683700416467  0.8758830037881774
  0.1849202801391870  0.4578775421479916  0.6997210789896341
  0.5617439551567265  0.3718011067029621  0.5214168390600028
  0.1910940824753702  0.2876202698872075  0.3889410597927505
  0.3157831805787951  0.2057564675650130  0.2113037542130947
  0.0673245460069043  0.7043312072189838  0.2114505612870912
  0.5619076507647325  0.3710632486956661  0.4343263917314238
  0.4364746870956582  0.6221824846748879  0.5213590499444716
  0.8169652625435619  0.7154708228940512  0.8333849093597455
  0.0590238842633682  0.3749563994699311  0.7884681619699628
  0.4365761445493926  0.2980848053957242  0.8763038102059567
  0.3115291655430356  0.0319142382092479  0.1242623912357171
  0.6881991725339515  0.1205810481810175  0.4342724696381412
  0.1837845894200459  0.9521246188988726  0.3449243765026877
  0.0667705815288887  0.2153185957365013  0.8340238100258978
  0.5591690034354077  0.0382963883734597  0.6111135807897107
  0.6890248737762837  0.4539243115507801  0.2117159357198330
  0.1897838655966043  0.7915206129220200  0.7443731997805972
  0.1954635265747879  0.6226782494900631  0.3000982136958735
  0.4414351098849060  0.7876554616470559  0.3890741915795918
  0.4332516700686250  0.2878303561810714  0.2557545883042827
  0.0634619487972793  0.5406051353193125  0.8758775578208897
  0.5655710964317335  0.0413052896825029  0.7442651999546973
  0.1879064483304470  0.7969673515710374  0.8760603862638245
  0.9372746315287225  0.4556564679670469  0.4786496379924203
  0.5650195666861638  0.5414288143152381  0.7440664079191338
  0.8112483865144855  0.2071873843667569  0.5654666519002044
  0.1843375819916043  0.6224254840644674  0.7884964520294718
  0.0674853951817834  0.5389099532358635  0.3891229972019137
  0.0603712635460205  0.7077003024541512  0.6996509450827263
  0.3082839606712519  0.5364632017429456  0.2558430977498005
  0.3157985984325352  0.7062277878274892  0.2116844894663344
  0.9361576185747297  0.4560699284987093  0.5657659739643158
  0.4362632015214161  0.6214338368411383  0.4343726089129096
  0.8177673248920795  0.0394659387177668  0.3890866520275937
  0.9350045181843367  0.2979587179936709  0.8755873710058053
  0.9367124023883845  0.7952571630945348  0.8755644716740623
  0.0654737869803489  0.0388780794287741  0.8757209824538713
  0.5622689072598196  0.5293180556781927  0.1244176622151473
  0.8055595725401240  0.3657534580021469  0.1658441259338128
  0.0618871667507757  0.8716311330320293  0.4343848406324169
  0.9365242162988459  0.1219000498221856  0.5215816620547389
  0.1932777691177038  0.7874514623867627  0.3887778757887115
  0.5683171190106534  0.7026720333637794  0.2118572747827514
 
  0.00000000E+00  0.00000000E+00  0.00000000E+00
  0.00000000E+00  0.00000000E+00  0.00000000E+00
  0.00000000E+00  0.00000000E+00  0.00000000E+00
  0.00000000E+00  0.00000000E+00  0.00000000E+00
  0.00000000E+00  0.00000000E+00  0.00000000E+00
  0.00000000E+00  0.00000000E+00  0.00000000E+00
  0.00000000E+00  0.00000000E+00  0.00000000E+00
  0.00000000E+00  0.00000000E+00  0.00000000E+00
  0.00000000E+00  0.00000000E+00  0.00000000E+00
  0.00000000E+00  0.00000000E+00  0.00000000E+00
  0.00000000E+00  0.00000000E+00  0.00000000E+00
  0.00000000E+00  0.00000000E+00  0.00000000E+00
  0.00000000E+00  0.00000000E+00  0.00000000E+00
  0.00000000E+00  0.00000000E+00  0.00000000E+00
  0.00000000E+00  0.00000000E+00  0.00000000E+00
  0.00000000E+00  0.00000000E+00  0.00000000E+00
  0.00000000E+00  0.00000000E+00  0.00000000E+00
  0.00000000E+00  0.00000000E+00  0.00000000E+00
  0.00000000E+00  0.00000000E+00  0.00000000E+00
  0.00000000E+00  0.00000000E+00  0.00000000E+00
  0.00000000E+00  0.00000000E+00  0.00000000E+00
  0.00000000E+00  0.00000000E+00  0.00000000E+00
  0.00000000E+00  0.00000000E+00  0.00000000E+00
  0.00000000E+00  0.00000000E+00  0.00000000E+00
  0.00000000E+00  0.00000000E+00  0.00000000E+00
  0.00000000E+00  0.00000000E+00  0.00000000E+00
  0.00000000E+00  0.00000000E+00  0.00000000E+00
  0.00000000E+00  0.00000000E+00  0.00000000E+00
  0.00000000E+00  0.00000000E+00  0.00000000E+00
  0.00000000E+00  0.00000000E+00  0.00000000E+00
  0.00000000E+00  0.00000000E+00  0.00000000E+00
  0.00000000E+00  0.00000000E+00  0.00000000E+00
  0.00000000E+00  0.00000000E+00  0.00000000E+00
  0.00000000E+00  0.00000000E+00  0.00000000E+00
  0.00000000E+00  0.00000000E+00  0.00000000E+00
  0.00000000E+00  0.00000000E+00  0.00000000E+00
  0.00000000E+00  0.00000000E+00  0.00000000E+00
  0.00000000E+00  0.00000000E+00  0.00000000E+00
  0.00000000E+00  0.00000000E+00  0.00000000E+00
  0.00000000E+00  0.00000000E+00  0.00000000E+00
  0.00000000E+00  0.00000000E+00  0.00000000E+00
  0.00000000E+00  0.00000000E+00  0.00000000E+00
  0.00000000E+00  0.00000000E+00  0.00000000E+00
  0.00000000E+00  0.00000000E+00  0.00000000E+00
  0.00000000E+00  0.00000000E+00  0.00000000E+00
  0.00000000E+00  0.00000000E+00  0.00000000E+00
  0.00000000E+00  0.00000000E+00  0.00000000E+00
  0.00000000E+00  0.00000000E+00  0.00000000E+00
  0.00000000E+00  0.00000000E+00  0.00000000E+00
  0.00000000E+00  0.00000000E+00  0.00000000E+00
  0.00000000E+00  0.00000000E+00  0.00000000E+00
  0.00000000E+00  0.00000000E+00  0.00000000E+00
  0.00000000E+00  0.00000000E+00  0.00000000E+00
  0.00000000E+00  0.00000000E+00  0.00000000E+00
  0.00000000E+00  0.00000000E+00  0.00000000E+00
  0.00000000E+00  0.00000000E+00  0.00000000E+00
  0.00000000E+00  0.00000000E+00  0.00000000E+00
  0.00000000E+00  0.00000000E+00  0.00000000E+00
  0.00000000E+00  0.00000000E+00  0.00000000E+00
  0.00000000E+00  0.00000000E+00  0.00000000E+00
  0.00000000E+00  0.00000000E+00  0.00000000E+00
  0.00000000E+00  0.00000000E+00  0.00000000E+00
  0.00000000E+00  0.00000000E+00  0.00000000E+00
  0.00000000E+00  0.00000000E+00  0.00000000E+00
  0.00000000E+00  0.00000000E+00  0.00000000E+00
  0.00000000E+00  0.00000000E+00  0.00000000E+00
  0.00000000E+00  0.00000000E+00  0.00000000E+00
  0.00000000E+00  0.00000000E+00  0.00000000E+00
  0.00000000E+00  0.00000000E+00  0.00000000E+00
  0.00000000E+00  0.00000000E+00  0.00000000E+00
  0.00000000E+00  0.00000000E+00  0.00000000E+00
  0.00000000E+00  0.00000000E+00  0.00000000E+00
  0.00000000E+00  0.00000000E+00  0.00000000E+00
  0.00000000E+00  0.00000000E+00  0.00000000E+00
  0.00000000E+00  0.00000000E+00  0.00000000E+00
  0.00000000E+00  0.00000000E+00  0.00000000E+00
  0.00000000E+00  0.00000000E+00  0.00000000E+00
  0.00000000E+00  0.00000000E+00  0.00000000E+00
  0.00000000E+00  0.00000000E+00  0.00000000E+00
  0.00000000E+00  0.00000000E+00  0.00000000E+00
  0.00000000E+00  0.00000000E+00  0.00000000E+00
  0.00000000E+00  0.00000000E+00  0.00000000E+00
  0.00000000E+00  0.00000000E+00  0.00000000E+00
  0.00000000E+00  0.00000000E+00  0.00000000E+00
  0.00000000E+00  0.00000000E+00  0.00000000E+00
  0.00000000E+00  0.00000000E+00  0.00000000E+00
  0.00000000E+00  0.00000000E+00  0.00000000E+00
  0.00000000E+00  0.00000000E+00  0.00000000E+00
  0.00000000E+00  0.00000000E+00  0.00000000E+00
  0.00000000E+00  0.00000000E+00  0.00000000E+00
  0.00000000E+00  0.00000000E+00  0.00000000E+00
  0.00000000E+00  0.00000000E+00  0.00000000E+00
  0.00000000E+00  0.00000000E+00  0.00000000E+00
  0.00000000E+00  0.00000000E+00  0.00000000E+00
  0.00000000E+00  0.00000000E+00  0.00000000E+00
  0.00000000E+00  0.00000000E+00  0.00000000E+00
  0.00000000E+00  0.00000000E+00  0.00000000E+00
  0.00000000E+00  0.00000000E+00  0.00000000E+00
  0.00000000E+00  0.00000000E+00  0.00000000E+00
  0.00000000E+00  0.00000000E+00  0.00000000E+00
  0.00000000E+00  0.00000000E+00  0.00000000E+00
  0.00000000E+00  0.00000000E+00  0.00000000E+00
  0.00000000E+00  0.00000000E+00  0.00000000E+00
  0.00000000E+00  0.00000000E+00  0.00000000E+00
  0.00000000E+00  0.00000000E+00  0.00000000E+00
  0.00000000E+00  0.00000000E+00  0.00000000E+00
  0.00000000E+00  0.00000000E+00  0.00000000E+00
  0.00000000E+00  0.00000000E+00  0.00000000E+00
  0.00000000E+00  0.00000000E+00  0.00000000E+00
  0.00000000E+00  0.00000000E+00  0.00000000E+00
  0.00000000E+00  0.00000000E+00  0.00000000E+00
  0.00000000E+00  0.00000000E+00  0.00000000E+00
  0.00000000E+00  0.00000000E+00  0.00000000E+00
  0.00000000E+00  0.00000000E+00  0.00000000E+00
  0.00000000E+00  0.00000000E+00  0.00000000E+00
  0.00000000E+00  0.00000000E+00  0.00000000E+00
  0.00000000E+00  0.00000000E+00  0.00000000E+00
  0.00000000E+00  0.00000000E+00  0.00000000E+00
  0.00000000E+00  0.00000000E+00  0.00000000E+00
  0.00000000E+00  0.00000000E+00  0.00000000E+00
  0.00000000E+00  0.00000000E+00  0.00000000E+00
  0.00000000E+00  0.00000000E+00  0.00000000E+00
  0.00000000E+00  0.00000000E+00  0.00000000E+00
  0.00000000E+00  0.00000000E+00  0.00000000E+00
  0.00000000E+00  0.00000000E+00  0.00000000E+00
  0.00000000E+00  0.00000000E+00  0.00000000E+00
  0.00000000E+00  0.00000000E+00  0.00000000E+00
  0.00000000E+00  0.00000000E+00  0.00000000E+00
  0.00000000E+00  0.00000000E+00  0.00000000E+00
  0.00000000E+00  0.00000000E+00  0.00000000E+00
  0.00000000E+00  0.00000000E+00  0.00000000E+00
  0.00000000E+00  0.00000000E+00  0.00000000E+00
  0.00000000E+00  0.00000000E+00  0.00000000E+00
  0.00000000E+00  0.00000000E+00  0.00000000E+00
  0.00000000E+00  0.00000000E+00  0.00000000E+00
  0.00000000E+00  0.00000000E+00  0.00000000E+00
  0.00000000E+00  0.00000000E+00  0.00000000E+00
  0.00000000E+00  0.00000000E+00  0.00000000E+00
  0.00000000E+00  0.00000000E+00  0.00000000E+00
  0.00000000E+00  0.00000000E+00  0.00000000E+00
  0.00000000E+00  0.00000000E+00  0.00000000E+00
  0.00000000E+00  0.00000000E+00  0.00000000E+00
  0.00000000E+00  0.00000000E+00  0.00000000E+00
  0.00000000E+00  0.00000000E+00  0.00000000E+00
  0.00000000E+00  0.00000000E+00  0.00000000E+00
  0.00000000E+00  0.00000000E+00  0.00000000E+00
  0.00000000E+00  0.00000000E+00  0.00000000E+00
  0.00000000E+00  0.00000000E+00  0.00000000E+00
  0.00000000E+00  0.00000000E+00  0.00000000E+00
  0.00000000E+00  0.00000000E+00  0.00000000E+00
  0.00000000E+00  0.00000000E+00  0.00000000E+00
  0.00000000E+00  0.00000000E+00  0.00000000E+00
  0.00000000E+00  0.00000000E+00  0.00000000E+00
  0.00000000E+00  0.00000000E+00  0.00000000E+00
  0.00000000E+00  0.00000000E+00  0.00000000E+00
  0.00000000E+00  0.00000000E+00  0.00000000E+00
  0.00000000E+00  0.00000000E+00  0.00000000E+00
  0.00000000E+00  0.00000000E+00  0.00000000E+00
  0.00000000E+00  0.00000000E+00  0.00000000E+00
  0.00000000E+00  0.00000000E+00  0.00000000E+00
  0.00000000E+00  0.00000000E+00  0.00000000E+00
  0.00000000E+00  0.00000000E+00  0.00000000E+00
  0.00000000E+00  0.00000000E+00  0.00000000E+00
  0.00000000E+00  0.00000000E+00  0.00000000E+00
  0.00000000E+00  0.00000000E+00  0.00000000E+00
  0.00000000E+00  0.00000000E+00  0.00000000E+00
  0.00000000E+00  0.00000000E+00  0.00000000E+00
  0.00000000E+00  0.00000000E+00  0.00000000E+00
  0.00000000E+00  0.00000000E+00  0.00000000E+00
  0.00000000E+00  0.00000000E+00  0.00000000E+00
  0.00000000E+00  0.00000000E+00  0.00000000E+00
  0.00000000E+00  0.00000000E+00  0.00000000E+00
  0.00000000E+00  0.00000000E+00  0.00000000E+00
  0.00000000E+00  0.00000000E+00  0.00000000E+00
  0.00000000E+00  0.00000000E+00  0.00000000E+00
  0.00000000E+00  0.00000000E+00  0.00000000E+00
  0.00000000E+00  0.00000000E+00  0.00000000E+00
  0.00000000E+00  0.00000000E+00  0.00000000E+00
  0.00000000E+00  0.00000000E+00  0.00000000E+00
  0.00000000E+00  0.00000000E+00  0.00000000E+00
  0.00000000E+00  0.00000000E+00  0.00000000E+00
  0.00000000E+00  0.00000000E+00  0.00000000E+00
  0.00000000E+00  0.00000000E+00  0.00000000E+00
  0.00000000E+00  0.00000000E+00  0.00000000E+00
  0.00000000E+00  0.00000000E+00  0.00000000E+00
  0.00000000E+00  0.00000000E+00  0.00000000E+00
  0.00000000E+00  0.00000000E+00  0.00000000E+00
  0.00000000E+00  0.00000000E+00  0.00000000E+00
  0.00000000E+00  0.00000000E+00  0.00000000E+00
  0.00000000E+00  0.00000000E+00  0.00000000E+00
  0.00000000E+00  0.00000000E+00  0.00000000E+00
  0.00000000E+00  0.00000000E+00  0.00000000E+00
  0.00000000E+00  0.00000000E+00  0.00000000E+00
  0.00000000E+00  0.00000000E+00  0.00000000E+00
  0.00000000E+00  0.00000000E+00  0.00000000E+00
  0.00000000E+00  0.00000000E+00  0.00000000E+00
  0.00000000E+00  0.00000000E+00  0.00000000E+00
  0.00000000E+00  0.00000000E+00  0.00000000E+00
  0.00000000E+00  0.00000000E+00  0.00000000E+00
  0.00000000E+00  0.00000000E+00  0.00000000E+00
  0.00000000E+00  0.00000000E+00  0.00000000E+00
  0.00000000E+00  0.00000000E+00  0.00000000E+00
  0.00000000E+00  0.00000000E+00  0.00000000E+00
  0.00000000E+00  0.00000000E+00  0.00000000E+00
  0.00000000E+00  0.00000000E+00  0.00000000E+00
  0.00000000E+00  0.00000000E+00  0.00000000E+00
  0.00000000E+00  0.00000000E+00  0.00000000E+00
  0.00000000E+00  0.00000000E+00  0.00000000E+00
  0.00000000E+00  0.00000000E+00  0.00000000E+00
  0.00000000E+00  0.00000000E+00  0.00000000E+00
  0.00000000E+00  0.00000000E+00  0.00000000E+00
  0.00000000E+00  0.00000000E+00  0.00000000E+00
  0.00000000E+00  0.00000000E+00  0.00000000E+00
  0.00000000E+00  0.00000000E+00  0.00000000E+00
  0.00000000E+00  0.00000000E+00  0.00000000E+00
  0.00000000E+00  0.00000000E+00  0.00000000E+00
  0.00000000E+00  0.00000000E+00  0.00000000E+00
  0.00000000E+00  0.00000000E+00  0.00000000E+00
  0.00000000E+00  0.00000000E+00  0.00000000E+00
  0.00000000E+00  0.00000000E+00  0.00000000E+00
  0.00000000E+00  0.00000000E+00  0.00000000E+00
  0.00000000E+00  0.00000000E+00  0.00000000E+00
  0.00000000E+00  0.00000000E+00  0.00000000E+00
  0.00000000E+00  0.00000000E+00  0.00000000E+00
  0.00000000E+00  0.00000000E+00  0.00000000E+00
  0.00000000E+00  0.00000000E+00  0.00000000E+00
  0.00000000E+00  0.00000000E+00  0.00000000E+00
  0.00000000E+00  0.00000000E+00  0.00000000E+00
  0.00000000E+00  0.00000000E+00  0.00000000E+00
  0.00000000E+00  0.00000000E+00  0.00000000E+00
  0.00000000E+00  0.00000000E+00  0.00000000E+00
  0.00000000E+00  0.00000000E+00  0.00000000E+00
  0.00000000E+00  0.00000000E+00  0.00000000E+00
  0.00000000E+00  0.00000000E+00  0.00000000E+00
  0.00000000E+00  0.00000000E+00  0.00000000E+00
  0.00000000E+00  0.00000000E+00  0.00000000E+00
  0.00000000E+00  0.00000000E+00  0.00000000E+00
  0.00000000E+00  0.00000000E+00  0.00000000E+00
  0.00000000E+00  0.00000000E+00  0.00000000E+00
  0.00000000E+00  0.00000000E+00  0.00000000E+00
  0.00000000E+00  0.00000000E+00  0.00000000E+00
  0.00000000E+00  0.00000000E+00  0.00000000E+00
  0.00000000E+00  0.00000000E+00  0.00000000E+00
  0.00000000E+00  0.00000000E+00  0.00000000E+00
  0.00000000E+00  0.00000000E+00  0.00000000E+00
  0.00000000E+00  0.00000000E+00  0.00000000E+00
  0.00000000E+00  0.00000000E+00  0.00000000E+00