CuInSe2gb                               
   1.00000000000000     
     9.7266780392896699    0.0000000000000000    0.0000000000000000
     0.0000000000000000    8.4235502764570693    0.0000000000000000
     0.0000000000000000    0.0000000000000000   45.0000000000000000
   Fe   Mn
   274    14
Direct
  0.0610725841100883  0.0330730205919739  0.1246943101501565
  0.3142085077286995  0.8746720090314719  0.6548066272216764
  0.1868521942705997  0.1233224747121529  0.7884878183862031
  0.4402017254849634  0.2879743133031842  0.3892990255103109
  0.3156792610866311  0.7105741296721872  0.8334939364078782
  0.8152327338261888  0.2122789181793394  0.8335853133454413
  0.1904883507655708  0.9610333109033067  0.8335824883584529
  0.5615974651779542  0.2064886488560625  0.5657681807234275
  0.0638993458317626  0.0406521059074997  0.7440912982595490
  0.8112384349073394  0.8720212749389932  0.5217102063186719
  0.1892475934838883  0.2908642509326075  0.7441168991871040
  0.9362511490287602  0.4539176339540245  0.3447183372939778
  0.9396578272117674  0.2878162603171328  0.3891604079209124
  0.8123524475081166  0.0423539521331609  0.8753470476129471
  0.1854034501711906  0.7887837644243951  0.6105309786250458
  0.0653514491449578  0.0424777618289872  0.8754309365076547
  0.9405480339893459  0.9615110889325583  0.8336492931737211
  0.3142795548901218  0.5426738521287995  0.8755144873531121
  0.6889007945367700  0.2906750362371076  0.7440719203864498
  0.1840089758807878  0.6160465555959890  0.1666497773076213
  0.8121086241584138  0.2053114846276456  0.4783453651139954
  0.8103231054157208  0.5387496842112812  0.6105911233149767
  0.3127202745370139  0.8711075668108405  0.4341977317608616
  0.8113273566826067  0.0378889815467476  0.2560399684346809
  0.6864284720985069  0.9535702186932116  0.3446829603738083
  0.9329671876591878  0.1160347875167469  0.1668769356206103
  0.0623382340831136  0.8722143937705862  0.5216151479311242
  0.5611454632509729  0.5382847522307008  0.2560388160979513
  0.6861709444978020  0.7936486698846273  0.8755097512486570
  0.5579698318241144  0.3670230196774026  0.1664928383523737
  0.4391903366841841  0.7909697996732807  0.7441667269546633
  0.8116030901722139  0.7061924107032306  0.5657733923288131
  0.5610065812808731  0.8730064790751190  0.7885602824640676
  0.6863855107873400  0.1221038656431238  0.5216477161804784
  0.8142506243423852  0.3742393971133561  0.6548987534127662
  0.9406923794660705  0.4616091227249107  0.8336341344823655
  0.0614273188278249  0.2076615534905612  0.6995612037024480
  0.4365997848779711  0.9575424682962004  0.6996061407604810
  0.3156626664724607  0.2107504377603223  0.8336539563001671
  0.4394123600627324  0.6241436104058429  0.6548014430728399
  0.3105386907606647  0.5388437121601801  0.6104784528775649
  0.9367864696471021  0.4558321779604023  0.5658252905654793
  0.6888020747446950  0.7910306548382059  0.7441165028155444
  0.9337455433321691  0.7844348519913494  0.1248946024385632
  0.6901744353048248  0.7880282043495915  0.3891874646678828
  0.9392296523754540  0.7907919262601705  0.7441783564502653
  0.0614947172839534  0.2041008900731811  0.3447394844354931
  0.6868088662578949  0.4537437733700287  0.3446804806649636
  0.4360989494227545  0.1234204676595748  0.7887897148567286
  0.0634573519357771  0.2042953859015006  0.2117611841727812
  0.0570558869165080  0.3665228596711771  0.1666585865211599
  0.9357882197638158  0.7882706231733267  0.2559047726659803
  0.5616753666080270  0.2074560444496054  0.6995731307452150
  0.6864408261448997  0.9576099000484273  0.6995896857903730
  0.8107837345902636  0.8737896345108545  0.7884680698710348
  0.4367903225435369  0.9564534764618743  0.5657368921357743
  0.8109143105877713  0.3739316127474376  0.7884302727635994
  0.6862347954883412  0.2881953522063695  0.2560724031562388
  0.1868384534327267  0.4561071480034547  0.5657660759674371
  0.0579712843020230  0.8665699415234053  0.1666407501323553
  0.1857202327399121  0.2890357609072016  0.6106126793216136
  0.0619371656610300  0.2064946626759465  0.5657463431595158
  0.3118360828743538  0.2075971767357654  0.6996421830738093
  0.5634196502515545  0.5427689274463153  0.8754998236028410
  0.0617028747087668  0.7060223423319375  0.5657534083555397
  0.6854379670397193  0.6235603129267583  0.7884327269404148
  0.3144313666817072  0.5378629124838773  0.3892227884278082
  0.1869545776537190  0.6223111911094852  0.5216766939040999
  0.5627118150560459  0.8711426075958700  0.4342029702269814
  0.4367374260774722  0.4562576194048046  0.5658065345747436
  0.4392878653417990  0.2910183842832823  0.7441697867308766
  0.8164211960321077  0.8731279431853755  0.3000835853802230
  0.8115037207639968  0.7033945152660174  0.3447770268271888
  0.4403162724690081  0.4606632445646873  0.8336020815993235
  0.6875724665172347  0.9549532304849211  0.4783549114588288
  0.6864437408962835  0.4572340501322883  0.6996110575325295
  0.5617924394344298  0.8723167625975542  0.5216713712246084
  0.5646509830268540  0.3739243843432236  0.6547763655524915
  0.8142781528084027  0.8742673243909330  0.6549049764378764
  0.8121349566318030  0.3707576109412375  0.4340365525417358
  0.8110331228221569  0.5379049415543061  0.2560756155198106
  0.6899236834463716  0.4612852335399770  0.8335107776068441
  0.1852773879004595  0.7843803659637739  0.1244437401579709
  0.6898694603677868  0.2874315118448608  0.3891155392253497
  0.3141316238658712  0.3740523776645434  0.6548146921321244
  0.3115280193305749  0.2036514472161675  0.3448146678425318
  0.8142010010740287  0.5406157073637538  0.7440218867900017
  0.6900132563099204  0.9613112967557335  0.8335481333487154
  0.5644441155846894  0.8744105460914510  0.6549086355931998
  0.3117806289238021  0.7064375906663406  0.5657388214309251
  0.3112299555252890  0.5343678015469036  0.1245193939200322
  0.6886895137743747  0.9542442085100670  0.2119024637203505
  0.3117509974825341  0.2064843976526493  0.5657635493693137
  0.1872246718500688  0.9552140308570892  0.4783664854195792
  0.6870688436604595  0.9563773749492852  0.5657880562569393
  0.4355035883095676  0.7888643330700851  0.6104707621283043
  0.6825583102939951  0.6149290244597910  0.1666813399357767
  0.3161586068009206  0.8727922825135878  0.3000734345065039
  0.3121090931878972  0.7051504651207879  0.4782639823993877
  0.9353173449869735  0.2888445218696553  0.6105455602137695
  0.4415606707256738  0.6230571760789113  0.3003046063428840
  0.8077791700326185  0.8656359535572544  0.1669111330501398
  0.5645438412539988  0.2035013791190054  0.2119724088204597
  0.9342982482001360  0.6153575830333688  0.1668780073400153
  0.4373029039460260  0.9548198674903335  0.4783259799757194
  0.5611261651602967  0.3731967283212574  0.7885923586141860
  0.0616255315845449  0.3726829604398278  0.5215841682463458
  0.3081843179191374  0.3662671525081312  0.1666094461660687
  0.6916950574619014  0.1227983595350156  0.3002704421706699
  0.4405228997593243  0.9608791883093463  0.8335921363772206
  0.1849056723358721  0.2845324173907648  0.1248436517927405
  0.1859674753870367  0.2877910275712181  0.2560943657105246
  0.3124253628888189  0.3707223864022458  0.4342077334359410
  0.5611755144998026  0.0335999450823713  0.1247326812586524
  0.4353975430633414  0.2890951774014086  0.6105060379136923
  0.1861766609264176  0.4537265621236232  0.3447813006024821
  0.4340740417195466  0.2845394284830185  0.1247667448971864
  0.6861749236810973  0.7882145403628678  0.2560388522955886
  0.4368321135365273  0.1226832347522109  0.5216177450921483
  0.1896265115224873  0.2936552895396353  0.8757293811884534
  0.1892043104736682  0.1243871089513002  0.6549094655567791
  0.9393120606186521  0.1240853981572626  0.6549246071976187
  0.8150435193779081  0.5377202441001201  0.3891671894039168
  0.0646067395363123  0.0379579079764652  0.3891599115224154
  0.1834401933729827  0.1152763804075173  0.1667955931300619
  0.0603843726932725  0.5387392994339050  0.6105448210664988
  0.9360675895360607  0.2881198602871661  0.2560503094357307
  0.5604329214425641  0.5388592853636892  0.6104516934821033
  0.9367932070728223  0.9560029684616591  0.5657860410093286
  0.6914902730943300  0.6237031091415063  0.3002900004262891
  0.9375189209027742  0.6206050116343400  0.4341214941841156
  0.9360333059374077  0.6245571247913460  0.7883635703957960
  0.5612753884426129  0.7071623316124159  0.6996669614650269
  0.0650686106073645  0.7122101078198324  0.8336620728962161
  0.9414666332598856  0.1231030941706841  0.3001825443135582
  0.9352707005382415  0.7883927184667028  0.6106375890868468
  0.4363864754374829  0.7884255798499179  0.2561281735035874
  0.3116679939463887  0.3726219412549220  0.7886032047855098
  0.4391554404564689  0.4544766715780356  0.2119012231558313
  0.1869079039093145  0.1222509163231378  0.5216374173004994
  0.8114099806802558  0.7075417698338371  0.6995825276680236
  0.0603167316710622  0.0390142848247503  0.6105266423915536
  0.5643335965895170  0.2111195204746492  0.8334709771904919
  0.3117799207877179  0.8721995240682585  0.5217172211391912
  0.6856867605175820  0.2843971640935227  0.1245712737892250
  0.1882453207918310  0.9552206507744886  0.2119798853559454
  0.6851703982324044  0.2892024261298502  0.6106488544492236
  0.3104622194893563  0.0390352789795581  0.6105873337419550
  0.9361097685225754  0.1245869860846507  0.7884163235519622
  0.4380375785379242  0.7932691697377713  0.8755530113797759
  0.8140643551041604  0.0408606861926668  0.7440226998899928
  0.9365160091618984  0.4572442608252991  0.6995514007222859
  0.1891952549207085  0.6242604371788562  0.6548326644667934
  0.3117450337999375  0.7073201354124269  0.6995806873279874
  0.9340884831264527  0.2841733019869920  0.1246833924193932
  0.4371510096855554  0.4546897564259213  0.4782419005038789
  0.0624341094986433  0.7044997241216945  0.4782823914144575
  0.9372958464969556  0.1211546078913955  0.4344385815078390
  0.4416934181662803  0.1225210509898321  0.3002428279253385
  0.1873721152875812  0.1208972381664921  0.4340022097544388
  0.5634199279593922  0.0434737767416661  0.8754814512230011
  0.1865529492750155  0.9565798080383068  0.5657850363845063
  0.6848546145871852  0.7844772832097349  0.1249496664385028
  0.5616865819349487  0.7039023570158874  0.3448480127163331
  0.3150039628646509  0.0377932740847752  0.3892231698460149
  0.6842423134992101  0.1156051790489970  0.1669576241249221
  0.8143065203253024  0.2038409781499622  0.2118902211478619
  0.0608961350800544  0.5383222826368816  0.2559237546346190
  0.5623551308737278  0.7051540568707001  0.4783281316881611
  0.4347828172750268  0.7840627256016217  0.1244933304091800
  0.5661906961386637  0.3734140133438720  0.3001354403047113
  0.4361653180880731  0.9536575090798498  0.3446734017516683
  0.1865197482292157  0.9577061161228932  0.6996447392030573
  0.4339200822503724  0.6156084629594065  0.1665871072712300
  0.9389830062976289  0.4550186218049460  0.2120457627353824
  0.0606113851111081  0.5334884797623325  0.1246146396487164
  0.8118010966210826  0.3726687765818882  0.5216028749661328
  0.9416322799886073  0.6233851640101499  0.3001167258443341
  0.3112479181746423  0.0381109693845867  0.2559233418842332
  0.6853932163409058  0.7886001287910638  0.6105839206778167
  0.1907166039324998  0.4609723701018590  0.8336219926756988
  0.4341919813238937  0.1150067477198196  0.1668940347730005
  0.3115526321265459  0.3723867364538985  0.5216603603928299
  0.4364026976203983  0.6234752806876001  0.7887258818147118
  0.0605395523965564  0.0381828660280751  0.2560145562381858
  0.5616105758172301  0.7062528561579031  0.5657609779004634
  0.9392022772663783  0.2904385348584921  0.7440694964603224
  0.6851784552413857  0.1237841513856635  0.7884956297403430
  0.1877615098249821  0.4546575104874621  0.2117470598602514
  0.9393604816741095  0.7872099597758480  0.3891096478904819
  0.6862196289691422  0.2940506429692550  0.8756031589952673
  0.5572890905240445  0.8658106340342439  0.1667501229949535
  0.4366670465883826  0.4572527868850436  0.6996351395061002
  0.9367805869408860  0.9532779260671919  0.3447438313598202
  0.6865114957487247  0.6222066324541918  0.5216084709454103
  0.0642000526945170  0.8743359477673632  0.6548648384352436
  0.0618070448130470  0.8736966566809840  0.7884921221825099
  0.0641183759721161  0.3740280184771042  0.6548922518414279
  0.6872158378354194  0.4547235928416294  0.4781479703352539
  0.1858752142777630  0.7886012318091570  0.2561017567635031
  0.4372304419401752  0.1210529953614539  0.4342589324859564
  0.8112916322464319  0.0335820711182818  0.1248100117523509
  0.9365822809356382  0.6221439718997138  0.5216026572626898
  0.4394613217353825  0.1243312759058989  0.6548555104318710
  0.8113334128027422  0.5338133618214641  0.1243910593262829
  0.4365637608022290  0.4539475972907878  0.3447707322851039
  0.8113659058856267  0.2035164381656168  0.3447680713402393
  0.3115824327480700  0.7035894746742251  0.3446968155046532
  0.6893303269181185  0.1242344257517477  0.6549371173643787
  0.5666153569239264  0.8730018473356549  0.3002662520996344
  0.0639554550502114  0.5405650554069849  0.7440262353988846
  0.9392045557931638  0.9545587308995039  0.2118520130230250
  0.8145073436541078  0.7040043143931660  0.2119094255502752
  0.0661060856924493  0.8730058373509915  0.3003429339610737
  0.1912750782814304  0.1232734337292871  0.3001790771181754
  0.0612844825254937  0.7036531217998978  0.3447276846031421
  0.8105550623038684  0.0389574076224834  0.6105754887729647
  0.0627053448753281  0.3707832777148117  0.4340680553576060
  0.5617755173172798  0.2034977269730623  0.3447844893698954
  0.8165039053051333  0.3734830704984530  0.3002098098596138
  0.5616819086234872  0.0383992661402129  0.2560616469363488
  0.5647496856542235  0.5374866117029556  0.3892073119773715
  0.0625709430207418  0.2050438704727757  0.4782987882156093
  0.3116810740620873  0.8728993328870653  0.7885323306714886
  0.9364387645565903  0.9578219255664235  0.6995313966048810
  0.0665944026311164  0.3734140503291346  0.3002715083081718
  0.6894050631620937  0.6241515413390505  0.6548452308482718
  0.6865396567260266  0.4562064190607558  0.5657609578238925
  0.4390094808488192  0.9551365927773932  0.2120450893359566
  0.3120896249030506  0.2048546772607124  0.4783342895825408
  0.8124771607904656  0.5421442138305477  0.8753962332591124
  0.6881673504688437  0.6204832457320991  0.4341150742006593
  0.8115784727057545  0.2076084074888462  0.6995572176167655
  0.8123245674996773  0.7049536944153006  0.4782622025035306
  0.8116422371589298  0.8710110458914025  0.4340995183486083
  0.9373112555025165  0.9547004257648091  0.4783526828316884
  0.5623761525984847  0.2047948514047185  0.4783393092954984
  0.1870451708972858  0.6204503866823999  0.4342142974300666
  0.3141604763751031  0.0408698218967862  0.7442404278804128
  0.9392096964305754  0.6242784048418580  0.6547967430643670
  0.5646758376275848  0.7107697584446397  0.8334371303543763
  0.3163294734860667  0.3728556899510175  0.3002951991740820
  0.5643092228308716  0.7041788291976332  0.2118037657847116
  0.1875336737704770  0.4547910878959401  0.4782577499201948
  0.3141817219733687  0.0436691408551852  0.8754647559548248
  0.1863493959607170  0.4573333137402809  0.6995634559170505
  0.5619713508030209  0.3724623641903043  0.5216605632099770
  0.1894010133872265  0.2879431653106365  0.3892591296856230
  0.3140367419871287  0.2045202853582174  0.2117576387875581
  0.0642774858959532  0.7039861171333391  0.2116526390326025
  0.5624964351009047  0.3705988578672744  0.4341697072280993
  0.4367943692222960  0.6223929564350031  0.5215479260217607
  0.8151548069026542  0.7120266961094462  0.8335320981758809
  0.0620687903019565  0.3736874712189070  0.7884880521538493
  0.4378421586503442  0.2933966493581746  0.8757427299392628
  0.3112217976803082  0.0335495374227637  0.1243882773725629
  0.6877312098732722  0.1212269262863281  0.4341479197061910
  0.1861286553126815  0.9534958250582710  0.3448080713327752
  0.0653152166741960  0.2124448168945429  0.8336266887229815
  0.5604705693910725  0.0390530131347951  0.6105863234500645
  0.6884270758413570  0.4548494379942696  0.2120408572639532
  0.1891441938929156  0.7907674028772014  0.7441579114866587
  0.1913403111718915  0.6229080920598744  0.3002215344770205
  0.4403230132758953  0.7874314989213926  0.3891626238586962
  0.4361729071701640  0.2882143963287449  0.2559797427411347
  0.0655357127990078  0.5420396142581362  0.8754372735121753
  0.5644067682766694  0.0408526229103759  0.7441573672238107
  0.1892920422566252  0.7935948526817036  0.8756157321210555
  0.9373132366539150  0.4544156977059540  0.4782224138076215
  0.5643584517001352  0.5407944066936751  0.7441409261303897
  0.8114697727658134  0.2065381788771990  0.5657909661598763
  0.1867050743003274  0.6232740288404325  0.7884825491870299
  0.0654118407641913  0.5383407764991691  0.3893079624903912
  0.0617174726192964  0.7073480450484666  0.6995941291902067
  0.3104551068742236  0.5378322296250353  0.2560079015810108
  0.3142612602605406  0.7036289294562212  0.2121662395477137
  0.3071785024155395  0.8659908772888659  0.1661766231318455
  0.4367960525982613  0.6203725295322431  0.4340823456519767
  0.8167680421516992  0.0380470827469659  0.3892486148333738
  0.9376330755024076  0.2936374242050113  0.8753586014214366
  0.9379279069713414  0.7931153126354024  0.8752996612390639
  0.5645056103729202  0.0381522427324081  0.3891081671414692
  0.5620484571370884  0.5331944106454043  0.1247211146067383
  0.8070756721229181  0.3668397432746608  0.1662468012115957
  0.0621924759738197  0.8710809154248279  0.4341064240094406
  0.9368293114608449  0.1225604228919489  0.5215350613754531
  0.1907465422398845  0.7868376440706760  0.3890556597021142
  0.3146592395888850  0.5407558955385253  0.7442195621212457
 
  0.00000000E+00  0.00000000E+00  0.00000000E+00
  0.00000000E+00  0.00000000E+00  0.00000000E+00
  0.00000000E+00  0.00000000E+00  0.00000000E+00
  0.00000000E+00  0.00000000E+00  0.00000000E+00
  0.00000000E+00  0.00000000E+00  0.00000000E+00
  0.00000000E+00  0.00000000E+00  0.00000000E+00
  0.00000000E+00  0.00000000E+00  0.00000000E+00
  0.00000000E+00  0.00000000E+00  0.00000000E+00
  0.00000000E+00  0.00000000E+00  0.00000000E+00
  0.00000000E+00  0.00000000E+00  0.00000000E+00
  0.00000000E+00  0.00000000E+00  0.00000000E+00
  0.00000000E+00  0.00000000E+00  0.00000000E+00
  0.00000000E+00  0.00000000E+00  0.00000000E+00
  0.00000000E+00  0.00000000E+00  0.00000000E+00
  0.00000000E+00  0.00000000E+00  0.00000000E+00
  0.00000000E+00  0.00000000E+00  0.00000000E+00
  0.00000000E+00  0.00000000E+00  0.00000000E+00
  0.00000000E+00  0.00000000E+00  0.00000000E+00
  0.00000000E+00  0.00000000E+00  0.00000000E+00
  0.00000000E+00  0.00000000E+00  0.00000000E+00
  0.00000000E+00  0.00000000E+00  0.00000000E+00
  0.00000000E+00  0.00000000E+00  0.00000000E+00
  0.00000000E+00  0.00000000E+00  0.00000000E+00
  0.00000000E+00  0.00000000E+00  0.00000000E+00
  0.00000000E+00  0.00000000E+00  0.00000000E+00
  0.00000000E+00  0.00000000E+00  0.00000000E+00
  0.00000000E+00  0.00000000E+00  0.00000000E+00
  0.00000000E+00  0.00000000E+00  0.00000000E+00
  0.00000000E+00  0.00000000E+00  0.00000000E+00
  0.00000000E+00  0.00000000E+00  0.00000000E+00
  0.00000000E+00  0.00000000E+00  0.00000000E+00
  0.00000000E+00  0.00000000E+00  0.00000000E+00
  0.00000000E+00  0.00000000E+00  0.00000000E+00
  0.00000000E+00  0.00000000E+00  0.00000000E+00
  0.00000000E+00  0.00000000E+00  0.00000000E+00
  0.00000000E+00  0.00000000E+00  0.00000000E+00
  0.00000000E+00  0.00000000E+00  0.00000000E+00
  0.00000000E+00  0.00000000E+00  0.00000000E+00
  0.00000000E+00  0.00000000E+00  0.00000000E+00
  0.00000000E+00  0.00000000E+00  0.00000000E+00
  0.00000000E+00  0.00000000E+00  0.00000000E+00
  0.00000000E+00  0.00000000E+00  0.00000000E+00
  0.00000000E+00  0.00000000E+00  0.00000000E+00
  0.00000000E+00  0.00000000E+00  0.00000000E+00
  0.00000000E+00  0.00000000E+00  0.00000000E+00
  0.00000000E+00  0.00000000E+00  0.00000000E+00
  0.00000000E+00  0.00000000E+00  0.00000000E+00
  0.00000000E+00  0.00000000E+00  0.00000000E+00
  0.00000000E+00  0.00000000E+00  0.00000000E+00
  0.00000000E+00  0.00000000E+00  0.00000000E+00
  0.00000000E+00  0.00000000E+00  0.00000000E+00
  0.00000000E+00  0.00000000E+00  0.00000000E+00
  0.00000000E+00  0.00000000E+00  0.00000000E+00
  0.00000000E+00  0.00000000E+00  0.00000000E+00
  0.00000000E+00  0.00000000E+00  0.00000000E+00
  0.00000000E+00  0.00000000E+00  0.00000000E+00
  0.00000000E+00  0.00000000E+00  0.00000000E+00
  0.00000000E+00  0.00000000E+00  0.00000000E+00
  0.00000000E+00  0.00000000E+00  0.00000000E+00
  0.00000000E+00  0.00000000E+00  0.00000000E+00
  0.00000000E+00  0.00000000E+00  0.00000000E+00
  0.00000000E+00  0.00000000E+00  0.00000000E+00
  0.00000000E+00  0.00000000E+00  0.00000000E+00
  0.00000000E+00  0.00000000E+00  0.00000000E+00
  0.00000000E+00  0.00000000E+00  0.00000000E+00
  0.00000000E+00  0.00000000E+00  0.00000000E+00
  0.00000000E+00  0.00000000E+00  0.00000000E+00
  0.00000000E+00  0.00000000E+00  0.00000000E+00
  0.00000000E+00  0.00000000E+00  0.00000000E+00
  0.00000000E+00  0.00000000E+00  0.00000000E+00
  0.00000000E+00  0.00000000E+00  0.00000000E+00
  0.00000000E+00  0.00000000E+00  0.00000000E+00
  0.00000000E+00  0.00000000E+00  0.00000000E+00
  0.00000000E+00  0.00000000E+00  0.00000000E+00
  0.00000000E+00  0.00000000E+00  0.00000000E+00
  0.00000000E+00  0.00000000E+00  0.00000000E+00
  0.00000000E+00  0.00000000E+00  0.00000000E+00
  0.00000000E+00  0.00000000E+00  0.00000000E+00
  0.00000000E+00  0.00000000E+00  0.00000000E+00
  0.00000000E+00  0.00000000E+00  0.00000000E+00
  0.00000000E+00  0.00000000E+00  0.00000000E+00
  0.00000000E+00  0.00000000E+00  0.00000000E+00
  0.00000000E+00  0.00000000E+00  0.00000000E+00
  0.00000000E+00  0.00000000E+00  0.00000000E+00
  0.00000000E+00  0.00000000E+00  0.00000000E+00
  0.00000000E+00  0.00000000E+00  0.00000000E+00
  0.00000000E+00  0.00000000E+00  0.00000000E+00
  0.00000000E+00  0.00000000E+00  0.00000000E+00
  0.00000000E+00  0.00000000E+00  0.00000000E+00
  0.00000000E+00  0.00000000E+00  0.00000000E+00
  0.00000000E+00  0.00000000E+00  0.00000000E+00
  0.00000000E+00  0.00000000E+00  0.00000000E+00
  0.00000000E+00  0.00000000E+00  0.00000000E+00
  0.00000000E+00  0.00000000E+00  0.00000000E+00
  0.00000000E+00  0.00000000E+00  0.00000000E+00
  0.00000000E+00  0.00000000E+00  0.00000000E+00
  0.00000000E+00  0.00000000E+00  0.00000000E+00
  0.00000000E+00  0.00000000E+00  0.00000000E+00
  0.00000000E+00  0.00000000E+00  0.00000000E+00
  0.00000000E+00  0.00000000E+00  0.00000000E+00
  0.00000000E+00  0.00000000E+00  0.00000000E+00
  0.00000000E+00  0.00000000E+00  0.00000000E+00
  0.00000000E+00  0.00000000E+00  0.00000000E+00
  0.00000000E+00  0.00000000E+00  0.00000000E+00
  0.00000000E+00  0.00000000E+00  0.00000000E+00
  0.00000000E+00  0.00000000E+00  0.00000000E+00
  0.00000000E+00  0.00000000E+00  0.00000000E+00
  0.00000000E+00  0.00000000E+00  0.00000000E+00
  0.00000000E+00  0.00000000E+00  0.00000000E+00
  0.00000000E+00  0.00000000E+00  0.00000000E+00
  0.00000000E+00  0.00000000E+00  0.00000000E+00
  0.00000000E+00  0.00000000E+00  0.00000000E+00
  0.00000000E+00  0.00000000E+00  0.00000000E+00
  0.00000000E+00  0.00000000E+00  0.00000000E+00
  0.00000000E+00  0.00000000E+00  0.00000000E+00
  0.00000000E+00  0.00000000E+00  0.00000000E+00
  0.00000000E+00  0.00000000E+00  0.00000000E+00
  0.00000000E+00  0.00000000E+00  0.00000000E+00
  0.00000000E+00  0.00000000E+00  0.00000000E+00
  0.00000000E+00  0.00000000E+00  0.00000000E+00
  0.00000000E+00  0.00000000E+00  0.00000000E+00
  0.00000000E+00  0.00000000E+00  0.00000000E+00
  0.00000000E+00  0.00000000E+00  0.00000000E+00
  0.00000000E+00  0.00000000E+00  0.00000000E+00
  0.00000000E+00  0.00000000E+00  0.00000000E+00
  0.00000000E+00  0.00000000E+00  0.00000000E+00
  0.00000000E+00  0.00000000E+00  0.00000000E+00
  0.00000000E+00  0.00000000E+00  0.00000000E+00
  0.00000000E+00  0.00000000E+00  0.00000000E+00
  0.00000000E+00  0.00000000E+00  0.00000000E+00
  0.00000000E+00  0.00000000E+00  0.00000000E+00
  0.00000000E+00  0.00000000E+00  0.00000000E+00
  0.00000000E+00  0.00000000E+00  0.00000000E+00
  0.00000000E+00  0.00000000E+00  0.00000000E+00
  0.00000000E+00  0.00000000E+00  0.00000000E+00
  0.00000000E+00  0.00000000E+00  0.00000000E+00
  0.00000000E+00  0.00000000E+00  0.00000000E+00
  0.00000000E+00  0.00000000E+00  0.00000000E+00
  0.00000000E+00  0.00000000E+00  0.00000000E+00
  0.00000000E+00  0.00000000E+00  0.00000000E+00
  0.00000000E+00  0.00000000E+00  0.00000000E+00
  0.00000000E+00  0.00000000E+00  0.00000000E+00
  0.00000000E+00  0.00000000E+00  0.00000000E+00
  0.00000000E+00  0.00000000E+00  0.00000000E+00
  0.00000000E+00  0.00000000E+00  0.00000000E+00
  0.00000000E+00  0.00000000E+00  0.00000000E+00
  0.00000000E+00  0.00000000E+00  0.00000000E+00
  0.00000000E+00  0.00000000E+00  0.00000000E+00
  0.00000000E+00  0.00000000E+00  0.00000000E+00
  0.00000000E+00  0.00000000E+00  0.00000000E+00
  0.00000000E+00  0.00000000E+00  0.00000000E+00
  0.00000000E+00  0.00000000E+00  0.00000000E+00
  0.00000000E+00  0.00000000E+00  0.00000000E+00
  0.00000000E+00  0.00000000E+00  0.00000000E+00
  0.00000000E+00  0.00000000E+00  0.00000000E+00
  0.00000000E+00  0.00000000E+00  0.00000000E+00
  0.00000000E+00  0.00000000E+00  0.00000000E+00
  0.00000000E+00  0.00000000E+00  0.00000000E+00
  0.00000000E+00  0.00000000E+00  0.00000000E+00
  0.00000000E+00  0.00000000E+00  0.00000000E+00
  0.00000000E+00  0.00000000E+00  0.00000000E+00
  0.00000000E+00  0.00000000E+00  0.00000000E+00
  0.00000000E+00  0.00000000E+00  0.00000000E+00
  0.00000000E+00  0.00000000E+00  0.00000000E+00
  0.00000000E+00  0.00000000E+00  0.00000000E+00
  0.00000000E+00  0.00000000E+00  0.00000000E+00
  0.00000000E+00  0.00000000E+00  0.00000000E+00
  0.00000000E+00  0.00000000E+00  0.00000000E+00
  0.00000000E+00  0.00000000E+00  0.00000000E+00
  0.00000000E+00  0.00000000E+00  0.00000000E+00
  0.00000000E+00  0.00000000E+00  0.00000000E+00
  0.00000000E+00  0.00000000E+00  0.00000000E+00
  0.00000000E+00  0.00000000E+00  0.00000000E+00
  0.00000000E+00  0.00000000E+00  0.00000000E+00
  0.00000000E+00  0.00000000E+00  0.00000000E+00
  0.00000000E+00  0.00000000E+00  0.00000000E+00
  0.00000000E+00  0.00000000E+00  0.00000000E+00
  0.00000000E+00  0.00000000E+00  0.00000000E+00
  0.00000000E+00  0.00000000E+00  0.00000000E+00
  0.00000000E+00  0.00000000E+00  0.00000000E+00
  0.00000000E+00  0.00000000E+00  0.00000000E+00
  0.00000000E+00  0.00000000E+00  0.00000000E+00
  0.00000000E+00  0.00000000E+00  0.00000000E+00
  0.00000000E+00  0.00000000E+00  0.00000000E+00
  0.00000000E+00  0.00000000E+00  0.00000000E+00
  0.00000000E+00  0.00000000E+00  0.00000000E+00
  0.00000000E+00  0.00000000E+00  0.00000000E+00
  0.00000000E+00  0.00000000E+00  0.00000000E+00
  0.00000000E+00  0.00000000E+00  0.00000000E+00
  0.00000000E+00  0.00000000E+00  0.00000000E+00
  0.00000000E+00  0.00000000E+00  0.00000000E+00
  0.00000000E+00  0.00000000E+00  0.00000000E+00
  0.00000000E+00  0.00000000E+00  0.00000000E+00
  0.00000000E+00  0.00000000E+00  0.00000000E+00
  0.00000000E+00  0.00000000E+00  0.00000000E+00
  0.00000000E+00  0.00000000E+00  0.00000000E+00
  0.00000000E+00  0.00000000E+00  0.00000000E+00
  0.00000000E+00  0.00000000E+00  0.00000000E+00
  0.00000000E+00  0.00000000E+00  0.00000000E+00
  0.00000000E+00  0.00000000E+00  0.00000000E+00
  0.00000000E+00  0.00000000E+00  0.00000000E+00
  0.00000000E+00  0.00000000E+00  0.00000000E+00
  0.00000000E+00  0.00000000E+00  0.00000000E+00
  0.00000000E+00  0.00000000E+00  0.00000000E+00
  0.00000000E+00  0.00000000E+00  0.00000000E+00
  0.00000000E+00  0.00000000E+00  0.00000000E+00
  0.00000000E+00  0.00000000E+00  0.00000000E+00
  0.00000000E+00  0.00000000E+00  0.00000000E+00
  0.00000000E+00  0.00000000E+00  0.00000000E+00
  0.00000000E+00  0.00000000E+00  0.00000000E+00
  0.00000000E+00  0.00000000E+00  0.00000000E+00
  0.00000000E+00  0.00000000E+00  0.00000000E+00
  0.00000000E+00  0.00000000E+00  0.00000000E+00
  0.00000000E+00  0.00000000E+00  0.00000000E+00
  0.00000000E+00  0.00000000E+00  0.00000000E+00
  0.00000000E+00  0.00000000E+00  0.00000000E+00
  0.00000000E+00  0.00000000E+00  0.00000000E+00
  0.00000000E+00  0.00000000E+00  0.00000000E+00
  0.00000000E+00  0.00000000E+00  0.00000000E+00
  0.00000000E+00  0.00000000E+00  0.00000000E+00
  0.00000000E+00  0.00000000E+00  0.00000000E+00
  0.00000000E+00  0.00000000E+00  0.00000000E+00
  0.00000000E+00  0.00000000E+00  0.00000000E+00
  0.00000000E+00  0.00000000E+00  0.00000000E+00
  0.00000000E+00  0.00000000E+00  0.00000000E+00
  0.00000000E+00  0.00000000E+00  0.00000000E+00
  0.00000000E+00  0.00000000E+00  0.00000000E+00
  0.00000000E+00  0.00000000E+00  0.00000000E+00
  0.00000000E+00  0.00000000E+00  0.00000000E+00
  0.00000000E+00  0.00000000E+00  0.00000000E+00
  0.00000000E+00  0.00000000E+00  0.00000000E+00
  0.00000000E+00  0.00000000E+00  0.00000000E+00
  0.00000000E+00  0.00000000E+00  0.00000000E+00
  0.00000000E+00  0.00000000E+00  0.00000000E+00
  0.00000000E+00  0.00000000E+00  0.00000000E+00
  0.00000000E+00  0.00000000E+00  0.00000000E+00
  0.00000000E+00  0.00000000E+00  0.00000000E+00
  0.00000000E+00  0.00000000E+00  0.00000000E+00
  0.00000000E+00  0.00000000E+00  0.00000000E+00
  0.00000000E+00  0.00000000E+00  0.00000000E+00
  0.00000000E+00  0.00000000E+00  0.00000000E+00
  0.00000000E+00  0.00000000E+00  0.00000000E+00
  0.00000000E+00  0.00000000E+00  0.00000000E+00
  0.00000000E+00  0.00000000E+00  0.00000000E+00
  0.00000000E+00  0.00000000E+00  0.00000000E+00
  0.00000000E+00  0.00000000E+00  0.00000000E+00
  0.00000000E+00  0.00000000E+00  0.00000000E+00