CuInSe2gb                               
   1.00000000000000     
     9.7266780392896699    0.0000000000000000    0.0000000000000000
     0.0000000000000000    8.4235502764570693    0.0000000000000000
     0.0000000000000000    0.0000000000000000   45.0000000000000000
   Fe   Mn
   274    14
Direct
  0.0618147468753637  0.0312476609431984  0.1243747743694468
  0.3165815417199328  0.8749433435338074  0.6548646238015577
  0.1847156797451631  0.1219202209916758  0.7883656291238791
  0.4414673265089926  0.2874714394412090  0.3891884365359877
  0.3168404958357346  0.7126893423294228  0.8331375799405772
  0.8172013886276714  0.2149006807346676  0.8332813983646815
  0.1915094271563599  0.9624810816730711  0.8331814997590369
  0.5620775787941799  0.2070132022684221  0.5655067155419675
  0.0654891670011339  0.0398790877667648  0.7439869602988949
  0.8114656198940415  0.8714804528943091  0.5213696246505083
  0.1908087128068056  0.2907425811851591  0.7439469029196747
  0.9335910919662493  0.4524726378855131  0.3448993997590243
  0.9411511837367809  0.2868299428457736  0.3889948365515172
  0.8133066120909899  0.0392806338960132  0.8755183042640330
  0.1836316919252134  0.7881571219059207  0.6108558179352581
  0.0642583658980582  0.0389695220517523  0.8755819665504668
  0.9416207084986573  0.9627714207353523  0.8334668435916502
  0.3135499985027914  0.5393453889325818  0.8756752914281144
  0.6904294551637168  0.2903844829598753  0.7439716359921955
  0.1821783208998490  0.6137979443087056  0.1666762861038134
  0.8121623952524408  0.2056981249020806  0.4787162907120833
  0.8087224084728966  0.5379230249290853  0.6109349697675998
  0.3119976819461510  0.8703503386245018  0.4345197495261082
  0.8092180999044082  0.0382379132065022  0.2561175520082236
  0.6833990108792343  0.9516340496957326  0.3448802449010689
  0.9314456956065856  0.1144094529161247  0.1671809994958287
  0.0616961386023603  0.8713992965090512  0.5213862228331495
  0.5583905900080688  0.5379644526696471  0.2562474628929649
  0.6851375170958852  0.7956267520132255  0.8755275879256847
  0.5560920932227530  0.3655951155341429  0.1667976617661603
  0.4401637859767352  0.7906058744327069  0.7440016280065114
  0.8114074477110442  0.7066291502598079  0.5654748962202484
  0.5598065947890405  0.8723121032897253  0.7883309911973262
  0.6866683345515362  0.1215581622531805  0.5214314639141290
  0.8164290438582525  0.3748280776806428  0.6549096199776776
  0.9415097633318613  0.4627465532514683  0.8334953138589355
  0.0603224548693858  0.2079357642175463  0.6995666228650477
  0.4350791286688485  0.9580734668916596  0.6995789673655639
  0.3171798600626159  0.2121993992822817  0.8332270215091929
  0.4414628741163365  0.6249786685655881  0.6548685269621910
  0.3087832380929826  0.5379027020110063  0.6108987303745100
  0.9366191408638296  0.4565328181074901  0.5655983901092002
  0.6900509865558989  0.7908754686091890  0.7439814948331224
  0.9338135343368650  0.7883775803211541  0.1246650647819038
  0.6914055434438555  0.7878001026692149  0.3890620624390466
  0.9404415876330222  0.7900472651944633  0.7441076925602383
  0.0588503201475011  0.2029823395917482  0.3449594304222477
  0.6835791550993943  0.4522658672017837  0.3449987275727185
  0.4340693298072999  0.1220016322997639  0.7887683793429220
  0.0647845278186514  0.2050146660529447  0.2116151563087016
  0.0554526619363741  0.3655549053375080  0.1668056505741377
  0.9332751633186388  0.7885266903217676  0.2558375784460366
  0.5604203363185152  0.2078037827588027  0.6995673746548049
  0.6850619272465370  0.9579976683695520  0.6996208418474175
  0.8099964820061974  0.8722096336563319  0.7882711549699257
  0.4368274838306077  0.9571510854213293  0.5653917514370029
  0.8102337017083320  0.3725154056160737  0.7882238450672560
  0.6841377140113014  0.2887229435413342  0.2561359480270413
  0.1871782601442454  0.4571899526491242  0.5654350780580678
  0.0557238543022549  0.8655065868962797  0.1668022921103222
  0.1837066852446413  0.2879581335268427  0.6109166109563960
  0.0621662617846435  0.2072989976600954  0.5653735960206377
  0.3104405750632399  0.2078196281806259  0.6996042758257761
  0.5634073624424024  0.5396201011664047  0.8756244655408192
  0.0617742449259113  0.7064042838103221  0.5655128054583065
  0.6846406401177271  0.6221693845920145  0.7881940666134001
  0.3157901809034702  0.5381121249435447  0.3890239355482315
  0.1867976767547036  0.6213459527978575  0.5214543560182814
  0.5624456434594467  0.8702403979419737  0.4344641507705769
  0.4369571846492556  0.4570580539122038  0.5655048778380525
  0.4398841268293373  0.2910301847186094  0.7440757252085357
  0.8202412163003245  0.8746302904695301  0.3002784280313822
  0.8088773013263774  0.7027881950970943  0.3450980901024309
  0.4415704403075103  0.4625495661385638  0.8331320519823278
  0.6874924074334477  0.9556322246980752  0.4786884268320510
  0.6852092402722119  0.4579409444209511  0.6996214251536446
  0.5618096804194445  0.8719646406478149  0.5214116813166919
  0.5665587215844721  0.3748245393975220  0.6548699369438030
  0.8164321238113572  0.8748412701370417  0.6549116016934462
  0.8117367810876771  0.3714844778182061  0.4342425671774521
  0.8087209026908001  0.5379815194950301  0.2562216890277678
  0.6918037942655724  0.4622060792732700  0.8331645227927743
  0.1860601389145262  0.7885321548633287  0.1242611055151051
  0.6910787746621947  0.2867283192495301  0.3889598124168870
  0.3164172697959626  0.3748998238197732  0.6549067778075126
  0.3090276741265365  0.2026186605993260  0.3448028720791039
  0.8156869778027139  0.5399903292801385  0.7439464761102663
  0.6916612561483662  0.9623703595439571  0.8331363003761718
  0.5663105169592798  0.8748810163565837  0.6549401625395014
  0.3113279024835971  0.7073102921909127  0.5654463725697900
  0.3124644308893763  0.5313529115857226  0.1242705085565491
  0.6898086832095033  0.9556299610097094  0.2119027243502190
  0.3114104937177932  0.2066149143728855  0.5655019295800194
  0.1873874455758459  0.9557890125377840  0.4786804107898752
  0.6873871606088860  0.9572074666531060  0.5654840775465722
  0.4337179490076148  0.7881439211573261  0.6108513147888882
  0.6822993767333150  0.6118944326501226  0.1667292700986101
  0.3186650814421495  0.8744333622640992  0.3001316554873839
  0.3121983527508460  0.7056941035046216  0.4786795617447357
  0.9337110052299967  0.2878015307746076  0.6108893028815263
  0.4452820121165958  0.6247898079667060  0.3003616172168798
  0.8069045848327628  0.8641199187566020  0.1672230769371266
  0.5667284823927707  0.2030313501472963  0.2117485498793979
  0.9332275505738078  0.6127670143441791  0.1668542734745816
  0.4372342465603135  0.9556670887692412  0.4786815775610341
  0.5598723650122026  0.3721461803508268  0.7883180311901161
  0.0614602695797631  0.3722209890315049  0.5213588493971216
  0.3068275456791094  0.3647303565914068  0.1668690698334921
  0.6952123939018722  0.1235531768792824  0.3003028467650931
  0.4416400112275397  0.9625852081675876  0.8331549028533565
  0.1846611344901340  0.2874263485723142  0.1245092018446174
  0.1841653713291347  0.2894725407811384  0.2560927571346146
  0.3124069651563809  0.3702236095658296  0.4344626922020162
  0.5625613794067714  0.0326866823993889  0.1245890328178914
  0.4336741755676535  0.2879722372482559  0.6108628519911471
  0.1836180661770543  0.4527383806770210  0.3450899719517238
  0.4345707850489287  0.2873615386754108  0.1245601860574228
  0.6837354771941343  0.7889886489643576  0.2560445513347673
  0.4366550538848758  0.1214415607586170  0.5213831585677114
  0.1877128926419924  0.2957752665730208  0.8757334039803607
  0.1915482916194768  0.1249969714623165  0.6549098425414204
  0.9415265280237990  0.1249885972804768  0.6548997359025948
  0.8163232641922477  0.5378114073255258  0.3890841477891874
  0.0663233729762500  0.0377713068527272  0.3891124585372596
  0.1829078778025113  0.1120278588361503  0.1666779401830260
  0.0586302839246696  0.5377706494710922  0.6109231396181113
  0.9341981645889130  0.2893174079182077  0.2560794486301635
  0.5586688142547865  0.5380696916056357  0.6108648147638160
  0.9369607082055864  0.9573482297941669  0.5654532031017317
  0.6948482258433302  0.6247345378308811  0.3000422321632265
  0.9374457729979432  0.6201358403482992  0.4344701826645688
  0.9339242086257576  0.6232209575403309  0.7881885234614553
  0.5603385151204165  0.7076942003761519  0.6995919461531129
  0.0663279483667363  0.7147271379335819  0.8334589389617792
  0.9451719924537609  0.1235905017351589  0.3002791504225295
  0.9337367566882833  0.7876473927707598  0.6109143524610097
  0.4335530809085966  0.7893643989736331  0.2560506729848988
  0.3107437944802954  0.3720039186298195  0.7881931849842675
  0.4398329029289570  0.4552054985592349  0.2117955205863610
  0.1866991449469735  0.1217278299992950  0.5214027242668681
  0.8103877076665323  0.7080006203272045  0.6995523301484428
  0.0586464928805599  0.0379745637797007  0.6108547490310942
  0.5662547282031513  0.2128851512246407  0.8331092884925035
  0.3116642275657931  0.8719681918009485  0.5213949469780496
  0.6863623964150293  0.2869282804751291  0.1243845728095361
  0.1902049255354439  0.9560954639690306  0.2119993911183789
  0.6835868286681389  0.2879448693623214  0.6109251874170547
  0.3086244521210426  0.0378786278350160  0.6109624040644436
  0.9341539787421695  0.1232916509875836  0.7882916206713724
  0.4369552794971535  0.7954785600798374  0.8757693285035351
  0.8155364129035592  0.0401970389668021  0.7439364817392882
  0.9351835627858496  0.4578993668551016  0.6996310049679777
  0.1914155302841210  0.6250265198425893  0.6549075510711673
  0.3104047889203888  0.7078354200560293  0.6995579393253826
  0.9345207597249371  0.2871024459463382  0.1244040349507751
  0.4373830837449053  0.4557689812221768  0.4786110751180961
  0.0622073989877320  0.7057063941458894  0.4785866135735701
  0.9370205287831617  0.1196122348602955  0.4345849594082486
  0.4442251876773152  0.1243757729483215  0.3004745166020002
  0.1870076390401500  0.1193894696868324  0.4342831415864469
  0.5631236930826262  0.0395873778050911  0.8756957106297540
  0.1869715973381429  0.9570839064071393  0.5654771561953125
  0.6841316355828373  0.7883148115685807  0.1247697006459901
  0.5590335758298045  0.7028085417023547  0.3451130690465352
  0.3164981285947550  0.0372457158118650  0.3890583202761177
  0.6823289872137231  0.1143045970259467  0.1671810893186769
  0.8152818788518421  0.2051266513450379  0.2116456395671269
  0.0597299693636306  0.5379605999981684  0.2559444991182903
  0.5623844573618291  0.7056352824755137  0.4786647901726605
  0.4346445024264267  0.7876218663861440  0.1245183145109727
  0.5693302905525275  0.3739076590169009  0.3002545542631372
  0.4335505817407019  0.9526202143801440  0.3450659132391056
  0.1851764519871064  0.9581178678563683  0.6996925362441144
  0.4319001604523723  0.6136256839851020  0.1666295442732199
  0.9400221585518435  0.4554423331104454  0.2119755017271368
  0.0617471078062631  0.5311937905118048  0.1242924888959345
  0.8117620914727853  0.3718157181441182  0.5213742555532701
  0.9445869248402081  0.6243278994203036  0.3001259688101065
  0.3090370028787376  0.0378145155685371  0.2557776386364048
  0.6837871755746896  0.7879683039467453  0.6108919838082139
  0.1915248890602473  0.4624867716456850  0.8331583356743454
  0.4323292635322349  0.1121273477620112  0.1667175768932875
  0.3114619084714649  0.3718470012501454  0.5213743747475745
  0.4340918918671341  0.6220665766727810  0.7885615114253071
  0.0588124737805898  0.0381234347111506  0.2560543817792045
  0.5620497775314799  0.7070475321195033  0.5655186245762681
  0.9404588200759892  0.2898231389944541  0.7440095980794558
  0.6835864037204054  0.1225170525157812  0.7883698579539394
  0.1896035993882080  0.4549140142212378  0.2116318474936118
  0.9411853623139590  0.7874833860971785  0.3890074901295038
  0.6859300273314810  0.2967523026168920  0.8756263832928924
  0.5556956759065875  0.8648774971409259  0.1666800265901266
  0.4354026981076186  0.4578226192932049  0.6995740633524561
  0.9340857526792629  0.9516699032276396  0.3449350126278635
  0.6864919926871597  0.6213010946072330  0.5212944870712689
  0.0664300155230808  0.8747906938978226  0.6549044545909226
  0.0597773027324950  0.8723658664542064  0.7882944906488251
  0.0663849447426229  0.3749486867986859  0.6549089860489660
  0.6870522171016029  0.4556000757789465  0.4786842531677498
  0.1843181484341518  0.7895028077129566  0.2559952710412304
  0.4368936076672202  0.1203722242575940  0.4344374087243018
  0.8135690532726515  0.0315100328829307  0.1243375450965436
  0.9364623113139352  0.6216917793477930  0.5214072037219692
  0.4415431163530179  0.1248807986723315  0.6548546764791308
  0.8124588997384229  0.5306105244481719  0.1243850824023391
  0.4338581622168946  0.4526421836988054  0.3451462250234016
  0.8087799123261248  0.2025650783514994  0.3450744393778814
  0.3088643896826189  0.7021601836541052  0.3448882128890123
  0.6914717629023341  0.1250305373799146  0.6549606952105915
  0.5695502328420036  0.8740872338903340  0.3005023649152653
  0.0655095953126870  0.5404145063066975  0.7439398309967037
  0.9408468340407206  0.9553595618586583  0.2116397795986723
  0.8167025943902597  0.7054249087094767  0.2117765744138231
  0.0695857564875684  0.8739424235141026  0.3004368398052672
  0.1947698143739331  0.1243421940405386  0.3004046884132077
  0.0585050402109450  0.7024856117240601  0.3449454112610556
  0.8088517218013124  0.0378648531497410  0.6108907119227738
  0.0630277701119243  0.3707948826106705  0.4344031298997714
  0.5589648072281869  0.2026958269001425  0.3449638934147816
  0.8191451876512900  0.3747331448293837  0.3003806348283426
  0.5594676827901260  0.0386759567962343  0.2558748478928873
  0.5662787784795400  0.5376014588962656  0.3890760931678577
  0.0626444241397790  0.2056863682109847  0.4786752973569742
  0.3100169942593105  0.8717508037830535  0.7882516454892923
  0.9350890051695477  0.9580637919788146  0.6995963559547737
  0.0691253952486272  0.3748942964708937  0.3004183970411903
  0.6913585307553806  0.6249139259031224  0.6549215368546827
  0.6868578988737922  0.4570130036698815  0.5654136380794623
  0.4402625233971931  0.9565014196313576  0.2122372774604446
  0.3123650738139583  0.2055882953678156  0.4787590143797827
  0.8132696478564708  0.5391115517559664  0.8755616606276549
  0.6876455413707354  0.6201435852876497  0.4344846682531877
  0.8104941461631445  0.2078775792389216  0.6995918324731422
  0.8123792929058612  0.7056321822726638  0.4786654804740544
  0.8116571842265859  0.8709188077676711  0.4342976737523891
  0.9373369701415398  0.9551280321292300  0.4787387721266872
  0.5622422307600756  0.2057770704783919  0.4786551741062938
  0.1869921089766589  0.6195401582778868  0.4344659437108256
  0.3151836206616286  0.0405945637416136  0.7439939896190452
  0.9414909464880598  0.6250799981169970  0.6548542747879931
  0.5663495725436098  0.7128392320620639  0.8331347241712141
  0.3203263181465396  0.3730381084746845  0.3002537900365531
  0.5653766165094383  0.7044342833233108  0.2117327120631380
  0.1873593851093113  0.4557884366573053  0.4786714773829339
  0.3135863006268457  0.0395076592188521  0.8757006093873211
  0.1849797726249811  0.4580303361677651  0.6995984019818600
  0.5616539567080236  0.3715539829876849  0.5213611989054896
  0.1912278325515783  0.2877902693341087  0.3890718021088210
  0.3156685050129515  0.2052512300527045  0.2115966714347354
  0.0672533550805619  0.7056040700473586  0.2115577425705067
  0.5619806100595393  0.3707772915381452  0.4344348124298221
  0.4365234469979313  0.6218770046090267  0.5213222005982939
  0.8173699071361795  0.7147116323659044  0.8332870710118393
  0.0605049103687741  0.3721418713755880  0.7882179835985457
  0.4367799211390722  0.2956289652478172  0.8758744835444666
  0.3113423381651220  0.0315526144049925  0.1244322936026778
  0.6876411069969427  0.1192668728910080  0.4343920940710591
  0.1835474793272545  0.9526496493181841  0.3451384004513243
  0.0666169392407754  0.2146445539120455  0.8334364265547660
  0.5588754470269380  0.0381359927111515  0.6109377597211325
  0.6896558586607791  0.4553206604783051  0.2119809020781510
  0.1905850005608802  0.7901609834470354  0.7439704432251092
  0.1945622639894232  0.6241488086277621  0.3004240542637513
  0.4416514334387009  0.7876835563486957  0.3890936356316868
  0.4336287110711589  0.2892957253124033  0.2560352088393316
  0.0645922543135484  0.5386734695774649  0.8755635100697494
  0.5659302911881376  0.0404929116172348  0.7439173883979124
  0.1877927952456860  0.7957830577761622  0.8757205820583620
  0.9371853853133144  0.4556288394440052  0.4786523949153453
  0.5656842804942785  0.5405779844232179  0.7439141291125514
  0.8112340655971704  0.2070933644039875  0.5654591748956485
  0.1851531349558403  0.6216425822457557  0.7882904768710345
  0.0670428692291353  0.5390880993127461  0.3891978488119643
  0.0605024915244632  0.7077970544879922  0.6995806344140414
  0.3079755656115492  0.5384250462397445  0.2557139595974993
  0.3155827962029888  0.7034193205766982  0.2124051445522634
  0.3052625638042022  0.8652457207451563  0.1661429957361895
  0.4370289031128113  0.6206037610354587  0.4344308874000598
  0.8184805545340462  0.0399395944496799  0.3893036548961318
  0.9367087470844718  0.2958899881214151  0.8752938058246430
  0.9372826099925826  0.7957910526251720  0.8752213560395299
  0.5656987014384426  0.0392601328042928  0.3889668009660694
  0.5628935372724871  0.5297935113485223  0.1248814867357251
  0.8049613730942098  0.3664595919634098  0.1664513349024675
  0.0620238492961861  0.8709131739127350  0.4344958603703987
  0.9365560910853133  0.1216550440187160  0.5214263662129667
  0.1930419941589507  0.7867680522574793  0.3890044321634720
  0.3157430686649551  0.5405599205850772  0.7440414633098785
 
  0.00000000E+00  0.00000000E+00  0.00000000E+00
  0.00000000E+00  0.00000000E+00  0.00000000E+00
  0.00000000E+00  0.00000000E+00  0.00000000E+00
  0.00000000E+00  0.00000000E+00  0.00000000E+00
  0.00000000E+00  0.00000000E+00  0.00000000E+00
  0.00000000E+00  0.00000000E+00  0.00000000E+00
  0.00000000E+00  0.00000000E+00  0.00000000E+00
  0.00000000E+00  0.00000000E+00  0.00000000E+00
  0.00000000E+00  0.00000000E+00  0.00000000E+00
  0.00000000E+00  0.00000000E+00  0.00000000E+00
  0.00000000E+00  0.00000000E+00  0.00000000E+00
  0.00000000E+00  0.00000000E+00  0.00000000E+00
  0.00000000E+00  0.00000000E+00  0.00000000E+00
  0.00000000E+00  0.00000000E+00  0.00000000E+00
  0.00000000E+00  0.00000000E+00  0.00000000E+00
  0.00000000E+00  0.00000000E+00  0.00000000E+00
  0.00000000E+00  0.00000000E+00  0.00000000E+00
  0.00000000E+00  0.00000000E+00  0.00000000E+00
  0.00000000E+00  0.00000000E+00  0.00000000E+00
  0.00000000E+00  0.00000000E+00  0.00000000E+00
  0.00000000E+00  0.00000000E+00  0.00000000E+00
  0.00000000E+00  0.00000000E+00  0.00000000E+00
  0.00000000E+00  0.00000000E+00  0.00000000E+00
  0.00000000E+00  0.00000000E+00  0.00000000E+00
  0.00000000E+00  0.00000000E+00  0.00000000E+00
  0.00000000E+00  0.00000000E+00  0.00000000E+00
  0.00000000E+00  0.00000000E+00  0.00000000E+00
  0.00000000E+00  0.00000000E+00  0.00000000E+00
  0.00000000E+00  0.00000000E+00  0.00000000E+00
  0.00000000E+00  0.00000000E+00  0.00000000E+00
  0.00000000E+00  0.00000000E+00  0.00000000E+00
  0.00000000E+00  0.00000000E+00  0.00000000E+00
  0.00000000E+00  0.00000000E+00  0.00000000E+00
  0.00000000E+00  0.00000000E+00  0.00000000E+00
  0.00000000E+00  0.00000000E+00  0.00000000E+00
  0.00000000E+00  0.00000000E+00  0.00000000E+00
  0.00000000E+00  0.00000000E+00  0.00000000E+00
  0.00000000E+00  0.00000000E+00  0.00000000E+00
  0.00000000E+00  0.00000000E+00  0.00000000E+00
  0.00000000E+00  0.00000000E+00  0.00000000E+00
  0.00000000E+00  0.00000000E+00  0.00000000E+00
  0.00000000E+00  0.00000000E+00  0.00000000E+00
  0.00000000E+00  0.00000000E+00  0.00000000E+00
  0.00000000E+00  0.00000000E+00  0.00000000E+00
  0.00000000E+00  0.00000000E+00  0.00000000E+00
  0.00000000E+00  0.00000000E+00  0.00000000E+00
  0.00000000E+00  0.00000000E+00  0.00000000E+00
  0.00000000E+00  0.00000000E+00  0.00000000E+00
  0.00000000E+00  0.00000000E+00  0.00000000E+00
  0.00000000E+00  0.00000000E+00  0.00000000E+00
  0.00000000E+00  0.00000000E+00  0.00000000E+00
  0.00000000E+00  0.00000000E+00  0.00000000E+00
  0.00000000E+00  0.00000000E+00  0.00000000E+00
  0.00000000E+00  0.00000000E+00  0.00000000E+00
  0.00000000E+00  0.00000000E+00  0.00000000E+00
  0.00000000E+00  0.00000000E+00  0.00000000E+00
  0.00000000E+00  0.00000000E+00  0.00000000E+00
  0.00000000E+00  0.00000000E+00  0.00000000E+00
  0.00000000E+00  0.00000000E+00  0.00000000E+00
  0.00000000E+00  0.00000000E+00  0.00000000E+00
  0.00000000E+00  0.00000000E+00  0.00000000E+00
  0.00000000E+00  0.00000000E+00  0.00000000E+00
  0.00000000E+00  0.00000000E+00  0.00000000E+00
  0.00000000E+00  0.00000000E+00  0.00000000E+00
  0.00000000E+00  0.00000000E+00  0.00000000E+00
  0.00000000E+00  0.00000000E+00  0.00000000E+00
  0.00000000E+00  0.00000000E+00  0.00000000E+00
  0.00000000E+00  0.00000000E+00  0.00000000E+00
  0.00000000E+00  0.00000000E+00  0.00000000E+00
  0.00000000E+00  0.00000000E+00  0.00000000E+00
  0.00000000E+00  0.00000000E+00  0.00000000E+00
  0.00000000E+00  0.00000000E+00  0.00000000E+00
  0.00000000E+00  0.00000000E+00  0.00000000E+00
  0.00000000E+00  0.00000000E+00  0.00000000E+00
  0.00000000E+00  0.00000000E+00  0.00000000E+00
  0.00000000E+00  0.00000000E+00  0.00000000E+00
  0.00000000E+00  0.00000000E+00  0.00000000E+00
  0.00000000E+00  0.00000000E+00  0.00000000E+00
  0.00000000E+00  0.00000000E+00  0.00000000E+00
  0.00000000E+00  0.00000000E+00  0.00000000E+00
  0.00000000E+00  0.00000000E+00  0.00000000E+00
  0.00000000E+00  0.00000000E+00  0.00000000E+00
  0.00000000E+00  0.00000000E+00  0.00000000E+00
  0.00000000E+00  0.00000000E+00  0.00000000E+00
  0.00000000E+00  0.00000000E+00  0.00000000E+00
  0.00000000E+00  0.00000000E+00  0.00000000E+00
  0.00000000E+00  0.00000000E+00  0.00000000E+00
  0.00000000E+00  0.00000000E+00  0.00000000E+00
  0.00000000E+00  0.00000000E+00  0.00000000E+00
  0.00000000E+00  0.00000000E+00  0.00000000E+00
  0.00000000E+00  0.00000000E+00  0.00000000E+00
  0.00000000E+00  0.00000000E+00  0.00000000E+00
  0.00000000E+00  0.00000000E+00  0.00000000E+00
  0.00000000E+00  0.00000000E+00  0.00000000E+00
  0.00000000E+00  0.00000000E+00  0.00000000E+00
  0.00000000E+00  0.00000000E+00  0.00000000E+00
  0.00000000E+00  0.00000000E+00  0.00000000E+00
  0.00000000E+00  0.00000000E+00  0.00000000E+00
  0.00000000E+00  0.00000000E+00  0.00000000E+00
  0.00000000E+00  0.00000000E+00  0.00000000E+00
  0.00000000E+00  0.00000000E+00  0.00000000E+00
  0.00000000E+00  0.00000000E+00  0.00000000E+00
  0.00000000E+00  0.00000000E+00  0.00000000E+00
  0.00000000E+00  0.00000000E+00  0.00000000E+00
  0.00000000E+00  0.00000000E+00  0.00000000E+00
  0.00000000E+00  0.00000000E+00  0.00000000E+00
  0.00000000E+00  0.00000000E+00  0.00000000E+00
  0.00000000E+00  0.00000000E+00  0.00000000E+00
  0.00000000E+00  0.00000000E+00  0.00000000E+00
  0.00000000E+00  0.00000000E+00  0.00000000E+00
  0.00000000E+00  0.00000000E+00  0.00000000E+00
  0.00000000E+00  0.00000000E+00  0.00000000E+00
  0.00000000E+00  0.00000000E+00  0.00000000E+00
  0.00000000E+00  0.00000000E+00  0.00000000E+00
  0.00000000E+00  0.00000000E+00  0.00000000E+00
  0.00000000E+00  0.00000000E+00  0.00000000E+00
  0.00000000E+00  0.00000000E+00  0.00000000E+00
  0.00000000E+00  0.00000000E+00  0.00000000E+00
  0.00000000E+00  0.00000000E+00  0.00000000E+00
  0.00000000E+00  0.00000000E+00  0.00000000E+00
  0.00000000E+00  0.00000000E+00  0.00000000E+00
  0.00000000E+00  0.00000000E+00  0.00000000E+00
  0.00000000E+00  0.00000000E+00  0.00000000E+00
  0.00000000E+00  0.00000000E+00  0.00000000E+00
  0.00000000E+00  0.00000000E+00  0.00000000E+00
  0.00000000E+00  0.00000000E+00  0.00000000E+00
  0.00000000E+00  0.00000000E+00  0.00000000E+00
  0.00000000E+00  0.00000000E+00  0.00000000E+00
  0.00000000E+00  0.00000000E+00  0.00000000E+00
  0.00000000E+00  0.00000000E+00  0.00000000E+00
  0.00000000E+00  0.00000000E+00  0.00000000E+00
  0.00000000E+00  0.00000000E+00  0.00000000E+00
  0.00000000E+00  0.00000000E+00  0.00000000E+00
  0.00000000E+00  0.00000000E+00  0.00000000E+00
  0.00000000E+00  0.00000000E+00  0.00000000E+00
  0.00000000E+00  0.00000000E+00  0.00000000E+00
  0.00000000E+00  0.00000000E+00  0.00000000E+00
  0.00000000E+00  0.00000000E+00  0.00000000E+00
  0.00000000E+00  0.00000000E+00  0.00000000E+00
  0.00000000E+00  0.00000000E+00  0.00000000E+00
  0.00000000E+00  0.00000000E+00  0.00000000E+00
  0.00000000E+00  0.00000000E+00  0.00000000E+00
  0.00000000E+00  0.00000000E+00  0.00000000E+00
  0.00000000E+00  0.00000000E+00  0.00000000E+00
  0.00000000E+00  0.00000000E+00  0.00000000E+00
  0.00000000E+00  0.00000000E+00  0.00000000E+00
  0.00000000E+00  0.00000000E+00  0.00000000E+00
  0.00000000E+00  0.00000000E+00  0.00000000E+00
  0.00000000E+00  0.00000000E+00  0.00000000E+00
  0.00000000E+00  0.00000000E+00  0.00000000E+00
  0.00000000E+00  0.00000000E+00  0.00000000E+00
  0.00000000E+00  0.00000000E+00  0.00000000E+00
  0.00000000E+00  0.00000000E+00  0.00000000E+00
  0.00000000E+00  0.00000000E+00  0.00000000E+00
  0.00000000E+00  0.00000000E+00  0.00000000E+00
  0.00000000E+00  0.00000000E+00  0.00000000E+00
  0.00000000E+00  0.00000000E+00  0.00000000E+00
  0.00000000E+00  0.00000000E+00  0.00000000E+00
  0.00000000E+00  0.00000000E+00  0.00000000E+00
  0.00000000E+00  0.00000000E+00  0.00000000E+00
  0.00000000E+00  0.00000000E+00  0.00000000E+00
  0.00000000E+00  0.00000000E+00  0.00000000E+00
  0.00000000E+00  0.00000000E+00  0.00000000E+00
  0.00000000E+00  0.00000000E+00  0.00000000E+00
  0.00000000E+00  0.00000000E+00  0.00000000E+00
  0.00000000E+00  0.00000000E+00  0.00000000E+00
  0.00000000E+00  0.00000000E+00  0.00000000E+00
  0.00000000E+00  0.00000000E+00  0.00000000E+00
  0.00000000E+00  0.00000000E+00  0.00000000E+00
  0.00000000E+00  0.00000000E+00  0.00000000E+00
  0.00000000E+00  0.00000000E+00  0.00000000E+00
  0.00000000E+00  0.00000000E+00  0.00000000E+00
  0.00000000E+00  0.00000000E+00  0.00000000E+00
  0.00000000E+00  0.00000000E+00  0.00000000E+00
  0.00000000E+00  0.00000000E+00  0.00000000E+00
  0.00000000E+00  0.00000000E+00  0.00000000E+00
  0.00000000E+00  0.00000000E+00  0.00000000E+00
  0.00000000E+00  0.00000000E+00  0.00000000E+00
  0.00000000E+00  0.00000000E+00  0.00000000E+00
  0.00000000E+00  0.00000000E+00  0.00000000E+00
  0.00000000E+00  0.00000000E+00  0.00000000E+00
  0.00000000E+00  0.00000000E+00  0.00000000E+00
  0.00000000E+00  0.00000000E+00  0.00000000E+00
  0.00000000E+00  0.00000000E+00  0.00000000E+00
  0.00000000E+00  0.00000000E+00  0.00000000E+00
  0.00000000E+00  0.00000000E+00  0.00000000E+00
  0.00000000E+00  0.00000000E+00  0.00000000E+00
  0.00000000E+00  0.00000000E+00  0.00000000E+00
  0.00000000E+00  0.00000000E+00  0.00000000E+00
  0.00000000E+00  0.00000000E+00  0.00000000E+00
  0.00000000E+00  0.00000000E+00  0.00000000E+00
  0.00000000E+00  0.00000000E+00  0.00000000E+00
  0.00000000E+00  0.00000000E+00  0.00000000E+00
  0.00000000E+00  0.00000000E+00  0.00000000E+00
  0.00000000E+00  0.00000000E+00  0.00000000E+00
  0.00000000E+00  0.00000000E+00  0.00000000E+00
  0.00000000E+00  0.00000000E+00  0.00000000E+00
  0.00000000E+00  0.00000000E+00  0.00000000E+00
  0.00000000E+00  0.00000000E+00  0.00000000E+00
  0.00000000E+00  0.00000000E+00  0.00000000E+00
  0.00000000E+00  0.00000000E+00  0.00000000E+00
  0.00000000E+00  0.00000000E+00  0.00000000E+00
  0.00000000E+00  0.00000000E+00  0.00000000E+00
  0.00000000E+00  0.00000000E+00  0.00000000E+00
  0.00000000E+00  0.00000000E+00  0.00000000E+00
  0.00000000E+00  0.00000000E+00  0.00000000E+00
  0.00000000E+00  0.00000000E+00  0.00000000E+00
  0.00000000E+00  0.00000000E+00  0.00000000E+00
  0.00000000E+00  0.00000000E+00  0.00000000E+00
  0.00000000E+00  0.00000000E+00  0.00000000E+00
  0.00000000E+00  0.00000000E+00  0.00000000E+00
  0.00000000E+00  0.00000000E+00  0.00000000E+00
  0.00000000E+00  0.00000000E+00  0.00000000E+00
  0.00000000E+00  0.00000000E+00  0.00000000E+00
  0.00000000E+00  0.00000000E+00  0.00000000E+00
  0.00000000E+00  0.00000000E+00  0.00000000E+00
  0.00000000E+00  0.00000000E+00  0.00000000E+00
  0.00000000E+00  0.00000000E+00  0.00000000E+00
  0.00000000E+00  0.00000000E+00  0.00000000E+00
  0.00000000E+00  0.00000000E+00  0.00000000E+00
  0.00000000E+00  0.00000000E+00  0.00000000E+00
  0.00000000E+00  0.00000000E+00  0.00000000E+00
  0.00000000E+00  0.00000000E+00  0.00000000E+00
  0.00000000E+00  0.00000000E+00  0.00000000E+00
  0.00000000E+00  0.00000000E+00  0.00000000E+00
  0.00000000E+00  0.00000000E+00  0.00000000E+00
  0.00000000E+00  0.00000000E+00  0.00000000E+00
  0.00000000E+00  0.00000000E+00  0.00000000E+00
  0.00000000E+00  0.00000000E+00  0.00000000E+00
  0.00000000E+00  0.00000000E+00  0.00000000E+00
  0.00000000E+00  0.00000000E+00  0.00000000E+00
  0.00000000E+00  0.00000000E+00  0.00000000E+00
  0.00000000E+00  0.00000000E+00  0.00000000E+00
  0.00000000E+00  0.00000000E+00  0.00000000E+00
  0.00000000E+00  0.00000000E+00  0.00000000E+00
  0.00000000E+00  0.00000000E+00  0.00000000E+00
  0.00000000E+00  0.00000000E+00  0.00000000E+00
  0.00000000E+00  0.00000000E+00  0.00000000E+00
  0.00000000E+00  0.00000000E+00  0.00000000E+00
  0.00000000E+00  0.00000000E+00  0.00000000E+00
  0.00000000E+00  0.00000000E+00  0.00000000E+00
  0.00000000E+00  0.00000000E+00  0.00000000E+00
  0.00000000E+00  0.00000000E+00  0.00000000E+00
  0.00000000E+00  0.00000000E+00  0.00000000E+00
  0.00000000E+00  0.00000000E+00  0.00000000E+00
  0.00000000E+00  0.00000000E+00  0.00000000E+00
  0.00000000E+00  0.00000000E+00  0.00000000E+00