CuInSe2gb                               
   1.00000000000000     
     9.7266780392896699    0.0000000000000000    0.0000000000000000
     0.0000000000000000    8.4235502764570693    0.0000000000000000
     0.0000000000000000    0.0000000000000000   45.0000000000000000
   Fe   Mn
   274    14
Direct
  0.0615245955788931  0.0318722233407015  0.1243175477819602
  0.3165805666988833  0.8749538260841325  0.6548856073662866
  0.1848007753892811  0.1217125561022004  0.7882802478665512
  0.4413387287220680  0.2878511872071130  0.3891320129117990
  0.3176462880949874  0.7126147287480058  0.8327841551626729
  0.8178203081276901  0.2139364226526055  0.8333498362502613
  0.1912498301390036  0.9626018187357707  0.8332940128518213
  0.5623097955612936  0.2070972047530262  0.5655173876473233
  0.0654885149455246  0.0397307211847209  0.7439706943855174
  0.8116338639378018  0.8713403180803879  0.5213807075101549
  0.1910316819821748  0.2904852554504600  0.7439383692733196
  0.9335937950538027  0.4524973105947707  0.3449073851782001
  0.9410456941692543  0.2865808918604147  0.3890287086330041
  0.8129340845503634  0.0399166386177774  0.8754269824754455
  0.1836190489458353  0.7881305492034438  0.6108764647237496
  0.5663570483960823  0.0378025980919352  0.3890766888613563
  0.9417413181562785  0.9632183410187158  0.8335689648791432
  0.3142983622019220  0.5387956809908023  0.8757729257517624
  0.6905773348119404  0.2905102862090716  0.7439264052513123
  0.1819238179339194  0.6136974670967135  0.1666356781184123
  0.8122058944827037  0.2057368897019818  0.4786887348359659
  0.8087446615595463  0.5379154722461832  0.6109185036585082
  0.3119939693534866  0.8703903567295274  0.4345275880864541
  0.8092207780804035  0.0382803498366820  0.2561482090887935
  0.6838805680626115  0.9516250342294135  0.3448973487824031
  0.9318783340837755  0.1142046734883332  0.1671724143855074
  0.0616231998101257  0.8713323665852996  0.5213972282261186
  0.5588056325459259  0.5384256252587302  0.2560349590191747
  0.6846111859350533  0.7954501130704275  0.8754534783252099
  0.5560969837231650  0.3654129354446036  0.1668492311291543
  0.4398294170593086  0.7907215912988266  0.7440665447872457
  0.8114980487114969  0.7065868844412863  0.5654515167942421
  0.5599396983682229  0.8722440779348444  0.7882894213569864
  0.6866524604385705  0.1215219996205181  0.5213826695878845
  0.8165319563826594  0.3748500703938133  0.6549182739643760
  0.9415805886374633  0.4628007579710161  0.8335118984096404
  0.0603736369066134  0.2079625314793979  0.6995571631843025
  0.4350185267799369  0.9579030750563743  0.6995440849787619
  0.3168406943897241  0.2119679774955242  0.8332920972894898
  0.4415417037126714  0.6249455920388346  0.6548868428350901
  0.3087233620613807  0.5379442283261779  0.6108987861769098
  0.9365501589979858  0.4565338315026721  0.5655806512712357
  0.6900804492677213  0.7910835486095857  0.7440478490742998
  0.9336733777075651  0.7878921908838850  0.1246835633490847
  0.6917143040754840  0.7877805004071953  0.3890945373242541
  0.9405527068959146  0.7900995455213994  0.7441350826546986
  0.0590096156923281  0.2029828494675542  0.3450495160216554
  0.6835856605823005  0.4522841268620416  0.3450234350945668
  0.4350009741905054  0.1213171942586070  0.7886118493243306
  0.0651394303534631  0.2053572897744811  0.2115195029238552
  0.0556671368503474  0.3654573824718043  0.1667992006968049
  0.9334177006051527  0.7885199761381391  0.2558481823316714
  0.5604492537175417  0.2077586288539316  0.6995908457811062
  0.6848121323099374  0.9579370558596908  0.6996057316687858
  0.8099342003022139  0.8723333840478404  0.7882272266065018
  0.4369159042624863  0.9570335598240963  0.5653616865948670
  0.8101944686304738  0.3732447457487664  0.7881962329580988
  0.6839474131605741  0.2893987200562526  0.2560562489050688
  0.1872439123381233  0.4571074862362161  0.5654563612995419
  0.0556098633207125  0.8654930292135814  0.1667943879547528
  0.1837156838752696  0.2879398326927065  0.6109320166609110
  0.0622687598432271  0.2071426332427461  0.5653819581097962
  0.3103630328759894  0.2080455220656798  0.6996599382415137
  0.5634666671376505  0.5392127460256978  0.8756802848332810
  0.0618816195398051  0.7063062641600847  0.5655098808024370
  0.6848192115433895  0.6215864180915834  0.7882080282988726
  0.3159904014080332  0.5376951595296610  0.3891168266834081
  0.1869082876249048  0.6212008877934008  0.5214851566183094
  0.5624051055735297  0.8705414786322140  0.4344856503165833
  0.4369034620736343  0.4570973790058578  0.5654970465616196
  0.4398610162579242  0.2909355933699970  0.7440422756695672
  0.8191241259278154  0.8750910135606011  0.3003799195400395
  0.8089371954839377  0.7027948605269122  0.3451092829185902
  0.4416087720758376  0.4623333406977984  0.8331437362237351
  0.6874358787196266  0.9556754569172586  0.4787027981472249
  0.6849365865082289  0.4581203883466832  0.6996179184204367
  0.5618637583617885  0.8718817511868329  0.5214301552949034
  0.5665893391457067  0.3748538574754856  0.6548944984114359
  0.8164396789157261  0.8749456294927570  0.6549322985460320
  0.8116929627104772  0.3712095899194410  0.4342407923028977
  0.8088233279472297  0.5386026141016029  0.2562707920075874
  0.6917625919479882  0.4615772863723853  0.8330685031612337
  0.1856832721497605  0.7886103130960028  0.1242910636157240
  0.6912864697200021  0.2874513953845865  0.3890717247358896
  0.3164430066473997  0.3748294702944734  0.6548794220851556
  0.3090292376601389  0.2027344812153421  0.3449174498052182
  0.8156956146255661  0.5398607776472741  0.7439516698501076
  0.6914781955733331  0.9619153204992129  0.8331340217465558
  0.5663057639509469  0.8747628466862771  0.6549398431823986
  0.3114502014902727  0.7070531394389732  0.5654955371430492
  0.3121028974803705  0.5311946229715796  0.1242673156760487
  0.6896151235565386  0.9558246344341278  0.2119361923806360
  0.3114124528829937  0.2066431223737495  0.5655040712342491
  0.1873560606375673  0.9557006982105561  0.4787251415881438
  0.6874535748348357  0.9571574647621951  0.5654820923024003
  0.4337148796244675  0.7879797653703257  0.6108649260216814
  0.6819716665513336  0.6132556758661550  0.1666815894089144
  0.3189753583015397  0.8746485239775207  0.3001163655786984
  0.3121915072185279  0.7057371116229308  0.4786712422657496
  0.9337055816692889  0.2878617509441352  0.6108811965749902
  0.4451950760334575  0.6248788338883355  0.3004184113233411
  0.8067499276933229  0.8643609685510606  0.1672140907494451
  0.5661569708132898  0.2033661423850734  0.2117590887411441
  0.9325747062136172  0.6142518311236496  0.1669873006638395
  0.4372445932120078  0.9556523355899219  0.4786306218349379
  0.5602328174717485  0.3718874874623077  0.7883598841030610
  0.0613808904956927  0.3719742133630516  0.5213664655296215
  0.3067969213362848  0.3649020370895876  0.1668125103535030
  0.6949831584029731  0.1237327939744344  0.3002961435204337
  0.4427644386325844  0.9619503602955973  0.8330931713157970
  0.1842455346901582  0.2877488865584885  0.1244145951099737
  0.1840333692666161  0.2893386023265215  0.2561097474829384
  0.3125269859274876  0.3705373184507200  0.4344833144185313
  0.5624010989953960  0.0332640797800747  0.1245266498661245
  0.4337432002072906  0.2879475808781038  0.6108754446846044
  0.1838938911363302  0.4528726753547641  0.3451148254226293
  0.4351737790903298  0.2873510665070641  0.1244371392019660
  0.6839378629473267  0.7887136486179347  0.2560623718572526
  0.4366341005283306  0.1214330483678774  0.5213802844619065
  0.1884237691725229  0.2943967592194537  0.8757488863469353
  0.1914362040639804  0.1250173656721648  0.6548891723324627
  0.9415512411501303  0.1249854541291432  0.6549058253159715
  0.8163895337037472  0.5377396840636971  0.3890591923580592
  0.0663465640689517  0.0378799878092546  0.3891315781753227
  0.1824405446821040  0.1123186164511783  0.1667267760321519
  0.0586325410929660  0.5377836753060792  0.6109295731021570
  0.9342162243074721  0.2889600554980123  0.2560507494443292
  0.5585755871270504  0.5379898891449252  0.6108807974112512
  0.9368921992362044  0.9572565237052656  0.5654839533514864
  0.6939845321756225  0.6246799379389371  0.3003509151198037
  0.9373203893924043  0.6202356386614293  0.4344684620382523
  0.9339424022454063  0.6231080257673817  0.7879726454722462
  0.5603272132979538  0.7076011094828041  0.6995832360629842
  0.0659729338778131  0.7151650011302048  0.8336374022223740
  0.9447533819430715  0.1237373058731682  0.3002910478534873
  0.9337434418564527  0.7876532211015755  0.6109269769032187
  0.4334455892088910  0.7891751970147612  0.2559381558794284
  0.3105346084702711  0.3721203546557522  0.7882173135934833
  0.4396977590569464  0.4559520535911615  0.2118837181229880
  0.1866526225333851  0.1214900159762082  0.5213939982633168
  0.8102904052016611  0.7079525000043991  0.6995484880924976
  0.0586496491157140  0.0380425006488508  0.6108620698650801
  0.5661122712893516  0.2129557237725961  0.8330033589261808
  0.3116927819205335  0.8716102015878627  0.5214138031877585
  0.6862491521035073  0.2871798738625321  0.1244422784186368
  0.1898275636386156  0.9562939959824600  0.2120504003033137
  0.6836066266058497  0.2880550481725608  0.6109326301942624
  0.3086387055178554  0.0380717233569456  0.6109802557719634
  0.9350517087124335  0.1226507802234785  0.7883119216109222
  0.4368965447837498  0.7953533378713349  0.8757007775586834
  0.8154569098984682  0.0403437246973209  0.7438785733193130
  0.9349898580209823  0.4580312902023844  0.6996159657671615
  0.1912713632526714  0.6250250770004927  0.6549201137415332
  0.3102437164359062  0.7077658950462304  0.6995545790027812
  0.9352097741980736  0.2870481210181406  0.1243258323236604
  0.4372602960724446  0.4558595667475647  0.4786196299307367
  0.0622391779924909  0.7056975099622969  0.4785812952679387
  0.9370703518051287  0.1199376292400606  0.4345648207576098
  0.4441538038147113  0.1249088334160363  0.3005152740887608
  0.1873768304165167  0.1193137603266336  0.4343975921301719
  0.5634269597496010  0.0391070682524176  0.8757940583101088
  0.1869285062696513  0.9571490443014369  0.5654655679174583
  0.6846941394279298  0.7879827204010950  0.1247021729836826
  0.5582766954337943  0.7021374521885765  0.3450284454512190
  0.3164001373284010  0.0371628428061983  0.3890502487907712
  0.6818294887054459  0.1140559584484700  0.1672224204380221
  0.8152745869220193  0.2053761221638495  0.2115327248909669
  0.0597201852433297  0.5382374597658564  0.2558998359122088
  0.5622022790910325  0.7058209812134821  0.4786296237432288
  0.4350835358328361  0.7879876940737963  0.1245315560841571
  0.5693342506519238  0.3738349330562587  0.3003760827301281
  0.4337547460626777  0.9527905934029758  0.3451107820008401
  0.1850966161822103  0.9580443996903198  0.6996937270752949
  0.4317089788788644  0.6136405371949115  0.1665766149453325
  0.9396679657247319  0.4555346555151294  0.2118682023045746
  0.0617207521506948  0.5311609308901587  0.1242659385598432
  0.8117501250684384  0.3718308608162011  0.5213622357257613
  0.9445726563911598  0.6239438910409258  0.3000598447295030
  0.3089226509143954  0.0377482822051283  0.2557567671572077
  0.6837110984121800  0.7878574523812345  0.6108865521945870
  0.1917081313020951  0.4626388698989797  0.8331694764944133
  0.4319615734627724  0.1126556939738366  0.1666743364610495
  0.3114924567643002  0.3715114282115357  0.5214029476473329
  0.4340401275094179  0.6216495964668902  0.7885135859708110
  0.0589354739037367  0.0386294742216626  0.2560365470925980
  0.5620755292215572  0.7070865239589492  0.5655221681567522
  0.9400322120629444  0.2897400502869817  0.7440234669236947
  0.6833527230538031  0.1220110115557609  0.7883387642658116
  0.1899005124368454  0.4551658206166630  0.2116612968423293
  0.9410937244497567  0.7876552693303049  0.3890819740311630
  0.6860896618177041  0.2975993645802225  0.8757334463106583
  0.5559099747090208  0.8645606302229111  0.1667157224879106
  0.4352508871566164  0.4580093299834199  0.6995883985497368
  0.9340719780017162  0.9515628866243312  0.3449210365678395
  0.6864768997134094  0.6213549969581960  0.5212937016316824
  0.0664789616969064  0.8748318952778933  0.6548936299792836
  0.0599608546602706  0.8728185127149911  0.7882116216724263
  0.0662956506411933  0.3748522593790343  0.6548990824484214
  0.6869186829645317  0.4555589442534502  0.4786833420610720
  0.1843401310858910  0.7894000331350755  0.2559783234269561
  0.4370918761118853  0.1200249440600125  0.4345111903822185
  0.8132973369689795  0.0317424116187578  0.1243545978063504
  0.9364778211003817  0.6215225150309397  0.5214194455876829
  0.4415620282315805  0.1248321112875356  0.6548309066373567
  0.8127707824328643  0.5308022673949153  0.1243654965089086
  0.8056173573252516  0.3658843687995946  0.1670542113676035
  0.8093700646743707  0.2023712827277514  0.3450892190432752
  0.3092681606082656  0.7020335763977426  0.3449432342123717
  0.6911416657257330  0.1249136149808799  0.6549094313552236
  0.5691923730776101  0.8747371728590108  0.3005297679200053
  0.0654743485587039  0.5398067711674865  0.7439919632770144
  0.9408570446693504  0.9557605279038331  0.2116286993784162
  0.8165940954998775  0.7056080674717492  0.2118279448145311
  0.0690209063128821  0.8745694680283947  0.3004402208997203
  0.1943089348444663  0.1243570553557954  0.3004466972216088
  0.0587295074090600  0.7025490519402525  0.3450468455171929
  0.8087852343041599  0.0378670312149687  0.6108972752889257
  0.0628883291655834  0.3710544783815837  0.4344446018818837
  0.5588792538771383  0.2028736276380330  0.3449498134223163
  0.8193756519848614  0.3746135510143817  0.3003840317078652
  0.5596696218403420  0.0390920971281129  0.2559178149437217
  0.5664660225059449  0.5375944796855948  0.3890885928931632
  0.0623998956111157  0.2057668359851441  0.4786635616285060
  0.3113079431362790  0.8714603484032969  0.7880550525022241
  0.9350789589719856  0.9583288065489920  0.6995648979768814
  0.0689571483590840  0.3750133061071807  0.3004157281081671
  0.6912371352369101  0.6250486302423560  0.6549433082628712
  0.6868277390565992  0.4568218797296979  0.5654010310942922
  0.4404157551334480  0.9568228354418201  0.2122767092806946
  0.3123168425764301  0.2055165747432151  0.4787478962227043
  0.8133682173601841  0.5387130415061064  0.8755850672114930
  0.6879573325387933  0.6200686747114387  0.4344918683687842
  0.8104940839417584  0.2078941425153206  0.6996480353046175
  0.8123943623737513  0.7057497699032410  0.4786366006029833
  0.8112165614980292  0.8709102039521797  0.4342670236118106
  0.9371351685094634  0.9552076104743755  0.4787231612241752
  0.5622569763305306  0.2056052563680947  0.4786667385789877
  0.1868582730023393  0.6201640004564049  0.4344715501582664
  0.3153054426699797  0.0406910012401559  0.7438825563452024
  0.9415885961857691  0.6251660006216607  0.6548708152614957
  0.5663268479457407  0.7127642443232186  0.8330833015604537
  0.3199571551580309  0.3736029319914595  0.3003478009140527
  0.5653957282607575  0.7050476704186992  0.2117783569182076
  0.1873061034665114  0.4556825942117256  0.4786954045728074
  0.3145907669597962  0.0401810704442522  0.8755167787415230
  0.1848758373668623  0.4580548329814918  0.6995904682420108
  0.5615526581064051  0.3714544142672784  0.5213875887647905
  0.1912324146295397  0.2876458542330279  0.3890113670731327
  0.3155462218452271  0.2054147199183856  0.2115941125747998
  0.0670708522203211  0.7058805390983105  0.2116227851532884
  0.5620153333963237  0.3709698545252854  0.4344261577347441
  0.4365264359434932  0.6217804313783289  0.5213272592055853
  0.8168086910013665  0.7142848922804401  0.8330384972950268
  0.0607199525563005  0.3731652051495644  0.7881216228843699
  0.4366407433137625  0.2963980759462375  0.8760160804263806
  0.3112915588793501  0.0316108508677334  0.1244738128264951
  0.6875754676383329  0.1196540981018590  0.4343991057519792
  0.1837406000111741  0.9526745272174146  0.3451091838931039
  0.0664599616566425  0.2135994674256250  0.8336580379659749
  0.5588958338700171  0.0382430863009154  0.6109773881057788
  0.6902896239661392  0.4557219146304249  0.2118128629641776
  0.1904457284727425  0.7903527460262850  0.7439827151247473
  0.1940845957202625  0.6245227748737139  0.3004205767299188
  0.4413440563542518  0.7875602083900193  0.3890940246214861
  0.4338200519919449  0.2894363932008562  0.2560635649799365
  0.0646091357587609  0.5386143381423889  0.8755517378448229
  0.5660020227807420  0.0404233199860645  0.7439085347331624
  0.1875290344680792  0.7952344994785479  0.8756726857572119
  0.9373547604282977  0.4555031546503011  0.4786410109777435
  0.5655388073911208  0.5405862929230603  0.7438770922796115
  0.8113398723825996  0.2067695710009652  0.5654364716674161
  0.1853415227151498  0.6207635604791261  0.7880856791935317
  0.0666428696150956  0.5383089870287793  0.3891615683898922
  0.0604525242931312  0.7078144868647419  0.6995715048652404
  0.3085449574830203  0.5386956619782152  0.2556208692635300
  0.3152186304887767  0.7036081224183064  0.2123613964599132
  0.3052415417741305  0.8650373360681415  0.1661402544101844
  0.4367776129714964  0.6205566195859031  0.4343839868926175
  0.8179019672121561  0.0388835310733317  0.3892763650592300
  0.9351568026824968  0.2961078759996571  0.8752810172547565
  0.9376071396418049  0.7936998769496328  0.8752044422777656
  0.0655568731688865  0.0375919676002269  0.8753413635328670
  0.5635147637025965  0.5297617786012027  0.1248506929526963
  0.4330604324457588  0.4529041095586289  0.3451770758895246
  0.0623145041266999  0.8709441459721718  0.4344452505191818
  0.9364679139996867  0.1214236293140366  0.5214533492403093
  0.1927912575184924  0.7873302742319569  0.3890700081639397
  0.3155946370725470  0.5402722310863780  0.7441263236866273
 
  0.00000000E+00  0.00000000E+00  0.00000000E+00
  0.00000000E+00  0.00000000E+00  0.00000000E+00
  0.00000000E+00  0.00000000E+00  0.00000000E+00
  0.00000000E+00  0.00000000E+00  0.00000000E+00
  0.00000000E+00  0.00000000E+00  0.00000000E+00
  0.00000000E+00  0.00000000E+00  0.00000000E+00
  0.00000000E+00  0.00000000E+00  0.00000000E+00
  0.00000000E+00  0.00000000E+00  0.00000000E+00
  0.00000000E+00  0.00000000E+00  0.00000000E+00
  0.00000000E+00  0.00000000E+00  0.00000000E+00
  0.00000000E+00  0.00000000E+00  0.00000000E+00
  0.00000000E+00  0.00000000E+00  0.00000000E+00
  0.00000000E+00  0.00000000E+00  0.00000000E+00
  0.00000000E+00  0.00000000E+00  0.00000000E+00
  0.00000000E+00  0.00000000E+00  0.00000000E+00
  0.00000000E+00  0.00000000E+00  0.00000000E+00
  0.00000000E+00  0.00000000E+00  0.00000000E+00
  0.00000000E+00  0.00000000E+00  0.00000000E+00
  0.00000000E+00  0.00000000E+00  0.00000000E+00
  0.00000000E+00  0.00000000E+00  0.00000000E+00
  0.00000000E+00  0.00000000E+00  0.00000000E+00
  0.00000000E+00  0.00000000E+00  0.00000000E+00
  0.00000000E+00  0.00000000E+00  0.00000000E+00
  0.00000000E+00  0.00000000E+00  0.00000000E+00
  0.00000000E+00  0.00000000E+00  0.00000000E+00
  0.00000000E+00  0.00000000E+00  0.00000000E+00
  0.00000000E+00  0.00000000E+00  0.00000000E+00
  0.00000000E+00  0.00000000E+00  0.00000000E+00
  0.00000000E+00  0.00000000E+00  0.00000000E+00
  0.00000000E+00  0.00000000E+00  0.00000000E+00
  0.00000000E+00  0.00000000E+00  0.00000000E+00
  0.00000000E+00  0.00000000E+00  0.00000000E+00
  0.00000000E+00  0.00000000E+00  0.00000000E+00
  0.00000000E+00  0.00000000E+00  0.00000000E+00
  0.00000000E+00  0.00000000E+00  0.00000000E+00
  0.00000000E+00  0.00000000E+00  0.00000000E+00
  0.00000000E+00  0.00000000E+00  0.00000000E+00
  0.00000000E+00  0.00000000E+00  0.00000000E+00
  0.00000000E+00  0.00000000E+00  0.00000000E+00
  0.00000000E+00  0.00000000E+00  0.00000000E+00
  0.00000000E+00  0.00000000E+00  0.00000000E+00
  0.00000000E+00  0.00000000E+00  0.00000000E+00
  0.00000000E+00  0.00000000E+00  0.00000000E+00
  0.00000000E+00  0.00000000E+00  0.00000000E+00
  0.00000000E+00  0.00000000E+00  0.00000000E+00
  0.00000000E+00  0.00000000E+00  0.00000000E+00
  0.00000000E+00  0.00000000E+00  0.00000000E+00
  0.00000000E+00  0.00000000E+00  0.00000000E+00
  0.00000000E+00  0.00000000E+00  0.00000000E+00
  0.00000000E+00  0.00000000E+00  0.00000000E+00
  0.00000000E+00  0.00000000E+00  0.00000000E+00
  0.00000000E+00  0.00000000E+00  0.00000000E+00
  0.00000000E+00  0.00000000E+00  0.00000000E+00
  0.00000000E+00  0.00000000E+00  0.00000000E+00
  0.00000000E+00  0.00000000E+00  0.00000000E+00
  0.00000000E+00  0.00000000E+00  0.00000000E+00
  0.00000000E+00  0.00000000E+00  0.00000000E+00
  0.00000000E+00  0.00000000E+00  0.00000000E+00
  0.00000000E+00  0.00000000E+00  0.00000000E+00
  0.00000000E+00  0.00000000E+00  0.00000000E+00
  0.00000000E+00  0.00000000E+00  0.00000000E+00
  0.00000000E+00  0.00000000E+00  0.00000000E+00
  0.00000000E+00  0.00000000E+00  0.00000000E+00
  0.00000000E+00  0.00000000E+00  0.00000000E+00
  0.00000000E+00  0.00000000E+00  0.00000000E+00
  0.00000000E+00  0.00000000E+00  0.00000000E+00
  0.00000000E+00  0.00000000E+00  0.00000000E+00
  0.00000000E+00  0.00000000E+00  0.00000000E+00
  0.00000000E+00  0.00000000E+00  0.00000000E+00
  0.00000000E+00  0.00000000E+00  0.00000000E+00
  0.00000000E+00  0.00000000E+00  0.00000000E+00
  0.00000000E+00  0.00000000E+00  0.00000000E+00
  0.00000000E+00  0.00000000E+00  0.00000000E+00
  0.00000000E+00  0.00000000E+00  0.00000000E+00
  0.00000000E+00  0.00000000E+00  0.00000000E+00
  0.00000000E+00  0.00000000E+00  0.00000000E+00
  0.00000000E+00  0.00000000E+00  0.00000000E+00
  0.00000000E+00  0.00000000E+00  0.00000000E+00
  0.00000000E+00  0.00000000E+00  0.00000000E+00
  0.00000000E+00  0.00000000E+00  0.00000000E+00
  0.00000000E+00  0.00000000E+00  0.00000000E+00
  0.00000000E+00  0.00000000E+00  0.00000000E+00
  0.00000000E+00  0.00000000E+00  0.00000000E+00
  0.00000000E+00  0.00000000E+00  0.00000000E+00
  0.00000000E+00  0.00000000E+00  0.00000000E+00
  0.00000000E+00  0.00000000E+00  0.00000000E+00
  0.00000000E+00  0.00000000E+00  0.00000000E+00
  0.00000000E+00  0.00000000E+00  0.00000000E+00
  0.00000000E+00  0.00000000E+00  0.00000000E+00
  0.00000000E+00  0.00000000E+00  0.00000000E+00
  0.00000000E+00  0.00000000E+00  0.00000000E+00
  0.00000000E+00  0.00000000E+00  0.00000000E+00
  0.00000000E+00  0.00000000E+00  0.00000000E+00
  0.00000000E+00  0.00000000E+00  0.00000000E+00
  0.00000000E+00  0.00000000E+00  0.00000000E+00
  0.00000000E+00  0.00000000E+00  0.00000000E+00
  0.00000000E+00  0.00000000E+00  0.00000000E+00
  0.00000000E+00  0.00000000E+00  0.00000000E+00
  0.00000000E+00  0.00000000E+00  0.00000000E+00
  0.00000000E+00  0.00000000E+00  0.00000000E+00
  0.00000000E+00  0.00000000E+00  0.00000000E+00
  0.00000000E+00  0.00000000E+00  0.00000000E+00
  0.00000000E+00  0.00000000E+00  0.00000000E+00
  0.00000000E+00  0.00000000E+00  0.00000000E+00
  0.00000000E+00  0.00000000E+00  0.00000000E+00
  0.00000000E+00  0.00000000E+00  0.00000000E+00
  0.00000000E+00  0.00000000E+00  0.00000000E+00
  0.00000000E+00  0.00000000E+00  0.00000000E+00
  0.00000000E+00  0.00000000E+00  0.00000000E+00
  0.00000000E+00  0.00000000E+00  0.00000000E+00
  0.00000000E+00  0.00000000E+00  0.00000000E+00
  0.00000000E+00  0.00000000E+00  0.00000000E+00
  0.00000000E+00  0.00000000E+00  0.00000000E+00
  0.00000000E+00  0.00000000E+00  0.00000000E+00
  0.00000000E+00  0.00000000E+00  0.00000000E+00
  0.00000000E+00  0.00000000E+00  0.00000000E+00
  0.00000000E+00  0.00000000E+00  0.00000000E+00
  0.00000000E+00  0.00000000E+00  0.00000000E+00
  0.00000000E+00  0.00000000E+00  0.00000000E+00
  0.00000000E+00  0.00000000E+00  0.00000000E+00
  0.00000000E+00  0.00000000E+00  0.00000000E+00
  0.00000000E+00  0.00000000E+00  0.00000000E+00
  0.00000000E+00  0.00000000E+00  0.00000000E+00
  0.00000000E+00  0.00000000E+00  0.00000000E+00
  0.00000000E+00  0.00000000E+00  0.00000000E+00
  0.00000000E+00  0.00000000E+00  0.00000000E+00
  0.00000000E+00  0.00000000E+00  0.00000000E+00
  0.00000000E+00  0.00000000E+00  0.00000000E+00
  0.00000000E+00  0.00000000E+00  0.00000000E+00
  0.00000000E+00  0.00000000E+00  0.00000000E+00
  0.00000000E+00  0.00000000E+00  0.00000000E+00
  0.00000000E+00  0.00000000E+00  0.00000000E+00
  0.00000000E+00  0.00000000E+00  0.00000000E+00
  0.00000000E+00  0.00000000E+00  0.00000000E+00
  0.00000000E+00  0.00000000E+00  0.00000000E+00
  0.00000000E+00  0.00000000E+00  0.00000000E+00
  0.00000000E+00  0.00000000E+00  0.00000000E+00
  0.00000000E+00  0.00000000E+00  0.00000000E+00
  0.00000000E+00  0.00000000E+00  0.00000000E+00
  0.00000000E+00  0.00000000E+00  0.00000000E+00
  0.00000000E+00  0.00000000E+00  0.00000000E+00
  0.00000000E+00  0.00000000E+00  0.00000000E+00
  0.00000000E+00  0.00000000E+00  0.00000000E+00
  0.00000000E+00  0.00000000E+00  0.00000000E+00
  0.00000000E+00  0.00000000E+00  0.00000000E+00
  0.00000000E+00  0.00000000E+00  0.00000000E+00
  0.00000000E+00  0.00000000E+00  0.00000000E+00
  0.00000000E+00  0.00000000E+00  0.00000000E+00
  0.00000000E+00  0.00000000E+00  0.00000000E+00
  0.00000000E+00  0.00000000E+00  0.00000000E+00
  0.00000000E+00  0.00000000E+00  0.00000000E+00
  0.00000000E+00  0.00000000E+00  0.00000000E+00
  0.00000000E+00  0.00000000E+00  0.00000000E+00
  0.00000000E+00  0.00000000E+00  0.00000000E+00
  0.00000000E+00  0.00000000E+00  0.00000000E+00
  0.00000000E+00  0.00000000E+00  0.00000000E+00
  0.00000000E+00  0.00000000E+00  0.00000000E+00
  0.00000000E+00  0.00000000E+00  0.00000000E+00
  0.00000000E+00  0.00000000E+00  0.00000000E+00
  0.00000000E+00  0.00000000E+00  0.00000000E+00
  0.00000000E+00  0.00000000E+00  0.00000000E+00
  0.00000000E+00  0.00000000E+00  0.00000000E+00
  0.00000000E+00  0.00000000E+00  0.00000000E+00
  0.00000000E+00  0.00000000E+00  0.00000000E+00
  0.00000000E+00  0.00000000E+00  0.00000000E+00
  0.00000000E+00  0.00000000E+00  0.00000000E+00
  0.00000000E+00  0.00000000E+00  0.00000000E+00
  0.00000000E+00  0.00000000E+00  0.00000000E+00
  0.00000000E+00  0.00000000E+00  0.00000000E+00
  0.00000000E+00  0.00000000E+00  0.00000000E+00
  0.00000000E+00  0.00000000E+00  0.00000000E+00
  0.00000000E+00  0.00000000E+00  0.00000000E+00
  0.00000000E+00  0.00000000E+00  0.00000000E+00
  0.00000000E+00  0.00000000E+00  0.00000000E+00
  0.00000000E+00  0.00000000E+00  0.00000000E+00
  0.00000000E+00  0.00000000E+00  0.00000000E+00
  0.00000000E+00  0.00000000E+00  0.00000000E+00
  0.00000000E+00  0.00000000E+00  0.00000000E+00
  0.00000000E+00  0.00000000E+00  0.00000000E+00
  0.00000000E+00  0.00000000E+00  0.00000000E+00
  0.00000000E+00  0.00000000E+00  0.00000000E+00
  0.00000000E+00  0.00000000E+00  0.00000000E+00
  0.00000000E+00  0.00000000E+00  0.00000000E+00
  0.00000000E+00  0.00000000E+00  0.00000000E+00
  0.00000000E+00  0.00000000E+00  0.00000000E+00
  0.00000000E+00  0.00000000E+00  0.00000000E+00
  0.00000000E+00  0.00000000E+00  0.00000000E+00
  0.00000000E+00  0.00000000E+00  0.00000000E+00
  0.00000000E+00  0.00000000E+00  0.00000000E+00
  0.00000000E+00  0.00000000E+00  0.00000000E+00
  0.00000000E+00  0.00000000E+00  0.00000000E+00
  0.00000000E+00  0.00000000E+00  0.00000000E+00
  0.00000000E+00  0.00000000E+00  0.00000000E+00
  0.00000000E+00  0.00000000E+00  0.00000000E+00
  0.00000000E+00  0.00000000E+00  0.00000000E+00
  0.00000000E+00  0.00000000E+00  0.00000000E+00
  0.00000000E+00  0.00000000E+00  0.00000000E+00
  0.00000000E+00  0.00000000E+00  0.00000000E+00
  0.00000000E+00  0.00000000E+00  0.00000000E+00
  0.00000000E+00  0.00000000E+00  0.00000000E+00
  0.00000000E+00  0.00000000E+00  0.00000000E+00
  0.00000000E+00  0.00000000E+00  0.00000000E+00
  0.00000000E+00  0.00000000E+00  0.00000000E+00
  0.00000000E+00  0.00000000E+00  0.00000000E+00
  0.00000000E+00  0.00000000E+00  0.00000000E+00
  0.00000000E+00  0.00000000E+00  0.00000000E+00
  0.00000000E+00  0.00000000E+00  0.00000000E+00
  0.00000000E+00  0.00000000E+00  0.00000000E+00
  0.00000000E+00  0.00000000E+00  0.00000000E+00
  0.00000000E+00  0.00000000E+00  0.00000000E+00
  0.00000000E+00  0.00000000E+00  0.00000000E+00
  0.00000000E+00  0.00000000E+00  0.00000000E+00
  0.00000000E+00  0.00000000E+00  0.00000000E+00
  0.00000000E+00  0.00000000E+00  0.00000000E+00
  0.00000000E+00  0.00000000E+00  0.00000000E+00
  0.00000000E+00  0.00000000E+00  0.00000000E+00
  0.00000000E+00  0.00000000E+00  0.00000000E+00
  0.00000000E+00  0.00000000E+00  0.00000000E+00
  0.00000000E+00  0.00000000E+00  0.00000000E+00
  0.00000000E+00  0.00000000E+00  0.00000000E+00
  0.00000000E+00  0.00000000E+00  0.00000000E+00
  0.00000000E+00  0.00000000E+00  0.00000000E+00
  0.00000000E+00  0.00000000E+00  0.00000000E+00
  0.00000000E+00  0.00000000E+00  0.00000000E+00
  0.00000000E+00  0.00000000E+00  0.00000000E+00
  0.00000000E+00  0.00000000E+00  0.00000000E+00
  0.00000000E+00  0.00000000E+00  0.00000000E+00
  0.00000000E+00  0.00000000E+00  0.00000000E+00
  0.00000000E+00  0.00000000E+00  0.00000000E+00
  0.00000000E+00  0.00000000E+00  0.00000000E+00
  0.00000000E+00  0.00000000E+00  0.00000000E+00
  0.00000000E+00  0.00000000E+00  0.00000000E+00
  0.00000000E+00  0.00000000E+00  0.00000000E+00
  0.00000000E+00  0.00000000E+00  0.00000000E+00
  0.00000000E+00  0.00000000E+00  0.00000000E+00
  0.00000000E+00  0.00000000E+00  0.00000000E+00
  0.00000000E+00  0.00000000E+00  0.00000000E+00
  0.00000000E+00  0.00000000E+00  0.00000000E+00
  0.00000000E+00  0.00000000E+00  0.00000000E+00
  0.00000000E+00  0.00000000E+00  0.00000000E+00
  0.00000000E+00  0.00000000E+00  0.00000000E+00
  0.00000000E+00  0.00000000E+00  0.00000000E+00
  0.00000000E+00  0.00000000E+00  0.00000000E+00
  0.00000000E+00  0.00000000E+00  0.00000000E+00
  0.00000000E+00  0.00000000E+00  0.00000000E+00
  0.00000000E+00  0.00000000E+00  0.00000000E+00
  0.00000000E+00  0.00000000E+00  0.00000000E+00