FeMn_288_15                             
    1.000000000000000     
     9.7266779999999997    0.0000000000000000    0.0000000000000000
     0.0000000000000000    8.4235500000000005    0.0000000000000000
     0.0000000000000000    0.0000000000000000   45.0000000000000000
   Fe   Mn
   273    15
Direct
  0.0621451043185008  0.7049974626773881  0.4786026044337076
  0.8123787074948868  0.7071678850399101  0.8310356490084982
  0.9373299637309686  0.1225005366960303  0.4348502092824266
  0.1877998526052770  0.7899560645078425  0.8732755236166868
  0.3126573976726983  0.2049194621652866  0.5648146310932383
  0.8124305919531077  0.5389785721676938  0.7422587532072306
  0.5624841720255780  0.2053374452009638  0.2137328020221480
  0.0624878819253663  0.8724514651165590  0.4348663941349205
  0.4374975336284415  0.9555466653680704  0.3463656525380456
  0.8124695651253666  0.0384307994194700  0.1268549705815118
  0.6876409878206168  0.7890008463264115  0.7422004381935364
  0.4375436863583407  0.4553673124425878  0.2136818304688591
  0.8125154800306075  0.2053572814293340  0.2137349324333750
  0.0623041227768465  0.3719454837957753  0.5213784599220648
  0.8126958247251280  0.3718906792353839  0.4348564398138108
  0.6872738955065538  0.7889156192380465  0.3901426041706287
  0.6875671957640400  0.1223428360633354  0.3019247083239806
  0.4373248028625569  0.9553419731988212  0.2137364736417810
  0.1875794452185613  0.9553877415886579  0.6980464231233051
  0.9373620030409144  0.6216062181969145  0.1688962596146157
  0.3124110466540641  0.8725042354290306  0.5212647650576944
  0.3125088578768145  0.3718751411608010  0.3018818710791908
  0.6877059960248345  0.1218227794886981  0.5213202051437122
  0.5626922782938028  0.2061217336114169  0.4786762507580520
  0.8125258840777451  0.3715767159624462  0.1689581653638161
  0.4369793018860987  0.9561799835442677  0.8310952824836774
  0.8124700811646676  0.3719133634457487  0.5213469954944371
  0.9377550489227092  0.4555796877726676  0.4786005753789582
  0.0625432955711993  0.7053726697239545  0.5650327690298788
  0.4380707907514445  0.1222024084444864  0.4347445463490659
  0.3124791868436895  0.0384799620411393  0.1268248791233633
  0.8124513500065924  0.7053812010755981  0.2136858506927932
  0.9376747111531769  0.2891665062449472  0.7421376870321961
  0.4372562420044578  0.1225147019798228  0.7861961494648222
  0.0625305110560717  0.8722095325342230  0.5213279122657857
  0.8123779871493163  0.7058914080660730  0.3463148884625191
  0.0622382680697974  0.2058483837517353  0.3463262541259520
  0.8121284075659622  0.2057000372614766  0.4785382166859883
  0.6877839354771492  0.7896725414495086  0.8733076459754679
  0.0624205986637758  0.7060665990323982  0.8311270213513162
  0.4375216748667487  0.9556386921284813  0.6981065719451386
  0.3122858487610272  0.2061818150893335  0.8311193237405791
  0.6874528217241447  0.6217977583529064  0.1689672582396048
  0.1875937523413582  0.4561329328795034  0.8310801198248907
  0.1869246166805109  0.1220628129870139  0.5212362865790858
  0.8126556761599444  0.5387510925560129  0.6097780857524071
  0.3124436633667445  0.7054040407864907  0.3463757835825184
  0.4371680240537419  0.2885617872836925  0.6097812456902967
  0.4374375531341659  0.7891851001199451  0.7422142002222610
  0.5624547598779410  0.0390836743288323  0.2578813249386788
  0.3127638133152983  0.3721095932671699  0.4351044643865221
  0.4373525052725264  0.1216819464249078  0.1689816579228121
  0.6872907757707420  0.2885022014166516  0.3901840286607440
  0.6870980122614840  0.9555541460278262  0.4786288184457038
  0.5623773213128007  0.8716294715574429  0.1689776021891052
  0.3125657549540345  0.7053493543994569  0.2136835410039243
  0.0625540101435312  0.8726467251872941  0.7863256729592254
  0.1876046640901926  0.7890710215681074  0.7421678662153902
  0.6874722538259417  0.6222593543508061  0.4347729277506592
  0.3126969265746069  0.5394084656867881  0.8733034637036177
  0.8122455920044022  0.8718938648810377  0.5212691692974927
  0.8124781574326371  0.0389633433924458  0.7421945649862992
  0.6876729400311291  0.1219947236794185  0.4348988048150699
  0.4379499246394944  0.4557218864393590  0.4785856054144915
  0.0626754018963790  0.3721917217250675  0.4346840667577609
  0.9373926497491590  0.4554821576327712  0.2136888832337314
  0.8124646434124202  0.5389116561054856  0.3901678332567529
  0.0625072224618959  0.2055126601929579  0.6981984169842794
  0.8124786801080430  0.8724659150928440  0.3018504964648830
  0.1875221237586927  0.4553444303966534  0.3463193395966423
  0.4376189155014072  0.1220643276233897  0.6537152239187818
  0.4379267813718448  0.4560656263233323  0.8311703114034782
  0.0625050254357206  0.7053918234342887  0.6978486156393279
  0.5623379480328056  0.0389763845141104  0.3901422197807564
  0.8126344215551672  0.5385392716878523  0.1268581029510216
  0.0624883338386690  0.0399768554465056  0.8732881514043945
  0.3125457507255779  0.3718723770328901  0.1689681207727777
  0.6876095219808547  0.9551722322016224  0.5651307316201637
  0.9373602063589090  0.4557955747399835  0.5650350683365034
  0.5629443821004848  0.0383260393987969  0.6097461964714195
  0.9380580494400168  0.1226696668586342  0.7862248804885771
  0.5626613360272279  0.0395383581855209  0.8733249070736139
  0.1873985102455172  0.1227477620960982  0.7863527456706705
  0.8121615848237997  0.3723582872003253  0.6538641603406057
  0.5623488747728951  0.8728996145775241  0.7863241193061862
  0.9372428763819475  0.9553471928703191  0.5648482295791858
  0.4376360285581901  0.4554420001319515  0.3462151931315320
  0.9375553884927708  0.1222141727666167  0.5212612507069982
  0.0625654288277219  0.3726614339217877  0.7862702675210400
  0.3125686538334603  0.0394091329657877  0.8733424207346980
  0.5625014930708483  0.0384124576690245  0.1268646589357979
  0.1877819161072356  0.9561341017406200  0.8311823413681680
  0.9371567967629709  0.6224228923016705  0.4348304035679555
  0.4380372157987159  0.1220385231019873  0.5212700658039634
  0.6874530254864277  0.6230068688461708  0.7861256960961294
  0.5625519782280609  0.7056406567271128  0.6978824989752794
  0.6875071324380362  0.9556530767324636  0.3463364420060696
  0.9376588604360692  0.6227526194703775  0.3018228068467602
  0.8124927078901757  0.7050201468190159  0.4786322071465190
  0.9371693650691423  0.2887187779776230  0.2578860600522290
  0.9375739216767101  0.7889642465568217  0.6097401401975470
  0.9375830135650758  0.2893637191694025  0.3901198832473822
  0.5630856731559204  0.2067344568598452  0.8312408217508219
  0.6874784109585557  0.2882362365596333  0.1268556275877079
  0.5624425047525525  0.3722638874237529  0.3019601057104010
  0.0622688532140141  0.5385996448487622  0.6097785462246256
  0.8124911798067606  0.5383758296670665  0.2578688321669327
  0.1874433422133144  0.4555536602996446  0.2137569717526554
  0.9372974717060309  0.2892129845811928  0.6097976367407911
  0.5628441556509084  0.7053564358597578  0.4786070786497214
  0.6875020036715942  0.7887876941581095  0.2578422254780801
  0.6875375422439534  0.4556954620662920  0.6980491370283766
  0.0624585571774939  0.5388589602769440  0.2578372927828725
  0.6874539199237768  0.1229769077537470  0.7863696222273383
  0.3126464908919870  0.5396153843538443  0.7421777428155130
  0.4376343840512784  0.4558103212516538  0.5651836843823163
  0.8125523543022771  0.8716708427809091  0.1689968855788472
  0.3124995836595266  0.5390413147143718  0.3901007027010893
  0.5624800675422935  0.5390621881315836  0.7421552355929484
  0.5624989482810916  0.7051204689688868  0.5650315324356622
  0.6874865433863169  0.4556609475089769  0.8311604197573456
  0.5626171001879426  0.7067235136470236  0.8311382812120837
  0.8125605395519965  0.3726110765749588  0.7863698127372776
  0.4374587816132809  0.2893546871653018  0.3902043448977160
  0.5626291532691245  0.2057203130268702  0.6981525118951457
  0.0626295205416896  0.7057513396637484  0.3462263955811208
  0.3125957965298671  0.8724517276258472  0.4347960560440201
  0.9374344913321150  0.6220875642076416  0.5213066957192872
  0.9375849889129433  0.9553373244515205  0.6981281923227729
  0.8120794196705698  0.8721356554944121  0.4348541733858445
  0.0625058308421418  0.0388578286960786  0.2578267091367632
  0.1873569932339048  0.1220486473900005  0.6537455627929238
  0.6875516957057205  0.7885681055003115  0.6097256591126275
  0.5625408008504916  0.5385990014467608  0.2578969201920053
  0.1877287047366408  0.2897916931528169  0.8733257413064331
  0.3125431115605264  0.7066262406993929  0.8310428537138415
  0.5623164914258155  0.5385455461994487  0.1268573789002903
  0.4375992418168761  0.6219689474490864  0.6536944405329418
  0.4375375331834747  0.9550233997183207  0.4785521221660399
  0.9373579689712681  0.1225228049135438  0.3018543410536598
  0.3127861290773865  0.8721296883965599  0.6536956563843379
  0.0624577627239285  0.5384368470114199  0.1268129930317033
  0.1876144586092111  0.6219050963094360  0.3018705845380370
  0.6875756691039198  0.6220224318998204  0.5213198326933409
  0.6873616977779885  0.6222453576161139  0.6536891781247336
  0.5626469281096564  0.2055951679923081  0.3463138420879128
  0.0624595668300035  0.0384528758530878  0.1268296863522612
  0.9374997148397962  0.7884745708402030  0.1268133973326074
  0.0627459368707014  0.2061081398489225  0.4786576611121030
  0.4376273966019698  0.7886623119339397  0.3901700026564021
  0.3124408146892252  0.5390024520908966  0.2579060484475120
  0.4376189528362491  0.1221485397798296  0.3019521055643160
  0.0624724706288272  0.2055720168745730  0.2137205587880430
  0.5624706285087242  0.0391514182697139  0.7422246889981944
  0.8125982189838606  0.2058365088868730  0.6980134709048643
  0.0629648136809908  0.8721173869918447  0.6536747760034581
  0.0624082658705241  0.5390224671939399  0.7421810665534484
  0.3125713100806018  0.8721660087810650  0.3019211324043946
  0.1873180161389500  0.4556434173524821  0.4786356261667626
  0.0625846171926765  0.8721125372621171  0.3018339503056319
  0.4374612756823552  0.4555693891276542  0.6980793883332280
  0.1879323762801030  0.9551401727348862  0.4785031898299789
  0.3126130618335701  0.7054247609713385  0.4786141834221169
  0.9374166379347442  0.4555457453283036  0.6980496240945467
  0.6875005355320599  0.1217300088431436  0.1689796259336419
  0.8121212051018255  0.2056163617844260  0.5650686939137947
  0.1874341341212102  0.7888438617749411  0.6097821597039995
  0.6873585887144510  0.2890001781200340  0.7421474039992182
  0.0623730264951362  0.7054447298277456  0.2137175088922018
  0.9375868178650500  0.6223323522946325  0.7862826530465578
  0.6874642095283825  0.7884217427732249  0.1268445299042047
  0.1875134349784851  0.6225663128485098  0.5213166994540521
  0.6874655704626957  0.1218314074171975  0.6536425014044542
  0.1874769555456751  0.9554863183648220  0.2137287133236289
  0.9376246953854390  0.1220910216753845  0.6536648773288846
  0.4373078728082668  0.6221660673329910  0.3018367772988158
  0.1880266116493562  0.2893438699811642  0.3901935364965628
  0.4378197330855076  0.2887818267508812  0.2578919322418806
  0.1875533878170439  0.4553978768120002  0.6981040060032335
  0.4372974237112431  0.9547050756786623  0.5651391584704211
  0.1875102147607826  0.6215952160640228  0.6536911981843448
  0.9380858756410870  0.2904198800783312  0.8732935193965443
  0.0626850399065967  0.5393969466292000  0.3901705441430539
  0.5628304120863563  0.8721224888202662  0.5213378595773629
  0.1880160234806744  0.2889397844968488  0.6097029461164689
  0.8124933154323050  0.0387633899934106  0.6097411601088917
  0.9374932739527386  0.6219734807038242  0.6536653613783920
  0.6875166023774704  0.9553635013024100  0.2137316951279901
  0.0623931639942454  0.3718918733565642  0.1689629025141215
  0.8124857869743117  0.2060397134213023  0.3462638282672478
  0.9372569170862891  0.4557687062760667  0.3462674605900130
  0.3125492383485308  0.2055548654435241  0.3463250835982440
  0.1874182307267458  0.1218934260682274  0.3019039948817610
  0.1873868173221635  0.4558835001276368  0.5652212651368451
  0.3126072295387622  0.0392109243558092  0.7422602132836154
  0.3126918112339257  0.3721157282660246  0.6538068569892883
  0.9373695164268337  0.7897247059723115  0.8733026440707642
  0.5623258354063320  0.8721738118423571  0.3018626083165803
  0.1878213850607461  0.7890081298053842  0.3901184862762664
  0.5622893756734910  0.3719088285711554  0.6537213836614955
  0.5625270781677408  0.7052300601787340  0.2137416658352767
  0.3123635247832341  0.5380002009588927  0.6096998132922787
  0.9374989939698214  0.2884416206370695  0.1268332474660223
  0.9374417000340634  0.9562738303650570  0.8311252404976003
  0.9374529252968546  0.9559548458770090  0.3463599798911239
  0.3124569568883828  0.8717807870856011  0.1689556885554198
  0.0624768134599967  0.0388682454681545  0.7423643789727802
  0.1870115824385148  0.1217967611184730  0.4347397030624772
  0.0620920070720725  0.0387110833344751  0.6098098898763992
  0.4374374975641801  0.2884201941891391  0.1268407501132865
  0.4377583128734897  0.7888448611788448  0.2579061614214019
  0.5619511418549201  0.5386045679166086  0.3901594303960692
  0.3124578880916146  0.0387889350813728  0.2578878659830990
  0.1874738389728074  0.2882004578351466  0.1268581866280058
  0.0625131182408258  0.8718182405049747  0.1689540465421563
  0.4375156028278689  0.7885640937933378  0.6097568108448500
  0.1874571587220848  0.2888896896716525  0.2578495634910195
  0.4374969515272136  0.7884791097086151  0.1268211053029479
  0.3125535548627975  0.7053047994925653  0.6981521659741418
  0.1874802485381256  0.6218319931800691  0.1689366547953777
  0.4375839575174695  0.2894451098113583  0.7421623198768297
  0.6874752118533252  0.2887162923092313  0.2578262053588979
  0.6874192957718388  0.9557299628213053  0.6980532295997669
  0.9370259899454065  0.4560579207054021  0.8311720914593684
  0.3124997971050269  0.5384080920261216  0.1268214069923231
  0.4370532905170568  0.7897869203644049  0.8732994582667020
  0.6877119809189172  0.9569211663803017  0.8313690793196038
  0.0623995760743141  0.0387531635139287  0.3902225006055227
  0.6876420822008615  0.4557579606787419  0.5650771613881429
  0.3122618630459887  0.2058343267732841  0.6980977211597583
  0.4376069699311377  0.6216217164934698  0.1689017141543345
  0.5620428461722328  0.8721298189833478  0.6536677640826822
  0.5626417866588557  0.3718325938354964  0.5213409920377617
  0.6875436613041898  0.4553022626452835  0.2137333837388989
  0.3123526001820624  0.0395920229858060  0.3902528127763072
  0.8124963375639426  0.0390414285726367  0.2578787183014492
  0.5628522164929930  0.5385269442868839  0.6098380388212542
  0.4376633710188219  0.6223260850221174  0.7862178299984264
  0.0624628487843059  0.3721960676886382  0.3018998017520361
  0.1879734374163274  0.9549351374269708  0.5652167435792858
  0.1874042372853971  0.2895433044692802  0.7422461910604252
  0.1874673465070838  0.1220659784349161  0.1688881287168668
  0.3125202482906266  0.3723810726311029  0.7863516704284157
  0.1874381292879647  0.7884454215955589  0.1268232946586968
  0.0623833832274667  0.5398734988207018  0.8732681231856910
  0.6873953434612950  0.4557561819775075  0.3462791925220707
  0.6872184379669386  0.4556185149143515  0.4785530312764146
  0.0626694084606318  0.2059752751327361  0.8311216452101252
  0.9376231889921098  0.9554156618623223  0.2136978411396964
  0.5626708778148455  0.8724641997993775  0.4348744772389883
  0.9373363504902629  0.7889319178606135  0.7422151528945538
  0.6874263764429257  0.2891371628781708  0.6097880446839120
  0.8123878290564742  0.0389228093990787  0.8733696524049944
  0.9375763127582037  0.1217367503534605  0.1689771662422292
  0.3125274152317931  0.7051403510518166  0.5651290497502037
  0.8125129088110032  0.3729590361407017  0.3018807939924525
  0.8124246534268239  0.7058004810240857  0.6981162163893542
  0.3124392024647785  0.2055741733909455  0.2137349761994764
  0.8119938272044944  0.2067532132944055  0.8312452476317980
  0.5624524035642440  0.7056107278090975  0.3463155939225463
  0.8125465931506521  0.7052513838683779  0.5652120235857948
  0.1873926512367610  0.9556679766402176  0.3462220883504641
  0.4366503206899123  0.2904505970949511  0.8732756334540960
  0.6873076043640094  0.6224761657405088  0.3018308038567074
  0.8134286542438115  0.5392009864164804  0.8732302544359524
  0.5624468811763398  0.3716006735059519  0.1689730592698298
  0.9372159085036003  0.7886661836740200  0.2578499977080396
  0.4378520752292699  0.6225352625040153  0.4347339164476324
  0.5624154568897979  0.3726935847189978  0.7863008531029446
  0.5615717696110248  0.5396970186961764  0.8732033084543138
  0.4376499308073827  0.6225023281860659  0.5214124153960669
  0.5622647222483296  0.3718779135728095  0.4346661570008188
  0.1873834689364969  0.6221163691196704  0.7863373941565442
  0.9375763647246725  0.9553559384757916  0.4787185595245806
  0.8122710096566756  0.8721048571395277  0.6535814073707488
  0.8122263927481329  0.0392029480236103  0.3900853891860157
  0.5623424212053630  0.2053449501815330  0.5652625631771530
  0.0626313515223720  0.3718286327685011  0.6536674369930651
  0.6877212061903978  0.2898090292764356  0.8730694954169064
  0.1873818418874123  0.7889528884892751  0.2577965638653688
  0.1873123790530587  0.6228956040600214  0.4346859101202957
  0.3125449811451531  0.0386939858769939  0.6098272236278260
  0.8126507796560098  0.8727108699661945  0.7860672707458342
  0.0628033676383740  0.2057024558693317  0.5654069320204490
  0.3126656893546455  0.3718977034217439  0.5213117649186851
  0.9379222378178699  0.7883438682581204  0.3901671175772422
  0.3125018833124259  0.2057153547907348  0.4785437310529472
  0.3125668173348754  0.8723765886920941  0.7861329535928212
 
  0.00000000E+00  0.00000000E+00  0.00000000E+00
  0.00000000E+00  0.00000000E+00  0.00000000E+00
  0.00000000E+00  0.00000000E+00  0.00000000E+00
  0.00000000E+00  0.00000000E+00  0.00000000E+00
  0.00000000E+00  0.00000000E+00  0.00000000E+00
  0.00000000E+00  0.00000000E+00  0.00000000E+00
  0.00000000E+00  0.00000000E+00  0.00000000E+00
  0.00000000E+00  0.00000000E+00  0.00000000E+00
  0.00000000E+00  0.00000000E+00  0.00000000E+00
  0.00000000E+00  0.00000000E+00  0.00000000E+00
  0.00000000E+00  0.00000000E+00  0.00000000E+00
  0.00000000E+00  0.00000000E+00  0.00000000E+00
  0.00000000E+00  0.00000000E+00  0.00000000E+00
  0.00000000E+00  0.00000000E+00  0.00000000E+00
  0.00000000E+00  0.00000000E+00  0.00000000E+00
  0.00000000E+00  0.00000000E+00  0.00000000E+00
  0.00000000E+00  0.00000000E+00  0.00000000E+00
  0.00000000E+00  0.00000000E+00  0.00000000E+00
  0.00000000E+00  0.00000000E+00  0.00000000E+00
  0.00000000E+00  0.00000000E+00  0.00000000E+00
  0.00000000E+00  0.00000000E+00  0.00000000E+00
  0.00000000E+00  0.00000000E+00  0.00000000E+00
  0.00000000E+00  0.00000000E+00  0.00000000E+00
  0.00000000E+00  0.00000000E+00  0.00000000E+00
  0.00000000E+00  0.00000000E+00  0.00000000E+00
  0.00000000E+00  0.00000000E+00  0.00000000E+00
  0.00000000E+00  0.00000000E+00  0.00000000E+00
  0.00000000E+00  0.00000000E+00  0.00000000E+00
  0.00000000E+00  0.00000000E+00  0.00000000E+00
  0.00000000E+00  0.00000000E+00  0.00000000E+00
  0.00000000E+00  0.00000000E+00  0.00000000E+00
  0.00000000E+00  0.00000000E+00  0.00000000E+00
  0.00000000E+00  0.00000000E+00  0.00000000E+00
  0.00000000E+00  0.00000000E+00  0.00000000E+00
  0.00000000E+00  0.00000000E+00  0.00000000E+00
  0.00000000E+00  0.00000000E+00  0.00000000E+00
  0.00000000E+00  0.00000000E+00  0.00000000E+00
  0.00000000E+00  0.00000000E+00  0.00000000E+00
  0.00000000E+00  0.00000000E+00  0.00000000E+00
  0.00000000E+00  0.00000000E+00  0.00000000E+00
  0.00000000E+00  0.00000000E+00  0.00000000E+00
  0.00000000E+00  0.00000000E+00  0.00000000E+00
  0.00000000E+00  0.00000000E+00  0.00000000E+00
  0.00000000E+00  0.00000000E+00  0.00000000E+00
  0.00000000E+00  0.00000000E+00  0.00000000E+00
  0.00000000E+00  0.00000000E+00  0.00000000E+00
  0.00000000E+00  0.00000000E+00  0.00000000E+00
  0.00000000E+00  0.00000000E+00  0.00000000E+00
  0.00000000E+00  0.00000000E+00  0.00000000E+00
  0.00000000E+00  0.00000000E+00  0.00000000E+00
  0.00000000E+00  0.00000000E+00  0.00000000E+00
  0.00000000E+00  0.00000000E+00  0.00000000E+00
  0.00000000E+00  0.00000000E+00  0.00000000E+00
  0.00000000E+00  0.00000000E+00  0.00000000E+00
  0.00000000E+00  0.00000000E+00  0.00000000E+00
  0.00000000E+00  0.00000000E+00  0.00000000E+00
  0.00000000E+00  0.00000000E+00  0.00000000E+00
  0.00000000E+00  0.00000000E+00  0.00000000E+00
  0.00000000E+00  0.00000000E+00  0.00000000E+00
  0.00000000E+00  0.00000000E+00  0.00000000E+00
  0.00000000E+00  0.00000000E+00  0.00000000E+00
  0.00000000E+00  0.00000000E+00  0.00000000E+00
  0.00000000E+00  0.00000000E+00  0.00000000E+00
  0.00000000E+00  0.00000000E+00  0.00000000E+00
  0.00000000E+00  0.00000000E+00  0.00000000E+00
  0.00000000E+00  0.00000000E+00  0.00000000E+00
  0.00000000E+00  0.00000000E+00  0.00000000E+00
  0.00000000E+00  0.00000000E+00  0.00000000E+00
  0.00000000E+00  0.00000000E+00  0.00000000E+00
  0.00000000E+00  0.00000000E+00  0.00000000E+00
  0.00000000E+00  0.00000000E+00  0.00000000E+00
  0.00000000E+00  0.00000000E+00  0.00000000E+00
  0.00000000E+00  0.00000000E+00  0.00000000E+00
  0.00000000E+00  0.00000000E+00  0.00000000E+00
  0.00000000E+00  0.00000000E+00  0.00000000E+00
  0.00000000E+00  0.00000000E+00  0.00000000E+00
  0.00000000E+00  0.00000000E+00  0.00000000E+00
  0.00000000E+00  0.00000000E+00  0.00000000E+00
  0.00000000E+00  0.00000000E+00  0.00000000E+00
  0.00000000E+00  0.00000000E+00  0.00000000E+00
  0.00000000E+00  0.00000000E+00  0.00000000E+00
  0.00000000E+00  0.00000000E+00  0.00000000E+00
  0.00000000E+00  0.00000000E+00  0.00000000E+00
  0.00000000E+00  0.00000000E+00  0.00000000E+00
  0.00000000E+00  0.00000000E+00  0.00000000E+00
  0.00000000E+00  0.00000000E+00  0.00000000E+00
  0.00000000E+00  0.00000000E+00  0.00000000E+00
  0.00000000E+00  0.00000000E+00  0.00000000E+00
  0.00000000E+00  0.00000000E+00  0.00000000E+00
  0.00000000E+00  0.00000000E+00  0.00000000E+00
  0.00000000E+00  0.00000000E+00  0.00000000E+00
  0.00000000E+00  0.00000000E+00  0.00000000E+00
  0.00000000E+00  0.00000000E+00  0.00000000E+00
  0.00000000E+00  0.00000000E+00  0.00000000E+00
  0.00000000E+00  0.00000000E+00  0.00000000E+00
  0.00000000E+00  0.00000000E+00  0.00000000E+00
  0.00000000E+00  0.00000000E+00  0.00000000E+00
  0.00000000E+00  0.00000000E+00  0.00000000E+00
  0.00000000E+00  0.00000000E+00  0.00000000E+00
  0.00000000E+00  0.00000000E+00  0.00000000E+00
  0.00000000E+00  0.00000000E+00  0.00000000E+00
  0.00000000E+00  0.00000000E+00  0.00000000E+00
  0.00000000E+00  0.00000000E+00  0.00000000E+00
  0.00000000E+00  0.00000000E+00  0.00000000E+00
  0.00000000E+00  0.00000000E+00  0.00000000E+00
  0.00000000E+00  0.00000000E+00  0.00000000E+00
  0.00000000E+00  0.00000000E+00  0.00000000E+00
  0.00000000E+00  0.00000000E+00  0.00000000E+00
  0.00000000E+00  0.00000000E+00  0.00000000E+00
  0.00000000E+00  0.00000000E+00  0.00000000E+00
  0.00000000E+00  0.00000000E+00  0.00000000E+00
  0.00000000E+00  0.00000000E+00  0.00000000E+00
  0.00000000E+00  0.00000000E+00  0.00000000E+00
  0.00000000E+00  0.00000000E+00  0.00000000E+00
  0.00000000E+00  0.00000000E+00  0.00000000E+00
  0.00000000E+00  0.00000000E+00  0.00000000E+00
  0.00000000E+00  0.00000000E+00  0.00000000E+00
  0.00000000E+00  0.00000000E+00  0.00000000E+00
  0.00000000E+00  0.00000000E+00  0.00000000E+00
  0.00000000E+00  0.00000000E+00  0.00000000E+00
  0.00000000E+00  0.00000000E+00  0.00000000E+00
  0.00000000E+00  0.00000000E+00  0.00000000E+00
  0.00000000E+00  0.00000000E+00  0.00000000E+00
  0.00000000E+00  0.00000000E+00  0.00000000E+00
  0.00000000E+00  0.00000000E+00  0.00000000E+00
  0.00000000E+00  0.00000000E+00  0.00000000E+00
  0.00000000E+00  0.00000000E+00  0.00000000E+00
  0.00000000E+00  0.00000000E+00  0.00000000E+00
  0.00000000E+00  0.00000000E+00  0.00000000E+00
  0.00000000E+00  0.00000000E+00  0.00000000E+00
  0.00000000E+00  0.00000000E+00  0.00000000E+00
  0.00000000E+00  0.00000000E+00  0.00000000E+00
  0.00000000E+00  0.00000000E+00  0.00000000E+00
  0.00000000E+00  0.00000000E+00  0.00000000E+00
  0.00000000E+00  0.00000000E+00  0.00000000E+00
  0.00000000E+00  0.00000000E+00  0.00000000E+00
  0.00000000E+00  0.00000000E+00  0.00000000E+00
  0.00000000E+00  0.00000000E+00  0.00000000E+00
  0.00000000E+00  0.00000000E+00  0.00000000E+00
  0.00000000E+00  0.00000000E+00  0.00000000E+00
  0.00000000E+00  0.00000000E+00  0.00000000E+00
  0.00000000E+00  0.00000000E+00  0.00000000E+00
  0.00000000E+00  0.00000000E+00  0.00000000E+00
  0.00000000E+00  0.00000000E+00  0.00000000E+00
  0.00000000E+00  0.00000000E+00  0.00000000E+00
  0.00000000E+00  0.00000000E+00  0.00000000E+00
  0.00000000E+00  0.00000000E+00  0.00000000E+00
  0.00000000E+00  0.00000000E+00  0.00000000E+00
  0.00000000E+00  0.00000000E+00  0.00000000E+00
  0.00000000E+00  0.00000000E+00  0.00000000E+00
  0.00000000E+00  0.00000000E+00  0.00000000E+00
  0.00000000E+00  0.00000000E+00  0.00000000E+00
  0.00000000E+00  0.00000000E+00  0.00000000E+00
  0.00000000E+00  0.00000000E+00  0.00000000E+00
  0.00000000E+00  0.00000000E+00  0.00000000E+00
  0.00000000E+00  0.00000000E+00  0.00000000E+00
  0.00000000E+00  0.00000000E+00  0.00000000E+00
  0.00000000E+00  0.00000000E+00  0.00000000E+00
  0.00000000E+00  0.00000000E+00  0.00000000E+00
  0.00000000E+00  0.00000000E+00  0.00000000E+00
  0.00000000E+00  0.00000000E+00  0.00000000E+00
  0.00000000E+00  0.00000000E+00  0.00000000E+00
  0.00000000E+00  0.00000000E+00  0.00000000E+00
  0.00000000E+00  0.00000000E+00  0.00000000E+00
  0.00000000E+00  0.00000000E+00  0.00000000E+00
  0.00000000E+00  0.00000000E+00  0.00000000E+00
  0.00000000E+00  0.00000000E+00  0.00000000E+00
  0.00000000E+00  0.00000000E+00  0.00000000E+00
  0.00000000E+00  0.00000000E+00  0.00000000E+00
  0.00000000E+00  0.00000000E+00  0.00000000E+00
  0.00000000E+00  0.00000000E+00  0.00000000E+00
  0.00000000E+00  0.00000000E+00  0.00000000E+00
  0.00000000E+00  0.00000000E+00  0.00000000E+00
  0.00000000E+00  0.00000000E+00  0.00000000E+00
  0.00000000E+00  0.00000000E+00  0.00000000E+00
  0.00000000E+00  0.00000000E+00  0.00000000E+00
  0.00000000E+00  0.00000000E+00  0.00000000E+00
  0.00000000E+00  0.00000000E+00  0.00000000E+00
  0.00000000E+00  0.00000000E+00  0.00000000E+00
  0.00000000E+00  0.00000000E+00  0.00000000E+00
  0.00000000E+00  0.00000000E+00  0.00000000E+00
  0.00000000E+00  0.00000000E+00  0.00000000E+00
  0.00000000E+00  0.00000000E+00  0.00000000E+00
  0.00000000E+00  0.00000000E+00  0.00000000E+00
  0.00000000E+00  0.00000000E+00  0.00000000E+00
  0.00000000E+00  0.00000000E+00  0.00000000E+00
  0.00000000E+00  0.00000000E+00  0.00000000E+00
  0.00000000E+00  0.00000000E+00  0.00000000E+00
  0.00000000E+00  0.00000000E+00  0.00000000E+00
  0.00000000E+00  0.00000000E+00  0.00000000E+00
  0.00000000E+00  0.00000000E+00  0.00000000E+00
  0.00000000E+00  0.00000000E+00  0.00000000E+00
  0.00000000E+00  0.00000000E+00  0.00000000E+00
  0.00000000E+00  0.00000000E+00  0.00000000E+00
  0.00000000E+00  0.00000000E+00  0.00000000E+00
  0.00000000E+00  0.00000000E+00  0.00000000E+00
  0.00000000E+00  0.00000000E+00  0.00000000E+00
  0.00000000E+00  0.00000000E+00  0.00000000E+00
  0.00000000E+00  0.00000000E+00  0.00000000E+00
  0.00000000E+00  0.00000000E+00  0.00000000E+00
  0.00000000E+00  0.00000000E+00  0.00000000E+00
  0.00000000E+00  0.00000000E+00  0.00000000E+00
  0.00000000E+00  0.00000000E+00  0.00000000E+00
  0.00000000E+00  0.00000000E+00  0.00000000E+00
  0.00000000E+00  0.00000000E+00  0.00000000E+00
  0.00000000E+00  0.00000000E+00  0.00000000E+00
  0.00000000E+00  0.00000000E+00  0.00000000E+00
  0.00000000E+00  0.00000000E+00  0.00000000E+00
  0.00000000E+00  0.00000000E+00  0.00000000E+00
  0.00000000E+00  0.00000000E+00  0.00000000E+00
  0.00000000E+00  0.00000000E+00  0.00000000E+00
  0.00000000E+00  0.00000000E+00  0.00000000E+00
  0.00000000E+00  0.00000000E+00  0.00000000E+00
  0.00000000E+00  0.00000000E+00  0.00000000E+00
  0.00000000E+00  0.00000000E+00  0.00000000E+00
  0.00000000E+00  0.00000000E+00  0.00000000E+00
  0.00000000E+00  0.00000000E+00  0.00000000E+00
  0.00000000E+00  0.00000000E+00  0.00000000E+00
  0.00000000E+00  0.00000000E+00  0.00000000E+00
  0.00000000E+00  0.00000000E+00  0.00000000E+00
  0.00000000E+00  0.00000000E+00  0.00000000E+00
  0.00000000E+00  0.00000000E+00  0.00000000E+00
  0.00000000E+00  0.00000000E+00  0.00000000E+00
  0.00000000E+00  0.00000000E+00  0.00000000E+00
  0.00000000E+00  0.00000000E+00  0.00000000E+00
  0.00000000E+00  0.00000000E+00  0.00000000E+00
  0.00000000E+00  0.00000000E+00  0.00000000E+00
  0.00000000E+00  0.00000000E+00  0.00000000E+00
  0.00000000E+00  0.00000000E+00  0.00000000E+00
  0.00000000E+00  0.00000000E+00  0.00000000E+00
  0.00000000E+00  0.00000000E+00  0.00000000E+00
  0.00000000E+00  0.00000000E+00  0.00000000E+00
  0.00000000E+00  0.00000000E+00  0.00000000E+00
  0.00000000E+00  0.00000000E+00  0.00000000E+00
  0.00000000E+00  0.00000000E+00  0.00000000E+00
  0.00000000E+00  0.00000000E+00  0.00000000E+00
  0.00000000E+00  0.00000000E+00  0.00000000E+00
  0.00000000E+00  0.00000000E+00  0.00000000E+00
  0.00000000E+00  0.00000000E+00  0.00000000E+00
  0.00000000E+00  0.00000000E+00  0.00000000E+00
  0.00000000E+00  0.00000000E+00  0.00000000E+00
  0.00000000E+00  0.00000000E+00  0.00000000E+00
  0.00000000E+00  0.00000000E+00  0.00000000E+00
  0.00000000E+00  0.00000000E+00  0.00000000E+00
  0.00000000E+00  0.00000000E+00  0.00000000E+00
  0.00000000E+00  0.00000000E+00  0.00000000E+00
  0.00000000E+00  0.00000000E+00  0.00000000E+00