FeMn_288_15                             
    1.000000000000000     
     9.7266779999999997    0.0000000000000000    0.0000000000000000
     0.0000000000000000    8.4235500000000005    0.0000000000000000
     0.0000000000000000    0.0000000000000000   45.0000000000000000
   Fe   Mn
   273    15
Direct
  0.0621745046464574  0.7050358139485660  0.4786082639308442
  0.8123841053650589  0.7072404528136353  0.8309831832665442
  0.9373627724076889  0.1225333071124096  0.4348797792119721
  0.1878140256310242  0.7900219188657474  0.8732519702797227
  0.3126289554175780  0.2048624414292622  0.5648137179821850
  0.8123701671229041  0.5389818227699368  0.7422767986646460
  0.5625061522409747  0.2054809590963516  0.2137425984387054
  0.0624723452914624  0.8725075252251725  0.4348934604534071
  0.4374814929787722  0.9555510438726643  0.3463775366764655
  0.8124346152943115  0.0383306270577555  0.1268719149043893
  0.6876696027633433  0.7889699442558173  0.7422054810498795
  0.4375826592058544  0.4554604663888996  0.2136933706976604
  0.8124421393633713  0.2054829593871511  0.2137435870713040
  0.0622528695753534  0.3718642611482493  0.5213694134756667
  0.8127603429850954  0.3719717635998290  0.4348782744491996
  0.6873308329839242  0.7888643695936993  0.3901637620238269
  0.6875397207267978  0.1224583815406049  0.3019354873791766
  0.4373403609531120  0.9554422789584884  0.2137625162900613
  0.1876022652309561  0.9553223599114653  0.6980139350960824
  0.9373078967776111  0.6215180622916255  0.1689521016229628
  0.3123542747079540  0.8724182397616527  0.5212458812341306
  0.3125087557710168  0.3719896652259125  0.3019048193819286
  0.6877309973518111  0.1217570944172752  0.5212995903287384
  0.5627237193902406  0.2060730923920055  0.4786884740952650
  0.8124783112867480  0.3715730873678239  0.1690277547824628
  0.4370279262180831  0.9562770076558200  0.8310491031030820
  0.8125243815779610  0.3718242657968232  0.5213316171218625
  0.9378049648671010  0.4556047396866127  0.4786047909563859
  0.0625287420115931  0.7053374647696271  0.5650319466682195
  0.4380564356411744  0.1221411834988418  0.4347590167600593
  0.3125390682062789  0.0384463723103817  0.1268425371426894
  0.8123978973093861  0.7054450167057058  0.2137070684793647
  0.9376144242485973  0.2891794775020420  0.7421387749550956
  0.4373302252771220  0.1223740015126440  0.7861821099764646
  0.0625060286328897  0.8722119116186968  0.5213093520627609
  0.8123631796750522  0.7058408633334003  0.3463270695125662
  0.0622939577191161  0.2057969402301882  0.3463475092845957
  0.8121421256206962  0.2057812295439077  0.4785575717102866
  0.6877960501818279  0.7898241337135760  0.8733022865882583
  0.0624196653460890  0.7060931373068815  0.8310740257056637
  0.4374737124459374  0.9555411978989485  0.6980847650066656
  0.3123128913428705  0.2062127367746749  0.8310758755486175
  0.6874389366234419  0.6217156471773491  0.1690423509614775
  0.1875760473091887  0.4561478677388903  0.8310363353575053
  0.1868518732934374  0.1219298824805148  0.5212253598787823
  0.8126408208349928  0.5386906808094238  0.6097641533769637
  0.3124545094248079  0.7054186491848097  0.3463964475554008
  0.4371968711966458  0.2886244210037150  0.6097531210228946
  0.4374382156442843  0.7891447557271828  0.7422227641824993
  0.5624369776645352  0.0391240655418527  0.2578715302380278
  0.3127445491444213  0.3720958298594538  0.4351169653194540
  0.4373928680004478  0.1216677446163233  0.1690546592545073
  0.6872933323210568  0.2886114610259893  0.3902031846156935
  0.6870435696537116  0.9555412833609344  0.4786334772308520
  0.5624033245981318  0.8715568728677849  0.1690535773979531
  0.3126081269825302  0.7054324137991144  0.2137021991793807
  0.0625246925102774  0.8726547791865126  0.7863138874156317
  0.1876191286356983  0.7890450348928610  0.7421825088048013
  0.6874651190580677  0.6222627765008980  0.4347924327861160
  0.3127723922869852  0.5395098885040459  0.8732803416060778
  0.8122935008478431  0.8718827989884530  0.5212632191866163
  0.8124948244157507  0.0390001015778430  0.7422045284390775
  0.6876770518273577  0.1219906981981411  0.4349372737547118
  0.4379328327739416  0.4558518018196712  0.4785932362535473
  0.0626446762756391  0.3721968558957028  0.4347162079407522
  0.9373523630386028  0.4555510935417854  0.2136986098604389
  0.8124752255711589  0.5389191091222023  0.3901921920745802
  0.0625033792813721  0.2055190551019224  0.6981772907231518
  0.8124856767280156  0.8726061834423974  0.3018618201349353
  0.1875476071604324  0.4553815863803299  0.3463300575948184
  0.4376351012436510  0.1220299725170041  0.6537008179289073
  0.4378979744751254  0.4561428988623023  0.8311069772206637
  0.0625019906303818  0.7053357241616308  0.6978207915278767
  0.5624177977154261  0.0390129261128622  0.3901722668852018
  0.8126306563730318  0.5384692979407478  0.1268745804872596
  0.0624063837706404  0.0401180346421145  0.8732828423403908
  0.3125877489903052  0.3718503052087683  0.1690361075351150
  0.6876153918555209  0.9551027811967036  0.5651191208547063
  0.9373924095995099  0.4556580222648045  0.5650036282326296
  0.5628514361373050  0.0384014363229796  0.6097125841507631
  0.9380970764184986  0.1225790718671386  0.7862055615297495
  0.5625455382233114  0.0397055817251889  0.8733198980331631
  0.1873338948711234  0.1226205736169407  0.7863429744968977
  0.8122506410840684  0.3723659272456799  0.6538460427929004
  0.5624128127645650  0.8729305164045221  0.7863118407124750
  0.9372464960613953  0.9552164721857426  0.5648339150589248
  0.4376157360819262  0.4554150066974056  0.3462232406368443
  0.9375899755818251  0.1221435490684766  0.5212468635772074
  0.0625823811762862  0.3725961427580889  0.7862517210055890
  0.3126214451777901  0.0395234857027768  0.8733332396461382
  0.5625199808682638  0.0383376593997245  0.1268855638306717
  0.1877723600641643  0.9561808771923124  0.8311536501782413
  0.9372067678251708  0.6224445642765871  0.4348314058091138
  0.4380457935979322  0.1219228091965554  0.5212678669168305
  0.6874531349883009  0.6229117185478120  0.7860981940975830
  0.5625161918071397  0.7055491973546320  0.6978543440575854
  0.6874881190731155  0.9556176691325220  0.3463445200216006
  0.9376318153227114  0.6228169481548380  0.3018434212138362
  0.8125427781747542  0.7049768428391574  0.4786365456996791
  0.9371713493175884  0.2887330127080612  0.2578850412681557
  0.9376317003715849  0.7889585977089928  0.6096920090737891
  0.9376223971988870  0.2894028516906907  0.3901403854758493
  0.5630922409069652  0.2067560850806262  0.8311886394693897
  0.6874697457207785  0.2881539768294220  0.1268705635093341
  0.5624543732678490  0.3723808738597742  0.3019703133438812
  0.0622588563122319  0.5385157939013872  0.6097635613401140
  0.8124659795102022  0.5384048125362326  0.2578508313164909
  0.1874900899601407  0.4556492455384590  0.2137801348288366
  0.9373424863596161  0.2891911567423454  0.6097514370328663
  0.5628307741645195  0.7053631381051891  0.4786144096316579
  0.6874500178794033  0.7888108214308248  0.2578265468517607
  0.6875134096197943  0.4556692651354176  0.6980259976265593
  0.0625131132143781  0.5387989027761075  0.2578359353097165
  0.6873807402687627  0.1228402169925876  0.7863553395526314
  0.3126683101458949  0.5395662202597016  0.7421936382670830
  0.4376276004328781  0.4557123408515514  0.5651674943052718
  0.8125102116492240  0.8716005384541200  0.1690689764459044
  0.3124803349837750  0.5390193833269360  0.3901152092074157
  0.5624964773252493  0.5390052835695859  0.7421595857766998
  0.5624606948435901  0.7050829064450025  0.5650340341713661
  0.6875014593403810  0.4557113462221847  0.8311003224849531
  0.5626136049714134  0.7067887767061020  0.8310904777436484
  0.8125215679413264  0.3725267175548359  0.7863430593583778
  0.4374495608669661  0.2893282788374092  0.3902228665625828
  0.5626153427036696  0.2056985502305216  0.6981359949691628
  0.0626575488780616  0.7057502458168392  0.3462326153610659
  0.3125501960527108  0.8725684483584076  0.4348246979887884
  0.9374763365071292  0.6220340675495385  0.5212956154802300
  0.9375323500187087  0.9553164852850016  0.6981127825001369
  0.8121228848444325  0.8721442021946968  0.4348580378867511
  0.0625139708494936  0.0389249149837735  0.2578241058573609
  0.1873302355473459  0.1220078599164929  0.6537499921067470
  0.6875082323208300  0.7885568590801310  0.6096811571557175
  0.5624981778000879  0.5386559647364554  0.2578756253018308
  0.1877136088578342  0.2898625357331122  0.8733078545939195
  0.3125197866588207  0.7067207874829846  0.8309920494548421
  0.5622985732306492  0.5384658740531126  0.1268731554637815
  0.4375530116565164  0.6219571004039646  0.6536782723839544
  0.4375541357346605  0.9550384619390629  0.4785667445339060
  0.9373495958326211  0.1225799525005220  0.3018734753204628
  0.3127757820302725  0.8720647867233180  0.6536778096155963
  0.0624100082250070  0.5383723414373465  0.1268194886868487
  0.1876660925222146  0.6219809686709672  0.3018790834480107
  0.6875358183458742  0.6220142717380793  0.5213150541765326
  0.6874012695410944  0.6221683398223798  0.6536620595016085
  0.5625701629669835  0.2056022758447907  0.3463299120259684
  0.0624116822069379  0.0383958537283780  0.1268451301583402
  0.9374850150377384  0.7883519990064403  0.1268290360770700
  0.0627269042924256  0.2060942133133949  0.4786699491864843
  0.4376551604501736  0.7887019624948268  0.3901930956440091
  0.3124522689866062  0.5389411972700937  0.2578930251025953
  0.4376012591669799  0.1222123530749797  0.3019642524939486
  0.0625059052406326  0.2057120641444073  0.2137465149385230
  0.5624895069386118  0.0391515972270027  0.7422497643840703
  0.8125751064599037  0.2057851489027471  0.6979943107067511
  0.0628322097979495  0.8721066444304385  0.6536552598473689
  0.0624046405939361  0.5390364152284663  0.7421817231267213
  0.3126118356702098  0.8722924232578341  0.3019402031343482
  0.1873120476498447  0.4557835280024466  0.4786259475201893
  0.0625966867662004  0.8722530593816159  0.3018592021228692
  0.4374645825910294  0.4555362113383329  0.6980610135207570
  0.1879084158915649  0.9551119225810911  0.4785161813777324
  0.3125296203428702  0.7054370102758528  0.4786394569204531
  0.9374655834412635  0.4555420072228410  0.6980320327725992
  0.6874730379278646  0.1217300333590249  0.1690501459202923
  0.8121227140646641  0.2055881634660668  0.5650632607865400
  0.1873372706897091  0.7887431017769722  0.6097608759622020
  0.6873958625500045  0.2890249952589219  0.7421579944518856
  0.0623825216066929  0.7055003644655565  0.2137366530617016
  0.9375201551433081  0.6222913909962856  0.7862736805349381
  0.6874568890436150  0.7883033925817533  0.1268686128828236
  0.1875369688963851  0.6225949499682216  0.5212922655635740
  0.6874763247699116  0.1219232002980922  0.6536062315364914
  0.1875557870127918  0.9555826325395087  0.2137570152137470
  0.9376132674251003  0.1221175804991333  0.6536293937545655
  0.4373310881980373  0.6222372144756877  0.3018492234655482
  0.1880031983948878  0.2893267512357708  0.3902067478811421
  0.4378067658533870  0.2887899802222534  0.2578764383967795
  0.1875312034433313  0.4554012794530378  0.6980897508089283
  0.4372448874820797  0.9546111813698852  0.5651220510573425
  0.1875300906917270  0.6216336262065622  0.6536682836194908
  0.9381736709588347  0.2904556281309378  0.8732844234431981
  0.0627044615733689  0.5393648848247640  0.3901856510782145
  0.5628700526256191  0.8721646514428772  0.5213264250433192
  0.1879590832793408  0.2890111597173984  0.6096582869009946
  0.8125018952142513  0.0387726864011565  0.6097158062153841
  0.9374627965026407  0.6219498742538311  0.6536314973037808
  0.6874570425964249  0.9554696491496174  0.2137398071216167
  0.0623760966036181  0.3719042610440535  0.1690178848224105
  0.8125161939647239  0.2060201463447202  0.3462785554540251
  0.9372578407182387  0.4557075369191833  0.3462799473691961
  0.3125485785208066  0.2055803656704788  0.3463387519792846
  0.1874644832447491  0.1220114120920233  0.3019280495652061
  0.1873376855328052  0.4557806721930228  0.5652077744396279
  0.3126301089881429  0.0392020737971513  0.7422808609191455
  0.3126123965621049  0.3720711483533521  0.6537913392560335
  0.9373622597820291  0.7897871181267672  0.8732804540263883
  0.5622740670738174  0.8723121848992542  0.3018665583390412
  0.1877429995644708  0.7890700933254687  0.3901292153331610
  0.5622870416578289  0.3718734573246781  0.6537043990025683
  0.5625325360486371  0.7052942262532027  0.2137586412950673
  0.3123672345463087  0.5379660206711301  0.6096864498670920
  0.9374520425180870  0.2883614235074088  0.1268410282898608
  0.9374303890656577  0.9563575520276291  0.8310706173299208
  0.9374430040527211  0.9558680632585375  0.3463720223429258
  0.3125056690841693  0.8716829686135908  0.1690269489803050
  0.0624492129545637  0.0388763625587763  0.7423934120477833
  0.1869982584799258  0.1218200477731608  0.4347510299224163
  0.0621886300024842  0.0387134270035765  0.6097878169166243
  0.4374875936921048  0.2883462621251530  0.1268532952170440
  0.4377328346867613  0.7889238433835302  0.2578905111969479
  0.5619722715230324  0.5386727869756475  0.3901883945376383
  0.3125196748415455  0.0388752303705110  0.2578725455453800
  0.1874910201558823  0.2881669968551831  0.1268666441680371
  0.0624962481335231  0.8717136879046474  0.1690188175200893
  0.4375746381292186  0.7885227436969318  0.6097330848290516
  0.1875067819152889  0.2888811050001010  0.2578422693460455
  0.4375123628063304  0.7883615670268109  0.1268394057165217
  0.3125475448080207  0.7052867150127728  0.6981393506641693
  0.1874975362071803  0.6217496651436061  0.1690060734864538
  0.4375844889478975  0.2894570818191214  0.7421629333644032
  0.6874284344027796  0.2887367756360314  0.2578102207868491
  0.6874887893419960  0.9556669547590250  0.6980390212432166
  0.9370173211666720  0.4561060074335423  0.8311198796784599
  0.3125551308487925  0.5383105995426828  0.1268396478743147
  0.4370414917961187  0.7898529379610937  0.8732849683470035
  0.6877019568463247  0.9569300902247536  0.8313347372863178
  0.0623844762800113  0.0388637026068510  0.3902517912108995
  0.6876695518704691  0.4556408915923799  0.5650510402003547
  0.3122827415183598  0.2057489789310180  0.6980819610925896
  0.4376674221860513  0.6215221538853460  0.1689657992613871
  0.5621654466496496  0.8721085237328348  0.6536517703846718
  0.5626400938156347  0.3718301606731612  0.5213342746013362
  0.6875032061650800  0.4553890181370937  0.2137333631148163
  0.3123044982738399  0.0395984201104899  0.3902723686637260
  0.8124447384527070  0.0390666830918357  0.2578715022568601
  0.5628712501172793  0.5385043320243459  0.6098140760885502
  0.4376875127528690  0.6222052005102847  0.7862070216354593
  0.0625085399798838  0.3722672836939649  0.3019269305192743
  0.1880105651513021  0.9548339740019158  0.5651841663366656
  0.1874332081350517  0.2894864504314110  0.7422522084795651
  0.1874897845876674  0.1220080640105423  0.1689576932226217
  0.3124909874211183  0.3722917536394179  0.7863338170383802
  0.1874442275520752  0.7883218757641418  0.1268420151052623
  0.0622947395519566  0.5398747773187587  0.8732518862398204
  0.6873838918041814  0.4557289581268328  0.3462928706961670
  0.6872101472052797  0.4555694593406160  0.4785655444472305
  0.0626785499404654  0.2060163910539528  0.8310783934144227
  0.9375693045707816  0.9554689589395524  0.2137246764836599
  0.5626446366617636  0.8724725156439440  0.4349010536750585
  0.9372766569706542  0.7889181412198170  0.7422196847052753
  0.6874158370617032  0.2891410001350754  0.6097543969129340
  0.8125629745664433  0.0391144030035198  0.8733738304612718
  0.9375327539389350  0.1217245097933340  0.1690435224486310
  0.3125233842509897  0.7050761768516725  0.5651110870400030
  0.8124838602620811  0.3730297873839598  0.3018991836625062
  0.8124681884047076  0.7057767830738769  0.6980833860175266
  0.3124870873849355  0.2057085168251513  0.2137583127791383
  0.8119804988242693  0.2067793575480096  0.8311974268854234
  0.5624247474479939  0.7056064910122971  0.3463309174551572
  0.8125963236151172  0.7051770573529437  0.5652024320645777
  0.1874528362108891  0.9556482852289864  0.3462370072738606
  0.4366137631949205  0.2904814034945938  0.8732594905460895
  0.6872867901456626  0.6225591731471553  0.3018417778745743
  0.8135183238105251  0.5393788607965916  0.8732094349539311
  0.5624658907468052  0.3715749211722844  0.1690479655290552
  0.9372729584525410  0.7887152035322198  0.2578420393904227
  0.4377714673377007  0.6225203999596872  0.4347490481242735
  0.5624406816881565  0.3725799777158698  0.7862713889923199
  0.5615134207936910  0.5397956262546082  0.8731926128985981
  0.4376022960069670  0.6224709981912084  0.5213872842762241
  0.5622390293965409  0.3718780716784883  0.4346939386618933
  0.1873501021572870  0.6220147431995667  0.7863302980720676
  0.9376581389395492  0.9553908921465821  0.4787203061683789
  0.8122698691241137  0.8719711146632387  0.6535851503456029
  0.8121913554711753  0.0392856450555795  0.3900966842507483
  0.5623051308969329  0.2053343840308392  0.5652393863394649
  0.0626371832644240  0.3717783849094473  0.6536792060746873
  0.6876848193023095  0.2900426718122696  0.8730337383344339
  0.1874270922743811  0.7889381728817727  0.2577654023057322
  0.1873679022964534  0.6228425460512097  0.4346963063755468
  0.3125410439688418  0.0386680941783953  0.6097867690177176
  0.8126620044336663  0.8726747830399156  0.7860141291751226
  0.0628606240425331  0.2057143287619494  0.5653804225557485
  0.3126513442843863  0.3719497366574959  0.5213326545751139
  0.9379482633303030  0.7883837477354115  0.3901900858979425
  0.3124776545089639  0.2056668892736277  0.4785257729563768
  0.3125707613190803  0.8723277903699308  0.7860963693248209
 
  0.00000000E+00  0.00000000E+00  0.00000000E+00
  0.00000000E+00  0.00000000E+00  0.00000000E+00
  0.00000000E+00  0.00000000E+00  0.00000000E+00
  0.00000000E+00  0.00000000E+00  0.00000000E+00
  0.00000000E+00  0.00000000E+00  0.00000000E+00
  0.00000000E+00  0.00000000E+00  0.00000000E+00
  0.00000000E+00  0.00000000E+00  0.00000000E+00
  0.00000000E+00  0.00000000E+00  0.00000000E+00
  0.00000000E+00  0.00000000E+00  0.00000000E+00
  0.00000000E+00  0.00000000E+00  0.00000000E+00
  0.00000000E+00  0.00000000E+00  0.00000000E+00
  0.00000000E+00  0.00000000E+00  0.00000000E+00
  0.00000000E+00  0.00000000E+00  0.00000000E+00
  0.00000000E+00  0.00000000E+00  0.00000000E+00
  0.00000000E+00  0.00000000E+00  0.00000000E+00
  0.00000000E+00  0.00000000E+00  0.00000000E+00
  0.00000000E+00  0.00000000E+00  0.00000000E+00
  0.00000000E+00  0.00000000E+00  0.00000000E+00
  0.00000000E+00  0.00000000E+00  0.00000000E+00
  0.00000000E+00  0.00000000E+00  0.00000000E+00
  0.00000000E+00  0.00000000E+00  0.00000000E+00
  0.00000000E+00  0.00000000E+00  0.00000000E+00
  0.00000000E+00  0.00000000E+00  0.00000000E+00
  0.00000000E+00  0.00000000E+00  0.00000000E+00
  0.00000000E+00  0.00000000E+00  0.00000000E+00
  0.00000000E+00  0.00000000E+00  0.00000000E+00
  0.00000000E+00  0.00000000E+00  0.00000000E+00
  0.00000000E+00  0.00000000E+00  0.00000000E+00
  0.00000000E+00  0.00000000E+00  0.00000000E+00
  0.00000000E+00  0.00000000E+00  0.00000000E+00
  0.00000000E+00  0.00000000E+00  0.00000000E+00
  0.00000000E+00  0.00000000E+00  0.00000000E+00
  0.00000000E+00  0.00000000E+00  0.00000000E+00
  0.00000000E+00  0.00000000E+00  0.00000000E+00
  0.00000000E+00  0.00000000E+00  0.00000000E+00
  0.00000000E+00  0.00000000E+00  0.00000000E+00
  0.00000000E+00  0.00000000E+00  0.00000000E+00
  0.00000000E+00  0.00000000E+00  0.00000000E+00
  0.00000000E+00  0.00000000E+00  0.00000000E+00
  0.00000000E+00  0.00000000E+00  0.00000000E+00
  0.00000000E+00  0.00000000E+00  0.00000000E+00
  0.00000000E+00  0.00000000E+00  0.00000000E+00
  0.00000000E+00  0.00000000E+00  0.00000000E+00
  0.00000000E+00  0.00000000E+00  0.00000000E+00
  0.00000000E+00  0.00000000E+00  0.00000000E+00
  0.00000000E+00  0.00000000E+00  0.00000000E+00
  0.00000000E+00  0.00000000E+00  0.00000000E+00
  0.00000000E+00  0.00000000E+00  0.00000000E+00
  0.00000000E+00  0.00000000E+00  0.00000000E+00
  0.00000000E+00  0.00000000E+00  0.00000000E+00
  0.00000000E+00  0.00000000E+00  0.00000000E+00
  0.00000000E+00  0.00000000E+00  0.00000000E+00
  0.00000000E+00  0.00000000E+00  0.00000000E+00
  0.00000000E+00  0.00000000E+00  0.00000000E+00
  0.00000000E+00  0.00000000E+00  0.00000000E+00
  0.00000000E+00  0.00000000E+00  0.00000000E+00
  0.00000000E+00  0.00000000E+00  0.00000000E+00
  0.00000000E+00  0.00000000E+00  0.00000000E+00
  0.00000000E+00  0.00000000E+00  0.00000000E+00
  0.00000000E+00  0.00000000E+00  0.00000000E+00
  0.00000000E+00  0.00000000E+00  0.00000000E+00
  0.00000000E+00  0.00000000E+00  0.00000000E+00
  0.00000000E+00  0.00000000E+00  0.00000000E+00
  0.00000000E+00  0.00000000E+00  0.00000000E+00
  0.00000000E+00  0.00000000E+00  0.00000000E+00
  0.00000000E+00  0.00000000E+00  0.00000000E+00
  0.00000000E+00  0.00000000E+00  0.00000000E+00
  0.00000000E+00  0.00000000E+00  0.00000000E+00
  0.00000000E+00  0.00000000E+00  0.00000000E+00
  0.00000000E+00  0.00000000E+00  0.00000000E+00
  0.00000000E+00  0.00000000E+00  0.00000000E+00
  0.00000000E+00  0.00000000E+00  0.00000000E+00
  0.00000000E+00  0.00000000E+00  0.00000000E+00
  0.00000000E+00  0.00000000E+00  0.00000000E+00
  0.00000000E+00  0.00000000E+00  0.00000000E+00
  0.00000000E+00  0.00000000E+00  0.00000000E+00
  0.00000000E+00  0.00000000E+00  0.00000000E+00
  0.00000000E+00  0.00000000E+00  0.00000000E+00
  0.00000000E+00  0.00000000E+00  0.00000000E+00
  0.00000000E+00  0.00000000E+00  0.00000000E+00
  0.00000000E+00  0.00000000E+00  0.00000000E+00
  0.00000000E+00  0.00000000E+00  0.00000000E+00
  0.00000000E+00  0.00000000E+00  0.00000000E+00
  0.00000000E+00  0.00000000E+00  0.00000000E+00
  0.00000000E+00  0.00000000E+00  0.00000000E+00
  0.00000000E+00  0.00000000E+00  0.00000000E+00
  0.00000000E+00  0.00000000E+00  0.00000000E+00
  0.00000000E+00  0.00000000E+00  0.00000000E+00
  0.00000000E+00  0.00000000E+00  0.00000000E+00
  0.00000000E+00  0.00000000E+00  0.00000000E+00
  0.00000000E+00  0.00000000E+00  0.00000000E+00
  0.00000000E+00  0.00000000E+00  0.00000000E+00
  0.00000000E+00  0.00000000E+00  0.00000000E+00
  0.00000000E+00  0.00000000E+00  0.00000000E+00
  0.00000000E+00  0.00000000E+00  0.00000000E+00
  0.00000000E+00  0.00000000E+00  0.00000000E+00
  0.00000000E+00  0.00000000E+00  0.00000000E+00
  0.00000000E+00  0.00000000E+00  0.00000000E+00
  0.00000000E+00  0.00000000E+00  0.00000000E+00
  0.00000000E+00  0.00000000E+00  0.00000000E+00
  0.00000000E+00  0.00000000E+00  0.00000000E+00
  0.00000000E+00  0.00000000E+00  0.00000000E+00
  0.00000000E+00  0.00000000E+00  0.00000000E+00
  0.00000000E+00  0.00000000E+00  0.00000000E+00
  0.00000000E+00  0.00000000E+00  0.00000000E+00
  0.00000000E+00  0.00000000E+00  0.00000000E+00
  0.00000000E+00  0.00000000E+00  0.00000000E+00
  0.00000000E+00  0.00000000E+00  0.00000000E+00
  0.00000000E+00  0.00000000E+00  0.00000000E+00
  0.00000000E+00  0.00000000E+00  0.00000000E+00
  0.00000000E+00  0.00000000E+00  0.00000000E+00
  0.00000000E+00  0.00000000E+00  0.00000000E+00
  0.00000000E+00  0.00000000E+00  0.00000000E+00
  0.00000000E+00  0.00000000E+00  0.00000000E+00
  0.00000000E+00  0.00000000E+00  0.00000000E+00
  0.00000000E+00  0.00000000E+00  0.00000000E+00
  0.00000000E+00  0.00000000E+00  0.00000000E+00
  0.00000000E+00  0.00000000E+00  0.00000000E+00
  0.00000000E+00  0.00000000E+00  0.00000000E+00
  0.00000000E+00  0.00000000E+00  0.00000000E+00
  0.00000000E+00  0.00000000E+00  0.00000000E+00
  0.00000000E+00  0.00000000E+00  0.00000000E+00
  0.00000000E+00  0.00000000E+00  0.00000000E+00
  0.00000000E+00  0.00000000E+00  0.00000000E+00
  0.00000000E+00  0.00000000E+00  0.00000000E+00
  0.00000000E+00  0.00000000E+00  0.00000000E+00
  0.00000000E+00  0.00000000E+00  0.00000000E+00
  0.00000000E+00  0.00000000E+00  0.00000000E+00
  0.00000000E+00  0.00000000E+00  0.00000000E+00
  0.00000000E+00  0.00000000E+00  0.00000000E+00
  0.00000000E+00  0.00000000E+00  0.00000000E+00
  0.00000000E+00  0.00000000E+00  0.00000000E+00
  0.00000000E+00  0.00000000E+00  0.00000000E+00
  0.00000000E+00  0.00000000E+00  0.00000000E+00
  0.00000000E+00  0.00000000E+00  0.00000000E+00
  0.00000000E+00  0.00000000E+00  0.00000000E+00
  0.00000000E+00  0.00000000E+00  0.00000000E+00
  0.00000000E+00  0.00000000E+00  0.00000000E+00
  0.00000000E+00  0.00000000E+00  0.00000000E+00
  0.00000000E+00  0.00000000E+00  0.00000000E+00
  0.00000000E+00  0.00000000E+00  0.00000000E+00
  0.00000000E+00  0.00000000E+00  0.00000000E+00
  0.00000000E+00  0.00000000E+00  0.00000000E+00
  0.00000000E+00  0.00000000E+00  0.00000000E+00
  0.00000000E+00  0.00000000E+00  0.00000000E+00
  0.00000000E+00  0.00000000E+00  0.00000000E+00
  0.00000000E+00  0.00000000E+00  0.00000000E+00
  0.00000000E+00  0.00000000E+00  0.00000000E+00
  0.00000000E+00  0.00000000E+00  0.00000000E+00
  0.00000000E+00  0.00000000E+00  0.00000000E+00
  0.00000000E+00  0.00000000E+00  0.00000000E+00
  0.00000000E+00  0.00000000E+00  0.00000000E+00
  0.00000000E+00  0.00000000E+00  0.00000000E+00
  0.00000000E+00  0.00000000E+00  0.00000000E+00
  0.00000000E+00  0.00000000E+00  0.00000000E+00
  0.00000000E+00  0.00000000E+00  0.00000000E+00
  0.00000000E+00  0.00000000E+00  0.00000000E+00
  0.00000000E+00  0.00000000E+00  0.00000000E+00
  0.00000000E+00  0.00000000E+00  0.00000000E+00
  0.00000000E+00  0.00000000E+00  0.00000000E+00
  0.00000000E+00  0.00000000E+00  0.00000000E+00
  0.00000000E+00  0.00000000E+00  0.00000000E+00
  0.00000000E+00  0.00000000E+00  0.00000000E+00
  0.00000000E+00  0.00000000E+00  0.00000000E+00
  0.00000000E+00  0.00000000E+00  0.00000000E+00
  0.00000000E+00  0.00000000E+00  0.00000000E+00
  0.00000000E+00  0.00000000E+00  0.00000000E+00
  0.00000000E+00  0.00000000E+00  0.00000000E+00
  0.00000000E+00  0.00000000E+00  0.00000000E+00
  0.00000000E+00  0.00000000E+00  0.00000000E+00
  0.00000000E+00  0.00000000E+00  0.00000000E+00
  0.00000000E+00  0.00000000E+00  0.00000000E+00
  0.00000000E+00  0.00000000E+00  0.00000000E+00
  0.00000000E+00  0.00000000E+00  0.00000000E+00
  0.00000000E+00  0.00000000E+00  0.00000000E+00
  0.00000000E+00  0.00000000E+00  0.00000000E+00
  0.00000000E+00  0.00000000E+00  0.00000000E+00
  0.00000000E+00  0.00000000E+00  0.00000000E+00
  0.00000000E+00  0.00000000E+00  0.00000000E+00
  0.00000000E+00  0.00000000E+00  0.00000000E+00
  0.00000000E+00  0.00000000E+00  0.00000000E+00
  0.00000000E+00  0.00000000E+00  0.00000000E+00
  0.00000000E+00  0.00000000E+00  0.00000000E+00
  0.00000000E+00  0.00000000E+00  0.00000000E+00
  0.00000000E+00  0.00000000E+00  0.00000000E+00
  0.00000000E+00  0.00000000E+00  0.00000000E+00
  0.00000000E+00  0.00000000E+00  0.00000000E+00
  0.00000000E+00  0.00000000E+00  0.00000000E+00
  0.00000000E+00  0.00000000E+00  0.00000000E+00
  0.00000000E+00  0.00000000E+00  0.00000000E+00
  0.00000000E+00  0.00000000E+00  0.00000000E+00
  0.00000000E+00  0.00000000E+00  0.00000000E+00
  0.00000000E+00  0.00000000E+00  0.00000000E+00
  0.00000000E+00  0.00000000E+00  0.00000000E+00
  0.00000000E+00  0.00000000E+00  0.00000000E+00
  0.00000000E+00  0.00000000E+00  0.00000000E+00
  0.00000000E+00  0.00000000E+00  0.00000000E+00
  0.00000000E+00  0.00000000E+00  0.00000000E+00
  0.00000000E+00  0.00000000E+00  0.00000000E+00
  0.00000000E+00  0.00000000E+00  0.00000000E+00
  0.00000000E+00  0.00000000E+00  0.00000000E+00
  0.00000000E+00  0.00000000E+00  0.00000000E+00
  0.00000000E+00  0.00000000E+00  0.00000000E+00
  0.00000000E+00  0.00000000E+00  0.00000000E+00
  0.00000000E+00  0.00000000E+00  0.00000000E+00
  0.00000000E+00  0.00000000E+00  0.00000000E+00
  0.00000000E+00  0.00000000E+00  0.00000000E+00
  0.00000000E+00  0.00000000E+00  0.00000000E+00
  0.00000000E+00  0.00000000E+00  0.00000000E+00
  0.00000000E+00  0.00000000E+00  0.00000000E+00
  0.00000000E+00  0.00000000E+00  0.00000000E+00
  0.00000000E+00  0.00000000E+00  0.00000000E+00
  0.00000000E+00  0.00000000E+00  0.00000000E+00
  0.00000000E+00  0.00000000E+00  0.00000000E+00
  0.00000000E+00  0.00000000E+00  0.00000000E+00
  0.00000000E+00  0.00000000E+00  0.00000000E+00
  0.00000000E+00  0.00000000E+00  0.00000000E+00
  0.00000000E+00  0.00000000E+00  0.00000000E+00
  0.00000000E+00  0.00000000E+00  0.00000000E+00
  0.00000000E+00  0.00000000E+00  0.00000000E+00
  0.00000000E+00  0.00000000E+00  0.00000000E+00
  0.00000000E+00  0.00000000E+00  0.00000000E+00
  0.00000000E+00  0.00000000E+00  0.00000000E+00
  0.00000000E+00  0.00000000E+00  0.00000000E+00
  0.00000000E+00  0.00000000E+00  0.00000000E+00
  0.00000000E+00  0.00000000E+00  0.00000000E+00
  0.00000000E+00  0.00000000E+00  0.00000000E+00
  0.00000000E+00  0.00000000E+00  0.00000000E+00
  0.00000000E+00  0.00000000E+00  0.00000000E+00
  0.00000000E+00  0.00000000E+00  0.00000000E+00
  0.00000000E+00  0.00000000E+00  0.00000000E+00
  0.00000000E+00  0.00000000E+00  0.00000000E+00
  0.00000000E+00  0.00000000E+00  0.00000000E+00
  0.00000000E+00  0.00000000E+00  0.00000000E+00
  0.00000000E+00  0.00000000E+00  0.00000000E+00
  0.00000000E+00  0.00000000E+00  0.00000000E+00
  0.00000000E+00  0.00000000E+00  0.00000000E+00
  0.00000000E+00  0.00000000E+00  0.00000000E+00
  0.00000000E+00  0.00000000E+00  0.00000000E+00
  0.00000000E+00  0.00000000E+00  0.00000000E+00
  0.00000000E+00  0.00000000E+00  0.00000000E+00
  0.00000000E+00  0.00000000E+00  0.00000000E+00
  0.00000000E+00  0.00000000E+00  0.00000000E+00
  0.00000000E+00  0.00000000E+00  0.00000000E+00
  0.00000000E+00  0.00000000E+00  0.00000000E+00
  0.00000000E+00  0.00000000E+00  0.00000000E+00
  0.00000000E+00  0.00000000E+00  0.00000000E+00