CuInSe2gb                               
   1.00000000000000     
     9.7266780392896699    0.0000000000000000    0.0000000000000000
     0.0000000000000000    8.4235502764570693    0.0000000000000000
     0.0000000000000000    0.0000000000000000   45.0000000000000000
   Fe   Mn
   274    14
Direct
  0.0626476805969217  0.0302829124047361  0.1241552826123637
  0.3161943519731378  0.8747621439647778  0.6550996382452918
  0.1832595293200594  0.1225646751112581  0.7886163738112407
  0.4416186584711241  0.2876749567347476  0.3890823906322234
  0.3166767219514350  0.7132282355359744  0.8329606545801566
  0.8174096840633824  0.2147117203465302  0.8337973832621185
  0.1911307949059684  0.9635936094618804  0.8336323882385485
  0.5622124636496317  0.2069830713011293  0.5655353179055846
  0.0654502172995090  0.0402612140701762  0.7442206833358580
  0.8116583653738152  0.8713820467507373  0.5214130029633162
  0.1903897184275473  0.2911997585037055  0.7442945089130856
  0.9333332770214338  0.4521433750755880  0.3448084964777002
  0.9409979247710774  0.2865707373014076  0.3889178988911590
  0.8135455106146815  0.0421364400511924  0.8756158652727263
  0.1837415471360410  0.7879940179723335  0.6109308129263902
  0.5665768291945467  0.0378139631183570  0.3890371825872682
  0.9427634181456499  0.9642821808892497  0.8340732291539749
  0.3133788907073923  0.5406603091455719  0.8760932923397374
  0.6904657185120201  0.2912856833389704  0.7441959622337196
  0.1822904242530638  0.6136281008447686  0.1667574842891352
  0.8122272533941065  0.2058397596128907  0.4786846693381304
  0.8088853958951467  0.5383206562916064  0.6110395848689459
  0.3120728340257551  0.8705227953682042  0.4344567654926897
  0.8093430738512856  0.0376299949973824  0.2558819365704697
  0.6828245211216021  0.9521010257204439  0.3447719055493748
  0.9312175353795445  0.1144200050219347  0.1668815841302511
  0.0618927029209222  0.8716586071340916  0.5214536148824067
  0.5583204369996774  0.5375584832672067  0.2555889278498674
  0.6840761051462284  0.7965408124400879  0.8758234898015291
  0.5564021375468221  0.3649201892982461  0.1665812733939563
  0.4395962227998714  0.7921980528383301  0.7445489611257761
  0.8114428762876459  0.7066014375164485  0.5654784389823168
  0.5596324974552274  0.8740793116487701  0.7885358232638470
  0.6869803556238875  0.1217564925559662  0.5214603835409374
  0.8160399359443606  0.3751433075747668  0.6550511659634695
  0.9420537568686352  0.4639422289414599  0.8337871283261877
  0.0605779432238805  0.2077957558046546  0.6997282243373398
  0.4353778659531226  0.9580923047960747  0.6996892844920244
  0.3168824294348780  0.2125109506816483  0.8335083526543087
  0.4410661813651144  0.6249535652686268  0.6550924346855598
  0.3088825706895824  0.5381719160675614  0.6109581404331687
  0.9365272097027942  0.4563532559758793  0.5656221765796787
  0.6895793899021476  0.7920590153058527  0.7443845624073340
  0.9347285300289057  0.7881734018174246  0.1244096832267057
  0.6915985231331579  0.7877428734751980  0.3890626541038399
  0.9396956836015642  0.7912109190376082  0.7446495207525498
  0.0586685271045486  0.2026796247541386  0.3449594987629441
  0.6835972770101125  0.4524026689584328  0.3449583634192160
  0.4348195883263580  0.1223699609419837  0.7888711799113357
  0.0654644778072288  0.2038124505805612  0.2110884692361226
  0.0554182725797809  0.3652540881456128  0.1666854551644782
  0.9333957032400957  0.7874927741929147  0.2557045178846156
  0.5607974586842580  0.2075915989715557  0.6997622419052706
  0.6852499050974625  0.9573770811721886  0.6997392472249389
  0.8090647666984281  0.8733790412661919  0.7883392930998905
  0.4364397069719155  0.9572929298408257  0.5654008092443292
  0.8091888932193415  0.3753642163853613  0.7885780065216412
  0.6838808687467182  0.2873761419323328  0.2558139231705581
  0.1872137346782580  0.4570220463390051  0.5655172946844389
  0.0567626094254104  0.8651788488900641  0.1666966731275782
  0.1841569225400383  0.2885947458995902  0.6110820283045501
  0.0621095354738984  0.2072597393627339  0.5654086967426630
  0.3106269211041544  0.2074662286771948  0.6998948667475162
  0.5626493810092249  0.5410991250916103  0.8758990626689506
  0.0620775774556470  0.7064517627299730  0.5655800705197809
  0.6840888493111040  0.6224072162657545  0.7883051148558152
  0.3159290794141589  0.5381858813220086  0.3889318099154139
  0.1869182632532414  0.6215221356780635  0.5214449511299956
  0.5623736689379761  0.8705107171760859  0.4343907521007373
  0.4364116137777502  0.4568412991619900  0.5655530996539081
  0.4394334765675534  0.2916883641780734  0.7443341431414841
  0.8209240150616949  0.8736015155363313  0.3001884364259831
  0.8086200099214428  0.7025395331116073  0.3449160985294386
  0.4425627303603764  0.4631014978545724  0.8333274923411945
  0.6875847467954680  0.9559285964859588  0.4787272461236260
  0.6852452571839986  0.4580866759837198  0.6996959681878832
  0.5621050905051210  0.8723105976702605  0.5214807360545203
  0.5660203764140000  0.3742691408199809  0.6550265427544124
  0.8161920955433556  0.8747624640344543  0.6551400458862486
  0.8117838281742087  0.3713916729624072  0.4342123362253283
  0.8085325068182697  0.5372060654401295  0.2558887498822711
  0.6921667999901508  0.4626450568602314  0.8333401878595638
  0.1860851250743075  0.7879131640579665  0.1241481197848211
  0.6914320836547337  0.2872639167793989  0.3890574119831074
  0.3159126715254817  0.3741354785635741  0.6550194015699894
  0.3090220164246650  0.2025748432594192  0.3447663705785440
  0.8156177843175141  0.5403210231819741  0.7443581057045847
  0.6913559074020236  0.9626958545624451  0.8335957664488948
  0.5661108208256743  0.8745770126613286  0.6549082060083368
  0.3113934733269088  0.7067880561354706  0.5654894023331604
  0.3118111858123027  0.5301362820570339  0.1241058600223929
  0.6906588081812846  0.9548713293473857  0.2117825645884746
  0.3113886473526519  0.2063854545751442  0.5654940778075558
  0.1875089258896202  0.9557436462405147  0.4787123908148997
  0.6873975026994411  0.9567563039348410  0.5655471764536322
  0.4339014790915247  0.7883776754630648  0.6110011103951026
  0.6823222692808935  0.6121411186855743  0.1661666020287112
  0.3191429423887662  0.8737914022136338  0.3001533085279425
  0.3122111675061729  0.7058813988676766  0.4786364837405216
  0.9338204706425294  0.2881694275662323  0.6109436315052214
  0.4462710949786119  0.6235409326360757  0.3001308188032620
  0.8073511869773488  0.8631411041327057  0.1667940791869744
  0.5663912341989458  0.2031496453876473  0.2114589319753427
  0.9326725592574392  0.6129243617731732  0.1666610543642427
  0.4372543757500418  0.9558296113969468  0.4786664565924319
  0.5592227809192952  0.3741969167963182  0.7886821203199361
  0.0615927181080491  0.3722521834109718  0.5213941454838661
  0.3069923983435822  0.3637204489170077  0.1666513813642534
  0.6954700501633818  0.1231505935331305  0.3002711514417576
  0.4430160793656520  0.9636550603431386  0.8334701072983920
  0.1849500754289768  0.2867769100104409  0.1241907053280981
  0.1838530625768655  0.2880064446262398  0.2558393667687691
  0.3124055722409101  0.3705962847512584  0.4344547918397190
  0.5625950403642732  0.0320659049774190  0.1243652684753138
  0.4340228151212308  0.2884390849914478  0.6109827166904657
  0.1836538956081890  0.4525499628407842  0.3448936726042261
  0.4341999101890025  0.2864254383578938  0.1242204024434437
  0.6830605622221595  0.7880474559754039  0.2558211161598540
  0.4369459859019732  0.1216494786200467  0.5214474271269426
  0.1884644921960534  0.2974901126441858  0.8762893804557258
  0.1910819628582711  0.1248753961216931  0.6550411646714224
  0.9413200255914249  0.1248128242192167  0.6549315595702079
  0.8163169879063215  0.5376081680467154  0.3889787669863927
  0.0666380276718681  0.0380938795368709  0.3891602559837424
  0.1831901735471658  0.1122269001153453  0.1664982625721534
  0.0587196967359647  0.5382559512875527  0.6110134794014168
  0.9336823298561843  0.2875660473808622  0.2558267467683855
  0.5589295760946158  0.5381646699967171  0.6109942485449986
  0.9363999248437701  0.9570880376307282  0.5654902856471264
  0.6946920701533296  0.6240445142819226  0.3000557696216584
  0.9374454163325977  0.6202817781963690  0.4344191246565411
  0.9334146625818971  0.6237331223697182  0.7883836980776243
  0.5606091501093167  0.7076059156464447  0.6996874702411620
  0.0663264855646810  0.7162569385792383  0.8337733180098309
  0.9452977127176787  0.1227094100984054  0.3000790412562557
  0.9337397430750106  0.7877346295511461  0.6109206410365537
  0.4329460196810260  0.7874606077886291  0.2556028323761887
  0.3095130399782411  0.3745131907895924  0.7886935327265171
  0.4401364638138197  0.4533200672250260  0.2112237080213879
  0.1868673275124043  0.1220226475817134  0.5213997410250671
  0.8104963902572453  0.7074469152260444  0.6997357815251285
  0.0588577426834248  0.0383425918262219  0.6109441007115779
  0.5662822701661101  0.2128866804083582  0.8335086641605285
  0.3118075756065586  0.8717984925122642  0.5214574312706655
  0.6865386063480962  0.2863233227893703  0.1239608632962634
  0.1902984103887372  0.9549014622169207  0.2117172340630392
  0.6837950193170628  0.2884880571259321  0.6110125413310543
  0.3089733220632458  0.0385496375534341  0.6110917366660575
  0.9348776906030742  0.1239192266483651  0.7885308105782917
  0.4383780257152170  0.7952075354700971  0.8758624138503154
  0.8155139286767087  0.0413393087873980  0.7441615261435953
  0.9353690735032779  0.4581107108513064  0.6996455227923197
  0.1912307190984474  0.6250893471382968  0.6552138290868291
  0.3104300181352073  0.7069876702389433  0.6998137685074457
  0.9341826020862221  0.2870607863354018  0.1240889944775655
  0.4373982971787374  0.4560387983590674  0.4785827123032601
  0.0622883813525552  0.7058358196972044  0.4785954873099035
  0.9369129275335771  0.1197540209075981  0.4346161060192560
  0.4443905570991052  0.1230503731942598  0.3002559808630683
  0.1869297706246385  0.1201129052568536  0.4342821931333129
  0.3154172953279357  0.7038101981070842  0.2116174675668633
  0.1867068490980699  0.9569160638575389  0.5655449961326265
  0.6845181122113453  0.7876420159998319  0.1244800644384482
  0.5589352476505073  0.7024321073982918  0.3448656640098875
  0.3163952905928240  0.0373633154971585  0.3887878356376900
  0.6824772320846252  0.1137872491943476  0.1667628687559940
  0.8159630015803728  0.2033342843607163  0.2113001386730348
  0.0594777931669983  0.5370484250170012  0.2555689184281313
  0.5624395135874077  0.7057130012722065  0.4786959073258024
  0.4351585167093748  0.7870990269633630  0.1242512111719050
  0.5697858755066059  0.3720929979887345  0.3001469187561016
  0.4336698615501380  0.9524522518227037  0.3449175530696225
  0.1853882260551043  0.9576047779563913  0.6997613700631403
  0.4315735396397681  0.6129301471311476  0.1662348763107820
  0.9402291121430435  0.4545008448686179  0.2117397863300130
  0.0618959967942524  0.5301575027969148  0.1241261703086459
  0.8119734241136014  0.3722069418467885  0.5213785514689221
  0.9448577673347046  0.6236499916271367  0.2998412267342839
  0.3089411361141656  0.0372895721811841  0.2557846718615937
  0.6836804404632117  0.7878127388122520  0.6109124936522961
  0.1916575312117212  0.4633293792962185  0.8335166393266420
  0.4330479484569774  0.1122708471314997  0.1665412116974778
  0.3117978419598915  0.3719491519257584  0.5214117346247944
  0.4329040266604736  0.6223917709351979  0.7887476644787419
  0.0587947212820316  0.0374001148570518  0.2556071057808527
  0.5623854939441164  0.7071145710584048  0.5655473914815696
  0.9392803398878475  0.2909847216495095  0.7443203757824930
  0.6823246911950746  0.1225263809022214  0.7885568435902940
  0.1900455244999181  0.4536539564901098  0.2112616153681665
  0.9412021047490613  0.7878574830078786  0.3888581190257351
  0.6861175861997417  0.2983276040977392  0.8760658114808931
  0.5566564057119068  0.8622452103964956  0.1664770305547914
  0.4354769170694485  0.4580350819742783  0.6996846296319338
  0.9339368700989022  0.9513881514572352  0.3447739902481458
  0.6866178273566488  0.6215082692680156  0.5213481555823183
  0.0664071751446140  0.8747791324702592  0.6549305669649051
  0.0591647042255231  0.8744965286295715  0.7885237625944851
  0.0660055129026649  0.3740240584317947  0.6550010795174378
  0.6871243487404289  0.4558103542406088  0.4786464123969008
  0.1836662891987009  0.7872946080338473  0.2555257474412597
  0.4368662104998325  0.1208423269426369  0.4343895943396751
  0.8135785763186738  0.0312132893892988  0.1241038729795112
  0.9367517401614357  0.6219955348089941  0.5214217853671554
  0.4413252662108386  0.1245612273632844  0.6549534149511869
  0.8132387107401371  0.5299175991284699  0.1241045970739602
  0.4335448743325784  0.4524730992655717  0.3449793400851890
  0.8088370233953053  0.2022380782473927  0.3448901895460028
  0.3088137943720795  0.7014470967011098  0.3448001257074350
  0.6910746507378462  0.1249433528486668  0.6550274605235433
  0.5693920601087462  0.8740335775768225  0.3001815655541867
  0.0652832416696465  0.5410124633723112  0.7442878961666018
  0.9405479687657409  0.9538713793092769  0.2112913055207264
  0.8165761414746904  0.7035088195963335  0.2114761926750010
  0.0705928637040148  0.8730795676260217  0.3000764646680562
  0.1950384165974507  0.1237906638489006  0.3000658789199092
  0.0585636176025784  0.7023279842798420  0.3449018727068713
  0.8091302603593094  0.0383848636650366  0.6110506517111934
  0.0627018499385720  0.3719415366636646  0.4343119241994574
  0.5587128214095853  0.2025018223509658  0.3447478947400474
  0.8199660275931347  0.3740351627021594  0.3001151033127997
  0.5596720308659441  0.0376372813579963  0.2554657832173904
  0.5663260766596889  0.5376835539114011  0.3890295809338694
  0.0624385448535761  0.2059234605408554  0.4786785912760799
  0.3097566832291506  0.8723528808272166  0.7883084272490749
  0.9352141546148245  0.9581351782365495  0.6996719379393845
  0.0694846608454986  0.3742467318533303  0.3000159412758845
  0.6911587138313348  0.6249488691860638  0.6551927916747076
  0.6865719471924464  0.4571325220244744  0.5654415380429473
  0.4413820750276382  0.9550103973153973  0.2119356042591909
  0.3123230277159656  0.2056864488060396  0.4786928529671962
  0.8126897237796681  0.5403722760962498  0.8759563778749423
  0.6879155183137952  0.6205184046250313  0.4344366317650663
  0.8107082124288553  0.2077207458334633  0.6999319052081532
  0.8124280773183801  0.7057831361509012  0.4786557976537441
  0.8116235224697151  0.8712809651241668  0.4342583171033324
  0.9372902730579589  0.9552127614240241  0.4787353574702053
  0.5622935747063592  0.2056622651811356  0.4786584141085816
  0.1872236412560643  0.6199109904781401  0.4344544275746963
  0.3150120312213638  0.0416780184258037  0.7440380220110084
  0.9411532425116834  0.6251363525879298  0.6549795066164351
  0.5659645709386503  0.7143326050983158  0.8334018600765644
  0.3201488791978602  0.3726905641184893  0.3000393576131796
  0.3150445678851260  0.5415148388969360  0.7442341301598380
  0.1873888335189048  0.4556772341226647  0.4786508909367051
  0.3141721927445893  0.0426886260691729  0.8757386364856470
  0.1852778677445789  0.4580403625513386  0.6996853236879054
  0.5618831102418778  0.3719686378035214  0.5214120937800835
  0.1912073635678661  0.2875237764697209  0.3888703540037677
  0.3157224510075049  0.2035207688884484  0.2112591394814387
  0.0667533411925471  0.7032025711321450  0.2112155106078941
  0.5618763053200033  0.3709583543182565  0.4343673808943246
  0.4366577060101691  0.6220260362335380  0.5213714944187384
  0.8173065008993600  0.7156307492301478  0.8330817844225078
  0.0591618037601464  0.3742739068964300  0.7885816859451069
  0.4356909623630433  0.2972343582899599  0.8764360010058658
  0.3116657923111148  0.0303118458536402  0.1241426660621379
  0.6876091578319239  0.1199094809332997  0.4343931248686633
  0.1837833998890473  0.9520069324900408  0.3449276232108845
  0.0666793517882325  0.2149008991304685  0.8339989020576810
  0.5592176964280279  0.0384152984945125  0.6110805392554214
  0.6892981617145442  0.4545993426420303  0.2117411962284512
  0.1893183135653356  0.7919239320713627  0.7444862895225228
  0.1955285785801343  0.6228257145914925  0.3001889650528810
  0.4413901972813101  0.7877386587129055  0.3890944844921803
  0.4328561355578041  0.2877446525572529  0.2556776286105197
  0.0638943424151477  0.5412559258853453  0.8758771467725328
  0.5652974982884685  0.0413121272963241  0.7442038997445726
  0.1882566933474087  0.7953846446900800  0.8758570689488293
  0.9374074442467384  0.4557144370516805  0.4786470777763205
  0.5651692138235522  0.5414724462371210  0.7442429307475961
  0.8111750100795964  0.2069939055669203  0.5654754418733661
  0.1850168028128434  0.6225220666336337  0.7884971750206734
  0.0671756663494447  0.5388079370843923  0.3891411922355776
  0.0604394272765809  0.7078226201011140  0.6996407589839665
  0.3082861373749505  0.5370794636626122  0.2557331179673343
  0.5630657166720840  0.0392714494374202  0.8759853174669366
  0.3057230983596791  0.8645898387768232  0.1660543452762590
  0.4367731946950659  0.6209818799866228  0.4344145488233381
  0.8181302892571154  0.0390478122204094  0.3890201235920029
  0.9350553117939543  0.2985421749399217  0.8757391953450728
  0.9374700024711109  0.7947537485064461  0.8754607554763736
  0.0654612409509734  0.0393990309750681  0.8758989851799031
  0.5621989735451063  0.5292787620793071  0.1244941505031640
  0.8053995660827805  0.3656406241071404  0.1659084357379293
  0.0620219426397475  0.8715888179857024  0.4344392675520245
  0.9365810877180315  0.1219138720754329  0.5215691614511736
  0.1933246793421379  0.7877432364634258  0.3887441567639599
  0.5659359527474628  0.7036660556977147  0.2120247935083334
 
  0.00000000E+00  0.00000000E+00  0.00000000E+00
  0.00000000E+00  0.00000000E+00  0.00000000E+00
  0.00000000E+00  0.00000000E+00  0.00000000E+00
  0.00000000E+00  0.00000000E+00  0.00000000E+00
  0.00000000E+00  0.00000000E+00  0.00000000E+00
  0.00000000E+00  0.00000000E+00  0.00000000E+00
  0.00000000E+00  0.00000000E+00  0.00000000E+00
  0.00000000E+00  0.00000000E+00  0.00000000E+00
  0.00000000E+00  0.00000000E+00  0.00000000E+00
  0.00000000E+00  0.00000000E+00  0.00000000E+00
  0.00000000E+00  0.00000000E+00  0.00000000E+00
  0.00000000E+00  0.00000000E+00  0.00000000E+00
  0.00000000E+00  0.00000000E+00  0.00000000E+00
  0.00000000E+00  0.00000000E+00  0.00000000E+00
  0.00000000E+00  0.00000000E+00  0.00000000E+00
  0.00000000E+00  0.00000000E+00  0.00000000E+00
  0.00000000E+00  0.00000000E+00  0.00000000E+00
  0.00000000E+00  0.00000000E+00  0.00000000E+00
  0.00000000E+00  0.00000000E+00  0.00000000E+00
  0.00000000E+00  0.00000000E+00  0.00000000E+00
  0.00000000E+00  0.00000000E+00  0.00000000E+00
  0.00000000E+00  0.00000000E+00  0.00000000E+00
  0.00000000E+00  0.00000000E+00  0.00000000E+00
  0.00000000E+00  0.00000000E+00  0.00000000E+00
  0.00000000E+00  0.00000000E+00  0.00000000E+00
  0.00000000E+00  0.00000000E+00  0.00000000E+00
  0.00000000E+00  0.00000000E+00  0.00000000E+00
  0.00000000E+00  0.00000000E+00  0.00000000E+00
  0.00000000E+00  0.00000000E+00  0.00000000E+00
  0.00000000E+00  0.00000000E+00  0.00000000E+00
  0.00000000E+00  0.00000000E+00  0.00000000E+00
  0.00000000E+00  0.00000000E+00  0.00000000E+00
  0.00000000E+00  0.00000000E+00  0.00000000E+00
  0.00000000E+00  0.00000000E+00  0.00000000E+00
  0.00000000E+00  0.00000000E+00  0.00000000E+00
  0.00000000E+00  0.00000000E+00  0.00000000E+00
  0.00000000E+00  0.00000000E+00  0.00000000E+00
  0.00000000E+00  0.00000000E+00  0.00000000E+00
  0.00000000E+00  0.00000000E+00  0.00000000E+00
  0.00000000E+00  0.00000000E+00  0.00000000E+00
  0.00000000E+00  0.00000000E+00  0.00000000E+00
  0.00000000E+00  0.00000000E+00  0.00000000E+00
  0.00000000E+00  0.00000000E+00  0.00000000E+00
  0.00000000E+00  0.00000000E+00  0.00000000E+00
  0.00000000E+00  0.00000000E+00  0.00000000E+00
  0.00000000E+00  0.00000000E+00  0.00000000E+00
  0.00000000E+00  0.00000000E+00  0.00000000E+00
  0.00000000E+00  0.00000000E+00  0.00000000E+00
  0.00000000E+00  0.00000000E+00  0.00000000E+00
  0.00000000E+00  0.00000000E+00  0.00000000E+00
  0.00000000E+00  0.00000000E+00  0.00000000E+00
  0.00000000E+00  0.00000000E+00  0.00000000E+00
  0.00000000E+00  0.00000000E+00  0.00000000E+00
  0.00000000E+00  0.00000000E+00  0.00000000E+00
  0.00000000E+00  0.00000000E+00  0.00000000E+00
  0.00000000E+00  0.00000000E+00  0.00000000E+00
  0.00000000E+00  0.00000000E+00  0.00000000E+00
  0.00000000E+00  0.00000000E+00  0.00000000E+00
  0.00000000E+00  0.00000000E+00  0.00000000E+00
  0.00000000E+00  0.00000000E+00  0.00000000E+00
  0.00000000E+00  0.00000000E+00  0.00000000E+00
  0.00000000E+00  0.00000000E+00  0.00000000E+00
  0.00000000E+00  0.00000000E+00  0.00000000E+00
  0.00000000E+00  0.00000000E+00  0.00000000E+00
  0.00000000E+00  0.00000000E+00  0.00000000E+00
  0.00000000E+00  0.00000000E+00  0.00000000E+00
  0.00000000E+00  0.00000000E+00  0.00000000E+00
  0.00000000E+00  0.00000000E+00  0.00000000E+00
  0.00000000E+00  0.00000000E+00  0.00000000E+00
  0.00000000E+00  0.00000000E+00  0.00000000E+00
  0.00000000E+00  0.00000000E+00  0.00000000E+00
  0.00000000E+00  0.00000000E+00  0.00000000E+00
  0.00000000E+00  0.00000000E+00  0.00000000E+00
  0.00000000E+00  0.00000000E+00  0.00000000E+00
  0.00000000E+00  0.00000000E+00  0.00000000E+00
  0.00000000E+00  0.00000000E+00  0.00000000E+00
  0.00000000E+00  0.00000000E+00  0.00000000E+00
  0.00000000E+00  0.00000000E+00  0.00000000E+00
  0.00000000E+00  0.00000000E+00  0.00000000E+00
  0.00000000E+00  0.00000000E+00  0.00000000E+00
  0.00000000E+00  0.00000000E+00  0.00000000E+00
  0.00000000E+00  0.00000000E+00  0.00000000E+00
  0.00000000E+00  0.00000000E+00  0.00000000E+00
  0.00000000E+00  0.00000000E+00  0.00000000E+00
  0.00000000E+00  0.00000000E+00  0.00000000E+00
  0.00000000E+00  0.00000000E+00  0.00000000E+00
  0.00000000E+00  0.00000000E+00  0.00000000E+00
  0.00000000E+00  0.00000000E+00  0.00000000E+00
  0.00000000E+00  0.00000000E+00  0.00000000E+00
  0.00000000E+00  0.00000000E+00  0.00000000E+00
  0.00000000E+00  0.00000000E+00  0.00000000E+00
  0.00000000E+00  0.00000000E+00  0.00000000E+00
  0.00000000E+00  0.00000000E+00  0.00000000E+00
  0.00000000E+00  0.00000000E+00  0.00000000E+00
  0.00000000E+00  0.00000000E+00  0.00000000E+00
  0.00000000E+00  0.00000000E+00  0.00000000E+00
  0.00000000E+00  0.00000000E+00  0.00000000E+00
  0.00000000E+00  0.00000000E+00  0.00000000E+00
  0.00000000E+00  0.00000000E+00  0.00000000E+00
  0.00000000E+00  0.00000000E+00  0.00000000E+00
  0.00000000E+00  0.00000000E+00  0.00000000E+00
  0.00000000E+00  0.00000000E+00  0.00000000E+00
  0.00000000E+00  0.00000000E+00  0.00000000E+00
  0.00000000E+00  0.00000000E+00  0.00000000E+00
  0.00000000E+00  0.00000000E+00  0.00000000E+00
  0.00000000E+00  0.00000000E+00  0.00000000E+00
  0.00000000E+00  0.00000000E+00  0.00000000E+00
  0.00000000E+00  0.00000000E+00  0.00000000E+00
  0.00000000E+00  0.00000000E+00  0.00000000E+00
  0.00000000E+00  0.00000000E+00  0.00000000E+00
  0.00000000E+00  0.00000000E+00  0.00000000E+00
  0.00000000E+00  0.00000000E+00  0.00000000E+00
  0.00000000E+00  0.00000000E+00  0.00000000E+00
  0.00000000E+00  0.00000000E+00  0.00000000E+00
  0.00000000E+00  0.00000000E+00  0.00000000E+00
  0.00000000E+00  0.00000000E+00  0.00000000E+00
  0.00000000E+00  0.00000000E+00  0.00000000E+00
  0.00000000E+00  0.00000000E+00  0.00000000E+00
  0.00000000E+00  0.00000000E+00  0.00000000E+00
  0.00000000E+00  0.00000000E+00  0.00000000E+00
  0.00000000E+00  0.00000000E+00  0.00000000E+00
  0.00000000E+00  0.00000000E+00  0.00000000E+00
  0.00000000E+00  0.00000000E+00  0.00000000E+00
  0.00000000E+00  0.00000000E+00  0.00000000E+00
  0.00000000E+00  0.00000000E+00  0.00000000E+00
  0.00000000E+00  0.00000000E+00  0.00000000E+00
  0.00000000E+00  0.00000000E+00  0.00000000E+00
  0.00000000E+00  0.00000000E+00  0.00000000E+00
  0.00000000E+00  0.00000000E+00  0.00000000E+00
  0.00000000E+00  0.00000000E+00  0.00000000E+00
  0.00000000E+00  0.00000000E+00  0.00000000E+00
  0.00000000E+00  0.00000000E+00  0.00000000E+00
  0.00000000E+00  0.00000000E+00  0.00000000E+00
  0.00000000E+00  0.00000000E+00  0.00000000E+00
  0.00000000E+00  0.00000000E+00  0.00000000E+00
  0.00000000E+00  0.00000000E+00  0.00000000E+00
  0.00000000E+00  0.00000000E+00  0.00000000E+00
  0.00000000E+00  0.00000000E+00  0.00000000E+00
  0.00000000E+00  0.00000000E+00  0.00000000E+00
  0.00000000E+00  0.00000000E+00  0.00000000E+00
  0.00000000E+00  0.00000000E+00  0.00000000E+00
  0.00000000E+00  0.00000000E+00  0.00000000E+00
  0.00000000E+00  0.00000000E+00  0.00000000E+00
  0.00000000E+00  0.00000000E+00  0.00000000E+00
  0.00000000E+00  0.00000000E+00  0.00000000E+00
  0.00000000E+00  0.00000000E+00  0.00000000E+00
  0.00000000E+00  0.00000000E+00  0.00000000E+00
  0.00000000E+00  0.00000000E+00  0.00000000E+00
  0.00000000E+00  0.00000000E+00  0.00000000E+00
  0.00000000E+00  0.00000000E+00  0.00000000E+00
  0.00000000E+00  0.00000000E+00  0.00000000E+00
  0.00000000E+00  0.00000000E+00  0.00000000E+00
  0.00000000E+00  0.00000000E+00  0.00000000E+00
  0.00000000E+00  0.00000000E+00  0.00000000E+00
  0.00000000E+00  0.00000000E+00  0.00000000E+00
  0.00000000E+00  0.00000000E+00  0.00000000E+00
  0.00000000E+00  0.00000000E+00  0.00000000E+00
  0.00000000E+00  0.00000000E+00  0.00000000E+00
  0.00000000E+00  0.00000000E+00  0.00000000E+00
  0.00000000E+00  0.00000000E+00  0.00000000E+00
  0.00000000E+00  0.00000000E+00  0.00000000E+00
  0.00000000E+00  0.00000000E+00  0.00000000E+00
  0.00000000E+00  0.00000000E+00  0.00000000E+00
  0.00000000E+00  0.00000000E+00  0.00000000E+00
  0.00000000E+00  0.00000000E+00  0.00000000E+00
  0.00000000E+00  0.00000000E+00  0.00000000E+00
  0.00000000E+00  0.00000000E+00  0.00000000E+00
  0.00000000E+00  0.00000000E+00  0.00000000E+00
  0.00000000E+00  0.00000000E+00  0.00000000E+00
  0.00000000E+00  0.00000000E+00  0.00000000E+00
  0.00000000E+00  0.00000000E+00  0.00000000E+00
  0.00000000E+00  0.00000000E+00  0.00000000E+00
  0.00000000E+00  0.00000000E+00  0.00000000E+00
  0.00000000E+00  0.00000000E+00  0.00000000E+00
  0.00000000E+00  0.00000000E+00  0.00000000E+00
  0.00000000E+00  0.00000000E+00  0.00000000E+00
  0.00000000E+00  0.00000000E+00  0.00000000E+00
  0.00000000E+00  0.00000000E+00  0.00000000E+00
  0.00000000E+00  0.00000000E+00  0.00000000E+00
  0.00000000E+00  0.00000000E+00  0.00000000E+00
  0.00000000E+00  0.00000000E+00  0.00000000E+00
  0.00000000E+00  0.00000000E+00  0.00000000E+00
  0.00000000E+00  0.00000000E+00  0.00000000E+00
  0.00000000E+00  0.00000000E+00  0.00000000E+00
  0.00000000E+00  0.00000000E+00  0.00000000E+00
  0.00000000E+00  0.00000000E+00  0.00000000E+00
  0.00000000E+00  0.00000000E+00  0.00000000E+00
  0.00000000E+00  0.00000000E+00  0.00000000E+00
  0.00000000E+00  0.00000000E+00  0.00000000E+00
  0.00000000E+00  0.00000000E+00  0.00000000E+00
  0.00000000E+00  0.00000000E+00  0.00000000E+00
  0.00000000E+00  0.00000000E+00  0.00000000E+00
  0.00000000E+00  0.00000000E+00  0.00000000E+00
  0.00000000E+00  0.00000000E+00  0.00000000E+00
  0.00000000E+00  0.00000000E+00  0.00000000E+00
  0.00000000E+00  0.00000000E+00  0.00000000E+00
  0.00000000E+00  0.00000000E+00  0.00000000E+00
  0.00000000E+00  0.00000000E+00  0.00000000E+00
  0.00000000E+00  0.00000000E+00  0.00000000E+00
  0.00000000E+00  0.00000000E+00  0.00000000E+00
  0.00000000E+00  0.00000000E+00  0.00000000E+00
  0.00000000E+00  0.00000000E+00  0.00000000E+00
  0.00000000E+00  0.00000000E+00  0.00000000E+00
  0.00000000E+00  0.00000000E+00  0.00000000E+00
  0.00000000E+00  0.00000000E+00  0.00000000E+00
  0.00000000E+00  0.00000000E+00  0.00000000E+00
  0.00000000E+00  0.00000000E+00  0.00000000E+00
  0.00000000E+00  0.00000000E+00  0.00000000E+00
  0.00000000E+00  0.00000000E+00  0.00000000E+00
  0.00000000E+00  0.00000000E+00  0.00000000E+00
  0.00000000E+00  0.00000000E+00  0.00000000E+00
  0.00000000E+00  0.00000000E+00  0.00000000E+00
  0.00000000E+00  0.00000000E+00  0.00000000E+00
  0.00000000E+00  0.00000000E+00  0.00000000E+00
  0.00000000E+00  0.00000000E+00  0.00000000E+00
  0.00000000E+00  0.00000000E+00  0.00000000E+00
  0.00000000E+00  0.00000000E+00  0.00000000E+00
  0.00000000E+00  0.00000000E+00  0.00000000E+00
  0.00000000E+00  0.00000000E+00  0.00000000E+00
  0.00000000E+00  0.00000000E+00  0.00000000E+00
  0.00000000E+00  0.00000000E+00  0.00000000E+00
  0.00000000E+00  0.00000000E+00  0.00000000E+00
  0.00000000E+00  0.00000000E+00  0.00000000E+00
  0.00000000E+00  0.00000000E+00  0.00000000E+00
  0.00000000E+00  0.00000000E+00  0.00000000E+00
  0.00000000E+00  0.00000000E+00  0.00000000E+00
  0.00000000E+00  0.00000000E+00  0.00000000E+00
  0.00000000E+00  0.00000000E+00  0.00000000E+00
  0.00000000E+00  0.00000000E+00  0.00000000E+00
  0.00000000E+00  0.00000000E+00  0.00000000E+00
  0.00000000E+00  0.00000000E+00  0.00000000E+00
  0.00000000E+00  0.00000000E+00  0.00000000E+00
  0.00000000E+00  0.00000000E+00  0.00000000E+00
  0.00000000E+00  0.00000000E+00  0.00000000E+00
  0.00000000E+00  0.00000000E+00  0.00000000E+00
  0.00000000E+00  0.00000000E+00  0.00000000E+00
  0.00000000E+00  0.00000000E+00  0.00000000E+00
  0.00000000E+00  0.00000000E+00  0.00000000E+00
  0.00000000E+00  0.00000000E+00  0.00000000E+00
  0.00000000E+00  0.00000000E+00  0.00000000E+00
  0.00000000E+00  0.00000000E+00  0.00000000E+00
  0.00000000E+00  0.00000000E+00  0.00000000E+00
  0.00000000E+00  0.00000000E+00  0.00000000E+00
  0.00000000E+00  0.00000000E+00  0.00000000E+00
  0.00000000E+00  0.00000000E+00  0.00000000E+00
  0.00000000E+00  0.00000000E+00  0.00000000E+00
  0.00000000E+00  0.00000000E+00  0.00000000E+00