FeMn_288_15                             
    1.000000000000000     
     9.7266779999999997    0.0000000000000000    0.0000000000000000
     0.0000000000000000    8.4235500000000005    0.0000000000000000
     0.0000000000000000    0.0000000000000000   45.0000000000000000
   Fe   Mn
   273    15
Direct
  0.4375641760278856  0.9554225080921591  0.4786985090576361
  0.5633957924596013  0.5283089382179411  0.1248885352230310
  0.6870593725486412  0.7976161633329792  0.8750285556047774
  0.4373176061614282  0.1302221614453231  0.7879528191950202
  0.8121212440656715  0.0366334095649063  0.3895709887005542
  0.1878630729118965  0.4573205216398338  0.5656920965668357
  0.8121580077074503  0.8800282162717395  0.7879368617765536
  0.8120662253156367  0.7144657928219452  0.8327079550579546
  0.5627912060677224  0.7111047497384605  0.6992974727398406
  0.4377466533287331  0.4477889052860025  0.2120356358599100
  0.8128240244591975  0.3633176484396115  0.1672064346413596
  0.0622531066513892  0.5417676930842240  0.6105141341268563
  0.8125231945770527  0.8722409139118151  0.5215712249854008
  0.9374876180731376  0.9554380737056833  0.4786237336800213
  0.6881737508151605  0.2811602044473165  0.1249544025575537
  0.6879942203891035  0.6203932062444472  0.4344423357705892
  0.0622105092513428  0.0318570897400528  0.2563368948594670
  0.8121408732022188  0.5478739531558386  0.8749421416249352
  0.9372147213921314  0.1171004935684339  0.3005566469251686
  0.9373429424488349  0.4645504442002739  0.8327270561214836
  0.8119319742732767  0.5452874100790313  0.7436767928439476
  0.3125376279594899  0.8760261692097066  0.6546461144870495
  0.1877529696891157  0.4557315647488145  0.4786465288427122
  0.3122297663000587  0.5476896508030008  0.8749681513406863
  0.4379153033736953  0.2819702462432315  0.1249682478164409
  0.1875613262009696  0.1210386128526657  0.4345886571194639
  0.3125149625103772  0.5324021335924148  0.2562762084578010
  0.9376564380093978  0.9610334241788263  0.6993883178446167
  0.0614394227651645  0.0287719108790579  0.1249220641690371
  0.0623223878862186  0.3669963452630085  0.3006148849250943
  0.1873136081800389  0.7860794847356649  0.3896054117212131
  0.1867178162126152  0.9478381245423325  0.2120400359774730
  0.8127381490116874  0.8630281075164029  0.1672072505638927
  0.9375761179891720  0.7820312872904848  0.2562865630063905
  0.3127162123802383  0.7072629389399693  0.5656108685471234
  0.6876638114598851  0.6262337573658211  0.6546077047471134
  0.5625068119703068  0.7070542531863137  0.5654837466514443
  0.1876101916806713  0.7977885709055798  0.8750212126905016
  0.6878268841945103  0.6225007941001406  0.5215529201793322
  0.3122504879772126  0.2017535646730019  0.3453330894989474
  0.1873159461148088  0.6258169341965795  0.6545687759024561
  0.8123460982422719  0.2011126194107468  0.3453252960705139
  0.0623419734109261  0.2012717679876619  0.3452541467820596
  0.3125868525050181  0.6968150647049620  0.2121319005039783
  0.0626236320797769  0.5322025636835097  0.2561662783859389
  0.4373377282441179  0.1118564493714571  0.1670481530812310
  0.5626634091468706  0.3766315035042779  0.6546224007074455
  0.9374088157976639  0.1224731764666486  0.5215238474318072
  0.4375640022637490  0.1229400511265506  0.5216513215611221
  0.6875468228334518  0.9650007622749072  0.8327095702996020
  0.0617401680801727  0.5287994775401114  0.1248740161504318
  0.8123540915265740  0.7113622491370790  0.6993486322198270
  0.4374366434860368  0.7980653936554809  0.8749963114084677
  0.4375871873988325  0.1263386018710013  0.6546330724628470
  0.0624894585119426  0.6974098728243664  0.2120576552110331
  0.5626981020555448  0.3662176593920136  0.3006752812396499
  0.3126746170272338  0.7055753521342462  0.4786088241189916
  0.1873143148192860  0.1261991336372165  0.6547027056290585
  0.3124169164582514  0.3623989621085432  0.1670146700660650
  0.8126732683216487  0.6977838526227187  0.2119220374487935
  0.8121247961801709  0.7055714650320970  0.4785998128161525
  0.1869818388587917  0.4606971991188064  0.6993774576985149
  0.6884954983258398  0.7808902070776633  0.1249608317595100
  0.3124888041942041  0.0474397593653872  0.8749868099459802
  0.6875468116858834  0.2955715249277742  0.7435447878295233
  0.1875962520228333  0.1228836738837294  0.5215711721967504
  0.3125631437160967  0.8722757381370467  0.5215107986903901
  0.4369724967997004  0.6163377068250133  0.3005483814956848
  0.4375351226301836  0.9645820074028236  0.8326661174536092
  0.5626402515928063  0.5365227027672318  0.3895559884318483
  0.1874636943660640  0.9572847893584598  0.5655653859387879
  0.0629083135460749  0.3724040698335064  0.5214764511819494
  0.4373914235458046  0.6305789429883465  0.7878835674681974
  0.4373327307466472  0.6260202491134939  0.6546411752068801
  0.4373947794349083  0.6204745147046172  0.4344712932561492
  0.6875746851625278  0.2866808900565148  0.3894893859350562
  0.1878085998309186  0.6126115686035427  0.1671494673520987
  0.4375572276964502  0.2821164365843438  0.2563192694174804
  0.9374163192011375  0.9571274158658362  0.5655749996484964
  0.3130924288435063  0.2113536924286690  0.6994285302007094
  0.3127496234988315  0.7105110923300418  0.6993563337730874
  0.3121591463321268  0.8800869396317901  0.7879360478718426
  0.5623161199448971  0.0472910312574838  0.8749769829738131
  0.4375216841674949  0.4572790236206748  0.5656499879741254
  0.8118220923008784  0.0470495343806802  0.8749788779605689
  0.3124939870042072  0.3762362452242886  0.6545575281295901
  0.3126271138464182  0.5364726746314802  0.3895098266151228
  0.3125638056600173  0.2069435613013261  0.5655167330317714
  0.5623804670887322  0.0366480475865875  0.3896460222319345
  0.0623974529206766  0.2146859081387234  0.8327494400732361
  0.5624104259112053  0.5460909768010752  0.7437029004449734
  0.4372226330650082  0.2958236546638095  0.7437167576511354
  0.1873581005816164  0.4518894830737074  0.3452712917305962
  0.0620009239546510  0.1983803105247892  0.2121344220482861
  0.4378396084329724  0.4518821579851712  0.3452203767515119
  0.0623555755343367  0.7108287847552781  0.6993422768387186
  0.8122804791226828  0.3721811837643568  0.5214992119013059
  0.6875455330213779  0.2922002853360789  0.6104714300623004
  0.1876652330004781  0.4647950932407113  0.8328125625200741
  0.6881220798346076  0.9475166190281143  0.2120149289224422
  0.4374889404341707  0.4555819536648646  0.4786972043835093
  0.0625650420055677  0.5476478283740632  0.8749822534764831
  0.9374755237837604  0.9476411335146988  0.2119594057348704
  0.4384186401074850  0.7812832683242962  0.1248038224998479
  0.9370292873050000  0.2812538510831462  0.1249601845466655
  0.1873073059109663  0.2960768878545373  0.7437379150426756
  0.1877602471703353  0.9558939357758933  0.4786857835006765
  0.4378885702864321  0.9478804481610255  0.2121866693004210
  0.8126130331438695  0.0293399625234359  0.1248208850853064
  0.8123574875812044  0.5363731691241630  0.3895481331515041
  0.0623510780634544  0.8722396916476539  0.5215441704819990
  0.1877822681624251  0.2916768441637173  0.6105118101656959
  0.6876185783454399  0.4479123698931490  0.2120608386155977
  0.6875719257707402  0.4515346465206332  0.3452818190772446
  0.8126183536399819  0.3704067129000227  0.4344388211784671
  0.0621711349865554  0.7011411926692180  0.3453396187478687
  0.8123609808218502  0.0414808122217370  0.6103883523920528
  0.6878103073475252  0.7818661998344724  0.2563456755105472
  0.5626482538299484  0.2144964602069602  0.8327430864572741
  0.3127141581711654  0.8664683586099330  0.3006430284658473
  0.0625584651028621  0.7071996624053409  0.5657818656425800
  0.0626116754374851  0.8764011774003077  0.6546776276127810
  0.8121811260968268  0.3799268566894764  0.7879999992845532
  0.6875902014286192  0.1226023531433613  0.5216532439217296
  0.3124100125076405  0.2144277564022813  0.8326999222672045
  0.3125064072578562  0.5460417307636990  0.7436820455805307
  0.6880532797392288  0.1135405499134390  0.1673220399103925
  0.9372583136825716  0.1215043511755020  0.4344631782544439
  0.9376443030385653  0.7911455231760302  0.6104468887322941
  0.1870621502426155  0.6169637000995331  0.3004866403005353
  0.0623050603894389  0.5451591277379756  0.7435689922058732
  0.6874548266845851  0.2822203770762558  0.2562631850376412
  0.5627465949640016  0.8723261488879523  0.5214419716156142
  0.6873139736379320  0.7864690231545676  0.3895494616529089
  0.3125735261443683  0.7146425533768904  0.8326916600187664
  0.0620533942705018  0.0462032790135847  0.7436989166096264
  0.0622675524697220  0.8799104151162700  0.7879531196375382
  0.0625492381596196  0.7146194513378396  0.8326653506457991
  0.1877557349184868  0.2825660801513123  0.2562960920691582
  0.6872590946412965  0.6301408789919705  0.7880035162272871
  0.1866000841083384  0.7812410417706238  0.1247932215295022
  0.1871263446508153  0.7820715205689693  0.2563080904882354
  0.0626133672818835  0.3798276527750406  0.7879275351473425
  0.9372149336893651  0.9513721106384169  0.3454355869215424
  0.3122390236374691  0.3704683982554923  0.4345884240809292
  0.8119239512273952  0.8708419967959504  0.4345531818362930
  0.8124475712726033  0.8764753551506437  0.6545389367960081
  0.5634027720068238  0.1979274350057784  0.2122562609270519
  0.4376598484807685  0.6226528142763796  0.5216620134596995
  0.3126858712423452  0.5415100601884677  0.6104968873046741
  0.5621969970067467  0.8759922938760391  0.6545814224841340
  0.8122522691235760  0.5316417888093922  0.2562095775777951
  0.4378772908893836  0.7861288039317836  0.3895746464917085
  0.3122577303442434  0.1974947829108438  0.2121639236264365
  0.8120942056449523  0.2146153196984958  0.8328161514306323
  0.5626593897308194  0.8669781698018693  0.3006645148458452
  0.1876950584540122  0.7916718904309701  0.6104194987760282
  0.5626371354110029  0.6974444344791886  0.2120727061433688
  0.5626694991052417  0.2069876806716671  0.5655236648941651
  0.1874634051351100  0.2977218672759747  0.8750499253317207
  0.4375261896570622  0.1207415054134740  0.4344732544921999
  0.9373169228751335  0.7959910420429875  0.7436622113096607
  0.5626201840864481  0.3725800918148003  0.5215124734722950
  0.3126545779368911  0.2055540311438555  0.4785748286877639
  0.6877407477306391  0.7913577993766906  0.6104401247816346
  0.1877516561343046  0.6305211225093503  0.7879468825410035
  0.1875567906603726  0.6203850440170167  0.4345136201993492
  0.5627685855232801  0.5415073473397931  0.6104127512387039
  0.5625325966318051  0.7055175777634323  0.4785375364769229
  0.1872033069414711  0.9648633723439758  0.8327630057140333
  0.8127003914897634  0.5289470452818198  0.1248448440154678
  0.4373826463852265  0.9519294749644003  0.3452834826339575
  0.9367606106819201  0.7808972425332616  0.1248972288771576
  0.1881126168551479  0.9514907400685858  0.3453398712537530
  0.6874918002367029  0.1260135171442706  0.6546260140779119
  0.4372395273987627  0.9604870736436979  0.6993480818585163
  0.4374483042432233  0.2980768553018313  0.8749331713033920
  0.8127007566373909  0.7013838348469956  0.3452556093859644
  0.4369611560001889  0.6124452438825063  0.1673030330083984
  0.8124938827470541  0.2052598640299233  0.4786013564259090
  0.8125375531091171  0.2069811602299207  0.5656764191114045
  0.9373782477015431  0.7867770619739493  0.3894633555220715
  0.0622429556385146  0.3762591909267589  0.6546392539665148
  0.3124092044217025  0.3725359118791068  0.5215531587719494
  0.5622410970992040  0.0454923130494085  0.7437817477849991
  0.6871794809164301  0.2975377622906159  0.8750089916580961
  0.8126624574685370  0.3672898801388694  0.3006761345332570
  0.9372102184157126  0.2859899693590272  0.3897103585323473
  0.5626927311537220  0.0319078371430172  0.2562842849216402
  0.3123284714290739  0.0457490773579906  0.7436613985884206
  0.5623214174254619  0.3799397414849006  0.7879453694661133
  0.6880489730668916  0.6131157054439812  0.1672871389693236
  0.1877829315031628  0.2861294592116542  0.3895060223186015
  0.5623337086612791  0.7146472799013722  0.8327389036042572
  0.5622319074046720  0.8635872158650539  0.1670353854969391
  0.5629413279115488  0.2021504787558537  0.3453620017929089
  0.0625908375089589  0.0415719260542494  0.6104866742131366
  0.6874072592014964  0.1210728541408569  0.4345241805497134
  0.8123399565304992  0.7072509021919353  0.5657078424003252
  0.6876804001240124  0.9573219342459640  0.5656743082391797
  0.1871213149424695  0.1304608742334507  0.7879499520904648
  0.3124381707628628  0.0321771849702132  0.2562440704066135
  0.8126325003883959  0.5414922452267232  0.6105191428483597
  0.8121627324055720  0.2113758168682223  0.6993005590897018
  0.5630887304711522  0.2113678599349086  0.6994610022615556
  0.9373546446674914  0.6227537584928278  0.5214420433083266
  0.6873728303381620  0.9521387638044976  0.3453297378289205
  0.6874324727447239  0.4572975594841776  0.5657873460912469
  0.9376819378236759  0.4511506435497754  0.3453269658925969
  0.6879450930780993  0.4611857388916304  0.6993433445678127
  0.9367685430054693  0.1262487345162135  0.6545934344052314
  0.5627198086355424  0.5320524285530631  0.2561749650342663
  0.0629525924813062  0.8636265839552225  0.1670764859029065
  0.1873205185346427  0.1165735536201458  0.3006286513800690
  0.3123708824830481  0.5297230659188581  0.1248531881301519
  0.9370163414293009  0.6299880288268611  0.7879204430352105
  0.1876817845952601  0.9609203602195898  0.6993522685338716
  0.4373710365796168  0.7916000077576772  0.6104154781448261
  0.9372237017040385  0.1134763014112464  0.1673504866283284
  0.9378874481341257  0.2823926373154246  0.2563592936810755
  0.4375224517044016  0.9573988455604810  0.5655571454439801
  0.1873775156659225  0.4474459763234629  0.2119906450200932
  0.9374851936109738  0.4571417566403714  0.5654011933269264
  0.1872914511962059  0.6222818146555221  0.5215142113279070
  0.8125816533875119  0.3761918242452151  0.6546523640106757
  0.3128797924007014  0.3801717163665280  0.7879931761395818
  0.9374874268451283  0.1305665319141053  0.7879821362242659
  0.0623862222549240  0.3704332920652390  0.4344958154745622
  0.9371100980740442  0.6205216823652899  0.4345787373647740
  0.9373799760594891  0.2979495322687699  0.8749609949853479
  0.9372431278343408  0.9642668689200155  0.8328132880909602
  0.4373998475896512  0.4613694684338455  0.6994354874754568
  0.9373722183730536  0.6129087501527481  0.1672669739565198
  0.9373872281882588  0.7980548461826564  0.8749637450507227
  0.0616619179725507  0.3631601311994375  0.1673306204094371
  0.3132570513355996  0.0363095425502280  0.3896109864784457
  0.4374525301163354  0.4643187928942210  0.8327045330552816
  0.0629008525917259  0.0471348282645609  0.8749836560923937
  0.8128912245802561  0.0318058464266880  0.2563016608378335
  0.9378348182465570  0.4607529656020501  0.6993591926115238
  0.0624970141063099  0.5361321868683682  0.3896716685754459
  0.6874175775342776  0.4557674284506027  0.4786382757770251
  0.6877375948334646  0.6168852987086010  0.3005597506747966
  0.4377616955398155  0.7824227760620472  0.2564299948519912
  0.8125153898892156  0.0459278763097610  0.7437449231981877
  0.6872383140579280  0.7958848837964694  0.7437000142421704
  0.5627595402667236  0.0413141753493082  0.6104195813598735
  0.0626050531209154  0.0363259991448139  0.3896080906778867
  0.1874329487214582  0.7957831689285697  0.7437025726008828
  0.4374319748774229  0.2916004352370332  0.6106277990613069
  0.5626393852859277  0.5477834750452618  0.8749646859108060
  0.5626342328008371  0.2054117226404391  0.4786196162305615
  0.5626592750434071  0.8802914562020250  0.7879407464098253
  0.6869254736335259  0.4648769644668441  0.8326936525337223
  0.0625006258051913  0.2069531455058191  0.5657161415781560
  0.0627931962888874  0.7054008289894040  0.4786255706536481
  0.5626947366474461  0.7016037058507175  0.3452162800601520
  0.5633552367818994  0.3633665988982266  0.1672632578917008
  0.6873566116271337  0.9557836418288789  0.4786664794972768
  0.4374044008719089  0.2861715338246186  0.3894548227532034
  0.1871273670034920  0.2820881189222028  0.1250035028734951
  0.0627917249132096  0.8711372247080449  0.4345787790416769
  0.1876311306037892  0.1118730171124366  0.1670038015454640
  0.8126806699513687  0.1977206081304426  0.2120240636645641
  0.6874370094006250  0.1302419951632340  0.7879046941771701
  0.6873011557135964  0.1169005458599092  0.3006042319654487
  0.5635717371312446  0.0288455198949421  0.1249212303425479
  0.9375237130072043  0.4482932030734301  0.2120466842836670
  0.0623073180848565  0.2051579031778367  0.4786475669864207
  0.8123300820797472  0.8664643095079196  0.3005802071566409
  0.9376417463459294  0.2918361493602930  0.6104996356050012
  0.9375994042704539  0.6264314218850381  0.6545464941461070
  0.3129587387520669  0.3666290501185492  0.3007115268792046
  0.3124583163999615  0.8637978347999601  0.1664983289707284
  0.3110530080458496  0.8704308585894620  0.4344558425059447
  0.4378452694465600  0.7962817587808140  0.7437181196744396
  0.3124001135768141  0.7018720902374795  0.3453430950809733
  0.0630125295543994  0.2114091500817481  0.6992595627827460
  0.3129286804575936  0.0413923526828120  0.6105615732968890
  0.6874103404993145  0.9605794230553323  0.6993606819878707
  0.9374356951064737  0.4555550747021238  0.4787037979205100
  0.4373024804052931  0.1173365442976039  0.3004805405677124
  0.3125637865794030  0.0289073563812607  0.1249300595057799
  0.0636526598050032  0.8666426333070301  0.3005894953930655
  0.9366042119861373  0.2959381515027710  0.7438882427605780
  0.5627550634304473  0.3705174836532880  0.4345007583909575
  0.9368478186344190  0.6164708142572582  0.3006263620891393
  0.5642021443727069  0.8706892695508840  0.4344253692814010
 
  0.00000000E+00  0.00000000E+00  0.00000000E+00
  0.00000000E+00  0.00000000E+00  0.00000000E+00
  0.00000000E+00  0.00000000E+00  0.00000000E+00
  0.00000000E+00  0.00000000E+00  0.00000000E+00
  0.00000000E+00  0.00000000E+00  0.00000000E+00
  0.00000000E+00  0.00000000E+00  0.00000000E+00
  0.00000000E+00  0.00000000E+00  0.00000000E+00
  0.00000000E+00  0.00000000E+00  0.00000000E+00
  0.00000000E+00  0.00000000E+00  0.00000000E+00
  0.00000000E+00  0.00000000E+00  0.00000000E+00
  0.00000000E+00  0.00000000E+00  0.00000000E+00
  0.00000000E+00  0.00000000E+00  0.00000000E+00
  0.00000000E+00  0.00000000E+00  0.00000000E+00
  0.00000000E+00  0.00000000E+00  0.00000000E+00
  0.00000000E+00  0.00000000E+00  0.00000000E+00
  0.00000000E+00  0.00000000E+00  0.00000000E+00
  0.00000000E+00  0.00000000E+00  0.00000000E+00
  0.00000000E+00  0.00000000E+00  0.00000000E+00
  0.00000000E+00  0.00000000E+00  0.00000000E+00
  0.00000000E+00  0.00000000E+00  0.00000000E+00
  0.00000000E+00  0.00000000E+00  0.00000000E+00
  0.00000000E+00  0.00000000E+00  0.00000000E+00
  0.00000000E+00  0.00000000E+00  0.00000000E+00
  0.00000000E+00  0.00000000E+00  0.00000000E+00
  0.00000000E+00  0.00000000E+00  0.00000000E+00
  0.00000000E+00  0.00000000E+00  0.00000000E+00
  0.00000000E+00  0.00000000E+00  0.00000000E+00
  0.00000000E+00  0.00000000E+00  0.00000000E+00
  0.00000000E+00  0.00000000E+00  0.00000000E+00
  0.00000000E+00  0.00000000E+00  0.00000000E+00
  0.00000000E+00  0.00000000E+00  0.00000000E+00
  0.00000000E+00  0.00000000E+00  0.00000000E+00
  0.00000000E+00  0.00000000E+00  0.00000000E+00
  0.00000000E+00  0.00000000E+00  0.00000000E+00
  0.00000000E+00  0.00000000E+00  0.00000000E+00
  0.00000000E+00  0.00000000E+00  0.00000000E+00
  0.00000000E+00  0.00000000E+00  0.00000000E+00
  0.00000000E+00  0.00000000E+00  0.00000000E+00
  0.00000000E+00  0.00000000E+00  0.00000000E+00
  0.00000000E+00  0.00000000E+00  0.00000000E+00
  0.00000000E+00  0.00000000E+00  0.00000000E+00
  0.00000000E+00  0.00000000E+00  0.00000000E+00
  0.00000000E+00  0.00000000E+00  0.00000000E+00
  0.00000000E+00  0.00000000E+00  0.00000000E+00
  0.00000000E+00  0.00000000E+00  0.00000000E+00
  0.00000000E+00  0.00000000E+00  0.00000000E+00
  0.00000000E+00  0.00000000E+00  0.00000000E+00
  0.00000000E+00  0.00000000E+00  0.00000000E+00
  0.00000000E+00  0.00000000E+00  0.00000000E+00
  0.00000000E+00  0.00000000E+00  0.00000000E+00
  0.00000000E+00  0.00000000E+00  0.00000000E+00
  0.00000000E+00  0.00000000E+00  0.00000000E+00
  0.00000000E+00  0.00000000E+00  0.00000000E+00
  0.00000000E+00  0.00000000E+00  0.00000000E+00
  0.00000000E+00  0.00000000E+00  0.00000000E+00
  0.00000000E+00  0.00000000E+00  0.00000000E+00
  0.00000000E+00  0.00000000E+00  0.00000000E+00
  0.00000000E+00  0.00000000E+00  0.00000000E+00
  0.00000000E+00  0.00000000E+00  0.00000000E+00
  0.00000000E+00  0.00000000E+00  0.00000000E+00
  0.00000000E+00  0.00000000E+00  0.00000000E+00
  0.00000000E+00  0.00000000E+00  0.00000000E+00
  0.00000000E+00  0.00000000E+00  0.00000000E+00
  0.00000000E+00  0.00000000E+00  0.00000000E+00
  0.00000000E+00  0.00000000E+00  0.00000000E+00
  0.00000000E+00  0.00000000E+00  0.00000000E+00
  0.00000000E+00  0.00000000E+00  0.00000000E+00
  0.00000000E+00  0.00000000E+00  0.00000000E+00
  0.00000000E+00  0.00000000E+00  0.00000000E+00
  0.00000000E+00  0.00000000E+00  0.00000000E+00
  0.00000000E+00  0.00000000E+00  0.00000000E+00
  0.00000000E+00  0.00000000E+00  0.00000000E+00
  0.00000000E+00  0.00000000E+00  0.00000000E+00
  0.00000000E+00  0.00000000E+00  0.00000000E+00
  0.00000000E+00  0.00000000E+00  0.00000000E+00
  0.00000000E+00  0.00000000E+00  0.00000000E+00
  0.00000000E+00  0.00000000E+00  0.00000000E+00
  0.00000000E+00  0.00000000E+00  0.00000000E+00
  0.00000000E+00  0.00000000E+00  0.00000000E+00
  0.00000000E+00  0.00000000E+00  0.00000000E+00
  0.00000000E+00  0.00000000E+00  0.00000000E+00
  0.00000000E+00  0.00000000E+00  0.00000000E+00
  0.00000000E+00  0.00000000E+00  0.00000000E+00
  0.00000000E+00  0.00000000E+00  0.00000000E+00
  0.00000000E+00  0.00000000E+00  0.00000000E+00
  0.00000000E+00  0.00000000E+00  0.00000000E+00
  0.00000000E+00  0.00000000E+00  0.00000000E+00
  0.00000000E+00  0.00000000E+00  0.00000000E+00
  0.00000000E+00  0.00000000E+00  0.00000000E+00
  0.00000000E+00  0.00000000E+00  0.00000000E+00
  0.00000000E+00  0.00000000E+00  0.00000000E+00
  0.00000000E+00  0.00000000E+00  0.00000000E+00
  0.00000000E+00  0.00000000E+00  0.00000000E+00
  0.00000000E+00  0.00000000E+00  0.00000000E+00
  0.00000000E+00  0.00000000E+00  0.00000000E+00
  0.00000000E+00  0.00000000E+00  0.00000000E+00
  0.00000000E+00  0.00000000E+00  0.00000000E+00
  0.00000000E+00  0.00000000E+00  0.00000000E+00
  0.00000000E+00  0.00000000E+00  0.00000000E+00
  0.00000000E+00  0.00000000E+00  0.00000000E+00
  0.00000000E+00  0.00000000E+00  0.00000000E+00
  0.00000000E+00  0.00000000E+00  0.00000000E+00
  0.00000000E+00  0.00000000E+00  0.00000000E+00
  0.00000000E+00  0.00000000E+00  0.00000000E+00
  0.00000000E+00  0.00000000E+00  0.00000000E+00
  0.00000000E+00  0.00000000E+00  0.00000000E+00
  0.00000000E+00  0.00000000E+00  0.00000000E+00
  0.00000000E+00  0.00000000E+00  0.00000000E+00
  0.00000000E+00  0.00000000E+00  0.00000000E+00
  0.00000000E+00  0.00000000E+00  0.00000000E+00
  0.00000000E+00  0.00000000E+00  0.00000000E+00
  0.00000000E+00  0.00000000E+00  0.00000000E+00
  0.00000000E+00  0.00000000E+00  0.00000000E+00
  0.00000000E+00  0.00000000E+00  0.00000000E+00
  0.00000000E+00  0.00000000E+00  0.00000000E+00
  0.00000000E+00  0.00000000E+00  0.00000000E+00
  0.00000000E+00  0.00000000E+00  0.00000000E+00
  0.00000000E+00  0.00000000E+00  0.00000000E+00
  0.00000000E+00  0.00000000E+00  0.00000000E+00
  0.00000000E+00  0.00000000E+00  0.00000000E+00
  0.00000000E+00  0.00000000E+00  0.00000000E+00
  0.00000000E+00  0.00000000E+00  0.00000000E+00
  0.00000000E+00  0.00000000E+00  0.00000000E+00
  0.00000000E+00  0.00000000E+00  0.00000000E+00
  0.00000000E+00  0.00000000E+00  0.00000000E+00
  0.00000000E+00  0.00000000E+00  0.00000000E+00
  0.00000000E+00  0.00000000E+00  0.00000000E+00
  0.00000000E+00  0.00000000E+00  0.00000000E+00
  0.00000000E+00  0.00000000E+00  0.00000000E+00
  0.00000000E+00  0.00000000E+00  0.00000000E+00
  0.00000000E+00  0.00000000E+00  0.00000000E+00
  0.00000000E+00  0.00000000E+00  0.00000000E+00
  0.00000000E+00  0.00000000E+00  0.00000000E+00
  0.00000000E+00  0.00000000E+00  0.00000000E+00
  0.00000000E+00  0.00000000E+00  0.00000000E+00
  0.00000000E+00  0.00000000E+00  0.00000000E+00
  0.00000000E+00  0.00000000E+00  0.00000000E+00
  0.00000000E+00  0.00000000E+00  0.00000000E+00
  0.00000000E+00  0.00000000E+00  0.00000000E+00
  0.00000000E+00  0.00000000E+00  0.00000000E+00
  0.00000000E+00  0.00000000E+00  0.00000000E+00
  0.00000000E+00  0.00000000E+00  0.00000000E+00
  0.00000000E+00  0.00000000E+00  0.00000000E+00
  0.00000000E+00  0.00000000E+00  0.00000000E+00
  0.00000000E+00  0.00000000E+00  0.00000000E+00
  0.00000000E+00  0.00000000E+00  0.00000000E+00
  0.00000000E+00  0.00000000E+00  0.00000000E+00
  0.00000000E+00  0.00000000E+00  0.00000000E+00
  0.00000000E+00  0.00000000E+00  0.00000000E+00
  0.00000000E+00  0.00000000E+00  0.00000000E+00
  0.00000000E+00  0.00000000E+00  0.00000000E+00
  0.00000000E+00  0.00000000E+00  0.00000000E+00
  0.00000000E+00  0.00000000E+00  0.00000000E+00
  0.00000000E+00  0.00000000E+00  0.00000000E+00
  0.00000000E+00  0.00000000E+00  0.00000000E+00
  0.00000000E+00  0.00000000E+00  0.00000000E+00
  0.00000000E+00  0.00000000E+00  0.00000000E+00
  0.00000000E+00  0.00000000E+00  0.00000000E+00
  0.00000000E+00  0.00000000E+00  0.00000000E+00
  0.00000000E+00  0.00000000E+00  0.00000000E+00
  0.00000000E+00  0.00000000E+00  0.00000000E+00
  0.00000000E+00  0.00000000E+00  0.00000000E+00
  0.00000000E+00  0.00000000E+00  0.00000000E+00
  0.00000000E+00  0.00000000E+00  0.00000000E+00
  0.00000000E+00  0.00000000E+00  0.00000000E+00
  0.00000000E+00  0.00000000E+00  0.00000000E+00
  0.00000000E+00  0.00000000E+00  0.00000000E+00
  0.00000000E+00  0.00000000E+00  0.00000000E+00
  0.00000000E+00  0.00000000E+00  0.00000000E+00
  0.00000000E+00  0.00000000E+00  0.00000000E+00
  0.00000000E+00  0.00000000E+00  0.00000000E+00
  0.00000000E+00  0.00000000E+00  0.00000000E+00
  0.00000000E+00  0.00000000E+00  0.00000000E+00
  0.00000000E+00  0.00000000E+00  0.00000000E+00
  0.00000000E+00  0.00000000E+00  0.00000000E+00
  0.00000000E+00  0.00000000E+00  0.00000000E+00
  0.00000000E+00  0.00000000E+00  0.00000000E+00
  0.00000000E+00  0.00000000E+00  0.00000000E+00
  0.00000000E+00  0.00000000E+00  0.00000000E+00
  0.00000000E+00  0.00000000E+00  0.00000000E+00
  0.00000000E+00  0.00000000E+00  0.00000000E+00
  0.00000000E+00  0.00000000E+00  0.00000000E+00
  0.00000000E+00  0.00000000E+00  0.00000000E+00
  0.00000000E+00  0.00000000E+00  0.00000000E+00
  0.00000000E+00  0.00000000E+00  0.00000000E+00
  0.00000000E+00  0.00000000E+00  0.00000000E+00
  0.00000000E+00  0.00000000E+00  0.00000000E+00
  0.00000000E+00  0.00000000E+00  0.00000000E+00
  0.00000000E+00  0.00000000E+00  0.00000000E+00
  0.00000000E+00  0.00000000E+00  0.00000000E+00
  0.00000000E+00  0.00000000E+00  0.00000000E+00
  0.00000000E+00  0.00000000E+00  0.00000000E+00
  0.00000000E+00  0.00000000E+00  0.00000000E+00
  0.00000000E+00  0.00000000E+00  0.00000000E+00
  0.00000000E+00  0.00000000E+00  0.00000000E+00
  0.00000000E+00  0.00000000E+00  0.00000000E+00
  0.00000000E+00  0.00000000E+00  0.00000000E+00
  0.00000000E+00  0.00000000E+00  0.00000000E+00
  0.00000000E+00  0.00000000E+00  0.00000000E+00
  0.00000000E+00  0.00000000E+00  0.00000000E+00
  0.00000000E+00  0.00000000E+00  0.00000000E+00
  0.00000000E+00  0.00000000E+00  0.00000000E+00
  0.00000000E+00  0.00000000E+00  0.00000000E+00
  0.00000000E+00  0.00000000E+00  0.00000000E+00
  0.00000000E+00  0.00000000E+00  0.00000000E+00
  0.00000000E+00  0.00000000E+00  0.00000000E+00
  0.00000000E+00  0.00000000E+00  0.00000000E+00
  0.00000000E+00  0.00000000E+00  0.00000000E+00
  0.00000000E+00  0.00000000E+00  0.00000000E+00
  0.00000000E+00  0.00000000E+00  0.00000000E+00
  0.00000000E+00  0.00000000E+00  0.00000000E+00
  0.00000000E+00  0.00000000E+00  0.00000000E+00
  0.00000000E+00  0.00000000E+00  0.00000000E+00
  0.00000000E+00  0.00000000E+00  0.00000000E+00
  0.00000000E+00  0.00000000E+00  0.00000000E+00
  0.00000000E+00  0.00000000E+00  0.00000000E+00
  0.00000000E+00  0.00000000E+00  0.00000000E+00
  0.00000000E+00  0.00000000E+00  0.00000000E+00
  0.00000000E+00  0.00000000E+00  0.00000000E+00
  0.00000000E+00  0.00000000E+00  0.00000000E+00
  0.00000000E+00  0.00000000E+00  0.00000000E+00
  0.00000000E+00  0.00000000E+00  0.00000000E+00
  0.00000000E+00  0.00000000E+00  0.00000000E+00
  0.00000000E+00  0.00000000E+00  0.00000000E+00
  0.00000000E+00  0.00000000E+00  0.00000000E+00
  0.00000000E+00  0.00000000E+00  0.00000000E+00
  0.00000000E+00  0.00000000E+00  0.00000000E+00
  0.00000000E+00  0.00000000E+00  0.00000000E+00
  0.00000000E+00  0.00000000E+00  0.00000000E+00
  0.00000000E+00  0.00000000E+00  0.00000000E+00
  0.00000000E+00  0.00000000E+00  0.00000000E+00
  0.00000000E+00  0.00000000E+00  0.00000000E+00
  0.00000000E+00  0.00000000E+00  0.00000000E+00
  0.00000000E+00  0.00000000E+00  0.00000000E+00
  0.00000000E+00  0.00000000E+00  0.00000000E+00
  0.00000000E+00  0.00000000E+00  0.00000000E+00
  0.00000000E+00  0.00000000E+00  0.00000000E+00
  0.00000000E+00  0.00000000E+00  0.00000000E+00
  0.00000000E+00  0.00000000E+00  0.00000000E+00
  0.00000000E+00  0.00000000E+00  0.00000000E+00
  0.00000000E+00  0.00000000E+00  0.00000000E+00
  0.00000000E+00  0.00000000E+00  0.00000000E+00
  0.00000000E+00  0.00000000E+00  0.00000000E+00
  0.00000000E+00  0.00000000E+00  0.00000000E+00
  0.00000000E+00  0.00000000E+00  0.00000000E+00
  0.00000000E+00  0.00000000E+00  0.00000000E+00
  0.00000000E+00  0.00000000E+00  0.00000000E+00