FeMn_288_15                             
    1.000000000000000     
     9.7266779999999997    0.0000000000000000    0.0000000000000000
     0.0000000000000000    8.4235500000000005    0.0000000000000000
     0.0000000000000000    0.0000000000000000   45.0000000000000000
   Fe   Mn
   273    15
Direct
  0.4374066000805121  0.9549418201361008  0.4784865598373014
  0.5625708369413732  0.5279172924691676  0.1243114087093873
  0.6873148199237875  0.7996738126509672  0.8757670695558211
  0.4372841627568385  0.1305970921508693  0.7886371154778042
  0.8122722534861786  0.0368261596376368  0.3894193720362906
  0.1876874966391807  0.4569776850914370  0.5658669822998234
  0.8125635509703487  0.8805219241353532  0.7885570806883355
  0.8120658991089232  0.7157648609125414  0.8334314778499392
  0.5624536722206076  0.7104918949933764  0.6996058243815305
  0.4376786138804756  0.4474854189340003  0.2113362990891700
  0.8126437663972914  0.3622764576529939  0.1666279848838947
  0.0621540302505698  0.5413968563884743  0.6106397535006098
  0.8125527929132118  0.8727021412050932  0.5215299101499584
  0.9375835011830580  0.9548881865565649  0.4785223141535131
  0.6876003700102409  0.2775431187720741  0.1243680386779913
  0.6880214151119028  0.6207605214367158  0.4342385415306909
  0.0624390497432858  0.0322021385947567  0.2558222796840599
  0.8120957002498361  0.5497165905982134  0.8757289649533770
  0.9372007730499281  0.1172038785262589  0.3002894127080081
  0.9372446216844632  0.4657665798805734  0.8334729170907551
  0.8124152070153956  0.5453631960373050  0.7440685360790427
  0.3126091266131859  0.8752130367083512  0.6548327064275531
  0.1877270747504204  0.4552586185028926  0.4785046978189257
  0.3119633632272854  0.5495118446326570  0.8757228679263381
  0.4379595089605040  0.2780165310637607  0.1242921109811434
  0.1876003617241784  0.1214713207825818  0.4343797035485305
  0.3126371105395243  0.5324272909482198  0.2557758076876303
  0.9377363637932302  0.9608301188060414  0.6997227317775746
  0.0621156569003576  0.0277365701343433  0.1243217756424622
  0.0626948546129157  0.3677817723939665  0.3002860846288774
  0.1874558163366734  0.7863255928782545  0.3893321569412688
  0.1870560929938190  0.9475048464324415  0.2114062268735155
  0.8125094632332669  0.8619397033273586  0.1665839508434332
  0.9374321561058887  0.7819411513787928  0.2558249303025657
  0.3126471590453798  0.7068426940910755  0.5657477119725908
  0.6878513198391036  0.6257355235170630  0.6548259660869624
  0.5625328742197137  0.7067093015048199  0.5656583630865646
  0.1869924452668141  0.7995891025491285  0.8757402009657297
  0.6877597062764109  0.6230600967796875  0.5215175647197505
  0.3124914857734258  0.2024736884423900  0.3449999724896781
  0.1873893443990522  0.6255844271905748  0.6547919036377805
  0.8124325972629617  0.2021094003884270  0.3450773110375160
  0.0622450960234398  0.2019766164329969  0.3450495597701105
  0.3126103713423422  0.6964833063013078  0.2114900424114411
  0.0622722556245559  0.5324354683125538  0.2557289942056665
  0.4370054192965271  0.1110620459460847  0.1665424639038230
  0.5626191807214104  0.3759174067584942  0.6549869821521292
  0.9375259365066877  0.1230250376393513  0.5214652553932950
  0.4373990636799043  0.1233175310841971  0.5216014069116360
  0.6873746654096371  0.9659774054425300  0.8335210009639410
  0.0626341939981909  0.5279993450693400  0.1242852688344490
  0.8124574585929605  0.7105526822545968  0.6996396739488353
  0.4370471523206449  0.7997274871911449  0.8757416902402160
  0.4378325643090389  0.1259133728326786  0.6548305354471814
  0.0626038285646035  0.6973588467494216  0.2114859572158684
  0.5626010615241817  0.3670255837398095  0.3003020933248148
  0.3125032616995319  0.7049277363885307  0.4784309321940112
  0.1875609232289412  0.1256899298489753  0.6549125536119531
  0.3124722226733399  0.3611566947560472  0.1663890744914161
  0.8124562458695618  0.6973792150674896  0.2113791856550795
  0.8121366781467340  0.7048991258831911  0.4783992867567130
  0.1874015866929165  0.4604798898453173  0.6996557949268161
  0.6877361154956572  0.7770823958420858  0.1242779539942416
  0.3120046905563293  0.0501030805268043  0.8757507971180856
  0.6876997116616012  0.2954858371559606  0.7440570758957200
  0.1876981726770398  0.1232463686180827  0.5215356866687554
  0.3124773110292116  0.8726426667595925  0.5214554036585219
  0.4373306819384360  0.6170901563858137  0.3002493700852036
  0.4371716042822101  0.9657325947389769  0.8334842035865311
  0.5623719631609053  0.5372222649375532  0.3892360254861940
  0.1874342246908953  0.9567003807242802  0.5656879359134477
  0.0629324886961706  0.3727298295196063  0.5214474399179195
  0.4375098376803562  0.6303446456368490  0.7885651156527735
  0.4375762530166875  0.6255618497191219  0.6548657309966331
  0.4371417878998987  0.6211226370116559  0.4342886954393709
  0.6875019721292801  0.2866286396292964  0.3893291806650322
  0.1879926340611646  0.6116616045487523  0.1665244072337449
  0.4374540463042753  0.2822394325393387  0.2558798190345941
  0.9377068352561259  0.9566763140050262  0.5656770388689339
  0.3128622943230710  0.2105985873580828  0.6997100491718302
  0.3129812162159095  0.7098062787765532  0.6996648278581935
  0.3124652304854028  0.8808212467129539  0.7886114043261921
  0.5622452766518812  0.0501417990008447  0.8757469930975240
  0.4374055378219043  0.4568213282386451  0.5657069568434215
  0.8119346715422732  0.0499391903586695  0.8757597901682751
  0.3125388001413716  0.3756978358583015  0.6548877103030918
  0.3127105924504038  0.5368218710504892  0.3893199540033663
  0.3125881594593996  0.2067465148722336  0.5657308174862461
  0.5623479934100702  0.0371204041249656  0.3893776240480399
  0.0621878142853435  0.2158876273597654  0.8334116478821295
  0.5626576513836794  0.5459153562920893  0.7441603890532812
  0.4376149135081008  0.2958449636157652  0.7442127725181774
  0.1872405104742973  0.4524012523981225  0.3450351247593113
  0.0622846441033036  0.1977326486196864  0.2115883791790653
  0.4377699778415481  0.4523445354485032  0.3450674124345180
  0.0625758522226584  0.7101799623159735  0.6996161495696936
  0.8122815745173791  0.3726446518872631  0.5214865402886074
  0.6876056062902408  0.2917026650590710  0.6106458305354546
  0.1874424357083334  0.4658668894102233  0.8335569061879069
  0.6875385302990357  0.9471849945881309  0.2114542978537528
  0.4373401634085132  0.4549315152795601  0.4784865897334695
  0.0620928137885128  0.5496524853792756  0.8757638156569882
  0.9376977811051268  0.9476858790758862  0.2114749051277252
  0.4382098453535369  0.7777475034774417  0.1240979595115699
  0.9378328755484548  0.2775644957633039  0.1243662309346919
  0.1874394111725887  0.2957486551840166  0.7441898649966971
  0.1877068947570504  0.9552948914305128  0.4785034709026240
  0.4378710589546090  0.9474795833931978  0.2115070378844305
  0.8127277710788252  0.0281924271445587  0.1243635893644804
  0.8126352963734488  0.5367719624764890  0.3892945879180502
  0.0625473010613020  0.8727372100220975  0.5214939666273137
  0.1873669835939812  0.2911482657468512  0.6106815571167092
  0.6873351232779628  0.4473194191934374  0.2114886071881422
  0.6875248974620816  0.4521947518390017  0.3450720361061032
  0.8130134085435049  0.3713628820841366  0.4342520236347291
  0.0619576465096378  0.7020855812281874  0.3450256202977712
  0.8124034034282636  0.0410776077996676  0.6105762891035005
  0.6875835037745789  0.7819492355739911  0.2558488529415366
  0.5623530715024934  0.2156929909556187  0.8333940147359389
  0.3126304007652648  0.8676909405544141  0.3003000326789429
  0.0625240823790138  0.7067240434308780  0.5658491459904670
  0.0627871975290093  0.8756675449382203  0.6548932391034571
  0.8123167059795268  0.3807052985825548  0.7886115918684515
  0.6875203627418205  0.1230973248739936  0.5216145444550557
  0.3122208712888215  0.2157197220494010  0.8333718231961114
  0.3124831322309022  0.5461276182304767  0.7441541359768461
  0.6877956251813617  0.1125648835685906  0.1666601767375987
  0.9374110359465343  0.1215850707472948  0.4343726091987942
  0.9377983769923269  0.7910380820735264  0.6106843648511830
  0.1876179698013710  0.6172841713830421  0.3002913227869849
  0.0627564666414933  0.5450720978944043  0.7440599212714779
  0.6871927401193317  0.2819693755467349  0.2558644513694259
  0.5625431305914187  0.8726467043686640  0.5213741605542491
  0.6875482329092222  0.7867458621169798  0.3893533716511733
  0.3122066325198147  0.7159164603002590  0.8334281895616497
  0.0627511271053496  0.0461736367305542  0.7441570822744810
  0.0623457640083717  0.8803887313291192  0.7886288138817812
  0.0623548886041033  0.7158611694189692  0.8333704147262161
  0.1876699315540466  0.2823245607731825  0.2559371794707442
  0.6871162388862538  0.6301933742147048  0.7886594385634798
  0.1872113686366396  0.7777753602043715  0.1240873648380929
  0.1873097453096929  0.7823667427443562  0.2558630618676906
  0.0625967440058961  0.3808180752209327  0.7886090839184412
  0.9376700455300236  0.9517916387216908  0.3450776392245977
  0.3119938189858361  0.3710372290165874  0.4344211260674765
  0.8126284456626084  0.8714514995263355  0.4343902250565914
  0.8126698169973060  0.8758063328471007  0.6548503109284439
  0.5626994800092272  0.1972045490127045  0.2116419748122062
  0.4375950933547006  0.6230539140612011  0.5215864535177562
  0.3123372314884254  0.5411830793494574  0.6106660824528343
  0.5625328140633601  0.8755984038073952  0.6548484736615182
  0.8124676275205245  0.5321837348449848  0.2557968165633461
  0.4377409254267156  0.7864228703756527  0.3893892601406569
  0.3125478051367818  0.1969302438830353  0.2114216443987591
  0.8120948349304720  0.2159580959787150  0.8334881780148711
  0.5624744327552885  0.8677592796126731  0.3004089382114493
  0.1872652422754825  0.7915569414053650  0.6107085456913474
  0.5623993209736726  0.6973452631533011  0.2115535124004539
  0.5623191787327233  0.2067233671018871  0.5657689180915142
  0.1871001439879133  0.3000055009291517  0.8757847983998415
  0.4372696214135895  0.1208030346566305  0.4342140639522367
  0.9375548372728123  0.7955463455422892  0.7440589943605582
  0.5624972965770982  0.3728813139211619  0.5214381613277886
  0.3125594170050082  0.2048216986688718  0.4783557943698747
  0.6875545192027634  0.7910698555843448  0.6106305166205230
  0.1877838941420374  0.6304186845169005  0.7885385271432717
  0.1875682192581635  0.6208163955550055  0.4343303464433478
  0.5629198828985704  0.5413209736751070  0.6107276230218327
  0.5625523685341572  0.7047919864699498  0.4783253501789285
  0.1870287563605200  0.9658148988720453  0.8335187361380164
  0.8126493496021088  0.5281979574306337  0.1243356042875377
  0.4376394874026373  0.9526227814657657  0.3451533583844168
  0.9375363686587155  0.7771154531843539  0.1242398093900261
  0.1877185401469803  0.9517393075982227  0.3450688617687160
  0.6876513169096821  0.1258285661390466  0.6548307514952941
  0.4372886444502395  0.9603846454970447  0.6996202580357188
  0.4371841135940752  0.3001334853627591  0.8756894942691531
  0.8125672533839995  0.7022560950443607  0.3449773771267354
  0.4370936387978141  0.6117718623530078  0.1666501601473412
  0.8125234361500883  0.2048781715859899  0.4784303194815260
  0.8126815335630470  0.2065288426383028  0.5658308834577297
  0.9374037022169484  0.7865768301146909  0.3892510661168098
  0.0625606411064886  0.3758442098481205  0.6548584147147827
  0.3123594993334873  0.3728079002004545  0.5215036531104463
  0.5627544692359860  0.0453824854071196  0.7441215905162295
  0.6870814953264850  0.2998395203897521  0.8757781484238533
  0.8122416294762260  0.3680885534520520  0.3003292308689457
  0.9373934694652758  0.2860755335893794  0.3893786368922930
  0.5623872036645023  0.0322284749551650  0.2558461829811911
  0.3122924106982900  0.0453616400675450  0.7440879471068649
  0.5622780490696504  0.3805222841891142  0.7885379056962247
  0.6877096300890344  0.6119275461383044  0.1666144931117849
  0.1875895631996148  0.2860712321075208  0.3892789827394239
  0.5621623031360830  0.7159254735747188  0.8334509882859269
  0.5621387969271894  0.8624374287802032  0.1663923689854123
  0.5626844059287714  0.2028587941356384  0.3450628187974871
  0.0623834084361075  0.0411763761390810  0.6105981555112133
  0.6879618617219256  0.1216862796293912  0.4343438672309050
  0.8125201189208165  0.7065574216739443  0.5657828553912937
  0.6876277230754360  0.9565820013496973  0.5657342689777298
  0.1873250343391717  0.1305898427628416  0.7885920485462721
  0.3124055454368033  0.0323323815873435  0.2557863794196012
  0.8126610253118532  0.5414193175172606  0.6107499827677147
  0.8124663562411192  0.2107367325042494  0.6995829697879657
  0.5626374743526649  0.2104423466438305  0.6997600007831782
  0.9375251662763376  0.6235099311178852  0.5214178979973028
  0.6873189746359056  0.9524299330568240  0.3451185742586179
  0.6874881979927301  0.4567094279165231  0.5658193604916030
  0.9375585074250042  0.4515389042839189  0.3451057421938958
  0.6879853391177434  0.4610297159781504  0.6996995460220888
  0.9375140870258010  0.1259329054480342  0.6548711668260808
  0.5624005971014640  0.5322255232238127  0.2556757862703365
  0.0631859030298708  0.8623143558833589  0.1664460899115699
  0.1875152477690918  0.1171276271645097  0.3003915763292196
  0.3127697304212282  0.5287606870711579  0.1243124334117069
  0.9374678660379829  0.6302456583248320  0.7884855827031017
  0.1878583532664084  0.9604181542708158  0.6997174692535678
  0.4375336507904786  0.7910827260811918  0.6105851161411951
  0.9374620989461091  0.1125142110195462  0.1666968533086307
  0.9374873097122480  0.2823616202253842  0.2559188568347125
  0.4374452056662109  0.9566290689468673  0.5656369937324783
  0.1875689853241952  0.4473615769739512  0.2113722272733316
  0.9375773276599820  0.4565533035409533  0.5654495553696297
  0.1872463491452817  0.6228338970770197  0.5214955618792575
  0.8128616935116901  0.3757599298905070  0.6549276566136309
  0.3126646463589863  0.3807728577444849  0.7886722792500181
  0.9375565067032618  0.1304918637893387  0.7886715041541589
  0.0625503294478870  0.3712308615322875  0.4342835600410285
  0.9374311832974397  0.6217559147213472  0.4343019057278597
  0.9370550813847838  0.3000985307352093  0.8757335702833835
  0.9371643717673155  0.9653961812766109  0.8335827430205444
  0.4371535777568039  0.4608385933911820  0.6997120805697847
  0.9376767010245249  0.6118701298183238  0.1665713178057193
  0.9371304278911011  0.7998235691889871  0.8757225486090101
  0.0619860584175087  0.3618903027847739  0.1666797816073108
  0.3127969836861234  0.0365449863613048  0.3893719567887596
  0.4371118422734288  0.4653804550886528  0.8334764433883483
  0.0622011492203028  0.0499694537237344  0.8757380315474409
  0.8125950981514198  0.0318845507215076  0.2558787424327333
  0.9378123361340428  0.4606444238797501  0.6996836601025364
  0.0624279692798099  0.5365231454011202  0.3893913708315300
  0.6873693198800521  0.4552541218119165  0.4784521876495497
  0.6876062944004953  0.6170176917620858  0.3002637155598735
  0.4373666924905679  0.7823127647440642  0.2558970057686319
  0.8124680859600057  0.0456427560300297  0.7441123131211391
  0.6873964781776053  0.7955583733519418  0.7441351684916805
  0.5627440599397340  0.0413362072099525  0.6106366835902882
  0.0625453412145870  0.0364089449137126  0.3893204070716623
  0.1876459196903049  0.7954100454539123  0.7441073923224456
  0.4375656987343867  0.2911180406986299  0.6107298871585398
  0.5622714735752659  0.5495181284249242  0.8757444644710451
  0.5625186235057000  0.2046011430565097  0.4784400345419142
  0.5623319346876028  0.8807915244263436  0.7885872984203125
  0.6870692040268923  0.4659707310489154  0.8334742911695346
  0.0625915947049272  0.2063006239372446  0.5658670200760920
  0.0628632328926838  0.7049083201164100  0.4784186241529625
  0.5628673731556154  0.7026988791797043  0.3449011232450431
  0.5633558711154212  0.3619929796059665  0.1666708525324044
  0.6874024304712800  0.9551988215363385  0.4785033491535706
  0.4375835615292005  0.2865180037652314  0.3893151520327243
  0.1873210477108998  0.2781321473902816  0.1243206018788256
  0.0626067288980955  0.8715884371001186  0.4344453134381441
  0.1882873394803546  0.1110300848603001  0.1664768986776466
  0.8125947658287461  0.1972233404586056  0.2115155419538169
  0.6875842503116315  0.1305925458474917  0.7885877232699245
  0.6874377132795765  0.1172882932329645  0.3002804089609862
  0.5631050659527921  0.0277145227468140  0.1243319641390695
  0.9375814902403928  0.4476361838425869  0.2115470696011807
  0.0625089642829395  0.2046568849940535  0.4784736552355781
  0.8121660842360985  0.8670463166003783  0.3003189490771764
  0.9376772592539446  0.2917292444722331  0.6107273709621271
  0.9377047261319651  0.6262509393440825  0.6548744249716578
  0.3125978861332894  0.3673535638686244  0.3003628756723015
  0.3126400677801194  0.8623728732852525  0.1658171625703739
  0.3113751225035291  0.8710943015535182  0.4343459916958564
  0.4378946116772109  0.7956127205787009  0.7442054867932668
  0.3119812221991904  0.7026608203565672  0.3449448418485788
  0.0624332083564588  0.2106010891218802  0.6996014865064347
  0.3124285814598554  0.0410815520248719  0.6107183453736270
  0.6873082171336492  0.9602612403717797  0.6997434049022377
  0.9375274194007084  0.4550982703765498  0.4786433706557749
  0.4374697354774466  0.1174571215107225  0.3002348307827807
  0.3126611015598383  0.0281433593960265  0.1242713594654985
  0.0629425327046356  0.8674215496297432  0.3003861631919130
  0.9376249848945966  0.2957686363978259  0.7443624499809005
  0.5625754193775627  0.3712397336775857  0.4343443262476396
  0.9372910863278021  0.6169120745925231  0.3003739627847994
  0.5636659359279910  0.8712856847484268  0.4343173206002802
 
  0.00000000E+00  0.00000000E+00  0.00000000E+00
  0.00000000E+00  0.00000000E+00  0.00000000E+00
  0.00000000E+00  0.00000000E+00  0.00000000E+00
  0.00000000E+00  0.00000000E+00  0.00000000E+00
  0.00000000E+00  0.00000000E+00  0.00000000E+00
  0.00000000E+00  0.00000000E+00  0.00000000E+00
  0.00000000E+00  0.00000000E+00  0.00000000E+00
  0.00000000E+00  0.00000000E+00  0.00000000E+00
  0.00000000E+00  0.00000000E+00  0.00000000E+00
  0.00000000E+00  0.00000000E+00  0.00000000E+00
  0.00000000E+00  0.00000000E+00  0.00000000E+00
  0.00000000E+00  0.00000000E+00  0.00000000E+00
  0.00000000E+00  0.00000000E+00  0.00000000E+00
  0.00000000E+00  0.00000000E+00  0.00000000E+00
  0.00000000E+00  0.00000000E+00  0.00000000E+00
  0.00000000E+00  0.00000000E+00  0.00000000E+00
  0.00000000E+00  0.00000000E+00  0.00000000E+00
  0.00000000E+00  0.00000000E+00  0.00000000E+00
  0.00000000E+00  0.00000000E+00  0.00000000E+00
  0.00000000E+00  0.00000000E+00  0.00000000E+00
  0.00000000E+00  0.00000000E+00  0.00000000E+00
  0.00000000E+00  0.00000000E+00  0.00000000E+00
  0.00000000E+00  0.00000000E+00  0.00000000E+00
  0.00000000E+00  0.00000000E+00  0.00000000E+00
  0.00000000E+00  0.00000000E+00  0.00000000E+00
  0.00000000E+00  0.00000000E+00  0.00000000E+00
  0.00000000E+00  0.00000000E+00  0.00000000E+00
  0.00000000E+00  0.00000000E+00  0.00000000E+00
  0.00000000E+00  0.00000000E+00  0.00000000E+00
  0.00000000E+00  0.00000000E+00  0.00000000E+00
  0.00000000E+00  0.00000000E+00  0.00000000E+00
  0.00000000E+00  0.00000000E+00  0.00000000E+00
  0.00000000E+00  0.00000000E+00  0.00000000E+00
  0.00000000E+00  0.00000000E+00  0.00000000E+00
  0.00000000E+00  0.00000000E+00  0.00000000E+00
  0.00000000E+00  0.00000000E+00  0.00000000E+00
  0.00000000E+00  0.00000000E+00  0.00000000E+00
  0.00000000E+00  0.00000000E+00  0.00000000E+00
  0.00000000E+00  0.00000000E+00  0.00000000E+00
  0.00000000E+00  0.00000000E+00  0.00000000E+00
  0.00000000E+00  0.00000000E+00  0.00000000E+00
  0.00000000E+00  0.00000000E+00  0.00000000E+00
  0.00000000E+00  0.00000000E+00  0.00000000E+00
  0.00000000E+00  0.00000000E+00  0.00000000E+00
  0.00000000E+00  0.00000000E+00  0.00000000E+00
  0.00000000E+00  0.00000000E+00  0.00000000E+00
  0.00000000E+00  0.00000000E+00  0.00000000E+00
  0.00000000E+00  0.00000000E+00  0.00000000E+00
  0.00000000E+00  0.00000000E+00  0.00000000E+00
  0.00000000E+00  0.00000000E+00  0.00000000E+00
  0.00000000E+00  0.00000000E+00  0.00000000E+00
  0.00000000E+00  0.00000000E+00  0.00000000E+00
  0.00000000E+00  0.00000000E+00  0.00000000E+00
  0.00000000E+00  0.00000000E+00  0.00000000E+00
  0.00000000E+00  0.00000000E+00  0.00000000E+00
  0.00000000E+00  0.00000000E+00  0.00000000E+00
  0.00000000E+00  0.00000000E+00  0.00000000E+00
  0.00000000E+00  0.00000000E+00  0.00000000E+00
  0.00000000E+00  0.00000000E+00  0.00000000E+00
  0.00000000E+00  0.00000000E+00  0.00000000E+00
  0.00000000E+00  0.00000000E+00  0.00000000E+00
  0.00000000E+00  0.00000000E+00  0.00000000E+00
  0.00000000E+00  0.00000000E+00  0.00000000E+00
  0.00000000E+00  0.00000000E+00  0.00000000E+00
  0.00000000E+00  0.00000000E+00  0.00000000E+00
  0.00000000E+00  0.00000000E+00  0.00000000E+00
  0.00000000E+00  0.00000000E+00  0.00000000E+00
  0.00000000E+00  0.00000000E+00  0.00000000E+00
  0.00000000E+00  0.00000000E+00  0.00000000E+00
  0.00000000E+00  0.00000000E+00  0.00000000E+00
  0.00000000E+00  0.00000000E+00  0.00000000E+00
  0.00000000E+00  0.00000000E+00  0.00000000E+00
  0.00000000E+00  0.00000000E+00  0.00000000E+00
  0.00000000E+00  0.00000000E+00  0.00000000E+00
  0.00000000E+00  0.00000000E+00  0.00000000E+00
  0.00000000E+00  0.00000000E+00  0.00000000E+00
  0.00000000E+00  0.00000000E+00  0.00000000E+00
  0.00000000E+00  0.00000000E+00  0.00000000E+00
  0.00000000E+00  0.00000000E+00  0.00000000E+00
  0.00000000E+00  0.00000000E+00  0.00000000E+00
  0.00000000E+00  0.00000000E+00  0.00000000E+00
  0.00000000E+00  0.00000000E+00  0.00000000E+00
  0.00000000E+00  0.00000000E+00  0.00000000E+00
  0.00000000E+00  0.00000000E+00  0.00000000E+00
  0.00000000E+00  0.00000000E+00  0.00000000E+00
  0.00000000E+00  0.00000000E+00  0.00000000E+00
  0.00000000E+00  0.00000000E+00  0.00000000E+00
  0.00000000E+00  0.00000000E+00  0.00000000E+00
  0.00000000E+00  0.00000000E+00  0.00000000E+00
  0.00000000E+00  0.00000000E+00  0.00000000E+00
  0.00000000E+00  0.00000000E+00  0.00000000E+00
  0.00000000E+00  0.00000000E+00  0.00000000E+00
  0.00000000E+00  0.00000000E+00  0.00000000E+00
  0.00000000E+00  0.00000000E+00  0.00000000E+00
  0.00000000E+00  0.00000000E+00  0.00000000E+00
  0.00000000E+00  0.00000000E+00  0.00000000E+00
  0.00000000E+00  0.00000000E+00  0.00000000E+00
  0.00000000E+00  0.00000000E+00  0.00000000E+00
  0.00000000E+00  0.00000000E+00  0.00000000E+00
  0.00000000E+00  0.00000000E+00  0.00000000E+00
  0.00000000E+00  0.00000000E+00  0.00000000E+00
  0.00000000E+00  0.00000000E+00  0.00000000E+00
  0.00000000E+00  0.00000000E+00  0.00000000E+00
  0.00000000E+00  0.00000000E+00  0.00000000E+00
  0.00000000E+00  0.00000000E+00  0.00000000E+00
  0.00000000E+00  0.00000000E+00  0.00000000E+00
  0.00000000E+00  0.00000000E+00  0.00000000E+00
  0.00000000E+00  0.00000000E+00  0.00000000E+00
  0.00000000E+00  0.00000000E+00  0.00000000E+00
  0.00000000E+00  0.00000000E+00  0.00000000E+00
  0.00000000E+00  0.00000000E+00  0.00000000E+00
  0.00000000E+00  0.00000000E+00  0.00000000E+00
  0.00000000E+00  0.00000000E+00  0.00000000E+00
  0.00000000E+00  0.00000000E+00  0.00000000E+00
  0.00000000E+00  0.00000000E+00  0.00000000E+00
  0.00000000E+00  0.00000000E+00  0.00000000E+00
  0.00000000E+00  0.00000000E+00  0.00000000E+00
  0.00000000E+00  0.00000000E+00  0.00000000E+00
  0.00000000E+00  0.00000000E+00  0.00000000E+00
  0.00000000E+00  0.00000000E+00  0.00000000E+00
  0.00000000E+00  0.00000000E+00  0.00000000E+00
  0.00000000E+00  0.00000000E+00  0.00000000E+00
  0.00000000E+00  0.00000000E+00  0.00000000E+00
  0.00000000E+00  0.00000000E+00  0.00000000E+00
  0.00000000E+00  0.00000000E+00  0.00000000E+00
  0.00000000E+00  0.00000000E+00  0.00000000E+00
  0.00000000E+00  0.00000000E+00  0.00000000E+00
  0.00000000E+00  0.00000000E+00  0.00000000E+00
  0.00000000E+00  0.00000000E+00  0.00000000E+00
  0.00000000E+00  0.00000000E+00  0.00000000E+00
  0.00000000E+00  0.00000000E+00  0.00000000E+00
  0.00000000E+00  0.00000000E+00  0.00000000E+00
  0.00000000E+00  0.00000000E+00  0.00000000E+00
  0.00000000E+00  0.00000000E+00  0.00000000E+00
  0.00000000E+00  0.00000000E+00  0.00000000E+00
  0.00000000E+00  0.00000000E+00  0.00000000E+00
  0.00000000E+00  0.00000000E+00  0.00000000E+00
  0.00000000E+00  0.00000000E+00  0.00000000E+00
  0.00000000E+00  0.00000000E+00  0.00000000E+00
  0.00000000E+00  0.00000000E+00  0.00000000E+00
  0.00000000E+00  0.00000000E+00  0.00000000E+00
  0.00000000E+00  0.00000000E+00  0.00000000E+00
  0.00000000E+00  0.00000000E+00  0.00000000E+00
  0.00000000E+00  0.00000000E+00  0.00000000E+00
  0.00000000E+00  0.00000000E+00  0.00000000E+00
  0.00000000E+00  0.00000000E+00  0.00000000E+00
  0.00000000E+00  0.00000000E+00  0.00000000E+00
  0.00000000E+00  0.00000000E+00  0.00000000E+00
  0.00000000E+00  0.00000000E+00  0.00000000E+00
  0.00000000E+00  0.00000000E+00  0.00000000E+00
  0.00000000E+00  0.00000000E+00  0.00000000E+00
  0.00000000E+00  0.00000000E+00  0.00000000E+00
  0.00000000E+00  0.00000000E+00  0.00000000E+00
  0.00000000E+00  0.00000000E+00  0.00000000E+00
  0.00000000E+00  0.00000000E+00  0.00000000E+00
  0.00000000E+00  0.00000000E+00  0.00000000E+00
  0.00000000E+00  0.00000000E+00  0.00000000E+00
  0.00000000E+00  0.00000000E+00  0.00000000E+00
  0.00000000E+00  0.00000000E+00  0.00000000E+00
  0.00000000E+00  0.00000000E+00  0.00000000E+00
  0.00000000E+00  0.00000000E+00  0.00000000E+00
  0.00000000E+00  0.00000000E+00  0.00000000E+00
  0.00000000E+00  0.00000000E+00  0.00000000E+00
  0.00000000E+00  0.00000000E+00  0.00000000E+00
  0.00000000E+00  0.00000000E+00  0.00000000E+00
  0.00000000E+00  0.00000000E+00  0.00000000E+00
  0.00000000E+00  0.00000000E+00  0.00000000E+00
  0.00000000E+00  0.00000000E+00  0.00000000E+00
  0.00000000E+00  0.00000000E+00  0.00000000E+00
  0.00000000E+00  0.00000000E+00  0.00000000E+00
  0.00000000E+00  0.00000000E+00  0.00000000E+00
  0.00000000E+00  0.00000000E+00  0.00000000E+00
  0.00000000E+00  0.00000000E+00  0.00000000E+00
  0.00000000E+00  0.00000000E+00  0.00000000E+00
  0.00000000E+00  0.00000000E+00  0.00000000E+00
  0.00000000E+00  0.00000000E+00  0.00000000E+00
  0.00000000E+00  0.00000000E+00  0.00000000E+00
  0.00000000E+00  0.00000000E+00  0.00000000E+00
  0.00000000E+00  0.00000000E+00  0.00000000E+00
  0.00000000E+00  0.00000000E+00  0.00000000E+00
  0.00000000E+00  0.00000000E+00  0.00000000E+00
  0.00000000E+00  0.00000000E+00  0.00000000E+00
  0.00000000E+00  0.00000000E+00  0.00000000E+00
  0.00000000E+00  0.00000000E+00  0.00000000E+00
  0.00000000E+00  0.00000000E+00  0.00000000E+00
  0.00000000E+00  0.00000000E+00  0.00000000E+00
  0.00000000E+00  0.00000000E+00  0.00000000E+00
  0.00000000E+00  0.00000000E+00  0.00000000E+00
  0.00000000E+00  0.00000000E+00  0.00000000E+00
  0.00000000E+00  0.00000000E+00  0.00000000E+00
  0.00000000E+00  0.00000000E+00  0.00000000E+00
  0.00000000E+00  0.00000000E+00  0.00000000E+00
  0.00000000E+00  0.00000000E+00  0.00000000E+00
  0.00000000E+00  0.00000000E+00  0.00000000E+00
  0.00000000E+00  0.00000000E+00  0.00000000E+00
  0.00000000E+00  0.00000000E+00  0.00000000E+00
  0.00000000E+00  0.00000000E+00  0.00000000E+00
  0.00000000E+00  0.00000000E+00  0.00000000E+00
  0.00000000E+00  0.00000000E+00  0.00000000E+00
  0.00000000E+00  0.00000000E+00  0.00000000E+00
  0.00000000E+00  0.00000000E+00  0.00000000E+00
  0.00000000E+00  0.00000000E+00  0.00000000E+00
  0.00000000E+00  0.00000000E+00  0.00000000E+00
  0.00000000E+00  0.00000000E+00  0.00000000E+00
  0.00000000E+00  0.00000000E+00  0.00000000E+00
  0.00000000E+00  0.00000000E+00  0.00000000E+00
  0.00000000E+00  0.00000000E+00  0.00000000E+00
  0.00000000E+00  0.00000000E+00  0.00000000E+00
  0.00000000E+00  0.00000000E+00  0.00000000E+00
  0.00000000E+00  0.00000000E+00  0.00000000E+00
  0.00000000E+00  0.00000000E+00  0.00000000E+00
  0.00000000E+00  0.00000000E+00  0.00000000E+00
  0.00000000E+00  0.00000000E+00  0.00000000E+00
  0.00000000E+00  0.00000000E+00  0.00000000E+00
  0.00000000E+00  0.00000000E+00  0.00000000E+00
  0.00000000E+00  0.00000000E+00  0.00000000E+00
  0.00000000E+00  0.00000000E+00  0.00000000E+00
  0.00000000E+00  0.00000000E+00  0.00000000E+00
  0.00000000E+00  0.00000000E+00  0.00000000E+00
  0.00000000E+00  0.00000000E+00  0.00000000E+00
  0.00000000E+00  0.00000000E+00  0.00000000E+00
  0.00000000E+00  0.00000000E+00  0.00000000E+00
  0.00000000E+00  0.00000000E+00  0.00000000E+00
  0.00000000E+00  0.00000000E+00  0.00000000E+00
  0.00000000E+00  0.00000000E+00  0.00000000E+00
  0.00000000E+00  0.00000000E+00  0.00000000E+00
  0.00000000E+00  0.00000000E+00  0.00000000E+00
  0.00000000E+00  0.00000000E+00  0.00000000E+00
  0.00000000E+00  0.00000000E+00  0.00000000E+00
  0.00000000E+00  0.00000000E+00  0.00000000E+00
  0.00000000E+00  0.00000000E+00  0.00000000E+00
  0.00000000E+00  0.00000000E+00  0.00000000E+00
  0.00000000E+00  0.00000000E+00  0.00000000E+00
  0.00000000E+00  0.00000000E+00  0.00000000E+00
  0.00000000E+00  0.00000000E+00  0.00000000E+00
  0.00000000E+00  0.00000000E+00  0.00000000E+00
  0.00000000E+00  0.00000000E+00  0.00000000E+00
  0.00000000E+00  0.00000000E+00  0.00000000E+00
  0.00000000E+00  0.00000000E+00  0.00000000E+00
  0.00000000E+00  0.00000000E+00  0.00000000E+00
  0.00000000E+00  0.00000000E+00  0.00000000E+00
  0.00000000E+00  0.00000000E+00  0.00000000E+00
  0.00000000E+00  0.00000000E+00  0.00000000E+00
  0.00000000E+00  0.00000000E+00  0.00000000E+00
  0.00000000E+00  0.00000000E+00  0.00000000E+00
  0.00000000E+00  0.00000000E+00  0.00000000E+00
  0.00000000E+00  0.00000000E+00  0.00000000E+00