CuInSe2gb                               
   1.00000000000000     
     9.7266780392896699    0.0000000000000000    0.0000000000000000
     0.0000000000000000    8.4235502764570693    0.0000000000000000
     0.0000000000000000    0.0000000000000000   45.0000000000000000
   Fe   Mn
   281     7
Direct
  0.0640477339053015  0.0337197154128610  0.1249240291035439
  0.0633436310324911  0.8728643089085980  0.5216460167103295
  0.1894876208258974  0.1238819321846900  0.7882050993346461
  0.4349832726884365  0.2874574988851713  0.3894512687142971
  0.3103420476127065  0.7112131854177555  0.8333501026169200
  0.8103440616944836  0.2112228453251457  0.8334107467038604
  0.1854961253694074  0.7877327279561234  0.3894737862895624
  0.5630799088253812  0.2064234880494635  0.5655162919836707
  0.0612411706645612  0.0407284397225612  0.7438973001530735
  0.8132526712435041  0.8725165968864195  0.5217262252841579
  0.1864166883713212  0.2910292552104006  0.7438897817995720
  0.9377367798456360  0.4531972198236479  0.3451562515464390
  0.9355734002740766  0.2874125689458226  0.3894472128694319
  0.8124184867681967  0.0432106658159341  0.8752639549506237
  0.1876998115562308  0.7909908957576564  0.6104410203906619
  0.5604265361916967  0.0371662610977739  0.3894891684366407
  0.9351949134561689  0.9611015600345567  0.8333560631197424
  0.3124530049606184  0.5432926089048786  0.8752595710718760
  0.6866447037695838  0.2909084721622892  0.7438750582948712
  0.1906333251654140  0.6158232307197614  0.1667093374758047
  0.8130266188048624  0.2045559898432554  0.4781384639742677
  0.8129649506649631  0.5411384951672840  0.6103346716150733
  0.3130284367666758  0.8705570253887711  0.4341735650038946
  0.8136546793224269  0.0368164819994487  0.2561196060655245
  0.6880909861569450  0.9534596704836066  0.3451373231695149
  0.9409100546078482  0.1145923758571729  0.1667407049183564
  0.9384845418164804  0.1231415124201099  0.5216976865111355
  0.5635311944698516  0.5370118601148027  0.2561022799926489
  0.6877314912110428  0.7933207194584565  0.8753084281962907
  0.5668319260398447  0.3665373207972553  0.1667562123442382
  0.4364078745547462  0.7909162751039741  0.7438930921709567
  0.8132185381378935  0.7071658489166985  0.5655364913051191
  0.5645169246773090  0.8736568910444525  0.7881714467629310
  0.6881565567863821  0.1230931378635066  0.5216797990658755
  0.1888165589180248  0.2873212944371006  0.2560905686062434
  0.9352264644802394  0.4611051012932729  0.8333871621815787
  0.0629458989316849  0.2073895758896222  0.6995827139198207
  0.4376405092233651  0.9577307985106143  0.6995986032606216
  0.3103314179971868  0.2112117167098099  0.8333310831716246
  0.4359488563944135  0.6253111307576235  0.6548646591978138
  0.3129278105398447  0.5409152074976024  0.6104674314785631
  0.9382798257405428  0.4566454048524726  0.5656156511749542
  0.6863770021271179  0.7909544253746056  0.7438997144092009
  0.3111320310187757  0.8751021576463015  0.6548090279504910
  0.6853829112276086  0.7873193713041819  0.3894750147329807
  0.9363426742576247  0.7908938672586697  0.7438605199785115
  0.0630644132601774  0.2032251060358327  0.3451142667392073
  0.8103461487446425  0.0375484013265395  0.3894892827942149
  0.4393905651765069  0.1238961567216058  0.7882144722937571
  0.0613488828132604  0.2036134323975887  0.2118417410935864
  0.0668489323407279  0.3663914252379748  0.1666335681934058
  0.9385779143716981  0.7870097263530189  0.2561087845303344
  0.5630379468285172  0.2074982988779497  0.6995896650163125
  0.6876233046540279  0.9574033473237007  0.6996171368177330
  0.4404542012738242  0.7842723589216233  0.1250462570367703
  0.4384292119953853  0.9568878394663457  0.5656943880458840
  0.8146443221520429  0.3736244330898056  0.7882147901090381
  0.6885325894872719  0.2869985593124287  0.2560833442346005
  0.1882593656566520  0.4566133868331154  0.5655936906280400
  0.0661444917666268  0.8656799745039306  0.1667746438370715
  0.1878590510765547  0.2906893002805591  0.6103575762164108
  0.5629830498927129  0.7034885388252353  0.3451289650338508
  0.3128696728389526  0.2074328635964691  0.6995734988114323
  0.5622759438675705  0.5432898970096307  0.8752631154326120
  0.0631615805926490  0.7065124707877518  0.5657140814401427
  0.6894941144309531  0.6240387379683283  0.7882887275313232
  0.3105049961964984  0.5378932276772197  0.3894451764313511
  0.1882689574373947  0.6232225659106984  0.5216679530109813
  0.5626573742506920  0.8705996531708344  0.4342285548078543
  0.4385477985760635  0.4566134701924264  0.5656243041043034
  0.4363023307956702  0.2909561164949671  0.7438516608886427
  0.8085074544710322  0.8722066078334312  0.3004661844140134
  0.8129962104866634  0.7033993691019630  0.3452245316944068
  0.4351954214206201  0.4609945505170544  0.8333892337569641
  0.6879243204847656  0.9545187684951315  0.4781493394304316
  0.6873856023922612  0.4575633023069547  0.6995957247343277
  0.5630826233438968  0.8728074922578937  0.5216887764399762
  0.5603345583461423  0.3749160741120022  0.6548482167245556
  0.8108147047006985  0.8749161649690033  0.6548379158958475
  0.8127830504728031  0.3708585517917012  0.4342896113308632
  0.8133231827020680  0.5370547014075698  0.2561608689191671
  0.6851620814656517  0.4610239685004142  0.8334336548573845
  0.1912125451948244  0.7827144427845453  0.1250245821395375
  0.0623506408958501  0.0431911375288474  0.8752732105540398
  0.3107296181354821  0.3749346774556733  0.6548390392136871
  0.3129484508070942  0.2030130944013011  0.3450609099995053
  0.8113723665836652  0.5408959820860961  0.7439849432449983
  0.6851526124628231  0.9610069691809680  0.8334104729394479
  0.5607011519976401  0.8748656774982966  0.6548052469787280
  0.3133251714866067  0.7067021611433595  0.5657477192709132
  0.3137625414198748  0.5339495690197352  0.1246748860027018
  0.6859006251040881  0.9544853797273379  0.2120187001134065
  0.3133130237261029  0.2069736443401481  0.5657763393312911
  0.3114763205206631  0.5410042012094669  0.7439300084463346
  0.6880894474991260  0.9570838513396984  0.5656434377658034
  0.4378539130003305  0.7908351675651820  0.6104318425403010
  0.6916154517759588  0.6156427477136739  0.1668962935753539
  0.3083904445041949  0.8719772183295266  0.3003957048540917
  0.3129505196055437  0.7041278225380495  0.4780978421375727
  0.9380785555398270  0.2909329660523126  0.6103262174484811
  0.4333980929119928  0.6218955257859896  0.3004327102902358
  0.8177865442924862  0.8653698967402066  0.1667639332564133
  0.5611927944243865  0.2037928909457465  0.2119291327317225
  0.9412301252877258  0.6165283102365076  0.1668736831632294
  0.9377647333622759  0.7930990128959220  0.8753382335237562
  0.5643285468107764  0.3737075749921679  0.7882087694407580
  0.0632720020227068  0.3727191845688821  0.5216783498961913
  0.5633961402112427  0.3730777866899648  0.5216805814069512
  0.6836214672339821  0.1219970780659794  0.3004320682076629
  0.4351895692223850  0.9609137312803591  0.8333932563997751
  0.1911741923035678  0.2839701681433134  0.1248317569972126
  0.8144571716541297  0.8735772781229834  0.7881396599390998
  0.3128619583720821  0.3709439173384246  0.4342546842367365
  0.5638935283672908  0.0331382062538348  0.1249379662245836
  0.4376922998196906  0.2907523832266600  0.6104226265018217
  0.1879964868028490  0.4530571429461686  0.3452041753585748
  0.4393866465761027  0.2837682942003928  0.1248639092049507
  0.6887200143244516  0.7865599800817530  0.2561114172822034
  0.1880728366205470  0.9576819310008896  0.6996607484052496
  0.1877545385271459  0.2931522395828888  0.8753334067237266
  0.1860330309534900  0.1249301559561836  0.6547850085344511
  0.9361673749050770  0.1248727058899636  0.6548100912850978
  0.3111290774542733  0.2036712675735904  0.2119387230453567
  0.0603523006810578  0.0369936177153165  0.3894624074164760
  0.1915136020516853  0.1153986677176540  0.1669249338484282
  0.0625021581597678  0.5408445346838977  0.6103927643787403
  0.9383212065668890  0.2871577205243708  0.2561119895252572
  0.5627974219776454  0.5411225210519690  0.6104176158215542
  0.9382058827560241  0.9569594888811245  0.5657383903516969
  0.6833836087267052  0.6222261196345789  0.3003404592140723
  0.9376080866787616  0.6207196750118963  0.4342534339904066
  0.9395626944882874  0.6237846263191363  0.7882471426568793
  0.5628788831817847  0.7078416903254380  0.6996040617515039
  0.0602614770369474  0.7110148873611463  0.8333653688553104
  0.9336733139714726  0.1217420766604196  0.3003461808722667
  0.9379330706805248  0.7912895091451433  0.6103896863373550
  0.4384990111719918  0.7868213075420920  0.2561016922923181
  0.3143119930172549  0.3736679138162921  0.7881672888333640
  0.4364430373382284  0.4541925757241047  0.2120333462469162
  0.1881110735117758  0.1229044495430462  0.5216684967424176
  0.8125289101610218  0.7074962387268071  0.6995695929541331
  0.0629995842580946  0.0409415237588638  0.6103955969559608
  0.5602676792220236  0.2111306019364038  0.8333590478610707
  0.3134021788885015  0.8725371514049249  0.5216714527793186
  0.6911932853952600  0.2842180742548996  0.1248158693285317
  0.1865124918074704  0.9542973555349707  0.2120638018012004
  0.6878594226278723  0.2909009316522894  0.6103632669762927
  0.3128102369945494  0.0408666345521903  0.6104243869574340
  0.9395398012199954  0.1235330511402615  0.7883175414729318
  0.4378602945119508  0.7932550441821161  0.8753482492534232
  0.8113573356576549  0.0405477713883878  0.7439381021328461
  0.4378483560561092  0.1228021608836060  0.5217063801834623
  0.1858209847710992  0.6252645207684360  0.6548395835515310
  0.3130318503728331  0.7080669145467018  0.6996368993799766
  0.9393787973777378  0.2842971757548626  0.1247281678389230
  0.4382563087455105  0.4545651615102010  0.4781453182698960
  0.0627149191292222  0.7038649223986363  0.4780724416383426
  0.9377288934886048  0.1207721592267730  0.4341876517901271
  0.4332256858540613  0.1218485613508840  0.3004250934523424
  0.1876614359742154  0.1211588482537523  0.4341655663907102
  0.5623782492633669  0.0432062249588779  0.8752699105817918
  0.1882825377448782  0.9567890880200924  0.5653525345281822
  0.6890468155159217  0.7828767998463049  0.1250335418627198
  0.5643050171118805  0.5339423905160851  0.1248954269707508
  0.3102072796030510  0.0368157024363940  0.3894869782282272
  0.6912552950954866  0.1155513073468094  0.1669864158227652
  0.8107449903423191  0.2033084627346007  0.2119189437491934
  0.0633023553329737  0.5371662147030768  0.2561073568191728
  0.5625864541192683  0.7043146271998266  0.4781011738292053
  0.0632551835863046  0.2065340970351141  0.5656300320090440
  0.5584885484140691  0.3719788882533209  0.3004413439515152
  0.4378235755852964  0.9532016066650700  0.3450855907246337
  0.1852867921314772  0.9610736229378247  0.8333948179303531
  0.4410210067161401  0.6159859350847315  0.1669512739725878
  0.9364970017878489  0.4538919405023883  0.2120594654256537
  0.0652278530714688  0.5341992124582918  0.1248318624146388
  0.8131242959597462  0.3726947707606924  0.5217304479307348
  0.9334162510160308  0.6218620221826189  0.3004413936562949
  0.3135558918196195  0.0368341948689654  0.2561298073012737
  0.6877666636803375  0.7911348487823928  0.6104385416347697
  0.1852070754316421  0.4608621945984270  0.8334104667169316
  0.4407797002600843  0.1156953545927361  0.1668884399928624
  0.3131445294992501  0.3726687511716030  0.5216895798449983
  0.4396490512781853  0.6237598939537595  0.7881816838013808
  0.0632191013831460  0.0367728222183878  0.2561252549973165
  0.5634166886313700  0.7066910121392376  0.5656326283117556
  0.9362953490892614  0.2907282938053200  0.7439980544278268
  0.6895964729599947  0.1238506636898877  0.7882246594533748
  0.1858980172543184  0.4545321705160961  0.2121131854686160
  0.9356441438540263  0.7872794586942353  0.3894221181603513
  0.6877460016534740  0.2932535553154796  0.8753286416315422
  0.3170861299493159  0.8660374446819198  0.1668098810774059
  0.4380134035606642  0.4578145416186423  0.6996377068016443
  0.9379956199463223  0.9534552595315802  0.3450638437941625
  0.6880959850519832  0.6227662263582038  0.5217135906982786
  0.0609614834496566  0.8750730170119803  0.6548148003276962
  0.0646333022503360  0.8735647629387933  0.7881932868465368
  0.0613453566841175  0.3750651475429708  0.6548237500132889
  0.6877997140184384  0.4544773259264321  0.4781262695781486
  0.1884905030134347  0.7868423779079213  0.2561211111798678
  0.4374306376522783  0.1207638609803428  0.4341866970246963
  0.8137943285927399  0.0358830756463479  0.1248924414404242
  0.9381366337187730  0.6231024181642471  0.5216947035991618
  0.0623186393223083  0.8706520263113277  0.4341928868246542
  0.8133481296831577  0.5341910698804799  0.1246009781120275
  0.4381517286073600  0.4532634614490623  0.3451050433190586
  0.8131668516433248  0.2032665373630198  0.3450470546599380
  0.3131284072753105  0.7030913405819832  0.3451619012797795
  0.6857729704285169  0.1246380823293658  0.6548194196364299
  0.5584978897486299  0.8721672602294417  0.3003959787637825
  0.0612760448363672  0.5409362175931075  0.7439602017469521
  0.9364699209358465  0.9541208189916282  0.2119810575707151
  0.8111007929096710  0.7031534071572541  0.2118626941826702
  0.0586093580580065  0.8720685607949211  0.3004184535444565
  0.1834405523794892  0.1219511624786588  0.3003901331732839
  0.0629495364102818  0.7033318122555161  0.3450561580970633
  0.8128154984571860  0.0411414593872306  0.6104539588546849
  0.0625149430358348  0.3709498261858232  0.4342579796301774
  0.5629977107232800  0.2033396064023699  0.3451190761724407
  0.8085782575962762  0.3720140140255399  0.3004128566413331
  0.4384100187514064  0.9547475982519416  0.4780640891002797
  0.5603175766608763  0.5372991718546715  0.3894582110673387
  0.0622154895334498  0.2045982758872384  0.4780705887416174
  0.3144928925935924  0.8737687030270227  0.7881948007711738
  0.9378273571161717  0.9577211119138944  0.6995913025702862
  0.0584343873105475  0.3719068887543754  0.3004114159932983
  0.6859951382902464  0.6253074186944277  0.6548511650530969
  0.6882493008522912  0.4568534707715849  0.5655764978886153
  0.4364918708040558  0.9541008900392929  0.2120067231680526
  0.3133992319319888  0.2047491295353767  0.4781219563804148
  0.4358301923064758  0.1245755642361371  0.6548060728561155
  0.6877517922546861  0.6205385536147218  0.4342133085010560
  0.8124565749187469  0.2075699657585153  0.6996285510542722
  0.8132446709319799  0.7043406811722337  0.4780972819573528
  0.8126972780851226  0.8705904937774214  0.4342387086212826
  0.9372667412652494  0.9547358520643353  0.4780353256639592
  0.5626849750423926  0.2045007451842757  0.4781702716093930
  0.1875543057112785  0.6210554707107341  0.4342208250583100
  0.3113199266148115  0.0410555346971215  0.7439018051264186
  0.9361320560158877  0.6251989679785800  0.6548103723035702
  0.5603713561415784  0.7110358292728439  0.8333236134478942
  0.3084691893116145  0.3718301491778745  0.3003707796069665
  0.5611202589257523  0.7035732305560219  0.2119951499442335
  0.1877985541904647  0.4546360091227931  0.4780904828727351
  0.3123898953879635  0.0431962227471662  0.8752711570744708
  0.1884520342263073  0.4576984002065874  0.6995849030286602
  0.8123775359253930  0.5431856612576769  0.8752640428461136
  0.1851523765446086  0.2877118422205616  0.3893742225226380
  0.4376858651797962  0.6207009558675339  0.4342370195984740
  0.0612775333921562  0.7036673242932343  0.2119130339291787
  0.5625974619257448  0.3710304849977030  0.4342438599282528
  0.4381615592444597  0.6231926261829679  0.5217102670135644
  0.8103194546141912  0.7109992511935241  0.8334004667640946
  0.0645848954713516  0.3737239060356309  0.7882185847231833
  0.4377267828741184  0.2933694821074536  0.8752934482966527
  0.3137917854749758  0.0350063640428441  0.1249614900517024
  0.6877835966718583  0.1204156321862898  0.4342723339024869
  0.1880454663959875  0.9534464390915847  0.3451031347082141
  0.0603054311664322  0.2111726178260165  0.8333989805436641
  0.5626897722746733  0.0408073720478074  0.6104109192398917
  0.6859691616485303  0.4543971951669050  0.2121240581274487
  0.1865839459532025  0.7910520368981554  0.7439160957105335
  0.1833096223227997  0.6220327777068183  0.3004307129345174
  0.4349605722191298  0.7871567926483083  0.3893642693561780
  0.4382985376532038  0.2866135202344404  0.2561492869259681
  0.0623085317786695  0.5431658713780916  0.8752650769110871
  0.5614909703828396  0.0410994106196988  0.7438832465526134
  0.1877013575301095  0.7933006242698274  0.8752941552466543
  0.9375344847412280  0.4543231309641367  0.4780913240342852
  0.8105296227861676  0.5372740163775696  0.3894738046138614
  0.8133415035777455  0.2068447510223481  0.5655671410339189
  0.1895945585412489  0.6238141695408812  0.7882884018141064
  0.0601661950940468  0.5378142040800217  0.3894449257570938
  0.0630197572062535  0.7079564092606279  0.6996045884917607
  0.3133548905662891  0.5366796937673944  0.2561272606370184
  0.3110766408240034  0.7032587591186145  0.2119266617398173
  0.5665972755785881  0.8660482012248715  0.1668140551559009
  0.5611514283537109  0.5412080096990580  0.7439252617014117
  0.6881328380644289  0.4534401758263683  0.3451119799719220
  0.9377811941074112  0.2932879313904868  0.8753166496498226
  0.5635335510410979  0.0367848708695466  0.2560106941213616
  0.6849615016269118  0.2874995580031069  0.3893362080836416
  0.3175820313928192  0.3652444800166047  0.1662940362878824
  0.8175485922847393  0.3647306019089718  0.1663022695227082
  0.9383387103353640  0.4579233920131671  0.6998047264866852
  0.9403521709221265  0.7849203337862115  0.1250946676669117
  0.8102002865376455  0.3749150764999207  0.6545897153123906
  0.1876601183786170  0.9545419374977856  0.4783206058820652
 
  0.00000000E+00  0.00000000E+00  0.00000000E+00
  0.00000000E+00  0.00000000E+00  0.00000000E+00
  0.00000000E+00  0.00000000E+00  0.00000000E+00
  0.00000000E+00  0.00000000E+00  0.00000000E+00
  0.00000000E+00  0.00000000E+00  0.00000000E+00
  0.00000000E+00  0.00000000E+00  0.00000000E+00
  0.00000000E+00  0.00000000E+00  0.00000000E+00
  0.00000000E+00  0.00000000E+00  0.00000000E+00
  0.00000000E+00  0.00000000E+00  0.00000000E+00
  0.00000000E+00  0.00000000E+00  0.00000000E+00
  0.00000000E+00  0.00000000E+00  0.00000000E+00
  0.00000000E+00  0.00000000E+00  0.00000000E+00
  0.00000000E+00  0.00000000E+00  0.00000000E+00
  0.00000000E+00  0.00000000E+00  0.00000000E+00
  0.00000000E+00  0.00000000E+00  0.00000000E+00
  0.00000000E+00  0.00000000E+00  0.00000000E+00
  0.00000000E+00  0.00000000E+00  0.00000000E+00
  0.00000000E+00  0.00000000E+00  0.00000000E+00
  0.00000000E+00  0.00000000E+00  0.00000000E+00
  0.00000000E+00  0.00000000E+00  0.00000000E+00
  0.00000000E+00  0.00000000E+00  0.00000000E+00
  0.00000000E+00  0.00000000E+00  0.00000000E+00
  0.00000000E+00  0.00000000E+00  0.00000000E+00
  0.00000000E+00  0.00000000E+00  0.00000000E+00
  0.00000000E+00  0.00000000E+00  0.00000000E+00
  0.00000000E+00  0.00000000E+00  0.00000000E+00
  0.00000000E+00  0.00000000E+00  0.00000000E+00
  0.00000000E+00  0.00000000E+00  0.00000000E+00
  0.00000000E+00  0.00000000E+00  0.00000000E+00
  0.00000000E+00  0.00000000E+00  0.00000000E+00
  0.00000000E+00  0.00000000E+00  0.00000000E+00
  0.00000000E+00  0.00000000E+00  0.00000000E+00
  0.00000000E+00  0.00000000E+00  0.00000000E+00
  0.00000000E+00  0.00000000E+00  0.00000000E+00
  0.00000000E+00  0.00000000E+00  0.00000000E+00
  0.00000000E+00  0.00000000E+00  0.00000000E+00
  0.00000000E+00  0.00000000E+00  0.00000000E+00
  0.00000000E+00  0.00000000E+00  0.00000000E+00
  0.00000000E+00  0.00000000E+00  0.00000000E+00
  0.00000000E+00  0.00000000E+00  0.00000000E+00
  0.00000000E+00  0.00000000E+00  0.00000000E+00
  0.00000000E+00  0.00000000E+00  0.00000000E+00
  0.00000000E+00  0.00000000E+00  0.00000000E+00
  0.00000000E+00  0.00000000E+00  0.00000000E+00
  0.00000000E+00  0.00000000E+00  0.00000000E+00
  0.00000000E+00  0.00000000E+00  0.00000000E+00
  0.00000000E+00  0.00000000E+00  0.00000000E+00
  0.00000000E+00  0.00000000E+00  0.00000000E+00
  0.00000000E+00  0.00000000E+00  0.00000000E+00
  0.00000000E+00  0.00000000E+00  0.00000000E+00
  0.00000000E+00  0.00000000E+00  0.00000000E+00
  0.00000000E+00  0.00000000E+00  0.00000000E+00
  0.00000000E+00  0.00000000E+00  0.00000000E+00
  0.00000000E+00  0.00000000E+00  0.00000000E+00
  0.00000000E+00  0.00000000E+00  0.00000000E+00
  0.00000000E+00  0.00000000E+00  0.00000000E+00
  0.00000000E+00  0.00000000E+00  0.00000000E+00
  0.00000000E+00  0.00000000E+00  0.00000000E+00
  0.00000000E+00  0.00000000E+00  0.00000000E+00
  0.00000000E+00  0.00000000E+00  0.00000000E+00
  0.00000000E+00  0.00000000E+00  0.00000000E+00
  0.00000000E+00  0.00000000E+00  0.00000000E+00
  0.00000000E+00  0.00000000E+00  0.00000000E+00
  0.00000000E+00  0.00000000E+00  0.00000000E+00
  0.00000000E+00  0.00000000E+00  0.00000000E+00
  0.00000000E+00  0.00000000E+00  0.00000000E+00
  0.00000000E+00  0.00000000E+00  0.00000000E+00
  0.00000000E+00  0.00000000E+00  0.00000000E+00
  0.00000000E+00  0.00000000E+00  0.00000000E+00
  0.00000000E+00  0.00000000E+00  0.00000000E+00
  0.00000000E+00  0.00000000E+00  0.00000000E+00
  0.00000000E+00  0.00000000E+00  0.00000000E+00
  0.00000000E+00  0.00000000E+00  0.00000000E+00
  0.00000000E+00  0.00000000E+00  0.00000000E+00
  0.00000000E+00  0.00000000E+00  0.00000000E+00
  0.00000000E+00  0.00000000E+00  0.00000000E+00
  0.00000000E+00  0.00000000E+00  0.00000000E+00
  0.00000000E+00  0.00000000E+00  0.00000000E+00
  0.00000000E+00  0.00000000E+00  0.00000000E+00
  0.00000000E+00  0.00000000E+00  0.00000000E+00
  0.00000000E+00  0.00000000E+00  0.00000000E+00
  0.00000000E+00  0.00000000E+00  0.00000000E+00
  0.00000000E+00  0.00000000E+00  0.00000000E+00
  0.00000000E+00  0.00000000E+00  0.00000000E+00
  0.00000000E+00  0.00000000E+00  0.00000000E+00
  0.00000000E+00  0.00000000E+00  0.00000000E+00
  0.00000000E+00  0.00000000E+00  0.00000000E+00
  0.00000000E+00  0.00000000E+00  0.00000000E+00
  0.00000000E+00  0.00000000E+00  0.00000000E+00
  0.00000000E+00  0.00000000E+00  0.00000000E+00
  0.00000000E+00  0.00000000E+00  0.00000000E+00
  0.00000000E+00  0.00000000E+00  0.00000000E+00
  0.00000000E+00  0.00000000E+00  0.00000000E+00
  0.00000000E+00  0.00000000E+00  0.00000000E+00
  0.00000000E+00  0.00000000E+00  0.00000000E+00
  0.00000000E+00  0.00000000E+00  0.00000000E+00
  0.00000000E+00  0.00000000E+00  0.00000000E+00
  0.00000000E+00  0.00000000E+00  0.00000000E+00
  0.00000000E+00  0.00000000E+00  0.00000000E+00
  0.00000000E+00  0.00000000E+00  0.00000000E+00
  0.00000000E+00  0.00000000E+00  0.00000000E+00
  0.00000000E+00  0.00000000E+00  0.00000000E+00
  0.00000000E+00  0.00000000E+00  0.00000000E+00
  0.00000000E+00  0.00000000E+00  0.00000000E+00
  0.00000000E+00  0.00000000E+00  0.00000000E+00
  0.00000000E+00  0.00000000E+00  0.00000000E+00
  0.00000000E+00  0.00000000E+00  0.00000000E+00
  0.00000000E+00  0.00000000E+00  0.00000000E+00
  0.00000000E+00  0.00000000E+00  0.00000000E+00
  0.00000000E+00  0.00000000E+00  0.00000000E+00
  0.00000000E+00  0.00000000E+00  0.00000000E+00
  0.00000000E+00  0.00000000E+00  0.00000000E+00
  0.00000000E+00  0.00000000E+00  0.00000000E+00
  0.00000000E+00  0.00000000E+00  0.00000000E+00
  0.00000000E+00  0.00000000E+00  0.00000000E+00
  0.00000000E+00  0.00000000E+00  0.00000000E+00
  0.00000000E+00  0.00000000E+00  0.00000000E+00
  0.00000000E+00  0.00000000E+00  0.00000000E+00
  0.00000000E+00  0.00000000E+00  0.00000000E+00
  0.00000000E+00  0.00000000E+00  0.00000000E+00
  0.00000000E+00  0.00000000E+00  0.00000000E+00
  0.00000000E+00  0.00000000E+00  0.00000000E+00
  0.00000000E+00  0.00000000E+00  0.00000000E+00
  0.00000000E+00  0.00000000E+00  0.00000000E+00
  0.00000000E+00  0.00000000E+00  0.00000000E+00
  0.00000000E+00  0.00000000E+00  0.00000000E+00
  0.00000000E+00  0.00000000E+00  0.00000000E+00
  0.00000000E+00  0.00000000E+00  0.00000000E+00
  0.00000000E+00  0.00000000E+00  0.00000000E+00
  0.00000000E+00  0.00000000E+00  0.00000000E+00
  0.00000000E+00  0.00000000E+00  0.00000000E+00
  0.00000000E+00  0.00000000E+00  0.00000000E+00
  0.00000000E+00  0.00000000E+00  0.00000000E+00
  0.00000000E+00  0.00000000E+00  0.00000000E+00
  0.00000000E+00  0.00000000E+00  0.00000000E+00
  0.00000000E+00  0.00000000E+00  0.00000000E+00
  0.00000000E+00  0.00000000E+00  0.00000000E+00
  0.00000000E+00  0.00000000E+00  0.00000000E+00
  0.00000000E+00  0.00000000E+00  0.00000000E+00
  0.00000000E+00  0.00000000E+00  0.00000000E+00
  0.00000000E+00  0.00000000E+00  0.00000000E+00
  0.00000000E+00  0.00000000E+00  0.00000000E+00
  0.00000000E+00  0.00000000E+00  0.00000000E+00
  0.00000000E+00  0.00000000E+00  0.00000000E+00
  0.00000000E+00  0.00000000E+00  0.00000000E+00
  0.00000000E+00  0.00000000E+00  0.00000000E+00
  0.00000000E+00  0.00000000E+00  0.00000000E+00
  0.00000000E+00  0.00000000E+00  0.00000000E+00
  0.00000000E+00  0.00000000E+00  0.00000000E+00
  0.00000000E+00  0.00000000E+00  0.00000000E+00
  0.00000000E+00  0.00000000E+00  0.00000000E+00
  0.00000000E+00  0.00000000E+00  0.00000000E+00
  0.00000000E+00  0.00000000E+00  0.00000000E+00
  0.00000000E+00  0.00000000E+00  0.00000000E+00
  0.00000000E+00  0.00000000E+00  0.00000000E+00
  0.00000000E+00  0.00000000E+00  0.00000000E+00
  0.00000000E+00  0.00000000E+00  0.00000000E+00
  0.00000000E+00  0.00000000E+00  0.00000000E+00
  0.00000000E+00  0.00000000E+00  0.00000000E+00
  0.00000000E+00  0.00000000E+00  0.00000000E+00
  0.00000000E+00  0.00000000E+00  0.00000000E+00
  0.00000000E+00  0.00000000E+00  0.00000000E+00
  0.00000000E+00  0.00000000E+00  0.00000000E+00
  0.00000000E+00  0.00000000E+00  0.00000000E+00
  0.00000000E+00  0.00000000E+00  0.00000000E+00
  0.00000000E+00  0.00000000E+00  0.00000000E+00
  0.00000000E+00  0.00000000E+00  0.00000000E+00
  0.00000000E+00  0.00000000E+00  0.00000000E+00
  0.00000000E+00  0.00000000E+00  0.00000000E+00
  0.00000000E+00  0.00000000E+00  0.00000000E+00
  0.00000000E+00  0.00000000E+00  0.00000000E+00
  0.00000000E+00  0.00000000E+00  0.00000000E+00
  0.00000000E+00  0.00000000E+00  0.00000000E+00
  0.00000000E+00  0.00000000E+00  0.00000000E+00
  0.00000000E+00  0.00000000E+00  0.00000000E+00
  0.00000000E+00  0.00000000E+00  0.00000000E+00
  0.00000000E+00  0.00000000E+00  0.00000000E+00
  0.00000000E+00  0.00000000E+00  0.00000000E+00
  0.00000000E+00  0.00000000E+00  0.00000000E+00
  0.00000000E+00  0.00000000E+00  0.00000000E+00
  0.00000000E+00  0.00000000E+00  0.00000000E+00
  0.00000000E+00  0.00000000E+00  0.00000000E+00
  0.00000000E+00  0.00000000E+00  0.00000000E+00
  0.00000000E+00  0.00000000E+00  0.00000000E+00
  0.00000000E+00  0.00000000E+00  0.00000000E+00
  0.00000000E+00  0.00000000E+00  0.00000000E+00
  0.00000000E+00  0.00000000E+00  0.00000000E+00
  0.00000000E+00  0.00000000E+00  0.00000000E+00
  0.00000000E+00  0.00000000E+00  0.00000000E+00
  0.00000000E+00  0.00000000E+00  0.00000000E+00
  0.00000000E+00  0.00000000E+00  0.00000000E+00
  0.00000000E+00  0.00000000E+00  0.00000000E+00
  0.00000000E+00  0.00000000E+00  0.00000000E+00
  0.00000000E+00  0.00000000E+00  0.00000000E+00
  0.00000000E+00  0.00000000E+00  0.00000000E+00
  0.00000000E+00  0.00000000E+00  0.00000000E+00
  0.00000000E+00  0.00000000E+00  0.00000000E+00
  0.00000000E+00  0.00000000E+00  0.00000000E+00
  0.00000000E+00  0.00000000E+00  0.00000000E+00
  0.00000000E+00  0.00000000E+00  0.00000000E+00
  0.00000000E+00  0.00000000E+00  0.00000000E+00
  0.00000000E+00  0.00000000E+00  0.00000000E+00
  0.00000000E+00  0.00000000E+00  0.00000000E+00
  0.00000000E+00  0.00000000E+00  0.00000000E+00
  0.00000000E+00  0.00000000E+00  0.00000000E+00
  0.00000000E+00  0.00000000E+00  0.00000000E+00
  0.00000000E+00  0.00000000E+00  0.00000000E+00
  0.00000000E+00  0.00000000E+00  0.00000000E+00
  0.00000000E+00  0.00000000E+00  0.00000000E+00
  0.00000000E+00  0.00000000E+00  0.00000000E+00
  0.00000000E+00  0.00000000E+00  0.00000000E+00
  0.00000000E+00  0.00000000E+00  0.00000000E+00
  0.00000000E+00  0.00000000E+00  0.00000000E+00
  0.00000000E+00  0.00000000E+00  0.00000000E+00
  0.00000000E+00  0.00000000E+00  0.00000000E+00
  0.00000000E+00  0.00000000E+00  0.00000000E+00
  0.00000000E+00  0.00000000E+00  0.00000000E+00
  0.00000000E+00  0.00000000E+00  0.00000000E+00
  0.00000000E+00  0.00000000E+00  0.00000000E+00
  0.00000000E+00  0.00000000E+00  0.00000000E+00
  0.00000000E+00  0.00000000E+00  0.00000000E+00
  0.00000000E+00  0.00000000E+00  0.00000000E+00
  0.00000000E+00  0.00000000E+00  0.00000000E+00
  0.00000000E+00  0.00000000E+00  0.00000000E+00
  0.00000000E+00  0.00000000E+00  0.00000000E+00
  0.00000000E+00  0.00000000E+00  0.00000000E+00
  0.00000000E+00  0.00000000E+00  0.00000000E+00
  0.00000000E+00  0.00000000E+00  0.00000000E+00
  0.00000000E+00  0.00000000E+00  0.00000000E+00
  0.00000000E+00  0.00000000E+00  0.00000000E+00
  0.00000000E+00  0.00000000E+00  0.00000000E+00
  0.00000000E+00  0.00000000E+00  0.00000000E+00
  0.00000000E+00  0.00000000E+00  0.00000000E+00
  0.00000000E+00  0.00000000E+00  0.00000000E+00
  0.00000000E+00  0.00000000E+00  0.00000000E+00
  0.00000000E+00  0.00000000E+00  0.00000000E+00
  0.00000000E+00  0.00000000E+00  0.00000000E+00
  0.00000000E+00  0.00000000E+00  0.00000000E+00
  0.00000000E+00  0.00000000E+00  0.00000000E+00
  0.00000000E+00  0.00000000E+00  0.00000000E+00
  0.00000000E+00  0.00000000E+00  0.00000000E+00
  0.00000000E+00  0.00000000E+00  0.00000000E+00
  0.00000000E+00  0.00000000E+00  0.00000000E+00
  0.00000000E+00  0.00000000E+00  0.00000000E+00
  0.00000000E+00  0.00000000E+00  0.00000000E+00
  0.00000000E+00  0.00000000E+00  0.00000000E+00
  0.00000000E+00  0.00000000E+00  0.00000000E+00