CuInSe2gb                               
   1.00000000000000     
     9.7266780392896699    0.0000000000000000    0.0000000000000000
     0.0000000000000000    8.4235502764570693    0.0000000000000000
     0.0000000000000000    0.0000000000000000   45.0000000000000000
   Fe   Mn
   274    14
Direct
  0.0623949931921026  0.0305228220811029  0.1242252268617442
  0.3163679260475235  0.8748826935530786  0.6550005887642840
  0.1854367661845966  0.1223497761406101  0.7885458079867026
  0.4414000439790545  0.2876466958104776  0.3891310688974798
  0.3181475306450891  0.7121087972497726  0.8332339974212601
  0.8181294912439648  0.2142984704291406  0.8333903300886575
  0.1913659041808986  0.9629728972149131  0.8336198795488851
  0.5623937557375541  0.2070020841025088  0.5655476939446231
  0.0650338481074589  0.0395941514576640  0.7440921902876458
  0.8116043090120625  0.8712967156360155  0.5213940553031929
  0.1907258791503641  0.2910992142328339  0.7442693277211969
  0.9335339806577980  0.4524460704378951  0.3448080160178053
  0.9411922612099485  0.2864339164043057  0.3888895317887600
  0.8132220199791673  0.0397662491498304  0.8757212795567704
  0.1836498322801689  0.7879905695831757  0.6109103609481407
  0.5661972334880588  0.0379559592060086  0.3889959598486662
  0.9419782377777851  0.9637210783647794  0.8337981959751471
  0.3139604207250495  0.5408594214709761  0.8758960869537057
  0.6895992258666652  0.2911709860641220  0.7442421412650392
  0.1819156245366519  0.6140037885992174  0.1666223647720902
  0.8122005201616358  0.2056984774925510  0.4786691719283796
  0.8089213446204521  0.5384235408861081  0.6110253945710307
  0.3120328114864794  0.8703445124793450  0.4344962432810938
  0.8090596711772199  0.0381565253714480  0.2558219680280737
  0.6833383060347006  0.9521196942078206  0.3447468230789956
  0.9313525111878270  0.1139889165377991  0.1667565528622243
  0.0617426503693592  0.8713243637855311  0.5214101987278411
  0.5583347380505111  0.5379947727239479  0.2558583642967616
  0.6858462908599774  0.7953807879106726  0.8758068189495447
  0.5560508410433918  0.3649026163187047  0.1665825435439557
  0.4391209818662584  0.7908943250940671  0.7442920087507467
  0.8114168156669707  0.7066529807902555  0.5654985539203787
  0.5599310490539887  0.8736371063202445  0.7884616359655329
  0.6865626235785754  0.1215119928739246  0.5214058336528267
  0.8163052956389715  0.3749385202087082  0.6550670285695299
  0.9422938837540641  0.4631756741607304  0.8338265866344849
  0.0605728248695122  0.2080374142543379  0.6996318892965843
  0.4352071113614878  0.9581962612569384  0.6996393559984511
  0.3160766795320137  0.2120412596359753  0.8333073507874463
  0.4411916428190136  0.6248511363381755  0.6549801409659618
  0.3088039578493352  0.5380831614659329  0.6109407058633167
  0.9366290719498763  0.4563026910313766  0.5655788111526484
  0.6901594119368860  0.7917703142223852  0.7442532530925486
  0.9351595343000356  0.7881211224492970  0.1244777603214444
  0.6915064217806672  0.7878419061481335  0.3890628666554909
  0.9402658332544171  0.7908195871263215  0.7444647358099947
  0.0590488845849420  0.2030161665401283  0.3448552645232928
  0.6837001711452048  0.4523606925348894  0.3449318514846897
  0.4345837378709380  0.1212709722561333  0.7887127368176894
  0.0650477391000674  0.2054266875353778  0.2112966161162574
  0.0554418082789416  0.3652716039726314  0.1667473518110594
  0.9332120909982917  0.7878211589057010  0.2555721715598271
  0.5608724366796159  0.2075719640395347  0.6997285725114989
  0.6853394840770648  0.9580597957236401  0.6996797125752978
  0.8096475658156674  0.8734379663720878  0.7884668946530702
  0.4369280150078819  0.9572280238973111  0.5653730999043018
  0.8112540630861915  0.3737554272642862  0.7883501333079431
  0.6839092779869006  0.2883657485427771  0.2559076703912741
  0.1874337781352720  0.4570899137275510  0.5654753446376358
  0.0556478934776960  0.8652652037808803  0.1667341506841857
  0.1838219192039280  0.2883668431853765  0.6110006008318661
  0.0623317142008966  0.2072280944375863  0.5653990465817266
  0.3108250192362663  0.2076381127888511  0.6997819777520351
  0.3063580264067797  0.8637388609676895  0.1669121616419399
  0.0620128792145503  0.7065646360281594  0.5655648460048789
  0.6845159782929959  0.6223150575350939  0.7883693576836581
  0.3157840129148616  0.5382529079155136  0.3889400000852977
  0.1870863413098736  0.6212222181938629  0.5215253480352999
  0.5623404685823510  0.8704334205045429  0.4344057240167619
  0.4367683737268358  0.4569661681335375  0.5655401586939417
  0.4395002296771116  0.2919373210379766  0.7443839147085941
  0.8192860167694956  0.8748984234407235  0.3000958021871591
  0.8087733386310811  0.7027530109880793  0.3449144483548637
  0.4418403787820961  0.4630191453175918  0.8335591224814887
  0.6874298117430856  0.9556687641771826  0.4786729941558105
  0.6853404745838352  0.4578985099636277  0.6997167768929241
  0.5619569970583047  0.8718319360744377  0.5214954345151256
  0.5663435060084213  0.3748939215897265  0.6549786596554912
  0.8162046496740427  0.8748600213294168  0.6550525659305027
  0.8117559844589545  0.3712087912892826  0.4342613558885501
  0.8089066370583110  0.5378434532944271  0.2558476582273986
  0.6915400329155776  0.4626036946524289  0.8334836998706455
  0.1856370819272427  0.7874444133409531  0.1242556908061815
  0.6913187124234526  0.2872817763997233  0.3889687629898400
  0.3163054228787734  0.3746936938310595  0.6549355474188804
  0.3090859682873094  0.2025147921515738  0.3447761779049056
  0.8155612558574855  0.5401333564188837  0.7441240044543763
  0.6915874055262965  0.9623251153449108  0.8334796262027311
  0.5659514949570926  0.8747325244670958  0.6550621700526285
  0.3117419152155493  0.7070794541952502  0.5654715535430546
  0.3115290561922900  0.5312891469944334  0.1241807043007157
  0.6901622579216090  0.9551892187781178  0.2116953206951671
  0.3114460893365664  0.2065588487675893  0.5655275172273403
  0.1873694246510932  0.9557627371550090  0.4787025909895773
  0.6874005110619766  0.9571079738059937  0.5655425168333956
  0.4339919128066122  0.7883745533569347  0.6109460333161910
  0.6821062228830477  0.6119585347787934  0.1666566857862255
  0.3188635119624647  0.8740007646594914  0.2999035518740217
  0.3122262747388748  0.7055444438779497  0.4786513830331807
  0.9336599420585656  0.2879062295881876  0.6109432805730760
  0.4454661421639005  0.6239158279667940  0.3001975993207046
  0.8072008805624650  0.8641705730092967  0.1668769789693421
  0.5665996017530245  0.2030804556760704  0.2114495437999550
  0.9325415027643482  0.6130623662118539  0.1667720274746416
  0.4373717350271932  0.9557354739745856  0.4786565234899687
  0.5604520381323689  0.3729693956080848  0.7885734398149619
  0.0615838969535153  0.3717990012925505  0.5213773560821812
  0.3063388658735418  0.3644451310763614  0.1667558544532825
  0.6943588098626028  0.1237361090603222  0.3001712489535869
  0.4426909362773396  0.9629051231177387  0.8333432301536733
  0.1854538181332476  0.2868455096809804  0.1242248777688687
  0.1839870884481974  0.2885628145049485  0.2559443343941341
  0.3124468319841080  0.3702667650422303  0.4344153036037718
  0.5621738881967746  0.0322887396096816  0.1243609317106946
  0.4337124501607726  0.2879578253097861  0.6109368931253999
  0.1836464669047823  0.4526920600901569  0.3449424088853690
  0.4339155152224545  0.2868101770364961  0.1243001903193079
  0.6836204592876058  0.7884500241191773  0.2558920932356668
  0.4367014291746550  0.1214496665594360  0.5213960368631899
  0.1883654366478355  0.2946742189301421  0.8758910143320953
  0.1913053201668954  0.1249118178747089  0.6550609727597980
  0.9413922731649884  0.1251244023665417  0.6550728686930052
  0.8163690406229269  0.5377023943728889  0.3890204260486336
  0.0664455514299800  0.0377663179391574  0.3891109998193248
  0.1823008571161532  0.1135547279549453  0.1666112017324161
  0.0587155019036361  0.5379122860216865  0.6109733504710523
  0.9336654471834446  0.2878964168939189  0.2558692503096852
  0.5586641805169983  0.5379573979416291  0.6109313216402348
  0.9366766537464605  0.9572384133804738  0.5654950056945764
  0.6942788008458364  0.6248635489857685  0.3000624459864422
  0.9374664028038480  0.6201819135255040  0.4344563327232532
  0.9342545295165847  0.6234110074466550  0.7881418936486584
  0.5607303195070816  0.7072935999016766  0.6996571871572009
  0.0654208850430022  0.7160468301102262  0.8338504028697468
  0.9442634784997250  0.1235471832747522  0.3000599838884564
  0.9335901603107370  0.7876198551830444  0.6109607758060366
  0.4332949433339515  0.7882685097857345  0.2557665454016783
  0.3093876068012516  0.3731024779370609  0.7884387762229175
  0.4404763941253561  0.4553476372773119  0.2115655602415995
  0.1867746276555705  0.1215416533556260  0.5214304127346029
  0.8104343187285006  0.7077477156687045  0.6996931925505305
  0.0587226439991820  0.0377650826705631  0.6109081567471999
  0.5658953793808955  0.2138343312465077  0.8333953127091543
  0.3117323647654611  0.8714762434282989  0.5214156709089466
  0.6854761122601861  0.2874893994025803  0.1241778132414637
  0.1908256818139321  0.9557867820050271  0.2115990992500294
  0.6838353967628019  0.2882641914544045  0.6110239598910375
  0.3088575275729067  0.0381698566684168  0.6110462940403070
  0.9347946721742985  0.1232338584623609  0.7884924891247385
  0.4361687014491004  0.7953169405130235  0.8759594490810109
  0.8148426590408746  0.0404040006326868  0.7441243872601904
  0.9351156164430582  0.4579949257198330  0.6996698168177163
  0.1911675997058973  0.6247908590831998  0.6549878525907918
  0.3107030841844243  0.7074635060816149  0.6997369190111784
  0.9349870698198500  0.2873031681549679  0.1242325796697453
  0.4374646931415888  0.4557962688170565  0.4786070527511589
  0.0623034310507370  0.7056074684945837  0.4785735701969356
  0.9370441160059522  0.1195504734932546  0.4345913337802324
  0.4434509733721638  0.1242929692456106  0.3002800122391514
  0.1875931382586296  0.1194944844784674  0.4344027630065387
  0.5629438491889074  0.0400551826636296  0.8760225783365901
  0.1868764782957671  0.9569525460239996  0.5655009518653815
  0.6836701226527101  0.7883980696472525  0.1246072398677839
  0.5588905617372117  0.7023947937265286  0.3449141804395020
  0.3161534909186235  0.0367400812390992  0.3889004444176224
  0.6819441917296931  0.1135155260516756  0.1668405657961788
  0.8158544635926297  0.2036159191612950  0.2113140824752966
  0.0599106355104387  0.5377223728463580  0.2557709953301303
  0.5623651837320756  0.7057384552933161  0.4785897496415346
  0.4350670569331583  0.7875668701394434  0.1243316585698775
  0.5686694080686309  0.3739876665335177  0.3001884989347852
  0.4334746731543114  0.9526167181916124  0.3449384645534585
  0.1852449299733289  0.9579269591604794  0.6998422487422310
  0.4318730147607833  0.6135569349792848  0.1664906950265915
  0.9406392969356174  0.4551619235007006  0.2117395122754671
  0.0622549308628503  0.5312156458159742  0.1241256180262511
  0.8117010882492683  0.3718646641482450  0.5213823615578922
  0.9445066877241292  0.6246163849994751  0.2999404743379349
  0.3095808670085581  0.0380886729716654  0.2555494593489400
  0.6838010991999913  0.7879787764630269  0.6109354538757024
  0.1914145934405291  0.4626493552405650  0.8334155655907695
  0.4319425408723647  0.1134625317875209  0.1666132200899507
  0.3116131441059179  0.3714363481791013  0.5213997791311464
  0.4349672599263368  0.6220789561882925  0.7887622969211733
  0.0586171966314644  0.0380863479689393  0.2557892853091615
  0.5620860595131123  0.7071222943968901  0.5655657555957151
  0.9392010536760671  0.2904109997504454  0.7442800994729233
  0.6838722922583834  0.1222630450517508  0.7883711879720097
  0.1894237646565154  0.4552008483253678  0.2113560418064566
  0.9413063323936723  0.7875121285991030  0.3889695069935479
  0.6849261825125668  0.2968797795231902  0.8759639344668967
  0.5563308181848907  0.8639640311427019  0.1665749196451552
  0.4356618104713990  0.4580016761158516  0.6996482310811494
  0.9343550073558345  0.9518629288520117  0.3448056461439230
  0.6865854920693126  0.6211948791604264  0.5212930197312051
  0.0661619837346496  0.8746136006192432  0.6549618197430711
  0.0600316760091813  0.8732788844946912  0.7885542191210351
  0.0664753535312121  0.3747247672478591  0.6549652991371295
  0.6870554041575950  0.4555678687365305  0.4786409659633554
  0.1838448862864178  0.7884039572504621  0.2555435230109184
  0.4370672191284528  0.1204777227001161  0.4344309503819138
  0.8134658811928621  0.0308379014543638  0.1241556602673614
  0.9366094895141940  0.6215501932640676  0.5214295833380217
  0.4415782267828064  0.1248512039233442  0.6549400868487145
  0.8124307680915568  0.5301026111546431  0.1242797051153972
  0.4337155482715709  0.4527667510165444  0.3450278784243907
  0.8088434889315047  0.2025115704082621  0.3449672859275541
  0.3091287502632040  0.7024327210309135  0.3447985032368555
  0.6910510320557061  0.1249608108633234  0.6549899451928460
  0.5691485332778311  0.8740355538169261  0.3003319710489908
  0.0653344547378592  0.5404584563599140  0.7443484422257091
  0.9406860319665291  0.9554260930515257  0.2114051049076285
  0.8161849280174279  0.7044411869309014  0.2115077895674785
  0.0691502753111301  0.8741878566719566  0.3002166964055383
  0.1941650399054327  0.1242253139429756  0.3001920625976437
  0.0584568483833296  0.7022919408796857  0.3449408608404942
  0.8088610915602161  0.0378577420921864  0.6109139037023853
  0.0630833264111008  0.3707989272416727  0.4343455974783814
  0.5591116467361859  0.2027081904870081  0.3448128542528425
  0.8192178154708833  0.3746721276910237  0.3001229365104214
  0.5595230407789169  0.0388137938533133  0.2555362288358194
  0.5662599347126450  0.5377457623835610  0.3890632846861615
  0.0625885392692735  0.2057417996418218  0.4786908720982421
  0.3117125698224080  0.8728586635688367  0.7882877324784091
  0.9353775084317910  0.9584172265845305  0.6996663842745496
  0.0688364579647382  0.3749057236351188  0.3001543318586668
  0.6910484491849410  0.6249282792946422  0.6551009732287346
  0.6867650674070709  0.4573421844242134  0.5654155129389524
  0.4398927043109262  0.9561547314156545  0.2118578502068914
  0.3125347312637235  0.2054860088087444  0.4786572592082180
  0.8139528660997363  0.5405653415286814  0.8756395894819288
  0.6877783219369170  0.6201869190308524  0.4344655609014176
  0.8108916769447609  0.2075145840882179  0.6997854351199981
  0.8124474173309374  0.7056299534458930  0.4786469673312654
  0.8116513646664737  0.8708392063762650  0.4342727775158307
  0.9373133861388382  0.9551106453595910  0.4787110791822281
  0.5622960653274249  0.2057293910428258  0.4786449709542431
  0.1869774776682543  0.6198071301092850  0.4344509264477657
  0.3145214615038735  0.0410852032840700  0.7441713156678188
  0.9414232556641020  0.6251404877260817  0.6549374004675181
  0.5663530116700282  0.7126931552699157  0.8334838749250132
  0.3195294327579811  0.3728744941084128  0.2999887504247485
  0.5658767853017096  0.7036944539329637  0.2114217789550798
  0.1875093428097081  0.4556027696100979  0.4786898161093319
  0.3140236056561582  0.0407175536060226  0.8759109363780887
  0.1851287760118362  0.4582594552639552  0.6996530994030665
  0.5618130490634495  0.3714248912337924  0.5214104471562108
  0.1911032668815276  0.2878026276773598  0.3890016197373617
  0.3157558756308642  0.2060080260877273  0.2113172380719247
  0.0665698795994404  0.7046718089027468  0.2114015168244710
  0.5619928046473854  0.3706237797494489  0.4344245520316728
  0.4366079968178882  0.6216011333932318  0.5213423895130443
  0.8162455464826947  0.7143202549050930  0.8334522063330306
  0.0607413247739427  0.3748376930562625  0.7883873355791999
  0.4382779347637969  0.2952163644696282  0.8761247873858414
  0.3114823505889820  0.0316791263035626  0.1242755341300414
  0.6880775533430018  0.1197182217250902  0.4342977762520387
  0.1837718710495251  0.9524770024249480  0.3449963273466859
  0.0666249149613687  0.2140152977582115  0.8337945494246850
  0.5591399663757474  0.0384100414311682  0.6110916363133542
  0.6897061057538150  0.4550239734681117  0.2118058317290650
  0.1903404640339034  0.7909057246136496  0.7442623829352013
  0.1940989601217986  0.6244701357086121  0.3001819424902282
  0.4413916451590381  0.7876785221924357  0.3890890314076855
  0.4334687233360083  0.2885592290489674  0.2557848292900229
  0.0639797990003628  0.5394002994136919  0.8759729203230591
  0.5655567668230072  0.0406893072521722  0.7443315052545553
  0.1875592844348467  0.7956164090675318  0.8758910354931958
  0.9373186849808350  0.4556377143032360  0.4786798079334691
  0.5649691110179490  0.5406207083208402  0.7439921917880395
  0.8113713981077521  0.2068275607195581  0.5654751368532228
  0.1853841362105921  0.6211333207461578  0.7882686612652082
  0.0666909745698784  0.5381328018897769  0.3891102051746758
  0.0609616580033968  0.7077184441713270  0.6997498785939318
  0.3082241436444966  0.5372930095799050  0.2557606199129003
  0.3155974952545238  0.7057596292211394  0.2118257843312125
  0.5636941137300905  0.5388501885384054  0.8757233959381862
  0.4368594264372433  0.6207389909686259  0.4343594264309871
  0.8178197706465331  0.0391548282457255  0.3891456418300749
  0.9357213999307488  0.2962485169928680  0.8754502211759991
  0.9376641983977058  0.7943299661488160  0.8755758222140968
  0.0659530828895209  0.0386912071185814  0.8755357927148451
  0.5625009065756178  0.5304914129119214  0.1246325169965451
  0.8046269582510127  0.3663636980369411  0.1661847020899206
  0.0620990846143577  0.8710326282789390  0.4344229982167171
  0.9365181932056729  0.1213269180153752  0.5214772358524996
  0.1928636762594673  0.7874895856218014  0.3889593780773551
  0.3154747216272279  0.5404334064681017  0.7442867405905048
 
  0.00000000E+00  0.00000000E+00  0.00000000E+00
  0.00000000E+00  0.00000000E+00  0.00000000E+00
  0.00000000E+00  0.00000000E+00  0.00000000E+00
  0.00000000E+00  0.00000000E+00  0.00000000E+00
  0.00000000E+00  0.00000000E+00  0.00000000E+00
  0.00000000E+00  0.00000000E+00  0.00000000E+00
  0.00000000E+00  0.00000000E+00  0.00000000E+00
  0.00000000E+00  0.00000000E+00  0.00000000E+00
  0.00000000E+00  0.00000000E+00  0.00000000E+00
  0.00000000E+00  0.00000000E+00  0.00000000E+00
  0.00000000E+00  0.00000000E+00  0.00000000E+00
  0.00000000E+00  0.00000000E+00  0.00000000E+00
  0.00000000E+00  0.00000000E+00  0.00000000E+00
  0.00000000E+00  0.00000000E+00  0.00000000E+00
  0.00000000E+00  0.00000000E+00  0.00000000E+00
  0.00000000E+00  0.00000000E+00  0.00000000E+00
  0.00000000E+00  0.00000000E+00  0.00000000E+00
  0.00000000E+00  0.00000000E+00  0.00000000E+00
  0.00000000E+00  0.00000000E+00  0.00000000E+00
  0.00000000E+00  0.00000000E+00  0.00000000E+00
  0.00000000E+00  0.00000000E+00  0.00000000E+00
  0.00000000E+00  0.00000000E+00  0.00000000E+00
  0.00000000E+00  0.00000000E+00  0.00000000E+00
  0.00000000E+00  0.00000000E+00  0.00000000E+00
  0.00000000E+00  0.00000000E+00  0.00000000E+00
  0.00000000E+00  0.00000000E+00  0.00000000E+00
  0.00000000E+00  0.00000000E+00  0.00000000E+00
  0.00000000E+00  0.00000000E+00  0.00000000E+00
  0.00000000E+00  0.00000000E+00  0.00000000E+00
  0.00000000E+00  0.00000000E+00  0.00000000E+00
  0.00000000E+00  0.00000000E+00  0.00000000E+00
  0.00000000E+00  0.00000000E+00  0.00000000E+00
  0.00000000E+00  0.00000000E+00  0.00000000E+00
  0.00000000E+00  0.00000000E+00  0.00000000E+00
  0.00000000E+00  0.00000000E+00  0.00000000E+00
  0.00000000E+00  0.00000000E+00  0.00000000E+00
  0.00000000E+00  0.00000000E+00  0.00000000E+00
  0.00000000E+00  0.00000000E+00  0.00000000E+00
  0.00000000E+00  0.00000000E+00  0.00000000E+00
  0.00000000E+00  0.00000000E+00  0.00000000E+00
  0.00000000E+00  0.00000000E+00  0.00000000E+00
  0.00000000E+00  0.00000000E+00  0.00000000E+00
  0.00000000E+00  0.00000000E+00  0.00000000E+00
  0.00000000E+00  0.00000000E+00  0.00000000E+00
  0.00000000E+00  0.00000000E+00  0.00000000E+00
  0.00000000E+00  0.00000000E+00  0.00000000E+00
  0.00000000E+00  0.00000000E+00  0.00000000E+00
  0.00000000E+00  0.00000000E+00  0.00000000E+00
  0.00000000E+00  0.00000000E+00  0.00000000E+00
  0.00000000E+00  0.00000000E+00  0.00000000E+00
  0.00000000E+00  0.00000000E+00  0.00000000E+00
  0.00000000E+00  0.00000000E+00  0.00000000E+00
  0.00000000E+00  0.00000000E+00  0.00000000E+00
  0.00000000E+00  0.00000000E+00  0.00000000E+00
  0.00000000E+00  0.00000000E+00  0.00000000E+00
  0.00000000E+00  0.00000000E+00  0.00000000E+00
  0.00000000E+00  0.00000000E+00  0.00000000E+00
  0.00000000E+00  0.00000000E+00  0.00000000E+00
  0.00000000E+00  0.00000000E+00  0.00000000E+00
  0.00000000E+00  0.00000000E+00  0.00000000E+00
  0.00000000E+00  0.00000000E+00  0.00000000E+00
  0.00000000E+00  0.00000000E+00  0.00000000E+00
  0.00000000E+00  0.00000000E+00  0.00000000E+00
  0.00000000E+00  0.00000000E+00  0.00000000E+00
  0.00000000E+00  0.00000000E+00  0.00000000E+00
  0.00000000E+00  0.00000000E+00  0.00000000E+00
  0.00000000E+00  0.00000000E+00  0.00000000E+00
  0.00000000E+00  0.00000000E+00  0.00000000E+00
  0.00000000E+00  0.00000000E+00  0.00000000E+00
  0.00000000E+00  0.00000000E+00  0.00000000E+00
  0.00000000E+00  0.00000000E+00  0.00000000E+00
  0.00000000E+00  0.00000000E+00  0.00000000E+00
  0.00000000E+00  0.00000000E+00  0.00000000E+00
  0.00000000E+00  0.00000000E+00  0.00000000E+00
  0.00000000E+00  0.00000000E+00  0.00000000E+00
  0.00000000E+00  0.00000000E+00  0.00000000E+00
  0.00000000E+00  0.00000000E+00  0.00000000E+00
  0.00000000E+00  0.00000000E+00  0.00000000E+00
  0.00000000E+00  0.00000000E+00  0.00000000E+00
  0.00000000E+00  0.00000000E+00  0.00000000E+00
  0.00000000E+00  0.00000000E+00  0.00000000E+00
  0.00000000E+00  0.00000000E+00  0.00000000E+00
  0.00000000E+00  0.00000000E+00  0.00000000E+00
  0.00000000E+00  0.00000000E+00  0.00000000E+00
  0.00000000E+00  0.00000000E+00  0.00000000E+00
  0.00000000E+00  0.00000000E+00  0.00000000E+00
  0.00000000E+00  0.00000000E+00  0.00000000E+00
  0.00000000E+00  0.00000000E+00  0.00000000E+00
  0.00000000E+00  0.00000000E+00  0.00000000E+00
  0.00000000E+00  0.00000000E+00  0.00000000E+00
  0.00000000E+00  0.00000000E+00  0.00000000E+00
  0.00000000E+00  0.00000000E+00  0.00000000E+00
  0.00000000E+00  0.00000000E+00  0.00000000E+00
  0.00000000E+00  0.00000000E+00  0.00000000E+00
  0.00000000E+00  0.00000000E+00  0.00000000E+00
  0.00000000E+00  0.00000000E+00  0.00000000E+00
  0.00000000E+00  0.00000000E+00  0.00000000E+00
  0.00000000E+00  0.00000000E+00  0.00000000E+00
  0.00000000E+00  0.00000000E+00  0.00000000E+00
  0.00000000E+00  0.00000000E+00  0.00000000E+00
  0.00000000E+00  0.00000000E+00  0.00000000E+00
  0.00000000E+00  0.00000000E+00  0.00000000E+00
  0.00000000E+00  0.00000000E+00  0.00000000E+00
  0.00000000E+00  0.00000000E+00  0.00000000E+00
  0.00000000E+00  0.00000000E+00  0.00000000E+00
  0.00000000E+00  0.00000000E+00  0.00000000E+00
  0.00000000E+00  0.00000000E+00  0.00000000E+00
  0.00000000E+00  0.00000000E+00  0.00000000E+00
  0.00000000E+00  0.00000000E+00  0.00000000E+00
  0.00000000E+00  0.00000000E+00  0.00000000E+00
  0.00000000E+00  0.00000000E+00  0.00000000E+00
  0.00000000E+00  0.00000000E+00  0.00000000E+00
  0.00000000E+00  0.00000000E+00  0.00000000E+00
  0.00000000E+00  0.00000000E+00  0.00000000E+00
  0.00000000E+00  0.00000000E+00  0.00000000E+00
  0.00000000E+00  0.00000000E+00  0.00000000E+00
  0.00000000E+00  0.00000000E+00  0.00000000E+00
  0.00000000E+00  0.00000000E+00  0.00000000E+00
  0.00000000E+00  0.00000000E+00  0.00000000E+00
  0.00000000E+00  0.00000000E+00  0.00000000E+00
  0.00000000E+00  0.00000000E+00  0.00000000E+00
  0.00000000E+00  0.00000000E+00  0.00000000E+00
  0.00000000E+00  0.00000000E+00  0.00000000E+00
  0.00000000E+00  0.00000000E+00  0.00000000E+00
  0.00000000E+00  0.00000000E+00  0.00000000E+00
  0.00000000E+00  0.00000000E+00  0.00000000E+00
  0.00000000E+00  0.00000000E+00  0.00000000E+00
  0.00000000E+00  0.00000000E+00  0.00000000E+00
  0.00000000E+00  0.00000000E+00  0.00000000E+00
  0.00000000E+00  0.00000000E+00  0.00000000E+00
  0.00000000E+00  0.00000000E+00  0.00000000E+00
  0.00000000E+00  0.00000000E+00  0.00000000E+00
  0.00000000E+00  0.00000000E+00  0.00000000E+00
  0.00000000E+00  0.00000000E+00  0.00000000E+00
  0.00000000E+00  0.00000000E+00  0.00000000E+00
  0.00000000E+00  0.00000000E+00  0.00000000E+00
  0.00000000E+00  0.00000000E+00  0.00000000E+00
  0.00000000E+00  0.00000000E+00  0.00000000E+00
  0.00000000E+00  0.00000000E+00  0.00000000E+00
  0.00000000E+00  0.00000000E+00  0.00000000E+00
  0.00000000E+00  0.00000000E+00  0.00000000E+00
  0.00000000E+00  0.00000000E+00  0.00000000E+00
  0.00000000E+00  0.00000000E+00  0.00000000E+00
  0.00000000E+00  0.00000000E+00  0.00000000E+00
  0.00000000E+00  0.00000000E+00  0.00000000E+00
  0.00000000E+00  0.00000000E+00  0.00000000E+00
  0.00000000E+00  0.00000000E+00  0.00000000E+00
  0.00000000E+00  0.00000000E+00  0.00000000E+00
  0.00000000E+00  0.00000000E+00  0.00000000E+00
  0.00000000E+00  0.00000000E+00  0.00000000E+00
  0.00000000E+00  0.00000000E+00  0.00000000E+00
  0.00000000E+00  0.00000000E+00  0.00000000E+00
  0.00000000E+00  0.00000000E+00  0.00000000E+00
  0.00000000E+00  0.00000000E+00  0.00000000E+00
  0.00000000E+00  0.00000000E+00  0.00000000E+00
  0.00000000E+00  0.00000000E+00  0.00000000E+00
  0.00000000E+00  0.00000000E+00  0.00000000E+00
  0.00000000E+00  0.00000000E+00  0.00000000E+00
  0.00000000E+00  0.00000000E+00  0.00000000E+00
  0.00000000E+00  0.00000000E+00  0.00000000E+00
  0.00000000E+00  0.00000000E+00  0.00000000E+00
  0.00000000E+00  0.00000000E+00  0.00000000E+00
  0.00000000E+00  0.00000000E+00  0.00000000E+00
  0.00000000E+00  0.00000000E+00  0.00000000E+00
  0.00000000E+00  0.00000000E+00  0.00000000E+00
  0.00000000E+00  0.00000000E+00  0.00000000E+00
  0.00000000E+00  0.00000000E+00  0.00000000E+00
  0.00000000E+00  0.00000000E+00  0.00000000E+00
  0.00000000E+00  0.00000000E+00  0.00000000E+00
  0.00000000E+00  0.00000000E+00  0.00000000E+00
  0.00000000E+00  0.00000000E+00  0.00000000E+00
  0.00000000E+00  0.00000000E+00  0.00000000E+00
  0.00000000E+00  0.00000000E+00  0.00000000E+00
  0.00000000E+00  0.00000000E+00  0.00000000E+00
  0.00000000E+00  0.00000000E+00  0.00000000E+00
  0.00000000E+00  0.00000000E+00  0.00000000E+00
  0.00000000E+00  0.00000000E+00  0.00000000E+00
  0.00000000E+00  0.00000000E+00  0.00000000E+00
  0.00000000E+00  0.00000000E+00  0.00000000E+00
  0.00000000E+00  0.00000000E+00  0.00000000E+00
  0.00000000E+00  0.00000000E+00  0.00000000E+00
  0.00000000E+00  0.00000000E+00  0.00000000E+00
  0.00000000E+00  0.00000000E+00  0.00000000E+00
  0.00000000E+00  0.00000000E+00  0.00000000E+00
  0.00000000E+00  0.00000000E+00  0.00000000E+00
  0.00000000E+00  0.00000000E+00  0.00000000E+00
  0.00000000E+00  0.00000000E+00  0.00000000E+00
  0.00000000E+00  0.00000000E+00  0.00000000E+00
  0.00000000E+00  0.00000000E+00  0.00000000E+00
  0.00000000E+00  0.00000000E+00  0.00000000E+00
  0.00000000E+00  0.00000000E+00  0.00000000E+00
  0.00000000E+00  0.00000000E+00  0.00000000E+00
  0.00000000E+00  0.00000000E+00  0.00000000E+00
  0.00000000E+00  0.00000000E+00  0.00000000E+00
  0.00000000E+00  0.00000000E+00  0.00000000E+00
  0.00000000E+00  0.00000000E+00  0.00000000E+00
  0.00000000E+00  0.00000000E+00  0.00000000E+00
  0.00000000E+00  0.00000000E+00  0.00000000E+00
  0.00000000E+00  0.00000000E+00  0.00000000E+00
  0.00000000E+00  0.00000000E+00  0.00000000E+00
  0.00000000E+00  0.00000000E+00  0.00000000E+00
  0.00000000E+00  0.00000000E+00  0.00000000E+00
  0.00000000E+00  0.00000000E+00  0.00000000E+00
  0.00000000E+00  0.00000000E+00  0.00000000E+00
  0.00000000E+00  0.00000000E+00  0.00000000E+00
  0.00000000E+00  0.00000000E+00  0.00000000E+00
  0.00000000E+00  0.00000000E+00  0.00000000E+00
  0.00000000E+00  0.00000000E+00  0.00000000E+00
  0.00000000E+00  0.00000000E+00  0.00000000E+00
  0.00000000E+00  0.00000000E+00  0.00000000E+00
  0.00000000E+00  0.00000000E+00  0.00000000E+00
  0.00000000E+00  0.00000000E+00  0.00000000E+00
  0.00000000E+00  0.00000000E+00  0.00000000E+00
  0.00000000E+00  0.00000000E+00  0.00000000E+00
  0.00000000E+00  0.00000000E+00  0.00000000E+00
  0.00000000E+00  0.00000000E+00  0.00000000E+00
  0.00000000E+00  0.00000000E+00  0.00000000E+00
  0.00000000E+00  0.00000000E+00  0.00000000E+00
  0.00000000E+00  0.00000000E+00  0.00000000E+00
  0.00000000E+00  0.00000000E+00  0.00000000E+00
  0.00000000E+00  0.00000000E+00  0.00000000E+00
  0.00000000E+00  0.00000000E+00  0.00000000E+00
  0.00000000E+00  0.00000000E+00  0.00000000E+00
  0.00000000E+00  0.00000000E+00  0.00000000E+00
  0.00000000E+00  0.00000000E+00  0.00000000E+00
  0.00000000E+00  0.00000000E+00  0.00000000E+00
  0.00000000E+00  0.00000000E+00  0.00000000E+00
  0.00000000E+00  0.00000000E+00  0.00000000E+00
  0.00000000E+00  0.00000000E+00  0.00000000E+00
  0.00000000E+00  0.00000000E+00  0.00000000E+00
  0.00000000E+00  0.00000000E+00  0.00000000E+00
  0.00000000E+00  0.00000000E+00  0.00000000E+00
  0.00000000E+00  0.00000000E+00  0.00000000E+00
  0.00000000E+00  0.00000000E+00  0.00000000E+00
  0.00000000E+00  0.00000000E+00  0.00000000E+00
  0.00000000E+00  0.00000000E+00  0.00000000E+00
  0.00000000E+00  0.00000000E+00  0.00000000E+00
  0.00000000E+00  0.00000000E+00  0.00000000E+00
  0.00000000E+00  0.00000000E+00  0.00000000E+00
  0.00000000E+00  0.00000000E+00  0.00000000E+00
  0.00000000E+00  0.00000000E+00  0.00000000E+00
  0.00000000E+00  0.00000000E+00  0.00000000E+00
  0.00000000E+00  0.00000000E+00  0.00000000E+00
  0.00000000E+00  0.00000000E+00  0.00000000E+00
  0.00000000E+00  0.00000000E+00  0.00000000E+00
  0.00000000E+00  0.00000000E+00  0.00000000E+00
  0.00000000E+00  0.00000000E+00  0.00000000E+00