CuInSe2gb                               
   1.00000000000000     
     9.7266780392896699    0.0000000000000000    0.0000000000000000
     0.0000000000000000    8.4235502764570693    0.0000000000000000
     0.0000000000000000    0.0000000000000000   45.0000000000000000
   Fe   Mn
   274    14
Direct
  0.0620124046590260  0.0291445306131184  0.1241169450743488
  0.3162751607114785  0.8742261800022193  0.6549437367895006
  0.1840547429719809  0.1228808276715943  0.7886549696851085
  0.4416002762894549  0.2876406632151552  0.3890788361436148
  0.3180637731315025  0.7138763330158927  0.8331153833041680
  0.8182427012171254  0.2149728895461290  0.8335982087411805
  0.1917728890832946  0.9632991202305603  0.8336426609645232
  0.5623454074148329  0.2071401368171490  0.5654952918480091
  0.0655901222686213  0.0403926123470180  0.7442207016761920
  0.8116484182467502  0.8714317240455516  0.5213625064551163
  0.1904934368973463  0.2911282767058769  0.7443595725192726
  0.9337204100227697  0.4520819921427989  0.3448873369410570
  0.9412940709944437  0.2873930513677747  0.3889506030394357
  0.8125248611650403  0.0405888635821771  0.8757612672412020
  0.1839748018292915  0.7886346279823878  0.6109984422631309
  0.5663986450419320  0.0377624380215521  0.3890889229154503
  0.9423776311463347  0.9648684417893324  0.8338644584546113
  0.3133452050991457  0.5406953196565464  0.8760588264586098
  0.6901381072428722  0.2914455664107359  0.7442696585198928
  0.1821804850782280  0.6133863420173774  0.1666313430665968
  0.8122213625405849  0.2058561889007434  0.4786966450571507
  0.8091042980371274  0.5384689361180915  0.6110716460175135
  0.3119780346893167  0.8704614156374374  0.4344210306842748
  0.8097807973778164  0.0380319968773362  0.2560125379950513
  0.6832954060863116  0.9517661222720277  0.3448233267964088
  0.9310231896790720  0.1141394075029225  0.1668786461236891
  0.0617553150037005  0.8714481686960168  0.5213652816987596
  0.5581800868816147  0.5379664991167674  0.2555453361297464
  0.6847737520483992  0.7973353729032171  0.8758656906039600
  0.5564514795560219  0.3652038611417941  0.1665243198037044
  0.4396183490908242  0.7918828472373494  0.7444196931373450
  0.8114660279426269  0.7064539147147796  0.5654599561385713
  0.5591069963520556  0.8738773480777016  0.7886649689864935
  0.6866714732556090  0.1214619257568932  0.5213735017883272
  0.8162101979612609  0.3748326548967608  0.6551120190887423
  0.9422678526382131  0.4642817834794870  0.8337703571875922
  0.0605898147301820  0.2075877489044237  0.6997442306560900
  0.4355801179967120  0.9572599699833323  0.6998126920257629
  0.3168285921823292  0.2127767727541562  0.8334889519932540
  0.4411622710124889  0.6248673399641979  0.6550667082280536
  0.8165964932268088  0.0379891906112091  0.3891294853499764
  0.9365258297466722  0.4566348951987959  0.5656125937400200
  0.6903644030430072  0.7915318025226471  0.7442716441416152
  0.9341732932904467  0.7887036667810473  0.1244299789230029
  0.6913507758538343  0.7877091608953041  0.3890418443559264
  0.9404717831152379  0.7908044788663965  0.7445105583959897
  0.0586183152286596  0.2024475632231749  0.3449193007822544
  0.6835948660093276  0.4524197698555352  0.3449434028997310
  0.4339073291708399  0.1224214999239375  0.7889608998048827
  0.0652110730324611  0.2039704312939077  0.2110639149378963
  0.0551864312086183  0.3653049319670078  0.1666221752891608
  0.9335738189327885  0.7872000335656055  0.2555534604579257
  0.5600607309512340  0.2072774281326988  0.6998480042872378
  0.6845937044097803  0.9572884945259736  0.6997771196956246
  0.8087074624066316  0.8739781135215755  0.7884977747679416
  0.4365027273591052  0.9574096664481794  0.5653422477883800
  0.8086480580273078  0.3750432172368964  0.7885225984249575
  0.6843888193569881  0.2880480064915549  0.2560723988714417
  0.1872213127253547  0.4573971634979648  0.5654747574936733
  0.0563069248746308  0.8650886691243231  0.1666473644350621
  0.1845016029081409  0.2895054591492779  0.6109691369848422
  0.0621667515816412  0.2070539108818616  0.5653557814195475
  0.3097754020744765  0.2070590285611516  0.7000063388581226
  0.5625949569926931  0.5405939145220054  0.8759308734930104
  0.0618413630333218  0.7061013700683580  0.5654886366817189
  0.6832330262375532  0.6225652779038866  0.7886001214970244
  0.3158655706285703  0.5382982389319180  0.3889093781855128
  0.1869088970507396  0.6217230662503557  0.5213769850555124
  0.5622846231288791  0.8699842962607534  0.4343893457802971
  0.4369922790534632  0.4572054612462069  0.5655123835556732
  0.4400388934293401  0.2916322705755124  0.7442849268171519
  0.8209175013160755  0.8736004009292727  0.3002035369710900
  0.8084664365460591  0.7020805285648066  0.3448869676537092
  0.4424461262350188  0.4627862988622105  0.8333863487471070
  0.6874703873805109  0.9559267442625776  0.4786390274419056
  0.6842614433931036  0.4575710508386456  0.6998230133284490
  0.5620802992127154  0.8720666377976684  0.5214281340441366
  0.5660418496266391  0.3748419612076969  0.6550729484380601
  0.8160763523430499  0.8748293605207618  0.6550587559882368
  0.8117349299616474  0.3706910583575199  0.4342246531310880
  0.8087270511424512  0.5372082254160754  0.2558013253736603
  0.6921582329842434  0.4620562110379404  0.8333499093235498
  0.1862936721384266  0.7880865378585470  0.1240651306627217
  0.6910958980727272  0.2875646094435493  0.3889303760822309
  0.3162550675782671  0.3746289684105680  0.6549082465998254
  0.3091100763367259  0.2026300664873711  0.3447684148367809
  0.8157234371012806  0.5405943691289117  0.7442380583419963
  0.6918707604216078  0.9622687132517129  0.8334962671033603
  0.5662327908108397  0.8748432741210731  0.6551584670582361
  0.3116683777049233  0.7069512942315768  0.5654583260386103
  0.3128103434376007  0.5295878843179870  0.1239518225696351
  0.6895986043498117  0.9546409749430054  0.2117608672565988
  0.3113812229471064  0.2064661562943387  0.5655231312850008
  0.1873090631368330  0.9557130097568949  0.4786390965711450
  0.6873221308533449  0.9570984561819547  0.5655189727804800
  0.4336579659440782  0.7877937677557990  0.6109204778958229
  0.6824521021150232  0.6121202281042962  0.1662683377884815
  0.3189293083411945  0.8741612866519078  0.3001652931886262
  0.3122760199530394  0.7058012334827340  0.4786276710665727
  0.9337631162002065  0.2879294827709665  0.6108956976658408
  0.4456998189200225  0.6236937825217254  0.3001717246838123
  0.8072334426722002  0.8634442317568251  0.1668058769681590
  0.5666135336195063  0.2030123087860041  0.2114291017824955
  0.9328542554581363  0.6128834619993931  0.1667043947249313
  0.4372816157501463  0.9556803325318473  0.4786654467917650
  0.5587321799244191  0.3733745825719125  0.7887250112510661
  0.0615004440733380  0.3724061736040323  0.5213650359206423
  0.3072383171522555  0.3639656113514513  0.1666170649469456
  0.6954023422843911  0.1230815056354587  0.3002871282571358
  0.4429446529732765  0.9630214875442735  0.8333657630085299
  0.1852651298956211  0.2867858436080584  0.1241034355051365
  0.1837426395799708  0.2871602438690118  0.2558002192639018
  0.3122103760758101  0.3704609512713696  0.4344490610882260
  0.5625467350263744  0.0320433400365904  0.1242694663489030
  0.4339892005197935  0.2884902108728563  0.6108521744028467
  0.1837018160601178  0.4525847108500687  0.3449399769135025
  0.4346987480320115  0.2867186654404752  0.1240938094678235
  0.6837179064110475  0.7877849187590734  0.2558066522147897
  0.4367356521352601  0.1216298964202413  0.5213667785187475
  0.1884466098666663  0.2966721682542353  0.8761591738324849
  0.1914120346534912  0.1249268417197567  0.6551669143983101
  0.9410470922094515  0.1249259718056371  0.6550503010875509
  0.8162746745099748  0.5375371195114992  0.3889676011253708
  0.0664830822390129  0.0377600852249723  0.3891147846812120
  0.1833602665314234  0.1122090563667513  0.1664748005853105
  0.0590134978562504  0.5381356432012441  0.6110180715205150
  0.9340306874888753  0.2878851673347804  0.2559151433495380
  0.5590145130559352  0.5381570744320933  0.6109748576538022
  0.9365294250203031  0.9572712270331227  0.5654814704120954
  0.6951408390902659  0.6236509315946940  0.3001916747152115
  0.9376288657596797  0.6207093374976173  0.4344547002353651
  0.9333583335080993  0.6243998087963137  0.7883770322142274
  0.5606344268751541  0.7071115087890509  0.6997840290996756
  0.0660726426226667  0.7165687476178924  0.8339984818582827
  0.9454553800942187  0.1227326835019273  0.3000785686929600
  0.9338221693859764  0.7880305935075218  0.6109992725464982
  0.4336558452998728  0.7874211313051926  0.2556425437944320
  0.3086577052893945  0.3738900156587545  0.7887890228664317
  0.4397253822681693  0.4539341364127744  0.2113215906209268
  0.1866973197972256  0.1215139023787727  0.5213227808434830
  0.8101127917641897  0.7077913991631305  0.6998107336110986
  0.0587401702398917  0.0383990980713082  0.6108391693404641
  0.5660760648779910  0.2136417647657915  0.8332330343464699
  0.3116244909227259  0.8719950187119287  0.5213759229614612
  0.6864366332016043  0.2862538026004654  0.1239028238847549
  0.1902552600107625  0.9544547520228583  0.2117155847190896
  0.6837826237696887  0.2878185059227579  0.6109028452290168
  0.3091163969866614  0.0385367049420498  0.6110995014399904
  0.9342606160099592  0.1244642795569793  0.7886123044855963
  0.4364638456445339  0.7978779529619486  0.8761780413842551
  0.8155492132542808  0.0411417175952034  0.7443489544417953
  0.9350409504765349  0.4580117867186995  0.6996693457540129
  0.1911373591220458  0.6250401555788212  0.6551144622751307
  0.3104574129290949  0.7068877595035287  0.6998021267690582
  0.9343005574225496  0.2871147044412671  0.1238754181373668
  0.4373072623292783  0.4557620652437341  0.4784763184666238
  0.0624002667907412  0.7058885413110354  0.4785112311826332
  0.9371794438250408  0.1205215778771442  0.4344659866622858
  0.4443960830900127  0.1230361855982801  0.3004408891959101
  0.1869142440857795  0.1209345169263258  0.4342787530166678
  0.5627321990494147  0.0406027757555045  0.8760323224782853
  0.1869890856295345  0.9574219442625039  0.5654958626968953
  0.6848516857272160  0.7883101829774273  0.1242841405423792
  0.5591110110487876  0.7023892150823210  0.3449901516459946
  0.3161677739090564  0.0373463983835289  0.3889881147165984
  0.6824238879243013  0.1138666983262681  0.1668439034418640
  0.8155525552791988  0.2037318495147437  0.2110957725392985
  0.0591938345473362  0.5372863724808091  0.2557598304143368
  0.5624896355574643  0.7058186522330220  0.4786816007333883
  0.4352161064131583  0.7868259513076560  0.1240795679923334
  0.5696489993007762  0.3718952429628508  0.3001635616120431
  0.4336435922402957  0.9526989864101720  0.3448673264378572
  0.1844240977105639  0.9573072012627681  0.6999858871494355
  0.4317054179522432  0.6130264565113021  0.1661418068118467
  0.9400115142666550  0.4533110108001129  0.2116191057469824
  0.0619852420877634  0.5296819643002154  0.1240536789198379
  0.8118148647882547  0.3720020889227147  0.5213658860407628
  0.9446143512275699  0.6231472598362982  0.2999945825000049
  0.3094445609765871  0.0370359850930836  0.2554732246970614
  0.6839598627943614  0.7882549767968450  0.6110044323826246
  0.1924301406423836  0.4635026706765181  0.8334108101541557
  0.4326878102860010  0.1118173585537207  0.1665703323802894
  0.3114485940090516  0.3717927510714361  0.5213687844291557
  0.4331915225997933  0.6224785696909059  0.7889530952521420
  0.0590013796146479  0.0373745017020317  0.2558168501470168
  0.5622731348326421  0.7071928287632051  0.5655013012070639
  0.9398154732983144  0.2908775919577523  0.7445067644569275
  0.6829622440037443  0.1225229940984705  0.7885942756024770
  0.1899879461167224  0.4529838619081055  0.2110624986257138
  0.9413373377051453  0.7875783247909910  0.3889374949771931
  0.6855990646284214  0.2987900819890780  0.8760173799025520
  0.5565441955343322  0.8626706077553014  0.1662500489657655
  0.4351643590087853  0.4578895081558990  0.6997713992634403
  0.9340819703516819  0.9514652538540942  0.3447826961999596
  0.6865971411393624  0.6212884202444754  0.5212853589785648
  0.0663384847034093  0.8746715040172585  0.6549540674614737
  0.0591099021757361  0.8740910579452326  0.7885052773693090
  0.0661567097987035  0.3742346526438663  0.6549766624425827
  0.6870318652584706  0.4555873164923793  0.4785320001025864
  0.1838602750007502  0.7872495002963694  0.2554926640049400
  0.4374054888237071  0.1217055520845226  0.4343582203239550
  0.8142407328353165  0.0306576804012365  0.1240206696425818
  0.9367382964518789  0.6218051048336868  0.5214191249194664
  0.4411769485879715  0.1243892665329838  0.6549295426427425
  0.8133839135605961  0.5295660077993231  0.1240046238086146
  0.4337187548695171  0.4523782083473596  0.3449658936790441
  0.8089737287863858  0.2027131650289984  0.3449876165915064
  0.3087893694762359  0.7015489273564741  0.3448603584946734
  0.6912799267180894  0.1249693100873124  0.6550110377826017
  0.5703485344754484  0.8732550269660082  0.3003346708429073
  0.0653599689288806  0.5407770353873289  0.7444154662364519
  0.9409864555463137  0.9537671142705008  0.2112957194036957
  0.8161416267215682  0.7034696004609338  0.2114460608771588
  0.0692585261642785  0.8736488766652823  0.3004065782143527
  0.1951709353616352  0.1235058181970414  0.3002672052082692
  0.0584326283444667  0.7018883016891100  0.3448676031435338
  0.8090116171499079  0.0383481252120648  0.6109912855293508
  0.0630110313095595  0.3712142134240168  0.4343077387446595
  0.5586688554014740  0.2026110818520757  0.3447915923982083
  0.8203537045114402  0.3730600141856731  0.3001433460543398
  0.5604110642858872  0.0374651449961524  0.2555527794168414
  0.5664325111495362  0.5376915151518619  0.3890647248827542
  0.0625372763185832  0.2059380876219694  0.4786358262376174
  0.3103840471301412  0.8731678979918324  0.7884884732231477
  0.9351165085783437  0.9580652006133360  0.6996964147859153
  0.0696461122570675  0.3740812949423227  0.3000182752242967
  0.6912344504321789  0.6248150102436650  0.6550935086555334
  0.6868322328927864  0.4571534851906283  0.5654513673106478
  0.4413733442290744  0.9558724276483971  0.2120164591270762
  0.3124817330250446  0.2057229718958866  0.4786855784704580
  0.8122760086486962  0.5401594643317564  0.8758640598821944
  0.6878429301445445  0.6210679846645424  0.4344159577021654
  0.8106281862767903  0.2073840641596896  0.6997911476311852
  0.8124801838246499  0.7058218624293872  0.4786184341120386
  0.8116663430080007  0.8710737362561448  0.4342634090909716
  0.9374059052055468  0.9554972617546116  0.4786718450998119
  0.5622127034444802  0.2057417824936177  0.4786664070781089
  0.1872082049680350  0.6205745862720491  0.4344213978381037
  0.3149925747456634  0.0416170937770349  0.7440452667766897
  0.9413078416200354  0.6249308669745905  0.6549694529930661
  0.5663312559899725  0.7133651591251218  0.8332953289560808
  0.3202592524752161  0.3723376177470595  0.3001012245063483
  0.3152505810610127  0.5414345435762348  0.7443575254132058
  0.1873006147940177  0.4557121615786308  0.4786344511878265
  0.3142509224118977  0.0413930750102285  0.8759266777859142
  0.1851156955850904  0.4581026397216540  0.6996765438583156
  0.5618144679491736  0.3719366228488220  0.5213619112801984
  0.1909685737067233  0.2875116385806699  0.3889377517039816
  0.3159656688231366  0.2048208383280827  0.2111940152884567
  0.0674407263094363  0.7040241496411196  0.2112802603974289
  0.5619680068361028  0.3706737860973263  0.4343575942712159
  0.4366078847094632  0.6220280631048735  0.5213229151233725
  0.8170517858436122  0.7153444183986166  0.8333867011888340
  0.0586489797960199  0.3750700114788866  0.7884817781666378
  0.4368167093063802  0.2984255636460126  0.8763126757532193
  0.3114986045820332  0.0304471708106642  0.1241087042680936
  0.6880663783000640  0.1210129919545757  0.4342443817573118
  0.1836721441187935  0.9520620261875034  0.3448746292587657
  0.0668430677983436  0.2150325811592724  0.8340323894504811
  0.5594494795138099  0.0388827020303222  0.6110935908233542
  0.6891783177861182  0.4543856415186325  0.2117230602410401
  0.1897652712011317  0.7916214217271212  0.7444488638644563
  0.1951545748488711  0.6231253475297416  0.3002977936321395
  0.4413894082670588  0.7878913924704102  0.3891642454455573
  0.4335540063286534  0.2877098274919246  0.2557875172440426
  0.0634062687960205  0.5407333634478063  0.8759023976016882
  0.5655996960779635  0.0413989699470638  0.7442741405432075
  0.1878024603402728  0.7972613562736094  0.8761157689236024
  0.9372053072747895  0.4556884440204019  0.4785770494144125
  0.5651750934135699  0.5413658676452562  0.7442136682711131
  0.8111683828651831  0.2069713855500696  0.5654842845275833
  0.1843975771565731  0.6225332598160311  0.7885360570859798
  0.0666765387690785  0.5378069336169035  0.3890485281761113
  0.0601476946944583  0.7075217361289230  0.6997301008954129
  0.3082147483596807  0.5375672795262127  0.2555569156976662
  0.3144345114383998  0.7032857267283553  0.2122577189426266
  0.3061578802250496  0.8647122904062902  0.1657973988673913
  0.4370539308839190  0.6218758025856699  0.4344107327393881
  0.3089206217567660  0.5389959342794745  0.6110154552614074
  0.9351115843950637  0.2977734526565634  0.8755361756043351
  0.9370529538045950  0.7952236891925226  0.8756264542417616
  0.0654264990626471  0.0390440805557789  0.8757830643631898
  0.5623883601941968  0.5289238314811658  0.1245280086952998
  0.8055746941152777  0.3654306702661398  0.1659016768755872
  0.0619464420021870  0.8706088164509908  0.4343421123375970
  0.9366425222236765  0.1215662933846691  0.5214351981442416
  0.1933581882045871  0.7885956921230528  0.3889096574468467
  0.5666762922694097  0.7040018101068923  0.2119429368351876
 
  0.00000000E+00  0.00000000E+00  0.00000000E+00
  0.00000000E+00  0.00000000E+00  0.00000000E+00
  0.00000000E+00  0.00000000E+00  0.00000000E+00
  0.00000000E+00  0.00000000E+00  0.00000000E+00
  0.00000000E+00  0.00000000E+00  0.00000000E+00
  0.00000000E+00  0.00000000E+00  0.00000000E+00
  0.00000000E+00  0.00000000E+00  0.00000000E+00
  0.00000000E+00  0.00000000E+00  0.00000000E+00
  0.00000000E+00  0.00000000E+00  0.00000000E+00
  0.00000000E+00  0.00000000E+00  0.00000000E+00
  0.00000000E+00  0.00000000E+00  0.00000000E+00
  0.00000000E+00  0.00000000E+00  0.00000000E+00
  0.00000000E+00  0.00000000E+00  0.00000000E+00
  0.00000000E+00  0.00000000E+00  0.00000000E+00
  0.00000000E+00  0.00000000E+00  0.00000000E+00
  0.00000000E+00  0.00000000E+00  0.00000000E+00
  0.00000000E+00  0.00000000E+00  0.00000000E+00
  0.00000000E+00  0.00000000E+00  0.00000000E+00
  0.00000000E+00  0.00000000E+00  0.00000000E+00
  0.00000000E+00  0.00000000E+00  0.00000000E+00
  0.00000000E+00  0.00000000E+00  0.00000000E+00
  0.00000000E+00  0.00000000E+00  0.00000000E+00
  0.00000000E+00  0.00000000E+00  0.00000000E+00
  0.00000000E+00  0.00000000E+00  0.00000000E+00
  0.00000000E+00  0.00000000E+00  0.00000000E+00
  0.00000000E+00  0.00000000E+00  0.00000000E+00
  0.00000000E+00  0.00000000E+00  0.00000000E+00
  0.00000000E+00  0.00000000E+00  0.00000000E+00
  0.00000000E+00  0.00000000E+00  0.00000000E+00
  0.00000000E+00  0.00000000E+00  0.00000000E+00
  0.00000000E+00  0.00000000E+00  0.00000000E+00
  0.00000000E+00  0.00000000E+00  0.00000000E+00
  0.00000000E+00  0.00000000E+00  0.00000000E+00
  0.00000000E+00  0.00000000E+00  0.00000000E+00
  0.00000000E+00  0.00000000E+00  0.00000000E+00
  0.00000000E+00  0.00000000E+00  0.00000000E+00
  0.00000000E+00  0.00000000E+00  0.00000000E+00
  0.00000000E+00  0.00000000E+00  0.00000000E+00
  0.00000000E+00  0.00000000E+00  0.00000000E+00
  0.00000000E+00  0.00000000E+00  0.00000000E+00
  0.00000000E+00  0.00000000E+00  0.00000000E+00
  0.00000000E+00  0.00000000E+00  0.00000000E+00
  0.00000000E+00  0.00000000E+00  0.00000000E+00
  0.00000000E+00  0.00000000E+00  0.00000000E+00
  0.00000000E+00  0.00000000E+00  0.00000000E+00
  0.00000000E+00  0.00000000E+00  0.00000000E+00
  0.00000000E+00  0.00000000E+00  0.00000000E+00
  0.00000000E+00  0.00000000E+00  0.00000000E+00
  0.00000000E+00  0.00000000E+00  0.00000000E+00
  0.00000000E+00  0.00000000E+00  0.00000000E+00
  0.00000000E+00  0.00000000E+00  0.00000000E+00
  0.00000000E+00  0.00000000E+00  0.00000000E+00
  0.00000000E+00  0.00000000E+00  0.00000000E+00
  0.00000000E+00  0.00000000E+00  0.00000000E+00
  0.00000000E+00  0.00000000E+00  0.00000000E+00
  0.00000000E+00  0.00000000E+00  0.00000000E+00
  0.00000000E+00  0.00000000E+00  0.00000000E+00
  0.00000000E+00  0.00000000E+00  0.00000000E+00
  0.00000000E+00  0.00000000E+00  0.00000000E+00
  0.00000000E+00  0.00000000E+00  0.00000000E+00
  0.00000000E+00  0.00000000E+00  0.00000000E+00
  0.00000000E+00  0.00000000E+00  0.00000000E+00
  0.00000000E+00  0.00000000E+00  0.00000000E+00
  0.00000000E+00  0.00000000E+00  0.00000000E+00
  0.00000000E+00  0.00000000E+00  0.00000000E+00
  0.00000000E+00  0.00000000E+00  0.00000000E+00
  0.00000000E+00  0.00000000E+00  0.00000000E+00
  0.00000000E+00  0.00000000E+00  0.00000000E+00
  0.00000000E+00  0.00000000E+00  0.00000000E+00
  0.00000000E+00  0.00000000E+00  0.00000000E+00
  0.00000000E+00  0.00000000E+00  0.00000000E+00
  0.00000000E+00  0.00000000E+00  0.00000000E+00
  0.00000000E+00  0.00000000E+00  0.00000000E+00
  0.00000000E+00  0.00000000E+00  0.00000000E+00
  0.00000000E+00  0.00000000E+00  0.00000000E+00
  0.00000000E+00  0.00000000E+00  0.00000000E+00
  0.00000000E+00  0.00000000E+00  0.00000000E+00
  0.00000000E+00  0.00000000E+00  0.00000000E+00
  0.00000000E+00  0.00000000E+00  0.00000000E+00
  0.00000000E+00  0.00000000E+00  0.00000000E+00
  0.00000000E+00  0.00000000E+00  0.00000000E+00
  0.00000000E+00  0.00000000E+00  0.00000000E+00
  0.00000000E+00  0.00000000E+00  0.00000000E+00
  0.00000000E+00  0.00000000E+00  0.00000000E+00
  0.00000000E+00  0.00000000E+00  0.00000000E+00
  0.00000000E+00  0.00000000E+00  0.00000000E+00
  0.00000000E+00  0.00000000E+00  0.00000000E+00
  0.00000000E+00  0.00000000E+00  0.00000000E+00
  0.00000000E+00  0.00000000E+00  0.00000000E+00
  0.00000000E+00  0.00000000E+00  0.00000000E+00
  0.00000000E+00  0.00000000E+00  0.00000000E+00
  0.00000000E+00  0.00000000E+00  0.00000000E+00
  0.00000000E+00  0.00000000E+00  0.00000000E+00
  0.00000000E+00  0.00000000E+00  0.00000000E+00
  0.00000000E+00  0.00000000E+00  0.00000000E+00
  0.00000000E+00  0.00000000E+00  0.00000000E+00
  0.00000000E+00  0.00000000E+00  0.00000000E+00
  0.00000000E+00  0.00000000E+00  0.00000000E+00
  0.00000000E+00  0.00000000E+00  0.00000000E+00
  0.00000000E+00  0.00000000E+00  0.00000000E+00
  0.00000000E+00  0.00000000E+00  0.00000000E+00
  0.00000000E+00  0.00000000E+00  0.00000000E+00
  0.00000000E+00  0.00000000E+00  0.00000000E+00
  0.00000000E+00  0.00000000E+00  0.00000000E+00
  0.00000000E+00  0.00000000E+00  0.00000000E+00
  0.00000000E+00  0.00000000E+00  0.00000000E+00
  0.00000000E+00  0.00000000E+00  0.00000000E+00
  0.00000000E+00  0.00000000E+00  0.00000000E+00
  0.00000000E+00  0.00000000E+00  0.00000000E+00
  0.00000000E+00  0.00000000E+00  0.00000000E+00
  0.00000000E+00  0.00000000E+00  0.00000000E+00
  0.00000000E+00  0.00000000E+00  0.00000000E+00
  0.00000000E+00  0.00000000E+00  0.00000000E+00
  0.00000000E+00  0.00000000E+00  0.00000000E+00
  0.00000000E+00  0.00000000E+00  0.00000000E+00
  0.00000000E+00  0.00000000E+00  0.00000000E+00
  0.00000000E+00  0.00000000E+00  0.00000000E+00
  0.00000000E+00  0.00000000E+00  0.00000000E+00
  0.00000000E+00  0.00000000E+00  0.00000000E+00
  0.00000000E+00  0.00000000E+00  0.00000000E+00
  0.00000000E+00  0.00000000E+00  0.00000000E+00
  0.00000000E+00  0.00000000E+00  0.00000000E+00
  0.00000000E+00  0.00000000E+00  0.00000000E+00
  0.00000000E+00  0.00000000E+00  0.00000000E+00
  0.00000000E+00  0.00000000E+00  0.00000000E+00
  0.00000000E+00  0.00000000E+00  0.00000000E+00
  0.00000000E+00  0.00000000E+00  0.00000000E+00
  0.00000000E+00  0.00000000E+00  0.00000000E+00
  0.00000000E+00  0.00000000E+00  0.00000000E+00
  0.00000000E+00  0.00000000E+00  0.00000000E+00
  0.00000000E+00  0.00000000E+00  0.00000000E+00
  0.00000000E+00  0.00000000E+00  0.00000000E+00
  0.00000000E+00  0.00000000E+00  0.00000000E+00
  0.00000000E+00  0.00000000E+00  0.00000000E+00
  0.00000000E+00  0.00000000E+00  0.00000000E+00
  0.00000000E+00  0.00000000E+00  0.00000000E+00
  0.00000000E+00  0.00000000E+00  0.00000000E+00
  0.00000000E+00  0.00000000E+00  0.00000000E+00
  0.00000000E+00  0.00000000E+00  0.00000000E+00
  0.00000000E+00  0.00000000E+00  0.00000000E+00
  0.00000000E+00  0.00000000E+00  0.00000000E+00
  0.00000000E+00  0.00000000E+00  0.00000000E+00
  0.00000000E+00  0.00000000E+00  0.00000000E+00
  0.00000000E+00  0.00000000E+00  0.00000000E+00
  0.00000000E+00  0.00000000E+00  0.00000000E+00
  0.00000000E+00  0.00000000E+00  0.00000000E+00
  0.00000000E+00  0.00000000E+00  0.00000000E+00
  0.00000000E+00  0.00000000E+00  0.00000000E+00
  0.00000000E+00  0.00000000E+00  0.00000000E+00
  0.00000000E+00  0.00000000E+00  0.00000000E+00
  0.00000000E+00  0.00000000E+00  0.00000000E+00
  0.00000000E+00  0.00000000E+00  0.00000000E+00
  0.00000000E+00  0.00000000E+00  0.00000000E+00
  0.00000000E+00  0.00000000E+00  0.00000000E+00
  0.00000000E+00  0.00000000E+00  0.00000000E+00
  0.00000000E+00  0.00000000E+00  0.00000000E+00
  0.00000000E+00  0.00000000E+00  0.00000000E+00
  0.00000000E+00  0.00000000E+00  0.00000000E+00
  0.00000000E+00  0.00000000E+00  0.00000000E+00
  0.00000000E+00  0.00000000E+00  0.00000000E+00
  0.00000000E+00  0.00000000E+00  0.00000000E+00
  0.00000000E+00  0.00000000E+00  0.00000000E+00
  0.00000000E+00  0.00000000E+00  0.00000000E+00
  0.00000000E+00  0.00000000E+00  0.00000000E+00
  0.00000000E+00  0.00000000E+00  0.00000000E+00
  0.00000000E+00  0.00000000E+00  0.00000000E+00
  0.00000000E+00  0.00000000E+00  0.00000000E+00
  0.00000000E+00  0.00000000E+00  0.00000000E+00
  0.00000000E+00  0.00000000E+00  0.00000000E+00
  0.00000000E+00  0.00000000E+00  0.00000000E+00
  0.00000000E+00  0.00000000E+00  0.00000000E+00
  0.00000000E+00  0.00000000E+00  0.00000000E+00
  0.00000000E+00  0.00000000E+00  0.00000000E+00
  0.00000000E+00  0.00000000E+00  0.00000000E+00
  0.00000000E+00  0.00000000E+00  0.00000000E+00
  0.00000000E+00  0.00000000E+00  0.00000000E+00
  0.00000000E+00  0.00000000E+00  0.00000000E+00
  0.00000000E+00  0.00000000E+00  0.00000000E+00
  0.00000000E+00  0.00000000E+00  0.00000000E+00
  0.00000000E+00  0.00000000E+00  0.00000000E+00
  0.00000000E+00  0.00000000E+00  0.00000000E+00
  0.00000000E+00  0.00000000E+00  0.00000000E+00
  0.00000000E+00  0.00000000E+00  0.00000000E+00
  0.00000000E+00  0.00000000E+00  0.00000000E+00
  0.00000000E+00  0.00000000E+00  0.00000000E+00
  0.00000000E+00  0.00000000E+00  0.00000000E+00
  0.00000000E+00  0.00000000E+00  0.00000000E+00
  0.00000000E+00  0.00000000E+00  0.00000000E+00
  0.00000000E+00  0.00000000E+00  0.00000000E+00
  0.00000000E+00  0.00000000E+00  0.00000000E+00
  0.00000000E+00  0.00000000E+00  0.00000000E+00
  0.00000000E+00  0.00000000E+00  0.00000000E+00
  0.00000000E+00  0.00000000E+00  0.00000000E+00
  0.00000000E+00  0.00000000E+00  0.00000000E+00
  0.00000000E+00  0.00000000E+00  0.00000000E+00
  0.00000000E+00  0.00000000E+00  0.00000000E+00
  0.00000000E+00  0.00000000E+00  0.00000000E+00
  0.00000000E+00  0.00000000E+00  0.00000000E+00
  0.00000000E+00  0.00000000E+00  0.00000000E+00
  0.00000000E+00  0.00000000E+00  0.00000000E+00
  0.00000000E+00  0.00000000E+00  0.00000000E+00
  0.00000000E+00  0.00000000E+00  0.00000000E+00
  0.00000000E+00  0.00000000E+00  0.00000000E+00
  0.00000000E+00  0.00000000E+00  0.00000000E+00
  0.00000000E+00  0.00000000E+00  0.00000000E+00
  0.00000000E+00  0.00000000E+00  0.00000000E+00
  0.00000000E+00  0.00000000E+00  0.00000000E+00
  0.00000000E+00  0.00000000E+00  0.00000000E+00
  0.00000000E+00  0.00000000E+00  0.00000000E+00
  0.00000000E+00  0.00000000E+00  0.00000000E+00
  0.00000000E+00  0.00000000E+00  0.00000000E+00
  0.00000000E+00  0.00000000E+00  0.00000000E+00
  0.00000000E+00  0.00000000E+00  0.00000000E+00
  0.00000000E+00  0.00000000E+00  0.00000000E+00
  0.00000000E+00  0.00000000E+00  0.00000000E+00
  0.00000000E+00  0.00000000E+00  0.00000000E+00
  0.00000000E+00  0.00000000E+00  0.00000000E+00
  0.00000000E+00  0.00000000E+00  0.00000000E+00
  0.00000000E+00  0.00000000E+00  0.00000000E+00
  0.00000000E+00  0.00000000E+00  0.00000000E+00
  0.00000000E+00  0.00000000E+00  0.00000000E+00
  0.00000000E+00  0.00000000E+00  0.00000000E+00
  0.00000000E+00  0.00000000E+00  0.00000000E+00
  0.00000000E+00  0.00000000E+00  0.00000000E+00
  0.00000000E+00  0.00000000E+00  0.00000000E+00
  0.00000000E+00  0.00000000E+00  0.00000000E+00
  0.00000000E+00  0.00000000E+00  0.00000000E+00
  0.00000000E+00  0.00000000E+00  0.00000000E+00
  0.00000000E+00  0.00000000E+00  0.00000000E+00
  0.00000000E+00  0.00000000E+00  0.00000000E+00
  0.00000000E+00  0.00000000E+00  0.00000000E+00
  0.00000000E+00  0.00000000E+00  0.00000000E+00
  0.00000000E+00  0.00000000E+00  0.00000000E+00
  0.00000000E+00  0.00000000E+00  0.00000000E+00
  0.00000000E+00  0.00000000E+00  0.00000000E+00
  0.00000000E+00  0.00000000E+00  0.00000000E+00
  0.00000000E+00  0.00000000E+00  0.00000000E+00
  0.00000000E+00  0.00000000E+00  0.00000000E+00
  0.00000000E+00  0.00000000E+00  0.00000000E+00
  0.00000000E+00  0.00000000E+00  0.00000000E+00
  0.00000000E+00  0.00000000E+00  0.00000000E+00
  0.00000000E+00  0.00000000E+00  0.00000000E+00
  0.00000000E+00  0.00000000E+00  0.00000000E+00
  0.00000000E+00  0.00000000E+00  0.00000000E+00
  0.00000000E+00  0.00000000E+00  0.00000000E+00
  0.00000000E+00  0.00000000E+00  0.00000000E+00
  0.00000000E+00  0.00000000E+00  0.00000000E+00