CuInSe2gb                               
   1.00000000000000     
     9.7266780392896699    0.0000000000000000    0.0000000000000000
     0.0000000000000000    8.4235502764570693    0.0000000000000000
     0.0000000000000000    0.0000000000000000   45.0000000000000000
   Fe   Mn
   274    14
Direct
  0.0612753878257271  0.0325591664450200  0.1244521747531502
  0.3145053460388684  0.8741515253545111  0.6552476403725989
  0.1869002396702445  0.1231778917406302  0.7884943559177372
  0.4403939495136065  0.2880411446959803  0.3893090925146060
  0.3155041691879761  0.7098622146454295  0.8333503336478112
  0.8160057451618452  0.2118874966034162  0.8335842776903173
  0.1897295142683538  0.9604295126504652  0.8333267219663534
  0.5618934586731550  0.2064844583267980  0.5655741741946284
  0.0641574495261876  0.0405621378039897  0.7444151350203682
  0.8115542322577948  0.8718885793163679  0.5216035743959915
  0.1893098277609520  0.2903332682151593  0.7444125629572724
  0.9361374577953236  0.4536256471275713  0.3448821984455724
  0.9395089008892725  0.2874558344759671  0.3891993044800869
  0.8127465718683061  0.0424629812211724  0.8753732549248691
  0.1852665516986911  0.7888385752662096  0.6107379122706612
  0.5649183730016542  0.0380154270455663  0.3893525660205153
  0.9407041835034088  0.9617276132840656  0.8333500948572491
  0.3140111860529394  0.5414173214971711  0.8756971246554992
  0.6892400067377149  0.2904164800400978  0.7444318808350697
  0.1840360787302519  0.6162149489434914  0.1663257375294628
  0.8121079907769340  0.2055980216851808  0.4782962139525370
  0.8101916505580866  0.5387695699678254  0.6108526513160668
  0.3126058207083321  0.8704641155933284  0.4343745118452714
  0.8109997951201845  0.0383946170102158  0.2558362516774281
  0.6860338125045476  0.9535543327019002  0.3448906328057577
  0.9324487715557759  0.1161282610781087  0.1665733019368622
  0.0621198696579804  0.8720296017773662  0.5214605461759028
  0.5605686618306853  0.5391060902995526  0.2556793323880111
  0.6868823678806849  0.7936330244053311  0.8754156495004860
  0.5578302331069307  0.3670476068124676  0.1660779721590547
  0.4390606063439411  0.7910588623633735  0.7445425600536081
  0.8116262600276496  0.7064562982466290  0.5656002863832096
  0.5615154759602624  0.8734642638587073  0.7886007922403202
  0.6865449892683370  0.1217077739937827  0.5215174853449680
  0.8144782629474752  0.3741406499111541  0.6552368948219894
  0.9407657460243648  0.4610064319353049  0.8336108134476731
  0.0613582074315257  0.2076166801131320  0.7000251014640951
  0.4367929204105739  0.9574782552842152  0.6999909373800761
  0.3148774328275586  0.2106714254568034  0.8335753572788192
  0.4395999104136959  0.6239635551093740  0.6552477717074578
  0.3103876270643821  0.5386484408572144  0.6107992576490662
  0.9366798279493137  0.4561431143142208  0.5656019590423158
  0.6893482337435343  0.7910006272301841  0.7444448974019502
  0.9341164799226775  0.7857859246467276  0.1246527955044461
  0.6899482088330233  0.7876982095568795  0.3892791579561510
  0.9391475626248139  0.7903428208015093  0.7444441537773668
  0.0616577636879109  0.2040491503799274  0.3448915893563594
  0.6865398780753127  0.4531680577655607  0.3449672500161987
  0.4365975751228422  0.1235076581749878  0.7887132425236351
  0.0636778533948330  0.2045207117531563  0.2112940582337775
  0.0567666709599119  0.3667746203501262  0.1662079340371241
  0.9355434092147399  0.7889036948623539  0.2557112998748464
  0.5615145115900790  0.2073153123443779  0.7000273333007263
  0.6865340839631069  0.9572973493831850  0.7000698785555356
  0.8112964418296930  0.8737692191013540  0.7884842278290707
  0.4368310651618773  0.9566119838687179  0.5655800391195519
  0.8118698282468548  0.3733433512247133  0.7885748999671197
  0.6859088820712141  0.2883613390198975  0.2557914181972807
  0.1868598533602717  0.4563475415306129  0.5655629480009440
  0.0573742010825520  0.8665386813271309  0.1663796386678432
  0.1855151817759472  0.2886549456118950  0.6108528529481989
  0.0619527705430393  0.2065616836360322  0.5655618613655545
  0.3115978301290572  0.2078345550115065  0.6999862512369753
  0.5644093506741484  0.5425500841012747  0.8755245484449783
  0.0616197018060315  0.7063229017017927  0.5655840561903731
  0.6862903034023350  0.6230276738695671  0.7886216148840633
  0.3148952243946025  0.5377848841993190  0.3893199068248339
  0.1869482400843559  0.6223798346873936  0.5215236055408149
  0.5625947813165264  0.8706476050848260  0.4342941059190344
  0.4369757170361454  0.4563767698643031  0.5655638795890340
  0.4390283209116402  0.2909226189179497  0.7444302446944464
  0.8165245333807269  0.8737808078512395  0.3001609229257786
  0.8112265577122072  0.7032854689408737  0.3449886610599674
  0.4401423620694928  0.4602318185248428  0.8335591995347392
  0.6873042585080261  0.9550678167522436  0.4782712669298824
  0.6865085513691350  0.4573732776370537  0.7000893085381668
  0.5614416674338791  0.8722568407272918  0.5215593333163864
  0.5645744432297108  0.3737680623526391  0.6551724160161553
  0.8143608084678174  0.8739226162049362  0.6552450012572112
  0.8118644808883004  0.3710124840789039  0.4341693977783297
  0.8109531802066938  0.5383310276040983  0.2558880075719666
  0.6907880078153215  0.4600666920896712  0.8335661457163046
  0.1856807117183711  0.7850471427294754  0.1241008246123968
  0.6900205280504313  0.2875195234946389  0.3892754277019784
  0.3144548416722679  0.3739296920545709  0.6551345042579417
  0.3112470872770253  0.2037643345416902  0.3449507634912833
  0.8143903108168018  0.5403070071101312  0.7443823041909805
  0.6901949853632302  0.9608767188073661  0.8334605363583238
  0.5645803943411389  0.8738823136895241  0.6552207816555089
  0.3117752816142355  0.7066312220314243  0.5655481136852912
  0.3109733399134034  0.5332502613340155  0.1241182413747364
  0.6880871170555223  0.9552579371181359  0.2115458481811972
  0.3117493016001965  0.2064017805762092  0.5655681132406688
  0.1872137810538885  0.9549940016760432  0.4783891888910042
  0.6870379634207326  0.9564949997939213  0.5656496197373426
  0.4352897486517869  0.7887420521838239  0.6107819663805844
  0.6827150360961100  0.6147254891662788  0.1661635772461700
  0.3162187079316979  0.8737180956854717  0.3001268488261438
  0.3120785078709405  0.7047172472769703  0.4782846227352218
  0.9350997949619491  0.2886751927413710  0.6107243752595536
  0.4415914470264287  0.6236056266645573  0.3002023808428265
  0.8082034536758688  0.8657658187296445  0.1664900493841935
  0.5645498607185276  0.2038911963687082  0.2116206439449639
  0.9340020244295815  0.6146834980576759  0.1664522805573984
  0.4372476864533078  0.9548152085889425  0.4783487762888106
  0.5616357316722698  0.3729118703852025  0.7886987655984543
  0.0615906544176763  0.3725769054971328  0.5214880204789418
  0.3083772854079346  0.3659820246297217  0.1662431716877995
  0.6915806807985269  0.1231105930098370  0.3001734381995146
  0.4411339754521273  0.9604154371884113  0.8333979307934025
  0.1854101143339533  0.2851033301623763  0.1244269270105996
  0.1860282844425638  0.2882516138748246  0.2558010856949935
  0.3125010224278022  0.3709256904754102  0.4342975069639203
  0.5606439778407444  0.0341877775632059  0.1241388603521763
  0.4352791642758431  0.2886156780826376  0.6107841850127732
  0.1860745396314055  0.4536591971524028  0.3449762752083698
  0.4335123842418989  0.2844673785578573  0.1242518271738228
  0.6858195788558737  0.7889229218734547  0.2558480348648718
  0.4364997630699879  0.1219779747925155  0.5214881177953186
  0.1890728737113374  0.2923007442486975  0.8759536988295336
  0.1894672482220978  0.1242466826337901  0.6552183580198004
  0.9394029730538901  0.1241861761390973  0.6551634332277212
  0.8148669354340693  0.5375919415239048  0.3892346728848303
  0.0647819630659383  0.0382542899325364  0.3892948589167566
  0.1836419661687575  0.1157409629509951  0.1664646137118486
  0.0602038577871297  0.5387130260379998  0.6107963559218320
  0.9361571172438893  0.2883011867548297  0.2558171918423861
  0.5603581821460675  0.5387415851722639  0.6108087718086196
  0.9368414256290511  0.9562582672361014  0.5655486456000719
  0.6914549756220101  0.6237908968488369  0.3002851311423408
  0.9373619225596393  0.6206937872723295  0.4342703833689307
  0.9366405519239424  0.6237730712224274  0.7884959956472664
  0.5617685761973024  0.7072988740936687  0.7000363466371399
  0.0652342096617110  0.7115133519949991  0.8335090929937045
  0.9416514704273621  0.1232752980917032  0.3000732310448385
  0.9351369352465584  0.7885826272106761  0.6108262848057481
  0.4358178651027654  0.7888898228757327  0.2558190198260428
  0.3118529160376326  0.3729784268970084  0.7885099272529673
  0.4387904959948762  0.4551768127593004  0.2114262983979198
  0.1868360123413213  0.1218367149534066  0.5215058995454694
  0.8115008914335260  0.7075726583477174  0.7001074050814881
  0.0601457488664289  0.0389236002106011  0.6107303739495875
  0.5651570226664487  0.2109578650895872  0.8334545324721969
  0.3118080999215844  0.8721083507717219  0.5215616178481218
  0.6853351875699277  0.2853127144285416  0.1240406821347726
  0.1882248703421128  0.9559916772683317  0.2115947805563232
  0.6850509825111974  0.2888697231351847  0.6108189706818216
  0.3103302383653833  0.0387259592059265  0.6107987197759511
  0.9366340839537339  0.1242786411811201  0.7885766049013528
  0.4379505898194362  0.7927287283104927  0.8756061852120821
  0.8141087370676131  0.0406307241670071  0.7444229242753562
  0.9363066907273120  0.4576038966679747  0.7000776468591616
  0.1894261889120249  0.6243260969514027  0.6552184170398564
  0.3115605909716979  0.7074711787676816  0.7000814941700829
  0.9344297043759756  0.2852521086908571  0.1241370566946850
  0.4371233235828915  0.4547755288241443  0.4781618903377844
  0.0623954026170276  0.7045959370886344  0.4783304865115571
  0.9371847785499057  0.1207351935958908  0.4345167060199129
  0.4413843042772429  0.1234697354050778  0.3002279000938713
  0.1872270439619848  0.1206876725482666  0.4341668239544132
  0.5643257954226069  0.0422581283559215  0.8755430417135186
  0.1866492890738918  0.9566223097233404  0.5656149860574424
  0.6845754704495944  0.7861514097448744  0.1245067171737843
  0.5612469697562006  0.7035461905301394  0.3449778941045519
  0.3149495821613224  0.0375501182931243  0.3893248180467420
  0.6839800409820218  0.1162068080356272  0.1665472825486178
  0.8140915132740755  0.2042530687003016  0.2114961903718439
  0.0610751389338621  0.5386344989582869  0.2557322967253867
  0.5620901631297285  0.7050352553231507  0.4782312236398694
  0.4343975078211371  0.7853830010408572  0.1238953850028944
  0.5661771752960799  0.3733310111384492  0.3002278868156334
  0.4359186093369146  0.9538664320593730  0.3449413845754938
  0.1862289179897732  0.9578857982176014  0.7000272825345277
  0.4331788123469995  0.6158472589365137  0.1662306090056028
  0.9387614126178134  0.4542914372046959  0.2117112758749075
  0.0609683030718739  0.5322722330731703  0.1242136971399759
  0.8120554061345140  0.3726182991804369  0.5215342306454251
  0.9416900745143441  0.6237914266373996  0.3000096337614724
  0.3110382511321204  0.0381545508162294  0.2556664012497097
  0.6852727537424403  0.7886934479593587  0.6108051753287865
  0.1903858583162918  0.4601824328724972  0.8336027803918592
  0.4339822252646497  0.1156992705445436  0.1663995191519660
  0.3113281527808824  0.3723955398217990  0.5215108550831935
  0.4361351912960014  0.6228773050053334  0.7887940365876390
  0.0607078297607298  0.0385524427821947  0.2557425885980230
  0.5618587761644149  0.7065045122773541  0.5655968240571621
  0.9392153731131948  0.2899639487646765  0.7444572265427252
  0.6858737959545296  0.1235871999142211  0.7885408892157501
  0.1879923190436129  0.4542801422231592  0.2112928503411442
  0.9396282104752782  0.7876491799599532  0.3892987617671848
  0.6877407161079108  0.2951173274332532  0.8756007102575490
  0.5574576599711615  0.8661600703139936  0.1662576080542653
  0.4364055395379363  0.4575757636511535  0.7000862803478051
  0.9364403935264366  0.9531318479597087  0.3449455003691931
  0.6865534175593071  0.6223765857230894  0.5215955664785517
  0.0643313579623538  0.8741534361538845  0.6552131472697212
  0.0619946804554489  0.8732622568576719  0.7885117880406239
  0.0643519277046569  0.3742155176291188  0.6551640984742761
  0.6870308431679897  0.4547948846703481  0.4780955281789577
  0.1861496413232709  0.7892310576267859  0.2558133471967515
  0.4375323812127054  0.1210298858585785  0.4343105098905714
  0.8118113675137520  0.0337694237916763  0.1243624782348386
  0.9367096760877908  0.6222925042593501  0.5215489594106472
  0.4396370945628541  0.1239337433271569  0.6551656003368626
  0.8123972158349041  0.5331099669491242  0.1239558310811842
  0.4361160229376520  0.4536424301270405  0.3449588960350758
  0.8112906474008929  0.2033393507676090  0.3449861261922561
  0.3114093933596382  0.7036408658503509  0.3449065122008106
  0.6894205020646361  0.1238957415357921  0.6552378320354615
  0.5664028361700675  0.8733566249266886  0.3002434742289029
  0.0640666774466674  0.5399813207817088  0.7444721583676155
  0.9387833148107627  0.9554066063036276  0.2114101910537948
  0.8145742224582425  0.7047078854828408  0.2115895615583702
  0.0666297830674652  0.8734584199174976  0.3002331976543693
  0.1918460898859257  0.1237692447512402  0.3001141786393448
  0.0612561239400139  0.7035306547016039  0.3448487874821557
  0.8104138750702323  0.0389402739446674  0.6107683963325294
  0.0624984724480483  0.3708110694719516  0.4342290788300822
  0.5614499951237412  0.2036197636339327  0.3449235083630443
  0.8164429316492265  0.3736067676684947  0.3001625180722638
  0.5611917134125530  0.0386237085351390  0.2556202287353599
  0.5647137039791528  0.5373887143337084  0.3892940616775894
  0.0624307115356717  0.2054567718294663  0.4783457829752714
  0.3122877693415184  0.8726640341120233  0.7884174197239864
  0.9361467262029598  0.9576441344769551  0.7000322898198220
  0.0668853556441586  0.3739721580024054  0.3002140952713833
  0.6894839647955848  0.6241020039512539  0.6552371770617085
  0.6867324190304159  0.4565037757856150  0.5655527827400989
  0.4389037143598227  0.9560982549535225  0.2117835327739142
  0.3121195304347043  0.2050924533262305  0.4782738965724806
  0.8136786184720148  0.5428337503286543  0.8755105643246442
  0.6880324735129739  0.6202326909570447  0.4342414946654199
  0.8115692783710393  0.2073559736055687  0.7000648430494240
  0.8123652732020098  0.7048845519554594  0.4782598824393690
  0.8117643258091825  0.8708778086066145  0.4342183281003650
  0.9372223353884206  0.9547154117943218  0.4784078754092548
  0.5622153596958436  0.2050849962279911  0.4782377967690810
  0.1871964446028030  0.6202966357517933  0.4342513419463946
  0.3141037480369278  0.0411684760307528  0.7444624771141888
  0.9394779354487169  0.6243088682576844  0.6552029745248111
  0.5645104878464974  0.7101422158611391  0.8332958717605188
  0.3164430884248077  0.3733617215736742  0.3002377928248117
  0.3139112326959826  0.5403534953760475  0.7445591583944304
  0.1873327059605207  0.4550001262546946  0.4782870200331100
  0.3152221704263359  0.0426881074337205  0.8757027132104892
  0.1862049983650821  0.4577760363277892  0.7000938634613214
  0.5618754137263413  0.3725539710598245  0.5215746552458227
  0.1893915164488157  0.2879422162780379  0.3892987859633950
  0.3140268328734147  0.2049892643752637  0.2114622493348683
  0.0642087385190930  0.7042338154910346  0.2114258846378914
  0.5624531741539738  0.3707315728846290  0.4343078012755381
  0.4366274861447632  0.6228605264657022  0.5214405290178967
  0.8153174136044888  0.7108261461467800  0.8333158716106500
  0.0619223161004514  0.3737458705272823  0.7885352883284852
  0.4379145862536933  0.2938326611959202  0.8758048693487182
  0.3111408687237739  0.0331841924318987  0.1238252924736478
  0.6879522607674140  0.1210151497522442  0.4342439323889630
  0.1862993161090256  0.9537140233918223  0.3448949923350713
  0.0649158850068443  0.2112454246414337  0.8335226377541777
  0.5601996315259885  0.0388179666894199  0.6108052937620571
  0.6882117000395434  0.4546601185749014  0.2116468245256226
  0.1889178626451365  0.7905373313331597  0.7444878974855703
  0.1912308435488827  0.6237494047053693  0.3001942071375316
  0.4404707424326367  0.7873042156497315  0.3893375080948288
  0.4358733631709608  0.2888658569712325  0.2558087225027711
  0.0650222545857255  0.5418228914817702  0.8756222591947519
  0.5644359622820451  0.0411014288896830  0.7444972679432508
  0.1885304984676137  0.7924635667796498  0.8757835328336098
  0.9372132402782914  0.4546640161334860  0.4782439584151141
  0.5641446976858200  0.5407522034016828  0.7444048485264618
  0.8115309932944045  0.2067130592711226  0.5655653581895134
  0.1868443369714277  0.6227429900888486  0.7885493478733679
  0.0654326035557445  0.5381497697231205  0.3893350475477607
  0.0612268761212339  0.7077844667154883  0.7000378440580973
  0.3107626907149164  0.5386005535433690  0.2554130717247334
  0.3130638702604982  0.7045212709586064  0.2117077254290730
  0.3073376127470524  0.8666475292789012  0.1657463227544757
  0.4368559080436767  0.6203975855376122  0.4342323841948542
  0.8159398243348969  0.0383536342210879  0.3893291313069887
  0.9368574173919879  0.2941215849647492  0.8754255954987915
  0.9378427565074297  0.7911363596006907  0.8756563004973023
  0.0652760357208549  0.0412471477059888  0.8757094020844859
  0.5613648512098556  0.5326265565558921  0.1243595131226845
  0.8068985917303035  0.3666857971721812  0.1658200398400942
  0.0619491215978264  0.8712105387404023  0.4342704298322234
  0.9370199418697561  0.1221933879870569  0.5214241631885940
  0.1902280278009332  0.7872030807559576  0.3892182698472952
  0.5647644610932824  0.7048767946960875  0.2115454484735383
 
  0.00000000E+00  0.00000000E+00  0.00000000E+00
  0.00000000E+00  0.00000000E+00  0.00000000E+00
  0.00000000E+00  0.00000000E+00  0.00000000E+00
  0.00000000E+00  0.00000000E+00  0.00000000E+00
  0.00000000E+00  0.00000000E+00  0.00000000E+00
  0.00000000E+00  0.00000000E+00  0.00000000E+00
  0.00000000E+00  0.00000000E+00  0.00000000E+00
  0.00000000E+00  0.00000000E+00  0.00000000E+00
  0.00000000E+00  0.00000000E+00  0.00000000E+00
  0.00000000E+00  0.00000000E+00  0.00000000E+00
  0.00000000E+00  0.00000000E+00  0.00000000E+00
  0.00000000E+00  0.00000000E+00  0.00000000E+00
  0.00000000E+00  0.00000000E+00  0.00000000E+00
  0.00000000E+00  0.00000000E+00  0.00000000E+00
  0.00000000E+00  0.00000000E+00  0.00000000E+00
  0.00000000E+00  0.00000000E+00  0.00000000E+00
  0.00000000E+00  0.00000000E+00  0.00000000E+00
  0.00000000E+00  0.00000000E+00  0.00000000E+00
  0.00000000E+00  0.00000000E+00  0.00000000E+00
  0.00000000E+00  0.00000000E+00  0.00000000E+00
  0.00000000E+00  0.00000000E+00  0.00000000E+00
  0.00000000E+00  0.00000000E+00  0.00000000E+00
  0.00000000E+00  0.00000000E+00  0.00000000E+00
  0.00000000E+00  0.00000000E+00  0.00000000E+00
  0.00000000E+00  0.00000000E+00  0.00000000E+00
  0.00000000E+00  0.00000000E+00  0.00000000E+00
  0.00000000E+00  0.00000000E+00  0.00000000E+00
  0.00000000E+00  0.00000000E+00  0.00000000E+00
  0.00000000E+00  0.00000000E+00  0.00000000E+00
  0.00000000E+00  0.00000000E+00  0.00000000E+00
  0.00000000E+00  0.00000000E+00  0.00000000E+00
  0.00000000E+00  0.00000000E+00  0.00000000E+00
  0.00000000E+00  0.00000000E+00  0.00000000E+00
  0.00000000E+00  0.00000000E+00  0.00000000E+00
  0.00000000E+00  0.00000000E+00  0.00000000E+00
  0.00000000E+00  0.00000000E+00  0.00000000E+00
  0.00000000E+00  0.00000000E+00  0.00000000E+00
  0.00000000E+00  0.00000000E+00  0.00000000E+00
  0.00000000E+00  0.00000000E+00  0.00000000E+00
  0.00000000E+00  0.00000000E+00  0.00000000E+00
  0.00000000E+00  0.00000000E+00  0.00000000E+00
  0.00000000E+00  0.00000000E+00  0.00000000E+00
  0.00000000E+00  0.00000000E+00  0.00000000E+00
  0.00000000E+00  0.00000000E+00  0.00000000E+00
  0.00000000E+00  0.00000000E+00  0.00000000E+00
  0.00000000E+00  0.00000000E+00  0.00000000E+00
  0.00000000E+00  0.00000000E+00  0.00000000E+00
  0.00000000E+00  0.00000000E+00  0.00000000E+00
  0.00000000E+00  0.00000000E+00  0.00000000E+00
  0.00000000E+00  0.00000000E+00  0.00000000E+00
  0.00000000E+00  0.00000000E+00  0.00000000E+00
  0.00000000E+00  0.00000000E+00  0.00000000E+00
  0.00000000E+00  0.00000000E+00  0.00000000E+00
  0.00000000E+00  0.00000000E+00  0.00000000E+00
  0.00000000E+00  0.00000000E+00  0.00000000E+00
  0.00000000E+00  0.00000000E+00  0.00000000E+00
  0.00000000E+00  0.00000000E+00  0.00000000E+00
  0.00000000E+00  0.00000000E+00  0.00000000E+00
  0.00000000E+00  0.00000000E+00  0.00000000E+00
  0.00000000E+00  0.00000000E+00  0.00000000E+00
  0.00000000E+00  0.00000000E+00  0.00000000E+00
  0.00000000E+00  0.00000000E+00  0.00000000E+00
  0.00000000E+00  0.00000000E+00  0.00000000E+00
  0.00000000E+00  0.00000000E+00  0.00000000E+00
  0.00000000E+00  0.00000000E+00  0.00000000E+00
  0.00000000E+00  0.00000000E+00  0.00000000E+00
  0.00000000E+00  0.00000000E+00  0.00000000E+00
  0.00000000E+00  0.00000000E+00  0.00000000E+00
  0.00000000E+00  0.00000000E+00  0.00000000E+00
  0.00000000E+00  0.00000000E+00  0.00000000E+00
  0.00000000E+00  0.00000000E+00  0.00000000E+00
  0.00000000E+00  0.00000000E+00  0.00000000E+00
  0.00000000E+00  0.00000000E+00  0.00000000E+00
  0.00000000E+00  0.00000000E+00  0.00000000E+00
  0.00000000E+00  0.00000000E+00  0.00000000E+00
  0.00000000E+00  0.00000000E+00  0.00000000E+00
  0.00000000E+00  0.00000000E+00  0.00000000E+00
  0.00000000E+00  0.00000000E+00  0.00000000E+00
  0.00000000E+00  0.00000000E+00  0.00000000E+00
  0.00000000E+00  0.00000000E+00  0.00000000E+00
  0.00000000E+00  0.00000000E+00  0.00000000E+00
  0.00000000E+00  0.00000000E+00  0.00000000E+00
  0.00000000E+00  0.00000000E+00  0.00000000E+00
  0.00000000E+00  0.00000000E+00  0.00000000E+00
  0.00000000E+00  0.00000000E+00  0.00000000E+00
  0.00000000E+00  0.00000000E+00  0.00000000E+00
  0.00000000E+00  0.00000000E+00  0.00000000E+00
  0.00000000E+00  0.00000000E+00  0.00000000E+00
  0.00000000E+00  0.00000000E+00  0.00000000E+00
  0.00000000E+00  0.00000000E+00  0.00000000E+00
  0.00000000E+00  0.00000000E+00  0.00000000E+00
  0.00000000E+00  0.00000000E+00  0.00000000E+00
  0.00000000E+00  0.00000000E+00  0.00000000E+00
  0.00000000E+00  0.00000000E+00  0.00000000E+00
  0.00000000E+00  0.00000000E+00  0.00000000E+00
  0.00000000E+00  0.00000000E+00  0.00000000E+00
  0.00000000E+00  0.00000000E+00  0.00000000E+00
  0.00000000E+00  0.00000000E+00  0.00000000E+00
  0.00000000E+00  0.00000000E+00  0.00000000E+00
  0.00000000E+00  0.00000000E+00  0.00000000E+00
  0.00000000E+00  0.00000000E+00  0.00000000E+00
  0.00000000E+00  0.00000000E+00  0.00000000E+00
  0.00000000E+00  0.00000000E+00  0.00000000E+00
  0.00000000E+00  0.00000000E+00  0.00000000E+00
  0.00000000E+00  0.00000000E+00  0.00000000E+00
  0.00000000E+00  0.00000000E+00  0.00000000E+00
  0.00000000E+00  0.00000000E+00  0.00000000E+00
  0.00000000E+00  0.00000000E+00  0.00000000E+00
  0.00000000E+00  0.00000000E+00  0.00000000E+00
  0.00000000E+00  0.00000000E+00  0.00000000E+00
  0.00000000E+00  0.00000000E+00  0.00000000E+00
  0.00000000E+00  0.00000000E+00  0.00000000E+00
  0.00000000E+00  0.00000000E+00  0.00000000E+00
  0.00000000E+00  0.00000000E+00  0.00000000E+00
  0.00000000E+00  0.00000000E+00  0.00000000E+00
  0.00000000E+00  0.00000000E+00  0.00000000E+00
  0.00000000E+00  0.00000000E+00  0.00000000E+00
  0.00000000E+00  0.00000000E+00  0.00000000E+00
  0.00000000E+00  0.00000000E+00  0.00000000E+00
  0.00000000E+00  0.00000000E+00  0.00000000E+00
  0.00000000E+00  0.00000000E+00  0.00000000E+00
  0.00000000E+00  0.00000000E+00  0.00000000E+00
  0.00000000E+00  0.00000000E+00  0.00000000E+00
  0.00000000E+00  0.00000000E+00  0.00000000E+00
  0.00000000E+00  0.00000000E+00  0.00000000E+00
  0.00000000E+00  0.00000000E+00  0.00000000E+00
  0.00000000E+00  0.00000000E+00  0.00000000E+00
  0.00000000E+00  0.00000000E+00  0.00000000E+00
  0.00000000E+00  0.00000000E+00  0.00000000E+00
  0.00000000E+00  0.00000000E+00  0.00000000E+00
  0.00000000E+00  0.00000000E+00  0.00000000E+00
  0.00000000E+00  0.00000000E+00  0.00000000E+00
  0.00000000E+00  0.00000000E+00  0.00000000E+00
  0.00000000E+00  0.00000000E+00  0.00000000E+00
  0.00000000E+00  0.00000000E+00  0.00000000E+00
  0.00000000E+00  0.00000000E+00  0.00000000E+00
  0.00000000E+00  0.00000000E+00  0.00000000E+00
  0.00000000E+00  0.00000000E+00  0.00000000E+00
  0.00000000E+00  0.00000000E+00  0.00000000E+00
  0.00000000E+00  0.00000000E+00  0.00000000E+00
  0.00000000E+00  0.00000000E+00  0.00000000E+00
  0.00000000E+00  0.00000000E+00  0.00000000E+00
  0.00000000E+00  0.00000000E+00  0.00000000E+00
  0.00000000E+00  0.00000000E+00  0.00000000E+00
  0.00000000E+00  0.00000000E+00  0.00000000E+00
  0.00000000E+00  0.00000000E+00  0.00000000E+00
  0.00000000E+00  0.00000000E+00  0.00000000E+00
  0.00000000E+00  0.00000000E+00  0.00000000E+00
  0.00000000E+00  0.00000000E+00  0.00000000E+00
  0.00000000E+00  0.00000000E+00  0.00000000E+00
  0.00000000E+00  0.00000000E+00  0.00000000E+00
  0.00000000E+00  0.00000000E+00  0.00000000E+00
  0.00000000E+00  0.00000000E+00  0.00000000E+00
  0.00000000E+00  0.00000000E+00  0.00000000E+00
  0.00000000E+00  0.00000000E+00  0.00000000E+00
  0.00000000E+00  0.00000000E+00  0.00000000E+00
  0.00000000E+00  0.00000000E+00  0.00000000E+00
  0.00000000E+00  0.00000000E+00  0.00000000E+00
  0.00000000E+00  0.00000000E+00  0.00000000E+00
  0.00000000E+00  0.00000000E+00  0.00000000E+00
  0.00000000E+00  0.00000000E+00  0.00000000E+00
  0.00000000E+00  0.00000000E+00  0.00000000E+00
  0.00000000E+00  0.00000000E+00  0.00000000E+00
  0.00000000E+00  0.00000000E+00  0.00000000E+00
  0.00000000E+00  0.00000000E+00  0.00000000E+00
  0.00000000E+00  0.00000000E+00  0.00000000E+00
  0.00000000E+00  0.00000000E+00  0.00000000E+00
  0.00000000E+00  0.00000000E+00  0.00000000E+00
  0.00000000E+00  0.00000000E+00  0.00000000E+00
  0.00000000E+00  0.00000000E+00  0.00000000E+00
  0.00000000E+00  0.00000000E+00  0.00000000E+00
  0.00000000E+00  0.00000000E+00  0.00000000E+00
  0.00000000E+00  0.00000000E+00  0.00000000E+00
  0.00000000E+00  0.00000000E+00  0.00000000E+00
  0.00000000E+00  0.00000000E+00  0.00000000E+00
  0.00000000E+00  0.00000000E+00  0.00000000E+00
  0.00000000E+00  0.00000000E+00  0.00000000E+00
  0.00000000E+00  0.00000000E+00  0.00000000E+00
  0.00000000E+00  0.00000000E+00  0.00000000E+00
  0.00000000E+00  0.00000000E+00  0.00000000E+00
  0.00000000E+00  0.00000000E+00  0.00000000E+00
  0.00000000E+00  0.00000000E+00  0.00000000E+00
  0.00000000E+00  0.00000000E+00  0.00000000E+00
  0.00000000E+00  0.00000000E+00  0.00000000E+00
  0.00000000E+00  0.00000000E+00  0.00000000E+00
  0.00000000E+00  0.00000000E+00  0.00000000E+00
  0.00000000E+00  0.00000000E+00  0.00000000E+00
  0.00000000E+00  0.00000000E+00  0.00000000E+00
  0.00000000E+00  0.00000000E+00  0.00000000E+00
  0.00000000E+00  0.00000000E+00  0.00000000E+00
  0.00000000E+00  0.00000000E+00  0.00000000E+00
  0.00000000E+00  0.00000000E+00  0.00000000E+00
  0.00000000E+00  0.00000000E+00  0.00000000E+00
  0.00000000E+00  0.00000000E+00  0.00000000E+00
  0.00000000E+00  0.00000000E+00  0.00000000E+00
  0.00000000E+00  0.00000000E+00  0.00000000E+00
  0.00000000E+00  0.00000000E+00  0.00000000E+00
  0.00000000E+00  0.00000000E+00  0.00000000E+00
  0.00000000E+00  0.00000000E+00  0.00000000E+00
  0.00000000E+00  0.00000000E+00  0.00000000E+00
  0.00000000E+00  0.00000000E+00  0.00000000E+00
  0.00000000E+00  0.00000000E+00  0.00000000E+00
  0.00000000E+00  0.00000000E+00  0.00000000E+00
  0.00000000E+00  0.00000000E+00  0.00000000E+00
  0.00000000E+00  0.00000000E+00  0.00000000E+00
  0.00000000E+00  0.00000000E+00  0.00000000E+00
  0.00000000E+00  0.00000000E+00  0.00000000E+00
  0.00000000E+00  0.00000000E+00  0.00000000E+00
  0.00000000E+00  0.00000000E+00  0.00000000E+00
  0.00000000E+00  0.00000000E+00  0.00000000E+00
  0.00000000E+00  0.00000000E+00  0.00000000E+00
  0.00000000E+00  0.00000000E+00  0.00000000E+00
  0.00000000E+00  0.00000000E+00  0.00000000E+00
  0.00000000E+00  0.00000000E+00  0.00000000E+00
  0.00000000E+00  0.00000000E+00  0.00000000E+00
  0.00000000E+00  0.00000000E+00  0.00000000E+00
  0.00000000E+00  0.00000000E+00  0.00000000E+00
  0.00000000E+00  0.00000000E+00  0.00000000E+00
  0.00000000E+00  0.00000000E+00  0.00000000E+00
  0.00000000E+00  0.00000000E+00  0.00000000E+00
  0.00000000E+00  0.00000000E+00  0.00000000E+00
  0.00000000E+00  0.00000000E+00  0.00000000E+00
  0.00000000E+00  0.00000000E+00  0.00000000E+00
  0.00000000E+00  0.00000000E+00  0.00000000E+00
  0.00000000E+00  0.00000000E+00  0.00000000E+00
  0.00000000E+00  0.00000000E+00  0.00000000E+00
  0.00000000E+00  0.00000000E+00  0.00000000E+00
  0.00000000E+00  0.00000000E+00  0.00000000E+00
  0.00000000E+00  0.00000000E+00  0.00000000E+00
  0.00000000E+00  0.00000000E+00  0.00000000E+00
  0.00000000E+00  0.00000000E+00  0.00000000E+00
  0.00000000E+00  0.00000000E+00  0.00000000E+00
  0.00000000E+00  0.00000000E+00  0.00000000E+00
  0.00000000E+00  0.00000000E+00  0.00000000E+00
  0.00000000E+00  0.00000000E+00  0.00000000E+00
  0.00000000E+00  0.00000000E+00  0.00000000E+00
  0.00000000E+00  0.00000000E+00  0.00000000E+00
  0.00000000E+00  0.00000000E+00  0.00000000E+00
  0.00000000E+00  0.00000000E+00  0.00000000E+00
  0.00000000E+00  0.00000000E+00  0.00000000E+00
  0.00000000E+00  0.00000000E+00  0.00000000E+00
  0.00000000E+00  0.00000000E+00  0.00000000E+00
  0.00000000E+00  0.00000000E+00  0.00000000E+00
  0.00000000E+00  0.00000000E+00  0.00000000E+00
  0.00000000E+00  0.00000000E+00  0.00000000E+00
  0.00000000E+00  0.00000000E+00  0.00000000E+00
  0.00000000E+00  0.00000000E+00  0.00000000E+00