CuInSe2gb                               
   1.00000000000000     
     9.7266780392896699    0.0000000000000000    0.0000000000000000
     0.0000000000000000    8.4235502764570693    0.0000000000000000
     0.0000000000000000    0.0000000000000000   45.0000000000000000
   Fe   Mn
   281     7
Direct
  0.0581930171428362  0.7009281478205410  0.2110806080243656
  0.3154058379556371  0.7202461189088799  0.8756648946599176
  0.6884178021492613  0.9580355069491925  0.6114333809743069
  0.4382794774016783  0.4580693297871790  0.6114675531714647
  0.4365270105315425  0.2866835398513809  0.2555115539855187
  0.0610633028312017  0.3867665891234678  0.8340746007062801
  0.3110192613519607  0.8865155534965595  0.8341189464055310
  0.4422348336586570  0.6266663151769363  0.7003823922336351
  0.0635484531556181  0.2132991339222038  0.7444582455517491
  0.1825337729123061  0.4513025604607921  0.2111546534653883
  0.5638833112426762  0.2091571430344590  0.4778648231494269
  0.0642154905799751  0.8748627573976430  0.5668942145710854
  0.5655307763703159  0.2201144323597572  0.8756291592280855
  0.8101936095479351  0.5304131859393406  0.1244994472590232
  0.4332291946662006  0.9513085889127224  0.2112042453902234
  0.5642781123071319  0.3745467940540037  0.5667747198700120
  0.8119860385622224  0.0419699567082510  0.3884508474532333
  0.6859797358900889  0.7909781111393119  0.5221942944514240
  0.4386870781061144  0.4590360964251931  0.4778018545918341
  0.4379462009218820  0.9629990032072080  0.7443908445132348
  0.4390215122972463  0.6247180001006687  0.5668288139888670
  0.5672284846264700  0.8766505998762034  0.7003725282673495
  0.3107956002017025  0.0307137299608056  0.1241197390124436
  0.6869584931225419  0.9575110826282318  0.3440310871644769
  0.6878083971167991  0.7796756649470912  0.1246329402046861
  0.0575833781517449  0.3733159007945097  0.2995388637803399
  0.6889587146495436  0.4711655311697919  0.8754840012746364
  0.4332324040579947  0.4512717911444859  0.2111194676489302
  0.8106846750290371  0.3754425676364384  0.4330685404264882
  0.5632307829919967  0.7081805533799477  0.6115206557332534
  0.5629529771508898  0.5411578334921872  0.6558332365658586
  0.8144340644454456  0.8638313648948878  0.1660145022904679
  0.5607727274429084  0.5371882855026570  0.2555241062490848
  0.6868006618928824  0.4583283616020127  0.3441109390123610
  0.1886359632443800  0.6128534403506354  0.1661838997373669
  0.1914873109080041  0.7990883655817819  0.7888427304429465
  0.4422356420964632  0.1264572673738332  0.7004336684304292
  0.9329258081034523  0.6235233079020580  0.2997007978596054
  0.3153138381177263  0.2202556534172558  0.8756577651089038
  0.3139737105431949  0.8746573568167743  0.5667908358515887
  0.8152848050524182  0.2201243606334872  0.8756880396878902
  0.8128368912892898  0.5415926501662910  0.6558077546142749
  0.5600740198311284  0.5297083489123080  0.1244349136094050
  0.5668517292434581  0.0496210982365260  0.7889937372533699
  0.1868267739700284  0.2870032855807895  0.2554980939914085
  0.8105648539857243  0.8755430646625989  0.4330533982076288
  0.5670913064072365  0.3767401656188090  0.7004378340924740
  0.0612329816605753  0.0290910102021459  0.1244221765231328
  0.3129017452064715  0.5411900072504292  0.6558232043306910
  0.5616869617989400  0.2081513422259912  0.3442118855822885
  0.1882624034493531  0.9579615532086029  0.6114127722139447
  0.3075497074416275  0.3738876294195447  0.2995098185902655
  0.4378566567796930  0.7917718970063904  0.6558387325944037
  0.1918673925140578  0.2992453913892502  0.7888602778802909
  0.0640825930777984  0.3633413924454997  0.1659496248074684
  0.6920073616796876  0.6266793724456177  0.7003645514294359
  0.3115790427411860  0.5416705877550466  0.3884615416950145
  0.0653818771113033  0.7201924129697953  0.8757237102272646
  0.9366534153296211  0.6367137681728403  0.8341278857659357
  0.3167545111118779  0.5494289228281719  0.7889741087138162
  0.3076056650768383  0.2002640791883428  0.2110505172316327
  0.0639201841200812  0.7091068564037195  0.4778869578921457
  0.5575361936648034  0.2010517213904443  0.2110772535523487
  0.3132474847655317  0.2136577674964221  0.7444258742314035
  0.0673117524259282  0.3768527753284989  0.7004215134966000
  0.1864955424750970  0.6371158039165287  0.8340134080310816
  0.0668076430403281  0.0494773211263220  0.7889616523408801
  0.4389607862080530  0.1245553977391348  0.5668495841966609
  0.9379123944097744  0.2918086625590700  0.6557657310295977
  0.8075624807330820  0.2011281783727502  0.2110799200671789
  0.9325769759027027  0.9517068418907888  0.2112814718513454
  0.9389511883314771  0.6249284689536464  0.5668125959737618
  0.8109645812727347  0.3865765961624590  0.8341754192575639
  0.1921772245130993  0.6267072653777502  0.7003800087360482
  0.8112447965886772  0.8864546721221269  0.8341953914246217
  0.6879500797955315  0.2913979832539134  0.6558292552582258
  0.3134686860278209  0.2081749041912908  0.6114917187605001
  0.4381101044451673  0.4628342955132744  0.7444697776758654
  0.4368865547789131  0.7917234338936695  0.3884828459288028
  0.6877735147638828  0.9629315591033966  0.7444431664267571
  0.8076019820838176  0.7007227894757991  0.2111186634506148
  0.8132392971120986  0.7079628654731739  0.6114343751627176
  0.4370269562753065  0.7793966448940118  0.1242725717892546
  0.3132734049741432  0.7129123079431633  0.7443979524002345
  0.3167437106009202  0.0495313369445476  0.7890125231404600
  0.8117792062272010  0.5420185405053495  0.3884821245012704
  0.6859594456155910  0.2911823108604997  0.5221917802990462
  0.6919923807264601  0.7991962498552997  0.7888772832171378
  0.1867238249971760  0.7877923633506357  0.2555082238206786
  0.6890142114754807  0.1134408340280118  0.1661762349295403
  0.6886235709792647  0.9589729442020311  0.4778931613226534
  0.9368772328642488  0.9583575741260867  0.3441388994648068
  0.8111257212165435  0.0404579366794293  0.5221643688626131
  0.6849151101847014  0.6253039618605939  0.4330759398815815
  0.4368771476090626  0.4586253595327450  0.3441652847746006
  0.8134097036555172  0.2133924650637467  0.7444133694795408
  0.4390564016314779  0.9711614449994129  0.8755004312790569
  0.5641648063976157  0.8745163506788728  0.5667839881421386
  0.8105023828307034  0.0297983342719611  0.1244968128501306
  0.4323439634201256  0.6232873329424504  0.2996753397409542
  0.8153110089126857  0.7202647668117038  0.8757071007643661
  0.6883565890031204  0.4579822398468348  0.6114281225394200
  0.5611251479947003  0.3869001398216904  0.8341730216146928
  0.8077037141430244  0.3730594048705161  0.2997248736514061
  0.1863540602511009  0.2917634252258510  0.3884655671651214
  0.8169613426565039  0.5493859112603385  0.7889638111846413
  0.1863055089350467  0.7907608477465241  0.5221850184587972
  0.3078330653597190  0.8735499395111854  0.2996312607036968
  0.1828028500416857  0.9514129849349328  0.2112532877689425
  0.1885854245919387  0.4627950374586759  0.7444283018371577
  0.4361101142362862  0.2907372695710320  0.5220952149747282
  0.0619807494393848  0.7084373756857980  0.3442654350216316
  0.1880730177600189  0.7913013788652502  0.6557688542307690
  0.4418233189761347  0.7990376595497355  0.7888272936494392
  0.6850433366257053  0.1249140278264735  0.4330699114355422
  0.9361895490761161  0.7903736505304091  0.5222248029509873
  0.6889121317359028  0.6133070136486906  0.1661078189441707
  0.8115238604697542  0.7082688934515389  0.3443104379286948
  0.9382017371076015  0.4629981336657745  0.7444364310407292
  0.1869748933315618  0.4585501449442904  0.3441314346585116
  0.5669467156528466  0.5493532522168615  0.7889616014949582
  0.5651981037540593  0.3636903726060681  0.1657513309638540
  0.5616164017035259  0.7082203772360000  0.3443024991347221
  0.5577792753232330  0.3732638942303970  0.2996090894486807
  0.1892301608690201  0.4713250593886915  0.8755298339170535
  0.1888147684759619  0.1126739008822546  0.1660774455637335
  0.4417723831071923  0.2991771792025548  0.7888546576798503
  0.6860379952466604  0.7869541907422372  0.2554887554771902
  0.9366820142289203  0.1367405390301769  0.8340817014054037
  0.4387910187483466  0.9589524932672008  0.4778087214328939
  0.5653391513743408  0.7202375346787895  0.8756870956378854
  0.1886731592371348  0.4591662805092915  0.4778657650726291
  0.9363862305488847  0.2795799794276818  0.1245901270418809
  0.3116227674068691  0.0416984981363848  0.3884653567940557
  0.0628561931352430  0.0412213641887696  0.6557971161255507
  0.5611085555957852  0.3751320510944933  0.4330674996608480
  0.6876123063591251  0.4628666609597145  0.7444447044550713
  0.5634412671336326  0.2136193184185489  0.7444341221438954
  0.9423326165512423  0.1269703325112651  0.7003399606488496
  0.5630559696588600  0.0411342115043306  0.6558394345047175
  0.5610053962711852  0.5407547792768925  0.5221380730463797
  0.1825024409539309  0.1233417946747435  0.2995911300614107
  0.4385314457108610  0.1121999897395952  0.1660087456948334
  0.6821787866604371  0.6234319299012174  0.2996735341619202
  0.9322165733965665  0.1228597956832021  0.2995940513035332
  0.8141705486203480  0.3747799621187280  0.5668990713934116
  0.0577772997295410  0.8733788490362824  0.2996775351547691
  0.1892405840185372  0.6248586552782567  0.5668993223927511
  0.9416906652559914  0.7990915331288846  0.7888519113023670
  0.3112339540651483  0.3867925586800530  0.8341406903819513
  0.9389899765818054  0.4716851388304980  0.8754453972323697
  0.4365912746398800  0.6367400869858556  0.8340765151227877
  0.0666871453945159  0.5494637765433675  0.7889481612069574
  0.1890454828394260  0.9712076994041139  0.8755078089528291
  0.9364106320386455  0.7796317724782742  0.1245945892608036
  0.6863370555788481  0.7920397231561009  0.3884718997412409
  0.9380810838265220  0.7916005460123231  0.6558247533365739
  0.9385302585717860  0.1135698425087328  0.1661463498644870
  0.4377920205510241  0.2914228922181501  0.6558412641279761
  0.0583699916400817  0.2010973718453445  0.2110931727836559
  0.6829336627494134  0.9515610305785989  0.2112934143396689
  0.1825027067934741  0.6233485424041089  0.2996397010629649
  0.8168143060490562  0.8767019949583218  0.7003576107785060
  0.9422835863713838  0.6268683617958809  0.7004170249987393
  0.1919698052046264  0.1267861179229167  0.7004206163740746
  0.9389439693152978  0.4588995151380790  0.4779033023173408
  0.8131994818178010  0.2080429959878609  0.6114293461271703
  0.1869013036369485  0.6250609634287432  0.4330552857538760
  0.4327645128349094  0.1233257185957919  0.2996113096625315
  0.6824274780199470  0.1226917419242442  0.2995982757750160
  0.5612457877540670  0.5415532055694977  0.3884626674404404
  0.8115341690305243  0.2081458486786131  0.3443049009780667
  0.4391182693013446  0.4711493065240909  0.8754766759852313
  0.5611293748846216  0.8867403873302273  0.8341635353822827
  0.3139225923533626  0.2091849400403558  0.4779004847831014
  0.1885122231476791  0.9589739186961728  0.4778855612176745
  0.0610578444667450  0.8865995190741545  0.8341373056688896
  0.0611146508321357  0.5403417711626486  0.5220813620034559
  0.9389802053698790  0.9589092048797436  0.4778716330328849
  0.0634132182910343  0.7080281555994670  0.6114456200573263
  0.5609915151949231  0.0408215157332072  0.5221189711881908
  0.6915653795562534  0.2991820080598335  0.7888409139982637
  0.8144383040037859  0.3636601546243000  0.1660015373017081
  0.4358320621127344  0.1250660360199501  0.4330235386191595
  0.0638988686886217  0.2088014268141244  0.4779476756558327
  0.3129006249541136  0.0413544907994362  0.6558233319244166
  0.4360752889860443  0.7905643096785080  0.5221130761175383
  0.1868505058859586  0.1371014492771825  0.8340965418237586
  0.1860392370391766  0.2789688427831671  0.1244413792223799
  0.9363926047290182  0.4585404296525450  0.3441563559450165
  0.5656300089301988  0.8639221918694138  0.1658045198523871
  0.3075291568020992  0.7002034561434985  0.2110651295069265
  0.9379854001696686  0.6133615318908109  0.1662135485403119
  0.1883673861223367  0.4579653742267073  0.6114383014304288
  0.0673178572274828  0.8764648715089011  0.7003303970056843
  0.0629791836810376  0.5414788895832725  0.6558695054125427
  0.3106747589672031  0.5305825739935207  0.1240587374111613
  0.9361039767549194  0.7917497805193796  0.3884643083716812
  0.9418227163437932  0.2989861287729174  0.7888297397216343
  0.1879149248840448  0.2914766748971127  0.6558762260155557
  0.9384888072133399  0.9580095475268368  0.6114847254753035
  0.8131834669012721  0.7129179097562749  0.7444805386200035
  0.6861617648343896  0.2869990897320523  0.2554523080438711
  0.0637284186195086  0.7131433134087710  0.7444141226828097
  0.6829500089555621  0.4513269976561368  0.2112698761359382
  0.8137910068848576  0.2088935115012736  0.4778881900282314
  0.5637830053126562  0.7091303121720073  0.4778650951911496
  0.0636127767137576  0.8637794182296568  0.1659850153459151
  0.9362243250750064  0.2905426100048964  0.5222370618976819
  0.6877208307443398  0.7915000155735334  0.6557917427167492
  0.0613390707185175  0.8747981932876528  0.4330595577929563
  0.0655242179717844  0.2201357703189369  0.8757462709360906
  0.8130245955210567  0.0413629278158490  0.6558076633992639
  0.5602281444921869  0.0295034536164126  0.1243903189821862
  0.3108870616774147  0.3751614520638945  0.4331725769845813
  0.3139747566559514  0.3747185510000717  0.5667864218187807
  0.3138877934424727  0.7092103347252733  0.4778467603394220
  0.0612104321477431  0.0405789060640105  0.5220870661924416
  0.3173933334120713  0.8766803744757344  0.7004105583498649
  0.0620092174504691  0.5373902869151700  0.2555105612119782
  0.6863589064942389  0.1371542084468705  0.8341124259226940
  0.8112887230452294  0.0367372511989590  0.2554469180472732
  0.1865770052725736  0.1250698042937937  0.4330610472022833
  0.6922856636337219  0.1265780785869052  0.7003669704236105
  0.1863698183995616  0.2906805626036795  0.5222254519983756
  0.4365749769761940  0.7871761171256787  0.2554851759662935
  0.4386371341026191  0.6125187480808156  0.1660219435625799
  0.0632298720114584  0.2080756922436087  0.6114315109484724
  0.1864547001928566  0.7913247627949854  0.3884049604999907
  0.3112876407398630  0.5409892268784192  0.5221159806486099
  0.8171377926788724  0.3769005048531998  0.7004070622047466
  0.6864458248975969  0.2920251683365023  0.3885006099210179
  0.1891343642466184  0.1246717909119966  0.5668511239210323
  0.6890979944386346  0.9710655743172428  0.8754815084389281
  0.6891446010618384  0.1247304027940271  0.5668761887341154
  0.4367885524554230  0.9582069698191732  0.3441825424496761
  0.1883104909839893  0.9629132724919341  0.7444467939988278
  0.9366998132125405  0.7874776838735587  0.2555476690716146
  0.5610481360507260  0.8751852265383917  0.4330290475506223
  0.3106941460056259  0.8748824173696932  0.4330785512995887
  0.8110651024638605  0.5402463754617486  0.5221123678048388
  0.9326779015544299  0.4515557722494610  0.2113013524530785
  0.3115333805486898  0.5366458541273750  0.2556242754678625
  0.5613720512212459  0.0414136240908579  0.3884489560813662
  0.9383999415410456  0.4578971259300841  0.6114917544870955
  0.0616495649098200  0.0412969629736432  0.3885003889361391
  0.0615612344446607  0.5416022795821634  0.3884282566634683
  0.4365734808858788  0.2916417728794491  0.3884789066543046
  0.6887201118640875  0.4589855016709227  0.4779094293849627
  0.0640824824064263  0.3748054764008559  0.5668998743489952
  0.5575676056428095  0.7007577213622838  0.2111524926379415
  0.9366585114066551  0.2867064503695281  0.2555395325731569
  0.8168960694808945  0.0492446969796450  0.7888919710795318
  0.1870975482079720  0.9579862019631606  0.3441842473126559
  0.5579529948926426  0.8733710785133489  0.2996571929493475
  0.0610956711013828  0.3748316756098211  0.4330006873818721
  0.3121478888995016  0.7076555231541021  0.3441694249161603
  0.3123280963101203  0.2080090017769945  0.3441959738795835
  0.9390642402086605  0.1248950936413328  0.5668075289607373
  0.4381805240294243  0.9580884399222074  0.6114669491694127
  0.5608756025527498  0.0371707201979094  0.2555621634446530
  0.1862785176238355  0.7790998560509327  0.1243511933471816
  0.0616989769951409  0.0372616400941141  0.2555110854369160
  0.6890757568292565  0.6247027402896416  0.5668727801168543
  0.0609863006311881  0.5291925953805005  0.1244091203610694
  0.3111211697617737  0.0410867208893631  0.5221243407057208
  0.6876302735409093  0.2797824845198006  0.1246292314200846
  0.8137045339551424  0.7089337557911854  0.4779005749268911
  0.4366625207968406  0.1368301192199356  0.8340292978885180
  0.3170536565965082  0.3766799158219510  0.7004120183072838
  0.6867637420101734  0.6369450795478206  0.8340760590231868
  0.5633376567430484  0.7128520593099429  0.7444218887174064
  0.9361765413677944  0.2924205578289111  0.3885459314706097
  0.9389347091974746  0.9712372601785714  0.8754869670954414
  0.5634519140828458  0.2082905458571623  0.6114938078111343
  0.8141880140223122  0.8747983413376613  0.5668886137277320
  0.8074021823140580  0.8734831443438071  0.2996022500146252
  0.3113521081273871  0.0367061760009465  0.2555369991612725
  0.4368601944324896  0.2796595140960793  0.1242820501466871
  0.3132502627883169  0.7080598119547845  0.6114690746331756
  0.4354369550086840  0.6252807303513855  0.4330557711457029
  0.9357237079338554  0.6249538508363300  0.4331077030907487
  0.3152000379084264  0.8634000195790522  0.1655219848271267
  0.0621108281355279  0.2084226326598519  0.3441306438689803
  0.9356753749031440  0.1250326387355298  0.4331444418077546
  0.3150566595823450  0.3631591618609205  0.1655268037677131
  0.9376054603575444  0.9630820214872176  0.7445861347058969
  0.8118939604007369  0.5367967115701485  0.2553835740890145
 
  0.00000000E+00  0.00000000E+00  0.00000000E+00
  0.00000000E+00  0.00000000E+00  0.00000000E+00
  0.00000000E+00  0.00000000E+00  0.00000000E+00
  0.00000000E+00  0.00000000E+00  0.00000000E+00
  0.00000000E+00  0.00000000E+00  0.00000000E+00
  0.00000000E+00  0.00000000E+00  0.00000000E+00
  0.00000000E+00  0.00000000E+00  0.00000000E+00
  0.00000000E+00  0.00000000E+00  0.00000000E+00
  0.00000000E+00  0.00000000E+00  0.00000000E+00
  0.00000000E+00  0.00000000E+00  0.00000000E+00
  0.00000000E+00  0.00000000E+00  0.00000000E+00
  0.00000000E+00  0.00000000E+00  0.00000000E+00
  0.00000000E+00  0.00000000E+00  0.00000000E+00
  0.00000000E+00  0.00000000E+00  0.00000000E+00
  0.00000000E+00  0.00000000E+00  0.00000000E+00
  0.00000000E+00  0.00000000E+00  0.00000000E+00
  0.00000000E+00  0.00000000E+00  0.00000000E+00
  0.00000000E+00  0.00000000E+00  0.00000000E+00
  0.00000000E+00  0.00000000E+00  0.00000000E+00
  0.00000000E+00  0.00000000E+00  0.00000000E+00
  0.00000000E+00  0.00000000E+00  0.00000000E+00
  0.00000000E+00  0.00000000E+00  0.00000000E+00
  0.00000000E+00  0.00000000E+00  0.00000000E+00
  0.00000000E+00  0.00000000E+00  0.00000000E+00
  0.00000000E+00  0.00000000E+00  0.00000000E+00
  0.00000000E+00  0.00000000E+00  0.00000000E+00
  0.00000000E+00  0.00000000E+00  0.00000000E+00
  0.00000000E+00  0.00000000E+00  0.00000000E+00
  0.00000000E+00  0.00000000E+00  0.00000000E+00
  0.00000000E+00  0.00000000E+00  0.00000000E+00
  0.00000000E+00  0.00000000E+00  0.00000000E+00
  0.00000000E+00  0.00000000E+00  0.00000000E+00
  0.00000000E+00  0.00000000E+00  0.00000000E+00
  0.00000000E+00  0.00000000E+00  0.00000000E+00
  0.00000000E+00  0.00000000E+00  0.00000000E+00
  0.00000000E+00  0.00000000E+00  0.00000000E+00
  0.00000000E+00  0.00000000E+00  0.00000000E+00
  0.00000000E+00  0.00000000E+00  0.00000000E+00
  0.00000000E+00  0.00000000E+00  0.00000000E+00
  0.00000000E+00  0.00000000E+00  0.00000000E+00
  0.00000000E+00  0.00000000E+00  0.00000000E+00
  0.00000000E+00  0.00000000E+00  0.00000000E+00
  0.00000000E+00  0.00000000E+00  0.00000000E+00
  0.00000000E+00  0.00000000E+00  0.00000000E+00
  0.00000000E+00  0.00000000E+00  0.00000000E+00
  0.00000000E+00  0.00000000E+00  0.00000000E+00
  0.00000000E+00  0.00000000E+00  0.00000000E+00
  0.00000000E+00  0.00000000E+00  0.00000000E+00
  0.00000000E+00  0.00000000E+00  0.00000000E+00
  0.00000000E+00  0.00000000E+00  0.00000000E+00
  0.00000000E+00  0.00000000E+00  0.00000000E+00
  0.00000000E+00  0.00000000E+00  0.00000000E+00
  0.00000000E+00  0.00000000E+00  0.00000000E+00
  0.00000000E+00  0.00000000E+00  0.00000000E+00
  0.00000000E+00  0.00000000E+00  0.00000000E+00
  0.00000000E+00  0.00000000E+00  0.00000000E+00
  0.00000000E+00  0.00000000E+00  0.00000000E+00
  0.00000000E+00  0.00000000E+00  0.00000000E+00
  0.00000000E+00  0.00000000E+00  0.00000000E+00
  0.00000000E+00  0.00000000E+00  0.00000000E+00
  0.00000000E+00  0.00000000E+00  0.00000000E+00
  0.00000000E+00  0.00000000E+00  0.00000000E+00
  0.00000000E+00  0.00000000E+00  0.00000000E+00
  0.00000000E+00  0.00000000E+00  0.00000000E+00
  0.00000000E+00  0.00000000E+00  0.00000000E+00
  0.00000000E+00  0.00000000E+00  0.00000000E+00
  0.00000000E+00  0.00000000E+00  0.00000000E+00
  0.00000000E+00  0.00000000E+00  0.00000000E+00
  0.00000000E+00  0.00000000E+00  0.00000000E+00
  0.00000000E+00  0.00000000E+00  0.00000000E+00
  0.00000000E+00  0.00000000E+00  0.00000000E+00
  0.00000000E+00  0.00000000E+00  0.00000000E+00
  0.00000000E+00  0.00000000E+00  0.00000000E+00
  0.00000000E+00  0.00000000E+00  0.00000000E+00
  0.00000000E+00  0.00000000E+00  0.00000000E+00
  0.00000000E+00  0.00000000E+00  0.00000000E+00
  0.00000000E+00  0.00000000E+00  0.00000000E+00
  0.00000000E+00  0.00000000E+00  0.00000000E+00
  0.00000000E+00  0.00000000E+00  0.00000000E+00
  0.00000000E+00  0.00000000E+00  0.00000000E+00
  0.00000000E+00  0.00000000E+00  0.00000000E+00
  0.00000000E+00  0.00000000E+00  0.00000000E+00
  0.00000000E+00  0.00000000E+00  0.00000000E+00
  0.00000000E+00  0.00000000E+00  0.00000000E+00
  0.00000000E+00  0.00000000E+00  0.00000000E+00
  0.00000000E+00  0.00000000E+00  0.00000000E+00
  0.00000000E+00  0.00000000E+00  0.00000000E+00
  0.00000000E+00  0.00000000E+00  0.00000000E+00
  0.00000000E+00  0.00000000E+00  0.00000000E+00
  0.00000000E+00  0.00000000E+00  0.00000000E+00
  0.00000000E+00  0.00000000E+00  0.00000000E+00
  0.00000000E+00  0.00000000E+00  0.00000000E+00
  0.00000000E+00  0.00000000E+00  0.00000000E+00
  0.00000000E+00  0.00000000E+00  0.00000000E+00
  0.00000000E+00  0.00000000E+00  0.00000000E+00
  0.00000000E+00  0.00000000E+00  0.00000000E+00
  0.00000000E+00  0.00000000E+00  0.00000000E+00
  0.00000000E+00  0.00000000E+00  0.00000000E+00
  0.00000000E+00  0.00000000E+00  0.00000000E+00
  0.00000000E+00  0.00000000E+00  0.00000000E+00
  0.00000000E+00  0.00000000E+00  0.00000000E+00
  0.00000000E+00  0.00000000E+00  0.00000000E+00
  0.00000000E+00  0.00000000E+00  0.00000000E+00
  0.00000000E+00  0.00000000E+00  0.00000000E+00
  0.00000000E+00  0.00000000E+00  0.00000000E+00
  0.00000000E+00  0.00000000E+00  0.00000000E+00
  0.00000000E+00  0.00000000E+00  0.00000000E+00
  0.00000000E+00  0.00000000E+00  0.00000000E+00
  0.00000000E+00  0.00000000E+00  0.00000000E+00
  0.00000000E+00  0.00000000E+00  0.00000000E+00
  0.00000000E+00  0.00000000E+00  0.00000000E+00
  0.00000000E+00  0.00000000E+00  0.00000000E+00
  0.00000000E+00  0.00000000E+00  0.00000000E+00
  0.00000000E+00  0.00000000E+00  0.00000000E+00
  0.00000000E+00  0.00000000E+00  0.00000000E+00
  0.00000000E+00  0.00000000E+00  0.00000000E+00
  0.00000000E+00  0.00000000E+00  0.00000000E+00
  0.00000000E+00  0.00000000E+00  0.00000000E+00
  0.00000000E+00  0.00000000E+00  0.00000000E+00
  0.00000000E+00  0.00000000E+00  0.00000000E+00
  0.00000000E+00  0.00000000E+00  0.00000000E+00
  0.00000000E+00  0.00000000E+00  0.00000000E+00
  0.00000000E+00  0.00000000E+00  0.00000000E+00
  0.00000000E+00  0.00000000E+00  0.00000000E+00
  0.00000000E+00  0.00000000E+00  0.00000000E+00
  0.00000000E+00  0.00000000E+00  0.00000000E+00
  0.00000000E+00  0.00000000E+00  0.00000000E+00
  0.00000000E+00  0.00000000E+00  0.00000000E+00
  0.00000000E+00  0.00000000E+00  0.00000000E+00
  0.00000000E+00  0.00000000E+00  0.00000000E+00
  0.00000000E+00  0.00000000E+00  0.00000000E+00
  0.00000000E+00  0.00000000E+00  0.00000000E+00
  0.00000000E+00  0.00000000E+00  0.00000000E+00
  0.00000000E+00  0.00000000E+00  0.00000000E+00
  0.00000000E+00  0.00000000E+00  0.00000000E+00
  0.00000000E+00  0.00000000E+00  0.00000000E+00
  0.00000000E+00  0.00000000E+00  0.00000000E+00
  0.00000000E+00  0.00000000E+00  0.00000000E+00
  0.00000000E+00  0.00000000E+00  0.00000000E+00
  0.00000000E+00  0.00000000E+00  0.00000000E+00
  0.00000000E+00  0.00000000E+00  0.00000000E+00
  0.00000000E+00  0.00000000E+00  0.00000000E+00
  0.00000000E+00  0.00000000E+00  0.00000000E+00
  0.00000000E+00  0.00000000E+00  0.00000000E+00
  0.00000000E+00  0.00000000E+00  0.00000000E+00
  0.00000000E+00  0.00000000E+00  0.00000000E+00
  0.00000000E+00  0.00000000E+00  0.00000000E+00
  0.00000000E+00  0.00000000E+00  0.00000000E+00
  0.00000000E+00  0.00000000E+00  0.00000000E+00
  0.00000000E+00  0.00000000E+00  0.00000000E+00
  0.00000000E+00  0.00000000E+00  0.00000000E+00
  0.00000000E+00  0.00000000E+00  0.00000000E+00
  0.00000000E+00  0.00000000E+00  0.00000000E+00
  0.00000000E+00  0.00000000E+00  0.00000000E+00
  0.00000000E+00  0.00000000E+00  0.00000000E+00
  0.00000000E+00  0.00000000E+00  0.00000000E+00
  0.00000000E+00  0.00000000E+00  0.00000000E+00
  0.00000000E+00  0.00000000E+00  0.00000000E+00
  0.00000000E+00  0.00000000E+00  0.00000000E+00
  0.00000000E+00  0.00000000E+00  0.00000000E+00
  0.00000000E+00  0.00000000E+00  0.00000000E+00
  0.00000000E+00  0.00000000E+00  0.00000000E+00
  0.00000000E+00  0.00000000E+00  0.00000000E+00
  0.00000000E+00  0.00000000E+00  0.00000000E+00
  0.00000000E+00  0.00000000E+00  0.00000000E+00
  0.00000000E+00  0.00000000E+00  0.00000000E+00
  0.00000000E+00  0.00000000E+00  0.00000000E+00
  0.00000000E+00  0.00000000E+00  0.00000000E+00
  0.00000000E+00  0.00000000E+00  0.00000000E+00
  0.00000000E+00  0.00000000E+00  0.00000000E+00
  0.00000000E+00  0.00000000E+00  0.00000000E+00
  0.00000000E+00  0.00000000E+00  0.00000000E+00
  0.00000000E+00  0.00000000E+00  0.00000000E+00
  0.00000000E+00  0.00000000E+00  0.00000000E+00
  0.00000000E+00  0.00000000E+00  0.00000000E+00
  0.00000000E+00  0.00000000E+00  0.00000000E+00
  0.00000000E+00  0.00000000E+00  0.00000000E+00
  0.00000000E+00  0.00000000E+00  0.00000000E+00
  0.00000000E+00  0.00000000E+00  0.00000000E+00
  0.00000000E+00  0.00000000E+00  0.00000000E+00
  0.00000000E+00  0.00000000E+00  0.00000000E+00
  0.00000000E+00  0.00000000E+00  0.00000000E+00
  0.00000000E+00  0.00000000E+00  0.00000000E+00
  0.00000000E+00  0.00000000E+00  0.00000000E+00
  0.00000000E+00  0.00000000E+00  0.00000000E+00
  0.00000000E+00  0.00000000E+00  0.00000000E+00
  0.00000000E+00  0.00000000E+00  0.00000000E+00
  0.00000000E+00  0.00000000E+00  0.00000000E+00
  0.00000000E+00  0.00000000E+00  0.00000000E+00
  0.00000000E+00  0.00000000E+00  0.00000000E+00
  0.00000000E+00  0.00000000E+00  0.00000000E+00
  0.00000000E+00  0.00000000E+00  0.00000000E+00
  0.00000000E+00  0.00000000E+00  0.00000000E+00
  0.00000000E+00  0.00000000E+00  0.00000000E+00
  0.00000000E+00  0.00000000E+00  0.00000000E+00
  0.00000000E+00  0.00000000E+00  0.00000000E+00
  0.00000000E+00  0.00000000E+00  0.00000000E+00
  0.00000000E+00  0.00000000E+00  0.00000000E+00
  0.00000000E+00  0.00000000E+00  0.00000000E+00
  0.00000000E+00  0.00000000E+00  0.00000000E+00
  0.00000000E+00  0.00000000E+00  0.00000000E+00
  0.00000000E+00  0.00000000E+00  0.00000000E+00
  0.00000000E+00  0.00000000E+00  0.00000000E+00
  0.00000000E+00  0.00000000E+00  0.00000000E+00
  0.00000000E+00  0.00000000E+00  0.00000000E+00
  0.00000000E+00  0.00000000E+00  0.00000000E+00
  0.00000000E+00  0.00000000E+00  0.00000000E+00
  0.00000000E+00  0.00000000E+00  0.00000000E+00
  0.00000000E+00  0.00000000E+00  0.00000000E+00
  0.00000000E+00  0.00000000E+00  0.00000000E+00
  0.00000000E+00  0.00000000E+00  0.00000000E+00
  0.00000000E+00  0.00000000E+00  0.00000000E+00
  0.00000000E+00  0.00000000E+00  0.00000000E+00
  0.00000000E+00  0.00000000E+00  0.00000000E+00
  0.00000000E+00  0.00000000E+00  0.00000000E+00
  0.00000000E+00  0.00000000E+00  0.00000000E+00
  0.00000000E+00  0.00000000E+00  0.00000000E+00
  0.00000000E+00  0.00000000E+00  0.00000000E+00
  0.00000000E+00  0.00000000E+00  0.00000000E+00
  0.00000000E+00  0.00000000E+00  0.00000000E+00
  0.00000000E+00  0.00000000E+00  0.00000000E+00
  0.00000000E+00  0.00000000E+00  0.00000000E+00
  0.00000000E+00  0.00000000E+00  0.00000000E+00
  0.00000000E+00  0.00000000E+00  0.00000000E+00
  0.00000000E+00  0.00000000E+00  0.00000000E+00
  0.00000000E+00  0.00000000E+00  0.00000000E+00
  0.00000000E+00  0.00000000E+00  0.00000000E+00
  0.00000000E+00  0.00000000E+00  0.00000000E+00
  0.00000000E+00  0.00000000E+00  0.00000000E+00
  0.00000000E+00  0.00000000E+00  0.00000000E+00
  0.00000000E+00  0.00000000E+00  0.00000000E+00
  0.00000000E+00  0.00000000E+00  0.00000000E+00
  0.00000000E+00  0.00000000E+00  0.00000000E+00
  0.00000000E+00  0.00000000E+00  0.00000000E+00
  0.00000000E+00  0.00000000E+00  0.00000000E+00
  0.00000000E+00  0.00000000E+00  0.00000000E+00
  0.00000000E+00  0.00000000E+00  0.00000000E+00
  0.00000000E+00  0.00000000E+00  0.00000000E+00
  0.00000000E+00  0.00000000E+00  0.00000000E+00
  0.00000000E+00  0.00000000E+00  0.00000000E+00
  0.00000000E+00  0.00000000E+00  0.00000000E+00
  0.00000000E+00  0.00000000E+00  0.00000000E+00
  0.00000000E+00  0.00000000E+00  0.00000000E+00
  0.00000000E+00  0.00000000E+00  0.00000000E+00
  0.00000000E+00  0.00000000E+00  0.00000000E+00
  0.00000000E+00  0.00000000E+00  0.00000000E+00
  0.00000000E+00  0.00000000E+00  0.00000000E+00