CuInSe2gb                               
   1.00000000000000     
     9.7266780392896699    0.0000000000000000    0.0000000000000000
     0.0000000000000000    8.4235502764570693    0.0000000000000000
     0.0000000000000000    0.0000000000000000   45.0000000000000000
   Fe   Mn
   281     7
Direct
  0.0538279525473160  0.7010696272743515  0.2113142630379778
  0.3173468879689139  0.7234611057066248  0.8761376152287372
  0.6883334275893102  0.9587834696651127  0.6114939374840140
  0.4384579533090180  0.4587159560065323  0.6115857005797941
  0.4407647513548389  0.2873636880392176  0.2550376326534166
  0.0586448613886882  0.3876270760841205  0.8335545366808985
  0.3084452178379884  0.8877729451272089  0.8334846089196470
  0.4468816701324259  0.6264381123775126  0.7004123223526523
  0.0595772979917814  0.2123166174500915  0.7449018209597295
  0.1791454450481655  0.4512724163536544  0.2113064369518379
  0.5676362457542817  0.2104649948262060  0.4774832469844681
  0.0666374983289578  0.8749089575800619  0.5668693130446131
  0.5679477171956459  0.2230257336468225  0.8761434123217644
  0.8088682761718300  0.5280516603730193  0.1238852643357566
  0.4291902453073415  0.9515475884540926  0.2113956331860447
  0.5666821006433306  0.3750956064905339  0.5668656804961072
  0.8116695856323186  0.0419761538303877  0.3883202774210535
  0.6819866239174027  0.7886872084745619  0.5224093818737017
  0.4426962624679365  0.4605607346119440  0.4774576472668228
  0.4341100736163863  0.9626201100984639  0.7449241042922650
  0.4416696599435602  0.6249263888352820  0.5669044365328755
  0.5717244576982508  0.8762682969024922  0.7005385215832018
  0.3091081856900234  0.0258710474116096  0.1238911487822259
  0.6898435944107284  0.9586308889637993  0.3439916602888071
  0.6878924619930847  0.7819755019400417  0.1242087145213298
  0.0525316658360895  0.3738426421676296  0.2995813857332318
  0.6900690761464386  0.4683541980943148  0.8760448801493917
  0.4289478726780739  0.4512323330125091  0.2113694580205198
  0.8082564734246876  0.3751985418393805  0.4331524925237241
  0.5636510140333051  0.7087231005995123  0.6115794409622168
  0.5596092030524736  0.5406651841572185  0.6558756637187916
  0.8178501711882606  0.8618246908802525  0.1666908988497533
  0.5656478517998916  0.5372511845302238  0.2551342455705614
  0.6898238226479556  0.4590780995588656  0.3440184623444063
  0.1915692535965640  0.6114094178468978  0.1663155181254474
  0.1947488651823739  0.7993305165796970  0.7888043731337642
  0.4470011360282656  0.1263559862203314  0.7004036837612203
  0.9277303229430502  0.6234673220551737  0.2996462902131360
  0.3173611846961349  0.2232100247475445  0.8761530301104207
  0.3167233892129754  0.8748128497497368  0.5668610024888381
  0.8174326429989243  0.2235362018574676  0.8761321330730946
  0.8096497580286484  0.5407154138695753  0.6558502849579694
  0.5592607944504366  0.5267540427994699  0.1238453573505187
  0.5693980845989691  0.0497092787268643  0.7889034782229787
  0.1903504596875283  0.2872173055767244  0.2550585905971046
  0.8085457977990204  0.8749919047010556  0.4331198006096343
  0.5719951278351019  0.3763891549205454  0.7004031770980556
  0.0572800492549317  0.0266133110979696  0.1240692309775413
  0.3097457385135948  0.5405679991842623  0.6559624172971545
  0.5653498032917386  0.2089534696759940  0.3440089415225465
  0.1884726197570228  0.9586654158895941  0.6114782846944945
  0.3029049525686291  0.3739155749964992  0.2995835403061965
  0.4346890320193386  0.7904262655690577  0.6559947329788514
  0.1948895615413963  0.2990579816045788  0.7888448130610767
  0.0674298617910781  0.3630359780541976  0.1666473883561617
  0.6969485943195121  0.6263122412770996  0.7004525048838616
  0.3117501652389257  0.5410844668316228  0.3884754744737876
  0.0675305588898835  0.7236166929333768  0.8761330442460901
  0.9335302321266252  0.6375508040031803  0.8335965792025339
  0.3198885446060340  0.5496505799342080  0.7889187895065300
  0.3047456127588667  0.2002887274489016  0.2111365200855761
  0.0679389531029383  0.7105361057174188  0.4773998435199837
  0.5545951793630980  0.2006482555093283  0.2110948134324840
  0.3095709713870855  0.2124349395229914  0.7449648122719084
  0.0716681303244184  0.3765982692410381  0.7005269183793714
  0.1835496899773151  0.6376764965622302  0.8335341798579383
  0.0696770881814436  0.0496415265298069  0.7889896016487111
  0.4416747539369854  0.1251122707367420  0.5669104655008630
  0.9347384231264267  0.2906722487392622  0.6558419972797592
  0.8043973199674752  0.2014310182188157  0.2111530911384626
  0.9295084754618043  0.9514261185581440  0.2112792014512012
  0.9417102953558121  0.6251071173199683  0.5668208677033461
  0.8083327935935304  0.3876529581814340  0.8334655358333091
  0.1970775616376006  0.6262872483682714  0.7003806157109258
  0.8085522558593590  0.8877136063464967  0.8334800112278969
  0.6847578252595666  0.2905031915349067  0.6559870719950514
  0.3132163134487327  0.2085192761425479  0.6115023708915934
  0.4343601662980975  0.4629252640005836  0.7448078704491404
  0.4359686705898809  0.7908014261387345  0.3884035107957851
  0.6844111829563371  0.9627137529819332  0.7449220292695310
  0.8037599121477553  0.7010539190743150  0.2113009723563508
  0.8135968613200799  0.7088227690692945  0.6116001917518309
  0.4374527721144312  0.7836615522010439  0.1239830373809752
  0.3096398610457867  0.7123507519509701  0.7448667847593686
  0.3199935605533952  0.0495551028253232  0.7888310835148661
  0.8112156268845557  0.5415507919177168  0.3883389886429626
  0.6822380326564805  0.2885982693315008  0.5223955793891285
  0.6948429297649289  0.7991601781239795  0.7888219206454943
  0.1909263640813033  0.7877248919935215  0.2551729668030236
  0.6916193449049515  0.1124404230588316  0.1665370740026320
  0.6927452584922086  0.9607644533805443  0.4774909962008120
  0.9406031556942462  0.9594522988884749  0.3441052794869903
  0.8071688673767797  0.0391511618685103  0.5225539854466054
  0.6835552166406447  0.6247461319795725  0.4330293317023233
  0.4398591513783817  0.4587566485985764  0.3440531759660714
  0.8097937737240642  0.2125112776236858  0.7448163535375717
  0.4397705711035031  0.9685360718043606  0.8760118255758483
  0.5667193403723644  0.8749668407175372  0.5668608904534818
  0.8092147283205282  0.0281048610514602  0.1239581760976124
  0.4279779667549560  0.6238138571989446  0.2994056417293505
  0.8173494912711549  0.7234220340341742  0.8761889322270888
  0.6883686201375000  0.4585897105257413  0.6114909958599357
  0.5584173868976808  0.3874363834838990  0.8334659885333765
  0.8033629295700268  0.3732454898673594  0.2994489351826406
  0.1861214473149122  0.2907494354862188  0.3884072282602594
  0.8196169586374042  0.5496143688060847  0.7889933267109539
  0.1823092849196283  0.7891909082228840  0.5225519296846627
  0.3031317108961616  0.8737604199699645  0.2996072584609984
  0.1783542858768916  0.9513473868028295  0.2112995993073540
  0.1844651443534642  0.4627907800654041  0.7449275948100618
  0.4321831638721523  0.2888934546178163  0.5223517598312740
  0.0650306779619295  0.7085194643881642  0.3438942990681702
  0.1847899104380227  0.7905781709245921  0.6559003421803778
  0.4449914621414666  0.7992259677427456  0.7888003559117638
  0.6835277854415558  0.1252193615910630  0.4330440049574386
  0.9321923248431185  0.7885918200275184  0.5224647513599259
  0.6918017299810333  0.6126612730059279  0.1666628510663609
  0.8143721475860243  0.7084918738148667  0.3437896661724289
  0.9344449276958887  0.4626075636386617  0.7449102752770728
  0.1897518328859327  0.4583595800950703  0.3439393409749548
  0.5695756402723308  0.5496763378277245  0.7890089803813491
  0.5666841420728578  0.3625587400621349  0.1664668494697830
  0.5646057041281399  0.7089137256291144  0.3439467265900968
  0.5528576472849358  0.3736883286487546  0.2995575322902460
  0.1897448331776154  0.4683398206813398  0.8759983857250145
  0.1917069419903051  0.1111277416412225  0.1663573154865425
  0.4448951660077111  0.2993365663965298  0.7888074608271338
  0.6911354798826673  0.7875587447003576  0.2553953450214397
  0.9335192108026140  0.1376955563909947  0.8335054568899654
  0.4427541721180691  0.9607146709804160  0.4775309714917652
  0.5674800888003941  0.7235043287143981  0.8761792290663150
  0.1925138514257369  0.4607056139180018  0.4774907471254641
  0.9343750878552831  0.2818969923454735  0.1241200346718991
  0.3114320270224256  0.0414449812504597  0.3883809067473878
  0.0598014159931602  0.0407225830766912  0.6559178660035320
  0.5582100965140513  0.3749660655384444  0.4330481188005697
  0.6841573069523543  0.4626911177713955  0.7449358580495532
  0.5596745615998984  0.2125252529256566  0.7448287508181426
  0.9470711508443164  0.1262951785203172  0.7004507198462298
  0.5594790050481827  0.0407684332562110  0.6558808984095824
  0.5572868519178114  0.5392044598824305  0.5225524675276473
  0.1777490920592491  0.1238707978954108  0.2996123185403706
  0.4418118631694625  0.1105845848152794  0.1663948506000934
  0.6776343679470099  0.6235728255301750  0.2996231286871691
  0.9276582838755749  0.1235887746448166  0.2996439008754661
  0.8166104456247096  0.3749872704315296  0.5669186664274740
  0.0529205682827865  0.8740458256344230  0.2995513939957829
  0.1914838420026125  0.6249516710084502  0.5669025340919078
  0.9449755714915703  0.7995398356497831  0.7886965746126365
  0.3083016109896619  0.3875431090422915  0.8334956205002654
  0.9397881507578538  0.4686231038285922  0.8760047060906206
  0.4336923667682716  0.6378848302460250  0.8335317986282474
  0.0697531358297059  0.5494250184494913  0.7889109476352674
  0.1898719818068436  0.9684760041410805  0.8760062742317696
  0.9346652148400765  0.7819011019340123  0.1241464769195418
  0.6868043760952337  0.7912026740341610  0.3884287724210291
  0.9346966680079648  0.7906085269600803  0.6559013050276877
  0.9414295975399588  0.1121910880115917  0.1664355871972780
  0.4349174905076831  0.2907176351657498  0.6560032708264604
  0.0548650176316423  0.2007198150882838  0.2112254700354727
  0.6789178773217873  0.9513778358334019  0.2113221331675666
  0.1781489244817841  0.6241628690291136  0.2994001340752432
  0.8221103677206811  0.8762514192243633  0.7004645679418663
  0.9467544079560091  0.6264508417840289  0.7004399929021309
  0.1969489327023426  0.1262423236791051  0.7004331696867586
  0.9426306927946236  0.4604824978560438  0.4772554251986364
  0.8133678123912382  0.2086232734329334  0.6115662816891222
  0.1833299590451069  0.6250174043350555  0.4331365349574787
  0.4278173526421699  0.1240213491623679  0.2995392909390432
  0.6776138931967416  0.1238264092930044  0.2995481489431107
  0.5617987450577921  0.5415955357401040  0.3884962818129633
  0.8145431525921215  0.2080332572244033  0.3439783236428138
  0.4400561018801456  0.4684091600129932  0.8759880039969418
  0.5585670101107297  0.8877092722762160  0.8334925751648027
  0.3178472233595023  0.2104058543276452  0.4773398890803257
  0.1926648148972146  0.9607656192626113  0.4774795706273930
  0.0584221520448132  0.8877482082816261  0.8335402178261333
  0.0572487773372141  0.5392520387010985  0.5225354071156619
  0.9426787403224418  0.9605387469118170  0.4773417128969117
  0.0634971011698854  0.7084184816733661  0.6115764141004399
  0.5572781115885040  0.0391448415488275  0.5225078376913904
  0.6948499190912436  0.2992309329125991  0.7888163398017179
  0.8176490287953743  0.3616969067752495  0.1667121828621931
  0.4333594663999119  0.1246500712884447  0.4330904899216486
  0.0679985034261535  0.2107914573689294  0.4774657061310310
  0.3098088865577225  0.0406311482304453  0.6559255915016110
  0.4322229112583622  0.7888316735543166  0.5223591694993055
  0.1835625027831479  0.1378601037133235  0.8335437643883377
  0.1856502714994740  0.2828916502153269  0.1242448169692173
  0.9406045877388688  0.4593180423118514  0.3440831819270109
  0.5665661071424583  0.8624666262339480  0.1664467410162286
  0.3044595538256296  0.7006962346686034  0.2112640723157478
  0.9413526718065971  0.6122446490854203  0.1664993328944722
  0.1884382045086967  0.4587418774257588  0.6115382184304744
  0.0722262208461643  0.8764002099712218  0.7004232325377914
  0.0597081592737760  0.5405781631030766  0.6559098904250397
  0.3080708164578277  0.5261786594282101  0.1239549159604839
  0.9367402365154944  0.7912857729204991  0.3885635929721406
  0.9447804713584221  0.2989576088763342  0.7887927497296604
  0.1845625452446343  0.2904906227440830  0.6559026494104837
  0.9382162645701920  0.9584613356334306  0.6115092558725128
  0.8097689832927706  0.7123786245355174  0.7449114073082823
  0.6911567359406714  0.2878609209453216  0.2553041904375727
  0.0594407708532264  0.7126381424208327  0.7448355670290010
  0.6790354700802820  0.4512956543890063  0.2112615260324119
  0.8177990796588266  0.2104711703210580  0.4775641038189635
  0.5676279942198582  0.7104613920483610  0.4775083805210205
  0.0678431119391676  0.8633068587469592  0.1666651836217575
  0.9322619283681763  0.2885246091301089  0.5224663120858247
  0.6844508585612972  0.7903267437424910  0.6559303127483367
  0.0579308863895612  0.8746922756596565  0.4330967972491980
  0.0677101275834634  0.2238304339818882  0.8760973381158180
  0.8097224563653923  0.0404779578223361  0.6559197459730253
  0.5596615168039718  0.0268756065773040  0.1238531520408534
  0.3085012471534223  0.3752851941302118  0.4330633484282265
  0.3167848687000479  0.3748241010284161  0.5668784418168483
  0.3177029715819734  0.7104992835658535  0.4773284232154146
  0.0571926236153443  0.0391720009423621  0.5225526361314430
  0.3216741905048164  0.8764652355946763  0.7005519311839291
  0.0651606722572073  0.5375452019577250  0.2549678087097496
  0.6836719498176015  0.1375486544045656  0.8335143566239880
  0.8146752564340626  0.0372977077165749  0.2551550435175790
  0.1834897342739734  0.1251582420812521  0.4331158203228226
  0.6970591316206523  0.1264659696653040  0.7004259501464912
  0.1822829300433693  0.2893467622054334  0.5225774845785482
  0.4406805540117374  0.7877019336595821  0.2552916556320566
  0.4414798605128261  0.6103698747202265  0.1664275082929156
  0.0634871430960427  0.2084796697002086  0.6115704541648140
  0.1860927960235514  0.7910918041133086  0.3883515296592454
  0.3070653601693938  0.5388096501743228  0.5224306591687835
  0.8218320491810840  0.3764631675081284  0.7003996196157002
  0.6862471624012936  0.2910279174030623  0.3883837129918457
  0.1916651063801929  0.1249976959668069  0.5668976086268963
  0.6897167447113538  0.9685492408000174  0.8760474279396970
  0.6914533789838297  0.1249730450976745  0.5669069181647208
  0.4403286018372384  0.9586120721199906  0.3440322039110719
  0.1840093045897199  0.9626792541075944  0.7449071629198606
  0.9405901321038341  0.7877180535899754  0.2551582587437824
  0.5583065914014114  0.8749889507897234  0.4330540121777795
  0.3084940763513516  0.8752525845781857  0.4331057989899273
  0.8072051485969935  0.5393978372933063  0.5225869420769537
  0.9293031239760088  0.4511385214925266  0.2112803339941170
  0.3152649201408287  0.5378571852439723  0.2550621624861847
  0.5619546166890023  0.0415549579048939  0.3884627538470641
  0.9381834562889814  0.4583185268916979  0.6116345154059231
  0.0619670492594901  0.0417464394872575  0.3884060141872530
  0.0614205290607149  0.5411356620373339  0.3884116322985373
  0.4362831327435898  0.2911482248951018  0.3883588255873904
  0.6927203409996088  0.4606741664364862  0.4773923296923008
  0.0668174493660745  0.3750747007748370  0.5668739411077590
  0.5542555172963478  0.7008098858615460  0.2110800947645496
  0.9407500112905648  0.2873078729501879  0.2552178592808447
  0.8194876415282525  0.0499048084854198  0.7889982970166782
  0.1901179857955109  0.9586876299449504  0.3440144524725401
  0.5528062632987881  0.8738362676056289  0.2996418134559530
  0.0585221290138188  0.3747227504580499  0.4330672524555328
  0.3150336650286751  0.7089236599112004  0.3440443886582190
  0.3145444720516488  0.2088973286617641  0.3439133830813666
  0.9415303287257347  0.1251237741299845  0.5668180390355302
  0.4385323212573964  0.9587152817418692  0.6115837582451603
  0.5651145359166350  0.0374917904164402  0.2550520652559393
  0.1860431995423827  0.7827135324489963  0.1242448875872566
  0.0657217393170494  0.0374178285647306  0.2552040264428298
  0.6915452987572548  0.6249075809345319  0.5669326599617630
  0.0568839710223052  0.5263003413188633  0.1241405660285002
  0.3070601140997497  0.0386866505276757  0.5223279775398533
  0.6874682538661502  0.2821747036073806  0.1241457294145384
  0.8176842873809802  0.7107672424327894  0.4774940411721739
  0.4335121282887135  0.1376756067763069  0.8335189857568601
  0.3219488126004342  0.3762261075426505  0.7005228332425468
  0.6835410129727527  0.6376544613577281  0.8335258428842491
  0.5598348031786503  0.7122113988037775  0.7448317231941151
  0.9363564375725799  0.2914323888379884  0.3884709360420099
  0.9397980331363334  0.9686589941687346  0.8760453608193831
  0.5629997267074830  0.2082311720801298  0.6114680502551789
  0.8165465945160739  0.8750123328057213  0.5669162438233516
  0.8033408452683362  0.8731160454980397  0.2993853124509166
  0.3154091345092647  0.0375801146307333  0.2551964432470418
  0.4372347102063515  0.2837141352231874  0.1240349461529431
  0.3136114246727120  0.7086561976633532  0.6115772696265408
  0.4334617585381753  0.6249527623896658  0.4329865579441955
  0.9328133565507714  0.6253422439773300  0.4332843719439077
  0.3180558281645813  0.8626120087301936  0.1657396621578944
  0.0652491682207669  0.2081044975198821  0.3438016027147573
  0.9332816955477128  0.1256128366934899  0.4332431183940966
  0.3183641703257803  0.3630238197142299  0.1657927071441982
  0.9334015481839868  0.9624878875050776  0.7446442807369562
  0.8159231276988158  0.5375098793248193  0.2553894630270780
 
  0.00000000E+00  0.00000000E+00  0.00000000E+00
  0.00000000E+00  0.00000000E+00  0.00000000E+00
  0.00000000E+00  0.00000000E+00  0.00000000E+00
  0.00000000E+00  0.00000000E+00  0.00000000E+00
  0.00000000E+00  0.00000000E+00  0.00000000E+00
  0.00000000E+00  0.00000000E+00  0.00000000E+00
  0.00000000E+00  0.00000000E+00  0.00000000E+00
  0.00000000E+00  0.00000000E+00  0.00000000E+00
  0.00000000E+00  0.00000000E+00  0.00000000E+00
  0.00000000E+00  0.00000000E+00  0.00000000E+00
  0.00000000E+00  0.00000000E+00  0.00000000E+00
  0.00000000E+00  0.00000000E+00  0.00000000E+00
  0.00000000E+00  0.00000000E+00  0.00000000E+00
  0.00000000E+00  0.00000000E+00  0.00000000E+00
  0.00000000E+00  0.00000000E+00  0.00000000E+00
  0.00000000E+00  0.00000000E+00  0.00000000E+00
  0.00000000E+00  0.00000000E+00  0.00000000E+00
  0.00000000E+00  0.00000000E+00  0.00000000E+00
  0.00000000E+00  0.00000000E+00  0.00000000E+00
  0.00000000E+00  0.00000000E+00  0.00000000E+00
  0.00000000E+00  0.00000000E+00  0.00000000E+00
  0.00000000E+00  0.00000000E+00  0.00000000E+00
  0.00000000E+00  0.00000000E+00  0.00000000E+00
  0.00000000E+00  0.00000000E+00  0.00000000E+00
  0.00000000E+00  0.00000000E+00  0.00000000E+00
  0.00000000E+00  0.00000000E+00  0.00000000E+00
  0.00000000E+00  0.00000000E+00  0.00000000E+00
  0.00000000E+00  0.00000000E+00  0.00000000E+00
  0.00000000E+00  0.00000000E+00  0.00000000E+00
  0.00000000E+00  0.00000000E+00  0.00000000E+00
  0.00000000E+00  0.00000000E+00  0.00000000E+00
  0.00000000E+00  0.00000000E+00  0.00000000E+00
  0.00000000E+00  0.00000000E+00  0.00000000E+00
  0.00000000E+00  0.00000000E+00  0.00000000E+00
  0.00000000E+00  0.00000000E+00  0.00000000E+00
  0.00000000E+00  0.00000000E+00  0.00000000E+00
  0.00000000E+00  0.00000000E+00  0.00000000E+00
  0.00000000E+00  0.00000000E+00  0.00000000E+00
  0.00000000E+00  0.00000000E+00  0.00000000E+00
  0.00000000E+00  0.00000000E+00  0.00000000E+00
  0.00000000E+00  0.00000000E+00  0.00000000E+00
  0.00000000E+00  0.00000000E+00  0.00000000E+00
  0.00000000E+00  0.00000000E+00  0.00000000E+00
  0.00000000E+00  0.00000000E+00  0.00000000E+00
  0.00000000E+00  0.00000000E+00  0.00000000E+00
  0.00000000E+00  0.00000000E+00  0.00000000E+00
  0.00000000E+00  0.00000000E+00  0.00000000E+00
  0.00000000E+00  0.00000000E+00  0.00000000E+00
  0.00000000E+00  0.00000000E+00  0.00000000E+00
  0.00000000E+00  0.00000000E+00  0.00000000E+00
  0.00000000E+00  0.00000000E+00  0.00000000E+00
  0.00000000E+00  0.00000000E+00  0.00000000E+00
  0.00000000E+00  0.00000000E+00  0.00000000E+00
  0.00000000E+00  0.00000000E+00  0.00000000E+00
  0.00000000E+00  0.00000000E+00  0.00000000E+00
  0.00000000E+00  0.00000000E+00  0.00000000E+00
  0.00000000E+00  0.00000000E+00  0.00000000E+00
  0.00000000E+00  0.00000000E+00  0.00000000E+00
  0.00000000E+00  0.00000000E+00  0.00000000E+00
  0.00000000E+00  0.00000000E+00  0.00000000E+00
  0.00000000E+00  0.00000000E+00  0.00000000E+00
  0.00000000E+00  0.00000000E+00  0.00000000E+00
  0.00000000E+00  0.00000000E+00  0.00000000E+00
  0.00000000E+00  0.00000000E+00  0.00000000E+00
  0.00000000E+00  0.00000000E+00  0.00000000E+00
  0.00000000E+00  0.00000000E+00  0.00000000E+00
  0.00000000E+00  0.00000000E+00  0.00000000E+00
  0.00000000E+00  0.00000000E+00  0.00000000E+00
  0.00000000E+00  0.00000000E+00  0.00000000E+00
  0.00000000E+00  0.00000000E+00  0.00000000E+00
  0.00000000E+00  0.00000000E+00  0.00000000E+00
  0.00000000E+00  0.00000000E+00  0.00000000E+00
  0.00000000E+00  0.00000000E+00  0.00000000E+00
  0.00000000E+00  0.00000000E+00  0.00000000E+00
  0.00000000E+00  0.00000000E+00  0.00000000E+00
  0.00000000E+00  0.00000000E+00  0.00000000E+00
  0.00000000E+00  0.00000000E+00  0.00000000E+00
  0.00000000E+00  0.00000000E+00  0.00000000E+00
  0.00000000E+00  0.00000000E+00  0.00000000E+00
  0.00000000E+00  0.00000000E+00  0.00000000E+00
  0.00000000E+00  0.00000000E+00  0.00000000E+00
  0.00000000E+00  0.00000000E+00  0.00000000E+00
  0.00000000E+00  0.00000000E+00  0.00000000E+00
  0.00000000E+00  0.00000000E+00  0.00000000E+00
  0.00000000E+00  0.00000000E+00  0.00000000E+00
  0.00000000E+00  0.00000000E+00  0.00000000E+00
  0.00000000E+00  0.00000000E+00  0.00000000E+00
  0.00000000E+00  0.00000000E+00  0.00000000E+00
  0.00000000E+00  0.00000000E+00  0.00000000E+00
  0.00000000E+00  0.00000000E+00  0.00000000E+00
  0.00000000E+00  0.00000000E+00  0.00000000E+00
  0.00000000E+00  0.00000000E+00  0.00000000E+00
  0.00000000E+00  0.00000000E+00  0.00000000E+00
  0.00000000E+00  0.00000000E+00  0.00000000E+00
  0.00000000E+00  0.00000000E+00  0.00000000E+00
  0.00000000E+00  0.00000000E+00  0.00000000E+00
  0.00000000E+00  0.00000000E+00  0.00000000E+00
  0.00000000E+00  0.00000000E+00  0.00000000E+00
  0.00000000E+00  0.00000000E+00  0.00000000E+00
  0.00000000E+00  0.00000000E+00  0.00000000E+00
  0.00000000E+00  0.00000000E+00  0.00000000E+00
  0.00000000E+00  0.00000000E+00  0.00000000E+00
  0.00000000E+00  0.00000000E+00  0.00000000E+00
  0.00000000E+00  0.00000000E+00  0.00000000E+00
  0.00000000E+00  0.00000000E+00  0.00000000E+00
  0.00000000E+00  0.00000000E+00  0.00000000E+00
  0.00000000E+00  0.00000000E+00  0.00000000E+00
  0.00000000E+00  0.00000000E+00  0.00000000E+00
  0.00000000E+00  0.00000000E+00  0.00000000E+00
  0.00000000E+00  0.00000000E+00  0.00000000E+00
  0.00000000E+00  0.00000000E+00  0.00000000E+00
  0.00000000E+00  0.00000000E+00  0.00000000E+00
  0.00000000E+00  0.00000000E+00  0.00000000E+00
  0.00000000E+00  0.00000000E+00  0.00000000E+00
  0.00000000E+00  0.00000000E+00  0.00000000E+00
  0.00000000E+00  0.00000000E+00  0.00000000E+00
  0.00000000E+00  0.00000000E+00  0.00000000E+00
  0.00000000E+00  0.00000000E+00  0.00000000E+00
  0.00000000E+00  0.00000000E+00  0.00000000E+00
  0.00000000E+00  0.00000000E+00  0.00000000E+00
  0.00000000E+00  0.00000000E+00  0.00000000E+00
  0.00000000E+00  0.00000000E+00  0.00000000E+00
  0.00000000E+00  0.00000000E+00  0.00000000E+00
  0.00000000E+00  0.00000000E+00  0.00000000E+00
  0.00000000E+00  0.00000000E+00  0.00000000E+00
  0.00000000E+00  0.00000000E+00  0.00000000E+00
  0.00000000E+00  0.00000000E+00  0.00000000E+00
  0.00000000E+00  0.00000000E+00  0.00000000E+00
  0.00000000E+00  0.00000000E+00  0.00000000E+00
  0.00000000E+00  0.00000000E+00  0.00000000E+00
  0.00000000E+00  0.00000000E+00  0.00000000E+00
  0.00000000E+00  0.00000000E+00  0.00000000E+00
  0.00000000E+00  0.00000000E+00  0.00000000E+00
  0.00000000E+00  0.00000000E+00  0.00000000E+00
  0.00000000E+00  0.00000000E+00  0.00000000E+00
  0.00000000E+00  0.00000000E+00  0.00000000E+00
  0.00000000E+00  0.00000000E+00  0.00000000E+00
  0.00000000E+00  0.00000000E+00  0.00000000E+00
  0.00000000E+00  0.00000000E+00  0.00000000E+00
  0.00000000E+00  0.00000000E+00  0.00000000E+00
  0.00000000E+00  0.00000000E+00  0.00000000E+00
  0.00000000E+00  0.00000000E+00  0.00000000E+00
  0.00000000E+00  0.00000000E+00  0.00000000E+00
  0.00000000E+00  0.00000000E+00  0.00000000E+00
  0.00000000E+00  0.00000000E+00  0.00000000E+00
  0.00000000E+00  0.00000000E+00  0.00000000E+00
  0.00000000E+00  0.00000000E+00  0.00000000E+00
  0.00000000E+00  0.00000000E+00  0.00000000E+00
  0.00000000E+00  0.00000000E+00  0.00000000E+00
  0.00000000E+00  0.00000000E+00  0.00000000E+00
  0.00000000E+00  0.00000000E+00  0.00000000E+00
  0.00000000E+00  0.00000000E+00  0.00000000E+00
  0.00000000E+00  0.00000000E+00  0.00000000E+00
  0.00000000E+00  0.00000000E+00  0.00000000E+00
  0.00000000E+00  0.00000000E+00  0.00000000E+00
  0.00000000E+00  0.00000000E+00  0.00000000E+00
  0.00000000E+00  0.00000000E+00  0.00000000E+00
  0.00000000E+00  0.00000000E+00  0.00000000E+00
  0.00000000E+00  0.00000000E+00  0.00000000E+00
  0.00000000E+00  0.00000000E+00  0.00000000E+00
  0.00000000E+00  0.00000000E+00  0.00000000E+00
  0.00000000E+00  0.00000000E+00  0.00000000E+00
  0.00000000E+00  0.00000000E+00  0.00000000E+00
  0.00000000E+00  0.00000000E+00  0.00000000E+00
  0.00000000E+00  0.00000000E+00  0.00000000E+00
  0.00000000E+00  0.00000000E+00  0.00000000E+00
  0.00000000E+00  0.00000000E+00  0.00000000E+00
  0.00000000E+00  0.00000000E+00  0.00000000E+00
  0.00000000E+00  0.00000000E+00  0.00000000E+00
  0.00000000E+00  0.00000000E+00  0.00000000E+00
  0.00000000E+00  0.00000000E+00  0.00000000E+00
  0.00000000E+00  0.00000000E+00  0.00000000E+00
  0.00000000E+00  0.00000000E+00  0.00000000E+00
  0.00000000E+00  0.00000000E+00  0.00000000E+00
  0.00000000E+00  0.00000000E+00  0.00000000E+00
  0.00000000E+00  0.00000000E+00  0.00000000E+00
  0.00000000E+00  0.00000000E+00  0.00000000E+00
  0.00000000E+00  0.00000000E+00  0.00000000E+00
  0.00000000E+00  0.00000000E+00  0.00000000E+00
  0.00000000E+00  0.00000000E+00  0.00000000E+00
  0.00000000E+00  0.00000000E+00  0.00000000E+00
  0.00000000E+00  0.00000000E+00  0.00000000E+00
  0.00000000E+00  0.00000000E+00  0.00000000E+00
  0.00000000E+00  0.00000000E+00  0.00000000E+00
  0.00000000E+00  0.00000000E+00  0.00000000E+00
  0.00000000E+00  0.00000000E+00  0.00000000E+00
  0.00000000E+00  0.00000000E+00  0.00000000E+00
  0.00000000E+00  0.00000000E+00  0.00000000E+00
  0.00000000E+00  0.00000000E+00  0.00000000E+00
  0.00000000E+00  0.00000000E+00  0.00000000E+00
  0.00000000E+00  0.00000000E+00  0.00000000E+00
  0.00000000E+00  0.00000000E+00  0.00000000E+00
  0.00000000E+00  0.00000000E+00  0.00000000E+00
  0.00000000E+00  0.00000000E+00  0.00000000E+00
  0.00000000E+00  0.00000000E+00  0.00000000E+00
  0.00000000E+00  0.00000000E+00  0.00000000E+00
  0.00000000E+00  0.00000000E+00  0.00000000E+00
  0.00000000E+00  0.00000000E+00  0.00000000E+00
  0.00000000E+00  0.00000000E+00  0.00000000E+00
  0.00000000E+00  0.00000000E+00  0.00000000E+00
  0.00000000E+00  0.00000000E+00  0.00000000E+00
  0.00000000E+00  0.00000000E+00  0.00000000E+00
  0.00000000E+00  0.00000000E+00  0.00000000E+00
  0.00000000E+00  0.00000000E+00  0.00000000E+00
  0.00000000E+00  0.00000000E+00  0.00000000E+00
  0.00000000E+00  0.00000000E+00  0.00000000E+00
  0.00000000E+00  0.00000000E+00  0.00000000E+00
  0.00000000E+00  0.00000000E+00  0.00000000E+00
  0.00000000E+00  0.00000000E+00  0.00000000E+00
  0.00000000E+00  0.00000000E+00  0.00000000E+00
  0.00000000E+00  0.00000000E+00  0.00000000E+00
  0.00000000E+00  0.00000000E+00  0.00000000E+00
  0.00000000E+00  0.00000000E+00  0.00000000E+00
  0.00000000E+00  0.00000000E+00  0.00000000E+00
  0.00000000E+00  0.00000000E+00  0.00000000E+00
  0.00000000E+00  0.00000000E+00  0.00000000E+00
  0.00000000E+00  0.00000000E+00  0.00000000E+00
  0.00000000E+00  0.00000000E+00  0.00000000E+00
  0.00000000E+00  0.00000000E+00  0.00000000E+00
  0.00000000E+00  0.00000000E+00  0.00000000E+00
  0.00000000E+00  0.00000000E+00  0.00000000E+00
  0.00000000E+00  0.00000000E+00  0.00000000E+00
  0.00000000E+00  0.00000000E+00  0.00000000E+00
  0.00000000E+00  0.00000000E+00  0.00000000E+00
  0.00000000E+00  0.00000000E+00  0.00000000E+00
  0.00000000E+00  0.00000000E+00  0.00000000E+00
  0.00000000E+00  0.00000000E+00  0.00000000E+00
  0.00000000E+00  0.00000000E+00  0.00000000E+00
  0.00000000E+00  0.00000000E+00  0.00000000E+00
  0.00000000E+00  0.00000000E+00  0.00000000E+00
  0.00000000E+00  0.00000000E+00  0.00000000E+00
  0.00000000E+00  0.00000000E+00  0.00000000E+00
  0.00000000E+00  0.00000000E+00  0.00000000E+00
  0.00000000E+00  0.00000000E+00  0.00000000E+00
  0.00000000E+00  0.00000000E+00  0.00000000E+00
  0.00000000E+00  0.00000000E+00  0.00000000E+00
  0.00000000E+00  0.00000000E+00  0.00000000E+00
  0.00000000E+00  0.00000000E+00  0.00000000E+00
  0.00000000E+00  0.00000000E+00  0.00000000E+00
  0.00000000E+00  0.00000000E+00  0.00000000E+00
  0.00000000E+00  0.00000000E+00  0.00000000E+00
  0.00000000E+00  0.00000000E+00  0.00000000E+00
  0.00000000E+00  0.00000000E+00  0.00000000E+00
  0.00000000E+00  0.00000000E+00  0.00000000E+00
  0.00000000E+00  0.00000000E+00  0.00000000E+00
  0.00000000E+00  0.00000000E+00  0.00000000E+00
  0.00000000E+00  0.00000000E+00  0.00000000E+00