CuInSe2gb                               
   1.00000000000000     
     9.7266780392896699    0.0000000000000000    0.0000000000000000
     0.0000000000000000    8.4235502764570693    0.0000000000000000
     0.0000000000000000    0.0000000000000000   45.0000000000000000
   Fe   Mn
   281     7
Direct
  0.0577556931042001  0.7010143164549052  0.2113161541722573
  0.3159168957569568  0.7197634350852461  0.8756607732600247
  0.6881072315827917  0.9578692406655133  0.6114165283705926
  0.4380428434164266  0.4577940051438140  0.6113492472560872
  0.4357313282976910  0.2872931851824765  0.2556097835068076
  0.0610539713623507  0.3864719088352080  0.8339853003991816
  0.3114407420118453  0.8865642810551361  0.8340686845555796
  0.4386063594536944  0.6128174208740607  0.1660772149229343
  0.0643141635478733  0.2131154125268561  0.7443891822840105
  0.1824490087703512  0.4517515312771204  0.2113923546935409
  0.5637732474471313  0.2090663498998504  0.4778667365409668
  0.0638498117638594  0.8745270383328206  0.5667987743303941
  0.5653502077253755  0.2194165716695806  0.8755363188605871
  0.8103211503343900  0.5313796141585415  0.1247100765550889
  0.4329612395042794  0.9517886420140755  0.2112693479400164
  0.5639425158649863  0.3745900234996585  0.5667203044580876
  0.8118772428720625  0.0422907306017159  0.3885649488001238
  0.6861275008801497  0.7906316138812156  0.5221260772405225
  0.4387061106044001  0.4589748784277763  0.4778749723311035
  0.4387063987663091  0.9621916434241411  0.7444144110987804
  0.4387681917882496  0.6244405485268809  0.5667966819677049
  0.5672038454835321  0.8768812938596200  0.7001467971670312
  0.3110607747761447  0.0308973292998226  0.1242667524534883
  0.6868388779315351  0.9586156150714857  0.3443749894512146
  0.6877646145657059  0.7798724331563196  0.1245360253214771
  0.0577929134298618  0.3735835470114616  0.2997362746278934
  0.6888074451246275  0.4713169804473246  0.8754073309207763
  0.4330065320499185  0.4518216524046625  0.2113168544804442
  0.8111439091299338  0.3751743483173599  0.4331433632317360
  0.5630283913986802  0.7078988454525048  0.6114480442041638
  0.5628786955978662  0.5413976841157637  0.6556646863043446
  0.9360663135437745  0.1252371505213523  0.4331554006117442
  0.5605065185137250  0.5373235689829845  0.2554758923030299
  0.6865456588940101  0.4584088260607578  0.3441655057925118
  0.1877926412394482  0.6126582712019973  0.1662157324957621
  0.1922009269641315  0.7991516004530242  0.7886574128651308
  0.4423148564964841  0.1263320444749406  0.7003119841677475
  0.9326205218802459  0.6234382861810288  0.2997996060788546
  0.3151719189231921  0.2193617767506245  0.8755612537367101
  0.3136892213798733  0.8746000849626997  0.5667319214806268
  0.8153163482572043  0.2195448181685011  0.8755926437127575
  0.8129351326558428  0.5413982824254617  0.6556134706920638
  0.5604750512867889  0.5295271738802446  0.1245422001097240
  0.5673044233719337  0.0491114647787760  0.7888128417240061
  0.1861376185106325  0.2874979186321970  0.2555917139156004
  0.8110361848676501  0.8756735792158158  0.4331034984036986
  0.5672686188647382  0.3764430070605951  0.7004086796426767
  0.0611924622083205  0.0296448683884084  0.1246147671271217
  0.3128486107637273  0.5409823761772826  0.6555530250802551
  0.5617587562552111  0.2084144372607493  0.3443431991907158
  0.1880785606693934  0.9578431425530941  0.6114032263254692
  0.3076423099565462  0.3736349208942304  0.2997736901085334
  0.4380112538051970  0.7917505929250960  0.6556401823184532
  0.1921476970723093  0.2981269824888539  0.7887140278140659
  0.0639997159081575  0.3641183435729369  0.1661163088839046
  0.6925035978059864  0.6262758997807880  0.7002159838683023
  0.3117618003231646  0.5419385636885371  0.3885377849045873
  0.0651630933803694  0.7193908012031964  0.8757546707587240
  0.9365463906837463  0.6365880932924761  0.8341478739088403
  0.3178091711817626  0.5495565651357450  0.7888456752206570
  0.3073601646692948  0.2003898566133436  0.2112204048172248
  0.0637480603263331  0.7090296878177192  0.4779515119080446
  0.5574489967463535  0.2011324003381868  0.2113064942730845
  0.3142623598418815  0.2131204850114390  0.7443283749537490
  0.0669699235342052  0.3764383745317125  0.7002488634866584
  0.1864861395475420  0.6367971644306695  0.8339244507493021
  0.0671012743551102  0.0489901230858014  0.7888754451264137
  0.4389771834299332  0.1243799091673645  0.5667809375813762
  0.9381553168030867  0.2917431899324301  0.6555334460584640
  0.8072826819177253  0.2007664965899156  0.2112393740678840
  0.9327084501414531  0.9521264687947799  0.2114275536335773
  0.9388729397376890  0.6247273735593871  0.5667595015361857
  0.8112238330242191  0.3863602821545750  0.8340265515259099
  0.1915288122176159  0.6266658164254773  0.7002811752274412
  0.8112402754219270  0.8863548065848104  0.8341299825812175
  0.6884003701451051  0.2914333691244663  0.6556420918304391
  0.3132351455339959  0.2079578031853461  0.6114958888741773
  0.4385954375558554  0.4623349194089106  0.7443295839181611
  0.4368420614160863  0.7921322212241535  0.3886005673842571
  0.6882762756865045  0.9623890478172941  0.7445137890494581
  0.8071642662684620  0.7007197321668086  0.2112758856658247
  0.8129216300487986  0.7076036975972717  0.6113854564038648
  0.4367566903670617  0.7803015742203827  0.1243772832760571
  0.3136228498248250  0.7129340866644756  0.7444228267329028
  0.3173519815911256  0.0489861510564100  0.7888222246439559
  0.8121547605831799  0.5422797994349092  0.3885970671737412
  0.6863048492589510  0.2911090843972581  0.5221035179313754
  0.6923956425213375  0.7993712716062994  0.7888183259478057
  0.1861053527443076  0.7875565944315230  0.2555419158526822
  0.6883770616065213  0.1128935068643830  0.1662347719726774
  0.6885526861385385  0.9590558327703311  0.4779045068986429
  0.9368562558784140  0.9589412568804994  0.3442934160225032
  0.8112362200268455  0.0402588788894038  0.5220566505010192
  0.6856392988256241  0.6251208581195029  0.4331441915042612
  0.4368053298468389  0.4587433247959838  0.3443010349307133
  0.8137667899704560  0.2133895390356809  0.7443468625882440
  0.4391911300096908  0.9715224335309808  0.8754262366813945
  0.5638112309815410  0.8744599540377986  0.5667091170633838
  0.8109368343372662  0.0303148564199897  0.1243497847401248
  0.4327856948516915  0.6234497004240795  0.2998243952475041
  0.8151240294054438  0.7200606409146897  0.8756758416325729
  0.6883998147886280  0.4575915428292787  0.6113192579368284
  0.5610720208929245  0.3867178778786178  0.8339928612758910
  0.8075376870128185  0.3736394553132293  0.2997245515809756
  0.1869543428675756  0.2920157274341616  0.3885165145354620
  0.8167682312804891  0.5493115536848531  0.7889549491621972
  0.1864141394277595  0.7904320885437046  0.5221627482825761
  0.3077868895570130  0.8737035614850482  0.2997042320293906
  0.1824111873717893  0.9518923312388625  0.2114153304838071
  0.1895922766842239  0.4627989608930618  0.7442902154843423
  0.4360746074947879  0.2909185763687110  0.5220634038440882
  0.0619064891391276  0.7085237235968901  0.3443129291528195
  0.1885113812157343  0.7909734018392116  0.6556105676210086
  0.4419012067090453  0.7991703320269743  0.7886466961826719
  0.6856565680095769  0.1251647379222544  0.4331756410373484
  0.9361701760365528  0.7905552939965030  0.5221357641863926
  0.6885825671621292  0.6135747143625175  0.1661207491105103
  0.8118694751712882  0.7085102774079274  0.3443558096489879
  0.9387906258607602  0.4624848259277979  0.7442630616219709
  0.1870073367448486  0.4586301063173260  0.3442984156960096
  0.5674300014481078  0.5490046575303553  0.7889054314336192
  0.5640948241915380  0.3645207536401890  0.1658726307098252
  0.5618162558684042  0.7086032109047384  0.3443539341204652
  0.5577524760293148  0.3735457738900544  0.2998014393372198
  0.1886926189833728  0.4711314226385879  0.8755180417305093
  0.1883775564475939  0.1133515206225726  0.1662451835822358
  0.4422590505738197  0.2984536363688838  0.7887058704033081
  0.6860182589843147  0.7875854530865098  0.2555778204095220
  0.9370216411337687  0.1363137068029461  0.8340244819548313
  0.4385022677483910  0.9588130991676962  0.4778804823407605
  0.5653250588093495  0.7197850655763164  0.8756117640019365
  0.1884326895985400  0.4589857188035077  0.4778805504290051
  0.9365423070358471  0.2797623059807227  0.1248081074347874
  0.3117635966572353  0.0420488790161345  0.3885338476911197
  0.0629596790590722  0.0410251309049686  0.6556320012686451
  0.5611712110717608  0.3748359636113834  0.4331246818475120
  0.6879214277987353  0.4622088963713376  0.7443327879222683
  0.5640448266389203  0.2130191696850841  0.7443703723873958
  0.9422542302147212  0.1269258065820807  0.7002660939171673
  0.5631308183151114  0.0412251122231782  0.6556154375987880
  0.5613127364472128  0.5406165641593891  0.5220482162112002
  0.1827002765568271  0.1232553333367782  0.2996935153493714
  0.4381937284838092  0.1132270041588904  0.1661717914089163
  0.6826893319382717  0.6233774170160161  0.2997957771610257
  0.9327921311091497  0.1231443595085935  0.2997299073278782
  0.8137433680689975  0.3747975486183149  0.5668337490966914
  0.0577172095294535  0.8735205551766496  0.2997307924157597
  0.1887385896363130  0.6245646363627003  0.5668170538106558
  0.9414184000729617  0.7988040713493532  0.7887921929699566
  0.3116035905412299  0.3864463609077207  0.8340414213090658
  0.9392142228106117  0.4712882181469195  0.8754254191895906
  0.4368369926559292  0.6369278090316605  0.8339353785225015
  0.0619826294782460  0.2087619289805343  0.3443792815819588
  0.1887288331459741  0.9712805780225828  0.8754054437690416
  0.9364186492658662  0.7800018116071445  0.1244447287272576
  0.6868773161644434  0.7920624273483260  0.3885415532375555
  0.9379478339829080  0.7912936583049180  0.6556928835455300
  0.9381996151843600  0.1130395693678154  0.1662360283200660
  0.4378176785881189  0.2917028462642066  0.6556871113768532
  0.0577014287732357  0.2010849310694977  0.2112815209565112
  0.6824294941160438  0.9517646938829210  0.2115005579979545
  0.1825828799074703  0.6234633637038269  0.2997727372105191
  0.8169600779508011  0.8766606310581523  0.7002043534709822
  0.9422889994534579  0.6266948074367377  0.7003199359036468
  0.1916125052603712  0.1267098434065824  0.7002576536943221
  0.9388388330855667  0.4588048726807952  0.4779296085201544
  0.8131917540122651  0.2076288980269408  0.6114269712375641
  0.1863904723744884  0.6252665309710682  0.4331238075329119
  0.4326335472249612  0.1234024808090704  0.2997599541464588
  0.6824558194975855  0.1234429721833041  0.2997594710007628
  0.5616574924343504  0.5419347380113410  0.3885642475655214
  0.8118022518188214  0.2086606586053561  0.3444381200278084
  0.4390184429788414  0.4713145604454758  0.8753509484503267
  0.5613580757351619  0.8864677545811702  0.8341194859368389
  0.3137231172999874  0.2090267241829373  0.4778818789302458
  0.1886785818225350  0.9589062176038929  0.4778659905640018
  0.0614155302851195  0.8866618609533593  0.8340702810856322
  0.0614474760366336  0.5404832861026219  0.5220961718960269
  0.9386272528148069  0.9587874161003576  0.4778302485515257
  0.0630161458084844  0.7076862865558901  0.6113975332168932
  0.5611125433988925  0.0408603698258515  0.5220948595377289
  0.6920994640100349  0.2983896052990884  0.7886687474321522
  0.8139410012683131  0.3633998389908951  0.1660698233617670
  0.4360430316098483  0.1250321019643058  0.4331275070899939
  0.0636705595717736  0.2087186906198789  0.4778958968680834
  0.3130969593091045  0.0414397631545004  0.6556157592665238
  0.4362914904150345  0.7903776066050797  0.5220458801238145
  0.1869557586906304  0.1366606636192002  0.8339910078720392
  0.1860690470371216  0.2793135371080949  0.1244743035265259
  0.9369559841929769  0.4587713185086000  0.3442738085656867
  0.5649669408891399  0.8645133037270832  0.1659603034819532
  0.3074201344551170  0.7004949784758190  0.2111866995602278
  0.9371260437352320  0.6135971515793329  0.1662834109385418
  0.1880349415037297  0.4576491520587467  0.6113643920453224
  0.0672395256673047  0.8768471707126297  0.7001622702039698
  0.0629709421755367  0.5411603217931152  0.6556916057095024
  0.3104480109482019  0.5315369822274368  0.1241448452214738
  0.9367215300467269  0.7920874027628412  0.3885367881470652
  0.9417235391720832  0.2983709020123991  0.7887138503213225
  0.1878154554739181  0.2914476674431000  0.6556270797498605
  0.9381678947491600  0.9578131420003766  0.6114847446855620
  0.8138966842213764  0.7132386795485608  0.7445269837101881
  0.6859777507712858  0.2872980963213985  0.2555569498278367
  0.0643434005215106  0.7130236181069849  0.7443012913034980
  0.6822239498841973  0.4512784134577287  0.2113581055493684
  0.8135545329020525  0.2085956485224845  0.4778824616502544
  0.5636133917875304  0.7090687978975700  0.4779615394784887
  0.0637155700738585  0.8645551071097340  0.1660136006391325
  0.9363817436917357  0.2906513803213020  0.5221333824978063
  0.6876647362054177  0.7913333268562875  0.6556427044551064
  0.0611335463460541  0.8750991520869794  0.4331125799000077
  0.0654917358734119  0.2190433863570132  0.8756723948551218
  0.8130531225270099  0.0411567482570201  0.6555983164004575
  0.5610785175103007  0.0295319194967883  0.1245643549878801
  0.3110591197719837  0.3748442408299905  0.4331326949305923
  0.3138917385558886  0.3745601624229102  0.5667001699061062
  0.3136023842355956  0.7089818031873680  0.4779077021816641
  0.0612601898976966  0.0406499252695799  0.5220375148681433
  0.3163691265829778  0.8765328877854281  0.7002767083428812
  0.0607567985643366  0.5375231272144847  0.2555798305767980
  0.6868740386895751  0.1370253164429450  0.8340073503576537
  0.8108998210194701  0.0369613428756619  0.2556887337556759
  0.1865539976898709  0.1251204698091340  0.4331484762834120
  0.6925388955081931  0.1265524772650861  0.7002221952922598
  0.1861900296263704  0.2908727926764058  0.5221255208570015
  0.4356039279729544  0.7870643626335875  0.2556235081541389
  0.8107921440945512  0.5370867902958301  0.2555615491573279
  0.0630636161272824  0.2078378032107802  0.6113741469608626
  0.1867034729534116  0.7921088805282572  0.3885966465369152
  0.3112748424938481  0.5405892298539444  0.5220627241147906
  0.8169582372389654  0.3763310163802043  0.7002764499158417
  0.6866857421242019  0.2920071207565066  0.3885295534091442
  0.1888147671687438  0.1246198525994706  0.5667246437831348
  0.6888545846644388  0.9714039066092636  0.8753672629614723
  0.6887381564788060  0.1246095863225660  0.5667682870427841
  0.4369599237851031  0.9587621187902442  0.3443546185756100
  0.1891907545016832  0.9624358053317561  0.7444392195200082
  0.9356097041835717  0.7871266437256097  0.2556926207521867
  0.5611389276653819  0.8756247724458117  0.4331456416254594
  0.3109756558607371  0.8754484314703352  0.4331399349865350
  0.8111460370485104  0.5403094901618659  0.5220993345634889
  0.9326645405305776  0.4515506640133912  0.2114444800359837
  0.3106715690554406  0.5369625645446526  0.2555991144611674
  0.5615777857744007  0.0419341382030199  0.3885380925816370
  0.9380829098032948  0.4574750684304079  0.6114253363652572
  0.0617919543806461  0.0421569520716530  0.3885849381261650
  0.0617652512935393  0.5420433418361081  0.3885679853043946
  0.4369186240155492  0.2919555840503691  0.3885332423973845
  0.6887511511262178  0.4589337734207692  0.4779594781568666
  0.0640569675311656  0.3746713390467958  0.5667927276270760
  0.5573483717477757  0.7010454336290691  0.2112295109397638
  0.9357635046577968  0.2870954099815038  0.2556303228201669
  0.8168793611185033  0.0490331174735185  0.7888312844189315
  0.1868680063578538  0.9587269105434718  0.3443441164812751
  0.5577450185955839  0.8735238058311361  0.2997536479028144
  0.0612952536814282  0.3752607562232240  0.4330909165126219
  0.3118547048940722  0.7085018123755873  0.3443203970886600
  0.3118322552710767  0.2083433301346621  0.3443784860597104
  0.9387584189972452  0.1247052809977127  0.5667262882813372
  0.4379511808677765  0.9582400051306657  0.6113648126247151
  0.5606756869185285  0.0376707615041358  0.2555911378995343
  0.1873642651966014  0.7797038015037905  0.1244756190513784
  0.0608157561631076  0.0375514808361138  0.2556676673233596
  0.6888589684019734  0.6245063150685920  0.5668049454286190
  0.0611211134646718  0.5293682269830416  0.1245422650700705
  0.3112006681874286  0.0409148012281616  0.5220940481812855
  0.6872985202519442  0.2799930822880541  0.1247802941314167
  0.8135384067165621  0.7089871043539131  0.4779334973274087
  0.4369106033713984  0.1367147554385389  0.8337876378246240
  0.3168485443467082  0.3761964417263037  0.7002095618224849
  0.6870981682210415  0.6369751198983231  0.8339305678479288
  0.5638775926581484  0.7125962129535020  0.7444771055892968
  0.9366389315377012  0.2920372138942718  0.3885627270506503
  0.9390733513792000  0.9710228195899395  0.8754436682823834
  0.5631869681171084  0.2078564689739607  0.6114198199997931
  0.8138635778938956  0.8745415257285488  0.5667776407367701
  0.8077368084772910  0.8734126991956283  0.2997218725336409
  0.3106403732315416  0.0370563342776891  0.2557174742154328
  0.4369435027730719  0.2797581326555583  0.1243667802419607
  0.3129943246914637  0.7077264307776164  0.6113796215967316
  0.4357191207078671  0.6252242720201650  0.4331385422557220
  0.9361229523198445  0.6250272183743737  0.4331787914100761
  0.3150057777876323  0.8628671350480259  0.1656338913240372
  0.0674849221801704  0.5489449593505737  0.7886741311722847
  0.8149422521509612  0.8634071819724440  0.1656954597299897
  0.3146413863571684  0.3633366196038737  0.1656436458304341
  0.9380540231237395  0.9627781863746521  0.7445952560800501
  0.4428298390012803  0.6260943783635260  0.7002290139151226
 
  0.00000000E+00  0.00000000E+00  0.00000000E+00
  0.00000000E+00  0.00000000E+00  0.00000000E+00
  0.00000000E+00  0.00000000E+00  0.00000000E+00
  0.00000000E+00  0.00000000E+00  0.00000000E+00
  0.00000000E+00  0.00000000E+00  0.00000000E+00
  0.00000000E+00  0.00000000E+00  0.00000000E+00
  0.00000000E+00  0.00000000E+00  0.00000000E+00
  0.00000000E+00  0.00000000E+00  0.00000000E+00
  0.00000000E+00  0.00000000E+00  0.00000000E+00
  0.00000000E+00  0.00000000E+00  0.00000000E+00
  0.00000000E+00  0.00000000E+00  0.00000000E+00
  0.00000000E+00  0.00000000E+00  0.00000000E+00
  0.00000000E+00  0.00000000E+00  0.00000000E+00
  0.00000000E+00  0.00000000E+00  0.00000000E+00
  0.00000000E+00  0.00000000E+00  0.00000000E+00
  0.00000000E+00  0.00000000E+00  0.00000000E+00
  0.00000000E+00  0.00000000E+00  0.00000000E+00
  0.00000000E+00  0.00000000E+00  0.00000000E+00
  0.00000000E+00  0.00000000E+00  0.00000000E+00
  0.00000000E+00  0.00000000E+00  0.00000000E+00
  0.00000000E+00  0.00000000E+00  0.00000000E+00
  0.00000000E+00  0.00000000E+00  0.00000000E+00
  0.00000000E+00  0.00000000E+00  0.00000000E+00
  0.00000000E+00  0.00000000E+00  0.00000000E+00
  0.00000000E+00  0.00000000E+00  0.00000000E+00
  0.00000000E+00  0.00000000E+00  0.00000000E+00
  0.00000000E+00  0.00000000E+00  0.00000000E+00
  0.00000000E+00  0.00000000E+00  0.00000000E+00
  0.00000000E+00  0.00000000E+00  0.00000000E+00
  0.00000000E+00  0.00000000E+00  0.00000000E+00
  0.00000000E+00  0.00000000E+00  0.00000000E+00
  0.00000000E+00  0.00000000E+00  0.00000000E+00
  0.00000000E+00  0.00000000E+00  0.00000000E+00
  0.00000000E+00  0.00000000E+00  0.00000000E+00
  0.00000000E+00  0.00000000E+00  0.00000000E+00
  0.00000000E+00  0.00000000E+00  0.00000000E+00
  0.00000000E+00  0.00000000E+00  0.00000000E+00
  0.00000000E+00  0.00000000E+00  0.00000000E+00
  0.00000000E+00  0.00000000E+00  0.00000000E+00
  0.00000000E+00  0.00000000E+00  0.00000000E+00
  0.00000000E+00  0.00000000E+00  0.00000000E+00
  0.00000000E+00  0.00000000E+00  0.00000000E+00
  0.00000000E+00  0.00000000E+00  0.00000000E+00
  0.00000000E+00  0.00000000E+00  0.00000000E+00
  0.00000000E+00  0.00000000E+00  0.00000000E+00
  0.00000000E+00  0.00000000E+00  0.00000000E+00
  0.00000000E+00  0.00000000E+00  0.00000000E+00
  0.00000000E+00  0.00000000E+00  0.00000000E+00
  0.00000000E+00  0.00000000E+00  0.00000000E+00
  0.00000000E+00  0.00000000E+00  0.00000000E+00
  0.00000000E+00  0.00000000E+00  0.00000000E+00
  0.00000000E+00  0.00000000E+00  0.00000000E+00
  0.00000000E+00  0.00000000E+00  0.00000000E+00
  0.00000000E+00  0.00000000E+00  0.00000000E+00
  0.00000000E+00  0.00000000E+00  0.00000000E+00
  0.00000000E+00  0.00000000E+00  0.00000000E+00
  0.00000000E+00  0.00000000E+00  0.00000000E+00
  0.00000000E+00  0.00000000E+00  0.00000000E+00
  0.00000000E+00  0.00000000E+00  0.00000000E+00
  0.00000000E+00  0.00000000E+00  0.00000000E+00
  0.00000000E+00  0.00000000E+00  0.00000000E+00
  0.00000000E+00  0.00000000E+00  0.00000000E+00
  0.00000000E+00  0.00000000E+00  0.00000000E+00
  0.00000000E+00  0.00000000E+00  0.00000000E+00
  0.00000000E+00  0.00000000E+00  0.00000000E+00
  0.00000000E+00  0.00000000E+00  0.00000000E+00
  0.00000000E+00  0.00000000E+00  0.00000000E+00
  0.00000000E+00  0.00000000E+00  0.00000000E+00
  0.00000000E+00  0.00000000E+00  0.00000000E+00
  0.00000000E+00  0.00000000E+00  0.00000000E+00
  0.00000000E+00  0.00000000E+00  0.00000000E+00
  0.00000000E+00  0.00000000E+00  0.00000000E+00
  0.00000000E+00  0.00000000E+00  0.00000000E+00
  0.00000000E+00  0.00000000E+00  0.00000000E+00
  0.00000000E+00  0.00000000E+00  0.00000000E+00
  0.00000000E+00  0.00000000E+00  0.00000000E+00
  0.00000000E+00  0.00000000E+00  0.00000000E+00
  0.00000000E+00  0.00000000E+00  0.00000000E+00
  0.00000000E+00  0.00000000E+00  0.00000000E+00
  0.00000000E+00  0.00000000E+00  0.00000000E+00
  0.00000000E+00  0.00000000E+00  0.00000000E+00
  0.00000000E+00  0.00000000E+00  0.00000000E+00
  0.00000000E+00  0.00000000E+00  0.00000000E+00
  0.00000000E+00  0.00000000E+00  0.00000000E+00
  0.00000000E+00  0.00000000E+00  0.00000000E+00
  0.00000000E+00  0.00000000E+00  0.00000000E+00
  0.00000000E+00  0.00000000E+00  0.00000000E+00
  0.00000000E+00  0.00000000E+00  0.00000000E+00
  0.00000000E+00  0.00000000E+00  0.00000000E+00
  0.00000000E+00  0.00000000E+00  0.00000000E+00
  0.00000000E+00  0.00000000E+00  0.00000000E+00
  0.00000000E+00  0.00000000E+00  0.00000000E+00
  0.00000000E+00  0.00000000E+00  0.00000000E+00
  0.00000000E+00  0.00000000E+00  0.00000000E+00
  0.00000000E+00  0.00000000E+00  0.00000000E+00
  0.00000000E+00  0.00000000E+00  0.00000000E+00
  0.00000000E+00  0.00000000E+00  0.00000000E+00
  0.00000000E+00  0.00000000E+00  0.00000000E+00
  0.00000000E+00  0.00000000E+00  0.00000000E+00
  0.00000000E+00  0.00000000E+00  0.00000000E+00
  0.00000000E+00  0.00000000E+00  0.00000000E+00
  0.00000000E+00  0.00000000E+00  0.00000000E+00
  0.00000000E+00  0.00000000E+00  0.00000000E+00
  0.00000000E+00  0.00000000E+00  0.00000000E+00
  0.00000000E+00  0.00000000E+00  0.00000000E+00
  0.00000000E+00  0.00000000E+00  0.00000000E+00
  0.00000000E+00  0.00000000E+00  0.00000000E+00
  0.00000000E+00  0.00000000E+00  0.00000000E+00
  0.00000000E+00  0.00000000E+00  0.00000000E+00
  0.00000000E+00  0.00000000E+00  0.00000000E+00
  0.00000000E+00  0.00000000E+00  0.00000000E+00
  0.00000000E+00  0.00000000E+00  0.00000000E+00
  0.00000000E+00  0.00000000E+00  0.00000000E+00
  0.00000000E+00  0.00000000E+00  0.00000000E+00
  0.00000000E+00  0.00000000E+00  0.00000000E+00
  0.00000000E+00  0.00000000E+00  0.00000000E+00
  0.00000000E+00  0.00000000E+00  0.00000000E+00
  0.00000000E+00  0.00000000E+00  0.00000000E+00
  0.00000000E+00  0.00000000E+00  0.00000000E+00
  0.00000000E+00  0.00000000E+00  0.00000000E+00
  0.00000000E+00  0.00000000E+00  0.00000000E+00
  0.00000000E+00  0.00000000E+00  0.00000000E+00
  0.00000000E+00  0.00000000E+00  0.00000000E+00
  0.00000000E+00  0.00000000E+00  0.00000000E+00
  0.00000000E+00  0.00000000E+00  0.00000000E+00
  0.00000000E+00  0.00000000E+00  0.00000000E+00
  0.00000000E+00  0.00000000E+00  0.00000000E+00
  0.00000000E+00  0.00000000E+00  0.00000000E+00
  0.00000000E+00  0.00000000E+00  0.00000000E+00
  0.00000000E+00  0.00000000E+00  0.00000000E+00
  0.00000000E+00  0.00000000E+00  0.00000000E+00
  0.00000000E+00  0.00000000E+00  0.00000000E+00
  0.00000000E+00  0.00000000E+00  0.00000000E+00
  0.00000000E+00  0.00000000E+00  0.00000000E+00
  0.00000000E+00  0.00000000E+00  0.00000000E+00
  0.00000000E+00  0.00000000E+00  0.00000000E+00
  0.00000000E+00  0.00000000E+00  0.00000000E+00
  0.00000000E+00  0.00000000E+00  0.00000000E+00
  0.00000000E+00  0.00000000E+00  0.00000000E+00
  0.00000000E+00  0.00000000E+00  0.00000000E+00
  0.00000000E+00  0.00000000E+00  0.00000000E+00
  0.00000000E+00  0.00000000E+00  0.00000000E+00
  0.00000000E+00  0.00000000E+00  0.00000000E+00
  0.00000000E+00  0.00000000E+00  0.00000000E+00
  0.00000000E+00  0.00000000E+00  0.00000000E+00
  0.00000000E+00  0.00000000E+00  0.00000000E+00
  0.00000000E+00  0.00000000E+00  0.00000000E+00
  0.00000000E+00  0.00000000E+00  0.00000000E+00
  0.00000000E+00  0.00000000E+00  0.00000000E+00
  0.00000000E+00  0.00000000E+00  0.00000000E+00
  0.00000000E+00  0.00000000E+00  0.00000000E+00
  0.00000000E+00  0.00000000E+00  0.00000000E+00
  0.00000000E+00  0.00000000E+00  0.00000000E+00
  0.00000000E+00  0.00000000E+00  0.00000000E+00
  0.00000000E+00  0.00000000E+00  0.00000000E+00
  0.00000000E+00  0.00000000E+00  0.00000000E+00
  0.00000000E+00  0.00000000E+00  0.00000000E+00
  0.00000000E+00  0.00000000E+00  0.00000000E+00
  0.00000000E+00  0.00000000E+00  0.00000000E+00
  0.00000000E+00  0.00000000E+00  0.00000000E+00
  0.00000000E+00  0.00000000E+00  0.00000000E+00
  0.00000000E+00  0.00000000E+00  0.00000000E+00
  0.00000000E+00  0.00000000E+00  0.00000000E+00
  0.00000000E+00  0.00000000E+00  0.00000000E+00
  0.00000000E+00  0.00000000E+00  0.00000000E+00
  0.00000000E+00  0.00000000E+00  0.00000000E+00
  0.00000000E+00  0.00000000E+00  0.00000000E+00
  0.00000000E+00  0.00000000E+00  0.00000000E+00
  0.00000000E+00  0.00000000E+00  0.00000000E+00
  0.00000000E+00  0.00000000E+00  0.00000000E+00
  0.00000000E+00  0.00000000E+00  0.00000000E+00
  0.00000000E+00  0.00000000E+00  0.00000000E+00
  0.00000000E+00  0.00000000E+00  0.00000000E+00
  0.00000000E+00  0.00000000E+00  0.00000000E+00
  0.00000000E+00  0.00000000E+00  0.00000000E+00
  0.00000000E+00  0.00000000E+00  0.00000000E+00
  0.00000000E+00  0.00000000E+00  0.00000000E+00
  0.00000000E+00  0.00000000E+00  0.00000000E+00
  0.00000000E+00  0.00000000E+00  0.00000000E+00
  0.00000000E+00  0.00000000E+00  0.00000000E+00
  0.00000000E+00  0.00000000E+00  0.00000000E+00
  0.00000000E+00  0.00000000E+00  0.00000000E+00
  0.00000000E+00  0.00000000E+00  0.00000000E+00
  0.00000000E+00  0.00000000E+00  0.00000000E+00
  0.00000000E+00  0.00000000E+00  0.00000000E+00
  0.00000000E+00  0.00000000E+00  0.00000000E+00
  0.00000000E+00  0.00000000E+00  0.00000000E+00
  0.00000000E+00  0.00000000E+00  0.00000000E+00
  0.00000000E+00  0.00000000E+00  0.00000000E+00
  0.00000000E+00  0.00000000E+00  0.00000000E+00
  0.00000000E+00  0.00000000E+00  0.00000000E+00
  0.00000000E+00  0.00000000E+00  0.00000000E+00
  0.00000000E+00  0.00000000E+00  0.00000000E+00
  0.00000000E+00  0.00000000E+00  0.00000000E+00
  0.00000000E+00  0.00000000E+00  0.00000000E+00
  0.00000000E+00  0.00000000E+00  0.00000000E+00
  0.00000000E+00  0.00000000E+00  0.00000000E+00
  0.00000000E+00  0.00000000E+00  0.00000000E+00
  0.00000000E+00  0.00000000E+00  0.00000000E+00
  0.00000000E+00  0.00000000E+00  0.00000000E+00
  0.00000000E+00  0.00000000E+00  0.00000000E+00
  0.00000000E+00  0.00000000E+00  0.00000000E+00
  0.00000000E+00  0.00000000E+00  0.00000000E+00
  0.00000000E+00  0.00000000E+00  0.00000000E+00
  0.00000000E+00  0.00000000E+00  0.00000000E+00
  0.00000000E+00  0.00000000E+00  0.00000000E+00
  0.00000000E+00  0.00000000E+00  0.00000000E+00
  0.00000000E+00  0.00000000E+00  0.00000000E+00
  0.00000000E+00  0.00000000E+00  0.00000000E+00
  0.00000000E+00  0.00000000E+00  0.00000000E+00
  0.00000000E+00  0.00000000E+00  0.00000000E+00
  0.00000000E+00  0.00000000E+00  0.00000000E+00
  0.00000000E+00  0.00000000E+00  0.00000000E+00
  0.00000000E+00  0.00000000E+00  0.00000000E+00
  0.00000000E+00  0.00000000E+00  0.00000000E+00
  0.00000000E+00  0.00000000E+00  0.00000000E+00
  0.00000000E+00  0.00000000E+00  0.00000000E+00
  0.00000000E+00  0.00000000E+00  0.00000000E+00
  0.00000000E+00  0.00000000E+00  0.00000000E+00
  0.00000000E+00  0.00000000E+00  0.00000000E+00
  0.00000000E+00  0.00000000E+00  0.00000000E+00
  0.00000000E+00  0.00000000E+00  0.00000000E+00
  0.00000000E+00  0.00000000E+00  0.00000000E+00
  0.00000000E+00  0.00000000E+00  0.00000000E+00
  0.00000000E+00  0.00000000E+00  0.00000000E+00
  0.00000000E+00  0.00000000E+00  0.00000000E+00
  0.00000000E+00  0.00000000E+00  0.00000000E+00
  0.00000000E+00  0.00000000E+00  0.00000000E+00
  0.00000000E+00  0.00000000E+00  0.00000000E+00
  0.00000000E+00  0.00000000E+00  0.00000000E+00
  0.00000000E+00  0.00000000E+00  0.00000000E+00
  0.00000000E+00  0.00000000E+00  0.00000000E+00
  0.00000000E+00  0.00000000E+00  0.00000000E+00
  0.00000000E+00  0.00000000E+00  0.00000000E+00
  0.00000000E+00  0.00000000E+00  0.00000000E+00
  0.00000000E+00  0.00000000E+00  0.00000000E+00
  0.00000000E+00  0.00000000E+00  0.00000000E+00
  0.00000000E+00  0.00000000E+00  0.00000000E+00
  0.00000000E+00  0.00000000E+00  0.00000000E+00
  0.00000000E+00  0.00000000E+00  0.00000000E+00
  0.00000000E+00  0.00000000E+00  0.00000000E+00
  0.00000000E+00  0.00000000E+00  0.00000000E+00
  0.00000000E+00  0.00000000E+00  0.00000000E+00
  0.00000000E+00  0.00000000E+00  0.00000000E+00
  0.00000000E+00  0.00000000E+00  0.00000000E+00
  0.00000000E+00  0.00000000E+00  0.00000000E+00
  0.00000000E+00  0.00000000E+00  0.00000000E+00