CuInSe2gb                               
   1.00000000000000     
     9.7266780392896699    0.0000000000000000    0.0000000000000000
     0.0000000000000000    8.4235502764570693    0.0000000000000000
     0.0000000000000000    0.0000000000000000   45.0000000000000000
   Fe   Mn
   281     7
Direct
  0.0534962663214783  0.7014100722894843  0.2113486903542974
  0.3181678412410194  0.7238323335242067  0.8761357384182595
  0.6877350990202438  0.9581997475851548  0.6113673660568055
  0.4379230396079450  0.4581936745258165  0.6114730880890515
  0.4400634467453575  0.2882850736385634  0.2554322181313082
  0.0587597336920975  0.3884164890219306  0.8333962642740281
  0.3085954207066680  0.8877274777425396  0.8334921285836396
  0.4400808041248262  0.6098178766700856  0.1662675529347623
  0.0602595899702841  0.2124996199802068  0.7448175182427654
  0.1784426680759271  0.4512590499284873  0.2114357913251182
  0.5678527271145287  0.2106018410730255  0.4775181401257375
  0.0665509912959394  0.8750335344231331  0.5668704784005962
  0.5681942173311750  0.2238264751425355  0.8760804713832997
  0.8089441585732722  0.5279966143292457  0.1239241566665009
  0.4295976547197068  0.9510374753323946  0.2114305161510669
  0.5665168111236133  0.3749693320144967  0.5668584927661072
  0.8121098404122123  0.0419069647664029  0.3885369919865396
  0.6816766027779126  0.7889753500133150  0.5224965339003765
  0.4429551946346423  0.4605753929800925  0.4775079747117995
  0.4340674402467181  0.9623496383567258  0.7445199929310820
  0.4416226510494372  0.6249298170236335  0.5668568834384220
  0.5716190390829902  0.8760784341819172  0.7004345116532423
  0.3100428055661438  0.0280265012094039  0.1239678731326181
  0.6903366410513384  0.9592677805573050  0.3442007907978095
  0.6880883462783600  0.7825403560760973  0.1242464551154371
  0.0525062151297435  0.3737543170409079  0.2996952447841202
  0.6894749328098005  0.4674341376634769  0.8758882875300826
  0.4288152325907403  0.4513695930183280  0.2114322958100021
  0.8085244860045558  0.3750753729823014  0.4331259010349618
  0.5629399736511497  0.7081777272483158  0.6114969857955854
  0.5597115187013995  0.5407388643803853  0.6558180052317765
  0.9334340008021472  0.1249881834369568  0.4331135256759642
  0.5649641673265636  0.5378214126291277  0.2554148331643795
  0.6902556376565195  0.4592266671656139  0.3441765112786738
  0.1914871899233191  0.6114575218617198  0.1663997885190013
  0.1949994988014518  0.7992509023775438  0.7887460244885117
  0.4471022595644278  0.1259628163521607  0.7002154835406444
  0.9276272444271912  0.6235565661276313  0.2996761271562550
  0.3175302431313062  0.2230702547263990  0.8760588964068190
  0.3165336356207172  0.8747174801057993  0.5668306104413912
  0.8172528227983672  0.2234864497496920  0.8761169969027650
  0.8096603419496896  0.5408817510876295  0.6557964231062932
  0.5583966466103791  0.5264344579535960  0.1238511330546661
  0.5700565372575054  0.0494432088775277  0.7888769449290983
  0.1899436158894316  0.2880737847960834  0.2554416833582404
  0.8085452375945478  0.8749829834671385  0.4330721888669288
  0.5719196694564523  0.3760793870619358  0.7002802054881062
  0.0591836106779584  0.0277756156242441  0.1241001795387612
  0.3094023830979343  0.5407789688593796  0.6558266974323869
  0.5652463385021993  0.2093647748169794  0.3441070665527302
  0.1877530486217835  0.9582354677209830  0.6113624636958658
  0.3027111487507185  0.3739383081208427  0.2997497214678977
  0.4345585607349297  0.7903550691290475  0.6558941459036363
  0.1959504124144985  0.2982263268325284  0.7886600781740303
  0.0671696702151250  0.3632127732410136  0.1666590625694851
  0.6968718100367923  0.6262043503363083  0.7003686800028704
  0.3120372445932417  0.5418375140542466  0.3885876662342770
  0.0677525109975613  0.7228713802052653  0.8761110120349470
  0.9337133004171618  0.6375430697763143  0.8336810952646321
  0.3200692468170019  0.5495112170898625  0.7888186304606846
  0.3039297543120516  0.2010082472952007  0.2113170678860585
  0.0679566915177642  0.7106599973641815  0.4774591354699150
  0.5534576894913368  0.2011513735090626  0.2112789010091579
  0.3102655778165365  0.2116112939168647  0.7445869816636975
  0.0720887360559815  0.3761605278382735  0.7003365413390600
  0.1832463331465692  0.6375319472637488  0.8335158742499732
  0.0702912910701805  0.0491229421511648  0.7888538974064945
  0.4415051567957828  0.1249305870301425  0.5669369457391178
  0.9346941841273259  0.2906481785594698  0.6558114048285072
  0.8037982334232108  0.2011422992980287  0.2112663809266981
  0.9296220524274761  0.9510825092598141  0.2115219518173654
  0.9415361806735861  0.6249374058898327  0.5668595498582151
  0.8081859711871354  0.3876697739225960  0.8334674714402891
  0.1971566727412411  0.6258488026172800  0.7001776018595325
  0.8085969190626091  0.8877484768825652  0.8335022357828215
  0.6848450017547953  0.2906735364758019  0.6558987108598925
  0.3126101772128357  0.2079089945635706  0.6113196783787738
  0.4349927611634637  0.4626296784088618  0.7446962887119782
  0.4368276187627788  0.7915146261405217  0.3884589614917171
  0.6849706960539983  0.9626092353005613  0.7445577451943964
  0.8032473852371587  0.7011686164507523  0.2113089911105958
  0.8131122671319946  0.7083478811613516  0.6115047510249496
  0.4368650477858935  0.7839467916659726  0.1240931855069814
  0.3098861958284195  0.7117991701993751  0.7445744798895340
  0.3208686953103537  0.0492571538104982  0.7887420757276349
  0.8116201255439986  0.5414451420339254  0.3883983102837508
  0.6822815579515221  0.2882189079528592  0.5223539994362719
  0.6958254144388710  0.7990315817361876  0.7887759654726717
  0.1901181800027578  0.7880198043371267  0.2554435851089639
  0.6911732818930318  0.1117478160677246  0.1666168222950164
  0.6926014668334548  0.9606333662415117  0.4774887343493865
  0.9403961843382189  0.9594483022650810  0.3441326675811957
  0.8069278740976772  0.0390065977993394  0.5225320202561720
  0.6834442231448968  0.6249929296793464  0.4331112592471043
  0.4403237489598027  0.4592757536144255  0.3441740000841557
  0.8108857707943623  0.2113881315365239  0.7445837177628813
  0.4394983079466812  0.9674362132392648  0.8759059308336049
  0.5666474423601731  0.8748116795872821  0.5668064116627470
  0.8105685590083614  0.0281066372088419  0.1239545501221680
  0.4276348556954533  0.6238288276733975  0.2996935776320343
  0.8169374945483001  0.7229662950094735  0.8761858226672644
  0.6877132693023786  0.4579335796425158  0.6113329158556094
  0.5586205036474028  0.3876176170703160  0.8332920882646991
  0.8027655810258344  0.3735860748808166  0.2996437424328860
  0.1869772966152896  0.2917446999085456  0.3884583465279780
  0.8205065887222756  0.5492797904872401  0.7888540771695035
  0.1821752092013067  0.7890533378706764  0.5225497863660794
  0.3026883581375344  0.8739904039835464  0.2997438655930537
  0.1784676495650241  0.9512652553341012  0.2113984955541511
  0.1848175526804393  0.4623497126052733  0.7448016012815324
  0.4324567581136970  0.2885439413973243  0.5223074039568590
  0.0650539256047405  0.7092499734480956  0.3440299493042762
  0.1847837255372735  0.7904971802248539  0.6557839772947798
  0.4456379650713833  0.7988050391695096  0.7887021902658610
  0.6833312264193830  0.1249942460408965  0.4330631453436278
  0.9320760831693436  0.7884587730788030  0.5223701936074494
  0.6916497294225721  0.6123532596439861  0.1667312398637386
  0.8153893463667222  0.7092841970531785  0.3440882827104602
  0.9346457492671575  0.4625428856030873  0.7449077221191640
  0.1903151180820276  0.4593302778971440  0.3441841853155959
  0.5703783561652499  0.5494854619312022  0.7888578788172140
  0.5664314092433416  0.3628618008662819  0.1664917436923880
  0.5652162310127578  0.7094171545849370  0.3441092475578192
  0.5526172476066618  0.3738402133855572  0.2997390215257514
  0.1892523241614836  0.4674163127634610  0.8758715946821480
  0.1915428178091778  0.1119218509701496  0.1665535679488908
  0.4450258956484684  0.2983683211568160  0.7887371025964600
  0.6899257169007637  0.7880968221758442  0.2554542921116099
  0.9336456725027620  0.1375089077601620  0.8335284543968126
  0.4428033802096742  0.9607760861953069  0.4774650455210157
  0.5675597210103890  0.7241983805595498  0.8760952008029446
  0.1927565685645900  0.4608352824788656  0.4774609005461299
  0.9348399317733178  0.2827698404934029  0.1242353728973399
  0.3121499423341846  0.0418805153907417  0.3885838094188704
  0.0597581443475023  0.0405578260541482  0.6558945778350609
  0.5584492682142611  0.3749336452362166  0.4331077179736717
  0.6844496944224174  0.4626439525484187  0.7449418664339817
  0.5603841799663009  0.2123502292250191  0.7446215707407539
  0.9471012397732621  0.1262808761075636  0.7003001307402448
  0.5596514850571089  0.0408531684090790  0.6557717508946425
  0.5568742002600424  0.5390948221694132  0.5225217056922453
  0.1777660983881741  0.1238758846120017  0.2997063591447092
  0.4404920961606605  0.1105860960175432  0.1665429422049662
  0.6776571991284153  0.6237591313552623  0.2996087346022715
  0.9276666020902768  0.1240148969745604  0.2998232155149019
  0.8165513657559327  0.3750511246659089  0.5669132314636096
  0.0526718433502162  0.8739182252833249  0.2997464793314686
  0.1916381075206042  0.6248808918931257  0.5668805367770738
  0.9454517317843086  0.7993954336096717  0.7887085530468561
  0.3083846522070706  0.3875205277362800  0.8334816076458945
  0.9392758389528817  0.4681785170869802  0.8758778353429717
  0.4337228896849074  0.6379147862122775  0.8335035389822596
  0.0651015731929404  0.2091837043051906  0.3440168099068036
  0.1895324473638043  0.9673469618040311  0.8760152154071642
  0.9353575871245245  0.7826386565418479  0.1241277625340501
  0.6869323519701224  0.7915497017040913  0.3885054857454320
  0.9346625430562987  0.7906063854194506  0.6558087809042791
  0.9406733943463834  0.1108685335268262  0.1666344309310453
  0.4349573116317688  0.2908694533722449  0.6560078113429866
  0.0539747455025759  0.2012138071750706  0.2113427912200826
  0.6785285043591560  0.9516607234861417  0.2114414330544082
  0.1777648178176760  0.6238408665777527  0.2996118721845784
  0.8219557635092288  0.8765480195265712  0.7003653884334289
  0.9470410040232777  0.6263108087505682  0.7003845735685780
  0.1968908408494368  0.1260990436693716  0.7001487605538022
  0.9429377543487885  0.4606899203784939  0.4774455878056783
  0.8127069016974684  0.2080951945880624  0.6113938727663976
  0.1833560235334149  0.6249686506181130  0.4331309761663397
  0.4277716818649843  0.1236924579002090  0.2996518628427816
  0.6778076505585683  0.1237019472803140  0.2996612376933616
  0.5620807267082388  0.5417702633082284  0.3885394374829884
  0.8150280120855650  0.2092371834094655  0.3440328872348329
  0.4393810279833054  0.4675265056004528  0.8758040788023902
  0.5585862224757431  0.8875216260977857  0.8333007984731250
  0.3177701366632190  0.2105833671436988  0.4774707921373352
  0.1927684583214574  0.9605837861325560  0.4775056352564745
  0.0583791527304124  0.8875919402772501  0.8334722972351796
  0.0568248795607495  0.5390572613235520  0.5224743566407731
  0.9427038395692554  0.9604403504526640  0.4774563620254720
  0.0629722614764969  0.7081612626577410  0.6115019616200787
  0.5571474144272940  0.0386562191018765  0.5223613713521416
  0.6958087858917879  0.2986900464927274  0.7886853579607085
  0.8171942744865993  0.3620908989462495  0.1668050544759143
  0.4334271912955932  0.1250021540484232  0.4330924749213543
  0.0677946468946664  0.2106896883667004  0.4774619100950551
  0.3097287352279230  0.0406901784278905  0.6558255123756699
  0.4318087961734773  0.7888814216104088  0.5224899106870358
  0.1835594841174330  0.1376749381635623  0.8335112288133970
  0.1860750146050808  0.2829965957087096  0.1242677557852299
  0.9402630405413277  0.4593533817505492  0.3441834324383790
  0.5671367506940607  0.8631738411023754  0.1664673274008505
  0.3033391198287747  0.7007958113741010  0.2113233060448852
  0.9407599434468679  0.6117754818284104  0.1666503311215312
  0.1876361792019924  0.4580601419406930  0.6113571651652431
  0.0720446866806140  0.8764653194900407  0.7002310203086526
  0.0596705825708077  0.5405779110425135  0.6558681347573054
  0.3091732284058590  0.5270452095131628  0.1238413292366271
  0.9367833751665084  0.7915046869980501  0.3885185949734692
  0.9458324064869988  0.2981382668018595  0.7886413403302369
  0.1846566606541807  0.2905566895744063  0.6558251137129666
  0.9375117948673233  0.9578871621221904  0.6113723880208403
  0.8110392601090296  0.7113052999407842  0.7445775069944162
  0.6898967021018805  0.2879355466729923  0.2554522905167058
  0.0599026850837720  0.7119526332140306  0.7448595263046597
  0.6787323448841046  0.4511475197535429  0.2112929896493654
  0.8180498269069666  0.2108869904856494  0.4776164735655997
  0.5677116798535703  0.7105432178911698  0.4774760771318556
  0.0671391955200317  0.8633554062003995  0.1665725396761423
  0.9322281278696195  0.2882301436797060  0.5224297253161094
  0.6846183856263001  0.7904924566931514  0.6558123653963429
  0.0582977367737015  0.8747842536452463  0.4331300175267332
  0.0678435751996898  0.2227873761324189  0.8760552679880512
  0.8096966304095503  0.0406002388785372  0.6558411599491447
  0.5603096843336287  0.0281137610025824  0.1240567813675347
  0.3084336657351665  0.3749259328421439  0.4330542636862670
  0.3166058610265647  0.3748547943235021  0.5668624724630836
  0.3179101295472022  0.7106372211043560  0.4774198643367531
  0.0571339730275750  0.0383999237304268  0.5224625592577808
  0.3224007927373190  0.8761284118147327  0.7004130275682341
  0.0649657871399906  0.5374805359638365  0.2553107840825150
  0.6835219315921951  0.1376158460314878  0.8335025035990763
  0.8145363436883548  0.0374823557593199  0.2554065343626140
  0.1835189355694598  0.1250231522143167  0.4331066617063792
  0.6974736002030058  0.1264417958141920  0.7003104671918421
  0.1823379216210887  0.2883988885109042  0.5223686795791251
  0.4400457910737604  0.7880574894164427  0.2554487315329295
  0.8145811983778781  0.5377552159244514  0.2554889898311418
  0.0628413538588891  0.2081061073548487  0.6113631669153855
  0.1864972326038395  0.7913338248508764  0.3884011570051353
  0.3070441043077636  0.5386219261070628  0.5224558953584006
  0.8216653008278314  0.3760339075071937  0.7001208814336817
  0.6869797555034324  0.2917457713773026  0.3885017195564334
  0.1916355537741176  0.1249280186724479  0.5668780049664542
  0.6897186168109397  0.9682566497352960  0.8760611819046602
  0.6916087991392528  0.1249981029798681  0.5668863176819375
  0.4402663979957324  0.9593061147238374  0.3441695655527432
  0.1839218609945996  0.9626307986180096  0.7445608616877361
  0.9401377715298685  0.7879730431041174  0.2554518433651734
  0.5585081908475367  0.8749932348144499  0.4331230561700537
  0.3083979836585189  0.8750855414909676  0.4331061801540009
  0.8072123484531587  0.5391909890539949  0.5225344299345802
  0.9287114088733480  0.4514903868203335  0.2113964518255794
  0.3147097240150175  0.5379759014318600  0.2554673659781175
  0.5623406329575811  0.0419793804314663  0.3886369331791675
  0.9378967607671022  0.4581588137818708  0.6114729885644762
  0.0620518858359173  0.0418097542433750  0.3885381592247422
  0.0619783167240150  0.5416266309327099  0.3884701164692780
  0.4368782957987148  0.2915581081254692  0.3884936969995195
  0.6928837518382931  0.4606965137407218  0.4774578422926896
  0.0666611800535147  0.3749700240461185  0.5668810920721442
  0.5535480616549815  0.7010870523691696  0.2112557659334433
  0.9402013392784078  0.2879730378485753  0.2554553872149511
  0.8197998886378622  0.0495216201070205  0.7889216352503009
  0.1902863173247461  0.9592767980337850  0.3441709920125685
  0.5526444422508321  0.8738160249312891  0.2998009397353895
  0.0583313334766333  0.3750329217972322  0.4331056166532022
  0.3152371006431680  0.7094112136932733  0.3441577342576349
  0.3151913864521620  0.2093906221821282  0.3441127393833573
  0.9417453552170763  0.1249546693522526  0.5667501362884226
  0.4379445618791893  0.9584322210837933  0.6114345837786743
  0.5648809068387539  0.0375554810079338  0.2553386428694911
  0.1867094519783513  0.7832412549080593  0.1242964232552655
  0.0649728395905173  0.0374676064871800  0.2552602393781194
  0.6916249426712148  0.6249635877031228  0.5668725907661560
  0.0570952572696851  0.5262018749817996  0.1242229434309825
  0.3070626760361031  0.0385743507831133  0.5223246813992294
  0.6870116970309869  0.2828861315608637  0.1242460101599032
  0.8177473005729556  0.7107562593161671  0.4774711230284182
  0.4336010572768533  0.1378703797677929  0.8334010428028613
  0.3225142544673978  0.3762097114622626  0.7002078325351048
  0.6835601567815776  0.6377122471452485  0.8334856991385556
  0.5603691126112693  0.7115490563017679  0.7446009350616367
  0.9372099778211955  0.2918456824894715  0.3885952383779062
  0.9396515035521021  0.9681387246119876  0.8761145999162495
  0.5627682383971115  0.2080558229793666  0.6112381753228169
  0.8165955634990210  0.8749512565401167  0.5668723963914257
  0.8026500247140227  0.8738982293841787  0.2997761571670722
  0.3148731565386153  0.0377575237086363  0.2551950789919349
  0.4354438080443604  0.2835440545011359  0.1238820608539398
  0.3130535305598646  0.7083821019562428  0.6114946584074251
  0.4333543125014560  0.6250203656527824  0.4331171017625479
  0.9324058137886315  0.6253537891747517  0.4333050723401486
  0.3182065123947135  0.8626587623105462  0.1658673694990226
  0.0715860709216459  0.5491253936995557  0.7886297181377878
  0.8181690648844054  0.8624663576123820  0.1660624279106460
  0.3181097323046636  0.3630242114260550  0.1657734813932840
  0.9336734983906181  0.9624056978106970  0.7444993040551994
  0.4474863426313320  0.6265106617908616  0.7002427811727227
 
  0.00000000E+00  0.00000000E+00  0.00000000E+00
  0.00000000E+00  0.00000000E+00  0.00000000E+00
  0.00000000E+00  0.00000000E+00  0.00000000E+00
  0.00000000E+00  0.00000000E+00  0.00000000E+00
  0.00000000E+00  0.00000000E+00  0.00000000E+00
  0.00000000E+00  0.00000000E+00  0.00000000E+00
  0.00000000E+00  0.00000000E+00  0.00000000E+00
  0.00000000E+00  0.00000000E+00  0.00000000E+00
  0.00000000E+00  0.00000000E+00  0.00000000E+00
  0.00000000E+00  0.00000000E+00  0.00000000E+00
  0.00000000E+00  0.00000000E+00  0.00000000E+00
  0.00000000E+00  0.00000000E+00  0.00000000E+00
  0.00000000E+00  0.00000000E+00  0.00000000E+00
  0.00000000E+00  0.00000000E+00  0.00000000E+00
  0.00000000E+00  0.00000000E+00  0.00000000E+00
  0.00000000E+00  0.00000000E+00  0.00000000E+00
  0.00000000E+00  0.00000000E+00  0.00000000E+00
  0.00000000E+00  0.00000000E+00  0.00000000E+00
  0.00000000E+00  0.00000000E+00  0.00000000E+00
  0.00000000E+00  0.00000000E+00  0.00000000E+00
  0.00000000E+00  0.00000000E+00  0.00000000E+00
  0.00000000E+00  0.00000000E+00  0.00000000E+00
  0.00000000E+00  0.00000000E+00  0.00000000E+00
  0.00000000E+00  0.00000000E+00  0.00000000E+00
  0.00000000E+00  0.00000000E+00  0.00000000E+00
  0.00000000E+00  0.00000000E+00  0.00000000E+00
  0.00000000E+00  0.00000000E+00  0.00000000E+00
  0.00000000E+00  0.00000000E+00  0.00000000E+00
  0.00000000E+00  0.00000000E+00  0.00000000E+00
  0.00000000E+00  0.00000000E+00  0.00000000E+00
  0.00000000E+00  0.00000000E+00  0.00000000E+00
  0.00000000E+00  0.00000000E+00  0.00000000E+00
  0.00000000E+00  0.00000000E+00  0.00000000E+00
  0.00000000E+00  0.00000000E+00  0.00000000E+00
  0.00000000E+00  0.00000000E+00  0.00000000E+00
  0.00000000E+00  0.00000000E+00  0.00000000E+00
  0.00000000E+00  0.00000000E+00  0.00000000E+00
  0.00000000E+00  0.00000000E+00  0.00000000E+00
  0.00000000E+00  0.00000000E+00  0.00000000E+00
  0.00000000E+00  0.00000000E+00  0.00000000E+00
  0.00000000E+00  0.00000000E+00  0.00000000E+00
  0.00000000E+00  0.00000000E+00  0.00000000E+00
  0.00000000E+00  0.00000000E+00  0.00000000E+00
  0.00000000E+00  0.00000000E+00  0.00000000E+00
  0.00000000E+00  0.00000000E+00  0.00000000E+00
  0.00000000E+00  0.00000000E+00  0.00000000E+00
  0.00000000E+00  0.00000000E+00  0.00000000E+00
  0.00000000E+00  0.00000000E+00  0.00000000E+00
  0.00000000E+00  0.00000000E+00  0.00000000E+00
  0.00000000E+00  0.00000000E+00  0.00000000E+00
  0.00000000E+00  0.00000000E+00  0.00000000E+00
  0.00000000E+00  0.00000000E+00  0.00000000E+00
  0.00000000E+00  0.00000000E+00  0.00000000E+00
  0.00000000E+00  0.00000000E+00  0.00000000E+00
  0.00000000E+00  0.00000000E+00  0.00000000E+00
  0.00000000E+00  0.00000000E+00  0.00000000E+00
  0.00000000E+00  0.00000000E+00  0.00000000E+00
  0.00000000E+00  0.00000000E+00  0.00000000E+00
  0.00000000E+00  0.00000000E+00  0.00000000E+00
  0.00000000E+00  0.00000000E+00  0.00000000E+00
  0.00000000E+00  0.00000000E+00  0.00000000E+00
  0.00000000E+00  0.00000000E+00  0.00000000E+00
  0.00000000E+00  0.00000000E+00  0.00000000E+00
  0.00000000E+00  0.00000000E+00  0.00000000E+00
  0.00000000E+00  0.00000000E+00  0.00000000E+00
  0.00000000E+00  0.00000000E+00  0.00000000E+00
  0.00000000E+00  0.00000000E+00  0.00000000E+00
  0.00000000E+00  0.00000000E+00  0.00000000E+00
  0.00000000E+00  0.00000000E+00  0.00000000E+00
  0.00000000E+00  0.00000000E+00  0.00000000E+00
  0.00000000E+00  0.00000000E+00  0.00000000E+00
  0.00000000E+00  0.00000000E+00  0.00000000E+00
  0.00000000E+00  0.00000000E+00  0.00000000E+00
  0.00000000E+00  0.00000000E+00  0.00000000E+00
  0.00000000E+00  0.00000000E+00  0.00000000E+00
  0.00000000E+00  0.00000000E+00  0.00000000E+00
  0.00000000E+00  0.00000000E+00  0.00000000E+00
  0.00000000E+00  0.00000000E+00  0.00000000E+00
  0.00000000E+00  0.00000000E+00  0.00000000E+00
  0.00000000E+00  0.00000000E+00  0.00000000E+00
  0.00000000E+00  0.00000000E+00  0.00000000E+00
  0.00000000E+00  0.00000000E+00  0.00000000E+00
  0.00000000E+00  0.00000000E+00  0.00000000E+00
  0.00000000E+00  0.00000000E+00  0.00000000E+00
  0.00000000E+00  0.00000000E+00  0.00000000E+00
  0.00000000E+00  0.00000000E+00  0.00000000E+00
  0.00000000E+00  0.00000000E+00  0.00000000E+00
  0.00000000E+00  0.00000000E+00  0.00000000E+00
  0.00000000E+00  0.00000000E+00  0.00000000E+00
  0.00000000E+00  0.00000000E+00  0.00000000E+00
  0.00000000E+00  0.00000000E+00  0.00000000E+00
  0.00000000E+00  0.00000000E+00  0.00000000E+00
  0.00000000E+00  0.00000000E+00  0.00000000E+00
  0.00000000E+00  0.00000000E+00  0.00000000E+00
  0.00000000E+00  0.00000000E+00  0.00000000E+00
  0.00000000E+00  0.00000000E+00  0.00000000E+00
  0.00000000E+00  0.00000000E+00  0.00000000E+00
  0.00000000E+00  0.00000000E+00  0.00000000E+00
  0.00000000E+00  0.00000000E+00  0.00000000E+00
  0.00000000E+00  0.00000000E+00  0.00000000E+00
  0.00000000E+00  0.00000000E+00  0.00000000E+00
  0.00000000E+00  0.00000000E+00  0.00000000E+00
  0.00000000E+00  0.00000000E+00  0.00000000E+00
  0.00000000E+00  0.00000000E+00  0.00000000E+00
  0.00000000E+00  0.00000000E+00  0.00000000E+00
  0.00000000E+00  0.00000000E+00  0.00000000E+00
  0.00000000E+00  0.00000000E+00  0.00000000E+00
  0.00000000E+00  0.00000000E+00  0.00000000E+00
  0.00000000E+00  0.00000000E+00  0.00000000E+00
  0.00000000E+00  0.00000000E+00  0.00000000E+00
  0.00000000E+00  0.00000000E+00  0.00000000E+00
  0.00000000E+00  0.00000000E+00  0.00000000E+00
  0.00000000E+00  0.00000000E+00  0.00000000E+00
  0.00000000E+00  0.00000000E+00  0.00000000E+00
  0.00000000E+00  0.00000000E+00  0.00000000E+00
  0.00000000E+00  0.00000000E+00  0.00000000E+00
  0.00000000E+00  0.00000000E+00  0.00000000E+00
  0.00000000E+00  0.00000000E+00  0.00000000E+00
  0.00000000E+00  0.00000000E+00  0.00000000E+00
  0.00000000E+00  0.00000000E+00  0.00000000E+00
  0.00000000E+00  0.00000000E+00  0.00000000E+00
  0.00000000E+00  0.00000000E+00  0.00000000E+00
  0.00000000E+00  0.00000000E+00  0.00000000E+00
  0.00000000E+00  0.00000000E+00  0.00000000E+00
  0.00000000E+00  0.00000000E+00  0.00000000E+00
  0.00000000E+00  0.00000000E+00  0.00000000E+00
  0.00000000E+00  0.00000000E+00  0.00000000E+00
  0.00000000E+00  0.00000000E+00  0.00000000E+00
  0.00000000E+00  0.00000000E+00  0.00000000E+00
  0.00000000E+00  0.00000000E+00  0.00000000E+00
  0.00000000E+00  0.00000000E+00  0.00000000E+00
  0.00000000E+00  0.00000000E+00  0.00000000E+00
  0.00000000E+00  0.00000000E+00  0.00000000E+00
  0.00000000E+00  0.00000000E+00  0.00000000E+00
  0.00000000E+00  0.00000000E+00  0.00000000E+00
  0.00000000E+00  0.00000000E+00  0.00000000E+00
  0.00000000E+00  0.00000000E+00  0.00000000E+00
  0.00000000E+00  0.00000000E+00  0.00000000E+00
  0.00000000E+00  0.00000000E+00  0.00000000E+00
  0.00000000E+00  0.00000000E+00  0.00000000E+00
  0.00000000E+00  0.00000000E+00  0.00000000E+00
  0.00000000E+00  0.00000000E+00  0.00000000E+00
  0.00000000E+00  0.00000000E+00  0.00000000E+00
  0.00000000E+00  0.00000000E+00  0.00000000E+00
  0.00000000E+00  0.00000000E+00  0.00000000E+00
  0.00000000E+00  0.00000000E+00  0.00000000E+00
  0.00000000E+00  0.00000000E+00  0.00000000E+00
  0.00000000E+00  0.00000000E+00  0.00000000E+00
  0.00000000E+00  0.00000000E+00  0.00000000E+00
  0.00000000E+00  0.00000000E+00  0.00000000E+00
  0.00000000E+00  0.00000000E+00  0.00000000E+00
  0.00000000E+00  0.00000000E+00  0.00000000E+00
  0.00000000E+00  0.00000000E+00  0.00000000E+00
  0.00000000E+00  0.00000000E+00  0.00000000E+00
  0.00000000E+00  0.00000000E+00  0.00000000E+00
  0.00000000E+00  0.00000000E+00  0.00000000E+00
  0.00000000E+00  0.00000000E+00  0.00000000E+00
  0.00000000E+00  0.00000000E+00  0.00000000E+00
  0.00000000E+00  0.00000000E+00  0.00000000E+00
  0.00000000E+00  0.00000000E+00  0.00000000E+00
  0.00000000E+00  0.00000000E+00  0.00000000E+00
  0.00000000E+00  0.00000000E+00  0.00000000E+00
  0.00000000E+00  0.00000000E+00  0.00000000E+00
  0.00000000E+00  0.00000000E+00  0.00000000E+00
  0.00000000E+00  0.00000000E+00  0.00000000E+00
  0.00000000E+00  0.00000000E+00  0.00000000E+00
  0.00000000E+00  0.00000000E+00  0.00000000E+00
  0.00000000E+00  0.00000000E+00  0.00000000E+00
  0.00000000E+00  0.00000000E+00  0.00000000E+00
  0.00000000E+00  0.00000000E+00  0.00000000E+00
  0.00000000E+00  0.00000000E+00  0.00000000E+00
  0.00000000E+00  0.00000000E+00  0.00000000E+00
  0.00000000E+00  0.00000000E+00  0.00000000E+00
  0.00000000E+00  0.00000000E+00  0.00000000E+00
  0.00000000E+00  0.00000000E+00  0.00000000E+00
  0.00000000E+00  0.00000000E+00  0.00000000E+00
  0.00000000E+00  0.00000000E+00  0.00000000E+00
  0.00000000E+00  0.00000000E+00  0.00000000E+00
  0.00000000E+00  0.00000000E+00  0.00000000E+00
  0.00000000E+00  0.00000000E+00  0.00000000E+00
  0.00000000E+00  0.00000000E+00  0.00000000E+00
  0.00000000E+00  0.00000000E+00  0.00000000E+00
  0.00000000E+00  0.00000000E+00  0.00000000E+00
  0.00000000E+00  0.00000000E+00  0.00000000E+00
  0.00000000E+00  0.00000000E+00  0.00000000E+00
  0.00000000E+00  0.00000000E+00  0.00000000E+00
  0.00000000E+00  0.00000000E+00  0.00000000E+00
  0.00000000E+00  0.00000000E+00  0.00000000E+00
  0.00000000E+00  0.00000000E+00  0.00000000E+00
  0.00000000E+00  0.00000000E+00  0.00000000E+00
  0.00000000E+00  0.00000000E+00  0.00000000E+00
  0.00000000E+00  0.00000000E+00  0.00000000E+00
  0.00000000E+00  0.00000000E+00  0.00000000E+00
  0.00000000E+00  0.00000000E+00  0.00000000E+00
  0.00000000E+00  0.00000000E+00  0.00000000E+00
  0.00000000E+00  0.00000000E+00  0.00000000E+00
  0.00000000E+00  0.00000000E+00  0.00000000E+00
  0.00000000E+00  0.00000000E+00  0.00000000E+00
  0.00000000E+00  0.00000000E+00  0.00000000E+00
  0.00000000E+00  0.00000000E+00  0.00000000E+00
  0.00000000E+00  0.00000000E+00  0.00000000E+00
  0.00000000E+00  0.00000000E+00  0.00000000E+00
  0.00000000E+00  0.00000000E+00  0.00000000E+00
  0.00000000E+00  0.00000000E+00  0.00000000E+00
  0.00000000E+00  0.00000000E+00  0.00000000E+00
  0.00000000E+00  0.00000000E+00  0.00000000E+00
  0.00000000E+00  0.00000000E+00  0.00000000E+00
  0.00000000E+00  0.00000000E+00  0.00000000E+00
  0.00000000E+00  0.00000000E+00  0.00000000E+00
  0.00000000E+00  0.00000000E+00  0.00000000E+00
  0.00000000E+00  0.00000000E+00  0.00000000E+00
  0.00000000E+00  0.00000000E+00  0.00000000E+00
  0.00000000E+00  0.00000000E+00  0.00000000E+00
  0.00000000E+00  0.00000000E+00  0.00000000E+00
  0.00000000E+00  0.00000000E+00  0.00000000E+00
  0.00000000E+00  0.00000000E+00  0.00000000E+00
  0.00000000E+00  0.00000000E+00  0.00000000E+00
  0.00000000E+00  0.00000000E+00  0.00000000E+00
  0.00000000E+00  0.00000000E+00  0.00000000E+00
  0.00000000E+00  0.00000000E+00  0.00000000E+00
  0.00000000E+00  0.00000000E+00  0.00000000E+00
  0.00000000E+00  0.00000000E+00  0.00000000E+00
  0.00000000E+00  0.00000000E+00  0.00000000E+00
  0.00000000E+00  0.00000000E+00  0.00000000E+00
  0.00000000E+00  0.00000000E+00  0.00000000E+00
  0.00000000E+00  0.00000000E+00  0.00000000E+00
  0.00000000E+00  0.00000000E+00  0.00000000E+00
  0.00000000E+00  0.00000000E+00  0.00000000E+00
  0.00000000E+00  0.00000000E+00  0.00000000E+00
  0.00000000E+00  0.00000000E+00  0.00000000E+00
  0.00000000E+00  0.00000000E+00  0.00000000E+00
  0.00000000E+00  0.00000000E+00  0.00000000E+00
  0.00000000E+00  0.00000000E+00  0.00000000E+00
  0.00000000E+00  0.00000000E+00  0.00000000E+00
  0.00000000E+00  0.00000000E+00  0.00000000E+00
  0.00000000E+00  0.00000000E+00  0.00000000E+00
  0.00000000E+00  0.00000000E+00  0.00000000E+00
  0.00000000E+00  0.00000000E+00  0.00000000E+00
  0.00000000E+00  0.00000000E+00  0.00000000E+00
  0.00000000E+00  0.00000000E+00  0.00000000E+00
  0.00000000E+00  0.00000000E+00  0.00000000E+00
  0.00000000E+00  0.00000000E+00  0.00000000E+00
  0.00000000E+00  0.00000000E+00  0.00000000E+00
  0.00000000E+00  0.00000000E+00  0.00000000E+00
  0.00000000E+00  0.00000000E+00  0.00000000E+00
  0.00000000E+00  0.00000000E+00  0.00000000E+00
  0.00000000E+00  0.00000000E+00  0.00000000E+00