CuInSe2gb                               
   1.00000000000000     
     9.7266780392896699    0.0000000000000000    0.0000000000000000
     0.0000000000000000    8.4235502764570693    0.0000000000000000
     0.0000000000000000    0.0000000000000000   45.0000000000000000
   Fe   Mn
   274    14
Direct
  0.0617478705550833  0.0329099783346112  0.1240602355615057
  0.3146961745389500  0.8740707889945134  0.6552325116501712
  0.1864237386056783  0.1235464601575725  0.7888685933288093
  0.4404094425271775  0.2879537219753784  0.3895567390998946
  0.3153278982274684  0.7107056152048078  0.8334044722626809
  0.8160289357808048  0.2118136631742962  0.8336910789607347
  0.1894880299233662  0.9615540706472732  0.8335914342108166
  0.5619861207442510  0.2067395360863020  0.5656333735790128
  0.0651551696912570  0.0408443733901624  0.7445344907182398
  0.8111460227118997  0.8721691076740699  0.5214817595148512
  0.1901049649373840  0.2901706217264789  0.7445081327749017
  0.9352168865931220  0.4530601471805796  0.3451364982829712
  0.9403604787254839  0.2875311007670250  0.3895258957876211
  0.8129762724123881  0.0423084165243480  0.8754198847317958
  0.1852402260090961  0.7887025158547114  0.6107426256147332
  0.5651816565621599  0.0376366185752511  0.3895542581438223
  0.9414796348238917  0.9610314605963632  0.8336853053781639
  0.3141746424101739  0.5407948685553584  0.8757337351921626
  0.6890716331671307  0.2904870101097381  0.7445073664633931
  0.1838052488582090  0.6157452330005386  0.1659366713480700
  0.8120591752678100  0.2049105217478461  0.4783497717507831
  0.8101450641383787  0.5383641603642443  0.6107517307261562
  0.3122753205679356  0.8704757644646712  0.4345250853573528
  0.8114764127383548  0.0390933994652506  0.2553780604056584
  0.6854487727952925  0.9535305243779129  0.3451407540559587
  0.9323369454834572  0.1156901479928000  0.1662696774656075
  0.0622472686619796  0.8719800977658516  0.5214189227634980
  0.5596707020005586  0.5383682866268442  0.2553051712566980
  0.6876839899046472  0.7933466790231765  0.8755505703922205
  0.5573446364763527  0.3667270362039794  0.1657348377212422
  0.4388987411285565  0.7909849655546769  0.7446510799251200
  0.8121178165114539  0.7068545258038874  0.5656053787325294
  0.5606536236509987  0.8735774608562792  0.7888436602497261
  0.6866618667385805  0.1217092144543233  0.5214253512641371
  0.8147159224168392  0.3736076974396866  0.6552334850346121
  0.9411646448634570  0.4619878751725977  0.8336963887454452
  0.0612206724022039  0.2074570680212222  0.7002084648174990
  0.4355416128710670  0.9578026018882622  0.7001961908903531
  0.3147587092042483  0.2109451131967634  0.8336703268476617
  0.4392397919251245  0.6238762144966222  0.6551478218345788
  0.3098391829895616  0.5384562557029785  0.6107987805672468
  0.9372896038947601  0.4563769489155951  0.5657451300441275
  0.6895755628449264  0.7909128487721644  0.7445437337338916
  0.9344386624154973  0.7854996022251887  0.1241552185842633
  0.6907489976125080  0.7876927019635018  0.3895606070271510
  0.9399455341854145  0.7908060173705909  0.7444666090400108
  0.0603928277647540  0.2036702075394638  0.3452079302562507
  0.6857959450484582  0.4527546805097738  0.3452044843416643
  0.4357280892826470  0.1236352520074822  0.7889184682411353
  0.0639457296641400  0.2046002057485537  0.2111598901369865
  0.0562915054897008  0.3665540316424793  0.1660348814412718
  0.9358982368563141  0.7884504330314194  0.2552676332690574
  0.5608747058840670  0.2076730722539575  0.7002093481456517
  0.6860122221309896  0.9578190814720285  0.7002284230346849
  0.8112305418386305  0.8735056665921233  0.7888579648320926
  0.4368289655323246  0.9568146135418574  0.5655915007589380
  0.8111536192624293  0.3730954075756887  0.7888285115350828
  0.6857265067908356  0.2891910594339649  0.2554647857030704
  0.1868849031453248  0.4565760799798961  0.5656701921805053
  0.0578687081109119  0.8661353504818255  0.1661751849973949
  0.1855377953175565  0.2888284704940868  0.6108664392070944
  0.0619766623649670  0.2068629043600868  0.5656443682772623
  0.3110458294381197  0.2079806931255810  0.7001583529890394
  0.5644879919001645  0.5416701952102171  0.8757441925335160
  0.0619053786771437  0.7063807584031145  0.5656494522075189
  0.6857231725762032  0.6224383603200776  0.7888931047259637
  0.3150851054711849  0.5375902511972205  0.3895977222321900
  0.1874266545111501  0.6219072090878814  0.5215086529093903
  0.5622439044092046  0.8703939979257006  0.4344097490633672
  0.4365986108562762  0.4567768599378387  0.5655472120080416
  0.4393856984159341  0.2906988275093552  0.7445330611139285
  0.8178179595093938  0.8742947362678026  0.3000911358303521
  0.8106673892366805  0.7034014729817939  0.3452794353389022
  0.4403620844947724  0.4605633120226809  0.8336916766727347
  0.6873244078169419  0.9548592578094131  0.4783684395059464
  0.6856940354400216  0.4568602304488479  0.7002869044784497
  0.5618159117842882  0.8719287588999451  0.5213218790683060
  0.5644354946383006  0.3735470480572174  0.6551417144668610
  0.8148758955665780  0.8745996014800906  0.6552177497876541
  0.8123177014996562  0.3709221760034432  0.4342365930444694
  0.8106178438214454  0.5377603942454705  0.2554590595670217
  0.6906763531156627  0.4608499377058949  0.8336266573124068
  0.1859671034923433  0.7852114328337316  0.1239778489302640
  0.6906874710884072  0.2879085622544773  0.3893983779942083
  0.3147803525216081  0.3740481206251722  0.6551498124293396
  0.3106237513626236  0.2038548544297673  0.3451993675489174
  0.8143700611662552  0.5400010454299831  0.7444620862059450
  0.6909078961729681  0.9611124579237067  0.8336663087600533
  0.5643673159650971  0.8741517617811654  0.6550962244409683
  0.3114769792590710  0.7067834636289627  0.5656220056495050
  0.3111735571380392  0.5332256129927129  0.1238541786803438
  0.6893641472207053  0.9556047123272172  0.2113724446853335
  0.3116775601951441  0.2066794514594755  0.5656526569995266
  0.1872567009969618  0.9550718931532493  0.4782589724908745
  0.6874132332853713  0.9568447392217749  0.5656975022476901
  0.4347020451762067  0.7887918136929213  0.6107366347870944
  0.6826927521290808  0.6142660499857868  0.1658647641738265
  0.3164319197882851  0.8731290613523014  0.2999968646105849
  0.3122769834426380  0.7052962666059420  0.4782490323959383
  0.9351892925297294  0.2885390343375521  0.6106720948431275
  0.4420717095417633  0.6233485528249013  0.3001299475868519
  0.8078562810238026  0.8653733384412152  0.1662520365475085
  0.5648842922406032  0.2040328688917472  0.2114764708874738
  0.9363402404642389  0.2933081498857915  0.8755584171506786
  0.4371246915431700  0.9545239142728119  0.4783495070590750
  0.5609119631927325  0.3724035971235042  0.7888706550586697
  0.0619312597976083  0.3724752269645092  0.5215165504955288
  0.3075845959213896  0.3652046561071218  0.1659123276436670
  0.6931953878342660  0.1237847849637583  0.3001853107458390
  0.4408233699057562  0.9611900788569118  0.8335586173554929
  0.1852035321869988  0.2842522445115124  0.1240858504263244
  0.1852596660033501  0.2887625712489549  0.2553970762458082
  0.3119137431061559  0.3710754984703132  0.4344277474348676
  0.5606581653764173  0.0347526465597991  0.1238473448494296
  0.4347510455119309  0.2887586556513215  0.6108393880524716
  0.1853726744381381  0.4536034993281550  0.3452628812940797
  0.4337917975902873  0.2838063376788926  0.1238784187849633
  0.6855438525488171  0.7882539794503651  0.2554650438187978
  0.4365635359658392  0.1225589523750241  0.5213492535587724
  0.1887568137814983  0.2923219712180058  0.8758289172452431
  0.1901400508683965  0.1243622471347139  0.6552639605659664
  0.9400287683956635  0.1244239626955312  0.6551746211383633
  0.8156193402457870  0.5379314858228168  0.3894628258766160
  0.0656232901806828  0.0385539705821182  0.3896552227438396
  0.1838271580176763  0.1147681404357335  0.1660614041822920
  0.0604477787331809  0.5383515450235762  0.6107131413379097
  0.9359912940315998  0.2886863132348806  0.2554265367336962
  0.5596161222549586  0.5385550800804132  0.6108151394052426
  0.9371326183808050  0.9569840415932436  0.5656274510185710
  0.6923765831293592  0.6233924639774501  0.3001388255621906
  0.9377128356472204  0.6209265217796271  0.4343078984924943
  0.9362624849857973  0.6234567931284553  0.7889559597449066
  0.5605963661441437  0.7069061664488800  0.7001436158800751
  0.0648880744616760  0.7124063656016800  0.8338232171407937
  0.9423573878630060  0.1237720181818294  0.2999716412812516
  0.9353469864403230  0.7886091752940603  0.6107236334485036
  0.4349952247161216  0.7881782577592186  0.2555851075644866
  0.3112408023792009  0.3723996292063478  0.7887826953953980
  0.4389223656188532  0.4547552507900932  0.2114117449509113
  0.1868706925602174  0.1220303923434099  0.5214365557863860
  0.8114214106312140  0.7073729435613435  0.7002554551884972
  0.0600537630895302  0.0390883021530078  0.6106652062365169
  0.5655971205859928  0.2115779056683564  0.8336836620906124
  0.3118157568688499  0.8716247684521444  0.5214189716261356
  0.6856855403038398  0.2842316609530633  0.1236968596741466
  0.1881826558708155  0.9560150259957246  0.2113655674867152
  0.6847186484705845  0.2886778105973248  0.6107833806639453
  0.3100497905178641  0.0389513413823108  0.6107902567553718
  0.9365136019617224  0.1242531144223869  0.7888642396737020
  0.4381116491956867  0.7928551721698208  0.8757649297091358
  0.8145311923983400  0.0413910830542965  0.7445103016611849
  0.9362924548080256  0.4573884963085295  0.7002655353372227
  0.1901857051045751  0.6243903552881420  0.6552672351867461
  0.3104953566259210  0.7071278086195425  0.7001632566999015
  0.9345395878595332  0.2848833318626670  0.1239326554652192
  0.4369699804158933  0.4551723171058702  0.4783225930118995
  0.0623956029599432  0.7048390509411281  0.4781771182141933
  0.9377172978912568  0.1203407237411501  0.4347107254761361
  0.4421983278971297  0.1241343658414979  0.3001614879834095
  0.1867901031597878  0.1204392816413888  0.4342891583315450
  0.5641682137154986  0.0425429913168339  0.8757311003257677
  0.1864450529750981  0.9569123306737575  0.5657059094475195
  0.6850198001241241  0.7862865600959411  0.1242422286133399
  0.5607740931541618  0.7031603389212482  0.3452315246365547
  0.3150192255869912  0.0376354981132767  0.3895758184351142
  0.6836254143873893  0.1161285874321601  0.1661140122435248
  0.8152827323577000  0.2047529507142728  0.2112588070347665
  0.0609839310258711  0.5384399123740511  0.2552799028049568
  0.5619647319790567  0.7053466925140031  0.4783205199371661
  0.4340638487377615  0.7857128148956258  0.1237477703750186
  0.5671373762034423  0.3735429961594814  0.3000535225536595
  0.4353621246285503  0.9535816146328591  0.3452928581596784
  0.1858054606253010  0.9576056768498098  0.7002180382792318
  0.4320496170453228  0.6152730578154252  0.1657824637931535
  0.9395351065371482  0.4539782402329069  0.2115897621910910
  0.0609001105749379  0.5323006775651542  0.1238842233421382
  0.8116435238300719  0.3723615550951401  0.5214451237812779
  0.9428813023261615  0.6236397442749806  0.2998535294365702
  0.3099559413278208  0.0380767679405812  0.2551543489072121
  0.6848327343775513  0.7888536859081270  0.6106681732964163
  0.1905044568599147  0.4614517619961218  0.8335014559680655
  0.4327951002415238  0.1146532998334168  0.1659766591307352
  0.3120179194036168  0.3724106568156406  0.5214348512303831
  0.4351987395034933  0.6224507653557599  0.7889747228371397
  0.0603088196263514  0.0384843895361170  0.2552916728007933
  0.5617289215503223  0.7070529736995854  0.5655973014269361
  0.9395834214684189  0.2900871024909250  0.7445233125248016
  0.6855069790144066  0.1239661194692067  0.7888661250308024
  0.1875050116821165  0.4542803887466412  0.2112464745043998
  0.9400362695435979  0.7875001463418247  0.3896177864008071
  0.6879435166189704  0.2956777103171814  0.8758441418472283
  0.5563563099672589  0.8660919083532232  0.1658430851252991
  0.4355875154127657  0.4571820088229852  0.7002083583377348
  0.9361705373238004  0.9527071957970477  0.3450909216378907
  0.6859461290961647  0.6222692718519950  0.5213400156571646
  0.0652946494364116  0.8744045373128746  0.6552896488409931
  0.0618542869202764  0.8735892376499307  0.7888574542504875
  0.0654026903644818  0.3738884790935257  0.6552055921265197
  0.6870987928563179  0.4550919218031921  0.4782999006458168
  0.1850090809414232  0.7884119225443298  0.2554508031446928
  0.4368123004268812  0.1205557254675484  0.4344947598567413
  0.8117296535326117  0.0345956516922404  0.1239858062484963
  0.9368997636311472  0.6218952292138868  0.5214678567953904
  0.4398360562193570  0.1245273832469155  0.6551535517180451
  0.8130402665431785  0.5327707679835877  0.1235572985948650
  0.4356525503553835  0.4536472837064380  0.3452170810615375
  0.8107485485292754  0.2034407342922635  0.3451138713938764
  0.3108769625250411  0.7028627164436112  0.3450887955834918
  0.6895548061342228  0.1244516669588726  0.6551868858934327
  0.5672868468976664  0.8731021477213735  0.3002238219096652
  0.0647635950823804  0.5400198681659664  0.7445059953006429
  0.9397445921974509  0.9553188858326860  0.2113036953736710
  0.8154122935793386  0.7043692294193105  0.2115669981680853
  0.0673090604474065  0.8736026599033383  0.3000440246979568
  0.1919047420465530  0.1241239753562327  0.2999648289630898
  0.0603606637941644  0.7030203027851156  0.3450450226299943
  0.8102847900479256  0.0391908847891055  0.6106507514721008
  0.0624435883431836  0.3707543795916688  0.4342942498418320
  0.5615685584501747  0.2037542890244132  0.3451896087542324
  0.8175914950589510  0.3732862616737727  0.3000396956005853
  0.5606195618058620  0.0389104378037438  0.2552095553486166
  0.5653081288833870  0.5378573122975471  0.3894996049273113
  0.0625382580624584  0.2046889200380215  0.4782911074636989
  0.3113776425643557  0.8730469701558221  0.7886021730003832
  0.9363765448054544  0.9578930638307387  0.7002080215406127
  0.0670540197234015  0.3743441997314059  0.3000109749194964
  0.6893490131862667  0.6239532359242963  0.6552105062585010
  0.6871221458667883  0.4567771133554555  0.5655425605423361
  0.4381420506139326  0.9567298771714107  0.2115792702790203
  0.3122459462400590  0.2047946059494045  0.4783086293909837
  0.8144390608150145  0.5420035888094237  0.8755649029511683
  0.6880299995290127  0.6206485696430200  0.4343506824377518
  0.8111542494887012  0.2075160859976067  0.7002500512868600
  0.8124125950814228  0.7051365844004707  0.4782535823417354
  0.8122725732814932  0.8704941213496888  0.4343927718440218
  0.9374013175500635  0.9548045230658193  0.4783233238957976
  0.5620565594725496  0.2046026829356004  0.4784000297128000
  0.1869929958646727  0.6204410796277383  0.4344131619703563
  0.3143125154307244  0.0416123665305958  0.7445111311345813
  0.9403655779209953  0.6242307098627361  0.6551893934043383
  0.5651066353006784  0.7104234096679141  0.8336137089625391
  0.3170511379889849  0.3739992068948975  0.3000350054901330
  0.3143066287940379  0.5398517659897928  0.7445891421784915
  0.1873614360094942  0.4553205762857067  0.4782846224264759
  0.3150513420098761  0.0431436968654014  0.8756368230920386
  0.1859201840724735  0.4578651352571301  0.7002093352391027
  0.5613305916801835  0.3724888528166683  0.5213902455433742
  0.1895427020573416  0.2878814127506475  0.3896133527966748
  0.3138520516065111  0.2047948467609180  0.2112839320584819
  0.0649503084363829  0.7043647504842665  0.2114949486084884
  0.5620782284405007  0.3709508085503599  0.4344554639931988
  0.4366095414273979  0.6222293186433661  0.5212747921818310
  0.8163381759441936  0.7116372730615415  0.8336380054231191
  0.0619715614475487  0.3734723163467802  0.7888067517500639
  0.4384195860407050  0.2944559256726223  0.8759467269342197
  0.3116762146526378  0.0330060276998305  0.1236919556066059
  0.6880407279864756  0.1203165779583367  0.4344275590862076
  0.1851459637505126  0.9535179644761583  0.3451540765578130
  0.0656033169560024  0.2110487634150548  0.8336850171425362
  0.5598708622690654  0.0390173138451485  0.6107218751604191
  0.6894714852841887  0.4551389532071147  0.2116448743714419
  0.1894414115557284  0.7907873656997126  0.7444827366656188
  0.1918680423987415  0.6235910046723772  0.3000461041390798
  0.4408232786390869  0.7876194381768262  0.3896682545873899
  0.4350099488851059  0.2897469401214515  0.2553916748790683
  0.0629843301168522  0.5414986539800744  0.8754818695238594
  0.5643182304742975  0.0418172064865183  0.7445835732387979
  0.1872184226117115  0.7932554530483932  0.8756646983399979
  0.9373149062432701  0.4549891492789123  0.4781834345332200
  0.5642180906860241  0.5399407314298960  0.7445404313604348
  0.8120229638068801  0.2069684986097590  0.5656815604112782
  0.1866637303827685  0.6228778298085085  0.7888578004560574
  0.0657559993726115  0.5382094611405771  0.3896578336132861
  0.0613239823071490  0.7079433058157257  0.7001823540618404
  0.3098224878528292  0.5379653430287267  0.2550889274343094
  0.3127476833981946  0.7049704867866089  0.2115796264837694
  0.3065065757071559  0.8669999891146309  0.1654660967515537
  0.4362408033471940  0.6209595830720832  0.4344589687538601
  0.8169813167719936  0.0381474669110728  0.3895906587975830
  0.9338729074666959  0.6138996441821063  0.1658663177607705
  0.9383514231955806  0.7921466242238216  0.8751748196800627
  0.0646511588725661  0.0403595852691094  0.8752650739837484
  0.5615647860497541  0.5322079087309269  0.1239783399806412
  0.8069084736168460  0.3654386182062483  0.1656840240588873
  0.0616929839342913  0.8714195470039977  0.4344540661908017
  0.9367740848334472  0.1222034400461104  0.5214140450758531
  0.1904490829789197  0.7875981102403143  0.3896466193212813
  0.5657486512239596  0.7045329617252414  0.2115365618535557
 
  0.00000000E+00  0.00000000E+00  0.00000000E+00
  0.00000000E+00  0.00000000E+00  0.00000000E+00
  0.00000000E+00  0.00000000E+00  0.00000000E+00
  0.00000000E+00  0.00000000E+00  0.00000000E+00
  0.00000000E+00  0.00000000E+00  0.00000000E+00
  0.00000000E+00  0.00000000E+00  0.00000000E+00
  0.00000000E+00  0.00000000E+00  0.00000000E+00
  0.00000000E+00  0.00000000E+00  0.00000000E+00
  0.00000000E+00  0.00000000E+00  0.00000000E+00
  0.00000000E+00  0.00000000E+00  0.00000000E+00
  0.00000000E+00  0.00000000E+00  0.00000000E+00
  0.00000000E+00  0.00000000E+00  0.00000000E+00
  0.00000000E+00  0.00000000E+00  0.00000000E+00
  0.00000000E+00  0.00000000E+00  0.00000000E+00
  0.00000000E+00  0.00000000E+00  0.00000000E+00
  0.00000000E+00  0.00000000E+00  0.00000000E+00
  0.00000000E+00  0.00000000E+00  0.00000000E+00
  0.00000000E+00  0.00000000E+00  0.00000000E+00
  0.00000000E+00  0.00000000E+00  0.00000000E+00
  0.00000000E+00  0.00000000E+00  0.00000000E+00
  0.00000000E+00  0.00000000E+00  0.00000000E+00
  0.00000000E+00  0.00000000E+00  0.00000000E+00
  0.00000000E+00  0.00000000E+00  0.00000000E+00
  0.00000000E+00  0.00000000E+00  0.00000000E+00
  0.00000000E+00  0.00000000E+00  0.00000000E+00
  0.00000000E+00  0.00000000E+00  0.00000000E+00
  0.00000000E+00  0.00000000E+00  0.00000000E+00
  0.00000000E+00  0.00000000E+00  0.00000000E+00
  0.00000000E+00  0.00000000E+00  0.00000000E+00
  0.00000000E+00  0.00000000E+00  0.00000000E+00
  0.00000000E+00  0.00000000E+00  0.00000000E+00
  0.00000000E+00  0.00000000E+00  0.00000000E+00
  0.00000000E+00  0.00000000E+00  0.00000000E+00
  0.00000000E+00  0.00000000E+00  0.00000000E+00
  0.00000000E+00  0.00000000E+00  0.00000000E+00
  0.00000000E+00  0.00000000E+00  0.00000000E+00
  0.00000000E+00  0.00000000E+00  0.00000000E+00
  0.00000000E+00  0.00000000E+00  0.00000000E+00
  0.00000000E+00  0.00000000E+00  0.00000000E+00
  0.00000000E+00  0.00000000E+00  0.00000000E+00
  0.00000000E+00  0.00000000E+00  0.00000000E+00
  0.00000000E+00  0.00000000E+00  0.00000000E+00
  0.00000000E+00  0.00000000E+00  0.00000000E+00
  0.00000000E+00  0.00000000E+00  0.00000000E+00
  0.00000000E+00  0.00000000E+00  0.00000000E+00
  0.00000000E+00  0.00000000E+00  0.00000000E+00
  0.00000000E+00  0.00000000E+00  0.00000000E+00
  0.00000000E+00  0.00000000E+00  0.00000000E+00
  0.00000000E+00  0.00000000E+00  0.00000000E+00
  0.00000000E+00  0.00000000E+00  0.00000000E+00
  0.00000000E+00  0.00000000E+00  0.00000000E+00
  0.00000000E+00  0.00000000E+00  0.00000000E+00
  0.00000000E+00  0.00000000E+00  0.00000000E+00
  0.00000000E+00  0.00000000E+00  0.00000000E+00
  0.00000000E+00  0.00000000E+00  0.00000000E+00
  0.00000000E+00  0.00000000E+00  0.00000000E+00
  0.00000000E+00  0.00000000E+00  0.00000000E+00
  0.00000000E+00  0.00000000E+00  0.00000000E+00
  0.00000000E+00  0.00000000E+00  0.00000000E+00
  0.00000000E+00  0.00000000E+00  0.00000000E+00
  0.00000000E+00  0.00000000E+00  0.00000000E+00
  0.00000000E+00  0.00000000E+00  0.00000000E+00
  0.00000000E+00  0.00000000E+00  0.00000000E+00
  0.00000000E+00  0.00000000E+00  0.00000000E+00
  0.00000000E+00  0.00000000E+00  0.00000000E+00
  0.00000000E+00  0.00000000E+00  0.00000000E+00
  0.00000000E+00  0.00000000E+00  0.00000000E+00
  0.00000000E+00  0.00000000E+00  0.00000000E+00
  0.00000000E+00  0.00000000E+00  0.00000000E+00
  0.00000000E+00  0.00000000E+00  0.00000000E+00
  0.00000000E+00  0.00000000E+00  0.00000000E+00
  0.00000000E+00  0.00000000E+00  0.00000000E+00
  0.00000000E+00  0.00000000E+00  0.00000000E+00
  0.00000000E+00  0.00000000E+00  0.00000000E+00
  0.00000000E+00  0.00000000E+00  0.00000000E+00
  0.00000000E+00  0.00000000E+00  0.00000000E+00
  0.00000000E+00  0.00000000E+00  0.00000000E+00
  0.00000000E+00  0.00000000E+00  0.00000000E+00
  0.00000000E+00  0.00000000E+00  0.00000000E+00
  0.00000000E+00  0.00000000E+00  0.00000000E+00
  0.00000000E+00  0.00000000E+00  0.00000000E+00
  0.00000000E+00  0.00000000E+00  0.00000000E+00
  0.00000000E+00  0.00000000E+00  0.00000000E+00
  0.00000000E+00  0.00000000E+00  0.00000000E+00
  0.00000000E+00  0.00000000E+00  0.00000000E+00
  0.00000000E+00  0.00000000E+00  0.00000000E+00
  0.00000000E+00  0.00000000E+00  0.00000000E+00
  0.00000000E+00  0.00000000E+00  0.00000000E+00
  0.00000000E+00  0.00000000E+00  0.00000000E+00
  0.00000000E+00  0.00000000E+00  0.00000000E+00
  0.00000000E+00  0.00000000E+00  0.00000000E+00
  0.00000000E+00  0.00000000E+00  0.00000000E+00
  0.00000000E+00  0.00000000E+00  0.00000000E+00
  0.00000000E+00  0.00000000E+00  0.00000000E+00
  0.00000000E+00  0.00000000E+00  0.00000000E+00
  0.00000000E+00  0.00000000E+00  0.00000000E+00
  0.00000000E+00  0.00000000E+00  0.00000000E+00
  0.00000000E+00  0.00000000E+00  0.00000000E+00
  0.00000000E+00  0.00000000E+00  0.00000000E+00
  0.00000000E+00  0.00000000E+00  0.00000000E+00
  0.00000000E+00  0.00000000E+00  0.00000000E+00
  0.00000000E+00  0.00000000E+00  0.00000000E+00
  0.00000000E+00  0.00000000E+00  0.00000000E+00
  0.00000000E+00  0.00000000E+00  0.00000000E+00
  0.00000000E+00  0.00000000E+00  0.00000000E+00
  0.00000000E+00  0.00000000E+00  0.00000000E+00
  0.00000000E+00  0.00000000E+00  0.00000000E+00
  0.00000000E+00  0.00000000E+00  0.00000000E+00
  0.00000000E+00  0.00000000E+00  0.00000000E+00
  0.00000000E+00  0.00000000E+00  0.00000000E+00
  0.00000000E+00  0.00000000E+00  0.00000000E+00
  0.00000000E+00  0.00000000E+00  0.00000000E+00
  0.00000000E+00  0.00000000E+00  0.00000000E+00
  0.00000000E+00  0.00000000E+00  0.00000000E+00
  0.00000000E+00  0.00000000E+00  0.00000000E+00
  0.00000000E+00  0.00000000E+00  0.00000000E+00
  0.00000000E+00  0.00000000E+00  0.00000000E+00
  0.00000000E+00  0.00000000E+00  0.00000000E+00
  0.00000000E+00  0.00000000E+00  0.00000000E+00
  0.00000000E+00  0.00000000E+00  0.00000000E+00
  0.00000000E+00  0.00000000E+00  0.00000000E+00
  0.00000000E+00  0.00000000E+00  0.00000000E+00
  0.00000000E+00  0.00000000E+00  0.00000000E+00
  0.00000000E+00  0.00000000E+00  0.00000000E+00
  0.00000000E+00  0.00000000E+00  0.00000000E+00
  0.00000000E+00  0.00000000E+00  0.00000000E+00
  0.00000000E+00  0.00000000E+00  0.00000000E+00
  0.00000000E+00  0.00000000E+00  0.00000000E+00
  0.00000000E+00  0.00000000E+00  0.00000000E+00
  0.00000000E+00  0.00000000E+00  0.00000000E+00
  0.00000000E+00  0.00000000E+00  0.00000000E+00
  0.00000000E+00  0.00000000E+00  0.00000000E+00
  0.00000000E+00  0.00000000E+00  0.00000000E+00
  0.00000000E+00  0.00000000E+00  0.00000000E+00
  0.00000000E+00  0.00000000E+00  0.00000000E+00
  0.00000000E+00  0.00000000E+00  0.00000000E+00
  0.00000000E+00  0.00000000E+00  0.00000000E+00
  0.00000000E+00  0.00000000E+00  0.00000000E+00
  0.00000000E+00  0.00000000E+00  0.00000000E+00
  0.00000000E+00  0.00000000E+00  0.00000000E+00
  0.00000000E+00  0.00000000E+00  0.00000000E+00
  0.00000000E+00  0.00000000E+00  0.00000000E+00
  0.00000000E+00  0.00000000E+00  0.00000000E+00
  0.00000000E+00  0.00000000E+00  0.00000000E+00
  0.00000000E+00  0.00000000E+00  0.00000000E+00
  0.00000000E+00  0.00000000E+00  0.00000000E+00
  0.00000000E+00  0.00000000E+00  0.00000000E+00
  0.00000000E+00  0.00000000E+00  0.00000000E+00
  0.00000000E+00  0.00000000E+00  0.00000000E+00
  0.00000000E+00  0.00000000E+00  0.00000000E+00
  0.00000000E+00  0.00000000E+00  0.00000000E+00
  0.00000000E+00  0.00000000E+00  0.00000000E+00
  0.00000000E+00  0.00000000E+00  0.00000000E+00
  0.00000000E+00  0.00000000E+00  0.00000000E+00
  0.00000000E+00  0.00000000E+00  0.00000000E+00
  0.00000000E+00  0.00000000E+00  0.00000000E+00
  0.00000000E+00  0.00000000E+00  0.00000000E+00
  0.00000000E+00  0.00000000E+00  0.00000000E+00
  0.00000000E+00  0.00000000E+00  0.00000000E+00
  0.00000000E+00  0.00000000E+00  0.00000000E+00
  0.00000000E+00  0.00000000E+00  0.00000000E+00
  0.00000000E+00  0.00000000E+00  0.00000000E+00
  0.00000000E+00  0.00000000E+00  0.00000000E+00
  0.00000000E+00  0.00000000E+00  0.00000000E+00
  0.00000000E+00  0.00000000E+00  0.00000000E+00
  0.00000000E+00  0.00000000E+00  0.00000000E+00
  0.00000000E+00  0.00000000E+00  0.00000000E+00
  0.00000000E+00  0.00000000E+00  0.00000000E+00
  0.00000000E+00  0.00000000E+00  0.00000000E+00
  0.00000000E+00  0.00000000E+00  0.00000000E+00
  0.00000000E+00  0.00000000E+00  0.00000000E+00
  0.00000000E+00  0.00000000E+00  0.00000000E+00
  0.00000000E+00  0.00000000E+00  0.00000000E+00
  0.00000000E+00  0.00000000E+00  0.00000000E+00
  0.00000000E+00  0.00000000E+00  0.00000000E+00
  0.00000000E+00  0.00000000E+00  0.00000000E+00
  0.00000000E+00  0.00000000E+00  0.00000000E+00
  0.00000000E+00  0.00000000E+00  0.00000000E+00
  0.00000000E+00  0.00000000E+00  0.00000000E+00
  0.00000000E+00  0.00000000E+00  0.00000000E+00
  0.00000000E+00  0.00000000E+00  0.00000000E+00
  0.00000000E+00  0.00000000E+00  0.00000000E+00
  0.00000000E+00  0.00000000E+00  0.00000000E+00
  0.00000000E+00  0.00000000E+00  0.00000000E+00
  0.00000000E+00  0.00000000E+00  0.00000000E+00
  0.00000000E+00  0.00000000E+00  0.00000000E+00
  0.00000000E+00  0.00000000E+00  0.00000000E+00
  0.00000000E+00  0.00000000E+00  0.00000000E+00
  0.00000000E+00  0.00000000E+00  0.00000000E+00
  0.00000000E+00  0.00000000E+00  0.00000000E+00
  0.00000000E+00  0.00000000E+00  0.00000000E+00
  0.00000000E+00  0.00000000E+00  0.00000000E+00
  0.00000000E+00  0.00000000E+00  0.00000000E+00
  0.00000000E+00  0.00000000E+00  0.00000000E+00
  0.00000000E+00  0.00000000E+00  0.00000000E+00
  0.00000000E+00  0.00000000E+00  0.00000000E+00
  0.00000000E+00  0.00000000E+00  0.00000000E+00
  0.00000000E+00  0.00000000E+00  0.00000000E+00
  0.00000000E+00  0.00000000E+00  0.00000000E+00
  0.00000000E+00  0.00000000E+00  0.00000000E+00
  0.00000000E+00  0.00000000E+00  0.00000000E+00
  0.00000000E+00  0.00000000E+00  0.00000000E+00
  0.00000000E+00  0.00000000E+00  0.00000000E+00
  0.00000000E+00  0.00000000E+00  0.00000000E+00
  0.00000000E+00  0.00000000E+00  0.00000000E+00
  0.00000000E+00  0.00000000E+00  0.00000000E+00
  0.00000000E+00  0.00000000E+00  0.00000000E+00
  0.00000000E+00  0.00000000E+00  0.00000000E+00
  0.00000000E+00  0.00000000E+00  0.00000000E+00
  0.00000000E+00  0.00000000E+00  0.00000000E+00
  0.00000000E+00  0.00000000E+00  0.00000000E+00
  0.00000000E+00  0.00000000E+00  0.00000000E+00
  0.00000000E+00  0.00000000E+00  0.00000000E+00
  0.00000000E+00  0.00000000E+00  0.00000000E+00
  0.00000000E+00  0.00000000E+00  0.00000000E+00
  0.00000000E+00  0.00000000E+00  0.00000000E+00
  0.00000000E+00  0.00000000E+00  0.00000000E+00
  0.00000000E+00  0.00000000E+00  0.00000000E+00
  0.00000000E+00  0.00000000E+00  0.00000000E+00
  0.00000000E+00  0.00000000E+00  0.00000000E+00
  0.00000000E+00  0.00000000E+00  0.00000000E+00
  0.00000000E+00  0.00000000E+00  0.00000000E+00
  0.00000000E+00  0.00000000E+00  0.00000000E+00
  0.00000000E+00  0.00000000E+00  0.00000000E+00
  0.00000000E+00  0.00000000E+00  0.00000000E+00
  0.00000000E+00  0.00000000E+00  0.00000000E+00
  0.00000000E+00  0.00000000E+00  0.00000000E+00
  0.00000000E+00  0.00000000E+00  0.00000000E+00
  0.00000000E+00  0.00000000E+00  0.00000000E+00
  0.00000000E+00  0.00000000E+00  0.00000000E+00
  0.00000000E+00  0.00000000E+00  0.00000000E+00
  0.00000000E+00  0.00000000E+00  0.00000000E+00
  0.00000000E+00  0.00000000E+00  0.00000000E+00
  0.00000000E+00  0.00000000E+00  0.00000000E+00
  0.00000000E+00  0.00000000E+00  0.00000000E+00
  0.00000000E+00  0.00000000E+00  0.00000000E+00
  0.00000000E+00  0.00000000E+00  0.00000000E+00
  0.00000000E+00  0.00000000E+00  0.00000000E+00
  0.00000000E+00  0.00000000E+00  0.00000000E+00
  0.00000000E+00  0.00000000E+00  0.00000000E+00
  0.00000000E+00  0.00000000E+00  0.00000000E+00
  0.00000000E+00  0.00000000E+00  0.00000000E+00
  0.00000000E+00  0.00000000E+00  0.00000000E+00
  0.00000000E+00  0.00000000E+00  0.00000000E+00
  0.00000000E+00  0.00000000E+00  0.00000000E+00
  0.00000000E+00  0.00000000E+00  0.00000000E+00
  0.00000000E+00  0.00000000E+00  0.00000000E+00