CuInSe2gb                               
   1.00000000000000     
     9.7266780392896699    0.0000000000000000    0.0000000000000000
     0.0000000000000000    8.4235502764570693    0.0000000000000000
     0.0000000000000000    0.0000000000000000   45.0000000000000000
   Fe   Mn
   274    14
Direct
  0.0625623699732366  0.0322680832287131  0.1241475108388925
  0.3159157020042485  0.8739913196951654  0.6555966181447612
  0.1848036883878127  0.1227781312917765  0.7889976370783532
  0.4413215007052184  0.2877661920017680  0.3888925154708504
  0.3177046118586279  0.7108564304111984  0.8333797338868804
  0.8163140796286759  0.2124706799398406  0.8336002115947018
  0.1900688645413706  0.9628146846317054  0.8339059980341588
  0.5622391874640615  0.2072817683127695  0.5649101300488474
  0.0658114291828391  0.0401361533812654  0.7445012033478162
  0.8117783047083679  0.8709097681317466  0.5211930022129380
  0.1909674150111694  0.2900600929961474  0.7443549479035726
  0.9338443449541398  0.4523676549253161  0.3446341805607515
  0.9405810785581075  0.2867310480012621  0.3888906845203485
  0.8141101476603084  0.0396944898820895  0.8754737013097962
  0.1842654052125810  0.7875036296875899  0.6108094280520080
  0.5661336146742073  0.0379101401469705  0.3889272866127591
  0.9415901562901637  0.9623294243910795  0.8336716356463714
  0.3153874533225620  0.5395658514283562  0.8760563728560458
  0.6902250592238973  0.2906838724664754  0.7444601337007708
  0.1835980817176086  0.6151994446812568  0.1664475616673673
  0.8119336877712294  0.2066465677667794  0.4785203512883111
  0.8094983665467782  0.5381968273103901  0.6109296843836466
  0.3122240193860715  0.8700987057574873  0.4343525788693774
  0.8104557498670493  0.0389225149937750  0.2559304775024910
  0.6834694461831524  0.9524511519980845  0.3446725171032706
  0.9310160829717238  0.1143663392276008  0.1666680991587532
  0.0615679773202014  0.8707158032368634  0.5211691042989463
  0.5578122933272135  0.5391407424395485  0.2554441894974694
  0.6867707099882924  0.7931057203780548  0.8755772044256607
  0.5564635895208236  0.3659351903414666  0.1661463306153407
  0.4403361504646971  0.7897167575056809  0.7447201743449062
  0.8117055346084602  0.7067522720745982  0.5649000242176265
  0.5613670499876576  0.8715360064060054  0.7890049204379036
  0.6867295183259549  0.1217645821004840  0.5212644227010010
  0.8168599405576797  0.3749847796213608  0.6555699584078387
  0.9412925832071779  0.4637041322289786  0.8335309485182273
  0.0600496762286503  0.2081214470364095  0.7003680915606821
  0.4352058594919493  0.9580919021022948  0.7005667516357270
  0.3157088600725629  0.2114389445984252  0.8339390475279563
  0.4407855189820356  0.6237208741843240  0.6554679694313628
  0.3085293747379840  0.5378523550549188  0.6108454247673459
  0.9371338419576171  0.4568446678187695  0.5650666554441189
  0.6902288769335919  0.7902461127559922  0.7447045593808755
  0.9335871361529654  0.7879475377965161  0.1245432356229472
  0.6911286490383980  0.7881638807729067  0.3889595490322186
  0.9399826470623756  0.7892247761811546  0.7446732416843250
  0.0601043208411687  0.2028646579939511  0.3447773987995531
  0.6839720976445295  0.4517688737494084  0.3450090034567629
  0.4367044017639671  0.1225150044052407  0.7892163371219180
  0.0654582567227129  0.2048669121544934  0.2108826703964702
  0.0554543739926534  0.3661597391913516  0.1664579719125704
  0.9343013029432909  0.7891186240761031  0.2556479387639697
  0.5600355818602546  0.2079843282263989  0.7004681962804593
  0.6847369207045026  0.9577331146327249  0.7005677926377851
  0.8093828303601336  0.8716811304345927  0.7889879483693827
  0.4371384323570496  0.9569480447716221  0.5648463349054553
  0.8100340827818182  0.3736786787283796  0.7888207325776936
  0.6851549794652250  0.2887073010504702  0.2556910218952006
  0.1871911872973067  0.4569323889108220  0.5650402227480638
  0.0568508994862405  0.8650807201996381  0.1665509368816737
  0.1842651938808655  0.2889754510894641  0.6109794896585496
  0.0626372168232250  0.2077472786599853  0.5650034594678526
  0.3111784773074245  0.2081573416023453  0.7003560589302352
  0.5634228336010257  0.5414159133290707  0.8759373902868139
  0.0620233733521124  0.7063368883659895  0.5650336916856465
  0.6849666146568260  0.6221440495767091  0.7890966864530428
  0.3163734863601549  0.5378475862405137  0.3888337490186473
  0.1865807576927925  0.6214167029497027  0.5212209170670667
  0.5624202427726283  0.8703502925062477  0.4343275493113899
  0.4373356255781359  0.4578675580427243  0.5649397472953795
  0.4404678068835553  0.2907131066641639  0.7443689668999680
  0.8192163666697612  0.8756688930062682  0.3001820324680980
  0.8095802874818434  0.7032750323983026  0.3447615206619265
  0.4415644887754386  0.4622328809734610  0.8336479556670749
  0.6876593749191067  0.9556217057535096  0.4785155460046433
  0.6852375977095053  0.4573554327597882  0.7005237146242510
  0.5617513710716506  0.8715441094972317  0.5213238193913318
  0.5658529785125246  0.3744578111619993  0.6555296373652191
  0.8162830426011702  0.8738706568644055  0.6555931466614888
  0.8114359282428423  0.3711067172695115  0.4343802174472038
  0.8095930121064967  0.5385158864882681  0.2558609054170047
  0.6905968867503326  0.4624081236956351  0.8334256138321470
  0.1881537708772432  0.7872813795754550  0.1240773977586184
  0.6908995496402776  0.2875925970432352  0.3887994577157906
  0.3155234691606052  0.3743574803349540  0.6554440733420479
  0.3091161341535367  0.2028717602058401  0.3447834986118298
  0.8149342485509691  0.5410510385604120  0.7445471687442183
  0.6910444007791362  0.9610961011686497  0.8334641952832935
  0.5659494670515854  0.8731319155354511  0.6554930402310045
  0.3118331948777562  0.7075856864777972  0.5650463501086129
  0.3128603209756700  0.5319801102093925  0.1239471776998894
  0.6884549792263479  0.9554200455605315  0.2110572182956504
  0.3118079749175157  0.2069022134881292  0.5649840839973149
  0.1872233848974113  0.9554743052522560  0.4786403614298083
  0.6870641702452648  0.9569683756933159  0.5650411870713290
  0.4341869208108885  0.7877583599594297  0.6107071065305179
  0.6822991087208837  0.6126506748556110  0.1660811435021915
  0.3182921853131476  0.8745654387922794  0.3002453955035891
  0.3120125806080050  0.7049262700149869  0.4785488078808981
  0.9345516274981875  0.2886727178977012  0.6108429437584848
  0.4442083765980989  0.6251398296701514  0.3004470346865166
  0.8071336238504316  0.8639735757824446  0.1666578697917322
  0.5658563085059548  0.2031912526077395  0.2110698060254639
  0.9365560442835461  0.2925667409720848  0.8756248015377092
  0.4372821823354345  0.9553293239120321  0.4785810619259024
  0.5611516831237926  0.3734882627954560  0.7890411176176382
  0.0610811980539266  0.3723948287055983  0.5212284352850195
  0.3074401517523100  0.3634483355503129  0.1664223725818806
  0.6954673712080172  0.1225018306970760  0.3001691183706723
  0.4422459628106606  0.9619383042545357  0.8335145964462123
  0.1857042216137296  0.2857422872012715  0.1241837279488463
  0.1840327865115130  0.2887818925664941  0.2558114042834766
  0.3114100981738533  0.3709562943768054  0.4343693464090750
  0.5600042866277913  0.0331788700893975  0.1237997996807950
  0.4334462191998182  0.2887986987105592  0.6108909384324677
  0.1841839366984963  0.4524646832569537  0.3449550506635501
  0.4340534323318313  0.2850341353082644  0.1238852810190857
  0.6841471258992677  0.7891808444611466  0.2558127820069709
  0.4365024872909838  0.1211697282573170  0.5211782596090861
  0.1893036143728776  0.2913022426542156  0.8761193188205163
  0.1908499914020387  0.1256666289015262  0.6555447986874621
  0.9411508028489057  0.1256373550175837  0.6554277524985577
  0.8155997457063330  0.5376846673747813  0.3887804233776911
  0.0670646080861409  0.0380675443253394  0.3889161139321362
  0.1831924727281914  0.1135817940644923  0.1663094406416998
  0.0593086805701106  0.5377053406174055  0.6109110932403846
  0.9350366404056807  0.2880824597242978  0.2558259114794711
  0.5588845319359225  0.5386841038685665  0.6108903456801564
  0.9373251410232463  0.9576710576715105  0.5650144676211045
  0.6940551623950862  0.6253889900372985  0.3002033327091145
  0.9373751153742227  0.6205970768328127  0.4344197580228698
  0.9337891539794834  0.6230830935852770  0.7889029578792101
  0.5602982471353170  0.7069299210263756  0.7005414742493283
  0.0649759073013672  0.7135667628248933  0.8339235768450068
  0.9438823033775678  0.1232052351352846  0.2999782900638367
  0.9343042326030963  0.7873573688551001  0.6108666033838606
  0.4332918355132445  0.7884648894383037  0.2556684493921991
  0.3114096690297564  0.3735075194827442  0.7888074965875703
  0.4395419515719212  0.4566939221416167  0.2110758695484211
  0.1864909565756757  0.1215248419643256  0.5212232581564477
  0.8099223376216592  0.7065484923100472  0.7005528234149188
  0.0587999754351312  0.0387769623397493  0.6107308667643198
  0.5658658850312781  0.2124860780225299  0.8336028636205078
  0.3113374827985786  0.8713647577172088  0.5212914149665326
  0.6856124185932677  0.2870826828380251  0.1238443379366884
  0.1896431824481938  0.9551029723630129  0.2111205736322020
  0.6841773040759667  0.2889117867776287  0.6107013763664345
  0.3091081746647475  0.0386024786318382  0.6107862582129165
  0.9346780926895173  0.1235367642282643  0.7889541943760695
  0.4379183032543171  0.7938616892447069  0.8761399509404542
  0.8145709768207600  0.0409333561465953  0.7446105597042108
  0.9346834863990430  0.4580342098062757  0.7004297474245555
  0.1906268667155066  0.6240261557542253  0.6554573730388612
  0.3107744509573148  0.7070045575497207  0.7005732930414603
  0.9342728263781723  0.2870213818953674  0.1239078325987136
  0.4375052433054587  0.4555494747935009  0.4784222517070632
  0.0622242046882669  0.7046993090755576  0.4785155530063794
  0.9372470666858183  0.1201130171236852  0.4347584908773543
  0.4431519987412103  0.1241914272953227  0.3004326460302209
  0.1873098003168314  0.1205040733059655  0.4343258841226127
  0.5625421027083427  0.0409145644838221  0.8759121010604147
  0.1869004599078477  0.9575907765753572  0.5650517549550758
  0.6835248355233984  0.7882511563482544  0.1242890788180268
  0.5586933767613825  0.7029620502438533  0.3447923046789528
  0.3157417936231821  0.0374835214458273  0.3887097345785976
  0.6822501572798639  0.1149948216257642  0.1667804610964468
  0.8152597247133112  0.2043381988052804  0.2110501900717388
  0.0606399409962172  0.5387170485811392  0.2557276090950721
  0.5626129022315246  0.7049659178467222  0.4784785902658218
  0.4345152105883941  0.7876795366145011  0.1238941795433414
  0.5684004469434389  0.3740828654903191  0.3003373847892381
  0.4335885412939288  0.9530670894482136  0.3448833450686533
  0.1854996646161101  0.9579322021247385  0.7005476213944976
  0.4303682077010136  0.6150022467326780  0.1662472283611365
  0.9408754888170022  0.4552984478312652  0.2114553467143466
  0.0612329081241994  0.5305100783119242  0.1239997590269816
  0.8121441799187099  0.3720710433886848  0.5212878805717253
  0.9442607653205026  0.6245859758080547  0.2999582140600199
  0.3086115582989777  0.0381567883138413  0.2554182118697147
  0.6839152530094255  0.7875166002054370  0.6107484757118807
  0.1919140979397924  0.4616991595344991  0.8335678463155075
  0.4323235385543382  0.1134101140107711  0.1662269644926150
  0.3105923618928226  0.3717781089632258  0.5212237421732739
  0.4360542893393394  0.6219252642848402  0.7891644449822209
  0.0589457641945452  0.0386695299998824  0.2557512703410284
  0.5618073352956716  0.7073822087662339  0.5650198871005193
  0.9396223033552029  0.2903206153617756  0.7445724061497047
  0.6846710081826934  0.1225848528924999  0.7890122275350141
  0.1897407433005155  0.4552993658611278  0.2108960087442383
  0.9413498428957384  0.7878360413956014  0.3888944695194031
  0.6862398303616348  0.2975215292194900  0.8759990840871177
  0.5553250905867968  0.8653193081365084  0.1664699088740930
  0.4353922898769083  0.4577074753827178  0.7004442960278627
  0.9342722640029859  0.9516345651235391  0.3445913959275335
  0.6868808246423248  0.6215723305181510  0.5213065133052904
  0.0656889632581179  0.8742727401383841  0.6555338731469950
  0.0593129243535316  0.8721874955000353  0.7888982087234647
  0.0659834567321113  0.3746400498681138  0.6553556306829141
  0.6872693917189960  0.4552041751583256  0.4784896222548451
  0.1845798796879040  0.7886789537916482  0.2555088903777523
  0.4371016316701408  0.1202580362436600  0.4343831836757272
  0.8125879670493036  0.0331771202940623  0.1239450540345907
  0.9363251702737122  0.6213052839407994  0.5213008668279441
  0.4409273470130682  0.1256031142005760  0.6555578812779660
  0.8128645114033640  0.5304823011454431  0.1238537838607760
  0.4335820960369446  0.4526229137493419  0.3450607233362951
  0.8093625729408458  0.2030437972035749  0.3448173528880499
  0.3090948751553736  0.7026330503281244  0.3447591686526099
  0.6914154404074423  0.1250758442083694  0.6556114212007085
  0.5695163930733401  0.8739808925342935  0.3004794447332297
  0.0648467603590630  0.5405043679104437  0.7446018642212581
  0.9407063215041668  0.9552686072985307  0.2110626409268776
  0.8162291020447402  0.7053504611855200  0.2113125316862411
  0.0689710914307603  0.8746851141672115  0.3001898616582166
  0.1939954211031160  0.1244043035538173  0.3002260777447471
  0.0593877837648223  0.7022270588021146  0.3446505525944460
  0.8098545816895616  0.0387285936370610  0.6106777376765087
  0.0629952846319418  0.3710737225941437  0.4344874962140490
  0.5596556486390014  0.2035020008240597  0.3449082638148662
  0.8200571648693600  0.3740457990996087  0.3001862655324295
  0.5600110385846458  0.0386825366947924  0.2554612417382479
  0.5657821144326056  0.5376841617656383  0.3888665477467421
  0.0621688032150541  0.2065385691948145  0.4785370295597652
  0.3122685441636872  0.8709224884357514  0.7885506205207633
  0.9346751500530754  0.9581808373019322  0.7003935772040562
  0.0684707712659854  0.3747579298796224  0.3002232744274563
  0.6912047022828354  0.6240277445132274  0.6556042957741032
  0.6872186483534503  0.4579079025691690  0.5647761041323599
  0.4393720767828508  0.9559539790841999  0.2112891205369350
  0.3119254268687949  0.2059222606258220  0.4785376537762087
  0.8136189026286892  0.5423071575249934  0.8756497469880419
  0.6881064730786067  0.6202087733165663  0.4344501883702308
  0.8099477097602412  0.2083816913559903  0.7004601690366445
  0.8124152975286776  0.7047491802958047  0.4784937004195345
  0.8114294311732478  0.8699997328260968  0.4344035090891543
  0.9369815406929076  0.9550960001279017  0.4786523705026178
  0.5628554947848529  0.2056805815303309  0.4785764555338114
  0.1869522032698039  0.6197789369760456  0.4342743315698500
  0.3155502538430142  0.0411148826477177  0.7441487526104906
  0.9410169299533935  0.6238111012323876  0.6554580618785831
  0.5658675852206088  0.7106787815971416  0.8334245729057523
  0.3184160813196795  0.3737970612543414  0.3002464958388361
  0.3157906139581240  0.5410740845576101  0.7445804448987581
  0.1870168502017921  0.4551923112387815  0.4785968759852466
  0.3141435944015654  0.0416733692708567  0.8759688246172798
  0.1846866386476571  0.4583941296006155  0.7004145918698630
  0.5623447944973158  0.3717994480466968  0.5212829883012308
  0.1913392687026998  0.2879835806593575  0.3888069734587796
  0.3150836703741193  0.2050720162363890  0.2109914681730855
  0.0670633690897277  0.7055770722265580  0.2111261853021077
  0.5623556380844604  0.3706421489080833  0.4343857625948791
  0.4365038406728828  0.6221340733386342  0.5211615074718782
  0.8157253497763922  0.7124392168572709  0.8334372196007072
  0.0599582320720576  0.3737804060634378  0.7887302105166702
  0.4373670897450377  0.2955441494679655  0.8763158208279477
  0.3130444525153783  0.0315121961838424  0.1237902907926883
  0.6876491695797039  0.1196194613241049  0.4343276032711567
  0.1844137585855916  0.9531451832248725  0.3448491496709823
  0.0670992606573125  0.2112227224420800  0.8339601980808828
  0.5589571155351255  0.0383949840146720  0.6106511653467229
  0.6885089109940556  0.4563367164209219  0.2114622210036133
  0.1903863855368368  0.7897913920759970  0.7445020064329095
  0.1935029001077049  0.6245294293848331  0.3003425698993220
  0.4413769137258541  0.7872861032502134  0.3889851102872621
  0.4335683742162875  0.2901782795373462  0.2556712780850484
  0.0632774829434399  0.5416567351180537  0.8757371269641132
  0.5658610230937975  0.0406992738764660  0.7445361457960645
  0.1863671312565962  0.7955484387032755  0.8760529092574553
  0.9369003683973727  0.4546571456012657  0.4786244608982408
  0.5648943838156667  0.5415066808685185  0.7446767557665563
  0.8117394135806723  0.2084181527083404  0.5649577502232926
  0.1854065750793150  0.6217217958345894  0.7887683339644284
  0.0675620775466953  0.5389454783094231  0.3889712903253387
  0.0596860332010813  0.7074217364927859  0.7004968525658927
  0.3087843063066258  0.5385189811782792  0.2551342349064060
  0.3144047904645438  0.7054725601246912  0.2113548567186788
  0.3060646672859431  0.8657944726869962  0.1658834204998539
  0.4363167725704013  0.6205805197810423  0.4343215981104324
  0.8172326323434744  0.0388917290866358  0.3889377744847071
  0.9328439146213660  0.6131876170468075  0.1661630778396674
  0.9390018467502657  0.7939644714986861  0.8755386431570809
  0.0658385775238952  0.0376661882442402  0.8756398536455240
  0.5621958587300286  0.5304414774862013  0.1244063916843013
  0.8054352634044447  0.3659660882842005  0.1658228136786653
  0.0621182179371335  0.8709789692454033  0.4343645646314445
  0.9362035424017819  0.1221023809013182  0.5212131450478404
  0.1912456228081440  0.7879096849505866  0.3889284287322199
  0.5647531489211378  0.7058044385313605  0.2109881853071030
 
  0.00000000E+00  0.00000000E+00  0.00000000E+00
  0.00000000E+00  0.00000000E+00  0.00000000E+00
  0.00000000E+00  0.00000000E+00  0.00000000E+00
  0.00000000E+00  0.00000000E+00  0.00000000E+00
  0.00000000E+00  0.00000000E+00  0.00000000E+00
  0.00000000E+00  0.00000000E+00  0.00000000E+00
  0.00000000E+00  0.00000000E+00  0.00000000E+00
  0.00000000E+00  0.00000000E+00  0.00000000E+00
  0.00000000E+00  0.00000000E+00  0.00000000E+00
  0.00000000E+00  0.00000000E+00  0.00000000E+00
  0.00000000E+00  0.00000000E+00  0.00000000E+00
  0.00000000E+00  0.00000000E+00  0.00000000E+00
  0.00000000E+00  0.00000000E+00  0.00000000E+00
  0.00000000E+00  0.00000000E+00  0.00000000E+00
  0.00000000E+00  0.00000000E+00  0.00000000E+00
  0.00000000E+00  0.00000000E+00  0.00000000E+00
  0.00000000E+00  0.00000000E+00  0.00000000E+00
  0.00000000E+00  0.00000000E+00  0.00000000E+00
  0.00000000E+00  0.00000000E+00  0.00000000E+00
  0.00000000E+00  0.00000000E+00  0.00000000E+00
  0.00000000E+00  0.00000000E+00  0.00000000E+00
  0.00000000E+00  0.00000000E+00  0.00000000E+00
  0.00000000E+00  0.00000000E+00  0.00000000E+00
  0.00000000E+00  0.00000000E+00  0.00000000E+00
  0.00000000E+00  0.00000000E+00  0.00000000E+00
  0.00000000E+00  0.00000000E+00  0.00000000E+00
  0.00000000E+00  0.00000000E+00  0.00000000E+00
  0.00000000E+00  0.00000000E+00  0.00000000E+00
  0.00000000E+00  0.00000000E+00  0.00000000E+00
  0.00000000E+00  0.00000000E+00  0.00000000E+00
  0.00000000E+00  0.00000000E+00  0.00000000E+00
  0.00000000E+00  0.00000000E+00  0.00000000E+00
  0.00000000E+00  0.00000000E+00  0.00000000E+00
  0.00000000E+00  0.00000000E+00  0.00000000E+00
  0.00000000E+00  0.00000000E+00  0.00000000E+00
  0.00000000E+00  0.00000000E+00  0.00000000E+00
  0.00000000E+00  0.00000000E+00  0.00000000E+00
  0.00000000E+00  0.00000000E+00  0.00000000E+00
  0.00000000E+00  0.00000000E+00  0.00000000E+00
  0.00000000E+00  0.00000000E+00  0.00000000E+00
  0.00000000E+00  0.00000000E+00  0.00000000E+00
  0.00000000E+00  0.00000000E+00  0.00000000E+00
  0.00000000E+00  0.00000000E+00  0.00000000E+00
  0.00000000E+00  0.00000000E+00  0.00000000E+00
  0.00000000E+00  0.00000000E+00  0.00000000E+00
  0.00000000E+00  0.00000000E+00  0.00000000E+00
  0.00000000E+00  0.00000000E+00  0.00000000E+00
  0.00000000E+00  0.00000000E+00  0.00000000E+00
  0.00000000E+00  0.00000000E+00  0.00000000E+00
  0.00000000E+00  0.00000000E+00  0.00000000E+00
  0.00000000E+00  0.00000000E+00  0.00000000E+00
  0.00000000E+00  0.00000000E+00  0.00000000E+00
  0.00000000E+00  0.00000000E+00  0.00000000E+00
  0.00000000E+00  0.00000000E+00  0.00000000E+00
  0.00000000E+00  0.00000000E+00  0.00000000E+00
  0.00000000E+00  0.00000000E+00  0.00000000E+00
  0.00000000E+00  0.00000000E+00  0.00000000E+00
  0.00000000E+00  0.00000000E+00  0.00000000E+00
  0.00000000E+00  0.00000000E+00  0.00000000E+00
  0.00000000E+00  0.00000000E+00  0.00000000E+00
  0.00000000E+00  0.00000000E+00  0.00000000E+00
  0.00000000E+00  0.00000000E+00  0.00000000E+00
  0.00000000E+00  0.00000000E+00  0.00000000E+00
  0.00000000E+00  0.00000000E+00  0.00000000E+00
  0.00000000E+00  0.00000000E+00  0.00000000E+00
  0.00000000E+00  0.00000000E+00  0.00000000E+00
  0.00000000E+00  0.00000000E+00  0.00000000E+00
  0.00000000E+00  0.00000000E+00  0.00000000E+00
  0.00000000E+00  0.00000000E+00  0.00000000E+00
  0.00000000E+00  0.00000000E+00  0.00000000E+00
  0.00000000E+00  0.00000000E+00  0.00000000E+00
  0.00000000E+00  0.00000000E+00  0.00000000E+00
  0.00000000E+00  0.00000000E+00  0.00000000E+00
  0.00000000E+00  0.00000000E+00  0.00000000E+00
  0.00000000E+00  0.00000000E+00  0.00000000E+00
  0.00000000E+00  0.00000000E+00  0.00000000E+00
  0.00000000E+00  0.00000000E+00  0.00000000E+00
  0.00000000E+00  0.00000000E+00  0.00000000E+00
  0.00000000E+00  0.00000000E+00  0.00000000E+00
  0.00000000E+00  0.00000000E+00  0.00000000E+00
  0.00000000E+00  0.00000000E+00  0.00000000E+00
  0.00000000E+00  0.00000000E+00  0.00000000E+00
  0.00000000E+00  0.00000000E+00  0.00000000E+00
  0.00000000E+00  0.00000000E+00  0.00000000E+00
  0.00000000E+00  0.00000000E+00  0.00000000E+00
  0.00000000E+00  0.00000000E+00  0.00000000E+00
  0.00000000E+00  0.00000000E+00  0.00000000E+00
  0.00000000E+00  0.00000000E+00  0.00000000E+00
  0.00000000E+00  0.00000000E+00  0.00000000E+00
  0.00000000E+00  0.00000000E+00  0.00000000E+00
  0.00000000E+00  0.00000000E+00  0.00000000E+00
  0.00000000E+00  0.00000000E+00  0.00000000E+00
  0.00000000E+00  0.00000000E+00  0.00000000E+00
  0.00000000E+00  0.00000000E+00  0.00000000E+00
  0.00000000E+00  0.00000000E+00  0.00000000E+00
  0.00000000E+00  0.00000000E+00  0.00000000E+00
  0.00000000E+00  0.00000000E+00  0.00000000E+00
  0.00000000E+00  0.00000000E+00  0.00000000E+00
  0.00000000E+00  0.00000000E+00  0.00000000E+00
  0.00000000E+00  0.00000000E+00  0.00000000E+00
  0.00000000E+00  0.00000000E+00  0.00000000E+00
  0.00000000E+00  0.00000000E+00  0.00000000E+00
  0.00000000E+00  0.00000000E+00  0.00000000E+00
  0.00000000E+00  0.00000000E+00  0.00000000E+00
  0.00000000E+00  0.00000000E+00  0.00000000E+00
  0.00000000E+00  0.00000000E+00  0.00000000E+00
  0.00000000E+00  0.00000000E+00  0.00000000E+00
  0.00000000E+00  0.00000000E+00  0.00000000E+00
  0.00000000E+00  0.00000000E+00  0.00000000E+00
  0.00000000E+00  0.00000000E+00  0.00000000E+00
  0.00000000E+00  0.00000000E+00  0.00000000E+00
  0.00000000E+00  0.00000000E+00  0.00000000E+00
  0.00000000E+00  0.00000000E+00  0.00000000E+00
  0.00000000E+00  0.00000000E+00  0.00000000E+00
  0.00000000E+00  0.00000000E+00  0.00000000E+00
  0.00000000E+00  0.00000000E+00  0.00000000E+00
  0.00000000E+00  0.00000000E+00  0.00000000E+00
  0.00000000E+00  0.00000000E+00  0.00000000E+00
  0.00000000E+00  0.00000000E+00  0.00000000E+00
  0.00000000E+00  0.00000000E+00  0.00000000E+00
  0.00000000E+00  0.00000000E+00  0.00000000E+00
  0.00000000E+00  0.00000000E+00  0.00000000E+00
  0.00000000E+00  0.00000000E+00  0.00000000E+00
  0.00000000E+00  0.00000000E+00  0.00000000E+00
  0.00000000E+00  0.00000000E+00  0.00000000E+00
  0.00000000E+00  0.00000000E+00  0.00000000E+00
  0.00000000E+00  0.00000000E+00  0.00000000E+00
  0.00000000E+00  0.00000000E+00  0.00000000E+00
  0.00000000E+00  0.00000000E+00  0.00000000E+00
  0.00000000E+00  0.00000000E+00  0.00000000E+00
  0.00000000E+00  0.00000000E+00  0.00000000E+00
  0.00000000E+00  0.00000000E+00  0.00000000E+00
  0.00000000E+00  0.00000000E+00  0.00000000E+00
  0.00000000E+00  0.00000000E+00  0.00000000E+00
  0.00000000E+00  0.00000000E+00  0.00000000E+00
  0.00000000E+00  0.00000000E+00  0.00000000E+00
  0.00000000E+00  0.00000000E+00  0.00000000E+00
  0.00000000E+00  0.00000000E+00  0.00000000E+00
  0.00000000E+00  0.00000000E+00  0.00000000E+00
  0.00000000E+00  0.00000000E+00  0.00000000E+00
  0.00000000E+00  0.00000000E+00  0.00000000E+00
  0.00000000E+00  0.00000000E+00  0.00000000E+00
  0.00000000E+00  0.00000000E+00  0.00000000E+00
  0.00000000E+00  0.00000000E+00  0.00000000E+00
  0.00000000E+00  0.00000000E+00  0.00000000E+00
  0.00000000E+00  0.00000000E+00  0.00000000E+00
  0.00000000E+00  0.00000000E+00  0.00000000E+00
  0.00000000E+00  0.00000000E+00  0.00000000E+00
  0.00000000E+00  0.00000000E+00  0.00000000E+00
  0.00000000E+00  0.00000000E+00  0.00000000E+00
  0.00000000E+00  0.00000000E+00  0.00000000E+00
  0.00000000E+00  0.00000000E+00  0.00000000E+00
  0.00000000E+00  0.00000000E+00  0.00000000E+00
  0.00000000E+00  0.00000000E+00  0.00000000E+00
  0.00000000E+00  0.00000000E+00  0.00000000E+00
  0.00000000E+00  0.00000000E+00  0.00000000E+00
  0.00000000E+00  0.00000000E+00  0.00000000E+00
  0.00000000E+00  0.00000000E+00  0.00000000E+00
  0.00000000E+00  0.00000000E+00  0.00000000E+00
  0.00000000E+00  0.00000000E+00  0.00000000E+00
  0.00000000E+00  0.00000000E+00  0.00000000E+00
  0.00000000E+00  0.00000000E+00  0.00000000E+00
  0.00000000E+00  0.00000000E+00  0.00000000E+00
  0.00000000E+00  0.00000000E+00  0.00000000E+00
  0.00000000E+00  0.00000000E+00  0.00000000E+00
  0.00000000E+00  0.00000000E+00  0.00000000E+00
  0.00000000E+00  0.00000000E+00  0.00000000E+00
  0.00000000E+00  0.00000000E+00  0.00000000E+00
  0.00000000E+00  0.00000000E+00  0.00000000E+00
  0.00000000E+00  0.00000000E+00  0.00000000E+00
  0.00000000E+00  0.00000000E+00  0.00000000E+00
  0.00000000E+00  0.00000000E+00  0.00000000E+00
  0.00000000E+00  0.00000000E+00  0.00000000E+00
  0.00000000E+00  0.00000000E+00  0.00000000E+00
  0.00000000E+00  0.00000000E+00  0.00000000E+00
  0.00000000E+00  0.00000000E+00  0.00000000E+00
  0.00000000E+00  0.00000000E+00  0.00000000E+00
  0.00000000E+00  0.00000000E+00  0.00000000E+00
  0.00000000E+00  0.00000000E+00  0.00000000E+00
  0.00000000E+00  0.00000000E+00  0.00000000E+00
  0.00000000E+00  0.00000000E+00  0.00000000E+00
  0.00000000E+00  0.00000000E+00  0.00000000E+00
  0.00000000E+00  0.00000000E+00  0.00000000E+00
  0.00000000E+00  0.00000000E+00  0.00000000E+00
  0.00000000E+00  0.00000000E+00  0.00000000E+00
  0.00000000E+00  0.00000000E+00  0.00000000E+00
  0.00000000E+00  0.00000000E+00  0.00000000E+00
  0.00000000E+00  0.00000000E+00  0.00000000E+00
  0.00000000E+00  0.00000000E+00  0.00000000E+00
  0.00000000E+00  0.00000000E+00  0.00000000E+00
  0.00000000E+00  0.00000000E+00  0.00000000E+00
  0.00000000E+00  0.00000000E+00  0.00000000E+00
  0.00000000E+00  0.00000000E+00  0.00000000E+00
  0.00000000E+00  0.00000000E+00  0.00000000E+00
  0.00000000E+00  0.00000000E+00  0.00000000E+00
  0.00000000E+00  0.00000000E+00  0.00000000E+00
  0.00000000E+00  0.00000000E+00  0.00000000E+00
  0.00000000E+00  0.00000000E+00  0.00000000E+00
  0.00000000E+00  0.00000000E+00  0.00000000E+00
  0.00000000E+00  0.00000000E+00  0.00000000E+00
  0.00000000E+00  0.00000000E+00  0.00000000E+00
  0.00000000E+00  0.00000000E+00  0.00000000E+00
  0.00000000E+00  0.00000000E+00  0.00000000E+00
  0.00000000E+00  0.00000000E+00  0.00000000E+00
  0.00000000E+00  0.00000000E+00  0.00000000E+00
  0.00000000E+00  0.00000000E+00  0.00000000E+00
  0.00000000E+00  0.00000000E+00  0.00000000E+00
  0.00000000E+00  0.00000000E+00  0.00000000E+00
  0.00000000E+00  0.00000000E+00  0.00000000E+00
  0.00000000E+00  0.00000000E+00  0.00000000E+00
  0.00000000E+00  0.00000000E+00  0.00000000E+00
  0.00000000E+00  0.00000000E+00  0.00000000E+00
  0.00000000E+00  0.00000000E+00  0.00000000E+00
  0.00000000E+00  0.00000000E+00  0.00000000E+00
  0.00000000E+00  0.00000000E+00  0.00000000E+00
  0.00000000E+00  0.00000000E+00  0.00000000E+00
  0.00000000E+00  0.00000000E+00  0.00000000E+00
  0.00000000E+00  0.00000000E+00  0.00000000E+00
  0.00000000E+00  0.00000000E+00  0.00000000E+00
  0.00000000E+00  0.00000000E+00  0.00000000E+00
  0.00000000E+00  0.00000000E+00  0.00000000E+00
  0.00000000E+00  0.00000000E+00  0.00000000E+00
  0.00000000E+00  0.00000000E+00  0.00000000E+00
  0.00000000E+00  0.00000000E+00  0.00000000E+00
  0.00000000E+00  0.00000000E+00  0.00000000E+00
  0.00000000E+00  0.00000000E+00  0.00000000E+00
  0.00000000E+00  0.00000000E+00  0.00000000E+00
  0.00000000E+00  0.00000000E+00  0.00000000E+00
  0.00000000E+00  0.00000000E+00  0.00000000E+00
  0.00000000E+00  0.00000000E+00  0.00000000E+00
  0.00000000E+00  0.00000000E+00  0.00000000E+00
  0.00000000E+00  0.00000000E+00  0.00000000E+00
  0.00000000E+00  0.00000000E+00  0.00000000E+00
  0.00000000E+00  0.00000000E+00  0.00000000E+00
  0.00000000E+00  0.00000000E+00  0.00000000E+00
  0.00000000E+00  0.00000000E+00  0.00000000E+00
  0.00000000E+00  0.00000000E+00  0.00000000E+00
  0.00000000E+00  0.00000000E+00  0.00000000E+00
  0.00000000E+00  0.00000000E+00  0.00000000E+00
  0.00000000E+00  0.00000000E+00  0.00000000E+00
  0.00000000E+00  0.00000000E+00  0.00000000E+00
  0.00000000E+00  0.00000000E+00  0.00000000E+00
  0.00000000E+00  0.00000000E+00  0.00000000E+00
  0.00000000E+00  0.00000000E+00  0.00000000E+00
  0.00000000E+00  0.00000000E+00  0.00000000E+00
  0.00000000E+00  0.00000000E+00  0.00000000E+00
  0.00000000E+00  0.00000000E+00  0.00000000E+00