FeMn_288_20                             
    1.000000000000000     
     9.7266779999999997    0.0000000000000000    0.0000000000000000
     0.0000000000000000    8.4235500000000005    0.0000000000000000
     0.0000000000000000    0.0000000000000000   45.0000000000000000
   Fe   Mn
   268    20
Direct
  0.1874074072010672  0.2882110032831072  0.2576587279283658
  0.9374880125814000  0.7883093291667613  0.3900640008954939
  0.8125289421617272  0.3710180046853614  0.3018782814917492
  0.4376147115798258  0.1227393102086547  0.5214563569333330
  0.6873431591022112  0.4549845319110338  0.2134256793608167
  0.0627919980024794  0.2059544016555478  0.5652011470066828
  0.5621474497291725  0.2045764770620969  0.2134555065668639
  0.0621826261772551  0.5398533966035091  0.7424171581549012
  0.9370484859506163  0.9558574493165107  0.8316499526725860
  0.5631916063976823  0.7058844435269094  0.5649723352882199
  0.1875143838897217  0.2903504269411718  0.8735175663450093
  0.1874226532571709  0.9562308286825114  0.8314610927941675
  0.0622547802766121  0.5396143426858607  0.6098412836552902
  0.4371274268487564  0.6217692990847645  0.3017140511636604
  0.8123024856167781  0.5380646075593677  0.1264429083645711
  0.3124697181444164  0.2062060005193130  0.5651628242910884
  0.1874799216432093  0.6233131484499684  0.6537923277170241
  0.5629242996884837  0.2067841664774572  0.8313994355522870
  0.6874413507572235  0.9547615340189389  0.3462042292179175
  0.0621117960773094  0.7048271742592072  0.3461980091715462
  0.3121823047709043  0.0397577905491076  0.6098243327753041
  0.9373222154436242  0.4549288110011132  0.3462016075283939
  0.1875089853652088  0.4555722256717760  0.4786200989921939
  0.3127283368822314  0.2059160235058344  0.8313639612244945
  0.9375265012569373  0.4545675722396332  0.2134297169838581
  0.4377606969236011  0.7899418937363766  0.7424260376985049
  0.0625151702411094  0.2055070330190774  0.4786416593185470
  0.3127187165168786  0.7060208881256163  0.6981787287763654
  0.5625316554490846  0.2056244590803704  0.5651385164819283
  0.6874248858536610  0.6219457346142966  0.5215208467305481
  0.0627361337738170  0.2066380627163797  0.6981489739871529
  0.5624820379401985  0.3736741817478472  0.7865514722581319
  0.9376923512907781  0.7896719288596894  0.7423907182095836
  0.0621841115060273  0.5377957266657808  0.2575694336816376
  0.5627947747717890  0.8731043270514578  0.6537425670442197
  0.4379705911943619  0.9561821245919602  0.6982321145640540
  0.9374797587481740  0.4554020252282974  0.4785899384626993
  0.4373419295287676  0.4547469790813372  0.3460749937592815
  0.9380005612142706  0.6227146948937023  0.7864568624499872
  0.1871786832035893  0.9551542548174623  0.3460796925745094
  0.6876456589417509  0.4569776729382664  0.8314215460041519
  0.1871888446400387  0.6212097760306453  0.1686965304628995
  0.0624918708120050  0.2064342507849651  0.8314520085783668
  0.8122604497096764  0.3712873356510452  0.1686836497911864
  0.1875471566619032  0.7878016125947372  0.2576126396416732
  0.6875157492362891  0.2892623714178127  0.6099245256775104
  0.8125775870279082  0.5385986472680502  0.8734705926454256
  0.5622090699096659  0.8722675018148113  0.5213049263100830
  0.5624430152423465  0.0380154538742870  0.1265662006776428
  0.0621813403783716  0.2050585943812743  0.3461954734619529
  0.8125327300233890  0.7045166639415579  0.3460704835406149
  0.8133559371277957  0.0400094715103273  0.8736434948511609
  0.6876790405396470  0.6216817177511330  0.1686619083861836
  0.3119028165006137  0.0377794472843077  0.2576120331907369
  0.0627658281022916  0.5374633518668184  0.1265023935918125
  0.5621133207949151  0.7046297272866131  0.2134704473282664
  0.5622056863377931  0.8714105440181048  0.3018940338384334
  0.6881544354059571  0.9558402163316103  0.5652567021613358
  0.6875396565403612  0.2878606172056674  0.1264725888460650
  0.8125945607361768  0.2069201179973322  0.6981762354251639
  0.1873033504782786  0.2876988380493097  0.1265055844307472
  0.9372989330327887  0.2896411534441382  0.6098818770126521
  0.3124940279728252  0.3723538165818588  0.5214470603156657
  0.6877657703278226  0.4553708990992208  0.4785554671169268
  0.9376733491980085  0.4567673591721744  0.6982252159201749
  0.6870209497470473  0.4549689836154049  0.3461625890196621
  0.5623332452242000  0.5382304801675969  0.2576302960082106
  0.6869738499446216  0.7880042138604436  0.2576779672225417
  0.8124171175340155  0.0376278638162831  0.2575582510525652
  0.8125420779821582  0.5381520419117880  0.3900691495108309
  0.8124304683316002  0.7063861412394068  0.6981151733538252
  0.6877512671295364  0.4553875281273885  0.5652613204663206
  0.1879333491588265  0.4562798816875770  0.6982318629335610
  0.6875055518269890  0.7892954134807922  0.6097851548710836
  0.4372716685425259  0.2884690531146499  0.3901363179773033
  0.4369136782421837  0.1214472524979008  0.3017237290729275
  0.4371327928951140  0.7882562427635375  0.2576352600566236
  0.5622829894107658  0.8712863347746079  0.1686466351300156
  0.6878389848459271  0.9559494063813405  0.8315750663466741
  0.0623778930521190  0.8712289242960495  0.3017895777072347
  0.6876005456528447  0.1223582610467973  0.4347625855789903
  0.6878042532543269  0.9558106327097782  0.4786734226313613
  0.5629791196408473  0.5396605656450993  0.7422868332774977
  0.8131455646088683  0.3718886630171169  0.4348360524325697
  0.0626291932561516  0.5390652950746180  0.8734421352157419
  0.3122805236888146  0.3713462301615011  0.1686788608497642
  0.5622257020425477  0.3711757572798655  0.3017990022024679
  0.8121441003771130  0.2046585520121075  0.2135022518893231
  0.3125436891117560  0.2065452790167973  0.6982960598069110
  0.3124943368999085  0.8732666910347130  0.7865147135009863
  0.1878236049283714  0.1219137318274185  0.4348292437128043
  0.9376130326677350  0.1230454354538830  0.7864920685993582
  0.1876233125090296  0.2896370180302095  0.6099388185598081
  0.0625154506226134  0.0383329448991959  0.3901006654813767
  0.8125651910251469  0.5400118619486239  0.7423330487718466
  0.9374645899706238  0.2884826288630472  0.3901954875425546
  0.4372361471503710  0.4554046664161935  0.4785543150499758
  0.6874150483981543  0.9548615362819785  0.2134083887316565
  0.1875452442903460  0.1223742397342231  0.5213321044971250
  0.0626053337085155  0.8717957165311456  0.4346948428979495
  0.6877312214109044  0.2902506558383387  0.7424980745776286
  0.9372556316003925  0.7876267529474603  0.2575615663616926
  0.5627160856550071  0.5391986171639351  0.8734381291001807
  0.9371729185301463  0.1223532672148215  0.4347642867572276
  0.0629515694991006  0.7066120218723665  0.6981395793863890
  0.9377834337581086  0.2901071685253037  0.7424397337058183
  0.1870857030297378  0.1225084924242432  0.6537979009003315
  0.1876281087524003  0.2882533137820287  0.3901219998006722
  0.4372213204815580  0.2877463878856810  0.2576196850647502
  0.1875828726938006  0.6219728343521633  0.5213037325881186
  0.1871328102644635  0.4540275854050283  0.2134479205092430
  0.1880300760920706  0.9563856019118736  0.6982604047618796
  0.0623674690627825  0.3716186084443537  0.3017567358369177
  0.0628658622891023  0.0402057460122894  0.8736983141692898
  0.6879776373741090  0.6227544389873696  0.6537647172217591
  0.3122025843795866  0.7048194521828778  0.3460652512911794
  0.6874241904939613  0.4566639295053718  0.6981696675057548
  0.6879565012809883  0.6219615033800339  0.4345712403322453
  0.8124459150772549  0.8729674026752325  0.6537321816311338
  0.6874695923859679  0.1244815579965295  0.7865447523372437
  0.0621837593249525  0.0400322664971798  0.7425342913755230
  0.4376360895588772  0.4561027152476473  0.6982035292194395
  0.6881770544171636  0.1233940816935506  0.6539445406553633
  0.4371503136995749  0.6215290267797254  0.1687226627319411
  0.9375911975213952  0.1212249883222869  0.3018234985155655
  0.6877662857019907  0.7896479163044478  0.7423240808089554
  0.3122339137641709  0.7043652178333121  0.2134696849351221
  0.3128024746673847  0.5398659991811680  0.6098651189502700
  0.8125726509910520  0.3732042350784223  0.7864968975145692
  0.3118431007903609  0.3718111273848546  0.4347692791274309
  0.9376231189700719  0.9546393907064615  0.2134474026418469
  0.8123094106001433  0.8710925872571693  0.1684880497828644
  0.9376892631238567  0.1232857323555136  0.6538517544995395
  0.0622891222605616  0.5384907150711568  0.3901810673635954
  0.8124914373619917  0.3721119113238063  0.5214728987543482
  0.8125979316813661  0.3733100313618490  0.6538296707857635
  0.1874182877719667  0.6217327852799630  0.3017952498281023
  0.8126820364193968  0.0395152485177507  0.6098735030461302
  0.9375126108990314  0.4555040918441536  0.5651849382435536
  0.8128323985243378  0.0397534390134537  0.7423911403508198
  0.5622250578870687  0.3717276738800145  0.1685532513899881
  0.5625653249606585  0.5393369906152952  0.6098320057398922
  0.4378053052100833  0.2896174622903891  0.6098421653504456
  0.5623842221435342  0.0385835631688662  0.3901611737250811
  0.0621273943345294  0.3720826098074140  0.4348523881627636
  0.9370408476895296  0.7876479177607779  0.1265129756145853
  0.9379115263252426  0.6228771623119541  0.6537560485619943
  0.3133360085226102  0.0408384211569770  0.8736587556100575
  0.6869492061290123  0.2879674453200958  0.2575910201079136
  0.6875887297762786  0.7877899483929419  0.1264419318925182
  0.1872693742886811  0.9545347755828486  0.2134290810185123
  0.5626156074151725  0.7059907496157121  0.6980778366629148
  0.5626699739845308  0.2051579757030354  0.4785371657291408
  0.3122883278654326  0.7061720114901462  0.5651728246807880
  0.0626556442510841  0.2044118302359703  0.2134341804843167
  0.9371155488746166  0.7894063706670413  0.6097889566256369
  0.4369841342318605  0.7905190084472495  0.8734490473718849
  0.1876713861560366  0.7899973252891671  0.8735866711403355
  0.1875354392941218  0.4560058952761992  0.8312485855434325
  0.3124061962550496  0.3728201839148543  0.6537295680995612
  0.6875487476195523  0.2884664658310495  0.3901146901426797
  0.9379773927075762  0.2898040020099927  0.8735481256422216
  0.4376491542949247  0.4561447661030499  0.5651888014673683
  0.1874132078065230  0.9556028216782633  0.4785638484677683
  0.5627721914457595  0.3724793202805392  0.6537915643262425
  0.4378386367305849  0.2895610765288751  0.7424001366524645
  0.8125663973669207  0.7057749052016653  0.4786930387910069
  0.9379390294049244  0.4565476560839545  0.8312337164532121
  0.4370944798428461  0.7876373436217132  0.1265688192699831
  0.4374115722532967  0.4545149696806123  0.2134361126253632
  0.6876151625407801  0.2899866917232517  0.8735238743809506
  0.5626937069984838  0.7049214777831896  0.3462164626856937
  0.9376463228131766  0.6213463228080258  0.3017621123497992
  0.5625608467811567  0.2050429925546847  0.3461770130096334
  0.5631090349899630  0.7069889242192170  0.8313607710398954
  0.4369143094360631  0.6220585412362795  0.4348311085977028
  0.6871814904600542  0.6213383917545999  0.3017395765437622
  0.3124637392832604  0.7059927743953831  0.4785985842289060
  0.3122648680807127  0.5376221092992733  0.1265096661066474
  0.1873575230450625  0.1218267128208273  0.3017742851971665
  0.1878537106417345  0.1235745213092462  0.7867263540810668
  0.8125473040628073  0.2053257905109461  0.4786706124084916
  0.9376188127613074  0.9556774355887391  0.5651610995940032
  0.8127632359455842  0.8725118657751423  0.4350316402007983
  0.3121231868661455  0.8721120818732089  0.4348751793290250
  0.5629055772400547  0.8735851387440559  0.7865379505734427
  0.4373871110410293  0.1221326245802732  0.4348608492757544
  0.0625519334624461  0.7043435477537295  0.2134498036548410
  0.5627056756695504  0.2065341003287839  0.6983201895577607
  0.1877180693573281  0.2900720672695870  0.7423782230822222
  0.0623500116753537  0.0377694457050379  0.1265378167929941
  0.4375758473537805  0.6227582162327655  0.6539033155549592
  0.8124766700380310  0.2047983131484847  0.3461322752286273
  0.4380595849590238  0.9562856825943497  0.8314701455371791
  0.4375965464378911  0.4562543441157154  0.8312052413893743
  0.3119501149507162  0.5383596655911311  0.2575765273823785
  0.8123903603749860  0.2055032884556456  0.5652504972872134
  0.1874798733884871  0.6228281844985805  0.7865250982974414
  0.8125582617871366  0.2067153881383596  0.8313556577454370
  0.3122586401734377  0.3717779508079737  0.3017884805474412
  0.8125425752866382  0.5389950636661767  0.6098879404497721
  0.5613115338342793  0.0405029925584654  0.8736045775584707
  0.9374881090651238  0.1227094690356512  0.5214382546768678
  0.1872141936320079  0.9559165087477632  0.5650538462145879
  0.9376672586232886  0.6220709822673554  0.5213424394065764
  0.3130644862698852  0.3733274904478075  0.7865130640106976
  0.0621914381989099  0.8728768097428755  0.6537099003836578
  0.3125311311737369  0.8716360548427435  0.3017371994009278
  0.6871600579309551  0.1213891010739477  0.1686135308713166
  0.4372779762462561  0.1215452083223834  0.1686843224121096
  0.6875331414571244  0.9563579353327888  0.6982198896748880
  0.3123453396791056  0.2056791462469983  0.4785845063631638
  0.3123520402779649  0.5379377725382296  0.3899498091491022
  0.5626674205173033  0.5385948655852469  0.3901514669595542
  0.1873017394107380  0.7881763544298032  0.3900684640877850
  0.6874857982429182  0.1227378800331839  0.5215190354794302
  0.9369906375758522  0.6217308921886580  0.1685642408225149
  0.5623418441215018  0.3724449244329578  0.5212545617206766
  0.1876364519328869  0.7879168143547608  0.1265613086863969
  0.0623781328444351  0.3715405369605504  0.1686599527577959
  0.8123180850001094  0.0384790571060921  0.1264477847824423
  0.4376114708318432  0.2903840689995274  0.8735856433779083
  0.1877318737193241  0.4551070457944247  0.3462373372355984
  0.6878374664697871  0.6230130507563303  0.7865086509948069
  0.6875736541835809  0.7881151943992688  0.3902218395767124
  0.1875472795991401  0.1212569227224810  0.1686594732060678
  0.0623243252675740  0.8717123001597924  0.1687501675778935
  0.4377834751053167  0.1240345187809583  0.7865505781150448
  0.4375643496130775  0.9551710083444536  0.3461368590904154
  0.8124773159656652  0.5378924610658642  0.2576407659887623
  0.0627892357820453  0.3728016142454384  0.7865265735701766
  0.9376913559345668  0.9557357039755072  0.4786366148392651
  0.9372210515680842  0.2878171058695847  0.1265144760322039
  0.0621737718813404  0.0378166870321093  0.2575693941484213
  0.4374269953847755  0.6221242759909273  0.5214499213439413
  0.8122252321609579  0.7070732650569790  0.8315125225965306
  0.4374391346954955  0.7881002509557956  0.3901568346401166
  0.5623426244488621  0.0397446827379428  0.6099261143203984
  0.0628107193300325  0.8723594883661768  0.5214287224182749
  0.9382672845859491  0.7907159682005863  0.8736173397894590
  0.3128164812108420  0.5400380783731926  0.8733597627237545
  0.3120419843464008  0.0377746964142599  0.1265767374203973
  0.4374195876765127  0.9546270383795197  0.2134174356469704
  0.9373038806109278  0.9547299196985153  0.3461966526029868
  0.3129049040063731  0.5396523957023055  0.7424467064071356
  0.1873196014128056  0.4558800668509675  0.5652323365372819
  0.3124915657834494  0.2042563337178075  0.2134696528220972
  0.3124825647999354  0.8724013479483499  0.5214722523685404
  0.3125072312403638  0.0384802086257114  0.3901545301592029
  0.4370301544319100  0.9556258409346977  0.4787315142781922
  0.0623839271714789  0.7056813303644406  0.4786173937557986
  0.0624376832731505  0.7055667607385617  0.5651340911407868
  0.5618542665674795  0.5373337600688921  0.1265378457047794
  0.0623508896503074  0.3730392286792411  0.6538783933311313
  0.4372433274216365  0.2877112857882663  0.1264912981940096
  0.0626926981004460  0.3723687350205535  0.5215080397007115
  0.4377051724476606  0.7894335091206816  0.6099082766779138
  0.8121689787065332  0.8712657354218682  0.3016858624618890
  0.3121784735550317  0.8711402466900275  0.1686572430244870
  0.9371169681155154  0.1215598848663249  0.1686996543374367
  0.5629053062841520  0.0398869535588356  0.7424530186046934
  0.3125920852756057  0.7058684989424631  0.8312996935995074
  0.4373091336451769  0.6227247540290306  0.7863378574750619
  0.8124072375083907  0.0383905197441385  0.3901275578810064
  0.8124787320048271  0.7052430387856136  0.5651463475920526
  0.0628444252269411  0.0395103021386806  0.6099322072100006
  0.0629193470360131  0.7064044927219336  0.8313650483959164
  0.1876270898114719  0.7903072749596205  0.7424097183291964
  0.8116655613817449  0.8733209312333188  0.7863390505305498
  0.3122087771275816  0.2049298051335311  0.3462658647445699
  0.5622789492851961  0.8730916340992517  0.4346027401575769
  0.6877886991080607  0.7899461135235152  0.8733409529239272
  0.0640104504591428  0.8736411534075913  0.7862892297257692
  0.6880459198479475  0.1214690148039180  0.3018448936209372
  0.8125304212666954  0.7046407922918725  0.2136542082959398
  0.4369409513963118  0.9562314358494808  0.5653501066372351
  0.5625632561313817  0.3722919370133151  0.4348511948331070
  0.4381266541888997  0.1234037137232876  0.6537322260851227
  0.5620618098806587  0.0377356407734655  0.2573326703270911
  0.3125035758246654  0.0397839195235923  0.7425625684703525
  0.9371278139077145  0.2881003527632476  0.2576476597460197
  0.5626462284374060  0.7052628319673900  0.4786651203992111
  0.1885722704279148  0.6219543560693593  0.4348166527377917
  0.9374480624055356  0.9562862067102866  0.6983004355574446
  0.8124648734601280  0.8722422988643173  0.5214245480757480
  0.1877155383233130  0.7894301005255874  0.6096557006673621
  0.9365283008615700  0.6217954695534825  0.4347423642063907
  0.3128639509552750  0.8726292550824539  0.6538677079239741
 
  0.00000000E+00  0.00000000E+00  0.00000000E+00
  0.00000000E+00  0.00000000E+00  0.00000000E+00
  0.00000000E+00  0.00000000E+00  0.00000000E+00
  0.00000000E+00  0.00000000E+00  0.00000000E+00
  0.00000000E+00  0.00000000E+00  0.00000000E+00
  0.00000000E+00  0.00000000E+00  0.00000000E+00
  0.00000000E+00  0.00000000E+00  0.00000000E+00
  0.00000000E+00  0.00000000E+00  0.00000000E+00
  0.00000000E+00  0.00000000E+00  0.00000000E+00
  0.00000000E+00  0.00000000E+00  0.00000000E+00
  0.00000000E+00  0.00000000E+00  0.00000000E+00
  0.00000000E+00  0.00000000E+00  0.00000000E+00
  0.00000000E+00  0.00000000E+00  0.00000000E+00
  0.00000000E+00  0.00000000E+00  0.00000000E+00
  0.00000000E+00  0.00000000E+00  0.00000000E+00
  0.00000000E+00  0.00000000E+00  0.00000000E+00
  0.00000000E+00  0.00000000E+00  0.00000000E+00
  0.00000000E+00  0.00000000E+00  0.00000000E+00
  0.00000000E+00  0.00000000E+00  0.00000000E+00
  0.00000000E+00  0.00000000E+00  0.00000000E+00
  0.00000000E+00  0.00000000E+00  0.00000000E+00
  0.00000000E+00  0.00000000E+00  0.00000000E+00
  0.00000000E+00  0.00000000E+00  0.00000000E+00
  0.00000000E+00  0.00000000E+00  0.00000000E+00
  0.00000000E+00  0.00000000E+00  0.00000000E+00
  0.00000000E+00  0.00000000E+00  0.00000000E+00
  0.00000000E+00  0.00000000E+00  0.00000000E+00
  0.00000000E+00  0.00000000E+00  0.00000000E+00
  0.00000000E+00  0.00000000E+00  0.00000000E+00
  0.00000000E+00  0.00000000E+00  0.00000000E+00
  0.00000000E+00  0.00000000E+00  0.00000000E+00
  0.00000000E+00  0.00000000E+00  0.00000000E+00
  0.00000000E+00  0.00000000E+00  0.00000000E+00
  0.00000000E+00  0.00000000E+00  0.00000000E+00
  0.00000000E+00  0.00000000E+00  0.00000000E+00
  0.00000000E+00  0.00000000E+00  0.00000000E+00
  0.00000000E+00  0.00000000E+00  0.00000000E+00
  0.00000000E+00  0.00000000E+00  0.00000000E+00
  0.00000000E+00  0.00000000E+00  0.00000000E+00
  0.00000000E+00  0.00000000E+00  0.00000000E+00
  0.00000000E+00  0.00000000E+00  0.00000000E+00
  0.00000000E+00  0.00000000E+00  0.00000000E+00
  0.00000000E+00  0.00000000E+00  0.00000000E+00
  0.00000000E+00  0.00000000E+00  0.00000000E+00
  0.00000000E+00  0.00000000E+00  0.00000000E+00
  0.00000000E+00  0.00000000E+00  0.00000000E+00
  0.00000000E+00  0.00000000E+00  0.00000000E+00
  0.00000000E+00  0.00000000E+00  0.00000000E+00
  0.00000000E+00  0.00000000E+00  0.00000000E+00
  0.00000000E+00  0.00000000E+00  0.00000000E+00
  0.00000000E+00  0.00000000E+00  0.00000000E+00
  0.00000000E+00  0.00000000E+00  0.00000000E+00
  0.00000000E+00  0.00000000E+00  0.00000000E+00
  0.00000000E+00  0.00000000E+00  0.00000000E+00
  0.00000000E+00  0.00000000E+00  0.00000000E+00
  0.00000000E+00  0.00000000E+00  0.00000000E+00
  0.00000000E+00  0.00000000E+00  0.00000000E+00
  0.00000000E+00  0.00000000E+00  0.00000000E+00
  0.00000000E+00  0.00000000E+00  0.00000000E+00
  0.00000000E+00  0.00000000E+00  0.00000000E+00
  0.00000000E+00  0.00000000E+00  0.00000000E+00
  0.00000000E+00  0.00000000E+00  0.00000000E+00
  0.00000000E+00  0.00000000E+00  0.00000000E+00
  0.00000000E+00  0.00000000E+00  0.00000000E+00
  0.00000000E+00  0.00000000E+00  0.00000000E+00
  0.00000000E+00  0.00000000E+00  0.00000000E+00
  0.00000000E+00  0.00000000E+00  0.00000000E+00
  0.00000000E+00  0.00000000E+00  0.00000000E+00
  0.00000000E+00  0.00000000E+00  0.00000000E+00
  0.00000000E+00  0.00000000E+00  0.00000000E+00
  0.00000000E+00  0.00000000E+00  0.00000000E+00
  0.00000000E+00  0.00000000E+00  0.00000000E+00
  0.00000000E+00  0.00000000E+00  0.00000000E+00
  0.00000000E+00  0.00000000E+00  0.00000000E+00
  0.00000000E+00  0.00000000E+00  0.00000000E+00
  0.00000000E+00  0.00000000E+00  0.00000000E+00
  0.00000000E+00  0.00000000E+00  0.00000000E+00
  0.00000000E+00  0.00000000E+00  0.00000000E+00
  0.00000000E+00  0.00000000E+00  0.00000000E+00
  0.00000000E+00  0.00000000E+00  0.00000000E+00
  0.00000000E+00  0.00000000E+00  0.00000000E+00
  0.00000000E+00  0.00000000E+00  0.00000000E+00
  0.00000000E+00  0.00000000E+00  0.00000000E+00
  0.00000000E+00  0.00000000E+00  0.00000000E+00
  0.00000000E+00  0.00000000E+00  0.00000000E+00
  0.00000000E+00  0.00000000E+00  0.00000000E+00
  0.00000000E+00  0.00000000E+00  0.00000000E+00
  0.00000000E+00  0.00000000E+00  0.00000000E+00
  0.00000000E+00  0.00000000E+00  0.00000000E+00
  0.00000000E+00  0.00000000E+00  0.00000000E+00
  0.00000000E+00  0.00000000E+00  0.00000000E+00
  0.00000000E+00  0.00000000E+00  0.00000000E+00
  0.00000000E+00  0.00000000E+00  0.00000000E+00
  0.00000000E+00  0.00000000E+00  0.00000000E+00
  0.00000000E+00  0.00000000E+00  0.00000000E+00
  0.00000000E+00  0.00000000E+00  0.00000000E+00
  0.00000000E+00  0.00000000E+00  0.00000000E+00
  0.00000000E+00  0.00000000E+00  0.00000000E+00
  0.00000000E+00  0.00000000E+00  0.00000000E+00
  0.00000000E+00  0.00000000E+00  0.00000000E+00
  0.00000000E+00  0.00000000E+00  0.00000000E+00
  0.00000000E+00  0.00000000E+00  0.00000000E+00
  0.00000000E+00  0.00000000E+00  0.00000000E+00
  0.00000000E+00  0.00000000E+00  0.00000000E+00
  0.00000000E+00  0.00000000E+00  0.00000000E+00
  0.00000000E+00  0.00000000E+00  0.00000000E+00
  0.00000000E+00  0.00000000E+00  0.00000000E+00
  0.00000000E+00  0.00000000E+00  0.00000000E+00
  0.00000000E+00  0.00000000E+00  0.00000000E+00
  0.00000000E+00  0.00000000E+00  0.00000000E+00
  0.00000000E+00  0.00000000E+00  0.00000000E+00
  0.00000000E+00  0.00000000E+00  0.00000000E+00
  0.00000000E+00  0.00000000E+00  0.00000000E+00
  0.00000000E+00  0.00000000E+00  0.00000000E+00
  0.00000000E+00  0.00000000E+00  0.00000000E+00
  0.00000000E+00  0.00000000E+00  0.00000000E+00
  0.00000000E+00  0.00000000E+00  0.00000000E+00
  0.00000000E+00  0.00000000E+00  0.00000000E+00
  0.00000000E+00  0.00000000E+00  0.00000000E+00
  0.00000000E+00  0.00000000E+00  0.00000000E+00
  0.00000000E+00  0.00000000E+00  0.00000000E+00
  0.00000000E+00  0.00000000E+00  0.00000000E+00
  0.00000000E+00  0.00000000E+00  0.00000000E+00
  0.00000000E+00  0.00000000E+00  0.00000000E+00
  0.00000000E+00  0.00000000E+00  0.00000000E+00
  0.00000000E+00  0.00000000E+00  0.00000000E+00
  0.00000000E+00  0.00000000E+00  0.00000000E+00
  0.00000000E+00  0.00000000E+00  0.00000000E+00
  0.00000000E+00  0.00000000E+00  0.00000000E+00
  0.00000000E+00  0.00000000E+00  0.00000000E+00
  0.00000000E+00  0.00000000E+00  0.00000000E+00
  0.00000000E+00  0.00000000E+00  0.00000000E+00
  0.00000000E+00  0.00000000E+00  0.00000000E+00
  0.00000000E+00  0.00000000E+00  0.00000000E+00
  0.00000000E+00  0.00000000E+00  0.00000000E+00
  0.00000000E+00  0.00000000E+00  0.00000000E+00
  0.00000000E+00  0.00000000E+00  0.00000000E+00
  0.00000000E+00  0.00000000E+00  0.00000000E+00
  0.00000000E+00  0.00000000E+00  0.00000000E+00
  0.00000000E+00  0.00000000E+00  0.00000000E+00
  0.00000000E+00  0.00000000E+00  0.00000000E+00
  0.00000000E+00  0.00000000E+00  0.00000000E+00
  0.00000000E+00  0.00000000E+00  0.00000000E+00
  0.00000000E+00  0.00000000E+00  0.00000000E+00
  0.00000000E+00  0.00000000E+00  0.00000000E+00
  0.00000000E+00  0.00000000E+00  0.00000000E+00
  0.00000000E+00  0.00000000E+00  0.00000000E+00
  0.00000000E+00  0.00000000E+00  0.00000000E+00
  0.00000000E+00  0.00000000E+00  0.00000000E+00
  0.00000000E+00  0.00000000E+00  0.00000000E+00
  0.00000000E+00  0.00000000E+00  0.00000000E+00
  0.00000000E+00  0.00000000E+00  0.00000000E+00
  0.00000000E+00  0.00000000E+00  0.00000000E+00
  0.00000000E+00  0.00000000E+00  0.00000000E+00
  0.00000000E+00  0.00000000E+00  0.00000000E+00
  0.00000000E+00  0.00000000E+00  0.00000000E+00
  0.00000000E+00  0.00000000E+00  0.00000000E+00
  0.00000000E+00  0.00000000E+00  0.00000000E+00
  0.00000000E+00  0.00000000E+00  0.00000000E+00
  0.00000000E+00  0.00000000E+00  0.00000000E+00
  0.00000000E+00  0.00000000E+00  0.00000000E+00
  0.00000000E+00  0.00000000E+00  0.00000000E+00
  0.00000000E+00  0.00000000E+00  0.00000000E+00
  0.00000000E+00  0.00000000E+00  0.00000000E+00
  0.00000000E+00  0.00000000E+00  0.00000000E+00
  0.00000000E+00  0.00000000E+00  0.00000000E+00
  0.00000000E+00  0.00000000E+00  0.00000000E+00
  0.00000000E+00  0.00000000E+00  0.00000000E+00
  0.00000000E+00  0.00000000E+00  0.00000000E+00
  0.00000000E+00  0.00000000E+00  0.00000000E+00
  0.00000000E+00  0.00000000E+00  0.00000000E+00
  0.00000000E+00  0.00000000E+00  0.00000000E+00
  0.00000000E+00  0.00000000E+00  0.00000000E+00
  0.00000000E+00  0.00000000E+00  0.00000000E+00
  0.00000000E+00  0.00000000E+00  0.00000000E+00
  0.00000000E+00  0.00000000E+00  0.00000000E+00
  0.00000000E+00  0.00000000E+00  0.00000000E+00
  0.00000000E+00  0.00000000E+00  0.00000000E+00
  0.00000000E+00  0.00000000E+00  0.00000000E+00
  0.00000000E+00  0.00000000E+00  0.00000000E+00
  0.00000000E+00  0.00000000E+00  0.00000000E+00
  0.00000000E+00  0.00000000E+00  0.00000000E+00
  0.00000000E+00  0.00000000E+00  0.00000000E+00
  0.00000000E+00  0.00000000E+00  0.00000000E+00
  0.00000000E+00  0.00000000E+00  0.00000000E+00
  0.00000000E+00  0.00000000E+00  0.00000000E+00
  0.00000000E+00  0.00000000E+00  0.00000000E+00
  0.00000000E+00  0.00000000E+00  0.00000000E+00
  0.00000000E+00  0.00000000E+00  0.00000000E+00
  0.00000000E+00  0.00000000E+00  0.00000000E+00
  0.00000000E+00  0.00000000E+00  0.00000000E+00
  0.00000000E+00  0.00000000E+00  0.00000000E+00
  0.00000000E+00  0.00000000E+00  0.00000000E+00
  0.00000000E+00  0.00000000E+00  0.00000000E+00
  0.00000000E+00  0.00000000E+00  0.00000000E+00
  0.00000000E+00  0.00000000E+00  0.00000000E+00
  0.00000000E+00  0.00000000E+00  0.00000000E+00
  0.00000000E+00  0.00000000E+00  0.00000000E+00
  0.00000000E+00  0.00000000E+00  0.00000000E+00
  0.00000000E+00  0.00000000E+00  0.00000000E+00
  0.00000000E+00  0.00000000E+00  0.00000000E+00
  0.00000000E+00  0.00000000E+00  0.00000000E+00
  0.00000000E+00  0.00000000E+00  0.00000000E+00
  0.00000000E+00  0.00000000E+00  0.00000000E+00
  0.00000000E+00  0.00000000E+00  0.00000000E+00
  0.00000000E+00  0.00000000E+00  0.00000000E+00
  0.00000000E+00  0.00000000E+00  0.00000000E+00
  0.00000000E+00  0.00000000E+00  0.00000000E+00
  0.00000000E+00  0.00000000E+00  0.00000000E+00
  0.00000000E+00  0.00000000E+00  0.00000000E+00
  0.00000000E+00  0.00000000E+00  0.00000000E+00
  0.00000000E+00  0.00000000E+00  0.00000000E+00
  0.00000000E+00  0.00000000E+00  0.00000000E+00
  0.00000000E+00  0.00000000E+00  0.00000000E+00
  0.00000000E+00  0.00000000E+00  0.00000000E+00
  0.00000000E+00  0.00000000E+00  0.00000000E+00
  0.00000000E+00  0.00000000E+00  0.00000000E+00
  0.00000000E+00  0.00000000E+00  0.00000000E+00
  0.00000000E+00  0.00000000E+00  0.00000000E+00
  0.00000000E+00  0.00000000E+00  0.00000000E+00
  0.00000000E+00  0.00000000E+00  0.00000000E+00
  0.00000000E+00  0.00000000E+00  0.00000000E+00
  0.00000000E+00  0.00000000E+00  0.00000000E+00
  0.00000000E+00  0.00000000E+00  0.00000000E+00
  0.00000000E+00  0.00000000E+00  0.00000000E+00
  0.00000000E+00  0.00000000E+00  0.00000000E+00
  0.00000000E+00  0.00000000E+00  0.00000000E+00
  0.00000000E+00  0.00000000E+00  0.00000000E+00
  0.00000000E+00  0.00000000E+00  0.00000000E+00
  0.00000000E+00  0.00000000E+00  0.00000000E+00
  0.00000000E+00  0.00000000E+00  0.00000000E+00
  0.00000000E+00  0.00000000E+00  0.00000000E+00
  0.00000000E+00  0.00000000E+00  0.00000000E+00
  0.00000000E+00  0.00000000E+00  0.00000000E+00
  0.00000000E+00  0.00000000E+00  0.00000000E+00
  0.00000000E+00  0.00000000E+00  0.00000000E+00
  0.00000000E+00  0.00000000E+00  0.00000000E+00
  0.00000000E+00  0.00000000E+00  0.00000000E+00
  0.00000000E+00  0.00000000E+00  0.00000000E+00
  0.00000000E+00  0.00000000E+00  0.00000000E+00
  0.00000000E+00  0.00000000E+00  0.00000000E+00
  0.00000000E+00  0.00000000E+00  0.00000000E+00
  0.00000000E+00  0.00000000E+00  0.00000000E+00
  0.00000000E+00  0.00000000E+00  0.00000000E+00
  0.00000000E+00  0.00000000E+00  0.00000000E+00
  0.00000000E+00  0.00000000E+00  0.00000000E+00
  0.00000000E+00  0.00000000E+00  0.00000000E+00