FeMn_288_15                             
    1.000000000000000     
     9.7266779999999997    0.0000000000000000    0.0000000000000000
     0.0000000000000000    8.4235500000000005    0.0000000000000000
     0.0000000000000000    0.0000000000000000   45.0000000000000000
   Fe   Mn
   273    15
Direct
  0.4376151392548627  0.7891543188395983  0.2577007139026237
  0.4371741226571424  0.9552942233880318  0.8312500753651128
  0.1874656446212084  0.6225658406989295  0.4348726135935148
  0.4373329416540007  0.4557796697423352  0.6980575747520067
  0.5628133610587147  0.7054587960951816  0.5651303370619583
  0.0624092146351759  0.8722520318864527  0.5213847101783592
  0.0625284056579966  0.2059487519044353  0.3462192180150986
  0.9382209749852390  0.7892657291761481  0.1265063719193645
  0.8125787898767508  0.0389634999683576  0.7423191542011203
  0.0626142577078252  0.0388135200942204  0.2576921973327837
  0.0625823399570386  0.0392948752451948  0.3902316437880822
  0.8124301437241241  0.7055572343474615  0.4786695593853096
  0.6873990845745174  0.6224562782477863  0.6537541263907397
  0.6874447976261219  0.1223663663290193  0.7864564535656535
  0.9374507294490056  0.6223289964385625  0.5213457380363186
  0.5624873554497090  0.7059009271110706  0.2136138545982623
  0.8120980100159222  0.0393662779348216  0.1266383268430816
  0.0624594827482901  0.7056752375154182  0.8311894427262602
  0.3126610236062397  0.8722434174560640  0.5213792497624699
  0.9375587035342944  0.4555102911712477  0.4786953175627218
  0.3125885344797851  0.3720017514680857  0.7863663529124206
  0.6874945788632074  0.7887767640276480  0.7422545741050276
  0.9376719701097682  0.4556670689098758  0.5650901721256799
  0.5624930280153062  0.5386911638267283  0.7422669994006991
  0.9375905509470760  0.4558677303650608  0.2136131025886273
  0.1875351873089870  0.4558697232237420  0.2136540471605659
  0.6871631340661909  0.2888272362168940  0.6097318876995703
  0.0625559360957644  0.5388561289892642  0.7422188805905451
  0.3125530042162052  0.5390221869336597  0.7423292719800555
  0.5624264078349869  0.3723070642691255  0.4350144984326513
  0.0625497358770696  0.3727823520736911  0.1687413990937777
  0.8127606040545738  0.7057339853502037  0.3463181993723088
  0.3123350064927862  0.8725117933852408  0.4349316121729556
  0.4375949445696220  0.9552187888675343  0.3463108019236641
  0.8122256068193738  0.8726449792680679  0.3020320712950105
  0.8123500036354371  0.0388528933380717  0.8734068811839389
  0.6874667535613360  0.1221701776298063  0.5212747973849724
  0.0629113697367681  0.0389991115302630  0.6097163732921302
  0.3121388628572445  0.5385546211492906  0.6097411791797837
  0.9374970363365723  0.9551636178758975  0.6981700647273944
  0.0622514044750409  0.7057632747949483  0.5650833781373332
  0.5624052443994173  0.8721863345580383  0.4348622567685325
  0.8113460611364831  0.5381833757131079  0.1265839580482833
  0.6873156427051954  0.6224834785352618  0.1688500305011812
  0.1876707503138484  0.2886790365705222  0.6097023578235230
  0.0625598492516965  0.7051847241984344  0.6979863276137905
  0.5626703411598980  0.7054684482202791  0.8312634533395153
  0.5625811433459182  0.0387382284965843  0.1265657275258039
  0.6874922040861621  0.4558490212115110  0.8311968813231058
  0.8126642025777087  0.0389438417435139  0.3902595095994485
  0.4373182813551043  0.1224762044879984  0.3020255800746720
  0.3123637549565492  0.7056414425248781  0.3463678186975150
  0.9375812690970798  0.9553859881242571  0.5650523467572208
  0.0624811576921501  0.3724210847740496  0.3019884022757123
  0.6874924623046929  0.9557140458052527  0.8311679376680214
  0.4370758428039891  0.6221277927225242  0.7863882756972770
  0.4375173186789730  0.7891029450893258  0.7422882291537310
  0.0625124934547796  0.8722842062924153  0.3019465281095768
  0.0624606458664576  0.8722093228677229  0.4349086949236878
  0.4376130019612593  0.7892565103738139  0.3902189568900321
  0.6873845196740140  0.9551506849591618  0.5650348232836829
  0.9376369164657283  0.9557996411325989  0.4785938169046896
  0.8122458420610078  0.7056856453566687  0.8311437400734352
  0.3125588386609996  0.5390365788330831  0.3902530978840944
  0.5627000634960591  0.8723827666644365  0.7863859732591798
  0.3124430865019412  0.2056859013662508  0.8311135962025488
  0.5625485069399727  0.3723544940168887  0.3019888800328838
  0.9377234992449636  0.7889795128488529  0.8733494871848362
  0.4371277162536042  0.7892294946573860  0.1266186587766197
  0.3125686088965606  0.7055103911684425  0.4786397704724995
  0.6873612273712312  0.9557131920135574  0.6980992874302160
  0.8122907978614552  0.2057606312778625  0.2136897941956099
  0.9374836412844805  0.6224353245495726  0.3019157198149333
  0.0621054728387234  0.0391404053429736  0.8733960291634451
  0.1875078671895234  0.7895043789639652  0.3902830983849367
  0.0627744399565429  0.3722451674334724  0.5213718494290307
  0.4376322873740662  0.6222181249984648  0.5213641927939956
  0.5625911821808628  0.7056082260432089  0.4785986696114045
  0.1873911826952919  0.1224051170863403  0.3020153698143117
  0.1873126662370778  0.1222080695145465  0.6536607768140531
  0.1876429170006410  0.2888654699883448  0.8733056263887310
  0.5624578701157492  0.3726470994038478  0.1687789206885214
  0.9377269694995184  0.1221089854957053  0.1689402510998353
  0.9372199087946148  0.6224124088181899  0.4349209892141069
  0.1873761017088959  0.1221674581459381  0.7863829892892849
  0.6879058815571761  0.7895251220926909  0.1265997100135297
  0.6875224102250590  0.6222241355930862  0.5213511930084427
  0.8128207129985433  0.3725597166651037  0.1687370851037507
  0.9372633777171486  0.7885868408216898  0.7421652828219171
  0.4373304356219973  0.4557535789315136  0.3463101580716066
  0.6872385096016207  0.4553883267580566  0.6981317252092728
  0.3129744206595797  0.8725331991323219  0.1688130688702078
  0.3130850448621860  0.7054858559927882  0.2137071696936684
  0.6871684664746319  0.2888895331183330  0.3902854033014094
  0.1868912207771464  0.6221139701222543  0.1685782022885793
  0.1877865108217316  0.2893097861501318  0.3903154796092162
  0.3124504763398450  0.3725283139960985  0.5213898775627458
  0.5625558984056136  0.2053328934835116  0.8312181066689276
  0.3123030480151684  0.3721786616917915  0.3019564710650278
  0.9373852383194663  0.9555698133008631  0.2136402562010590
  0.5625559981543230  0.3721721320347010  0.7864055457764709
  0.1873754724492165  0.4558646839200687  0.6981653093782908
  0.0625915412701305  0.5387696162220279  0.8732744436327354
  0.4375478729339071  0.4556284905620188  0.5651528371632939
  0.1871094236991684  0.7889684406120283  0.2577182474930651
  0.5624584270914593  0.8721167396587253  0.5213209580708728
  0.8126733302347434  0.2059635335311358  0.3463397055990813
  0.8125348831535980  0.8723715738371371  0.5213084237353949
  0.8123569466680074  0.5391914378699656  0.3902140986211450
  0.4376861330915084  0.2886012685852930  0.6097785368175336
  0.4378800330836028  0.1222602608344544  0.4349077430781076
  0.8120270255763742  0.7053463299817945  0.2136865038432347
  0.1873724476816561  0.4554999005542478  0.4785631094849532
  0.6876563344393443  0.9554777236083348  0.3463156095464054
  0.4376949819162388  0.1219501101056511  0.5213816081697169
  0.9374566275499062  0.4556105593625601  0.8311594464355858
  0.5626556963378505  0.5388226477491759  0.3902349285632132
  0.1874362135432311  0.1220900091286744  0.5212297210364030
  0.8119259511681958  0.8723118183102184  0.1688256430862816
  0.1875103221210186  0.2891474062867262  0.7422413004587409
  0.6877234636110630  0.2895721926467160  0.1265454453550175
  0.5629836835097825  0.0390119597709898  0.8733941287380003
  0.0624125423870380  0.0385582623748264  0.7423132918673134
  0.4372482205449194  0.2887130464650162  0.8733131502196906
  0.3126675278346345  0.0392451467549275  0.1265999292812300
  0.9374686163575825  0.1219540599519838  0.5213164741239853
  0.9375332098095870  0.2889140617777985  0.7422372574456133
  0.6876396962506693  0.1227628802077760  0.3020282324581001
  0.6871497254862738  0.7891583973415157  0.3903154246387415
  0.9376798507988103  0.1224301879013097  0.7864311362134140
  0.3125511634562861  0.0392164289935410  0.2578141373230325
  0.5623986014600719  0.3720720355382772  0.5214386218784561
  0.5626170244297549  0.2060252561002948  0.2135962786126906
  0.1874348663046715  0.6223111996643746  0.7863872264523541
  0.0621998349000151  0.2054521348103861  0.5650179443481316
  0.1873144832010120  0.2890048727030428  0.2578297353744984
  0.9374539448321092  0.6218120907821959  0.6536277565565815
  0.6875519001477102  0.2881853225737782  0.8733894434881293
  0.5624910391478390  0.0390811581752682  0.3902983732417297
  0.0626128230138265  0.8720772485094916  0.6536281728946063
  0.4372814704821695  0.2889651301436086  0.7421790602389158
  0.1876699646580942  0.9552456688363026  0.4786229254563267
  0.9375620730375808  0.9556025413253741  0.8311966758251346
  0.4377754240911044  0.9554403644736410  0.5651114136696406
  0.3123493085604613  0.2058420887174934  0.3463237005909487
  0.9376813372266644  0.4550487073206607  0.6980435822256335
  0.0627529410400687  0.0399819898838592  0.1266744883544133
  0.8124652618669432  0.2053901108613839  0.5650911599639834
  0.8121533972529725  0.0387491139693627  0.6097410542609369
  0.6874126480618368  0.9556441074609052  0.4786539763311727
  0.4378347877356570  0.6222724200779006  0.4348875942655361
  0.8127880318107378  0.5389881022543683  0.6096414355614560
  0.9382223341289569  0.6220749901679566  0.1685946602804418
  0.1868420274040873  0.7894622820667356  0.1264950032400756
  0.8125618642238215  0.2056096907395059  0.4786128187322893
  0.4373519339979876  0.4555931618453007  0.2135938362445689
  0.9374638612320451  0.2887955919248488  0.8733532363315224
  0.6875331707125812  0.4555128846833104  0.4786681610859554
  0.6875151961448697  0.4556908566848352  0.5651220937115049
  0.5626361124725956  0.5389051872909076  0.6098403943675907
  0.4373379592522906  0.1222479577610561  0.7864017240205926
  0.6876097849456166  0.7883916152753045  0.8733740824040479
  0.3126844141474739  0.2057354747154057  0.4786959019853635
  0.5622791604095374  0.0383251578496163  0.6096445732219300
  0.1873971718278955  0.9559678413417144  0.3463859154488401
  0.6876886538681790  0.7890249504757723  0.2576437528528550
  0.8127597643322172  0.8723107682832300  0.4349567181148326
  0.0623301931683463  0.2058387255111489  0.4785866162889721
  0.3127140121331485  0.7056858388949308  0.6980825026151789
  0.4374265641037368  0.1215929914685398  0.6536393813369771
  0.3128221504502379  0.8723415463136368  0.3019920066919700
  0.3123424159794248  0.5381461461118260  0.8733407792820180
  0.6876894316412236  0.1220716410834446  0.1687198322591689
  0.5624049103601398  0.8723911177162170  0.3020073361680407
  0.8122492079546635  0.7053540404527737  0.6981027417339130
  0.6876821633816118  0.4559419272793890  0.3463400591481821
  0.0625496195968243  0.5393385259402689  0.2577803729706026
  0.4375650484891362  0.6222603738737144  0.6536616298405336
  0.6874566054541543  0.2888624580235460  0.7422768890409203
  0.5625651563497319  0.0389224897442697  0.2578069634404594
  0.4375397906981782  0.1222693848876870  0.1688179557185870
  0.3124869521095965  0.8716874611581783  0.6537631901743997
  0.0623714875124532  0.5384447302759502  0.6097779470282677
  0.1876181010573306  0.9556085468623547  0.2136453116427836
  0.9376645255690811  0.1220475577041618  0.6536836373841531
  0.4376288482064387  0.4555690367952245  0.4786388481635375
  0.4376299544939277  0.6217811005933054  0.3019535127226635
  0.8127654962425350  0.5388820004954211  0.2577475186803119
  0.0625454722407844  0.7061166656836496  0.3462916107999510
  0.5626292075726128  0.5388919839200654  0.2577545260209702
  0.1874014736322310  0.9555009338826000  0.5651141624669994
  0.1874590082877505  0.4555272861731473  0.8310520587303150
  0.6872194025323541  0.7887953501642641  0.6097211562463831
  0.5621173016610284  0.2054111787061945  0.6980910548364940
  0.0624207788631485  0.2053514312701512  0.2137850092210803
  0.3136603906461224  0.5381823473706508  0.1265565099144381
  0.1870752864379399  0.1218698005929598  0.1688155638135504
  0.3126759324538073  0.3724167203072766  0.4348775415022528
  0.1876426151181010  0.9553477848854590  0.8312447252855315
  0.4373534177420599  0.9555501150218704  0.4785993589380838
  0.3123301824454906  0.0389834388210011  0.7422586126659690
  0.5627998608171280  0.2056394410243045  0.5650218340790739
  0.9375133476884006  0.7889162388157938  0.2577803092275260
  0.0624877780984874  0.7054873789471940  0.4786612526630742
  0.3127193928256414  0.0382390362727289  0.6097035204329354
  0.1877924236805215  0.7886136569327645  0.6097311705780644
  0.0624230232726852  0.2055529456270634  0.8312129859032645
  0.4375734918336675  0.9553325374725097  0.6981119967958371
  0.9367373847699290  0.2890776641501184  0.1266697402457872
  0.1876515320471571  0.7889843472988158  0.8734252724297097
  0.1874313166616626  0.6222735503290785  0.5213740265689581
  0.0625472717354874  0.8710966199447887  0.1686356376938228
  0.8124026045490070  0.3723611801901531  0.6536769943079461
  0.9376943922191519  0.1228036966244581  0.3019084289554902
  0.3126820094983797  0.3720751719580747  0.6537699002924073
  0.8123431258337378  0.0388700099648166  0.2577857089139340
  0.3125193932952908  0.7059581365086020  0.8311923650978380
  0.5626560502916375  0.5387664120496434  0.8733515784811027
  0.3121062940423927  0.5387824108160607  0.2577633848414367
  0.6874840871867008  0.1222519820979293  0.4348588175835218
  0.8126783810845875  0.3725712401405448  0.3019066282785251
  0.8126268729023360  0.3725859167318007  0.4348840626220348
  0.5624972785753108  0.2058271939462694  0.3463903377544786
  0.9376387294226990  0.2891249447431731  0.3902747751934309
  0.8122289831874734  0.5388737814850932  0.7423016727443249
  0.6875955289288768  0.4555149848923461  0.2136321364802245
  0.1882584677224995  0.2891637923491707  0.1266610267618077
  0.4373785647715702  0.2889297033677459  0.3902729328348344
  0.1873981456498834  0.4553264327446874  0.5651164706368946
  0.9375422726171010  0.7888725005278142  0.6097741729677288
  0.9375034697712509  0.4558415134310847  0.3463814977239159
  0.3121635184737598  0.3726773568184152  0.1687314287341612
  0.9372606093049886  0.1223488629524487  0.4348349451516134
  0.4374301148784250  0.7885618875625308  0.6097109506999795
  0.5624987012065247  0.2058240317558654  0.4785935846515216
  0.8124465411608752  0.3721396086033756  0.5213382804194074
  0.6876938166679575  0.2888888441264725  0.2577971936005615
  0.1872761089657526  0.9551337977542975  0.6981017611025098
  0.3127078788677781  0.2059495512534296  0.2137066937055070
  0.8123298413378514  0.8723079656622089  0.6536990484394607
  0.0621633749438157  0.8725164374528130  0.7863510944940593
  0.4374933265306278  0.4553937393097580  0.8310966665643835
  0.0623574872651687  0.3724462542518364  0.4348332026255151
  0.1876163505114794  0.6220554508144612  0.3018898991822374
  0.0622321810430140  0.3721374038028513  0.7864395345335475
  0.9373758231702177  0.9559774264274548  0.3463061282562079
  0.9374993172857597  0.2888193690927088  0.2578660187994546
  0.5625977464863069  0.8728455095865605  0.1686885739193557
  0.6873484419887198  0.6219613904859912  0.3019210528628676
  0.8122489965568767  0.5387772324734510  0.8733777207578177
  0.1875031248901740  0.4559975543331068  0.3463079504882025
  0.4376436208791027  0.6227859520689247  0.1687628212010516
  0.0627982784308602  0.2052442688012585  0.6981641063465596
  0.5626804726485454  0.3720997629652306  0.6537442740774841
  0.8124199954268195  0.2055222114297130  0.8311760088990974
  0.1877883819357698  0.6216953740543182  0.6536325414060385
  0.8127059630973542  0.7053196095349393  0.5650756711702561
  0.6878689808785272  0.1219902871438154  0.6536322132224182
  0.9378934083458003  0.6219933074044113  0.7864174680574146
  0.4373090124292919  0.2895043886745975  0.1265553899526775
  0.0625853785228405  0.5391972864664833  0.3902053037354010
  0.5624580549041255  0.0389767541020593  0.7422359068354515
  0.3122690094853700  0.7052155304652065  0.5650524823508032
  0.6876089435711636  0.6223712040072285  0.4348807948474842
  0.8125851119340514  0.8719095367777749  0.7864563224677272
  0.5624088228239918  0.7056434407021883  0.6980185792480537
  0.3124305172543758  0.0385839013500865  0.8734017829358784
  0.4369425834895517  0.7890005815261535  0.8734114889350401
  0.5625475426186510  0.5390669678057307  0.1265191262772587
  0.3124668651317198  0.2058588014586489  0.6980271993143949
  0.1875232539272479  0.7889174485544589  0.7422336114681141
  0.8124838631948413  0.3720606551189575  0.7864312427911353
  0.3123942108186709  0.0393841103210280  0.3903029436090608
  0.6874324119706152  0.6217960954416965  0.7861220892352115
  0.6886811416970590  0.9559602767383153  0.2138091811280200
  0.0622997637479894  0.3721959086863134  0.6538881354641928
  0.5624534803426378  0.7054746553151091  0.3464449421916552
  0.9372973062248461  0.2886905733977282  0.6096775100248708
  0.0624611723519417  0.7049741330035049  0.2137598528416221
  0.4364676812764031  0.9564226601693683  0.2139051327633266
  0.9375486996029002  0.7893214098285604  0.3901405263198063
  0.0624681196833768  0.5393267767899487  0.1267400820576762
  0.3126706170207437  0.2053994194892258  0.5650918255407279
  0.1875669960648163  0.1224311533236198  0.4348998605111986
  0.4373604391527204  0.2885982641008666  0.2576577933990403
  0.5624604661695475  0.8721751416267023  0.6535551418284044
  0.8129761176021426  0.2056951000291444  0.6981085925963106
  0.3125088666747984  0.8726112478850261  0.7861828505819247
 
  0.00000000E+00  0.00000000E+00  0.00000000E+00
  0.00000000E+00  0.00000000E+00  0.00000000E+00
  0.00000000E+00  0.00000000E+00  0.00000000E+00
  0.00000000E+00  0.00000000E+00  0.00000000E+00
  0.00000000E+00  0.00000000E+00  0.00000000E+00
  0.00000000E+00  0.00000000E+00  0.00000000E+00
  0.00000000E+00  0.00000000E+00  0.00000000E+00
  0.00000000E+00  0.00000000E+00  0.00000000E+00
  0.00000000E+00  0.00000000E+00  0.00000000E+00
  0.00000000E+00  0.00000000E+00  0.00000000E+00
  0.00000000E+00  0.00000000E+00  0.00000000E+00
  0.00000000E+00  0.00000000E+00  0.00000000E+00
  0.00000000E+00  0.00000000E+00  0.00000000E+00
  0.00000000E+00  0.00000000E+00  0.00000000E+00
  0.00000000E+00  0.00000000E+00  0.00000000E+00
  0.00000000E+00  0.00000000E+00  0.00000000E+00
  0.00000000E+00  0.00000000E+00  0.00000000E+00
  0.00000000E+00  0.00000000E+00  0.00000000E+00
  0.00000000E+00  0.00000000E+00  0.00000000E+00
  0.00000000E+00  0.00000000E+00  0.00000000E+00
  0.00000000E+00  0.00000000E+00  0.00000000E+00
  0.00000000E+00  0.00000000E+00  0.00000000E+00
  0.00000000E+00  0.00000000E+00  0.00000000E+00
  0.00000000E+00  0.00000000E+00  0.00000000E+00
  0.00000000E+00  0.00000000E+00  0.00000000E+00
  0.00000000E+00  0.00000000E+00  0.00000000E+00
  0.00000000E+00  0.00000000E+00  0.00000000E+00
  0.00000000E+00  0.00000000E+00  0.00000000E+00
  0.00000000E+00  0.00000000E+00  0.00000000E+00
  0.00000000E+00  0.00000000E+00  0.00000000E+00
  0.00000000E+00  0.00000000E+00  0.00000000E+00
  0.00000000E+00  0.00000000E+00  0.00000000E+00
  0.00000000E+00  0.00000000E+00  0.00000000E+00
  0.00000000E+00  0.00000000E+00  0.00000000E+00
  0.00000000E+00  0.00000000E+00  0.00000000E+00
  0.00000000E+00  0.00000000E+00  0.00000000E+00
  0.00000000E+00  0.00000000E+00  0.00000000E+00
  0.00000000E+00  0.00000000E+00  0.00000000E+00
  0.00000000E+00  0.00000000E+00  0.00000000E+00
  0.00000000E+00  0.00000000E+00  0.00000000E+00
  0.00000000E+00  0.00000000E+00  0.00000000E+00
  0.00000000E+00  0.00000000E+00  0.00000000E+00
  0.00000000E+00  0.00000000E+00  0.00000000E+00
  0.00000000E+00  0.00000000E+00  0.00000000E+00
  0.00000000E+00  0.00000000E+00  0.00000000E+00
  0.00000000E+00  0.00000000E+00  0.00000000E+00
  0.00000000E+00  0.00000000E+00  0.00000000E+00
  0.00000000E+00  0.00000000E+00  0.00000000E+00
  0.00000000E+00  0.00000000E+00  0.00000000E+00
  0.00000000E+00  0.00000000E+00  0.00000000E+00
  0.00000000E+00  0.00000000E+00  0.00000000E+00
  0.00000000E+00  0.00000000E+00  0.00000000E+00
  0.00000000E+00  0.00000000E+00  0.00000000E+00
  0.00000000E+00  0.00000000E+00  0.00000000E+00
  0.00000000E+00  0.00000000E+00  0.00000000E+00
  0.00000000E+00  0.00000000E+00  0.00000000E+00
  0.00000000E+00  0.00000000E+00  0.00000000E+00
  0.00000000E+00  0.00000000E+00  0.00000000E+00
  0.00000000E+00  0.00000000E+00  0.00000000E+00
  0.00000000E+00  0.00000000E+00  0.00000000E+00
  0.00000000E+00  0.00000000E+00  0.00000000E+00
  0.00000000E+00  0.00000000E+00  0.00000000E+00
  0.00000000E+00  0.00000000E+00  0.00000000E+00
  0.00000000E+00  0.00000000E+00  0.00000000E+00
  0.00000000E+00  0.00000000E+00  0.00000000E+00
  0.00000000E+00  0.00000000E+00  0.00000000E+00
  0.00000000E+00  0.00000000E+00  0.00000000E+00
  0.00000000E+00  0.00000000E+00  0.00000000E+00
  0.00000000E+00  0.00000000E+00  0.00000000E+00
  0.00000000E+00  0.00000000E+00  0.00000000E+00
  0.00000000E+00  0.00000000E+00  0.00000000E+00
  0.00000000E+00  0.00000000E+00  0.00000000E+00
  0.00000000E+00  0.00000000E+00  0.00000000E+00
  0.00000000E+00  0.00000000E+00  0.00000000E+00
  0.00000000E+00  0.00000000E+00  0.00000000E+00
  0.00000000E+00  0.00000000E+00  0.00000000E+00
  0.00000000E+00  0.00000000E+00  0.00000000E+00
  0.00000000E+00  0.00000000E+00  0.00000000E+00
  0.00000000E+00  0.00000000E+00  0.00000000E+00
  0.00000000E+00  0.00000000E+00  0.00000000E+00
  0.00000000E+00  0.00000000E+00  0.00000000E+00
  0.00000000E+00  0.00000000E+00  0.00000000E+00
  0.00000000E+00  0.00000000E+00  0.00000000E+00
  0.00000000E+00  0.00000000E+00  0.00000000E+00
  0.00000000E+00  0.00000000E+00  0.00000000E+00
  0.00000000E+00  0.00000000E+00  0.00000000E+00
  0.00000000E+00  0.00000000E+00  0.00000000E+00
  0.00000000E+00  0.00000000E+00  0.00000000E+00
  0.00000000E+00  0.00000000E+00  0.00000000E+00
  0.00000000E+00  0.00000000E+00  0.00000000E+00
  0.00000000E+00  0.00000000E+00  0.00000000E+00
  0.00000000E+00  0.00000000E+00  0.00000000E+00
  0.00000000E+00  0.00000000E+00  0.00000000E+00
  0.00000000E+00  0.00000000E+00  0.00000000E+00
  0.00000000E+00  0.00000000E+00  0.00000000E+00
  0.00000000E+00  0.00000000E+00  0.00000000E+00
  0.00000000E+00  0.00000000E+00  0.00000000E+00
  0.00000000E+00  0.00000000E+00  0.00000000E+00
  0.00000000E+00  0.00000000E+00  0.00000000E+00
  0.00000000E+00  0.00000000E+00  0.00000000E+00
  0.00000000E+00  0.00000000E+00  0.00000000E+00
  0.00000000E+00  0.00000000E+00  0.00000000E+00
  0.00000000E+00  0.00000000E+00  0.00000000E+00
  0.00000000E+00  0.00000000E+00  0.00000000E+00
  0.00000000E+00  0.00000000E+00  0.00000000E+00
  0.00000000E+00  0.00000000E+00  0.00000000E+00
  0.00000000E+00  0.00000000E+00  0.00000000E+00
  0.00000000E+00  0.00000000E+00  0.00000000E+00
  0.00000000E+00  0.00000000E+00  0.00000000E+00
  0.00000000E+00  0.00000000E+00  0.00000000E+00
  0.00000000E+00  0.00000000E+00  0.00000000E+00
  0.00000000E+00  0.00000000E+00  0.00000000E+00
  0.00000000E+00  0.00000000E+00  0.00000000E+00
  0.00000000E+00  0.00000000E+00  0.00000000E+00
  0.00000000E+00  0.00000000E+00  0.00000000E+00
  0.00000000E+00  0.00000000E+00  0.00000000E+00
  0.00000000E+00  0.00000000E+00  0.00000000E+00
  0.00000000E+00  0.00000000E+00  0.00000000E+00
  0.00000000E+00  0.00000000E+00  0.00000000E+00
  0.00000000E+00  0.00000000E+00  0.00000000E+00
  0.00000000E+00  0.00000000E+00  0.00000000E+00
  0.00000000E+00  0.00000000E+00  0.00000000E+00
  0.00000000E+00  0.00000000E+00  0.00000000E+00
  0.00000000E+00  0.00000000E+00  0.00000000E+00
  0.00000000E+00  0.00000000E+00  0.00000000E+00
  0.00000000E+00  0.00000000E+00  0.00000000E+00
  0.00000000E+00  0.00000000E+00  0.00000000E+00
  0.00000000E+00  0.00000000E+00  0.00000000E+00
  0.00000000E+00  0.00000000E+00  0.00000000E+00
  0.00000000E+00  0.00000000E+00  0.00000000E+00
  0.00000000E+00  0.00000000E+00  0.00000000E+00
  0.00000000E+00  0.00000000E+00  0.00000000E+00
  0.00000000E+00  0.00000000E+00  0.00000000E+00
  0.00000000E+00  0.00000000E+00  0.00000000E+00
  0.00000000E+00  0.00000000E+00  0.00000000E+00
  0.00000000E+00  0.00000000E+00  0.00000000E+00
  0.00000000E+00  0.00000000E+00  0.00000000E+00
  0.00000000E+00  0.00000000E+00  0.00000000E+00
  0.00000000E+00  0.00000000E+00  0.00000000E+00
  0.00000000E+00  0.00000000E+00  0.00000000E+00
  0.00000000E+00  0.00000000E+00  0.00000000E+00
  0.00000000E+00  0.00000000E+00  0.00000000E+00
  0.00000000E+00  0.00000000E+00  0.00000000E+00
  0.00000000E+00  0.00000000E+00  0.00000000E+00
  0.00000000E+00  0.00000000E+00  0.00000000E+00
  0.00000000E+00  0.00000000E+00  0.00000000E+00
  0.00000000E+00  0.00000000E+00  0.00000000E+00
  0.00000000E+00  0.00000000E+00  0.00000000E+00
  0.00000000E+00  0.00000000E+00  0.00000000E+00
  0.00000000E+00  0.00000000E+00  0.00000000E+00
  0.00000000E+00  0.00000000E+00  0.00000000E+00
  0.00000000E+00  0.00000000E+00  0.00000000E+00
  0.00000000E+00  0.00000000E+00  0.00000000E+00
  0.00000000E+00  0.00000000E+00  0.00000000E+00
  0.00000000E+00  0.00000000E+00  0.00000000E+00
  0.00000000E+00  0.00000000E+00  0.00000000E+00
  0.00000000E+00  0.00000000E+00  0.00000000E+00
  0.00000000E+00  0.00000000E+00  0.00000000E+00
  0.00000000E+00  0.00000000E+00  0.00000000E+00
  0.00000000E+00  0.00000000E+00  0.00000000E+00
  0.00000000E+00  0.00000000E+00  0.00000000E+00
  0.00000000E+00  0.00000000E+00  0.00000000E+00
  0.00000000E+00  0.00000000E+00  0.00000000E+00
  0.00000000E+00  0.00000000E+00  0.00000000E+00
  0.00000000E+00  0.00000000E+00  0.00000000E+00
  0.00000000E+00  0.00000000E+00  0.00000000E+00
  0.00000000E+00  0.00000000E+00  0.00000000E+00
  0.00000000E+00  0.00000000E+00  0.00000000E+00
  0.00000000E+00  0.00000000E+00  0.00000000E+00
  0.00000000E+00  0.00000000E+00  0.00000000E+00
  0.00000000E+00  0.00000000E+00  0.00000000E+00
  0.00000000E+00  0.00000000E+00  0.00000000E+00
  0.00000000E+00  0.00000000E+00  0.00000000E+00
  0.00000000E+00  0.00000000E+00  0.00000000E+00
  0.00000000E+00  0.00000000E+00  0.00000000E+00
  0.00000000E+00  0.00000000E+00  0.00000000E+00
  0.00000000E+00  0.00000000E+00  0.00000000E+00
  0.00000000E+00  0.00000000E+00  0.00000000E+00
  0.00000000E+00  0.00000000E+00  0.00000000E+00
  0.00000000E+00  0.00000000E+00  0.00000000E+00
  0.00000000E+00  0.00000000E+00  0.00000000E+00
  0.00000000E+00  0.00000000E+00  0.00000000E+00
  0.00000000E+00  0.00000000E+00  0.00000000E+00
  0.00000000E+00  0.00000000E+00  0.00000000E+00
  0.00000000E+00  0.00000000E+00  0.00000000E+00
  0.00000000E+00  0.00000000E+00  0.00000000E+00
  0.00000000E+00  0.00000000E+00  0.00000000E+00
  0.00000000E+00  0.00000000E+00  0.00000000E+00
  0.00000000E+00  0.00000000E+00  0.00000000E+00
  0.00000000E+00  0.00000000E+00  0.00000000E+00
  0.00000000E+00  0.00000000E+00  0.00000000E+00
  0.00000000E+00  0.00000000E+00  0.00000000E+00
  0.00000000E+00  0.00000000E+00  0.00000000E+00
  0.00000000E+00  0.00000000E+00  0.00000000E+00
  0.00000000E+00  0.00000000E+00  0.00000000E+00
  0.00000000E+00  0.00000000E+00  0.00000000E+00
  0.00000000E+00  0.00000000E+00  0.00000000E+00
  0.00000000E+00  0.00000000E+00  0.00000000E+00
  0.00000000E+00  0.00000000E+00  0.00000000E+00
  0.00000000E+00  0.00000000E+00  0.00000000E+00
  0.00000000E+00  0.00000000E+00  0.00000000E+00
  0.00000000E+00  0.00000000E+00  0.00000000E+00
  0.00000000E+00  0.00000000E+00  0.00000000E+00
  0.00000000E+00  0.00000000E+00  0.00000000E+00
  0.00000000E+00  0.00000000E+00  0.00000000E+00
  0.00000000E+00  0.00000000E+00  0.00000000E+00
  0.00000000E+00  0.00000000E+00  0.00000000E+00
  0.00000000E+00  0.00000000E+00  0.00000000E+00
  0.00000000E+00  0.00000000E+00  0.00000000E+00
  0.00000000E+00  0.00000000E+00  0.00000000E+00
  0.00000000E+00  0.00000000E+00  0.00000000E+00
  0.00000000E+00  0.00000000E+00  0.00000000E+00
  0.00000000E+00  0.00000000E+00  0.00000000E+00
  0.00000000E+00  0.00000000E+00  0.00000000E+00
  0.00000000E+00  0.00000000E+00  0.00000000E+00
  0.00000000E+00  0.00000000E+00  0.00000000E+00
  0.00000000E+00  0.00000000E+00  0.00000000E+00
  0.00000000E+00  0.00000000E+00  0.00000000E+00
  0.00000000E+00  0.00000000E+00  0.00000000E+00
  0.00000000E+00  0.00000000E+00  0.00000000E+00
  0.00000000E+00  0.00000000E+00  0.00000000E+00
  0.00000000E+00  0.00000000E+00  0.00000000E+00
  0.00000000E+00  0.00000000E+00  0.00000000E+00
  0.00000000E+00  0.00000000E+00  0.00000000E+00
  0.00000000E+00  0.00000000E+00  0.00000000E+00
  0.00000000E+00  0.00000000E+00  0.00000000E+00
  0.00000000E+00  0.00000000E+00  0.00000000E+00
  0.00000000E+00  0.00000000E+00  0.00000000E+00
  0.00000000E+00  0.00000000E+00  0.00000000E+00
  0.00000000E+00  0.00000000E+00  0.00000000E+00
  0.00000000E+00  0.00000000E+00  0.00000000E+00
  0.00000000E+00  0.00000000E+00  0.00000000E+00
  0.00000000E+00  0.00000000E+00  0.00000000E+00
  0.00000000E+00  0.00000000E+00  0.00000000E+00
  0.00000000E+00  0.00000000E+00  0.00000000E+00
  0.00000000E+00  0.00000000E+00  0.00000000E+00
  0.00000000E+00  0.00000000E+00  0.00000000E+00
  0.00000000E+00  0.00000000E+00  0.00000000E+00
  0.00000000E+00  0.00000000E+00  0.00000000E+00
  0.00000000E+00  0.00000000E+00  0.00000000E+00
  0.00000000E+00  0.00000000E+00  0.00000000E+00
  0.00000000E+00  0.00000000E+00  0.00000000E+00
  0.00000000E+00  0.00000000E+00  0.00000000E+00
  0.00000000E+00  0.00000000E+00  0.00000000E+00
  0.00000000E+00  0.00000000E+00  0.00000000E+00
  0.00000000E+00  0.00000000E+00  0.00000000E+00
  0.00000000E+00  0.00000000E+00  0.00000000E+00