FeMn_288_15                             
    1.000000000000000     
     9.7266779999999997    0.0000000000000000    0.0000000000000000
     0.0000000000000000    8.4235500000000005    0.0000000000000000
     0.0000000000000000    0.0000000000000000   45.0000000000000000
   Fe   Mn
   273    15
Direct
  0.4375935985999933  0.7895977690403440  0.2577288461014353
  0.4372063514141459  0.9556118117493714  0.8312053333175782
  0.1874575590658498  0.6226280334000487  0.4349165577719187
  0.4373590466371789  0.4552683302511150  0.6979337008244811
  0.5628246059361983  0.7051856902496747  0.5651111256527360
  0.0624233425570758  0.8719631585763107  0.5214047000855256
  0.0625285671916905  0.2062577863875759  0.3463141380734510
  0.9380491956111617  0.7885457594858195  0.1267004374989698
  0.8126147032281106  0.0388449351379703  0.7422487007171007
  0.0626140577358016  0.0392922872393381  0.2577093065363777
  0.0626340175069501  0.0394365065580102  0.3902913952449386
  0.8124465414079716  0.7055259592514568  0.4787012308979000
  0.6874314669827667  0.6219466573201544  0.6536705756847785
  0.6874286349867881  0.1220769619080328  0.7862892362322842
  0.9374569149487056  0.6220650874927011  0.5213567950487437
  0.5624474207292162  0.7062315996403571  0.2137664383980967
  0.8120164998147580  0.0388883022034622  0.1268251322243756
  0.0624416886670027  0.7059978678440462  0.8310917111188512
  0.3126692973054536  0.8719590433968853  0.5213969310420866
  0.9375471681131270  0.4554756682985412  0.4787315810285910
  0.3125962825909763  0.3718294375680931  0.7861901224609632
  0.6875060529228909  0.7885108769706223  0.7422007184017076
  0.9376452209479602  0.4552136035925549  0.5650622154050808
  0.5625125868999089  0.5385138505233572  0.7422010187809180
  0.9375453770508615  0.4562341292787533  0.2137717159810817
  0.1875797819787609  0.4562645772213860  0.2138186162048849
  0.6872789759021314  0.2885436411679525  0.6096760178625679
  0.0625909325710535  0.5386877130570124  0.7421481284285659
  0.3126100850366974  0.5387070457498083  0.7422831116903420
  0.5623979764054027  0.3724036457002302  0.4350958489444384
  0.0625397934120491  0.3725150095458957  0.1688032729548390
  0.8126768736637254  0.7059905216279415  0.3464071057112710
  0.3123599357665772  0.8725895177294577  0.4350088866876529
  0.4375886702400069  0.9556606704398560  0.3463953579609592
  0.8123090978754938  0.8730569309106624  0.3021428118806089
  0.8124346789133614  0.0395693321376529  0.8731882414825000
  0.6874409860458252  0.1219392893750998  0.5212893947197286
  0.0628908709585953  0.0386946985529580  0.6096515811507535
  0.3121695368545786  0.5383201128300792  0.6097182727427898
  0.9375197034797965  0.9547379008705605  0.6980574902781164
  0.0622485704835899  0.7054391732470406  0.5650424351080717
  0.5624082236760835  0.8722870512323211  0.4349052833996160
  0.8112666885903208  0.5376828646142423  0.1267769032552193
  0.6873368627166901  0.6224623541445894  0.1688821528964859
  0.1875619563450585  0.2883602318837580  0.6096284951444643
  0.0625164885084832  0.7048367652448035  0.6978855651137010
  0.5627649665859646  0.7059065570507248  0.8311972123719042
  0.5626268277363967  0.0382198249687841  0.1267287464350763
  0.6875115705109792  0.4563468077124714  0.8310851750150892
  0.8126627869751387  0.0391130818474292  0.3903419890314578
  0.4373033302847848  0.1230360092378407  0.3021283521719796
  0.3124500810324196  0.7059020697154249  0.3464661627725991
  0.9376030187984686  0.9549583729321445  0.5650064786332689
  0.0625115618284877  0.3729291026107334  0.3020895729755107
  0.6874836835859308  0.9559390866367116  0.8310920255169949
  0.4373130488420344  0.6219389854439926  0.7862129248875133
  0.4374458046281544  0.7888182402722945  0.7422175639343446
  0.0624460550561526  0.8727899666839831  0.3020447510961912
  0.0624070856040942  0.8722793709867241  0.4349991900623464
  0.4376581504605855  0.7893841281599633  0.3902817627145639
  0.6873870857689653  0.9548491570957691  0.5649946812456750
  0.9376615894935082  0.9557622757136860  0.4786067847392951
  0.8122480711018694  0.7061255106233200  0.8310814082712680
  0.3124970363341401  0.5391804250256645  0.3903096436656690
  0.5624958655809581  0.8722556536858113  0.7862197511513686
  0.3124359118418434  0.2060209769060192  0.8310251940508557
  0.5625449966792110  0.3727363624193462  0.3021026433923614
  0.9378081719426973  0.7896070261760382  0.8731514762982828
  0.4369665582420425  0.7887223283134178  0.1267612264122381
  0.3125376550121934  0.7055078339307734  0.4786668047025269
  0.6873399282396956  0.9552058524246934  0.6979884182402420
  0.8123673809607591  0.2060619152893510  0.2138469394255534
  0.9374677760992793  0.6229524342013689  0.3020410287785239
  0.0620422424728842  0.0397946913394566  0.8731928994458334
  0.1874260407255957  0.7895910800580480  0.3903322455738135
  0.0627285706495043  0.3720047677497859  0.5214029900311534
  0.4376166168040397  0.6219958131650113  0.5213825109533038
  0.5625673116318664  0.7056018261572879  0.4786352996252228
  0.1873227255993998  0.1228881443184740  0.3021252178370606
  0.1874211142023625  0.1217918958650601  0.6535769644623302
  0.1876239210872547  0.2894952837335000  0.8730855602506142
  0.5624370749767222  0.3725184489780397  0.1688250284178467
  0.9378126333337065  0.1219173588820629  0.1690089203018823
  0.9372260400534278  0.6225641260917211  0.4349811039940486
  0.1873434755317167  0.1219613312521545  0.7862153409168119
  0.6880620870904254  0.7889673337722044  0.1267424520090970
  0.6875139347131544  0.6220075911593710  0.5213740009930519
  0.8128077415434530  0.3723334732311454  0.1688042642805627
  0.9372848372226146  0.7884253527831896  0.7421067242921751
  0.4373468643131864  0.4559639740471007  0.3463902143194261
  0.6871499550410458  0.4549899144543528  0.6980231864421285
  0.3130127885159871  0.8722394043062267  0.1688375029609353
  0.3129991558569012  0.7058391570650115  0.2138587030946068
  0.6871458158671376  0.2890241612998225  0.3903501996566776
  0.1869937109288424  0.6219754286597089  0.1686117743716296
  0.1877747764572558  0.2893734680675419  0.3903849330755628
  0.3124520766980983  0.3722179445372033  0.5214201666311382
  0.5625406476731873  0.2056590445975970  0.8311214309118208
  0.3123138157663459  0.3726134725004943  0.3020701762028823
  0.9372050547710905  0.9558174840181413  0.2137917976257084
  0.5624916777965203  0.3720130675326926  0.7862227226552682
  0.1873749536704724  0.4553712372603416  0.6980661663095272
  0.0626155955333626  0.5393309224722628  0.8730616160502892
  0.4376404130731171  0.4553658571185284  0.5650952631032936
  0.1870927534808297  0.7893268751179686  0.2577757778794372
  0.5624474840340509  0.8718261453066037  0.5213353985197446
  0.8126601049962592  0.2062054684712210  0.3464394737428670
  0.8125143092007849  0.8721150837773156  0.5213370652693775
  0.8123890797840082  0.5392711599062908  0.3902748314249908
  0.4376587376666516  0.2883129324898061  0.6097277647758915
  0.4378071802568851  0.1223278111993332  0.4349670122905804
  0.8121070035613616  0.7056238409506775  0.2138351004002258
  0.1873566576345864  0.4554825780901011  0.4785820430849473
  0.6875930188503979  0.9557960886362779  0.3464074101841010
  0.4376542641857947  0.1217032427831627  0.5213987514397138
  0.9375121449265447  0.4559478685016613  0.8310520089744013
  0.5627093413472600  0.5390591084104220  0.3902839416915875
  0.1874618164661553  0.1218837529825351  0.5212532599557042
  0.8118604741344181  0.8719913841490496  0.1688645838332561
  0.1875044380581085  0.2888841795348505  0.7421584201120734
  0.6878327452362113  0.2890522373616510  0.1267351495579972
  0.5630566530667412  0.0397845812514074  0.8731960531518345
  0.0624540583216310  0.0383994615370952  0.7422440230603933
  0.4372263356625044  0.2893394851544965  0.8730890842264004
  0.3126510245188575  0.0387811722654219  0.1267840067744430
  0.9374881305071888  0.1217423418929893  0.5213465022564181
  0.9375477926784760  0.2887789888385755  0.7421554956473159
  0.6876879229110380  0.1232148658112391  0.3021266701925353
  0.6872611221207375  0.7893598341857559  0.3903824274991985
  0.9377079404748084  0.1222140301865454  0.7862564475287253
  0.3126157899667008  0.0395483628138289  0.2578817155983142
  0.5623848896336636  0.3718275393425327  0.5214692959118179
  0.5626128579213354  0.2064530627567836  0.2137441154136810
  0.1873956504478997  0.6221045612850770  0.7862081770690549
  0.0622559509274124  0.2051759886973233  0.5649949858805408
  0.1873866299802836  0.2893932020774862  0.2578760386380817
  0.9374398052960451  0.6216023681855846  0.6535434601681411
  0.6875853879228898  0.2888607386241180  0.8731559334647881
  0.5624755435637824  0.0392242086706548  0.3903815166422306
  0.0625984788928194  0.8718338481931630  0.6535473422690297
  0.4372703367911528  0.2886713743957091  0.7421090360651902
  0.1876414225236248  0.9552701745279617  0.4786416786803471
  0.9375677032797392  0.9558627310173406  0.8311214904945584
  0.4377862176225241  0.9550230590061670  0.5650718629284173
  0.3123487734640877  0.2061403564635735  0.3464163105351294
  0.9377824060460245  0.4547014249447076  0.6979328651546590
  0.0627977003876386  0.0392283179863340  0.1268704488832946
  0.8125052579499802  0.2051252583177934  0.5650425951829436
  0.8121924026434022  0.0385667981278107  0.6096924705306700
  0.6873957416881288  0.9556293893611582  0.4786894716139894
  0.4378267477026387  0.6223420820245380  0.4349540010318710
  0.8127185534780224  0.5387908013911922  0.6095801858293991
  0.9381446201277954  0.6219204313760840  0.1686406928873928
  0.1870360923743525  0.7888014469201109  0.1266765126630889
  0.8125652989212095  0.2056074014033899  0.4786327604513596
  0.4373699120891354  0.4559511351924291  0.2137610020658957
  0.9375080479970049  0.2893279755501550  0.8731337882164525
  0.6875424576120345  0.4554904231117696  0.4786913155457102
  0.6874736951915946  0.4552806182762308  0.5650903886279552
  0.5626169046121452  0.5386476205829321  0.6098025005606443
  0.4373864413766833  0.1220531345124954  0.7862268812451871
  0.6876093070165954  0.7890429713894304  0.8731883691260303
  0.3126501756303164  0.2057092174300747  0.4787113499826952
  0.5622866988279316  0.0381066918429000  0.6095876245771433
  0.1874706585012993  0.9562022707614870  0.3464890620218159
  0.6876955876265798  0.7895200136309161  0.2576667989324107
  0.8128134321567329  0.8724689931777004  0.4350325013720496
  0.0623641566080525  0.2058162932642491  0.4785976194892998
  0.3126071957236108  0.7053134176016839  0.6979922629601565
  0.4373805017249591  0.1213327686876903  0.6535584517987911
  0.3128551804476380  0.8727912020164502  0.3021009294811277
  0.3123566116920633  0.5388452975377611  0.8731263035521235
  0.6876949737002963  0.1217243001365694  0.1688004200230392
  0.5623628040956106  0.8727838762310195  0.3021331199303435
  0.8122841451258087  0.7050165763495100  0.6979890319961960
  0.6876370478820840  0.4561513745485529  0.3464351674974357
  0.0625471206212929  0.5397526137423393  0.2578437966608944
  0.4375155015693559  0.6218233541805642  0.6535834920851392
  0.6874422479989835  0.2886009485412606  0.7422270818457503
  0.5625232530446914  0.0392903241294274  0.2578656112925092
  0.4375242870265135  0.1219156296343470  0.1689003377572169
  0.3125997934626269  0.8713133510164200  0.6536887207697258
  0.0623463479361187  0.5382314911798924  0.6097449234599110
  0.1878124841775586  0.9558951059018286  0.2137962509123582
  0.9375563499438033  0.1217428323645568  0.6535956346939243
  0.4376031818827559  0.4556222231939593  0.4786703130240247
  0.4376731764358789  0.6223144953597045  0.3020682907509119
  0.8127336757157817  0.5393394015580627  0.2577940753963004
  0.0625371639029619  0.7064127796237402  0.3463773272440667
  0.5626156682979562  0.5393135098808765  0.2577950131254731
  0.1873632220887015  0.9550561131914848  0.5650584842129921
  0.1874980369019212  0.4558423173604604  0.8309583363173165
  0.6871931336533719  0.7885343104263247  0.6096615104102174
  0.5622359411480288  0.2051016888038266  0.6979908771387159
  0.0623979941671916  0.2056945374586621  0.2139623343274440
  0.3137469888648418  0.5377377625676601  0.1267398581324007
  0.1869725229692077  0.1216421439858644  0.1688780044785562
  0.3126890591962391  0.3724881686514189  0.4349633753425988
  0.1876958405634511  0.9556863453343556  0.8311801407472564
  0.4373570156219699  0.9555127247398689  0.4786111957521204
  0.3122924082374886  0.0386548622664391  0.7421983084054991
  0.5627184575483656  0.2053532462107924  0.5649945919682055
  0.9375893728473171  0.7892300081930482  0.2578324212679733
  0.0625100372339260  0.7054584868370127  0.4786862135140953
  0.3126590243097859  0.0380965289620406  0.6096515155500475
  0.1877744619939807  0.7884106190527863  0.6096900371851803
  0.0624761654710529  0.2058459767757243  0.8311326754586276
  0.4376052636544400  0.9550088608289359  0.6980020208014829
  0.9366224936839412  0.2885330666645466  0.1268829640867662
  0.1876795866690189  0.7896165051249417  0.8732174430720953
  0.1874305054882829  0.6219999202563632  0.5213943832816759
  0.0625686408323012  0.8710096464445846  0.1686936195084434
  0.8125488949268640  0.3719787099322484  0.6536006058660823
  0.9377104521535005  0.1231614742131454  0.3020281818779331
  0.3125706660508218  0.3717386330964265  0.6536730439108694
  0.8123104816949051  0.0393128826913761  0.2578476859221932
  0.3125146239836579  0.7064355544438670  0.8310976612694916
  0.5626833777988542  0.5393512544850426  0.8731310735691401
  0.3121496905728578  0.5393234998810276  0.2577990815444718
  0.6874708682148662  0.1223265885846869  0.4349525648071095
  0.8126054318723810  0.3730126411332728  0.3020097781683976
  0.8126016966785297  0.3726362271013629  0.4349662316618009
  0.5624634501393816  0.2060623420759984  0.3464887463451787
  0.9376171537056243  0.2892825512024818  0.3903472940110784
  0.8121620312651534  0.5387570737406445  0.7422291888628438
  0.6875674334114660  0.4559344711787641  0.2138029751721217
  0.1883965598676475  0.2886010737463336  0.1268579821393993
  0.4374264058341484  0.2891473521924267  0.3903483557855504
  0.1873889757011541  0.4549856103170613  0.5650770498794541
  0.9375487937121167  0.7886092522908584  0.6097370932410157
  0.9375140513788542  0.4560805448373316  0.3464557028926138
  0.3121840929725390  0.3724604508297560  0.1687910971816925
  0.9373584758285634  0.1224247917685075  0.4348985698165930
  0.4374588542628891  0.7883187047767118  0.6096496658399323
  0.5624823600970480  0.2058482328578569  0.4786055996340119
  0.8124882162281616  0.3719071567662208  0.5213584175580041
  0.6875869294741942  0.2893471079057298  0.2578422735525474
  0.1872713981051353  0.9547607923418500  0.6979779479866528
  0.3126568539481385  0.2062714228287948  0.2138470427453859
  0.8122322805950420  0.8719874079664677  0.6535977517833450
  0.0622754625105283  0.8723009602366015  0.7861722853969736
  0.4374323325939577  0.4557459663581253  0.8309903053625705
  0.0623042051016030  0.3726278794046698  0.4349109501168239
  0.1876233398180921  0.6225437434060774  0.3020093705191084
  0.0622361634816255  0.3719794891732587  0.7862723264731515
  0.9373042906122157  0.9560598955256923  0.3463773076776465
  0.9375347104738111  0.2892159401660024  0.2579174826308430
  0.5626049453972559  0.8725957550511403  0.1686720127763973
  0.6872764446869687  0.6224637436930536  0.3020283041046140
  0.8122425720958358  0.5394320066709415  0.8731619871700683
  0.1875043392592536  0.4562430080609430  0.3463807115114813
  0.4376040232711222  0.6227972813421921  0.1687849403604312
  0.0626351998426445  0.2049819773557158  0.6980501178634446
  0.5626789379567262  0.3717918871780503  0.6536643504304124
  0.8124293810300098  0.2058990718151988  0.8310749446677306
  0.1878223359285061  0.6214906740372216  0.6535449499375553
  0.8127191201624001  0.7050761812326796  0.5650529227461963
  0.6878414663376502  0.1217209451134146  0.6535291698112045
  0.9378258749385714  0.6218238357901185  0.7862514006177412
  0.4371907476774829  0.2889745540347546  0.1267381585028253
  0.0626122694664428  0.5392368019468688  0.3902726216482194
  0.5624770097593110  0.0387554605290471  0.7421628952306829
  0.3122597160395529  0.7049542425430162  0.5650329418168726
  0.6875556946749223  0.6223964128183237  0.4349232029196946
  0.8126446162651435  0.8718064660459937  0.7862873991150984
  0.5624787122068458  0.7053506881319487  0.6979070234616521
  0.3123842377224356  0.0391910932683455  0.8732063690022014
  0.4368515651421956  0.7896644604908032  0.8732138762700424
  0.5625536402188842  0.5384083168798934  0.1266836573747658
  0.3125156898949409  0.2054166429034743  0.6979305343022506
  0.1875798645650247  0.7887362863858605  0.7421711710732454
  0.8125123873342148  0.3718486314729595  0.7862529292217294
  0.3123789514760391  0.0394616759612695  0.3903810427029907
  0.6873597824561974  0.6216682248487971  0.7859196100790545
  0.6886253413059276  0.9562342557440894  0.2139979368964564
  0.0623124104871322  0.3718081370261371  0.6538454737900867
  0.5624262027619615  0.7058449043669885  0.3465307873502466
  0.9372877905668379  0.2884466441021845  0.6095945859282432
  0.0624756091489264  0.7054099229777091  0.2139223040178621
  0.4365226593464783  0.9567593113884707  0.2140939683252716
  0.9375085300525926  0.7893724328515948  0.3902013853872502
  0.0624249147517493  0.5386728818092399  0.1269541137216852
  0.3127233490373528  0.2052612181672523  0.5650901199007062
  0.1875570997043408  0.1224379669607452  0.4349439202720115
  0.4374043202180248  0.2890811281665070  0.2576537312960184
  0.5624238368313834  0.8717913612404242  0.6535071523536916
  0.8129127693695377  0.2053700221300460  0.6979956926556230
  0.3125619240058325  0.8724077158449587  0.7859882328055994
 
  0.00000000E+00  0.00000000E+00  0.00000000E+00
  0.00000000E+00  0.00000000E+00  0.00000000E+00
  0.00000000E+00  0.00000000E+00  0.00000000E+00
  0.00000000E+00  0.00000000E+00  0.00000000E+00
  0.00000000E+00  0.00000000E+00  0.00000000E+00
  0.00000000E+00  0.00000000E+00  0.00000000E+00
  0.00000000E+00  0.00000000E+00  0.00000000E+00
  0.00000000E+00  0.00000000E+00  0.00000000E+00
  0.00000000E+00  0.00000000E+00  0.00000000E+00
  0.00000000E+00  0.00000000E+00  0.00000000E+00
  0.00000000E+00  0.00000000E+00  0.00000000E+00
  0.00000000E+00  0.00000000E+00  0.00000000E+00
  0.00000000E+00  0.00000000E+00  0.00000000E+00
  0.00000000E+00  0.00000000E+00  0.00000000E+00
  0.00000000E+00  0.00000000E+00  0.00000000E+00
  0.00000000E+00  0.00000000E+00  0.00000000E+00
  0.00000000E+00  0.00000000E+00  0.00000000E+00
  0.00000000E+00  0.00000000E+00  0.00000000E+00
  0.00000000E+00  0.00000000E+00  0.00000000E+00
  0.00000000E+00  0.00000000E+00  0.00000000E+00
  0.00000000E+00  0.00000000E+00  0.00000000E+00
  0.00000000E+00  0.00000000E+00  0.00000000E+00
  0.00000000E+00  0.00000000E+00  0.00000000E+00
  0.00000000E+00  0.00000000E+00  0.00000000E+00
  0.00000000E+00  0.00000000E+00  0.00000000E+00
  0.00000000E+00  0.00000000E+00  0.00000000E+00
  0.00000000E+00  0.00000000E+00  0.00000000E+00
  0.00000000E+00  0.00000000E+00  0.00000000E+00
  0.00000000E+00  0.00000000E+00  0.00000000E+00
  0.00000000E+00  0.00000000E+00  0.00000000E+00
  0.00000000E+00  0.00000000E+00  0.00000000E+00
  0.00000000E+00  0.00000000E+00  0.00000000E+00
  0.00000000E+00  0.00000000E+00  0.00000000E+00
  0.00000000E+00  0.00000000E+00  0.00000000E+00
  0.00000000E+00  0.00000000E+00  0.00000000E+00
  0.00000000E+00  0.00000000E+00  0.00000000E+00
  0.00000000E+00  0.00000000E+00  0.00000000E+00
  0.00000000E+00  0.00000000E+00  0.00000000E+00
  0.00000000E+00  0.00000000E+00  0.00000000E+00
  0.00000000E+00  0.00000000E+00  0.00000000E+00
  0.00000000E+00  0.00000000E+00  0.00000000E+00
  0.00000000E+00  0.00000000E+00  0.00000000E+00
  0.00000000E+00  0.00000000E+00  0.00000000E+00
  0.00000000E+00  0.00000000E+00  0.00000000E+00
  0.00000000E+00  0.00000000E+00  0.00000000E+00
  0.00000000E+00  0.00000000E+00  0.00000000E+00
  0.00000000E+00  0.00000000E+00  0.00000000E+00
  0.00000000E+00  0.00000000E+00  0.00000000E+00
  0.00000000E+00  0.00000000E+00  0.00000000E+00
  0.00000000E+00  0.00000000E+00  0.00000000E+00
  0.00000000E+00  0.00000000E+00  0.00000000E+00
  0.00000000E+00  0.00000000E+00  0.00000000E+00
  0.00000000E+00  0.00000000E+00  0.00000000E+00
  0.00000000E+00  0.00000000E+00  0.00000000E+00
  0.00000000E+00  0.00000000E+00  0.00000000E+00
  0.00000000E+00  0.00000000E+00  0.00000000E+00
  0.00000000E+00  0.00000000E+00  0.00000000E+00
  0.00000000E+00  0.00000000E+00  0.00000000E+00
  0.00000000E+00  0.00000000E+00  0.00000000E+00
  0.00000000E+00  0.00000000E+00  0.00000000E+00
  0.00000000E+00  0.00000000E+00  0.00000000E+00
  0.00000000E+00  0.00000000E+00  0.00000000E+00
  0.00000000E+00  0.00000000E+00  0.00000000E+00
  0.00000000E+00  0.00000000E+00  0.00000000E+00
  0.00000000E+00  0.00000000E+00  0.00000000E+00
  0.00000000E+00  0.00000000E+00  0.00000000E+00
  0.00000000E+00  0.00000000E+00  0.00000000E+00
  0.00000000E+00  0.00000000E+00  0.00000000E+00
  0.00000000E+00  0.00000000E+00  0.00000000E+00
  0.00000000E+00  0.00000000E+00  0.00000000E+00
  0.00000000E+00  0.00000000E+00  0.00000000E+00
  0.00000000E+00  0.00000000E+00  0.00000000E+00
  0.00000000E+00  0.00000000E+00  0.00000000E+00
  0.00000000E+00  0.00000000E+00  0.00000000E+00
  0.00000000E+00  0.00000000E+00  0.00000000E+00
  0.00000000E+00  0.00000000E+00  0.00000000E+00
  0.00000000E+00  0.00000000E+00  0.00000000E+00
  0.00000000E+00  0.00000000E+00  0.00000000E+00
  0.00000000E+00  0.00000000E+00  0.00000000E+00
  0.00000000E+00  0.00000000E+00  0.00000000E+00
  0.00000000E+00  0.00000000E+00  0.00000000E+00
  0.00000000E+00  0.00000000E+00  0.00000000E+00
  0.00000000E+00  0.00000000E+00  0.00000000E+00
  0.00000000E+00  0.00000000E+00  0.00000000E+00
  0.00000000E+00  0.00000000E+00  0.00000000E+00
  0.00000000E+00  0.00000000E+00  0.00000000E+00
  0.00000000E+00  0.00000000E+00  0.00000000E+00
  0.00000000E+00  0.00000000E+00  0.00000000E+00
  0.00000000E+00  0.00000000E+00  0.00000000E+00
  0.00000000E+00  0.00000000E+00  0.00000000E+00
  0.00000000E+00  0.00000000E+00  0.00000000E+00
  0.00000000E+00  0.00000000E+00  0.00000000E+00
  0.00000000E+00  0.00000000E+00  0.00000000E+00
  0.00000000E+00  0.00000000E+00  0.00000000E+00
  0.00000000E+00  0.00000000E+00  0.00000000E+00
  0.00000000E+00  0.00000000E+00  0.00000000E+00
  0.00000000E+00  0.00000000E+00  0.00000000E+00
  0.00000000E+00  0.00000000E+00  0.00000000E+00
  0.00000000E+00  0.00000000E+00  0.00000000E+00
  0.00000000E+00  0.00000000E+00  0.00000000E+00
  0.00000000E+00  0.00000000E+00  0.00000000E+00
  0.00000000E+00  0.00000000E+00  0.00000000E+00
  0.00000000E+00  0.00000000E+00  0.00000000E+00
  0.00000000E+00  0.00000000E+00  0.00000000E+00
  0.00000000E+00  0.00000000E+00  0.00000000E+00
  0.00000000E+00  0.00000000E+00  0.00000000E+00
  0.00000000E+00  0.00000000E+00  0.00000000E+00
  0.00000000E+00  0.00000000E+00  0.00000000E+00
  0.00000000E+00  0.00000000E+00  0.00000000E+00
  0.00000000E+00  0.00000000E+00  0.00000000E+00
  0.00000000E+00  0.00000000E+00  0.00000000E+00
  0.00000000E+00  0.00000000E+00  0.00000000E+00
  0.00000000E+00  0.00000000E+00  0.00000000E+00
  0.00000000E+00  0.00000000E+00  0.00000000E+00
  0.00000000E+00  0.00000000E+00  0.00000000E+00
  0.00000000E+00  0.00000000E+00  0.00000000E+00
  0.00000000E+00  0.00000000E+00  0.00000000E+00
  0.00000000E+00  0.00000000E+00  0.00000000E+00
  0.00000000E+00  0.00000000E+00  0.00000000E+00
  0.00000000E+00  0.00000000E+00  0.00000000E+00
  0.00000000E+00  0.00000000E+00  0.00000000E+00
  0.00000000E+00  0.00000000E+00  0.00000000E+00
  0.00000000E+00  0.00000000E+00  0.00000000E+00
  0.00000000E+00  0.00000000E+00  0.00000000E+00
  0.00000000E+00  0.00000000E+00  0.00000000E+00
  0.00000000E+00  0.00000000E+00  0.00000000E+00
  0.00000000E+00  0.00000000E+00  0.00000000E+00
  0.00000000E+00  0.00000000E+00  0.00000000E+00
  0.00000000E+00  0.00000000E+00  0.00000000E+00
  0.00000000E+00  0.00000000E+00  0.00000000E+00
  0.00000000E+00  0.00000000E+00  0.00000000E+00
  0.00000000E+00  0.00000000E+00  0.00000000E+00
  0.00000000E+00  0.00000000E+00  0.00000000E+00
  0.00000000E+00  0.00000000E+00  0.00000000E+00
  0.00000000E+00  0.00000000E+00  0.00000000E+00
  0.00000000E+00  0.00000000E+00  0.00000000E+00
  0.00000000E+00  0.00000000E+00  0.00000000E+00
  0.00000000E+00  0.00000000E+00  0.00000000E+00
  0.00000000E+00  0.00000000E+00  0.00000000E+00
  0.00000000E+00  0.00000000E+00  0.00000000E+00
  0.00000000E+00  0.00000000E+00  0.00000000E+00
  0.00000000E+00  0.00000000E+00  0.00000000E+00
  0.00000000E+00  0.00000000E+00  0.00000000E+00
  0.00000000E+00  0.00000000E+00  0.00000000E+00
  0.00000000E+00  0.00000000E+00  0.00000000E+00
  0.00000000E+00  0.00000000E+00  0.00000000E+00
  0.00000000E+00  0.00000000E+00  0.00000000E+00
  0.00000000E+00  0.00000000E+00  0.00000000E+00
  0.00000000E+00  0.00000000E+00  0.00000000E+00
  0.00000000E+00  0.00000000E+00  0.00000000E+00
  0.00000000E+00  0.00000000E+00  0.00000000E+00
  0.00000000E+00  0.00000000E+00  0.00000000E+00
  0.00000000E+00  0.00000000E+00  0.00000000E+00
  0.00000000E+00  0.00000000E+00  0.00000000E+00
  0.00000000E+00  0.00000000E+00  0.00000000E+00
  0.00000000E+00  0.00000000E+00  0.00000000E+00
  0.00000000E+00  0.00000000E+00  0.00000000E+00
  0.00000000E+00  0.00000000E+00  0.00000000E+00
  0.00000000E+00  0.00000000E+00  0.00000000E+00
  0.00000000E+00  0.00000000E+00  0.00000000E+00
  0.00000000E+00  0.00000000E+00  0.00000000E+00
  0.00000000E+00  0.00000000E+00  0.00000000E+00
  0.00000000E+00  0.00000000E+00  0.00000000E+00
  0.00000000E+00  0.00000000E+00  0.00000000E+00
  0.00000000E+00  0.00000000E+00  0.00000000E+00
  0.00000000E+00  0.00000000E+00  0.00000000E+00
  0.00000000E+00  0.00000000E+00  0.00000000E+00
  0.00000000E+00  0.00000000E+00  0.00000000E+00
  0.00000000E+00  0.00000000E+00  0.00000000E+00
  0.00000000E+00  0.00000000E+00  0.00000000E+00
  0.00000000E+00  0.00000000E+00  0.00000000E+00
  0.00000000E+00  0.00000000E+00  0.00000000E+00
  0.00000000E+00  0.00000000E+00  0.00000000E+00
  0.00000000E+00  0.00000000E+00  0.00000000E+00
  0.00000000E+00  0.00000000E+00  0.00000000E+00
  0.00000000E+00  0.00000000E+00  0.00000000E+00
  0.00000000E+00  0.00000000E+00  0.00000000E+00
  0.00000000E+00  0.00000000E+00  0.00000000E+00
  0.00000000E+00  0.00000000E+00  0.00000000E+00
  0.00000000E+00  0.00000000E+00  0.00000000E+00
  0.00000000E+00  0.00000000E+00  0.00000000E+00
  0.00000000E+00  0.00000000E+00  0.00000000E+00
  0.00000000E+00  0.00000000E+00  0.00000000E+00
  0.00000000E+00  0.00000000E+00  0.00000000E+00
  0.00000000E+00  0.00000000E+00  0.00000000E+00
  0.00000000E+00  0.00000000E+00  0.00000000E+00
  0.00000000E+00  0.00000000E+00  0.00000000E+00
  0.00000000E+00  0.00000000E+00  0.00000000E+00
  0.00000000E+00  0.00000000E+00  0.00000000E+00
  0.00000000E+00  0.00000000E+00  0.00000000E+00
  0.00000000E+00  0.00000000E+00  0.00000000E+00
  0.00000000E+00  0.00000000E+00  0.00000000E+00
  0.00000000E+00  0.00000000E+00  0.00000000E+00
  0.00000000E+00  0.00000000E+00  0.00000000E+00
  0.00000000E+00  0.00000000E+00  0.00000000E+00
  0.00000000E+00  0.00000000E+00  0.00000000E+00
  0.00000000E+00  0.00000000E+00  0.00000000E+00
  0.00000000E+00  0.00000000E+00  0.00000000E+00
  0.00000000E+00  0.00000000E+00  0.00000000E+00
  0.00000000E+00  0.00000000E+00  0.00000000E+00
  0.00000000E+00  0.00000000E+00  0.00000000E+00
  0.00000000E+00  0.00000000E+00  0.00000000E+00
  0.00000000E+00  0.00000000E+00  0.00000000E+00
  0.00000000E+00  0.00000000E+00  0.00000000E+00
  0.00000000E+00  0.00000000E+00  0.00000000E+00
  0.00000000E+00  0.00000000E+00  0.00000000E+00
  0.00000000E+00  0.00000000E+00  0.00000000E+00
  0.00000000E+00  0.00000000E+00  0.00000000E+00
  0.00000000E+00  0.00000000E+00  0.00000000E+00
  0.00000000E+00  0.00000000E+00  0.00000000E+00
  0.00000000E+00  0.00000000E+00  0.00000000E+00
  0.00000000E+00  0.00000000E+00  0.00000000E+00
  0.00000000E+00  0.00000000E+00  0.00000000E+00
  0.00000000E+00  0.00000000E+00  0.00000000E+00
  0.00000000E+00  0.00000000E+00  0.00000000E+00
  0.00000000E+00  0.00000000E+00  0.00000000E+00
  0.00000000E+00  0.00000000E+00  0.00000000E+00
  0.00000000E+00  0.00000000E+00  0.00000000E+00
  0.00000000E+00  0.00000000E+00  0.00000000E+00
  0.00000000E+00  0.00000000E+00  0.00000000E+00
  0.00000000E+00  0.00000000E+00  0.00000000E+00
  0.00000000E+00  0.00000000E+00  0.00000000E+00
  0.00000000E+00  0.00000000E+00  0.00000000E+00
  0.00000000E+00  0.00000000E+00  0.00000000E+00
  0.00000000E+00  0.00000000E+00  0.00000000E+00
  0.00000000E+00  0.00000000E+00  0.00000000E+00
  0.00000000E+00  0.00000000E+00  0.00000000E+00
  0.00000000E+00  0.00000000E+00  0.00000000E+00
  0.00000000E+00  0.00000000E+00  0.00000000E+00
  0.00000000E+00  0.00000000E+00  0.00000000E+00
  0.00000000E+00  0.00000000E+00  0.00000000E+00
  0.00000000E+00  0.00000000E+00  0.00000000E+00
  0.00000000E+00  0.00000000E+00  0.00000000E+00
  0.00000000E+00  0.00000000E+00  0.00000000E+00
  0.00000000E+00  0.00000000E+00  0.00000000E+00
  0.00000000E+00  0.00000000E+00  0.00000000E+00
  0.00000000E+00  0.00000000E+00  0.00000000E+00
  0.00000000E+00  0.00000000E+00  0.00000000E+00
  0.00000000E+00  0.00000000E+00  0.00000000E+00
  0.00000000E+00  0.00000000E+00  0.00000000E+00
  0.00000000E+00  0.00000000E+00  0.00000000E+00
  0.00000000E+00  0.00000000E+00  0.00000000E+00
  0.00000000E+00  0.00000000E+00  0.00000000E+00
  0.00000000E+00  0.00000000E+00  0.00000000E+00
  0.00000000E+00  0.00000000E+00  0.00000000E+00
  0.00000000E+00  0.00000000E+00  0.00000000E+00
  0.00000000E+00  0.00000000E+00  0.00000000E+00