CuInSe2gb                               
   1.00000000000000     
     9.7266780392896699    0.0000000000000000    0.0000000000000000
     0.0000000000000000    8.4235502764570693    0.0000000000000000
     0.0000000000000000    0.0000000000000000   45.0000000000000000
   Fe   Mn
   281     7
Direct
  0.0578142321673819  0.7009572089931930  0.2109897840158171
  0.3160125311450319  0.7204179772965057  0.8757621285875417
  0.6882850924603751  0.9581378438196061  0.6114335464209437
  0.4384079617154726  0.4580186691620363  0.6114730725591154
  0.4366886708143820  0.2870471573803405  0.2554784602221057
  0.0610183694532685  0.3869079159460360  0.8341729505444385
  0.3112678113743395  0.8866808921042075  0.8341891854509883
  0.4423296654610944  0.6265246963218096  0.7003814251205309
  0.0636847294504308  0.2131280452293869  0.7444923991463747
  0.1827012942948631  0.4508949889173893  0.2110737471958598
  0.5639128338342234  0.2089778764197350  0.4778587255452543
  0.0640920210703607  0.8747912647129649  0.5668947344444345
  0.5656740147086649  0.2198775239995828  0.8757149726367142
  0.8100758113590044  0.5302424747471167  0.1243882272299968
  0.4330764987327553  0.9515339293320623  0.2111142667649570
  0.5642558149239133  0.3745145026281615  0.5667576354604352
  0.8116274166048673  0.0419672253193303  0.3884866641973748
  0.6861655455505522  0.7907917887294049  0.5221613233579407
  0.4389323888060432  0.4589769668667382  0.4778346727937519
  0.4380416920800975  0.9627975189213925  0.7445091542218489
  0.4389930853829404  0.6247457004652038  0.5668430383586877
  0.5675108203959975  0.8764732744788790  0.7003366087670527
  0.3107468939953041  0.0303930171138596  0.1240421187751099
  0.6867041430536924  0.9579270746602140  0.3440796068920717
  0.6874282727061655  0.7798924931531216  0.1245573105841635
  0.0576351011146982  0.3733466307777250  0.2995702194486453
  0.6890351871884473  0.4713735832776151  0.8754988073685968
  0.4328400078915893  0.4513601416162458  0.2110587655251133
  0.8108736623432684  0.3753626564045764  0.4330454825054710
  0.5632116544016895  0.7080872429922738  0.6115291368030841
  0.5628999195577606  0.5414297913243621  0.6557803597446361
  0.8144844690035509  0.8637135914857085  0.1658676404559586
  0.5610557634068384  0.5371430120498695  0.2555517394170010
  0.6867871553378652  0.4579331805856088  0.3440972051553058
  0.1890342588494380  0.6131689896804376  0.1661432881574677
  0.1918684728323406  0.7992688106651915  0.7887623950411383
  0.4424832770613296  0.1265760661580443  0.7004089421891450
  0.9328630371492804  0.6230895060794968  0.2996991621197276
  0.3153893677449223  0.2201027149479035  0.8756967380044244
  0.3140373217702341  0.8746959705738343  0.5667880611649352
  0.8153465826068116  0.2200596995133799  0.8757007199276171
  0.8128267806942289  0.5417920651618500  0.6557819105190257
  0.5599007233313887  0.5298616076921925  0.1244179280240289
  0.5668064687248509  0.0495386959008760  0.7889442785747541
  0.1867669683783310  0.2866305536700364  0.2554823734789619
  0.8106474411334156  0.8752515534866400  0.4330773588913431
  0.5671684292045798  0.3764914841825194  0.7004517090561155
  0.0609401461036167  0.0300311782218185  0.1243799437349601
  0.3129301186655652  0.5412689281437373  0.6557955732770719
  0.5618269960528601  0.2078244024175659  0.3441533498029614
  0.1883728526169884  0.9580438797124288  0.6114413800536042
  0.3072287644771694  0.3735083106608871  0.2995753929772033
  0.4380463883636327  0.7916883659599644  0.6558200421439748
  0.1918812428523095  0.2984621237528161  0.7888719538060096
  0.0639191526682509  0.3633523861179994  0.1659426395530806
  0.6921496205057148  0.6266547047134137  0.7003646174175607
  0.3117786620674196  0.5417197433444843  0.3884759610276657
  0.0653758184009986  0.7199042996204510  0.8758811557578896
  0.9362785074089649  0.6367566017572431  0.8342951381525430
  0.3173412098883885  0.5497540839901971  0.7889451957616131
  0.3075979715076418  0.2008734835464611  0.2110341279803598
  0.0638512894604072  0.7088841840700693  0.4779232202039533
  0.5574577451075921  0.2014233805402847  0.2109694158594669
  0.3137883133006523  0.2133519227393688  0.7444344514593265
  0.0673585895032532  0.3768963079754117  0.7003627861287114
  0.1862720920006092  0.6367667873680474  0.8340507346208628
  0.0668772818000316  0.0491655421259013  0.7889312256124794
  0.4391417486201097  0.1246322265103726  0.5668118372550291
  0.9381841130183557  0.2915776356700276  0.6556730951981377
  0.8074884097503390  0.2013664840522561  0.2110764089984746
  0.9328288611228509  0.9513739802532221  0.2112271572035945
  0.9390381435936707  0.6249047360749413  0.5668174678502512
  0.8111161580437772  0.3866396540938227  0.8342045594759543
  0.1921825516503467  0.6265937501112659  0.7003563666507946
  0.8111676427287218  0.8864629830818921  0.8342934707794635
  0.6880101372925875  0.2912638419910212  0.6558008083321042
  0.3135050895511539  0.2081781856272657  0.6115178644759928
  0.4382510955184044  0.4626031161922824  0.7444252624563731
  0.4366638513791483  0.7915389355920652  0.3884986012778050
  0.6876858909439938  0.9625772543292592  0.7445023415198990
  0.8074729209382102  0.7007464175507784  0.2110109511634582
  0.8132603057583987  0.7080239201073676  0.6114233318384100
  0.4366209394444933  0.7795880470109428  0.1241799181067996
  0.3130940345389690  0.7129292513190805  0.7444361370825822
  0.3172641969569330  0.0494666923607415  0.7889926047678220
  0.8117231408200561  0.5419157988018081  0.3884484149106455
  0.6860623549031596  0.2911731638662819  0.5222012788888052
  0.6919007639426344  0.7993245882793415  0.7888844984607766
  0.1864211220197266  0.7875745128220814  0.2555091581788585
  0.6888635361760008  0.1140677759681725  0.1661129400896691
  0.6887733811031856  0.9592056856530092  0.4779084484374385
  0.9370136648425664  0.9583007017347339  0.3440818974880831
  0.8110678088350552  0.0403765109098090  0.5221338584365572
  0.6850640637008943  0.6251295715369760  0.4330861713916834
  0.4367890366346447  0.4584432334813118  0.3441543413701806
  0.8132940110152749  0.2134545113463407  0.7444871314600104
  0.4391035343202314  0.9715470453212627  0.8755171279092629
  0.5641336993352076  0.8745704420831555  0.5667875107717626
  0.8104190407892468  0.0299587848675933  0.1245026165507147
  0.4323933576937951  0.6230866483619817  0.2997164106295476
  0.8152416217792544  0.7204426881182483  0.8758147478161206
  0.6882690807013386  0.4579679693329717  0.6114099338957958
  0.5610103845958071  0.3869190966033708  0.8340605186198292
  0.8080924366682511  0.3731824324599688  0.2996545117320605
  0.1864088162258941  0.2917092845864763  0.3884446366596472
  0.8165825116783729  0.5495681920835699  0.7890649309778537
  0.1861543520772644  0.7904854273805535  0.5222196317338571
  0.3071710059360413  0.8735815369163737  0.2996590040300898
  0.1826647354699100  0.9515598286010712  0.2112460752070170
  0.1887052554263359  0.4630105813337496  0.7444508194527940
  0.4360028797328291  0.2907750457135527  0.5221043114983983
  0.0620966676942043  0.7085159392879340  0.3441841471170979
  0.1882007685243877  0.7911936025274867  0.6557197828740069
  0.4417003923434713  0.7994679065983592  0.7887890826008336
  0.6848990319747774  0.1249614267344921  0.4330738630124003
  0.9361446755621706  0.7901793766565389  0.5221956592469906
  0.6886091824273404  0.6124629351700758  0.1660923881186404
  0.8116732048428384  0.7084239836080413  0.3441663384739884
  0.9382766864859087  0.4627167685694263  0.7444308230745568
  0.1869338169514908  0.4582806454050324  0.3440814698323088
  0.5672824816733854  0.5492622759112897  0.7889608994573399
  0.5647389943408622  0.3634753519325969  0.1659052469073894
  0.5616733016931533  0.7078383670820070  0.3443178095152667
  0.5580582781776467  0.3732995137469557  0.2995676517859592
  0.1888402240482836  0.4711687483168469  0.8755616770940201
  0.1884405591808417  0.1127803859416559  0.1661777970382156
  0.4418167629520044  0.2988758174147351  0.7888163373992247
  0.6860915002268495  0.7872426760743285  0.2554202815064057
  0.9368679606094774  0.1367653978691757  0.8341119864132022
  0.4389247655987151  0.9590499912052917  0.4778221543814951
  0.5654335357278394  0.7202626587004882  0.8757292126318467
  0.1886292895526970  0.4590371960252964  0.4778518670089051
  0.9364271280543738  0.2794795606954808  0.1245900342687778
  0.3114175197652705  0.0416825179097340  0.3885572461651147
  0.0628975849834582  0.0411203284378270  0.6557751794771389
  0.5608786337225486  0.3752694622004483  0.4330184515023751
  0.6876088178423817  0.4624099197503209  0.7445202265843411
  0.5634824892880930  0.2135372468874953  0.7444497536659658
  0.9425563870272765  0.1269153047290382  0.7003879935217844
  0.5631569412488612  0.0410942675892434  0.6557919242347349
  0.5610786200205118  0.5407694690574580  0.5220898630766510
  0.1826268770849351  0.1235016812065153  0.2995370150295566
  0.4389700018394458  0.1124784714962107  0.1659692106700457
  0.6828542517432350  0.6231870460592812  0.2997029991860919
  0.9325585937658758  0.1233162869260413  0.2996511088527015
  0.8141651967244062  0.3748015247829162  0.5668782603249833
  0.0577898731923515  0.8729955850067252  0.2996146072010035
  0.1889972677153013  0.6248666977548621  0.5669147983401296
  0.9411469839770069  0.7991032435337142  0.7889171709598937
  0.3112517199509595  0.3868299442521283  0.8341882861695133
  0.9393626338318245  0.4714520924009027  0.8755616253236176
  0.4366486580011096  0.6370845835640142  0.8341015391937810
  0.0618039451380065  0.2086459944543836  0.3441575820606582
  0.1888165226041693  0.9711727859313697  0.8755578477910826
  0.9361147976922330  0.7793497435525097  0.1245478880576779
  0.6863728563353036  0.7918325750448361  0.3885168188816719
  0.9379760550451147  0.7915976357174174  0.6557994723040219
  0.9386182039173742  0.1139203499929233  0.1661631992192510
  0.4377752648611989  0.2914900126782269  0.6558379970147934
  0.0584095879337343  0.2010077886941999  0.2110509008630363
  0.6827777317509470  0.9512499339490885  0.2111555050865304
  0.1826236849442366  0.6230984247001174  0.2996637354143694
  0.8170160812607744  0.8765976098401007  0.7003495588829998
  0.9424333770289340  0.6267864384082423  0.7004211069065043
  0.1922700814749626  0.1269015877141342  0.7003733964857226
  0.9391090239616747  0.4588361620170129  0.4778695544194071
  0.8132505491644915  0.2080226968382565  0.6114448018333138
  0.1868341542334884  0.6250040167067957  0.4330467295349669
  0.4324354368599676  0.1236415679857080  0.2995908229879233
  0.6829572053231280  0.1227086333876675  0.2996097861607436
  0.5612507027976565  0.5412503030390339  0.3885509478236400
  0.8118360713462853  0.2084517500189592  0.3442924517693942
  0.4391065702343914  0.4714241123364920  0.8754713964247436
  0.5610428433609539  0.8867109285314498  0.8342284533638320
  0.3139724613814655  0.2092535560396573  0.4778494003006221
  0.1884216367004408  0.9590754800688960  0.4778010370305281
  0.0611075167211169  0.8867323878768361  0.8341807984485251
  0.0610980630259056  0.5405407366897198  0.5220688494325295
  0.9389936113404030  0.9588865639004599  0.4778575445564041
  0.0634378628322542  0.7079440601589474  0.6114074851711300
  0.5609515678410849  0.0409475018954030  0.5221079892186686
  0.6918696806516733  0.2987785969293122  0.7887545210134189
  0.8140728998191087  0.3637715875824232  0.1659814797896692
  0.4357675639125353  0.1248972172982967  0.4330424902522774
  0.0639518546178156  0.2089329748306427  0.4779364684680401
  0.3130468823438934  0.0413682844873156  0.6557963891011799
  0.4361325035734789  0.7904927820706984  0.5221146464924017
  0.1866654862980133  0.1368443701902913  0.8341037770726136
  0.1858212311666358  0.2794750058560197  0.1246019404656875
  0.9367714790720799  0.4584832300643333  0.3441015978829399
  0.5646897003154778  0.8639663091111051  0.1658745340717631
  0.3075153438875873  0.7002991191292414  0.2110797768031113
  0.9382494661835357  0.6126998967917826  0.1661082421157575
  0.1883101016627057  0.4581210456932464  0.6114331239787205
  0.0672040163936510  0.8767753373729508  0.7002424367835433
  0.0630804744098640  0.5415042501304607  0.6558741256680558
  0.3099289680820581  0.5308109369440217  0.1244501619889800
  0.9363747784451241  0.7919570689594133  0.3884712796710373
  0.9415366156415425  0.2986321581707305  0.7888404060610651
  0.1879706559728402  0.2914914146377768  0.6558456281209514
  0.9384472791618961  0.9581341343682961  0.6115094497576818
  0.8135442182165944  0.7130816642344898  0.7445561076653718
  0.6860883209836375  0.2874602594833878  0.2554733913704609
  0.0638607334141775  0.7129961642082090  0.7444440837079975
  0.6828327549648369  0.4514973464145412  0.2112211340459534
  0.8138941069763358  0.2088524339610446  0.4778216278954298
  0.5638787049601068  0.7091696224496224  0.4779030634640305
  0.0639745567990615  0.8639769970101963  0.1660367622327965
  0.9361882554275778  0.2906459146415940  0.5222157131745120
  0.6875800454711744  0.7916209689133054  0.6558004969598968
  0.0613241293826010  0.8747033842826649  0.4329754227907447
  0.0656641919237546  0.2196144835871556  0.8757798117811156
  0.8130026750721052  0.0412049585480072  0.6557707968841785
  0.5601069899408527  0.0302094261331741  0.1243434240888910
  0.3105274576599177  0.3750698203465811  0.4330491971154724
  0.3141434234611996  0.3746790076116183  0.5667621447571188
  0.3138620241397693  0.7092183989534081  0.4778766334913199
  0.0612240321352806  0.0406225111912995  0.5220674474216582
  0.3172392882388960  0.8766085856345061  0.7003768193259132
  0.0618229228456433  0.5369682436240901  0.2555465354101084
  0.6866188763973412  0.1372465635138096  0.8340751904732568
  0.8109269956372319  0.0368167412563642  0.2556352986181448
  0.1868636523354372  0.1249928711415626  0.4329737486096304
  0.6923137015841564  0.1264068787628461  0.7003337104969232
  0.1863286728500436  0.2907501516358854  0.5222084462565224
  0.4364341104137020  0.7875788326303849  0.2555313513730376
  0.4380940571074530  0.6127707681771588  0.1661282615568278
  0.0631731139719951  0.2079824025193515  0.6114066127143781
  0.1865654530401633  0.7915802516207222  0.3884017603615732
  0.3112936435123408  0.5408008739481228  0.5221292870285765
  0.8171694269024961  0.3766609964107352  0.7003677740443416
  0.6864279001149313  0.2917079341442181  0.3884283731222417
  0.1892063060226689  0.1247161975924407  0.5668378212141953
  0.6890024690302656  0.9716267729745419  0.8755287023577215
  0.6890735403432966  0.1248348871235258  0.5668682516525397
  0.4368976169013251  0.9585253867533391  0.3441625089746663
  0.1884144706542125  0.9629023006480488  0.7445252343500101
  0.9367888934012168  0.7872473920387624  0.2554841761474940
  0.5610618730343304  0.8751169771171498  0.4329978509563822
  0.3108727816109869  0.8750419922359175  0.4330839849848915
  0.8110919591229568  0.5404061863158277  0.5221584530169204
  0.9327297972111580  0.4516710919666219  0.2112375065166700
  0.3114152017390573  0.5369920842864119  0.2555122315535873
  0.5614316158602354  0.0414771291000922  0.3884744686727894
  0.9383692570043158  0.4578076299382946  0.6114510480781419
  0.0615968727086027  0.0417945821856796  0.3884558556460581
  0.0614798288647159  0.5418606627973781  0.3884504714028066
  0.4365331587392193  0.2915632469767661  0.3884942537145368
  0.6888039996988375  0.4590717048417923  0.4779124447710889
  0.0641315038122622  0.3747944132949847  0.5668988294950975
  0.5579235064657689  0.7007201019636581  0.2110673046080363
  0.9368024381455513  0.2872447717447266  0.2556034216809539
  0.8165311544263133  0.0493648748310988  0.7888937569578134
  0.1871103443342962  0.9583132878801708  0.3441492530155174
  0.3139344846466369  0.3634169494706765  0.1659241289946806
  0.0613843315253010  0.3747255118094851  0.4330077802544769
  0.3118261549928922  0.7077915938429393  0.3441972184612628
  0.3117601252258358  0.2079849675818509  0.3441974213306385
  0.9389390825568918  0.1249819678826120  0.5668121146281059
  0.4381992855270401  0.9579992463982417  0.6114852840434750
  0.5607533693579378  0.0369868919989169  0.2555742409581265
  0.1868178620227632  0.7788074604630252  0.1243090624239551
  0.0622199491018828  0.0371899464827114  0.2556408884917264
  0.6891534942233952  0.6246871790224764  0.5668907999635137
  0.0600881330800900  0.5297082690995697  0.1243759105282086
  0.3111620959193742  0.0411568838407876  0.5221411716955692
  0.6864839702129589  0.2792977195557134  0.1245562522527882
  0.8138141028064768  0.7090679538698049  0.4779026378104251
  0.4366391667690175  0.1367128735045736  0.8339751431527352
  0.3174369478708010  0.3762767620387008  0.7003525968619028
  0.6868709288693745  0.6371309065569826  0.8341002579477120
  0.5633104681619374  0.7127948879288235  0.7445041192733419
  0.9363671080847263  0.2922060488943325  0.3884901831397634
  0.9391478053197373  0.9712668557164531  0.8755364626504015
  0.5635864895832766  0.2081887063847651  0.6114800915084401
  0.8141306223224284  0.8748989719901989  0.5668954685914889
  0.8078538803116476  0.8733246871051538  0.2995701322095021
  0.3114859916230255  0.0369343218790405  0.2555859175609404
  0.4370590984586235  0.2797162600646833  0.1246348972800920
  0.3132118283571582  0.7080139195755141  0.6114642697551589
  0.4357081271986386  0.6250775312039989  0.4330253899111424
  0.9356254249398542  0.6251390260780600  0.4330925955396142
  0.3150253202112328  0.8634198568293948  0.1655459980501457
  0.0672300291213469  0.5492822253738203  0.7888089310657389
  0.9355956377580826  0.1251370148562169  0.4330707544607809
  0.5570828207045971  0.8736270908223364  0.2996672811398491
  0.9375572636710258  0.9630444285041425  0.7446382673007973
  0.8118887540672505  0.5367423321556123  0.2553913732873028
 
  0.00000000E+00  0.00000000E+00  0.00000000E+00
  0.00000000E+00  0.00000000E+00  0.00000000E+00
  0.00000000E+00  0.00000000E+00  0.00000000E+00
  0.00000000E+00  0.00000000E+00  0.00000000E+00
  0.00000000E+00  0.00000000E+00  0.00000000E+00
  0.00000000E+00  0.00000000E+00  0.00000000E+00
  0.00000000E+00  0.00000000E+00  0.00000000E+00
  0.00000000E+00  0.00000000E+00  0.00000000E+00
  0.00000000E+00  0.00000000E+00  0.00000000E+00
  0.00000000E+00  0.00000000E+00  0.00000000E+00
  0.00000000E+00  0.00000000E+00  0.00000000E+00
  0.00000000E+00  0.00000000E+00  0.00000000E+00
  0.00000000E+00  0.00000000E+00  0.00000000E+00
  0.00000000E+00  0.00000000E+00  0.00000000E+00
  0.00000000E+00  0.00000000E+00  0.00000000E+00
  0.00000000E+00  0.00000000E+00  0.00000000E+00
  0.00000000E+00  0.00000000E+00  0.00000000E+00
  0.00000000E+00  0.00000000E+00  0.00000000E+00
  0.00000000E+00  0.00000000E+00  0.00000000E+00
  0.00000000E+00  0.00000000E+00  0.00000000E+00
  0.00000000E+00  0.00000000E+00  0.00000000E+00
  0.00000000E+00  0.00000000E+00  0.00000000E+00
  0.00000000E+00  0.00000000E+00  0.00000000E+00
  0.00000000E+00  0.00000000E+00  0.00000000E+00
  0.00000000E+00  0.00000000E+00  0.00000000E+00
  0.00000000E+00  0.00000000E+00  0.00000000E+00
  0.00000000E+00  0.00000000E+00  0.00000000E+00
  0.00000000E+00  0.00000000E+00  0.00000000E+00
  0.00000000E+00  0.00000000E+00  0.00000000E+00
  0.00000000E+00  0.00000000E+00  0.00000000E+00
  0.00000000E+00  0.00000000E+00  0.00000000E+00
  0.00000000E+00  0.00000000E+00  0.00000000E+00
  0.00000000E+00  0.00000000E+00  0.00000000E+00
  0.00000000E+00  0.00000000E+00  0.00000000E+00
  0.00000000E+00  0.00000000E+00  0.00000000E+00
  0.00000000E+00  0.00000000E+00  0.00000000E+00
  0.00000000E+00  0.00000000E+00  0.00000000E+00
  0.00000000E+00  0.00000000E+00  0.00000000E+00
  0.00000000E+00  0.00000000E+00  0.00000000E+00
  0.00000000E+00  0.00000000E+00  0.00000000E+00
  0.00000000E+00  0.00000000E+00  0.00000000E+00
  0.00000000E+00  0.00000000E+00  0.00000000E+00
  0.00000000E+00  0.00000000E+00  0.00000000E+00
  0.00000000E+00  0.00000000E+00  0.00000000E+00
  0.00000000E+00  0.00000000E+00  0.00000000E+00
  0.00000000E+00  0.00000000E+00  0.00000000E+00
  0.00000000E+00  0.00000000E+00  0.00000000E+00
  0.00000000E+00  0.00000000E+00  0.00000000E+00
  0.00000000E+00  0.00000000E+00  0.00000000E+00
  0.00000000E+00  0.00000000E+00  0.00000000E+00
  0.00000000E+00  0.00000000E+00  0.00000000E+00
  0.00000000E+00  0.00000000E+00  0.00000000E+00
  0.00000000E+00  0.00000000E+00  0.00000000E+00
  0.00000000E+00  0.00000000E+00  0.00000000E+00
  0.00000000E+00  0.00000000E+00  0.00000000E+00
  0.00000000E+00  0.00000000E+00  0.00000000E+00
  0.00000000E+00  0.00000000E+00  0.00000000E+00
  0.00000000E+00  0.00000000E+00  0.00000000E+00
  0.00000000E+00  0.00000000E+00  0.00000000E+00
  0.00000000E+00  0.00000000E+00  0.00000000E+00
  0.00000000E+00  0.00000000E+00  0.00000000E+00
  0.00000000E+00  0.00000000E+00  0.00000000E+00
  0.00000000E+00  0.00000000E+00  0.00000000E+00
  0.00000000E+00  0.00000000E+00  0.00000000E+00
  0.00000000E+00  0.00000000E+00  0.00000000E+00
  0.00000000E+00  0.00000000E+00  0.00000000E+00
  0.00000000E+00  0.00000000E+00  0.00000000E+00
  0.00000000E+00  0.00000000E+00  0.00000000E+00
  0.00000000E+00  0.00000000E+00  0.00000000E+00
  0.00000000E+00  0.00000000E+00  0.00000000E+00
  0.00000000E+00  0.00000000E+00  0.00000000E+00
  0.00000000E+00  0.00000000E+00  0.00000000E+00
  0.00000000E+00  0.00000000E+00  0.00000000E+00
  0.00000000E+00  0.00000000E+00  0.00000000E+00
  0.00000000E+00  0.00000000E+00  0.00000000E+00
  0.00000000E+00  0.00000000E+00  0.00000000E+00
  0.00000000E+00  0.00000000E+00  0.00000000E+00
  0.00000000E+00  0.00000000E+00  0.00000000E+00
  0.00000000E+00  0.00000000E+00  0.00000000E+00
  0.00000000E+00  0.00000000E+00  0.00000000E+00
  0.00000000E+00  0.00000000E+00  0.00000000E+00
  0.00000000E+00  0.00000000E+00  0.00000000E+00
  0.00000000E+00  0.00000000E+00  0.00000000E+00
  0.00000000E+00  0.00000000E+00  0.00000000E+00
  0.00000000E+00  0.00000000E+00  0.00000000E+00
  0.00000000E+00  0.00000000E+00  0.00000000E+00
  0.00000000E+00  0.00000000E+00  0.00000000E+00
  0.00000000E+00  0.00000000E+00  0.00000000E+00
  0.00000000E+00  0.00000000E+00  0.00000000E+00
  0.00000000E+00  0.00000000E+00  0.00000000E+00
  0.00000000E+00  0.00000000E+00  0.00000000E+00
  0.00000000E+00  0.00000000E+00  0.00000000E+00
  0.00000000E+00  0.00000000E+00  0.00000000E+00
  0.00000000E+00  0.00000000E+00  0.00000000E+00
  0.00000000E+00  0.00000000E+00  0.00000000E+00
  0.00000000E+00  0.00000000E+00  0.00000000E+00
  0.00000000E+00  0.00000000E+00  0.00000000E+00
  0.00000000E+00  0.00000000E+00  0.00000000E+00
  0.00000000E+00  0.00000000E+00  0.00000000E+00
  0.00000000E+00  0.00000000E+00  0.00000000E+00
  0.00000000E+00  0.00000000E+00  0.00000000E+00
  0.00000000E+00  0.00000000E+00  0.00000000E+00
  0.00000000E+00  0.00000000E+00  0.00000000E+00
  0.00000000E+00  0.00000000E+00  0.00000000E+00
  0.00000000E+00  0.00000000E+00  0.00000000E+00
  0.00000000E+00  0.00000000E+00  0.00000000E+00
  0.00000000E+00  0.00000000E+00  0.00000000E+00
  0.00000000E+00  0.00000000E+00  0.00000000E+00
  0.00000000E+00  0.00000000E+00  0.00000000E+00
  0.00000000E+00  0.00000000E+00  0.00000000E+00
  0.00000000E+00  0.00000000E+00  0.00000000E+00
  0.00000000E+00  0.00000000E+00  0.00000000E+00
  0.00000000E+00  0.00000000E+00  0.00000000E+00
  0.00000000E+00  0.00000000E+00  0.00000000E+00
  0.00000000E+00  0.00000000E+00  0.00000000E+00
  0.00000000E+00  0.00000000E+00  0.00000000E+00
  0.00000000E+00  0.00000000E+00  0.00000000E+00
  0.00000000E+00  0.00000000E+00  0.00000000E+00
  0.00000000E+00  0.00000000E+00  0.00000000E+00
  0.00000000E+00  0.00000000E+00  0.00000000E+00
  0.00000000E+00  0.00000000E+00  0.00000000E+00
  0.00000000E+00  0.00000000E+00  0.00000000E+00
  0.00000000E+00  0.00000000E+00  0.00000000E+00
  0.00000000E+00  0.00000000E+00  0.00000000E+00
  0.00000000E+00  0.00000000E+00  0.00000000E+00
  0.00000000E+00  0.00000000E+00  0.00000000E+00
  0.00000000E+00  0.00000000E+00  0.00000000E+00
  0.00000000E+00  0.00000000E+00  0.00000000E+00
  0.00000000E+00  0.00000000E+00  0.00000000E+00
  0.00000000E+00  0.00000000E+00  0.00000000E+00
  0.00000000E+00  0.00000000E+00  0.00000000E+00
  0.00000000E+00  0.00000000E+00  0.00000000E+00
  0.00000000E+00  0.00000000E+00  0.00000000E+00
  0.00000000E+00  0.00000000E+00  0.00000000E+00
  0.00000000E+00  0.00000000E+00  0.00000000E+00
  0.00000000E+00  0.00000000E+00  0.00000000E+00
  0.00000000E+00  0.00000000E+00  0.00000000E+00
  0.00000000E+00  0.00000000E+00  0.00000000E+00
  0.00000000E+00  0.00000000E+00  0.00000000E+00
  0.00000000E+00  0.00000000E+00  0.00000000E+00
  0.00000000E+00  0.00000000E+00  0.00000000E+00
  0.00000000E+00  0.00000000E+00  0.00000000E+00
  0.00000000E+00  0.00000000E+00  0.00000000E+00
  0.00000000E+00  0.00000000E+00  0.00000000E+00
  0.00000000E+00  0.00000000E+00  0.00000000E+00
  0.00000000E+00  0.00000000E+00  0.00000000E+00
  0.00000000E+00  0.00000000E+00  0.00000000E+00
  0.00000000E+00  0.00000000E+00  0.00000000E+00
  0.00000000E+00  0.00000000E+00  0.00000000E+00
  0.00000000E+00  0.00000000E+00  0.00000000E+00
  0.00000000E+00  0.00000000E+00  0.00000000E+00
  0.00000000E+00  0.00000000E+00  0.00000000E+00
  0.00000000E+00  0.00000000E+00  0.00000000E+00
  0.00000000E+00  0.00000000E+00  0.00000000E+00
  0.00000000E+00  0.00000000E+00  0.00000000E+00
  0.00000000E+00  0.00000000E+00  0.00000000E+00
  0.00000000E+00  0.00000000E+00  0.00000000E+00
  0.00000000E+00  0.00000000E+00  0.00000000E+00
  0.00000000E+00  0.00000000E+00  0.00000000E+00
  0.00000000E+00  0.00000000E+00  0.00000000E+00
  0.00000000E+00  0.00000000E+00  0.00000000E+00
  0.00000000E+00  0.00000000E+00  0.00000000E+00
  0.00000000E+00  0.00000000E+00  0.00000000E+00
  0.00000000E+00  0.00000000E+00  0.00000000E+00
  0.00000000E+00  0.00000000E+00  0.00000000E+00
  0.00000000E+00  0.00000000E+00  0.00000000E+00
  0.00000000E+00  0.00000000E+00  0.00000000E+00
  0.00000000E+00  0.00000000E+00  0.00000000E+00
  0.00000000E+00  0.00000000E+00  0.00000000E+00
  0.00000000E+00  0.00000000E+00  0.00000000E+00
  0.00000000E+00  0.00000000E+00  0.00000000E+00
  0.00000000E+00  0.00000000E+00  0.00000000E+00
  0.00000000E+00  0.00000000E+00  0.00000000E+00
  0.00000000E+00  0.00000000E+00  0.00000000E+00
  0.00000000E+00  0.00000000E+00  0.00000000E+00
  0.00000000E+00  0.00000000E+00  0.00000000E+00
  0.00000000E+00  0.00000000E+00  0.00000000E+00
  0.00000000E+00  0.00000000E+00  0.00000000E+00
  0.00000000E+00  0.00000000E+00  0.00000000E+00
  0.00000000E+00  0.00000000E+00  0.00000000E+00
  0.00000000E+00  0.00000000E+00  0.00000000E+00
  0.00000000E+00  0.00000000E+00  0.00000000E+00
  0.00000000E+00  0.00000000E+00  0.00000000E+00
  0.00000000E+00  0.00000000E+00  0.00000000E+00
  0.00000000E+00  0.00000000E+00  0.00000000E+00
  0.00000000E+00  0.00000000E+00  0.00000000E+00
  0.00000000E+00  0.00000000E+00  0.00000000E+00
  0.00000000E+00  0.00000000E+00  0.00000000E+00
  0.00000000E+00  0.00000000E+00  0.00000000E+00
  0.00000000E+00  0.00000000E+00  0.00000000E+00
  0.00000000E+00  0.00000000E+00  0.00000000E+00
  0.00000000E+00  0.00000000E+00  0.00000000E+00
  0.00000000E+00  0.00000000E+00  0.00000000E+00
  0.00000000E+00  0.00000000E+00  0.00000000E+00
  0.00000000E+00  0.00000000E+00  0.00000000E+00
  0.00000000E+00  0.00000000E+00  0.00000000E+00
  0.00000000E+00  0.00000000E+00  0.00000000E+00
  0.00000000E+00  0.00000000E+00  0.00000000E+00
  0.00000000E+00  0.00000000E+00  0.00000000E+00
  0.00000000E+00  0.00000000E+00  0.00000000E+00
  0.00000000E+00  0.00000000E+00  0.00000000E+00
  0.00000000E+00  0.00000000E+00  0.00000000E+00
  0.00000000E+00  0.00000000E+00  0.00000000E+00
  0.00000000E+00  0.00000000E+00  0.00000000E+00
  0.00000000E+00  0.00000000E+00  0.00000000E+00
  0.00000000E+00  0.00000000E+00  0.00000000E+00
  0.00000000E+00  0.00000000E+00  0.00000000E+00
  0.00000000E+00  0.00000000E+00  0.00000000E+00
  0.00000000E+00  0.00000000E+00  0.00000000E+00
  0.00000000E+00  0.00000000E+00  0.00000000E+00
  0.00000000E+00  0.00000000E+00  0.00000000E+00
  0.00000000E+00  0.00000000E+00  0.00000000E+00
  0.00000000E+00  0.00000000E+00  0.00000000E+00
  0.00000000E+00  0.00000000E+00  0.00000000E+00
  0.00000000E+00  0.00000000E+00  0.00000000E+00
  0.00000000E+00  0.00000000E+00  0.00000000E+00
  0.00000000E+00  0.00000000E+00  0.00000000E+00
  0.00000000E+00  0.00000000E+00  0.00000000E+00
  0.00000000E+00  0.00000000E+00  0.00000000E+00
  0.00000000E+00  0.00000000E+00  0.00000000E+00
  0.00000000E+00  0.00000000E+00  0.00000000E+00
  0.00000000E+00  0.00000000E+00  0.00000000E+00
  0.00000000E+00  0.00000000E+00  0.00000000E+00
  0.00000000E+00  0.00000000E+00  0.00000000E+00
  0.00000000E+00  0.00000000E+00  0.00000000E+00
  0.00000000E+00  0.00000000E+00  0.00000000E+00
  0.00000000E+00  0.00000000E+00  0.00000000E+00
  0.00000000E+00  0.00000000E+00  0.00000000E+00
  0.00000000E+00  0.00000000E+00  0.00000000E+00
  0.00000000E+00  0.00000000E+00  0.00000000E+00
  0.00000000E+00  0.00000000E+00  0.00000000E+00
  0.00000000E+00  0.00000000E+00  0.00000000E+00
  0.00000000E+00  0.00000000E+00  0.00000000E+00
  0.00000000E+00  0.00000000E+00  0.00000000E+00
  0.00000000E+00  0.00000000E+00  0.00000000E+00
  0.00000000E+00  0.00000000E+00  0.00000000E+00
  0.00000000E+00  0.00000000E+00  0.00000000E+00
  0.00000000E+00  0.00000000E+00  0.00000000E+00
  0.00000000E+00  0.00000000E+00  0.00000000E+00
  0.00000000E+00  0.00000000E+00  0.00000000E+00
  0.00000000E+00  0.00000000E+00  0.00000000E+00
  0.00000000E+00  0.00000000E+00  0.00000000E+00
  0.00000000E+00  0.00000000E+00  0.00000000E+00
  0.00000000E+00  0.00000000E+00  0.00000000E+00
  0.00000000E+00  0.00000000E+00  0.00000000E+00
  0.00000000E+00  0.00000000E+00  0.00000000E+00
  0.00000000E+00  0.00000000E+00  0.00000000E+00