CuInSe2gb                               
   1.00000000000000     
     9.7266780392896699    0.0000000000000000    0.0000000000000000
     0.0000000000000000    8.4235502764570693    0.0000000000000000
     0.0000000000000000    0.0000000000000000   45.0000000000000000
   Fe   Mn
   281     7
Direct
  0.0539525153193779  0.7011121308852822  0.2112171514675643
  0.3181718623278690  0.7237555921119184  0.8762521870922229
  0.6884221734335170  0.9587513420875977  0.6114906359668352
  0.4383983638639444  0.4585441372423598  0.6115891007063516
  0.4407714445720963  0.2873736559365885  0.2550395460792720
  0.0587112942437104  0.3881232281096496  0.8335708864563751
  0.3085817693243684  0.8877393107050610  0.8336061014848366
  0.4469153694172986  0.6262680983170718  0.7003923751506791
  0.0598771867014778  0.2127071568380834  0.7449296898304758
  0.1794519747852632  0.4510532791840022  0.2112892449432343
  0.5677923738105606  0.2106104972691509  0.4775034271595827
  0.0667542343707025  0.8751285729957314  0.5668823398896643
  0.5683402375288125  0.2238864535505204  0.8761460560531137
  0.8072712644982853  0.5270436031957461  0.1238624892711629
  0.4296590075849706  0.9510885758346498  0.2113519592246744
  0.5666587165285789  0.3750306765679502  0.5668627492213091
  0.8116035232539620  0.0419812568300138  0.3883169206746870
  0.6818272940843185  0.7889846825305551  0.5224832579595887
  0.4426709065701150  0.4608134209206583  0.4775239235371054
  0.4338578625189111  0.9626103088762508  0.7447671968942330
  0.4416606736810132  0.6249529048358933  0.5668911129751566
  0.5715114157202399  0.8762765966401422  0.7005662001267470
  0.3090134814859881  0.0264321111179509  0.1239399223426025
  0.6899746128224034  0.9587535114994314  0.3439923859310423
  0.6874475155226794  0.7821112276466790  0.1242042341456528
  0.0530985639468542  0.3736793682729560  0.2994448828243590
  0.6898029032049739  0.4679616377912933  0.8760919217023968
  0.4287672369406497  0.4512607536042959  0.2113131770588036
  0.8086184576579452  0.3752967844033900  0.4330807420178065
  0.5635565727918888  0.7087019415628472  0.6115482281805500
  0.5597562286075903  0.5405691176198626  0.6558921292125369
  0.8173010928467331  0.8620243009667689  0.1665946067049711
  0.5654429054733515  0.5379807113092293  0.2551566396850749
  0.6896388540955370  0.4587069739247954  0.3439113378355030
  0.1920182548512353  0.6122102617125434  0.1665364543349043
  0.1944963616220372  0.7994164989881732  0.7888210032145692
  0.4472328736165485  0.1259524309823109  0.7004111954192798
  0.9281894249329212  0.6232067560136153  0.2995942537357829
  0.3173340071129726  0.2236381603226774  0.8761166120460608
  0.3165253393868793  0.8747809498608369  0.5668610914412666
  0.8175329114968789  0.2238021325225416  0.8761698839536906
  0.8097554027401509  0.5407132181255651  0.6558174461937888
  0.5586748597832659  0.5268694758483562  0.1239706062809311
  0.5692890431026387  0.0497396145942366  0.7889834894720282
  0.1903088932671819  0.2872234811256311  0.2551367410973805
  0.8085382349812654  0.8750987640622317  0.4331099613887696
  0.5723076951265628  0.3763382597642990  0.7004066262891744
  0.0578557216774156  0.0269487746522165  0.1240244286549292
  0.3098034965559889  0.5406341076643701  0.6559414367791974
  0.5647957455899409  0.2089015319902740  0.3439462522048218
  0.1882810730196309  0.9585275329924613  0.6114722005076076
  0.3029073848787304  0.3738147933181311  0.2995439965223116
  0.4345604469198181  0.7905030865031759  0.6559504468817403
  0.1947952078829549  0.2989873286103253  0.7887821103009728
  0.0668875190428333  0.3625179023676414  0.1665780744865465
  0.6970397257762683  0.6262871366239607  0.7004405998240999
  0.3114614143281681  0.5410671616995881  0.3884363787420753
  0.0676372881176867  0.7233036795719719  0.8762339547257525
  0.9339385402379710  0.6375497624797121  0.8339110125839084
  0.3197666643629486  0.5495979411634304  0.7889230887203760
  0.3050984871002573  0.2005430568680955  0.2110796257282333
  0.0679365328977608  0.7106227074660122  0.4774782661272289
  0.5549828156629107  0.2006719239916261  0.2110359637392456
  0.3096943179097306  0.2123847883249170  0.7449332021342997
  0.0719595108710644  0.3763130069111126  0.7005077287941583
  0.1832010313122667  0.6377262694889378  0.8335940155251558
  0.0694254684508105  0.0493852156423678  0.7890085272932129
  0.4414954878212539  0.1250568548639949  0.5669265343861757
  0.9347858151081144  0.2909454645641206  0.6558778536660266
  0.8048690041804355  0.2012262597417059  0.2111710070837283
  0.9293855286143620  0.9514030780191051  0.2112230721018809
  0.9417015644671466  0.6252488221119897  0.5668107092221323
  0.8081627982412947  0.3876506560379174  0.8335165108863556
  0.1970982853253302  0.6262426390064446  0.7003372330781927
  0.8084961094743444  0.8875910696263418  0.8335246247436930
  0.6849791705064286  0.2908694176807493  0.6560579167380406
  0.3131801206842512  0.2083518835350089  0.6114952962144176
  0.4346458545374171  0.4627642471302434  0.7448634608714629
  0.4364233177462385  0.7912141547532393  0.3883896967632444
  0.6844764941921532  0.9626942435637758  0.7448672571132384
  0.8040772261157962  0.7009587188004321  0.2112307384153391
  0.8134935830581466  0.7086545688538496  0.6116043793096999
  0.4364647604662735  0.7831291648496680  0.1239564337460416
  0.3097833902486121  0.7121450053845398  0.7448063057128722
  0.3200043568730022  0.0494748129836515  0.7888757813285929
  0.8112156829483445  0.5415151477055850  0.3883198960248392
  0.6823464615153163  0.2886457795038563  0.5223495411976844
  0.6949808110621197  0.7993627063751946  0.7888999113620592
  0.1904307270879715  0.7880164147203319  0.2553094243119449
  0.6915299060586158  0.1122302460991498  0.1665996419291452
  0.6928422584717868  0.9607055106587050  0.4774618843266651
  0.9401768762533161  0.9593126264843618  0.3440080054399334
  0.8072618132292204  0.0392858503839665  0.5225569480969355
  0.6834722452277704  0.6247621573263760  0.4330841819057658
  0.4401091480779513  0.4582812840953071  0.3441274627598661
  0.8104883926775160  0.2115326456987490  0.7446027253783821
  0.4396530960825999  0.9681935155467650  0.8760919984442770
  0.5665975900986886  0.8749043006673665  0.5668576711083401
  0.8094327675480986  0.0279491650643080  0.1239827868355935
  0.4284548100860471  0.6235017436019479  0.2993927145497839
  0.8167024937511514  0.7237757153378070  0.8763506688334255
  0.6882343794795390  0.4584511495415186  0.6115262573786384
  0.5587864299750770  0.3876160393074733  0.8335035725886700
  0.8032330688184224  0.3733626924202629  0.2994686549289797
  0.1862154390644564  0.2911618922712142  0.3883410650729376
  0.8199476282191582  0.5492801901746717  0.7889338740967848
  0.1822927121562267  0.7894362151477921  0.5225531237875057
  0.3031420170734418  0.8739171641912250  0.2995866880874776
  0.1785500118548725  0.9514494601954738  0.2113143573907036
  0.1844489582603454  0.4624422423091466  0.7448958853304736
  0.4324173458798004  0.2887053034460099  0.5223191278925582
  0.0651521054638303  0.7087673223402934  0.3439604170172121
  0.1848167856474782  0.7906271978306589  0.6558865681804031
  0.4446760682546028  0.7992780866386604  0.7888506514517499
  0.6836940041625020  0.1250412625767623  0.4329310957478116
  0.9322217747970044  0.7889006775640591  0.5225547302031414
  0.6916002902491906  0.6123566968982477  0.1664614936428016
  0.8145520370175662  0.7089033206503182  0.3438869383002346
  0.9344394933939066  0.4625918794749908  0.7449586405748813
  0.1901045381508849  0.4589506670929251  0.3440628109899676
  0.5698433868006290  0.5496815208978192  0.7890402102059620
  0.5672490920288467  0.3619416468374982  0.1665905563740535
  0.5647895571552266  0.7089551241795102  0.3439371531997841
  0.5532338767277235  0.3740439621864218  0.2995565148788345
  0.1897853281282064  0.4681419174669769  0.8760897602416597
  0.1914321726154469  0.1113377773500232  0.1664136945147233
  0.4447723013216903  0.2990246069752454  0.7888196514171421
  0.6911155936616828  0.7874291078042892  0.2552856770297798
  0.9335756685715280  0.1376060522925210  0.8335167284133244
  0.4427257963912823  0.9606959065704285  0.4774811517786509
  0.5675554051239694  0.7246856870280585  0.8762337663701735
  0.1926570227233728  0.4605768513390100  0.4775070192563448
  0.9350791137392604  0.2822005127395099  0.1240991770380450
  0.3113279188406842  0.0416886980890233  0.3884596045373567
  0.0600554796109253  0.0404393497853783  0.6560189202609853
  0.5586352665902536  0.3751514416396280  0.4330695271953089
  0.6841718884982946  0.4628619527627634  0.7449352146245363
  0.5601678457540492  0.2123376716323293  0.7448100368252705
  0.9471095120577037  0.1263124418226457  0.7003627870284489
  0.5595384775563716  0.0407811072566502  0.6558616662343992
  0.5572324852064715  0.5390957538214447  0.5225573088685029
  0.1783668740030016  0.1241169703543527  0.2995491278346038
  0.4415447006407549  0.1112656953697648  0.1663558167128418
  0.6777413903737490  0.6236855994403723  0.2995274547897703
  0.9279369864085698  0.1236289435953573  0.2996192026168396
  0.8165501484159016  0.3750859518146468  0.5668860547897077
  0.0527753695073373  0.8742092798699322  0.2995437862253644
  0.1916996115767082  0.6249618987953224  0.5668930650347925
  0.9445286044002703  0.7995850049981074  0.7888665152275353
  0.3085011285234084  0.3875673311645115  0.8334891908529098
  0.9396427257223653  0.4684523685701099  0.8760951720643124
  0.4336877586189267  0.6379108444647095  0.8335177000716740
  0.0645238571259470  0.2086810118824329  0.3437928285178635
  0.1897474349059876  0.9680066772558079  0.8760904230529040
  0.9355710254305437  0.7824017243916690  0.1241771562772228
  0.6865231995621869  0.7911567222100450  0.3884034196557228
  0.9347575249504876  0.7906297594832594  0.6559030658876410
  0.9416105488022517  0.1122508267304679  0.1664967362383506
  0.4350293433134073  0.2908121389503079  0.6560743639797425
  0.0543916701795438  0.2008741411543957  0.2112499841733702
  0.6790891481645821  0.9514994409817261  0.2112831908808682
  0.1785262414402082  0.6234774799657166  0.2994018132484578
  0.8221129223877571  0.8760994162211119  0.7004399857320919
  0.9468470555866790  0.6264380715650419  0.7005031641261684
  0.1971009920557145  0.1262538881530453  0.7003650025326426
  0.9426177563377690  0.4605572735322017  0.4772839579076785
  0.8134024545473743  0.2085260386340205  0.6115582790596721
  0.1831581972424101  0.6249922990199093  0.4331399192710709
  0.4285613204613689  0.1235764811672395  0.2994365590851120
  0.6776602244076778  0.1235885084334002  0.2995319187491740
  0.5618883887921299  0.5413682473711551  0.3885561137349650
  0.8147253884866138  0.2079707167066530  0.3439994660073029
  0.4398975293252482  0.4680042962236684  0.8759385037878629
  0.5586717003968906  0.8875893801105219  0.8334961206245807
  0.3178635440754538  0.2104688157245996  0.4773204481979221
  0.1927260507220622  0.9607960878926861  0.4775093099581079
  0.0584908902212643  0.8878371523583490  0.8335593170137771
  0.0572805081775711  0.5391524751586600  0.5225596577045148
  0.9426687638384563  0.9605260331929276  0.4772877735131603
  0.0633293113736417  0.7085458035877461  0.6116188950271764
  0.5573133087091033  0.0388821933838146  0.5224404996865056
  0.6951234351836698  0.2990188038304130  0.7887781609951151
  0.8169165978027118  0.3622632648243753  0.1666920178746929
  0.4335011215915530  0.1247976486433440  0.4330605976877159
  0.0680008859866344  0.2106388322514118  0.4774855405606316
  0.3098405424039861  0.0407914954072990  0.6559041576833616
  0.4321063097638311  0.7890236703980132  0.5223679171042667
  0.1838414355849678  0.1378789017233792  0.8335653892542979
  0.1853421600716949  0.2829721483178939  0.1242458824291765
  0.9403396021589537  0.4593969364620132  0.3440547602374659
  0.5664673543869915  0.8623774217703800  0.1664887705747022
  0.3036901350286139  0.7010891379982435  0.2112173030263087
  0.9413318759466324  0.6122173711875611  0.1664534318253432
  0.1882948154869190  0.4586025139056967  0.6115056213764266
  0.0723499440316421  0.8764241063813510  0.7003623857384597
  0.0597728469740618  0.5407555295949317  0.6558996332805157
  0.3073429987522996  0.5271235172590538  0.1239010003172850
  0.9365128607710911  0.7913218138654952  0.3884629817915343
  0.9450788550486308  0.2988023774526508  0.7887763723806558
  0.1846562527625688  0.2906527284772282  0.6558915972560511
  0.9381824716081183  0.9583994999969074  0.6114988563306766
  0.8099609207924282  0.7118653042398368  0.7448459987384936
  0.6909612724996249  0.2875492315906625  0.2553211296767244
  0.0593012686970331  0.7123049646067028  0.7450183263960394
  0.6791909857647619  0.4511791172716948  0.2113044973322381
  0.8177660523641536  0.2107374587916815  0.4774735730266578
  0.5676262055939212  0.7106213307371072  0.4774874197932917
  0.0672828501634020  0.8626011836316744  0.1665971946276811
  0.9324527385055276  0.2883937252559542  0.5223583252529241
  0.6846387185474201  0.7903542882245469  0.6558907863504725
  0.0583436995008467  0.8748577212439613  0.4330754016274658
  0.0681312044795153  0.2230184546236113  0.8761645659113215
  0.8097517745430103  0.0406330786643619  0.6559063599415904
  0.5596896320359782  0.0279416865540128  0.1238318419390657
  0.3088116968180597  0.3751405887783551  0.4330237910302800
  0.3164793884975354  0.3749786144260984  0.5668673930865042
  0.3177274289514842  0.7103823714305861  0.4773276228967706
  0.0571418725111514  0.0391187381578625  0.5225407477247526
  0.3219428845018398  0.8763519025168258  0.7005479245909131
  0.0652345034099280  0.5378310943558330  0.2550235604431630
  0.6835270277161463  0.1378149909365119  0.8335489265960776
  0.8152996123805359  0.0375565295957551  0.2550665558476726
  0.1833821279269053  0.1247239637311891  0.4330450824855629
  0.6972117280504231  0.1263264237643378  0.7004446870382902
  0.1824435123781693  0.2891845868629285  0.5225486958660789
  0.4402934226940570  0.7874588530958030  0.2551328723260421
  0.4414025259328939  0.6122974343192877  0.1664485083746151
  0.0635250023800455  0.2086216293650585  0.6115502886573080
  0.1860596273491507  0.7910332627825735  0.3883601719364618
  0.3070139330228644  0.5387538953555886  0.5224815800385508
  0.8219409724821534  0.3763047657767146  0.7002246419207053
  0.6865323555593429  0.2912090293653303  0.3884282028085065
  0.1916551595249291  0.1250045868559293  0.5669150766165739
  0.6897247924851888  0.9684258447860876  0.8760887983356462
  0.6915633151266879  0.1250413527809353  0.5669085448741510
  0.4400301031394263  0.9583892639678647  0.3440177794911946
  0.1838585721711131  0.9625212705594061  0.7447424131139756
  0.9401305759258735  0.7874567367261591  0.2552093312307968
  0.5586072588586187  0.8751657192503240  0.4330973999846033
  0.3083485352349434  0.8749745590155218  0.4331173951456426
  0.8072192886037883  0.5392956683040654  0.5225855887524360
  0.9290437660267752  0.4512070044884235  0.2112688903400484
  0.3151497141673516  0.5377427294899566  0.2551556220128936
  0.5615621340129865  0.0412669885619302  0.3884254400359465
  0.9382177006153964  0.4584104983174764  0.6116331120308284
  0.0614055998083945  0.0414050812279628  0.3883767333627188
  0.0618020296960865  0.5414049580706426  0.3884227329897451
  0.4361786608734387  0.2908240495873562  0.3884510059260082
  0.6928419964474297  0.4607878354171800  0.4774741671086971
  0.0666618259645327  0.3749927215356908  0.5668955867795632
  0.5540583764923322  0.7011621113220631  0.2111544210782636
  0.9404108987565380  0.2876272196301138  0.2551450977082355
  0.8192455348773170  0.0496256365936627  0.7890669622439698
  0.1897254685997528  0.9588665203526645  0.3439348099743171
  0.3169418935999951  0.3621631775660576  0.1665745277039329
  0.0584362307468418  0.3749185160483163  0.4330878921882562
  0.3150139230554516  0.7091662299884036  0.3439321615665501
  0.3145811504267314  0.2087810814711227  0.3438977686713508
  0.9416224269519973  0.1251666315384953  0.5668255916099886
  0.4384487098956746  0.9588624809007726  0.6115694339503970
  0.5651047405215546  0.0378212689832044  0.2550955071242028
  0.1863822476398442  0.7825416723361156  0.1242239475058130
  0.0650839059165332  0.0374091452241807  0.2550536272260878
  0.6915524404952330  0.6249875791084336  0.5669117782209961
  0.0572531693497624  0.5261837716145394  0.1240105103958696
  0.3070687635199453  0.0383514217273299  0.5222894550177135
  0.6859784261482357  0.2825481324152227  0.1240919740807768
  0.8178509772342261  0.7107599536035247  0.4774893432244910
  0.4335964046444677  0.1378649703430772  0.8335083611029374
  0.3224360184660056  0.3763528707015240  0.7004322823221822
  0.6836370233025666  0.6378470063622693  0.8335057752150492
  0.5598003503886094  0.7119340743086157  0.7448601995486784
  0.9364262913820802  0.2912945193498746  0.3884989176029102
  0.9397982018140288  0.9683680982254814  0.8761070973309051
  0.5628379003857747  0.2080757467468395  0.6113255413939659
  0.8165311486292884  0.8750656762003052  0.5669021113387404
  0.8030535611299002  0.8734162815355203  0.2993833385113209
  0.3152506733379601  0.0376153498504533  0.2551312024886780
  0.4364014924530224  0.2830508118915007  0.1241678822902599
  0.3136050987143104  0.7086688915638337  0.6115841736557652
  0.4332283771565463  0.6249770679977937  0.4331347669007942
  0.9328597171720228  0.6248562215304989  0.4332000026321340
  0.3179921698304354  0.8626260548144982  0.1657469895263518
  0.0705460215885588  0.5494217231234874  0.7887422227162058
  0.9334213757649764  0.1243778237344170  0.4330736436794638
  0.5523989381357883  0.8730418462142887  0.2996569774533359
  0.9333524636836696  0.9622760383517626  0.7446663207794099
  0.8159376034911473  0.5380905233438698  0.2553379662374447
 
  0.00000000E+00  0.00000000E+00  0.00000000E+00
  0.00000000E+00  0.00000000E+00  0.00000000E+00
  0.00000000E+00  0.00000000E+00  0.00000000E+00
  0.00000000E+00  0.00000000E+00  0.00000000E+00
  0.00000000E+00  0.00000000E+00  0.00000000E+00
  0.00000000E+00  0.00000000E+00  0.00000000E+00
  0.00000000E+00  0.00000000E+00  0.00000000E+00
  0.00000000E+00  0.00000000E+00  0.00000000E+00
  0.00000000E+00  0.00000000E+00  0.00000000E+00
  0.00000000E+00  0.00000000E+00  0.00000000E+00
  0.00000000E+00  0.00000000E+00  0.00000000E+00
  0.00000000E+00  0.00000000E+00  0.00000000E+00
  0.00000000E+00  0.00000000E+00  0.00000000E+00
  0.00000000E+00  0.00000000E+00  0.00000000E+00
  0.00000000E+00  0.00000000E+00  0.00000000E+00
  0.00000000E+00  0.00000000E+00  0.00000000E+00
  0.00000000E+00  0.00000000E+00  0.00000000E+00
  0.00000000E+00  0.00000000E+00  0.00000000E+00
  0.00000000E+00  0.00000000E+00  0.00000000E+00
  0.00000000E+00  0.00000000E+00  0.00000000E+00
  0.00000000E+00  0.00000000E+00  0.00000000E+00
  0.00000000E+00  0.00000000E+00  0.00000000E+00
  0.00000000E+00  0.00000000E+00  0.00000000E+00
  0.00000000E+00  0.00000000E+00  0.00000000E+00
  0.00000000E+00  0.00000000E+00  0.00000000E+00
  0.00000000E+00  0.00000000E+00  0.00000000E+00
  0.00000000E+00  0.00000000E+00  0.00000000E+00
  0.00000000E+00  0.00000000E+00  0.00000000E+00
  0.00000000E+00  0.00000000E+00  0.00000000E+00
  0.00000000E+00  0.00000000E+00  0.00000000E+00
  0.00000000E+00  0.00000000E+00  0.00000000E+00
  0.00000000E+00  0.00000000E+00  0.00000000E+00
  0.00000000E+00  0.00000000E+00  0.00000000E+00
  0.00000000E+00  0.00000000E+00  0.00000000E+00
  0.00000000E+00  0.00000000E+00  0.00000000E+00
  0.00000000E+00  0.00000000E+00  0.00000000E+00
  0.00000000E+00  0.00000000E+00  0.00000000E+00
  0.00000000E+00  0.00000000E+00  0.00000000E+00
  0.00000000E+00  0.00000000E+00  0.00000000E+00
  0.00000000E+00  0.00000000E+00  0.00000000E+00
  0.00000000E+00  0.00000000E+00  0.00000000E+00
  0.00000000E+00  0.00000000E+00  0.00000000E+00
  0.00000000E+00  0.00000000E+00  0.00000000E+00
  0.00000000E+00  0.00000000E+00  0.00000000E+00
  0.00000000E+00  0.00000000E+00  0.00000000E+00
  0.00000000E+00  0.00000000E+00  0.00000000E+00
  0.00000000E+00  0.00000000E+00  0.00000000E+00
  0.00000000E+00  0.00000000E+00  0.00000000E+00
  0.00000000E+00  0.00000000E+00  0.00000000E+00
  0.00000000E+00  0.00000000E+00  0.00000000E+00
  0.00000000E+00  0.00000000E+00  0.00000000E+00
  0.00000000E+00  0.00000000E+00  0.00000000E+00
  0.00000000E+00  0.00000000E+00  0.00000000E+00
  0.00000000E+00  0.00000000E+00  0.00000000E+00
  0.00000000E+00  0.00000000E+00  0.00000000E+00
  0.00000000E+00  0.00000000E+00  0.00000000E+00
  0.00000000E+00  0.00000000E+00  0.00000000E+00
  0.00000000E+00  0.00000000E+00  0.00000000E+00
  0.00000000E+00  0.00000000E+00  0.00000000E+00
  0.00000000E+00  0.00000000E+00  0.00000000E+00
  0.00000000E+00  0.00000000E+00  0.00000000E+00
  0.00000000E+00  0.00000000E+00  0.00000000E+00
  0.00000000E+00  0.00000000E+00  0.00000000E+00
  0.00000000E+00  0.00000000E+00  0.00000000E+00
  0.00000000E+00  0.00000000E+00  0.00000000E+00
  0.00000000E+00  0.00000000E+00  0.00000000E+00
  0.00000000E+00  0.00000000E+00  0.00000000E+00
  0.00000000E+00  0.00000000E+00  0.00000000E+00
  0.00000000E+00  0.00000000E+00  0.00000000E+00
  0.00000000E+00  0.00000000E+00  0.00000000E+00
  0.00000000E+00  0.00000000E+00  0.00000000E+00
  0.00000000E+00  0.00000000E+00  0.00000000E+00
  0.00000000E+00  0.00000000E+00  0.00000000E+00
  0.00000000E+00  0.00000000E+00  0.00000000E+00
  0.00000000E+00  0.00000000E+00  0.00000000E+00
  0.00000000E+00  0.00000000E+00  0.00000000E+00
  0.00000000E+00  0.00000000E+00  0.00000000E+00
  0.00000000E+00  0.00000000E+00  0.00000000E+00
  0.00000000E+00  0.00000000E+00  0.00000000E+00
  0.00000000E+00  0.00000000E+00  0.00000000E+00
  0.00000000E+00  0.00000000E+00  0.00000000E+00
  0.00000000E+00  0.00000000E+00  0.00000000E+00
  0.00000000E+00  0.00000000E+00  0.00000000E+00
  0.00000000E+00  0.00000000E+00  0.00000000E+00
  0.00000000E+00  0.00000000E+00  0.00000000E+00
  0.00000000E+00  0.00000000E+00  0.00000000E+00
  0.00000000E+00  0.00000000E+00  0.00000000E+00
  0.00000000E+00  0.00000000E+00  0.00000000E+00
  0.00000000E+00  0.00000000E+00  0.00000000E+00
  0.00000000E+00  0.00000000E+00  0.00000000E+00
  0.00000000E+00  0.00000000E+00  0.00000000E+00
  0.00000000E+00  0.00000000E+00  0.00000000E+00
  0.00000000E+00  0.00000000E+00  0.00000000E+00
  0.00000000E+00  0.00000000E+00  0.00000000E+00
  0.00000000E+00  0.00000000E+00  0.00000000E+00
  0.00000000E+00  0.00000000E+00  0.00000000E+00
  0.00000000E+00  0.00000000E+00  0.00000000E+00
  0.00000000E+00  0.00000000E+00  0.00000000E+00
  0.00000000E+00  0.00000000E+00  0.00000000E+00
  0.00000000E+00  0.00000000E+00  0.00000000E+00
  0.00000000E+00  0.00000000E+00  0.00000000E+00
  0.00000000E+00  0.00000000E+00  0.00000000E+00
  0.00000000E+00  0.00000000E+00  0.00000000E+00
  0.00000000E+00  0.00000000E+00  0.00000000E+00
  0.00000000E+00  0.00000000E+00  0.00000000E+00
  0.00000000E+00  0.00000000E+00  0.00000000E+00
  0.00000000E+00  0.00000000E+00  0.00000000E+00
  0.00000000E+00  0.00000000E+00  0.00000000E+00
  0.00000000E+00  0.00000000E+00  0.00000000E+00
  0.00000000E+00  0.00000000E+00  0.00000000E+00
  0.00000000E+00  0.00000000E+00  0.00000000E+00
  0.00000000E+00  0.00000000E+00  0.00000000E+00
  0.00000000E+00  0.00000000E+00  0.00000000E+00
  0.00000000E+00  0.00000000E+00  0.00000000E+00
  0.00000000E+00  0.00000000E+00  0.00000000E+00
  0.00000000E+00  0.00000000E+00  0.00000000E+00
  0.00000000E+00  0.00000000E+00  0.00000000E+00
  0.00000000E+00  0.00000000E+00  0.00000000E+00
  0.00000000E+00  0.00000000E+00  0.00000000E+00
  0.00000000E+00  0.00000000E+00  0.00000000E+00
  0.00000000E+00  0.00000000E+00  0.00000000E+00
  0.00000000E+00  0.00000000E+00  0.00000000E+00
  0.00000000E+00  0.00000000E+00  0.00000000E+00
  0.00000000E+00  0.00000000E+00  0.00000000E+00
  0.00000000E+00  0.00000000E+00  0.00000000E+00
  0.00000000E+00  0.00000000E+00  0.00000000E+00
  0.00000000E+00  0.00000000E+00  0.00000000E+00
  0.00000000E+00  0.00000000E+00  0.00000000E+00
  0.00000000E+00  0.00000000E+00  0.00000000E+00
  0.00000000E+00  0.00000000E+00  0.00000000E+00
  0.00000000E+00  0.00000000E+00  0.00000000E+00
  0.00000000E+00  0.00000000E+00  0.00000000E+00
  0.00000000E+00  0.00000000E+00  0.00000000E+00
  0.00000000E+00  0.00000000E+00  0.00000000E+00
  0.00000000E+00  0.00000000E+00  0.00000000E+00
  0.00000000E+00  0.00000000E+00  0.00000000E+00
  0.00000000E+00  0.00000000E+00  0.00000000E+00
  0.00000000E+00  0.00000000E+00  0.00000000E+00
  0.00000000E+00  0.00000000E+00  0.00000000E+00
  0.00000000E+00  0.00000000E+00  0.00000000E+00
  0.00000000E+00  0.00000000E+00  0.00000000E+00
  0.00000000E+00  0.00000000E+00  0.00000000E+00
  0.00000000E+00  0.00000000E+00  0.00000000E+00
  0.00000000E+00  0.00000000E+00  0.00000000E+00
  0.00000000E+00  0.00000000E+00  0.00000000E+00
  0.00000000E+00  0.00000000E+00  0.00000000E+00
  0.00000000E+00  0.00000000E+00  0.00000000E+00
  0.00000000E+00  0.00000000E+00  0.00000000E+00
  0.00000000E+00  0.00000000E+00  0.00000000E+00
  0.00000000E+00  0.00000000E+00  0.00000000E+00
  0.00000000E+00  0.00000000E+00  0.00000000E+00
  0.00000000E+00  0.00000000E+00  0.00000000E+00
  0.00000000E+00  0.00000000E+00  0.00000000E+00
  0.00000000E+00  0.00000000E+00  0.00000000E+00
  0.00000000E+00  0.00000000E+00  0.00000000E+00
  0.00000000E+00  0.00000000E+00  0.00000000E+00
  0.00000000E+00  0.00000000E+00  0.00000000E+00
  0.00000000E+00  0.00000000E+00  0.00000000E+00
  0.00000000E+00  0.00000000E+00  0.00000000E+00
  0.00000000E+00  0.00000000E+00  0.00000000E+00
  0.00000000E+00  0.00000000E+00  0.00000000E+00
  0.00000000E+00  0.00000000E+00  0.00000000E+00
  0.00000000E+00  0.00000000E+00  0.00000000E+00
  0.00000000E+00  0.00000000E+00  0.00000000E+00
  0.00000000E+00  0.00000000E+00  0.00000000E+00
  0.00000000E+00  0.00000000E+00  0.00000000E+00
  0.00000000E+00  0.00000000E+00  0.00000000E+00
  0.00000000E+00  0.00000000E+00  0.00000000E+00
  0.00000000E+00  0.00000000E+00  0.00000000E+00
  0.00000000E+00  0.00000000E+00  0.00000000E+00
  0.00000000E+00  0.00000000E+00  0.00000000E+00
  0.00000000E+00  0.00000000E+00  0.00000000E+00
  0.00000000E+00  0.00000000E+00  0.00000000E+00
  0.00000000E+00  0.00000000E+00  0.00000000E+00
  0.00000000E+00  0.00000000E+00  0.00000000E+00
  0.00000000E+00  0.00000000E+00  0.00000000E+00
  0.00000000E+00  0.00000000E+00  0.00000000E+00
  0.00000000E+00  0.00000000E+00  0.00000000E+00
  0.00000000E+00  0.00000000E+00  0.00000000E+00
  0.00000000E+00  0.00000000E+00  0.00000000E+00
  0.00000000E+00  0.00000000E+00  0.00000000E+00
  0.00000000E+00  0.00000000E+00  0.00000000E+00
  0.00000000E+00  0.00000000E+00  0.00000000E+00
  0.00000000E+00  0.00000000E+00  0.00000000E+00
  0.00000000E+00  0.00000000E+00  0.00000000E+00
  0.00000000E+00  0.00000000E+00  0.00000000E+00
  0.00000000E+00  0.00000000E+00  0.00000000E+00
  0.00000000E+00  0.00000000E+00  0.00000000E+00
  0.00000000E+00  0.00000000E+00  0.00000000E+00
  0.00000000E+00  0.00000000E+00  0.00000000E+00
  0.00000000E+00  0.00000000E+00  0.00000000E+00
  0.00000000E+00  0.00000000E+00  0.00000000E+00
  0.00000000E+00  0.00000000E+00  0.00000000E+00
  0.00000000E+00  0.00000000E+00  0.00000000E+00
  0.00000000E+00  0.00000000E+00  0.00000000E+00
  0.00000000E+00  0.00000000E+00  0.00000000E+00
  0.00000000E+00  0.00000000E+00  0.00000000E+00
  0.00000000E+00  0.00000000E+00  0.00000000E+00
  0.00000000E+00  0.00000000E+00  0.00000000E+00
  0.00000000E+00  0.00000000E+00  0.00000000E+00
  0.00000000E+00  0.00000000E+00  0.00000000E+00
  0.00000000E+00  0.00000000E+00  0.00000000E+00
  0.00000000E+00  0.00000000E+00  0.00000000E+00
  0.00000000E+00  0.00000000E+00  0.00000000E+00
  0.00000000E+00  0.00000000E+00  0.00000000E+00
  0.00000000E+00  0.00000000E+00  0.00000000E+00
  0.00000000E+00  0.00000000E+00  0.00000000E+00
  0.00000000E+00  0.00000000E+00  0.00000000E+00
  0.00000000E+00  0.00000000E+00  0.00000000E+00
  0.00000000E+00  0.00000000E+00  0.00000000E+00
  0.00000000E+00  0.00000000E+00  0.00000000E+00
  0.00000000E+00  0.00000000E+00  0.00000000E+00
  0.00000000E+00  0.00000000E+00  0.00000000E+00
  0.00000000E+00  0.00000000E+00  0.00000000E+00
  0.00000000E+00  0.00000000E+00  0.00000000E+00
  0.00000000E+00  0.00000000E+00  0.00000000E+00
  0.00000000E+00  0.00000000E+00  0.00000000E+00
  0.00000000E+00  0.00000000E+00  0.00000000E+00
  0.00000000E+00  0.00000000E+00  0.00000000E+00
  0.00000000E+00  0.00000000E+00  0.00000000E+00
  0.00000000E+00  0.00000000E+00  0.00000000E+00
  0.00000000E+00  0.00000000E+00  0.00000000E+00
  0.00000000E+00  0.00000000E+00  0.00000000E+00
  0.00000000E+00  0.00000000E+00  0.00000000E+00
  0.00000000E+00  0.00000000E+00  0.00000000E+00
  0.00000000E+00  0.00000000E+00  0.00000000E+00
  0.00000000E+00  0.00000000E+00  0.00000000E+00
  0.00000000E+00  0.00000000E+00  0.00000000E+00
  0.00000000E+00  0.00000000E+00  0.00000000E+00
  0.00000000E+00  0.00000000E+00  0.00000000E+00
  0.00000000E+00  0.00000000E+00  0.00000000E+00
  0.00000000E+00  0.00000000E+00  0.00000000E+00
  0.00000000E+00  0.00000000E+00  0.00000000E+00
  0.00000000E+00  0.00000000E+00  0.00000000E+00
  0.00000000E+00  0.00000000E+00  0.00000000E+00
  0.00000000E+00  0.00000000E+00  0.00000000E+00
  0.00000000E+00  0.00000000E+00  0.00000000E+00
  0.00000000E+00  0.00000000E+00  0.00000000E+00
  0.00000000E+00  0.00000000E+00  0.00000000E+00
  0.00000000E+00  0.00000000E+00  0.00000000E+00
  0.00000000E+00  0.00000000E+00  0.00000000E+00
  0.00000000E+00  0.00000000E+00  0.00000000E+00
  0.00000000E+00  0.00000000E+00  0.00000000E+00
  0.00000000E+00  0.00000000E+00  0.00000000E+00
  0.00000000E+00  0.00000000E+00  0.00000000E+00
  0.00000000E+00  0.00000000E+00  0.00000000E+00
  0.00000000E+00  0.00000000E+00  0.00000000E+00