CuInSe2gb                               
   1.00000000000000     
     9.7266780392896699    0.0000000000000000    0.0000000000000000
     0.0000000000000000    8.4235502764570693    0.0000000000000000
     0.0000000000000000    0.0000000000000000   45.0000000000000000
   Fe   Mn
   274    14
Direct
  0.0626078201988996  0.0316882470143882  0.1244234969844015
  0.3159294127920534  0.8744506581264011  0.6557463792090599
  0.1839622230625153  0.1206390692375759  0.7884384501769618
  0.4417563600327605  0.2887198306646985  0.3889156992253667
  0.3169969810633053  0.7126097866033425  0.8332177381356572
  0.8175490731978933  0.2112499172969932  0.8333187305266812
  0.1889141063667158  0.9625390450390244  0.8336615055693861
  0.5631678303844500  0.2071076624993489  0.5649427712278051
  0.0651101605147254  0.0393288812524874  0.7444214240511072
  0.8109574436791047  0.8717491182237790  0.5210803007456254
  0.1900821767380975  0.2890316258373600  0.7440622896057990
  0.9339201559100923  0.4531352281650379  0.3449655595537927
  0.9412550135829373  0.2879076042291871  0.3885621019112770
  0.8172056747480477  0.0398998801227411  0.8753062966606565
  0.1844392091391837  0.7878843217222330  0.6108756547215584
  0.5664914278623655  0.0373440007829311  0.3890990260817458
  0.9423425823255911  0.9602709588305892  0.8334943731681814
  0.3134855582646414  0.5398210733295120  0.8761203424190952
  0.6898973107312949  0.2905342388275879  0.7445199931749270
  0.1840955702771019  0.6164528733095183  0.1666002800801858
  0.8124969461393107  0.2046795399417199  0.4790569956368151
  0.8089535205754440  0.5391158268558585  0.6109735533553301
  0.3111903610521315  0.8708066647166975  0.4343985643158731
  0.8118532535157852  0.0392524119636944  0.2563158265667284
  0.6849029564213674  0.9507193747962805  0.3447679687149529
  0.9330841907569604  0.1155594222371402  0.1666722028352577
  0.0609948477175036  0.8714843501790325  0.5210761153115580
  0.5579580509235167  0.5378996224814877  0.2554697722573460
  0.6875668333088963  0.7933813542475773  0.8750471146403095
  0.5553941483955843  0.3664950611905509  0.1660104128572317
  0.4410836313193343  0.7898225388493599  0.7444661223565109
  0.8118484395913560  0.7074995220477246  0.5650774449701800
  0.5636354058109264  0.8705865143525494  0.7882460611949553
  0.6869261132670083  0.1217180800756074  0.5213452974582201
  0.8158238442414735  0.3739822246470905  0.6556359007829142
  0.9411061044326148  0.4628612336104559  0.8335286326984788
  0.0599990494692068  0.2066271125075209  0.7004652273014589
  0.4357886795605783  0.9572238278044869  0.7006068446141304
  0.3141154619691449  0.2092364434055196  0.8338334395679742
  0.4409071936456119  0.6247971574959970  0.6556917348877404
  0.3089135677016828  0.5390831061177630  0.6109358488256211
  0.9366320631170183  0.4562716528588091  0.5651541395222464
  0.6890400091668072  0.7897318745308294  0.7449010300767601
  0.9338428471549279  0.7873027130903364  0.1243080806366151
  0.6907821874666995  0.7870526218339138  0.3889591814463593
  0.9390638814429635  0.7897744759361036  0.7447548203790084
  0.0575388455316013  0.2022739344090242  0.3450472650803977
  0.6851381042945801  0.4527746016863015  0.3453451387118835
  0.4382419604550066  0.1208439304365553  0.7884884262837211
  0.0667302340547540  0.2053303351480206  0.2111528420861370
  0.0553471288939016  0.3655172723467112  0.1663944946861127
  0.9355332110267530  0.7882662446056204  0.2558733784286595
  0.5615241027975422  0.2073944084860154  0.7005738686707810
  0.6841273669892878  0.9579220631754091  0.7005893341450063
  0.8097241157197110  0.8712239209627040  0.7883089148593067
  0.4373360292391517  0.9576848208022117  0.5652219026357681
  0.8098601672901352  0.3737962485545850  0.7878565835398117
  0.6850935603688502  0.2914929837296791  0.2558564413372768
  0.1871086891904203  0.4573365410957723  0.5650497740509361
  0.0592428601315501  0.8656503655924832  0.1669732537082500
  0.1838372286710281  0.2880074549608476  0.6109859814680361
  0.0618279407275204  0.2072450380127229  0.5650143895185679
  0.3118420433791119  0.2063933318616565  0.7004541751571111
  0.5629916359780610  0.5415086541808262  0.8758442591841034
  0.0618499861214875  0.7069227931243059  0.5652188101981062
  0.6859014673561140  0.6237819773429957  0.7879993811528478
  0.3162375038184370  0.5374414478336902  0.3889330069337828
  0.1859528797727645  0.6216873293130325  0.5214155413269047
  0.5638175940922410  0.8714035207670650  0.4341210074496243
  0.4370183296207368  0.4565994439028521  0.5650712246843471
  0.4421445556918701  0.2905417397496320  0.7441629824045928
  0.8202040332761036  0.8753008320489076  0.3006182735650540
  0.8110828235095775  0.7030621398338917  0.3451006741972411
  0.4417141194036109  0.4624932304520551  0.8332189059109250
  0.6887060573065020  0.9558639742407461  0.4790978374723332
  0.6849777860556009  0.4581883680347173  0.7007292133476338
  0.5633457056162060  0.8728586130463829  0.5211949084838796
  0.5660539394961854  0.3737143290619720  0.6556444886759073
  0.8150772021091989  0.8750787165755152  0.6555391585345257
  0.8117118207589071  0.3701701930412996  0.4341779264946815
  0.8104046336985311  0.5375321362926889  0.2560740448037354
  0.6909886838055220  0.4630500523084829  0.8326394722365247
  0.1894392888989709  0.7884649869516578  0.1243296880042360
  0.6909842582867488  0.2886254431532616  0.3887916876671375
  0.3167547259458862  0.3741174441226782  0.6553533995288200
  0.3085284074376092  0.2032102198037903  0.3452538306715600
  0.8134096233790250  0.5408376651299652  0.7448637847648109
  0.6915532028558997  0.9602234060717469  0.8325964723437174
  0.5659492144430132  0.8741679285085882  0.6556741336505655
  0.3109500791717674  0.7068563285750400  0.5652442841930708
  0.3135219882569270  0.5329980378078958  0.1241519523298354
  0.6873510918370523  0.9542882395601048  0.2111223802769562
  0.3117641265681453  0.2070277005495340  0.5650598445895867
  0.1862566005744831  0.9557934152301643  0.4788295064657392
  0.6881706324024157  0.9580479013717368  0.5651742919133987
  0.4338151477279643  0.7879804405398664  0.6110284546277874
  0.6811135703029335  0.6128709694708148  0.1661875287516358
  0.3185016291991746  0.8736445774225364  0.3002522637313499
  0.3111941898849744  0.7061287030225222  0.4788208080502976
  0.9335909505420514  0.2871696554736894  0.6108886101042740
  0.4452841865524031  0.6257216187866026  0.3005634674353590
  0.8068103510132497  0.8648028356489883  0.1666589486236952
  0.5642232294966775  0.2041388260738996  0.2113584407017322
  0.9342100044573787  0.6129705945959890  0.1666230335095083
  0.4370936547014312  0.9553736525182008  0.4789443445312093
  0.5636562044711212  0.3740040804291836  0.7880216770703545
  0.0610596235422364  0.3714998128502370  0.5212071227542783
  0.3073553783003463  0.3639146896991004  0.1665646046250341
  0.6961379133988953  0.1231742752455579  0.3004915659413535
  0.4417838728274147  0.9602734927247296  0.8330165307829236
  0.1849564146748998  0.2875646162926069  0.1243695775193974
  0.1830700568925571  0.2905632417883575  0.2554086914685373
  0.8058612187494510  0.3666761422268367  0.1656734103728833
  0.5592315934245387  0.0320096757750779  0.1239444172587755
  0.4339442962350717  0.2880215573850274  0.6109432818423669
  0.1821579595255527  0.4534464967064497  0.3454904245568940
  0.4347827685466104  0.2844739517591320  0.1239497167559053
  0.6849391223170797  0.7878790355553560  0.2559807823825238
  0.4372398941400930  0.1228683214411449  0.5211267840030769
  0.1877318601783727  0.2906062609929476  0.8761884446734539
  0.1906797355112711  0.1236584991276164  0.6556015742901651
  0.9403554746439646  0.1252883931258450  0.6553847458573669
  0.8165430742093607  0.5384867312002186  0.3886522158865072
  0.0654329594752301  0.0376352022890985  0.3889758963377631
  0.1853495704465447  0.1110424310152137  0.1665389820542314
  0.0594705575206756  0.5388865149452836  0.6108681180849853
  0.9357001650600538  0.2900735572055480  0.2559428019202285
  0.5586940552583697  0.5389657530623694  0.6109935989895962
  0.9364621450073191  0.9572493913917878  0.5650560151028856
  0.6938933953551213  0.6250672458313691  0.3006026238253752
  0.9374320883802209  0.6222475326432038  0.4342939785988091
  0.9319380073604320  0.6247328991083024  0.7881465415507501
  0.5608362342676115  0.7082036376301855  0.7008056739506707
  0.0626933119365852  0.7170152843540049  0.8335706611203544
  0.9438818180237639  0.1228273452290018  0.3003663495966396
  0.9337348887093212  0.7877805707399668  0.6108739157432329
  0.4327416947011570  0.7876112697902612  0.2556323610098867
  0.3123622541401537  0.3733215206956108  0.7880509890149147
  0.4385628408169826  0.4586887584465416  0.2112802930066542
  0.1859993324797966  0.1219058407345352  0.5212208755303233
  0.8091291232030652  0.7073966429641667  0.7007361921629865
  0.0586392909634906  0.0379506328125617  0.6109213422113505
  0.5663821558395887  0.2113874168872008  0.8329019683024691
  0.3110321146398419  0.8721839745865139  0.5212759777400167
  0.6863992790995714  0.2882109416954721  0.1238211361466495
  0.1895756431969137  0.9539217849754581  0.2108446288510873
  0.6843495759568878  0.2874419287579890  0.6109049439722336
  0.3091206294425883  0.0371847493000535  0.6110149657844292
  0.9342358735364076  0.1216225620999101  0.7883406631048292
  0.4360602213267900  0.7942719379090387  0.8756590945094354
  0.8137414279073644  0.0403914808390897  0.7448571503230056
  0.9336829592312472  0.4586637744013946  0.7005925877696507
  0.1914831984174488  0.6253265841856223  0.6554951402133167
  0.3115528235884097  0.7097800164075517  0.7006262020592370
  0.9335490826213534  0.2881770553326625  0.1237304097142803
  0.4376894421066455  0.4547080344939178  0.4792807117220793
  0.0614111279635256  0.7059367133746984  0.4788147497194800
  0.9378940115735918  0.1183285637738504  0.4347182349869321
  0.4440786955937677  0.1238359282460188  0.3004330661906460
  0.1864805221160802  0.1181751909306873  0.4343081597121136
  0.5627272588243913  0.0409346544245609  0.8758816440955497
  0.1861802110087873  0.9568748889596023  0.5652265500934308
  0.6812242010292746  0.7890531881227112  0.1242817597372801
  0.5599696961485359  0.7021682000203121  0.3450559758415822
  0.3156768562771109  0.0368630020486906  0.3893235846260655
  0.6804596733397456  0.1137969299652736  0.1663823785907986
  0.8160466263742479  0.2064331453390423  0.2113506184609262
  0.0604033276913771  0.5383980523202316  0.2555629903286777
  0.5637749979290467  0.7055584288850070  0.4791642386830779
  0.4342177958019958  0.7893174761911641  0.1242229472887198
  0.5695634635947625  0.3757132148013415  0.3003457166835997
  0.4342145479411355  0.9510002001987560  0.3451622530917358
  0.1869411722129707  0.9569741822540681  0.7005685312749785
  0.4308690129870577  0.6175762880507074  0.1663744565035002
  0.9416407857470825  0.4564605305676065  0.2116771143035422
  0.0619637540278914  0.5305662815345176  0.1238532282471865
  0.8111106852713872  0.3714118069264318  0.5211871492743788
  0.9433676928692938  0.6248450241485141  0.3002312612637214
  0.3078196987714124  0.0378519831665078  0.2550414751746562
  0.6842403032050507  0.7885649643101095  0.6108954050858985
  0.1907872338449466  0.4610728095362522  0.8337226256587591
  0.4304675281477774  0.1113946207635583  0.1660135121010222
  0.3115470670424889  0.3713816837464375  0.5212717605389682
  0.4392968700054306  0.6237123633752391  0.7882297141382949
  0.0592683348589239  0.0382597102547273  0.2557081051512304
  0.5625426594527300  0.7076503194271795  0.5652437628861415
  0.9382617398873704  0.2894327527125802  0.7445279404814167
  0.6853138803211652  0.1214596038370213  0.7882453018100570
  0.1892323721898824  0.4564089928498077  0.2110660222361269
  0.9414857013102776  0.7873363696064164  0.3888132902981835
  0.6879563774545506  0.2953443217913510  0.8760083748176011
  0.5526273419620039  0.8645060619450168  0.1663182466919994
  0.4373507450827746  0.4591698138106484  0.7005887063164906
  0.9353575130281658  0.9508625612499579  0.3448533004882589
  0.6874423547783896  0.6217483717615140  0.5211062270588535
  0.0667822406065586  0.8745005365001157  0.6555450708920942
  0.0583190934488124  0.8721812569179060  0.7885030706090208
  0.0655836924757606  0.3737600157124766  0.6552536305715433
  0.6876282784928081  0.4558969550421796  0.4792470897134989
  0.1838717911274818  0.7896107747369902  0.2552100744444532
  0.4368274350758077  0.1184220214048726  0.4342724482332419
  0.8122544408704624  0.0330298479057523  0.1237966852195812
  0.9359067263643818  0.6223109004049441  0.5212081957336491
  0.4414885962188322  0.1246108508615624  0.6556125918581442
  0.8124112080472019  0.5288972660746852  0.1238633555241074
  0.4348423965444859  0.4545279943749237  0.3452899784911749
  0.8104407593295432  0.2035324800503566  0.3449265200567574
  0.3099128879932680  0.7023312109318699  0.3449570459661206
  0.6915018665876789  0.1241291209231777  0.6556849122681956
  0.5694741631031455  0.8736132126715093  0.3007920335959141
  0.0636068559095850  0.5409913454460599  0.7445131841725149
  0.9439140306519799  0.9542593134725926  0.2111142640117165
  0.8173899284147071  0.7045370819325830  0.2114670314884643
  0.0671403408455695  0.8745687908669912  0.3005023479677187
  0.1919846318879181  0.1233569741976232  0.3003181027295496
  0.0565989707655341  0.7024073125757009  0.3449342602040351
  0.8091035813317202  0.0382141141138190  0.6109159513029437
  0.0624288456250741  0.3702586449614058  0.4342841979102743
  0.5614898821050002  0.2033674847744792  0.3452372810946880
  0.8204494302905565  0.3751202003494314  0.3003808487284996
  0.5592001405138747  0.0397009910174853  0.2555200382870927
  0.5669846448515085  0.5380641534002207  0.3887283296260937
  0.0618468508364082  0.2042793713539921  0.4788887034544365
  0.3123656821810522  0.8712061103374413  0.7879128841757836
  0.9349923315076174  0.9579183142027700  0.7004982376803019
  0.0662294041693321  0.3751686692585418  0.3003206193938104
  0.6906369947915585  0.6244331281152270  0.6556818650040392
  0.6873013371967545  0.4562394247341965  0.5649007706283286
  0.4369102522865276  0.9547814783408176  0.2108863499408931
  0.3114535452992269  0.2050821511408248  0.4791130704497548
  0.8156645685153454  0.5427653418747873  0.8758302298577963
  0.6890667236556097  0.6214714540308426  0.4342823795375685
  0.8090770639959152  0.2078634832808106  0.7005440159637615
  0.8127662130404945  0.7063798723356015  0.4789035596747173
  0.8123481670184257  0.8703574108038994  0.4342454321851418
  0.9368436705899774  0.9551229902786661  0.4790689596339305
  0.5633474979697474  0.2048653843982768  0.4791638919899772
  0.1862510119336679  0.6211958795277697  0.4342287869170308
  0.3154379083088228  0.0392211265872289  0.7438969419167462
  0.9411794277578992  0.6250718939630441  0.6555689074831367
  0.5665790986678471  0.7122740030794558  0.8324234267832373
  0.3191508481854611  0.3746394835495580  0.3002048321144751
  0.3166421797334577  0.5424452188004730  0.7443325805940457
  0.1868026647087745  0.4555209877842488  0.4790992130016645
  0.3118180294104348  0.0411298876690345  0.8753606811840052
  0.1856407722527536  0.4594975606741994  0.7004518993769768
  0.5622836780969318  0.3707228622896810  0.5213347684805171
  0.1899978953584130  0.2875460609768353  0.3889033706604565
  0.3148704890720176  0.2049140572595392  0.2112462939098436
  0.0685421246332040  0.7059339594831471  0.2111867254727926
  0.5634839851100097  0.3696817682954452  0.4342377384990698
  0.4367939812010446  0.6210605529912894  0.5212106778639984
  0.8173958763211694  0.7141780225508839  0.8327607221172536
  0.0584526103576521  0.3735379149402254  0.7880967348150358
  0.4355504986203680  0.2946820096253270  0.8761020802979841
  0.3142814978492575  0.0304236572207475  0.1239091977303106
  0.6880903858921554  0.1187065426493794  0.4344269231814441
  0.1813753764262087  0.9526408238332524  0.3449516011966164
  0.0664530267950292  0.2084697544262311  0.8340078809975834
  0.5594320989993762  0.0376570535830068  0.6109139767711843
  0.6881621824248260  0.4571895588735523  0.2116473139374868
  0.1901492339456680  0.7910402440965916  0.7441972480831159
  0.1921331795066484  0.6256646882280457  0.3003925529531178
  0.4425836373649257  0.7873021305283030  0.3889699328127280
  0.4340054005259235  0.2918052504490707  0.2554850429088684
  0.0644950052120875  0.5411207471839665  0.8757221552548927
  0.5662915220687198  0.0397631136992569  0.7444451393193402
  0.1856796295549665  0.7955255661547405  0.8758396498935389
  0.9366756767252390  0.4558877678818635  0.4793090374872603
  0.5661399268718575  0.5418197965855304  0.7446621080607423
  0.8111190816735893  0.2064740587168499  0.5649184675545446
  0.1843037053900202  0.6239500136650703  0.7880265532079757
  0.0653162302025240  0.5390635572266074  0.3887884540858705
  0.0612844506333081  0.7088597057369614  0.7006117810726256
  0.3089013516149023  0.5377155912228632  0.2547850496874245
  0.3138417119468196  0.7053494123102162  0.2111898025332098
  0.3064209793273546  0.8662057932984640  0.1659052192914318
  0.4361930112127040  0.6219684896170424  0.4340791540738352
  0.8182350069459301  0.0376259004763803  0.3891257017355131
  0.9383724985708521  0.2931946142444181  0.8751402159133596
  0.9402812032810415  0.7948661674945956  0.8750928359988067
  0.0648512820765453  0.0380394601581540  0.8751685830118591
  0.5611639503398820  0.5302332268089627  0.1243222415455922
  0.3106241963352698  0.3702433120828447  0.4342853498018531
  0.0610255474692778  0.8717727169686753  0.4343092898884792
  0.9356524044956074  0.1217543858069221  0.5212174478158931
  0.1896120926349471  0.7875599646162534  0.3892046887611725
  0.5623106349306992  0.7044091793897602  0.2107355893441420
 
  0.00000000E+00  0.00000000E+00  0.00000000E+00
  0.00000000E+00  0.00000000E+00  0.00000000E+00
  0.00000000E+00  0.00000000E+00  0.00000000E+00
  0.00000000E+00  0.00000000E+00  0.00000000E+00
  0.00000000E+00  0.00000000E+00  0.00000000E+00
  0.00000000E+00  0.00000000E+00  0.00000000E+00
  0.00000000E+00  0.00000000E+00  0.00000000E+00
  0.00000000E+00  0.00000000E+00  0.00000000E+00
  0.00000000E+00  0.00000000E+00  0.00000000E+00
  0.00000000E+00  0.00000000E+00  0.00000000E+00
  0.00000000E+00  0.00000000E+00  0.00000000E+00
  0.00000000E+00  0.00000000E+00  0.00000000E+00
  0.00000000E+00  0.00000000E+00  0.00000000E+00
  0.00000000E+00  0.00000000E+00  0.00000000E+00
  0.00000000E+00  0.00000000E+00  0.00000000E+00
  0.00000000E+00  0.00000000E+00  0.00000000E+00
  0.00000000E+00  0.00000000E+00  0.00000000E+00
  0.00000000E+00  0.00000000E+00  0.00000000E+00
  0.00000000E+00  0.00000000E+00  0.00000000E+00
  0.00000000E+00  0.00000000E+00  0.00000000E+00
  0.00000000E+00  0.00000000E+00  0.00000000E+00
  0.00000000E+00  0.00000000E+00  0.00000000E+00
  0.00000000E+00  0.00000000E+00  0.00000000E+00
  0.00000000E+00  0.00000000E+00  0.00000000E+00
  0.00000000E+00  0.00000000E+00  0.00000000E+00
  0.00000000E+00  0.00000000E+00  0.00000000E+00
  0.00000000E+00  0.00000000E+00  0.00000000E+00
  0.00000000E+00  0.00000000E+00  0.00000000E+00
  0.00000000E+00  0.00000000E+00  0.00000000E+00
  0.00000000E+00  0.00000000E+00  0.00000000E+00
  0.00000000E+00  0.00000000E+00  0.00000000E+00
  0.00000000E+00  0.00000000E+00  0.00000000E+00
  0.00000000E+00  0.00000000E+00  0.00000000E+00
  0.00000000E+00  0.00000000E+00  0.00000000E+00
  0.00000000E+00  0.00000000E+00  0.00000000E+00
  0.00000000E+00  0.00000000E+00  0.00000000E+00
  0.00000000E+00  0.00000000E+00  0.00000000E+00
  0.00000000E+00  0.00000000E+00  0.00000000E+00
  0.00000000E+00  0.00000000E+00  0.00000000E+00
  0.00000000E+00  0.00000000E+00  0.00000000E+00
  0.00000000E+00  0.00000000E+00  0.00000000E+00
  0.00000000E+00  0.00000000E+00  0.00000000E+00
  0.00000000E+00  0.00000000E+00  0.00000000E+00
  0.00000000E+00  0.00000000E+00  0.00000000E+00
  0.00000000E+00  0.00000000E+00  0.00000000E+00
  0.00000000E+00  0.00000000E+00  0.00000000E+00
  0.00000000E+00  0.00000000E+00  0.00000000E+00
  0.00000000E+00  0.00000000E+00  0.00000000E+00
  0.00000000E+00  0.00000000E+00  0.00000000E+00
  0.00000000E+00  0.00000000E+00  0.00000000E+00
  0.00000000E+00  0.00000000E+00  0.00000000E+00
  0.00000000E+00  0.00000000E+00  0.00000000E+00
  0.00000000E+00  0.00000000E+00  0.00000000E+00
  0.00000000E+00  0.00000000E+00  0.00000000E+00
  0.00000000E+00  0.00000000E+00  0.00000000E+00
  0.00000000E+00  0.00000000E+00  0.00000000E+00
  0.00000000E+00  0.00000000E+00  0.00000000E+00
  0.00000000E+00  0.00000000E+00  0.00000000E+00
  0.00000000E+00  0.00000000E+00  0.00000000E+00
  0.00000000E+00  0.00000000E+00  0.00000000E+00
  0.00000000E+00  0.00000000E+00  0.00000000E+00
  0.00000000E+00  0.00000000E+00  0.00000000E+00
  0.00000000E+00  0.00000000E+00  0.00000000E+00
  0.00000000E+00  0.00000000E+00  0.00000000E+00
  0.00000000E+00  0.00000000E+00  0.00000000E+00
  0.00000000E+00  0.00000000E+00  0.00000000E+00
  0.00000000E+00  0.00000000E+00  0.00000000E+00
  0.00000000E+00  0.00000000E+00  0.00000000E+00
  0.00000000E+00  0.00000000E+00  0.00000000E+00
  0.00000000E+00  0.00000000E+00  0.00000000E+00
  0.00000000E+00  0.00000000E+00  0.00000000E+00
  0.00000000E+00  0.00000000E+00  0.00000000E+00
  0.00000000E+00  0.00000000E+00  0.00000000E+00
  0.00000000E+00  0.00000000E+00  0.00000000E+00
  0.00000000E+00  0.00000000E+00  0.00000000E+00
  0.00000000E+00  0.00000000E+00  0.00000000E+00
  0.00000000E+00  0.00000000E+00  0.00000000E+00
  0.00000000E+00  0.00000000E+00  0.00000000E+00
  0.00000000E+00  0.00000000E+00  0.00000000E+00
  0.00000000E+00  0.00000000E+00  0.00000000E+00
  0.00000000E+00  0.00000000E+00  0.00000000E+00
  0.00000000E+00  0.00000000E+00  0.00000000E+00
  0.00000000E+00  0.00000000E+00  0.00000000E+00
  0.00000000E+00  0.00000000E+00  0.00000000E+00
  0.00000000E+00  0.00000000E+00  0.00000000E+00
  0.00000000E+00  0.00000000E+00  0.00000000E+00
  0.00000000E+00  0.00000000E+00  0.00000000E+00
  0.00000000E+00  0.00000000E+00  0.00000000E+00
  0.00000000E+00  0.00000000E+00  0.00000000E+00
  0.00000000E+00  0.00000000E+00  0.00000000E+00
  0.00000000E+00  0.00000000E+00  0.00000000E+00
  0.00000000E+00  0.00000000E+00  0.00000000E+00
  0.00000000E+00  0.00000000E+00  0.00000000E+00
  0.00000000E+00  0.00000000E+00  0.00000000E+00
  0.00000000E+00  0.00000000E+00  0.00000000E+00
  0.00000000E+00  0.00000000E+00  0.00000000E+00
  0.00000000E+00  0.00000000E+00  0.00000000E+00
  0.00000000E+00  0.00000000E+00  0.00000000E+00
  0.00000000E+00  0.00000000E+00  0.00000000E+00
  0.00000000E+00  0.00000000E+00  0.00000000E+00
  0.00000000E+00  0.00000000E+00  0.00000000E+00
  0.00000000E+00  0.00000000E+00  0.00000000E+00
  0.00000000E+00  0.00000000E+00  0.00000000E+00
  0.00000000E+00  0.00000000E+00  0.00000000E+00
  0.00000000E+00  0.00000000E+00  0.00000000E+00
  0.00000000E+00  0.00000000E+00  0.00000000E+00
  0.00000000E+00  0.00000000E+00  0.00000000E+00
  0.00000000E+00  0.00000000E+00  0.00000000E+00
  0.00000000E+00  0.00000000E+00  0.00000000E+00
  0.00000000E+00  0.00000000E+00  0.00000000E+00
  0.00000000E+00  0.00000000E+00  0.00000000E+00
  0.00000000E+00  0.00000000E+00  0.00000000E+00
  0.00000000E+00  0.00000000E+00  0.00000000E+00
  0.00000000E+00  0.00000000E+00  0.00000000E+00
  0.00000000E+00  0.00000000E+00  0.00000000E+00
  0.00000000E+00  0.00000000E+00  0.00000000E+00
  0.00000000E+00  0.00000000E+00  0.00000000E+00
  0.00000000E+00  0.00000000E+00  0.00000000E+00
  0.00000000E+00  0.00000000E+00  0.00000000E+00
  0.00000000E+00  0.00000000E+00  0.00000000E+00
  0.00000000E+00  0.00000000E+00  0.00000000E+00
  0.00000000E+00  0.00000000E+00  0.00000000E+00
  0.00000000E+00  0.00000000E+00  0.00000000E+00
  0.00000000E+00  0.00000000E+00  0.00000000E+00
  0.00000000E+00  0.00000000E+00  0.00000000E+00
  0.00000000E+00  0.00000000E+00  0.00000000E+00
  0.00000000E+00  0.00000000E+00  0.00000000E+00
  0.00000000E+00  0.00000000E+00  0.00000000E+00
  0.00000000E+00  0.00000000E+00  0.00000000E+00
  0.00000000E+00  0.00000000E+00  0.00000000E+00
  0.00000000E+00  0.00000000E+00  0.00000000E+00
  0.00000000E+00  0.00000000E+00  0.00000000E+00
  0.00000000E+00  0.00000000E+00  0.00000000E+00
  0.00000000E+00  0.00000000E+00  0.00000000E+00
  0.00000000E+00  0.00000000E+00  0.00000000E+00
  0.00000000E+00  0.00000000E+00  0.00000000E+00
  0.00000000E+00  0.00000000E+00  0.00000000E+00
  0.00000000E+00  0.00000000E+00  0.00000000E+00
  0.00000000E+00  0.00000000E+00  0.00000000E+00
  0.00000000E+00  0.00000000E+00  0.00000000E+00
  0.00000000E+00  0.00000000E+00  0.00000000E+00
  0.00000000E+00  0.00000000E+00  0.00000000E+00
  0.00000000E+00  0.00000000E+00  0.00000000E+00
  0.00000000E+00  0.00000000E+00  0.00000000E+00
  0.00000000E+00  0.00000000E+00  0.00000000E+00
  0.00000000E+00  0.00000000E+00  0.00000000E+00
  0.00000000E+00  0.00000000E+00  0.00000000E+00
  0.00000000E+00  0.00000000E+00  0.00000000E+00
  0.00000000E+00  0.00000000E+00  0.00000000E+00
  0.00000000E+00  0.00000000E+00  0.00000000E+00
  0.00000000E+00  0.00000000E+00  0.00000000E+00
  0.00000000E+00  0.00000000E+00  0.00000000E+00
  0.00000000E+00  0.00000000E+00  0.00000000E+00
  0.00000000E+00  0.00000000E+00  0.00000000E+00
  0.00000000E+00  0.00000000E+00  0.00000000E+00
  0.00000000E+00  0.00000000E+00  0.00000000E+00
  0.00000000E+00  0.00000000E+00  0.00000000E+00
  0.00000000E+00  0.00000000E+00  0.00000000E+00
  0.00000000E+00  0.00000000E+00  0.00000000E+00
  0.00000000E+00  0.00000000E+00  0.00000000E+00
  0.00000000E+00  0.00000000E+00  0.00000000E+00
  0.00000000E+00  0.00000000E+00  0.00000000E+00
  0.00000000E+00  0.00000000E+00  0.00000000E+00
  0.00000000E+00  0.00000000E+00  0.00000000E+00
  0.00000000E+00  0.00000000E+00  0.00000000E+00
  0.00000000E+00  0.00000000E+00  0.00000000E+00
  0.00000000E+00  0.00000000E+00  0.00000000E+00
  0.00000000E+00  0.00000000E+00  0.00000000E+00
  0.00000000E+00  0.00000000E+00  0.00000000E+00
  0.00000000E+00  0.00000000E+00  0.00000000E+00
  0.00000000E+00  0.00000000E+00  0.00000000E+00
  0.00000000E+00  0.00000000E+00  0.00000000E+00
  0.00000000E+00  0.00000000E+00  0.00000000E+00
  0.00000000E+00  0.00000000E+00  0.00000000E+00
  0.00000000E+00  0.00000000E+00  0.00000000E+00
  0.00000000E+00  0.00000000E+00  0.00000000E+00
  0.00000000E+00  0.00000000E+00  0.00000000E+00
  0.00000000E+00  0.00000000E+00  0.00000000E+00
  0.00000000E+00  0.00000000E+00  0.00000000E+00
  0.00000000E+00  0.00000000E+00  0.00000000E+00
  0.00000000E+00  0.00000000E+00  0.00000000E+00
  0.00000000E+00  0.00000000E+00  0.00000000E+00
  0.00000000E+00  0.00000000E+00  0.00000000E+00
  0.00000000E+00  0.00000000E+00  0.00000000E+00
  0.00000000E+00  0.00000000E+00  0.00000000E+00
  0.00000000E+00  0.00000000E+00  0.00000000E+00
  0.00000000E+00  0.00000000E+00  0.00000000E+00
  0.00000000E+00  0.00000000E+00  0.00000000E+00
  0.00000000E+00  0.00000000E+00  0.00000000E+00
  0.00000000E+00  0.00000000E+00  0.00000000E+00
  0.00000000E+00  0.00000000E+00  0.00000000E+00
  0.00000000E+00  0.00000000E+00  0.00000000E+00
  0.00000000E+00  0.00000000E+00  0.00000000E+00
  0.00000000E+00  0.00000000E+00  0.00000000E+00
  0.00000000E+00  0.00000000E+00  0.00000000E+00
  0.00000000E+00  0.00000000E+00  0.00000000E+00
  0.00000000E+00  0.00000000E+00  0.00000000E+00
  0.00000000E+00  0.00000000E+00  0.00000000E+00
  0.00000000E+00  0.00000000E+00  0.00000000E+00
  0.00000000E+00  0.00000000E+00  0.00000000E+00
  0.00000000E+00  0.00000000E+00  0.00000000E+00
  0.00000000E+00  0.00000000E+00  0.00000000E+00
  0.00000000E+00  0.00000000E+00  0.00000000E+00
  0.00000000E+00  0.00000000E+00  0.00000000E+00
  0.00000000E+00  0.00000000E+00  0.00000000E+00
  0.00000000E+00  0.00000000E+00  0.00000000E+00
  0.00000000E+00  0.00000000E+00  0.00000000E+00
  0.00000000E+00  0.00000000E+00  0.00000000E+00
  0.00000000E+00  0.00000000E+00  0.00000000E+00
  0.00000000E+00  0.00000000E+00  0.00000000E+00
  0.00000000E+00  0.00000000E+00  0.00000000E+00
  0.00000000E+00  0.00000000E+00  0.00000000E+00
  0.00000000E+00  0.00000000E+00  0.00000000E+00
  0.00000000E+00  0.00000000E+00  0.00000000E+00
  0.00000000E+00  0.00000000E+00  0.00000000E+00
  0.00000000E+00  0.00000000E+00  0.00000000E+00
  0.00000000E+00  0.00000000E+00  0.00000000E+00
  0.00000000E+00  0.00000000E+00  0.00000000E+00
  0.00000000E+00  0.00000000E+00  0.00000000E+00
  0.00000000E+00  0.00000000E+00  0.00000000E+00
  0.00000000E+00  0.00000000E+00  0.00000000E+00
  0.00000000E+00  0.00000000E+00  0.00000000E+00
  0.00000000E+00  0.00000000E+00  0.00000000E+00
  0.00000000E+00  0.00000000E+00  0.00000000E+00
  0.00000000E+00  0.00000000E+00  0.00000000E+00
  0.00000000E+00  0.00000000E+00  0.00000000E+00
  0.00000000E+00  0.00000000E+00  0.00000000E+00
  0.00000000E+00  0.00000000E+00  0.00000000E+00
  0.00000000E+00  0.00000000E+00  0.00000000E+00
  0.00000000E+00  0.00000000E+00  0.00000000E+00
  0.00000000E+00  0.00000000E+00  0.00000000E+00
  0.00000000E+00  0.00000000E+00  0.00000000E+00
  0.00000000E+00  0.00000000E+00  0.00000000E+00
  0.00000000E+00  0.00000000E+00  0.00000000E+00
  0.00000000E+00  0.00000000E+00  0.00000000E+00
  0.00000000E+00  0.00000000E+00  0.00000000E+00
  0.00000000E+00  0.00000000E+00  0.00000000E+00
  0.00000000E+00  0.00000000E+00  0.00000000E+00
  0.00000000E+00  0.00000000E+00  0.00000000E+00
  0.00000000E+00  0.00000000E+00  0.00000000E+00
  0.00000000E+00  0.00000000E+00  0.00000000E+00
  0.00000000E+00  0.00000000E+00  0.00000000E+00
  0.00000000E+00  0.00000000E+00  0.00000000E+00
  0.00000000E+00  0.00000000E+00  0.00000000E+00
  0.00000000E+00  0.00000000E+00  0.00000000E+00
  0.00000000E+00  0.00000000E+00  0.00000000E+00
  0.00000000E+00  0.00000000E+00  0.00000000E+00