CuInSe2gb                               
   1.00000000000000     
     9.7266780392896699    0.0000000000000000    0.0000000000000000
     0.0000000000000000    8.4235502764570693    0.0000000000000000
     0.0000000000000000    0.0000000000000000   45.0000000000000000
   Fe   Mn
   281     7
Direct
  0.0581639354343826  0.7011249286514313  0.2110979762039191
  0.3160462736056954  0.7204200099386279  0.8757732964289017
  0.6880389411552847  0.9577445357588371  0.6114175980663235
  0.4381431214108420  0.4577434222320999  0.6114825656634217
  0.4366046752769004  0.2871801730127856  0.2554822295531046
  0.0609168165450762  0.3867017485993931  0.8341627100565432
  0.3112491417944058  0.8868599658224604  0.8342458931248101
  0.4420647089120164  0.6268672373828421  0.7003901899179312
  0.0636370698716669  0.2132852480186437  0.7445722727406668
  0.1826691084267673  0.4515124818927100  0.2112736550765304
  0.5638158889181034  0.2090158880767020  0.4778527554150083
  0.0640166509358273  0.8746181877476259  0.5668467921874153
  0.5656447532044990  0.2199016997197510  0.8757144545037829
  0.8100698557883631  0.5303932419003142  0.1245139633238013
  0.4332471883119014  0.9513197059003613  0.2111637490018857
  0.5642432724105032  0.3746318005049070  0.5667711527129449
  0.8117886539890753  0.0419358036591737  0.3884506406905153
  0.6860141792220020  0.7908292639413989  0.5221655139017516
  0.4387923385248316  0.4590645321439472  0.4778398060310384
  0.4378452521094959  0.9628647891486548  0.7444241445688335
  0.4389787977886386  0.6246687308746448  0.5668125717060328
  0.5672221480252716  0.8766409871344090  0.7003550344105078
  0.3105894970667680  0.0307163018787763  0.1241353195247126
  0.6867732354532176  0.9580590863106975  0.3440523472854057
  0.6877002555708310  0.7797032216244585  0.1247039006286280
  0.0577368265077627  0.3734041234300300  0.2995985914945124
  0.6888798182269071  0.4714731285809289  0.8755220486413583
  0.4331329245556672  0.4513970622411101  0.2111592714785279
  0.8108483249331306  0.3754377652520809  0.4330063441836005
  0.5631815615719952  0.7081334069362792  0.6115219000637715
  0.5627782810105134  0.5411907731021648  0.6558395919989833
  0.8145116964121811  0.8634252382328194  0.1660516123606496
  0.5613079398150679  0.5369536594671762  0.2555480829773847
  0.6867025658617140  0.4582205720384055  0.3440523353640791
  0.1884147900436854  0.6127247690787345  0.1661996526262461
  0.1919086243317386  0.7991378247853002  0.7887833635250044
  0.4424778361354933  0.1262699975945859  0.7003860506468891
  0.9324933512476830  0.6230228139492938  0.2996226371454266
  0.3153982122322848  0.2199434173374129  0.8757446392612036
  0.3141294536878071  0.8746136183522053  0.5667510772081196
  0.8154103420876957  0.2199063126856925  0.8757382148000442
  0.8130680633096634  0.5416297220241423  0.6558300101758447
  0.5600185554717296  0.5294220048174623  0.1244583345595639
  0.5669176863745916  0.0496551900582665  0.7889744943070139
  0.1868253943723588  0.2873232500210500  0.2554834140464507
  0.8107779446545311  0.8755129904867230  0.4330003166343451
  0.5672866641050842  0.3766511248263461  0.7004574585656026
  0.0610456964187928  0.0293342669848436  0.1244944346660841
  0.3128022512030146  0.5413779709373524  0.6557393200848903
  0.5617867957304319  0.2080705187325172  0.3441572125354022
  0.1885637730189564  0.9582850394738225  0.6114743847549656
  0.3076431298631282  0.3736236695263684  0.2996448647424004
  0.4377725180725708  0.7917726356077750  0.6558395239410578
  0.1918077569694772  0.2986029422430768  0.7889207592897214
  0.0637491113532877  0.3637575051877637  0.1660056063033738
  0.6920328925129803  0.6267233422391190  0.7003667186024050
  0.3115780993778275  0.5418491328388155  0.3884555284385670
  0.0653863086322312  0.7199324183007110  0.8759298338397969
  0.9362527756394575  0.6368006781315653  0.8343078168178669
  0.3175358210924672  0.5498809657144033  0.7890137345741400
  0.3075549353823805  0.2003467854237478  0.2110926280588674
  0.0638724849481540  0.7089669535266541  0.4778973084107620
  0.5574262254449142  0.2008767525317866  0.2110880603651244
  0.3136256670902270  0.2134297804973040  0.7444586750366325
  0.8114836456398962  0.5366651548236339  0.2555646727801146
  0.1861247122119224  0.6366460887498315  0.8340725750676358
  0.0668534783419094  0.0490887803397629  0.7890200611838124
  0.4390707209217372  0.1247010627750268  0.5668416552750147
  0.9378415155980521  0.2916961688112460  0.6556574117067054
  0.8076118295221782  0.2008949223426577  0.2110766692217961
  0.9326993380013739  0.9514501510908597  0.2113093812695482
  0.9389850917069310  0.6249432588775561  0.5667381877023487
  0.8108306861950152  0.3866675590343174  0.8342161762155642
  0.1921794777704394  0.6271840778881131  0.7003329974499044
  0.8110059070618518  0.8866299787214676  0.8342943442406391
  0.6878359239686214  0.2913345088106571  0.6558091043664248
  0.3137864119293445  0.2079555971429372  0.6114214637161746
  0.4382091478019863  0.4628462830898100  0.7444902664686469
  0.4364791232443896  0.7915282965475450  0.3884721961968056
  0.6877908321047559  0.9629030566506490  0.7445219055123383
  0.8074628988147248  0.7011072692100482  0.2110963832005140
  0.8131189418792837  0.7079050977905456  0.6114432662617456
  0.4371050234434003  0.7794686882675284  0.1242870209183884
  0.3132197998324143  0.7129350949283658  0.7444409514193069
  0.3171006603932624  0.0496499633668610  0.7890158840371625
  0.8118055781946032  0.5419353567152639  0.3884511198638473
  0.6860997278225623  0.2909367294984168  0.5221611353405974
  0.6919653877019840  0.7994580423619960  0.7889181529980707
  0.1869607307940419  0.7873495995244580  0.2555206066244766
  0.6889301846504359  0.1133551995038548  0.1661320951023448
  0.6887281822741853  0.9591424496797999  0.4778825805212956
  0.9369121923380441  0.9585896759532531  0.3440885788042807
  0.8111367332602977  0.0403843783974272  0.5221360035154760
  0.6849526788839546  0.6250537473853581  0.4330350175834498
  0.4369714468036500  0.4585315845722014  0.3441733907760391
  0.8134345793695776  0.2131641297346161  0.7444699730904604
  0.4392048432428676  0.9714812361099021  0.8755271767105067
  0.5641936078321104  0.8745760242437628  0.5667488186424509
  0.8103490214601400  0.0303014165472273  0.1244782502292750
  0.4326263330824235  0.6233253699978865  0.2996512719596339
  0.8151371633849755  0.7205924643409028  0.8758743584717565
  0.6881226526082842  0.4577497887326242  0.6114253811760363
  0.5610271098339096  0.3868044762434782  0.8340715142216463
  0.8076862181608706  0.3735272470674272  0.2995789740082401
  0.1863844768525239  0.2917653944031570  0.3884493172302467
  0.8164604635449297  0.5499864408307560  0.7891451890561928
  0.1862190964385899  0.7905608419065744  0.5222135099151786
  0.3076865101163191  0.8735697502514800  0.2996322733174266
  0.1826345206007854  0.9515202061514604  0.2112694766335541
  0.1890224971107106  0.4629706325443984  0.7445098906553717
  0.4360629556120651  0.2906542574697676  0.5220749974595454
  0.0619347764970408  0.7084396238656263  0.3441653697824417
  0.1881432004014672  0.7914065224126196  0.6556963253894091
  0.4417256183799200  0.7993197222843186  0.7888161097973118
  0.6849692795471134  0.1250883932212359  0.4330438075986623
  0.9360847639205634  0.7904558587096496  0.5222127120434622
  0.6888223773252284  0.6132428204598509  0.1661270499903011
  0.8119570467095528  0.7084830814860084  0.3442011570204510
  0.9381630269492298  0.4630597365051917  0.7445337727006526
  0.1869137819335532  0.4582813007034004  0.3441305161118506
  0.5672134885397904  0.5495030803299573  0.7889416727315370
  0.5655232231151124  0.3639622335790842  0.1658103542807717
  0.5618611316947734  0.7079721289558665  0.3441690974394613
  0.5578591112937991  0.3734565847728705  0.2996172625586269
  0.1888361548822883  0.4712624359814217  0.8756490071928817
  0.1886740032988824  0.1128419244305575  0.1661303718928978
  0.4417130887209560  0.2991215911326156  0.7888087520029693
  0.6866513572410267  0.7872681544105504  0.2554560110500643
  0.9368359582501206  0.1367706436983099  0.8341754001924613
  0.4387687223283505  0.9590357699588828  0.4777917310008830
  0.5655938288631187  0.7204204097901292  0.8757614955847988
  0.1886886520613649  0.4590533733516906  0.4778289611089561
  0.9362342150962719  0.2794863683780665  0.1246497020395036
  0.3115334985477420  0.0415241634160225  0.3884467412688337
  0.0627547479694858  0.0412385507250890  0.6557761342786593
  0.5610297360340130  0.3752135236610389  0.4330070232088432
  0.6872785384987194  0.4626354172714766  0.7445279303926341
  0.5634369318478086  0.2137275016097189  0.7443908762045641
  0.9417240906269009  0.1270002663428477  0.7003200232855582
  0.5628198043936988  0.0413329747011418  0.6557939822935137
  0.5609901904434506  0.5407099738795768  0.5220812948728911
  0.1826971016304091  0.1232328895259026  0.2995919950343793
  0.4387104786366469  0.1123424222059937  0.1660140738469416
  0.6824042927228240  0.6232053691453453  0.2996068088263890
  0.9325543942845144  0.1231388361364364  0.2996270355633182
  0.8141587036650463  0.3746778892869707  0.5668384732893531
  0.0578133423567982  0.8733481766619371  0.2996105297330461
  0.1890106135937508  0.6247659019527240  0.5668546109089014
  0.9411077814680057  0.7989122086676852  0.7889016974180503
  0.3113376317166983  0.3865983149739036  0.8341719182573837
  0.9392654029393941  0.4714388881840180  0.8756295249002278
  0.4365493665928554  0.6369037489862124  0.8340608346342088
  0.0619248319741508  0.2085073989277862  0.3441541052107881
  0.1888076334498633  0.9711694712947277  0.8755166942897357
  0.9363271797597952  0.7792966083754277  0.1246248665562696
  0.6863767930070785  0.7918300155801672  0.3884041685326406
  0.9379983136544989  0.7917042119278924  0.6557980784627485
  0.9385394712459453  0.1134931152056493  0.1661649691411210
  0.4377738610565712  0.2912897445124236  0.6558008886650314
  0.0582611582390823  0.2008711356181689  0.2111195666148704
  0.6828795449565496  0.9513156550485783  0.2112154289897148
  0.1826446706958794  0.6232762022592713  0.2995988822296706
  0.8167750480719621  0.8767909587673159  0.7003438802917434
  0.9418837354463603  0.6268772874053852  0.7004619813976937
  0.1921586243517821  0.1268217047726050  0.7004355368409249
  0.9390321770960545  0.4590358209278044  0.4778365349452254
  0.8132094785065881  0.2080156496487164  0.6113991788020251
  0.1868121139664629  0.6251568079921482  0.4330051519552318
  0.4326166838174554  0.1231722174619072  0.2996619354990685
  0.6823186476025450  0.1231627187732523  0.2995970324461594
  0.5611933514463586  0.5416915121173826  0.3884377779536011
  0.8119950214929030  0.2084892595035845  0.3442083744786357
  0.4391405272794390  0.4715181349207297  0.8755004122390921
  0.5613479006751328  0.8867206052924869  0.8342429735495087
  0.3140708678757834  0.2092474330301181  0.4778243430710669
  0.1887554719536975  0.9589920766827882  0.4777848790350224
  0.0608398997915930  0.8870696507703254  0.8342344533817018
  0.0610892176782529  0.5404373962727429  0.5220481550029884
  0.9390997009899494  0.9588552999991634  0.4778032731694418
  0.0632759142143413  0.7080919999709355  0.6113769262223517
  0.5609349789604138  0.0408176943967046  0.5220743947547650
  0.6917923828364360  0.2989074764951220  0.7887540775033062
  0.8143926958153999  0.3634256815528605  0.1660196106888192
  0.4357478809435577  0.1251425509520442  0.4330254423514081
  0.0640648464572177  0.2088875552217938  0.4778879413388346
  0.3131928230444087  0.0413349046001320  0.6557157417518142
  0.4360948796564595  0.7906655653024732  0.5220876360603706
  0.1866552015740486  0.1369781041320316  0.8341835306171279
  0.1860056837370007  0.2786770284651578  0.1244265881528307
  0.9369563786577607  0.4586295410187130  0.3440690157662216
  0.5656064707096078  0.8642366814567273  0.1657862004248401
  0.3075519244268659  0.7001895947843311  0.2111067765273242
  0.9382431210754639  0.6131984387307031  0.1661905669002259
  0.1883070209691942  0.4581183731741184  0.6114589510993022
  0.0671880293651954  0.8769009062367116  0.7003001515922261
  0.0628822001642119  0.5416689030786900  0.6558250817389970
  0.3103958466476760  0.5306514717524300  0.1240742371820499
  0.9363461647683831  0.7919742022266304  0.3884486300791686
  0.9416691932672170  0.2987479128221986  0.7888680492385254
  0.1878410251015800  0.2915733060869740  0.6558108168509602
  0.9384047737369073  0.9581464637866132  0.6115408320285940
  0.8134613083115113  0.7129852435768732  0.7446269411484264
  0.6867610066268105  0.2872508323664760  0.2554519122164070
  0.0637089710432576  0.7128226334844839  0.7444457923333933
  0.6828321699253538  0.4513890257438278  0.2112511652535106
  0.8138575477728713  0.2089172470713468  0.4778308069555545
  0.5638818097552214  0.7091836980360107  0.4778558692851601
  0.0637631665359181  0.8637423138893009  0.1660218721085660
  0.9360734640399387  0.2906127467311343  0.5222014721928214
  0.6875678875668816  0.7914959547039856  0.6558080408910427
  0.0612294932971732  0.8750144784812534  0.4329777227921615
  0.0656863702048065  0.2194375508053041  0.8758329430435431
  0.8129325700755007  0.0413207710774862  0.6557592641728777
  0.5601528274950951  0.0293959248178138  0.1244570459465673
  0.3106791843013074  0.3748993654300184  0.4330663182962065
  0.3140872903513153  0.3745960467328379  0.5667506176047266
  0.3138854982844893  0.7093724581379406  0.4778217668952987
  0.0610515634627729  0.0405381093746229  0.5220422269936450
  0.3175046668137623  0.8766298946354717  0.7004228821626283
  0.0615846208273337  0.5368963807195067  0.2555641939380990
  0.6865632438307518  0.1371459916399666  0.8340903047949036
  0.8116491527254925  0.0368272763806146  0.2555467379528429
  0.1868284212933934  0.1252357001586502  0.4330212827022080
  0.6922584836190256  0.1263783775354958  0.7003098293864656
  0.1862475203057412  0.2907378359407398  0.5221904573796146
  0.4365440919692377  0.7872576363250605  0.2555034775442417
  0.4384557149357448  0.6123231519606828  0.1660746137875769
  0.0630621628672381  0.2081112584475109  0.6114032404540946
  0.1864744095704278  0.7915396982106314  0.3884462005135920
  0.3112109933248509  0.5408737738602160  0.5220852973175869
  0.8166717240002964  0.3765624859471049  0.7003195204093837
  0.6864387900226669  0.2917312870911334  0.3884212494810888
  0.1892206608045019  0.1247515958107436  0.5667688558720457
  0.6889742501673408  0.9715078881923641  0.8755196981275268
  0.6891285091006537  0.1247935130845490  0.5668562276392590
  0.4369688303698220  0.9584510599927815  0.3441666754478850
  0.1882461461643096  0.9627861739333148  0.7444813011050488
  0.9364165313723972  0.7873372176199057  0.2555610579349114
  0.5611001069138454  0.8753127385946737  0.4330270082413421
  0.3106427698916708  0.8749051899135789  0.4330514208108107
  0.8110707638014610  0.5402070613533723  0.5220918207253815
  0.9327176494397420  0.4513955010340271  0.2112800756910038
  0.3114442473685432  0.5367868805991792  0.2555849811655004
  0.5612891131505512  0.0415658945934339  0.3884568165934721
  0.9382204873653098  0.4576540918211756  0.6114534290861067
  0.0614589815790860  0.0417691506262503  0.3884494271439589
  0.0615839088282472  0.5418783599057523  0.3884308163377467
  0.4366908156980189  0.2916872276894527  0.3884769566266996
  0.6888809032578267  0.4592640384650952  0.4779073529133127
  0.0640690668322006  0.3747880984584399  0.5668755294741455
  0.5574466112211810  0.7008647291966910  0.2111311602973485
  0.9365408476640872  0.2872305671771017  0.2555445742410899
  0.8165688345448214  0.0491931051377050  0.7888977900794849
  0.1869528213014069  0.9582131334668291  0.3441319255362916
  0.5576686660838632  0.8734051527423263  0.2996215641379834
  0.0612058793834714  0.3750247190149733  0.4329542167990973
  0.3118095970070238  0.7080735857434232  0.3441662953580881
  0.3117680886323563  0.2080387601846863  0.3441485906070803
  0.9389533676468851  0.1248643928339441  0.5667411234041519
  0.4381248304562039  0.9579160001886844  0.6114883051312069
  0.5612766035140365  0.0369355675127015  0.2555564057157185
  0.1862831825982079  0.7788747356396643  0.1244380293647453
  0.0615188995070427  0.0370207141547869  0.2555613550693258
  0.6891485976686894  0.6247699622924342  0.5668938665097534
  0.0606152408647948  0.5291456505634562  0.1244746988696288
  0.3111407715242844  0.0410427395219253  0.5220935258899304
  0.6875465550115449  0.2797000013463882  0.1246708977228487
  0.8138465807564499  0.7088378362282519  0.4778516275437350
  0.4366947251539382  0.1369408300289245  0.8339687753157339
  0.3178672181140559  0.3762421736869767  0.7003356261090131
  0.6869078706163578  0.6370500782825088  0.8340909963007455
  0.5632608369639374  0.7126343482428653  0.7445185291027577
  0.9362937299001904  0.2919601991564026  0.3884543133375821
  0.9392850696677481  0.9711450919904560  0.8755100396246229
  0.5633037754351325  0.2083456392886713  0.6114908544857324
  0.8141371662704106  0.8747206984787242  0.5668159854252619
  0.8076062820814633  0.8733437695602414  0.2995932799010381
  0.3114439080610701  0.0366626401438343  0.2556183406666038
  0.4368693064643265  0.2794671741409031  0.1242478458778642
  0.3130341739750370  0.7077952496865234  0.6114725573692451
  0.4356469054198335  0.6249709796229753  0.4330001973049140
  0.9357300050436225  0.6250611793950870  0.4330967595031192
  0.3150545979971424  0.8631507611628384  0.1655318240579848
  0.0670681455533717  0.5493577948876928  0.7888671591715295
  0.9356456905538709  0.1250993881616741  0.4330956766457827
  0.3150043705997845  0.3630571242672489  0.1655769473633205
  0.9376773392724795  0.9629847096134315  0.7446574673094115
  0.0676293051685146  0.3767941466715586  0.7003694732406786
 
  0.00000000E+00  0.00000000E+00  0.00000000E+00
  0.00000000E+00  0.00000000E+00  0.00000000E+00
  0.00000000E+00  0.00000000E+00  0.00000000E+00
  0.00000000E+00  0.00000000E+00  0.00000000E+00
  0.00000000E+00  0.00000000E+00  0.00000000E+00
  0.00000000E+00  0.00000000E+00  0.00000000E+00
  0.00000000E+00  0.00000000E+00  0.00000000E+00
  0.00000000E+00  0.00000000E+00  0.00000000E+00
  0.00000000E+00  0.00000000E+00  0.00000000E+00
  0.00000000E+00  0.00000000E+00  0.00000000E+00
  0.00000000E+00  0.00000000E+00  0.00000000E+00
  0.00000000E+00  0.00000000E+00  0.00000000E+00
  0.00000000E+00  0.00000000E+00  0.00000000E+00
  0.00000000E+00  0.00000000E+00  0.00000000E+00
  0.00000000E+00  0.00000000E+00  0.00000000E+00
  0.00000000E+00  0.00000000E+00  0.00000000E+00
  0.00000000E+00  0.00000000E+00  0.00000000E+00
  0.00000000E+00  0.00000000E+00  0.00000000E+00
  0.00000000E+00  0.00000000E+00  0.00000000E+00
  0.00000000E+00  0.00000000E+00  0.00000000E+00
  0.00000000E+00  0.00000000E+00  0.00000000E+00
  0.00000000E+00  0.00000000E+00  0.00000000E+00
  0.00000000E+00  0.00000000E+00  0.00000000E+00
  0.00000000E+00  0.00000000E+00  0.00000000E+00
  0.00000000E+00  0.00000000E+00  0.00000000E+00
  0.00000000E+00  0.00000000E+00  0.00000000E+00
  0.00000000E+00  0.00000000E+00  0.00000000E+00
  0.00000000E+00  0.00000000E+00  0.00000000E+00
  0.00000000E+00  0.00000000E+00  0.00000000E+00
  0.00000000E+00  0.00000000E+00  0.00000000E+00
  0.00000000E+00  0.00000000E+00  0.00000000E+00
  0.00000000E+00  0.00000000E+00  0.00000000E+00
  0.00000000E+00  0.00000000E+00  0.00000000E+00
  0.00000000E+00  0.00000000E+00  0.00000000E+00
  0.00000000E+00  0.00000000E+00  0.00000000E+00
  0.00000000E+00  0.00000000E+00  0.00000000E+00
  0.00000000E+00  0.00000000E+00  0.00000000E+00
  0.00000000E+00  0.00000000E+00  0.00000000E+00
  0.00000000E+00  0.00000000E+00  0.00000000E+00
  0.00000000E+00  0.00000000E+00  0.00000000E+00
  0.00000000E+00  0.00000000E+00  0.00000000E+00
  0.00000000E+00  0.00000000E+00  0.00000000E+00
  0.00000000E+00  0.00000000E+00  0.00000000E+00
  0.00000000E+00  0.00000000E+00  0.00000000E+00
  0.00000000E+00  0.00000000E+00  0.00000000E+00
  0.00000000E+00  0.00000000E+00  0.00000000E+00
  0.00000000E+00  0.00000000E+00  0.00000000E+00
  0.00000000E+00  0.00000000E+00  0.00000000E+00
  0.00000000E+00  0.00000000E+00  0.00000000E+00
  0.00000000E+00  0.00000000E+00  0.00000000E+00
  0.00000000E+00  0.00000000E+00  0.00000000E+00
  0.00000000E+00  0.00000000E+00  0.00000000E+00
  0.00000000E+00  0.00000000E+00  0.00000000E+00
  0.00000000E+00  0.00000000E+00  0.00000000E+00
  0.00000000E+00  0.00000000E+00  0.00000000E+00
  0.00000000E+00  0.00000000E+00  0.00000000E+00
  0.00000000E+00  0.00000000E+00  0.00000000E+00
  0.00000000E+00  0.00000000E+00  0.00000000E+00
  0.00000000E+00  0.00000000E+00  0.00000000E+00
  0.00000000E+00  0.00000000E+00  0.00000000E+00
  0.00000000E+00  0.00000000E+00  0.00000000E+00
  0.00000000E+00  0.00000000E+00  0.00000000E+00
  0.00000000E+00  0.00000000E+00  0.00000000E+00
  0.00000000E+00  0.00000000E+00  0.00000000E+00
  0.00000000E+00  0.00000000E+00  0.00000000E+00
  0.00000000E+00  0.00000000E+00  0.00000000E+00
  0.00000000E+00  0.00000000E+00  0.00000000E+00
  0.00000000E+00  0.00000000E+00  0.00000000E+00
  0.00000000E+00  0.00000000E+00  0.00000000E+00
  0.00000000E+00  0.00000000E+00  0.00000000E+00
  0.00000000E+00  0.00000000E+00  0.00000000E+00
  0.00000000E+00  0.00000000E+00  0.00000000E+00
  0.00000000E+00  0.00000000E+00  0.00000000E+00
  0.00000000E+00  0.00000000E+00  0.00000000E+00
  0.00000000E+00  0.00000000E+00  0.00000000E+00
  0.00000000E+00  0.00000000E+00  0.00000000E+00
  0.00000000E+00  0.00000000E+00  0.00000000E+00
  0.00000000E+00  0.00000000E+00  0.00000000E+00
  0.00000000E+00  0.00000000E+00  0.00000000E+00
  0.00000000E+00  0.00000000E+00  0.00000000E+00
  0.00000000E+00  0.00000000E+00  0.00000000E+00
  0.00000000E+00  0.00000000E+00  0.00000000E+00
  0.00000000E+00  0.00000000E+00  0.00000000E+00
  0.00000000E+00  0.00000000E+00  0.00000000E+00
  0.00000000E+00  0.00000000E+00  0.00000000E+00
  0.00000000E+00  0.00000000E+00  0.00000000E+00
  0.00000000E+00  0.00000000E+00  0.00000000E+00
  0.00000000E+00  0.00000000E+00  0.00000000E+00
  0.00000000E+00  0.00000000E+00  0.00000000E+00
  0.00000000E+00  0.00000000E+00  0.00000000E+00
  0.00000000E+00  0.00000000E+00  0.00000000E+00
  0.00000000E+00  0.00000000E+00  0.00000000E+00
  0.00000000E+00  0.00000000E+00  0.00000000E+00
  0.00000000E+00  0.00000000E+00  0.00000000E+00
  0.00000000E+00  0.00000000E+00  0.00000000E+00
  0.00000000E+00  0.00000000E+00  0.00000000E+00
  0.00000000E+00  0.00000000E+00  0.00000000E+00
  0.00000000E+00  0.00000000E+00  0.00000000E+00
  0.00000000E+00  0.00000000E+00  0.00000000E+00
  0.00000000E+00  0.00000000E+00  0.00000000E+00
  0.00000000E+00  0.00000000E+00  0.00000000E+00
  0.00000000E+00  0.00000000E+00  0.00000000E+00
  0.00000000E+00  0.00000000E+00  0.00000000E+00
  0.00000000E+00  0.00000000E+00  0.00000000E+00
  0.00000000E+00  0.00000000E+00  0.00000000E+00
  0.00000000E+00  0.00000000E+00  0.00000000E+00
  0.00000000E+00  0.00000000E+00  0.00000000E+00
  0.00000000E+00  0.00000000E+00  0.00000000E+00
  0.00000000E+00  0.00000000E+00  0.00000000E+00
  0.00000000E+00  0.00000000E+00  0.00000000E+00
  0.00000000E+00  0.00000000E+00  0.00000000E+00
  0.00000000E+00  0.00000000E+00  0.00000000E+00
  0.00000000E+00  0.00000000E+00  0.00000000E+00
  0.00000000E+00  0.00000000E+00  0.00000000E+00
  0.00000000E+00  0.00000000E+00  0.00000000E+00
  0.00000000E+00  0.00000000E+00  0.00000000E+00
  0.00000000E+00  0.00000000E+00  0.00000000E+00
  0.00000000E+00  0.00000000E+00  0.00000000E+00
  0.00000000E+00  0.00000000E+00  0.00000000E+00
  0.00000000E+00  0.00000000E+00  0.00000000E+00
  0.00000000E+00  0.00000000E+00  0.00000000E+00
  0.00000000E+00  0.00000000E+00  0.00000000E+00
  0.00000000E+00  0.00000000E+00  0.00000000E+00
  0.00000000E+00  0.00000000E+00  0.00000000E+00
  0.00000000E+00  0.00000000E+00  0.00000000E+00
  0.00000000E+00  0.00000000E+00  0.00000000E+00
  0.00000000E+00  0.00000000E+00  0.00000000E+00
  0.00000000E+00  0.00000000E+00  0.00000000E+00
  0.00000000E+00  0.00000000E+00  0.00000000E+00
  0.00000000E+00  0.00000000E+00  0.00000000E+00
  0.00000000E+00  0.00000000E+00  0.00000000E+00
  0.00000000E+00  0.00000000E+00  0.00000000E+00
  0.00000000E+00  0.00000000E+00  0.00000000E+00
  0.00000000E+00  0.00000000E+00  0.00000000E+00
  0.00000000E+00  0.00000000E+00  0.00000000E+00
  0.00000000E+00  0.00000000E+00  0.00000000E+00
  0.00000000E+00  0.00000000E+00  0.00000000E+00
  0.00000000E+00  0.00000000E+00  0.00000000E+00
  0.00000000E+00  0.00000000E+00  0.00000000E+00
  0.00000000E+00  0.00000000E+00  0.00000000E+00
  0.00000000E+00  0.00000000E+00  0.00000000E+00
  0.00000000E+00  0.00000000E+00  0.00000000E+00
  0.00000000E+00  0.00000000E+00  0.00000000E+00
  0.00000000E+00  0.00000000E+00  0.00000000E+00
  0.00000000E+00  0.00000000E+00  0.00000000E+00
  0.00000000E+00  0.00000000E+00  0.00000000E+00
  0.00000000E+00  0.00000000E+00  0.00000000E+00
  0.00000000E+00  0.00000000E+00  0.00000000E+00
  0.00000000E+00  0.00000000E+00  0.00000000E+00
  0.00000000E+00  0.00000000E+00  0.00000000E+00
  0.00000000E+00  0.00000000E+00  0.00000000E+00
  0.00000000E+00  0.00000000E+00  0.00000000E+00
  0.00000000E+00  0.00000000E+00  0.00000000E+00
  0.00000000E+00  0.00000000E+00  0.00000000E+00
  0.00000000E+00  0.00000000E+00  0.00000000E+00
  0.00000000E+00  0.00000000E+00  0.00000000E+00
  0.00000000E+00  0.00000000E+00  0.00000000E+00
  0.00000000E+00  0.00000000E+00  0.00000000E+00
  0.00000000E+00  0.00000000E+00  0.00000000E+00
  0.00000000E+00  0.00000000E+00  0.00000000E+00
  0.00000000E+00  0.00000000E+00  0.00000000E+00
  0.00000000E+00  0.00000000E+00  0.00000000E+00
  0.00000000E+00  0.00000000E+00  0.00000000E+00
  0.00000000E+00  0.00000000E+00  0.00000000E+00
  0.00000000E+00  0.00000000E+00  0.00000000E+00
  0.00000000E+00  0.00000000E+00  0.00000000E+00
  0.00000000E+00  0.00000000E+00  0.00000000E+00
  0.00000000E+00  0.00000000E+00  0.00000000E+00
  0.00000000E+00  0.00000000E+00  0.00000000E+00
  0.00000000E+00  0.00000000E+00  0.00000000E+00
  0.00000000E+00  0.00000000E+00  0.00000000E+00
  0.00000000E+00  0.00000000E+00  0.00000000E+00
  0.00000000E+00  0.00000000E+00  0.00000000E+00
  0.00000000E+00  0.00000000E+00  0.00000000E+00
  0.00000000E+00  0.00000000E+00  0.00000000E+00
  0.00000000E+00  0.00000000E+00  0.00000000E+00
  0.00000000E+00  0.00000000E+00  0.00000000E+00
  0.00000000E+00  0.00000000E+00  0.00000000E+00
  0.00000000E+00  0.00000000E+00  0.00000000E+00
  0.00000000E+00  0.00000000E+00  0.00000000E+00
  0.00000000E+00  0.00000000E+00  0.00000000E+00
  0.00000000E+00  0.00000000E+00  0.00000000E+00
  0.00000000E+00  0.00000000E+00  0.00000000E+00
  0.00000000E+00  0.00000000E+00  0.00000000E+00
  0.00000000E+00  0.00000000E+00  0.00000000E+00
  0.00000000E+00  0.00000000E+00  0.00000000E+00
  0.00000000E+00  0.00000000E+00  0.00000000E+00
  0.00000000E+00  0.00000000E+00  0.00000000E+00
  0.00000000E+00  0.00000000E+00  0.00000000E+00
  0.00000000E+00  0.00000000E+00  0.00000000E+00
  0.00000000E+00  0.00000000E+00  0.00000000E+00
  0.00000000E+00  0.00000000E+00  0.00000000E+00
  0.00000000E+00  0.00000000E+00  0.00000000E+00
  0.00000000E+00  0.00000000E+00  0.00000000E+00
  0.00000000E+00  0.00000000E+00  0.00000000E+00
  0.00000000E+00  0.00000000E+00  0.00000000E+00
  0.00000000E+00  0.00000000E+00  0.00000000E+00
  0.00000000E+00  0.00000000E+00  0.00000000E+00
  0.00000000E+00  0.00000000E+00  0.00000000E+00
  0.00000000E+00  0.00000000E+00  0.00000000E+00
  0.00000000E+00  0.00000000E+00  0.00000000E+00
  0.00000000E+00  0.00000000E+00  0.00000000E+00
  0.00000000E+00  0.00000000E+00  0.00000000E+00
  0.00000000E+00  0.00000000E+00  0.00000000E+00
  0.00000000E+00  0.00000000E+00  0.00000000E+00
  0.00000000E+00  0.00000000E+00  0.00000000E+00
  0.00000000E+00  0.00000000E+00  0.00000000E+00
  0.00000000E+00  0.00000000E+00  0.00000000E+00
  0.00000000E+00  0.00000000E+00  0.00000000E+00
  0.00000000E+00  0.00000000E+00  0.00000000E+00
  0.00000000E+00  0.00000000E+00  0.00000000E+00
  0.00000000E+00  0.00000000E+00  0.00000000E+00
  0.00000000E+00  0.00000000E+00  0.00000000E+00
  0.00000000E+00  0.00000000E+00  0.00000000E+00
  0.00000000E+00  0.00000000E+00  0.00000000E+00
  0.00000000E+00  0.00000000E+00  0.00000000E+00
  0.00000000E+00  0.00000000E+00  0.00000000E+00
  0.00000000E+00  0.00000000E+00  0.00000000E+00
  0.00000000E+00  0.00000000E+00  0.00000000E+00
  0.00000000E+00  0.00000000E+00  0.00000000E+00
  0.00000000E+00  0.00000000E+00  0.00000000E+00
  0.00000000E+00  0.00000000E+00  0.00000000E+00
  0.00000000E+00  0.00000000E+00  0.00000000E+00
  0.00000000E+00  0.00000000E+00  0.00000000E+00
  0.00000000E+00  0.00000000E+00  0.00000000E+00
  0.00000000E+00  0.00000000E+00  0.00000000E+00
  0.00000000E+00  0.00000000E+00  0.00000000E+00
  0.00000000E+00  0.00000000E+00  0.00000000E+00
  0.00000000E+00  0.00000000E+00  0.00000000E+00
  0.00000000E+00  0.00000000E+00  0.00000000E+00
  0.00000000E+00  0.00000000E+00  0.00000000E+00
  0.00000000E+00  0.00000000E+00  0.00000000E+00
  0.00000000E+00  0.00000000E+00  0.00000000E+00
  0.00000000E+00  0.00000000E+00  0.00000000E+00
  0.00000000E+00  0.00000000E+00  0.00000000E+00
  0.00000000E+00  0.00000000E+00  0.00000000E+00
  0.00000000E+00  0.00000000E+00  0.00000000E+00
  0.00000000E+00  0.00000000E+00  0.00000000E+00
  0.00000000E+00  0.00000000E+00  0.00000000E+00
  0.00000000E+00  0.00000000E+00  0.00000000E+00
  0.00000000E+00  0.00000000E+00  0.00000000E+00
  0.00000000E+00  0.00000000E+00  0.00000000E+00
  0.00000000E+00  0.00000000E+00  0.00000000E+00
  0.00000000E+00  0.00000000E+00  0.00000000E+00
  0.00000000E+00  0.00000000E+00  0.00000000E+00
  0.00000000E+00  0.00000000E+00  0.00000000E+00
  0.00000000E+00  0.00000000E+00  0.00000000E+00