CuInSe2gb                               
   1.00000000000000     
     9.7266780392896699    0.0000000000000000    0.0000000000000000
     0.0000000000000000    8.4235502764570693    0.0000000000000000
     0.0000000000000000    0.0000000000000000   45.0000000000000000
   Fe   Mn
   281     7
Direct
  0.0541110745102844  0.7010382228200797  0.2112849763632138
  0.3180829159460603  0.7241086943972992  0.8762366933443669
  0.6883776901253872  0.9589240971328198  0.6114919222113627
  0.4383805026530890  0.4585941222452922  0.6115777139882558
  0.4408568898892188  0.2872892243789640  0.2552279010025346
  0.0587554317674282  0.3885645893223226  0.8336288870160362
  0.3085161475689798  0.8876656763403414  0.8335386504830357
  0.4463502660375500  0.6266074079501726  0.7003742415015886
  0.0599195962098489  0.2127318122173740  0.7449375891943324
  0.1786014418888175  0.4510999709936369  0.2113116222190566
  0.5678805865952292  0.2106122880106959  0.4774565111502349
  0.0667918545078911  0.8750476821447379  0.5669303547187324
  0.5684042788261526  0.2239723044615595  0.8761374844049062
  0.8079275785378924  0.5280229890413580  0.1239339356033267
  0.4292753847109868  0.9513053829230058  0.2113649494142053
  0.5666981861275002  0.3749003709196096  0.5668111561061553
  0.8110480762293821  0.0416020527766448  0.3883267765680289
  0.6819754663541567  0.7887531366823641  0.5224413992275275
  0.4428551934543418  0.4606659617634642  0.4774814582647778
  0.4343082083516918  0.9625837217992845  0.7449329878014774
  0.4417562613990670  0.6249844578841748  0.5669195932335563
  0.5713979061893337  0.8763618328508069  0.7005585064658721
  0.3089757988111115  0.0258310351640673  0.1239130005411606
  0.6897929871513725  0.9588198256094445  0.3439614867271696
  0.6879795707180220  0.7822142747345320  0.1241901133914542
  0.0528365188861409  0.3738873898822717  0.2995278892743298
  0.6896308371601473  0.4677576947953522  0.8760662253490671
  0.4293682179398512  0.4511447097167990  0.2113516683153090
  0.8084162566978349  0.3752049951951722  0.4330585426859500
  0.5632374420345576  0.7082780115389545  0.6115700031054897
  0.5596860088768455  0.5406643927327635  0.6558782900137735
  0.8177585922892416  0.8617348199498331  0.1666848673972704
  0.5653312158383844  0.5376280917431761  0.2550128507295750
  0.6898995523319994  0.4587621711438631  0.3439401873802698
  0.1917452841638564  0.6115643008932860  0.1664140274835090
  0.1944566595087321  0.7996790480985995  0.7889150863689396
  0.4462517213075753  0.1257411847761400  0.7004030438643648
  0.9280219082017035  0.6235916943379566  0.2996129175520306
  0.3175724370548735  0.2234052003843064  0.8761153059386486
  0.3166082724788584  0.8747701128676143  0.5668822642224403
  0.8173232919057495  0.2238866932854479  0.8761836911442119
  0.8096650512246849  0.5407758044793542  0.6558203688866532
  0.5588045759461647  0.5266191115929666  0.1239035598403875
  0.5693268588327468  0.0497360247764954  0.7889330523642991
  0.1910474779283666  0.2873135735495561  0.2552540732267202
  0.8085858812444767  0.8751822412589022  0.4330637715489701
  0.5722613044596189  0.3761974094540652  0.7003786870731591
  0.0573738154257104  0.0260168265594194  0.1240942132754058
  0.3096856728221084  0.5406490804236682  0.6559103959470944
  0.5650589626900834  0.2089950765998302  0.3439597239715064
  0.1878247755741328  0.9582234379424812  0.6112379200597593
  0.3030478701867347  0.3739649410133918  0.2995788896351583
  0.4346512581796449  0.7906739652101947  0.6558906987356462
  0.1946638734130028  0.2990669282663369  0.7888362304689002
  0.0675333591238010  0.3628414782805317  0.1666687460898250
  0.6964875229621914  0.6266535908067115  0.7005488626934059
  0.3113545321910488  0.5410357607804491  0.3884066540425686
  0.0678180830026453  0.7230815776704489  0.8762814886615931
  0.9338373612120905  0.6375788735542888  0.8340114648369135
  0.3197514794266002  0.5497957572087168  0.7890058801595076
  0.3046795117999719  0.2005798585043384  0.2112320625729713
  0.0680258610890758  0.7107168575132240  0.4774655382138075
  0.5544689460815682  0.2008530739350302  0.2111449636598600
  0.3096887839478925  0.2126129254576013  0.7449224872784787
  0.8151754189557954  0.5376603434249730  0.2551434035726771
  0.1831024750476625  0.6378330338283248  0.8336133958124340
  0.0693745953909265  0.0495678227725805  0.7891295589665683
  0.4415926645734271  0.1250524767538787  0.5669386484961518
  0.9347547527465933  0.2907142541087856  0.6558216808860935
  0.8042312297224848  0.2013085891122884  0.2111563888073980
  0.9294453631405953  0.9512217668149584  0.2112976188088733
  0.9415953208468200  0.6250083172248981  0.5668004782767400
  0.8082722029076949  0.3875178345310078  0.8335433272928094
  0.1963846909579872  0.6260734683874840  0.7002987816400749
  0.8085609331324344  0.8875644793380899  0.8335517822339223
  0.6850855622288695  0.2907998174640679  0.6560756617835283
  0.3129430905140924  0.2078460230697648  0.6113726344904984
  0.4346498413775132  0.4628650874073534  0.7447862288489191
  0.4364068775491716  0.7911474262438402  0.3883974246125784
  0.6845677809261776  0.9626179458632314  0.7448316521351730
  0.8040820113753592  0.7011756334092525  0.2111924952505329
  0.8135626722421669  0.7086505120172428  0.6115905612794095
  0.4369591247455806  0.7834871512838205  0.1240186313828543
  0.3098277585182735  0.7121735604968623  0.7448353381234568
  0.3201767863743601  0.0494549509491294  0.7888590013165844
  0.8109641055310364  0.5415235097958272  0.3883013981859597
  0.6820345967342590  0.2887887282977002  0.5224497014474927
  0.6949762734959234  0.7994272059985094  0.7888818259670007
  0.1907772225397257  0.7873747665694545  0.2552095036696542
  0.6917666370312446  0.1124479971002544  0.1665968271176231
  0.6927949037378709  0.9606371504053520  0.4774678076095877
  0.9402090918177294  0.9593297069690541  0.3440367458989469
  0.8071396804177550  0.0391399322929475  0.5225343044227037
  0.6837316355093288  0.6250461339480173  0.4329685469053696
  0.4401728378824671  0.4587622654581188  0.3439851383045663
  0.8107878881655710  0.2118117671140364  0.7446532495014218
  0.4396440546400802  0.9680288000992255  0.8760752483326335
  0.5666239333952916  0.8747343922167593  0.5668317229534549
  0.8092940246764748  0.0278243654612237  0.1239273472781686
  0.4280701512868611  0.6236669250484554  0.2994774838939431
  0.8170754937340780  0.7238907461550173  0.8763333480262654
  0.6882045828100409  0.4586877057381489  0.6115474156747993
  0.5585375628878502  0.3876804112061236  0.8335060563651386
  0.8030350298393747  0.3733428533472892  0.2994597525636812
  0.1861720486248601  0.2910432412098214  0.3882994200467892
  0.8197356231519182  0.5494738533674995  0.7890864933592676
  0.1822743805395388  0.7893954949383075  0.5225492681217462
  0.3028792479826178  0.8740582651353516  0.2995986586412684
  0.1787219743662070  0.9514018847195792  0.2113501896825704
  0.1844155547859239  0.4625476332134649  0.7449547585897534
  0.4323418288491663  0.2888124865927610  0.5223624067311369
  0.0648239037703541  0.7087184816942244  0.3438286862284571
  0.1847694429508548  0.7907352575950249  0.6558184520606234
  0.4446633228408429  0.7994451308496765  0.7888462490056320
  0.6837733908440723  0.1250021170931692  0.4329626162442609
  0.9320509131770768  0.7883532161432689  0.5223808496644620
  0.6918259800568011  0.6126011054628597  0.1667359975356512
  0.8147935860376253  0.7087721373604778  0.3438423265943776
  0.9337739580035287  0.4625808797956235  0.7450391188078026
  0.1902902298277107  0.4590774020432965  0.3440188819564204
  0.5698300068727253  0.5495392569093568  0.7890979664573453
  0.5663941576933549  0.3626029540225376  0.1664722450130394
  0.5649412710349919  0.7091978263094155  0.3439208142919996
  0.5529947981630081  0.3737048311629371  0.2995587889286060
  0.1894809216478649  0.4677887786536812  0.8760678799164817
  0.1917591718234583  0.1114432313458686  0.1664336360997461
  0.4447534140557104  0.2992775331278608  0.7888406755962921
  0.6909176215960959  0.7875880180480253  0.2553614194837389
  0.9335843573211918  0.1377583642756418  0.8335515292563203
  0.4428262473207178  0.9608483733429882  0.4774664501390410
  0.5674831611438986  0.7246348792534051  0.8762886504103177
  0.1925886429140659  0.4609285670359163  0.4774781023066113
  0.9343000920508040  0.2819814733341175  0.1241300745378766
  0.3114741587502803  0.0413396471452025  0.3884034600739358
  0.0601433337153084  0.0408712799305654  0.6560821655282849
  0.5583680626377251  0.3749617394984641  0.4331201103933635
  0.6843827723822206  0.4626994044389715  0.7449226200362158
  0.5599883382508176  0.2123950608052331  0.7448529084116382
  0.9472269626302384  0.1263967495945447  0.7003454887049289
  0.5598211997491330  0.0407507942637324  0.6558480497152256
  0.5572164349497786  0.5392625924188201  0.5225416254372525
  0.1779304264289113  0.1238242975411575  0.2995325302095566
  0.4413488155450440  0.1105330533059945  0.1663906336702077
  0.6780763534197287  0.6234036501694310  0.2994421802505338
  0.9279396358501870  0.1235194859424450  0.2996206801288264
  0.8166187072176224  0.3752116463834314  0.5668902336087299
  0.0526146213373401  0.8738687508549089  0.2995390960900722
  0.1917988442746127  0.6249252484676177  0.5668908288573462
  0.9445472262415098  0.7998631036448457  0.7889076831633024
  0.3081929508961132  0.3875162936046870  0.8335729054661482
  0.9397794420313992  0.4683346960006916  0.8761304644497929
  0.4335933773528974  0.6379784689684964  0.8335221097874372
  0.0648890036798021  0.2086632093945543  0.3438455421031512
  0.1898912390625940  0.9678931040005577  0.8761620328597572
  0.9348262305380812  0.7819722282308867  0.1241552783975456
  0.6865627741199789  0.7911318850633654  0.3884132205043163
  0.9348298214495321  0.7907431146722655  0.6559661104048878
  0.9412094814609878  0.1120029138729039  0.1665761082855555
  0.4351847414401350  0.2909605774057410  0.6560975491387810
  0.0543593246270674  0.2012822059563404  0.2112807555263491
  0.6792378476347127  0.9512711071880879  0.2113072877646934
  0.1780957476838047  0.6237292838764162  0.2994985576513354
  0.8215093400518237  0.8763931400053394  0.7005024720152659
  0.9466728708125277  0.6265409773627457  0.7005553702526816
  0.1964766289899000  0.1261456315154043  0.7003537197068910
  0.9427323022590440  0.4603652444465285  0.4772655100773655
  0.8129059384265124  0.2081280213113296  0.6114797707565248
  0.1832936572483188  0.6250550708006950  0.4331234874589397
  0.4280575837749190  0.1237374367038418  0.2994972630541782
  0.6781136115143216  0.1235472515654978  0.2994452889889153
  0.5616834095566986  0.5412198908564183  0.3884287486400149
  0.8146317846863371  0.2088334584957617  0.3438493217312567
  0.4398143662419792  0.4679347978588465  0.8759127829928245
  0.5583180290997443  0.8874447752860944  0.8334734904176522
  0.3177195537893072  0.2104383111991008  0.4773216280633082
  0.1925470119365728  0.9608712552621065  0.4774972560738143
  0.0586907468332808  0.8876190391196853  0.8334361195617087
  0.0572151593388945  0.5392119130586244  0.5225236015969927
  0.9425735103498121  0.9606559016648545  0.4773165497386973
  0.0630110828980203  0.7085881166365999  0.6115121803077384
  0.5573848128835924  0.0386979292207426  0.5223401366329120
  0.6950864284114620  0.2989059704590365  0.7888171761669068
  0.8176616773187360  0.3618414672307816  0.1667059986330351
  0.4335693077137366  0.1248753197503708  0.4330354416052157
  0.0679515007989213  0.2107976745311596  0.4774430042190124
  0.3097377835939477  0.0408166979297852  0.6559397311239964
  0.4320853274344560  0.7890070524964697  0.5223438919429435
  0.1837797592805588  0.1377884396287767  0.8336270504162806
  0.1860190794940616  0.2829682630846170  0.1242276728443518
  0.9402277399391259  0.4591894995738517  0.3440270623244689
  0.5664801056622498  0.8625329674830295  0.1665188565823849
  0.3043100995058451  0.7007413168798126  0.2112387908354963
  0.9413318409388846  0.6123939425128130  0.1665790839766064
  0.1879179933489400  0.4580214411529302  0.6114136644494155
  0.0719563547444044  0.8765106179755331  0.7003591165252990
  0.0598664245973724  0.5406433536522679  0.6559829606317555
  0.3078111173011812  0.5259394350987679  0.1240048143504260
  0.9363647260902134  0.7914447264210122  0.3884487822060330
  0.9450057623491666  0.2990468732687590  0.7888034759035332
  0.1846611163347575  0.2906710733706623  0.6558877801291183
  0.9378850848355128  0.9580506652877312  0.6113956748032203
  0.8100191656791279  0.7120540040490058  0.7448398411993881
  0.6909796738906580  0.2874900456906246  0.2553159673204469
  0.0594944476294966  0.7121521589114468  0.7449660930115912
  0.6789762898495365  0.4511342531920334  0.2112748311602977
  0.8178492068438357  0.2107648454987662  0.4775086959946511
  0.5677167010735312  0.7104189360709223  0.4774579085281798
  0.0678205486532819  0.8632253149824451  0.1666629464221211
  0.9323783435278948  0.2883923862654914  0.5223576634535688
  0.6845778886891517  0.7905921203411804  0.6558983144548547
  0.0585311714642380  0.8748523515731755  0.4330707654956436
  0.0681408725286645  0.2231095522289936  0.8761873339500817
  0.8097766677499196  0.0406035349048838  0.6558544590011109
  0.5596657799919704  0.0264549262340750  0.1238344549931681
  0.3086138728240753  0.3752924668990905  0.4329776282282558
  0.3166515094138810  0.3750550547504287  0.5668206244163415
  0.3177296611375055  0.7103093633275969  0.4773124395510178
  0.0573284335914837  0.0392437628272189  0.5224464624587187
  0.3218425492864153  0.8766024719967356  0.7005448990684586
  0.0653785899033338  0.5375662105853161  0.2550970352368915
  0.6834253007670616  0.1378392233242495  0.8335172467793791
  0.8151802035642356  0.0375035049024405  0.2551580467204309
  0.1834597597574104  0.1250404190562419  0.4330963365493765
  0.6971531402124083  0.1261346042764447  0.7004295960652821
  0.1824025781551236  0.2893061353154220  0.5225370505416788
  0.4407757758981146  0.7873167802603597  0.2552372220277876
  0.4414436646112462  0.6106081058205720  0.1664647178492828
  0.0631881963230519  0.2085467766216467  0.6115069204260979
  0.1861599296038645  0.7912456072393850  0.3883326532599101
  0.3070474884612244  0.5388769112971731  0.5224836145887699
  0.8219884288557615  0.3765668250445312  0.7003732363276545
  0.6863896676653218  0.2912524766477302  0.3884131020323677
  0.1916467535193291  0.1249301478316465  0.5668749315770376
  0.6898238147621717  0.9684635171210147  0.8760794807660149
  0.6916068403015663  0.1250938169173639  0.5669040100483992
  0.4400284391065973  0.9587779197895950  0.3440027048071357
  0.1842196143894676  0.9627053444415523  0.7449047942271694
  0.9413238408581097  0.7872884928627522  0.2552508074921351
  0.5584448668934205  0.8747729291978331  0.4330572938574996
  0.3086131775965577  0.8749924999513771  0.4329647809735918
  0.8071330734505453  0.5392575080738228  0.5225791403160561
  0.9293556930158968  0.4513249871770638  0.2112836673046108
  0.3151901188331315  0.5375682337177622  0.2551246124829639
  0.5618078842066051  0.0413899992990336  0.3884298656841678
  0.9381162747517362  0.4584482172118114  0.6115950849734393
  0.0614805987947173  0.0413602674527748  0.3883702669664089
  0.0611910220692149  0.5412673889138986  0.3883764508754101
  0.4360721974937695  0.2910513536793086  0.3883317492199900
  0.6925537161233283  0.4606007648774069  0.4773427628077218
  0.0667727671444954  0.3750094867648924  0.5669120577350761
  0.5538980589192029  0.7011405157913065  0.2111519654136078
  0.9411122701241901  0.2875092545914559  0.2552606963617888
  0.8193357271660218  0.0498125992294192  0.7891645097784813
  0.1901444152309244  0.9588885309480802  0.3440264294089781
  0.5530027474095096  0.8737788937756927  0.2995762287691800
  0.0585180729132270  0.3747346697481950  0.4330140912461583
  0.3150614498197878  0.7089002685998659  0.3439514252724105
  0.3151461178402463  0.2089784107855988  0.3439870098050392
  0.9417022059255188  0.1250998613619146  0.5668089269587522
  0.4383152500292905  0.9587425717454860  0.6115608392541712
  0.5654173619496303  0.0375526911617985  0.2550221631718255
  0.1859789951928249  0.7826663197565752  0.1242410685826933
  0.0654551048271784  0.0375170847023794  0.2551568306177672
  0.6915995332706615  0.6249693262974553  0.5669230157508355
  0.0569078966499706  0.5260324787624027  0.1241401593604888
  0.3070569877706147  0.0385416468516347  0.5223521340870321
  0.6877192309945069  0.2822591119095539  0.1241546850627830
  0.8178036655744115  0.7108127591155801  0.4774706751798197
  0.4335075822320575  0.1376964422836288  0.8335076502354463
  0.3219252207530234  0.3764797870521858  0.7004175726950939
  0.6833816311979755  0.6379762917149814  0.8335140224122722
  0.5598116505967295  0.7120701057105678  0.7448514610528332
  0.9363245304667842  0.2913964103480731  0.3884092912670318
  0.9398470981838449  0.9683885016742214  0.8761369610924857
  0.5630127788899078  0.2078549051184233  0.6112904713534792
  0.8165607998669059  0.8750505838592230  0.5669174078984699
  0.8030175855570629  0.8736253439061800  0.2994784279893313
  0.3152804456892194  0.0378356297202191  0.2551308592379792
  0.4367999394987935  0.2834627547467071  0.1240531062766588
  0.3134105695265141  0.7086976379796450  0.6116007244264514
  0.4335966539944184  0.6251534050194334  0.4330927508322574
  0.9331680043376840  0.6254330265717088  0.4331573029048714
  0.3184338305691463  0.8629480637588208  0.1657948990840596
  0.0704769756077086  0.5494016032288690  0.7887480155252192
  0.9333972362845718  0.1253772725839358  0.4331452642064024
  0.3181797922697971  0.3630124874176362  0.1657894468274769
  0.9338230128809940  0.9620668972060472  0.7446738959186259
  0.0726384244775235  0.3770209442467801  0.7004948722440576
 
  0.00000000E+00  0.00000000E+00  0.00000000E+00
  0.00000000E+00  0.00000000E+00  0.00000000E+00
  0.00000000E+00  0.00000000E+00  0.00000000E+00
  0.00000000E+00  0.00000000E+00  0.00000000E+00
  0.00000000E+00  0.00000000E+00  0.00000000E+00
  0.00000000E+00  0.00000000E+00  0.00000000E+00
  0.00000000E+00  0.00000000E+00  0.00000000E+00
  0.00000000E+00  0.00000000E+00  0.00000000E+00
  0.00000000E+00  0.00000000E+00  0.00000000E+00
  0.00000000E+00  0.00000000E+00  0.00000000E+00
  0.00000000E+00  0.00000000E+00  0.00000000E+00
  0.00000000E+00  0.00000000E+00  0.00000000E+00
  0.00000000E+00  0.00000000E+00  0.00000000E+00
  0.00000000E+00  0.00000000E+00  0.00000000E+00
  0.00000000E+00  0.00000000E+00  0.00000000E+00
  0.00000000E+00  0.00000000E+00  0.00000000E+00
  0.00000000E+00  0.00000000E+00  0.00000000E+00
  0.00000000E+00  0.00000000E+00  0.00000000E+00
  0.00000000E+00  0.00000000E+00  0.00000000E+00
  0.00000000E+00  0.00000000E+00  0.00000000E+00
  0.00000000E+00  0.00000000E+00  0.00000000E+00
  0.00000000E+00  0.00000000E+00  0.00000000E+00
  0.00000000E+00  0.00000000E+00  0.00000000E+00
  0.00000000E+00  0.00000000E+00  0.00000000E+00
  0.00000000E+00  0.00000000E+00  0.00000000E+00
  0.00000000E+00  0.00000000E+00  0.00000000E+00
  0.00000000E+00  0.00000000E+00  0.00000000E+00
  0.00000000E+00  0.00000000E+00  0.00000000E+00
  0.00000000E+00  0.00000000E+00  0.00000000E+00
  0.00000000E+00  0.00000000E+00  0.00000000E+00
  0.00000000E+00  0.00000000E+00  0.00000000E+00
  0.00000000E+00  0.00000000E+00  0.00000000E+00
  0.00000000E+00  0.00000000E+00  0.00000000E+00
  0.00000000E+00  0.00000000E+00  0.00000000E+00
  0.00000000E+00  0.00000000E+00  0.00000000E+00
  0.00000000E+00  0.00000000E+00  0.00000000E+00
  0.00000000E+00  0.00000000E+00  0.00000000E+00
  0.00000000E+00  0.00000000E+00  0.00000000E+00
  0.00000000E+00  0.00000000E+00  0.00000000E+00
  0.00000000E+00  0.00000000E+00  0.00000000E+00
  0.00000000E+00  0.00000000E+00  0.00000000E+00
  0.00000000E+00  0.00000000E+00  0.00000000E+00
  0.00000000E+00  0.00000000E+00  0.00000000E+00
  0.00000000E+00  0.00000000E+00  0.00000000E+00
  0.00000000E+00  0.00000000E+00  0.00000000E+00
  0.00000000E+00  0.00000000E+00  0.00000000E+00
  0.00000000E+00  0.00000000E+00  0.00000000E+00
  0.00000000E+00  0.00000000E+00  0.00000000E+00
  0.00000000E+00  0.00000000E+00  0.00000000E+00
  0.00000000E+00  0.00000000E+00  0.00000000E+00
  0.00000000E+00  0.00000000E+00  0.00000000E+00
  0.00000000E+00  0.00000000E+00  0.00000000E+00
  0.00000000E+00  0.00000000E+00  0.00000000E+00
  0.00000000E+00  0.00000000E+00  0.00000000E+00
  0.00000000E+00  0.00000000E+00  0.00000000E+00
  0.00000000E+00  0.00000000E+00  0.00000000E+00
  0.00000000E+00  0.00000000E+00  0.00000000E+00
  0.00000000E+00  0.00000000E+00  0.00000000E+00
  0.00000000E+00  0.00000000E+00  0.00000000E+00
  0.00000000E+00  0.00000000E+00  0.00000000E+00
  0.00000000E+00  0.00000000E+00  0.00000000E+00
  0.00000000E+00  0.00000000E+00  0.00000000E+00
  0.00000000E+00  0.00000000E+00  0.00000000E+00
  0.00000000E+00  0.00000000E+00  0.00000000E+00
  0.00000000E+00  0.00000000E+00  0.00000000E+00
  0.00000000E+00  0.00000000E+00  0.00000000E+00
  0.00000000E+00  0.00000000E+00  0.00000000E+00
  0.00000000E+00  0.00000000E+00  0.00000000E+00
  0.00000000E+00  0.00000000E+00  0.00000000E+00
  0.00000000E+00  0.00000000E+00  0.00000000E+00
  0.00000000E+00  0.00000000E+00  0.00000000E+00
  0.00000000E+00  0.00000000E+00  0.00000000E+00
  0.00000000E+00  0.00000000E+00  0.00000000E+00
  0.00000000E+00  0.00000000E+00  0.00000000E+00
  0.00000000E+00  0.00000000E+00  0.00000000E+00
  0.00000000E+00  0.00000000E+00  0.00000000E+00
  0.00000000E+00  0.00000000E+00  0.00000000E+00
  0.00000000E+00  0.00000000E+00  0.00000000E+00
  0.00000000E+00  0.00000000E+00  0.00000000E+00
  0.00000000E+00  0.00000000E+00  0.00000000E+00
  0.00000000E+00  0.00000000E+00  0.00000000E+00
  0.00000000E+00  0.00000000E+00  0.00000000E+00
  0.00000000E+00  0.00000000E+00  0.00000000E+00
  0.00000000E+00  0.00000000E+00  0.00000000E+00
  0.00000000E+00  0.00000000E+00  0.00000000E+00
  0.00000000E+00  0.00000000E+00  0.00000000E+00
  0.00000000E+00  0.00000000E+00  0.00000000E+00
  0.00000000E+00  0.00000000E+00  0.00000000E+00
  0.00000000E+00  0.00000000E+00  0.00000000E+00
  0.00000000E+00  0.00000000E+00  0.00000000E+00
  0.00000000E+00  0.00000000E+00  0.00000000E+00
  0.00000000E+00  0.00000000E+00  0.00000000E+00
  0.00000000E+00  0.00000000E+00  0.00000000E+00
  0.00000000E+00  0.00000000E+00  0.00000000E+00
  0.00000000E+00  0.00000000E+00  0.00000000E+00
  0.00000000E+00  0.00000000E+00  0.00000000E+00
  0.00000000E+00  0.00000000E+00  0.00000000E+00
  0.00000000E+00  0.00000000E+00  0.00000000E+00
  0.00000000E+00  0.00000000E+00  0.00000000E+00
  0.00000000E+00  0.00000000E+00  0.00000000E+00
  0.00000000E+00  0.00000000E+00  0.00000000E+00
  0.00000000E+00  0.00000000E+00  0.00000000E+00
  0.00000000E+00  0.00000000E+00  0.00000000E+00
  0.00000000E+00  0.00000000E+00  0.00000000E+00
  0.00000000E+00  0.00000000E+00  0.00000000E+00
  0.00000000E+00  0.00000000E+00  0.00000000E+00
  0.00000000E+00  0.00000000E+00  0.00000000E+00
  0.00000000E+00  0.00000000E+00  0.00000000E+00
  0.00000000E+00  0.00000000E+00  0.00000000E+00
  0.00000000E+00  0.00000000E+00  0.00000000E+00
  0.00000000E+00  0.00000000E+00  0.00000000E+00
  0.00000000E+00  0.00000000E+00  0.00000000E+00
  0.00000000E+00  0.00000000E+00  0.00000000E+00
  0.00000000E+00  0.00000000E+00  0.00000000E+00
  0.00000000E+00  0.00000000E+00  0.00000000E+00
  0.00000000E+00  0.00000000E+00  0.00000000E+00
  0.00000000E+00  0.00000000E+00  0.00000000E+00
  0.00000000E+00  0.00000000E+00  0.00000000E+00
  0.00000000E+00  0.00000000E+00  0.00000000E+00
  0.00000000E+00  0.00000000E+00  0.00000000E+00
  0.00000000E+00  0.00000000E+00  0.00000000E+00
  0.00000000E+00  0.00000000E+00  0.00000000E+00
  0.00000000E+00  0.00000000E+00  0.00000000E+00
  0.00000000E+00  0.00000000E+00  0.00000000E+00
  0.00000000E+00  0.00000000E+00  0.00000000E+00
  0.00000000E+00  0.00000000E+00  0.00000000E+00
  0.00000000E+00  0.00000000E+00  0.00000000E+00
  0.00000000E+00  0.00000000E+00  0.00000000E+00
  0.00000000E+00  0.00000000E+00  0.00000000E+00
  0.00000000E+00  0.00000000E+00  0.00000000E+00
  0.00000000E+00  0.00000000E+00  0.00000000E+00
  0.00000000E+00  0.00000000E+00  0.00000000E+00
  0.00000000E+00  0.00000000E+00  0.00000000E+00
  0.00000000E+00  0.00000000E+00  0.00000000E+00
  0.00000000E+00  0.00000000E+00  0.00000000E+00
  0.00000000E+00  0.00000000E+00  0.00000000E+00
  0.00000000E+00  0.00000000E+00  0.00000000E+00
  0.00000000E+00  0.00000000E+00  0.00000000E+00
  0.00000000E+00  0.00000000E+00  0.00000000E+00
  0.00000000E+00  0.00000000E+00  0.00000000E+00
  0.00000000E+00  0.00000000E+00  0.00000000E+00
  0.00000000E+00  0.00000000E+00  0.00000000E+00
  0.00000000E+00  0.00000000E+00  0.00000000E+00
  0.00000000E+00  0.00000000E+00  0.00000000E+00
  0.00000000E+00  0.00000000E+00  0.00000000E+00
  0.00000000E+00  0.00000000E+00  0.00000000E+00
  0.00000000E+00  0.00000000E+00  0.00000000E+00
  0.00000000E+00  0.00000000E+00  0.00000000E+00
  0.00000000E+00  0.00000000E+00  0.00000000E+00
  0.00000000E+00  0.00000000E+00  0.00000000E+00
  0.00000000E+00  0.00000000E+00  0.00000000E+00
  0.00000000E+00  0.00000000E+00  0.00000000E+00
  0.00000000E+00  0.00000000E+00  0.00000000E+00
  0.00000000E+00  0.00000000E+00  0.00000000E+00
  0.00000000E+00  0.00000000E+00  0.00000000E+00
  0.00000000E+00  0.00000000E+00  0.00000000E+00
  0.00000000E+00  0.00000000E+00  0.00000000E+00
  0.00000000E+00  0.00000000E+00  0.00000000E+00
  0.00000000E+00  0.00000000E+00  0.00000000E+00
  0.00000000E+00  0.00000000E+00  0.00000000E+00
  0.00000000E+00  0.00000000E+00  0.00000000E+00
  0.00000000E+00  0.00000000E+00  0.00000000E+00
  0.00000000E+00  0.00000000E+00  0.00000000E+00
  0.00000000E+00  0.00000000E+00  0.00000000E+00
  0.00000000E+00  0.00000000E+00  0.00000000E+00
  0.00000000E+00  0.00000000E+00  0.00000000E+00
  0.00000000E+00  0.00000000E+00  0.00000000E+00
  0.00000000E+00  0.00000000E+00  0.00000000E+00
  0.00000000E+00  0.00000000E+00  0.00000000E+00
  0.00000000E+00  0.00000000E+00  0.00000000E+00
  0.00000000E+00  0.00000000E+00  0.00000000E+00
  0.00000000E+00  0.00000000E+00  0.00000000E+00
  0.00000000E+00  0.00000000E+00  0.00000000E+00
  0.00000000E+00  0.00000000E+00  0.00000000E+00
  0.00000000E+00  0.00000000E+00  0.00000000E+00
  0.00000000E+00  0.00000000E+00  0.00000000E+00
  0.00000000E+00  0.00000000E+00  0.00000000E+00
  0.00000000E+00  0.00000000E+00  0.00000000E+00
  0.00000000E+00  0.00000000E+00  0.00000000E+00
  0.00000000E+00  0.00000000E+00  0.00000000E+00
  0.00000000E+00  0.00000000E+00  0.00000000E+00
  0.00000000E+00  0.00000000E+00  0.00000000E+00
  0.00000000E+00  0.00000000E+00  0.00000000E+00
  0.00000000E+00  0.00000000E+00  0.00000000E+00
  0.00000000E+00  0.00000000E+00  0.00000000E+00
  0.00000000E+00  0.00000000E+00  0.00000000E+00
  0.00000000E+00  0.00000000E+00  0.00000000E+00
  0.00000000E+00  0.00000000E+00  0.00000000E+00
  0.00000000E+00  0.00000000E+00  0.00000000E+00
  0.00000000E+00  0.00000000E+00  0.00000000E+00
  0.00000000E+00  0.00000000E+00  0.00000000E+00
  0.00000000E+00  0.00000000E+00  0.00000000E+00
  0.00000000E+00  0.00000000E+00  0.00000000E+00
  0.00000000E+00  0.00000000E+00  0.00000000E+00
  0.00000000E+00  0.00000000E+00  0.00000000E+00
  0.00000000E+00  0.00000000E+00  0.00000000E+00
  0.00000000E+00  0.00000000E+00  0.00000000E+00
  0.00000000E+00  0.00000000E+00  0.00000000E+00
  0.00000000E+00  0.00000000E+00  0.00000000E+00
  0.00000000E+00  0.00000000E+00  0.00000000E+00
  0.00000000E+00  0.00000000E+00  0.00000000E+00
  0.00000000E+00  0.00000000E+00  0.00000000E+00
  0.00000000E+00  0.00000000E+00  0.00000000E+00
  0.00000000E+00  0.00000000E+00  0.00000000E+00
  0.00000000E+00  0.00000000E+00  0.00000000E+00
  0.00000000E+00  0.00000000E+00  0.00000000E+00
  0.00000000E+00  0.00000000E+00  0.00000000E+00
  0.00000000E+00  0.00000000E+00  0.00000000E+00
  0.00000000E+00  0.00000000E+00  0.00000000E+00
  0.00000000E+00  0.00000000E+00  0.00000000E+00
  0.00000000E+00  0.00000000E+00  0.00000000E+00
  0.00000000E+00  0.00000000E+00  0.00000000E+00
  0.00000000E+00  0.00000000E+00  0.00000000E+00
  0.00000000E+00  0.00000000E+00  0.00000000E+00
  0.00000000E+00  0.00000000E+00  0.00000000E+00
  0.00000000E+00  0.00000000E+00  0.00000000E+00
  0.00000000E+00  0.00000000E+00  0.00000000E+00
  0.00000000E+00  0.00000000E+00  0.00000000E+00
  0.00000000E+00  0.00000000E+00  0.00000000E+00
  0.00000000E+00  0.00000000E+00  0.00000000E+00
  0.00000000E+00  0.00000000E+00  0.00000000E+00
  0.00000000E+00  0.00000000E+00  0.00000000E+00
  0.00000000E+00  0.00000000E+00  0.00000000E+00
  0.00000000E+00  0.00000000E+00  0.00000000E+00
  0.00000000E+00  0.00000000E+00  0.00000000E+00
  0.00000000E+00  0.00000000E+00  0.00000000E+00
  0.00000000E+00  0.00000000E+00  0.00000000E+00
  0.00000000E+00  0.00000000E+00  0.00000000E+00
  0.00000000E+00  0.00000000E+00  0.00000000E+00
  0.00000000E+00  0.00000000E+00  0.00000000E+00
  0.00000000E+00  0.00000000E+00  0.00000000E+00
  0.00000000E+00  0.00000000E+00  0.00000000E+00
  0.00000000E+00  0.00000000E+00  0.00000000E+00
  0.00000000E+00  0.00000000E+00  0.00000000E+00
  0.00000000E+00  0.00000000E+00  0.00000000E+00
  0.00000000E+00  0.00000000E+00  0.00000000E+00
  0.00000000E+00  0.00000000E+00  0.00000000E+00
  0.00000000E+00  0.00000000E+00  0.00000000E+00
  0.00000000E+00  0.00000000E+00  0.00000000E+00
  0.00000000E+00  0.00000000E+00  0.00000000E+00
  0.00000000E+00  0.00000000E+00  0.00000000E+00
  0.00000000E+00  0.00000000E+00  0.00000000E+00
  0.00000000E+00  0.00000000E+00  0.00000000E+00
  0.00000000E+00  0.00000000E+00  0.00000000E+00
  0.00000000E+00  0.00000000E+00  0.00000000E+00
  0.00000000E+00  0.00000000E+00  0.00000000E+00
  0.00000000E+00  0.00000000E+00  0.00000000E+00