CuInSe2gb                               
   1.00000000000000     
     9.7266780392896699    0.0000000000000000    0.0000000000000000
     0.0000000000000000    8.4235502764570693    0.0000000000000000
     0.0000000000000000    0.0000000000000000   45.0000000000000000
   Fe   Mn
   274    14
Direct
  0.0614504544789242  0.0319319617122443  0.1244757886099279
  0.3153263973817406  0.8748166812608204  0.6548078274395228
  0.1854842919698627  0.1226828764579609  0.7880167421175135
  0.4407298476015792  0.2880140818020960  0.3894265158323348
  0.3166094638936584  0.7115747827339505  0.8329619758589279
  0.8161344456078414  0.2133298058503496  0.8329069724952733
  0.1910578059673834  0.9617170098235720  0.8330358668832299
  0.5621953825587411  0.2066174662422325  0.5657471795019999
  0.0642062863366154  0.0401592712128690  0.7439517541611158
  0.8114748660450887  0.8715462142929120  0.5214808341758318
  0.1900115412024296  0.2909569224345063  0.7439148807423456
  0.9352072878270782  0.4533681168076227  0.3451363244417965
  0.9401714567836458  0.2868899033410879  0.3892223089054214
  0.8124840928328617  0.0412945076595103  0.8753230339276983
  0.1845755639557810  0.7886411723693522  0.6108174165162610
  0.5655601658768176  0.0380875580808467  0.3893506417400894
  0.9408649315287781  0.9622193541290421  0.8330643001573986
  0.3148489899919352  0.5415531362547555  0.8753695178185985
  0.6898614052592957  0.2903156949929955  0.7440123012416364
  0.1831749618308676  0.6156431351207240  0.1666972985591819
  0.8116939600963898  0.2056309050718580  0.4783138580941774
  0.8093303565661194  0.5385375737806998  0.6108705116603337
  0.3120850255740464  0.8704359969628414  0.4341860547455992
  0.8104877390720640  0.0380268196159889  0.2560923898300332
  0.6853339840390510  0.9524526715709318  0.3451841167407136
  0.9322912319960778  0.1152734450367878  0.1670386632478909
  0.0620732585126130  0.8715171001147102  0.5214895002987811
  0.5599370541573285  0.5389538684823547  0.2561259490196352
  0.6853268703845414  0.7940374456980246  0.8752999363570181
  0.5573762182176549  0.3668152159668739  0.1667033708563594
  0.4398741415918559  0.7905642229127727  0.7439720738049633
  0.8116450623101067  0.7070051967801034  0.5656328717547893
  0.5612633618008287  0.8725092577423630  0.7879866275433888
  0.6860879069193230  0.1215840276087484  0.5214122905614589
  0.8151010724730354  0.3742949526465086  0.6549670676279815
  0.9408838853687582  0.4622935770538170  0.8330146354288321
  0.0606926667433268  0.2076409211966091  0.6995708897835142
  0.4358851962313221  0.9577631701138359  0.6995844758737355
  0.3167998683177934  0.2116168026204801  0.8331093906530693
  0.4404603436170481  0.6244478001265120  0.6548040157921869
  0.3100172676222595  0.5382523870064410  0.6108077461468988
  0.9367520533710225  0.4559013087859055  0.5656859237124227
  0.6896937891728653  0.7909739981602667  0.7440288560656724
  0.9344342635766776  0.7865034296364336  0.1247422722380253
  0.6907438286610526  0.7876759449215234  0.3893228384666227
  0.9393329168227613  0.7903978829027045  0.7440926008894032
  0.0601341456524870  0.2035749679577827  0.3451575880097450
  0.6848785911362248  0.4532132211308444  0.3452129709028350
  0.4358272248790639  0.1225081379249584  0.7883257756775113
  0.0641543373047568  0.2042457838448030  0.2118648022453156
  0.0560528997793589  0.3661879958684544  0.1667126768107763
  0.9349689382900617  0.7885025255380116  0.2559793330207237
  0.5611299398944531  0.2076591903118971  0.6995767908711547
  0.6859152922699047  0.9576843432891520  0.6996867926883157
  0.8104629903030666  0.8729788110078945  0.7879342671809958
  0.4370071840416223  0.9569143690972230  0.5656889392121922
  0.8105462617148920  0.3732423200911502  0.7879101531502172
  0.6849214226352729  0.2890005117426395  0.2561817605507683
  0.1869319062055862  0.4565182227212130  0.5656754413878203
  0.0573119666574572  0.8663079553267192  0.1667514342063496
  0.1851987165405596  0.2883622839575028  0.6108613272362501
  0.0626811954540146  0.2069559762279230  0.5657404619157714
  0.3111857185659401  0.2078774323537982  0.6995631196331776
  0.5632472303226493  0.5417036351184337  0.8753478984275002
  0.0617810187743993  0.7068411471269477  0.5656115324006971
  0.6856980994178311  0.6229189493469719  0.7879371027371725
  0.3154126583574144  0.5381583004696474  0.3894042465695461
  0.1863124624761787  0.6220228763724696  0.5215075050489006
  0.5622786841232461  0.8704707986028358  0.4343619769390266
  0.4370452192093225  0.4563676250329827  0.5658846032830305
  0.4397942385961798  0.2912359956117846  0.7439951985944662
  0.8180221797774573  0.8740650818531487  0.3005099576121548
  0.8102196436512955  0.7032950324283391  0.3451745454407097
  0.4413136536183166  0.4615935867755984  0.8330297907633035
  0.6880603107538215  0.9555259092897479  0.4784491921081415
  0.6857724174522295  0.4576364043166644  0.6996528276088254
  0.5625557245339989  0.8723577341630849  0.5214832774752721
  0.5654522201451876  0.3743280186944932  0.6547883667157035
  0.8155018647863730  0.8745685343630965  0.6549325042995747
  0.8118109397053159  0.3712061549053347  0.4343030275005161
  0.8097325831649452  0.5384386681284492  0.2562625455395994
  0.6908748663022860  0.4616727786259273  0.8328804372154759
  0.1857388094579549  0.7866768562410591  0.1243160250878173
  0.6901871225981793  0.2873130394467636  0.3892866428662710
  0.3154933077762138  0.3742800276028531  0.6547860824075383
  0.3106469717087658  0.2038919963856572  0.3452497511736886
  0.8147070553733394  0.5404100373354372  0.7439870254009618
  0.6909485326836590  0.9617297488869417  0.8329535057534557
  0.5652254840640323  0.8746277883533099  0.6549124583158197
  0.3114008941512026  0.7069215674006971  0.5657271532143751
  0.3118234249729488  0.5341708943620574  0.1243759113264051
  0.6888704588946699  0.9549172229191086  0.2120951934282384
  0.3114366880741109  0.2063856231391167  0.5657244624717040
  0.1864671296959950  0.9559271663086458  0.4785087679673838
  0.6875606076478191  0.9570255387911180  0.5656703380272167
  0.4345171989469448  0.7883274590460021  0.6107724393225227
  0.6821933496318435  0.6134569386572285  0.1668307532772652
  0.3176920186888589  0.8730087655943863  0.3003699166004758
  0.3119310748975882  0.7049016152126778  0.4782667787923690
  0.9346739192322410  0.2878837003891615  0.6107876301490098
  0.4429839612762053  0.6235924627177913  0.3005135009285214
  0.8073821414181860  0.8650772696097571  0.1671304030014388
  0.5653976198518000  0.2034756516681125  0.2120678149765609
  0.9336154684018112  0.6144084195973775  0.1668469940534190
  0.4375458853216545  0.9557064113765773  0.4783224795067034
  0.5612062209132552  0.3726387865458083  0.7880399670150696
  0.0619284212006869  0.3728037030528281  0.5213552137162870
  0.3074611184445602  0.3658489860934951  0.1668491384138778
  0.6932476500382567  0.1233289053967955  0.3005091260623610
  0.4414829868632998  0.9612903860704580  0.8331095891873065
  0.1843458714095285  0.2853251004206393  0.1245989183053831
  0.1849732768467134  0.2884885310624937  0.2562464241423656
  0.3127588249285658  0.3709333973422662  0.4343725479124698
  0.5617812665236872  0.0330928644048298  0.1245871209076284
  0.4346002200061890  0.2885452152428987  0.6107973996434917
  0.1855053404517581  0.4533237613003966  0.3451733760237722
  0.4348552669915271  0.2855084117412908  0.1246346622016152
  0.6846208320832986  0.7885454779559060  0.2560994600241563
  0.4366671011344836  0.1224200385976979  0.5214664116717040
  0.1889377483952966  0.2936520731211243  0.8754646236438857
  0.1902788113780735  0.1245934953772624  0.6548519870020704
  0.9404034264371449  0.1242056040378033  0.6549013579814534
  0.8152312988464349  0.5372790528202567  0.3892951677340052
  0.0656932092050333  0.0378390809936303  0.3893675713521610
  0.1831248103992993  0.1130081581843791  0.1667463302330062
  0.0598274030699128  0.5385643062530084  0.6108378203771817
  0.9352697270641430  0.2888900496928627  0.2560707740454433
  0.5591319941171091  0.5381965602199326  0.6108064040310112
  0.9369042034790814  0.9558071351969684  0.5657592584771745
  0.6923458210324571  0.6242610519698385  0.3004973910555266
  0.9375515773476025  0.6199945555712674  0.4345202210963264
  0.9344801998540272  0.6238231774058569  0.7879061471390120
  0.5609208604198612  0.7073799592386661  0.6996550173718148
  0.0655680701025761  0.7132227047694109  0.8330237261075548
  0.9432494211426929  0.1232108495979781  0.3004473644777435
  0.9348224779507209  0.7884538221054549  0.6108848014762717
  0.4348995204207656  0.7886014773902298  0.2561273998789165
  0.3115116736376199  0.3724388701321531  0.7879619651784052
  0.4398191229044852  0.4556703296513077  0.2120887278058573
  0.1870460612698469  0.1215894570033856  0.5214617952165175
  0.8107362733184561  0.7076678638063107  0.6996308564724716
  0.0595426964737086  0.0382782648059407  0.6107936327725145
  0.5654784677954071  0.2120792002711047  0.8329057437168642
  0.3107009462614912  0.8723623286247034  0.5215850094156573
  0.6861670589747383  0.2855547858341295  0.1243733805859520
  0.1894215301135191  0.9551458942119416  0.2121202552908601
  0.6838634646978820  0.2884923975187775  0.6108779168352512
  0.3096810773786380  0.0384685754199530  0.6108806146188370
  0.9346534366624751  0.1237341500068695  0.7879739986075618
  0.4378429268750662  0.7939131791986034  0.8754889538716586
  0.8145182336543919  0.0403988482732840  0.7439689415223751
  0.9356144948157689  0.4577000323182072  0.6996311672750186
  0.1903594234772178  0.6247598752352240  0.6548745580653812
  0.3110836462983889  0.7074653130408933  0.6996042229914649
  0.9338887239608046  0.2850727424239355  0.1244588854727063
  0.4374916846237565  0.4546854143978659  0.4781604915795158
  0.0620668858702328  0.7052671733760600  0.4784063331620266
  0.9372317675291499  0.1198425407131370  0.4347191875803812
  0.4428342878875851  0.1235480347172958  0.3006180760150351
  0.1877831790117699  0.1206574009912254  0.4343349506435096
  0.5631940897928621  0.0416552808956939  0.8754513830390509
  0.1863650058152371  0.9570139088856513  0.5655826797862072
  0.6842865282382768  0.7863691551278519  0.1248758062404816
  0.5603748005446938  0.7026621458299231  0.3451962053375717
  0.3158149148891317  0.0371882656731332  0.3893441699799435
  0.6833124651367255  0.1150373407630994  0.1670424929270320
  0.8143483065733326  0.2043828889815046  0.2119222223935532
  0.0607505763026146  0.5389065799030673  0.2560885789635222
  0.5627953547624749  0.7051333508325417  0.4782038445431358
  0.4342581404889675  0.7858200488104045  0.1244549552518953
  0.5673118478524740  0.3740994318259635  0.3005236354534471
  0.4351671740124292  0.9532303822728200  0.3451834085778155
  0.1857173363802883  0.9578297332043105  0.6996369381312942
  0.4330853917109263  0.6151725940327840  0.1666827786506219
  0.9392548632599285  0.4553115605275917  0.2122538863243610
  0.0612557915798003  0.5329156418279462  0.1243865268589746
  0.8115645583439219  0.3725915514939911  0.5213762888410710
  0.9431902184366558  0.6242129506375873  0.3003053128679182
  0.3100778149249789  0.0375361429864865  0.2559464190972668
  0.6844142143927813  0.7884879052279876  0.6108294886040969
  0.1913645459778972  0.4618625183404217  0.8329812537578363
  0.4329562784384852  0.1131114072571215  0.1668580924545336
  0.3111226964515325  0.3718870592693374  0.5213779457836883
  0.4357968695394290  0.6226025962320232  0.7882019151048882
  0.0598582379700932  0.0377246315815939  0.2560685696217238
  0.5619899612976492  0.7067293091087778  0.5658215438117304
  0.9392661143968778  0.2900135439685830  0.7440256308753239
  0.6849786657679471  0.1231612917140886  0.7879955211866596
  0.1888803863049073  0.4554342053488677  0.2119391747617745
  0.9402997807331438  0.7875916469252372  0.3892535608284638
  0.6858800505279365  0.2945991918993482  0.8753942063284662
  0.5560771969954315  0.8651986307803550  0.1668385913575431
  0.4360042603495621  0.4577837254964975  0.6996294421213208
  0.0647412346682554  0.0412879412954897  0.8753574437606447
  0.6867075821661571  0.6218832240410475  0.5213583071727831
  0.0651571444114989  0.8746598525581475  0.6548508578540542
  0.0601336346115958  0.8727439587528192  0.7879671516207968
  0.0653689201660618  0.3742439218911576  0.6549092564180150
  0.6870383958443019  0.4548759921523273  0.4782584132389993
  0.1854785720129064  0.7885482257075529  0.2560122649820546
  0.4370341373766822  0.1213029603967857  0.4343029416349248
  0.8125693264254175  0.0332636611757367  0.1244866605472739
  0.9368366841715642  0.6225166938398206  0.5214300675759891
  0.4404924163893073  0.1247829327471214  0.6547735147633935
  0.8118859547976346  0.5320304743122516  0.1243870878434653
  0.4353766043044515  0.4530566025822470  0.3452680444353633
  0.8107264618454786  0.2026376028899915  0.3453064821323254
  0.3104242571062845  0.7022603203676696  0.3451387447470641
  0.6901795344593196  0.1246585500380843  0.6549280931755460
  0.5675339016745200  0.8731415156666883  0.3005778300444431
  0.0645090193716394  0.5405455770616586  0.7439162428347321
  0.9400620888306326  0.9550273805855667  0.2119253840266845
  0.8152662109332270  0.7049377717598271  0.2120300078801249
  0.0675186941769143  0.8735922623822053  0.3005929519757772
  0.1928148765490398  0.1237710530521771  0.3005127136009205
  0.0603826736515329  0.7032839031943311  0.3451302278417319
  0.8097968170416253  0.0382889943616627  0.6107978496476945
  0.0632529607541321  0.3709679347242643  0.4343659065790146
  0.5602355661610395  0.2036266055526878  0.3452347034009564
  0.8177859533982608  0.3744743312591873  0.3004591958335167
  0.5604409087170461  0.0384134993905736  0.2559930467181644
  0.5652578560916427  0.5374140561651377  0.3893625248118923
  0.0628658915282912  0.2059234767577533  0.4783000794390777
  0.3111349238497460  0.8719639876475213  0.7879618693608518
  0.9356258967651679  0.9578440460592910  0.6995943588364144
  0.0680416200902858  0.3749003059749842  0.3005871539257453
  0.6902246147886192  0.6245257838707031  0.6549525329295428
  0.6867219395470221  0.4562569403792408  0.5656690312055274
  0.4393251546007872  0.9551584655537686  0.2123422718864648
  0.3120026088363411  0.2055965836343902  0.4783394027204069
  0.8125582935020157  0.5414942952885038  0.8752867892930425
  0.6875600450918269  0.6203334103530380  0.4343393357947388
  0.8109880636741876  0.2074233762911430  0.6996257899701366
  0.8122065372377475  0.7056182672924391  0.4783920076785901
  0.8116404861451009  0.8713578168575624  0.4342791690571206
  0.9370971724239312  0.9542369323035859  0.4784427619107485
  0.5626858858197646  0.2054727073008193  0.4783442826880016
  0.1871726035275109  0.6202453257045110  0.4342392135213804
  0.3147894030135439  0.0407727508566353  0.7439739884142783
  0.9402765209604325  0.6250518005440974  0.6548641500967258
  0.5656585499479255  0.7116743659469870  0.8328811559970951
  0.3178932180467041  0.3739082800671455  0.3005790776725789
  0.5641989060795894  0.7046851889546456  0.2120732001944027
  0.1870664609698147  0.4549460005318668  0.4783157990056097
  0.3147486850277339  0.0415542105939169  0.8754400845891749
  0.1858904846351572  0.4579416385181152  0.6996148245035694
  0.5620614463197213  0.3716659131224275  0.5213651562382253
  0.1908540470185145  0.2880702718527448  0.3893929755464535
  0.3147879640894986  0.2045294772973456  0.2118858959582179
  0.0657862940609576  0.7053486841676766  0.2119528843484849
  0.5617086028205016  0.3710989662856949  0.4343850849431247
  0.4366895333112170  0.6219391397780022  0.5213622912684707
  0.8160795061303331  0.7131874188460260  0.8328157763354083
  0.0606751159534678  0.3728233290222215  0.7879684740044606
  0.4377570163448811  0.2938846838748803  0.8755644888105042
  0.3109880518821957  0.0317652542768358  0.1243233004262900
  0.6878808311652341  0.1201164558896525  0.4342988580361591
  0.1851190981067643  0.9524773248188569  0.3452690839917669
  0.0657767267340428  0.2134467808140421  0.8330229446053314
  0.5594124912565174  0.0386990733064339  0.6108197268186988
  0.6886976284821027  0.4553305104849041  0.2122072188782705
  0.1898674171587219  0.7902218155833001  0.7439271944208414
  0.1927449146028599  0.6237385521230573  0.3004723263028879
  0.4402038334694166  0.7873308833194117  0.3894373791046376
  0.4349725626069757  0.2892294459629379  0.2561349649138435
  0.0649183504183969  0.5410793055089599  0.8752945951020771
  0.5656958961672054  0.0406129984117043  0.7439806464032157
  0.1890385941559575  0.7939022127859721  0.8754480255569600
  0.9373776561912714  0.4546468151670231  0.4783219809424047
  0.5652075384043679  0.5407856455659065  0.7439515422439290
  0.8107249317428640  0.2067596893080698  0.5658115360719006
  0.1858697372200999  0.6223163587068814  0.7879696342085843
  0.0665223550482664  0.5380227582708688  0.3894125893791949
  0.0610190059331828  0.7077592944698819  0.6995810961824359
  0.3093463585073210  0.5390799420763848  0.2559851142557295
  0.3149579910579179  0.7047699855084217  0.2125612925357374
  0.3060868521415675  0.8654193820446419  0.1662728293634810
  0.4369475990778690  0.6203724913903793  0.4342786716953420
  0.8164484015034154  0.0380916041048245  0.3895428512028704
  0.9366080868450261  0.2935538746398802  0.8753551996709912
  0.9371014027180763  0.7937251728295112  0.8752577289623590
  0.9353659405795364  0.9524179046796178  0.3450976869455764
  0.5623147329441048  0.5321409139104123  0.1247420290219289
  0.8058132660784763  0.3663517884539264  0.1664073348046442
  0.0626905317945962  0.8710631778373721  0.4343803674778177
  0.9370099694438548  0.1211369284564576  0.5212405838811576
  0.1919741141506043  0.7868456247798958  0.3892844398984113
  0.3154219385586937  0.5407653685159959  0.7439484908362674
 
  0.00000000E+00  0.00000000E+00  0.00000000E+00
  0.00000000E+00  0.00000000E+00  0.00000000E+00
  0.00000000E+00  0.00000000E+00  0.00000000E+00
  0.00000000E+00  0.00000000E+00  0.00000000E+00
  0.00000000E+00  0.00000000E+00  0.00000000E+00
  0.00000000E+00  0.00000000E+00  0.00000000E+00
  0.00000000E+00  0.00000000E+00  0.00000000E+00
  0.00000000E+00  0.00000000E+00  0.00000000E+00
  0.00000000E+00  0.00000000E+00  0.00000000E+00
  0.00000000E+00  0.00000000E+00  0.00000000E+00
  0.00000000E+00  0.00000000E+00  0.00000000E+00
  0.00000000E+00  0.00000000E+00  0.00000000E+00
  0.00000000E+00  0.00000000E+00  0.00000000E+00
  0.00000000E+00  0.00000000E+00  0.00000000E+00
  0.00000000E+00  0.00000000E+00  0.00000000E+00
  0.00000000E+00  0.00000000E+00  0.00000000E+00
  0.00000000E+00  0.00000000E+00  0.00000000E+00
  0.00000000E+00  0.00000000E+00  0.00000000E+00
  0.00000000E+00  0.00000000E+00  0.00000000E+00
  0.00000000E+00  0.00000000E+00  0.00000000E+00
  0.00000000E+00  0.00000000E+00  0.00000000E+00
  0.00000000E+00  0.00000000E+00  0.00000000E+00
  0.00000000E+00  0.00000000E+00  0.00000000E+00
  0.00000000E+00  0.00000000E+00  0.00000000E+00
  0.00000000E+00  0.00000000E+00  0.00000000E+00
  0.00000000E+00  0.00000000E+00  0.00000000E+00
  0.00000000E+00  0.00000000E+00  0.00000000E+00
  0.00000000E+00  0.00000000E+00  0.00000000E+00
  0.00000000E+00  0.00000000E+00  0.00000000E+00
  0.00000000E+00  0.00000000E+00  0.00000000E+00
  0.00000000E+00  0.00000000E+00  0.00000000E+00
  0.00000000E+00  0.00000000E+00  0.00000000E+00
  0.00000000E+00  0.00000000E+00  0.00000000E+00
  0.00000000E+00  0.00000000E+00  0.00000000E+00
  0.00000000E+00  0.00000000E+00  0.00000000E+00
  0.00000000E+00  0.00000000E+00  0.00000000E+00
  0.00000000E+00  0.00000000E+00  0.00000000E+00
  0.00000000E+00  0.00000000E+00  0.00000000E+00
  0.00000000E+00  0.00000000E+00  0.00000000E+00
  0.00000000E+00  0.00000000E+00  0.00000000E+00
  0.00000000E+00  0.00000000E+00  0.00000000E+00
  0.00000000E+00  0.00000000E+00  0.00000000E+00
  0.00000000E+00  0.00000000E+00  0.00000000E+00
  0.00000000E+00  0.00000000E+00  0.00000000E+00
  0.00000000E+00  0.00000000E+00  0.00000000E+00
  0.00000000E+00  0.00000000E+00  0.00000000E+00
  0.00000000E+00  0.00000000E+00  0.00000000E+00
  0.00000000E+00  0.00000000E+00  0.00000000E+00
  0.00000000E+00  0.00000000E+00  0.00000000E+00
  0.00000000E+00  0.00000000E+00  0.00000000E+00
  0.00000000E+00  0.00000000E+00  0.00000000E+00
  0.00000000E+00  0.00000000E+00  0.00000000E+00
  0.00000000E+00  0.00000000E+00  0.00000000E+00
  0.00000000E+00  0.00000000E+00  0.00000000E+00
  0.00000000E+00  0.00000000E+00  0.00000000E+00
  0.00000000E+00  0.00000000E+00  0.00000000E+00
  0.00000000E+00  0.00000000E+00  0.00000000E+00
  0.00000000E+00  0.00000000E+00  0.00000000E+00
  0.00000000E+00  0.00000000E+00  0.00000000E+00
  0.00000000E+00  0.00000000E+00  0.00000000E+00
  0.00000000E+00  0.00000000E+00  0.00000000E+00
  0.00000000E+00  0.00000000E+00  0.00000000E+00
  0.00000000E+00  0.00000000E+00  0.00000000E+00
  0.00000000E+00  0.00000000E+00  0.00000000E+00
  0.00000000E+00  0.00000000E+00  0.00000000E+00
  0.00000000E+00  0.00000000E+00  0.00000000E+00
  0.00000000E+00  0.00000000E+00  0.00000000E+00
  0.00000000E+00  0.00000000E+00  0.00000000E+00
  0.00000000E+00  0.00000000E+00  0.00000000E+00
  0.00000000E+00  0.00000000E+00  0.00000000E+00
  0.00000000E+00  0.00000000E+00  0.00000000E+00
  0.00000000E+00  0.00000000E+00  0.00000000E+00
  0.00000000E+00  0.00000000E+00  0.00000000E+00
  0.00000000E+00  0.00000000E+00  0.00000000E+00
  0.00000000E+00  0.00000000E+00  0.00000000E+00
  0.00000000E+00  0.00000000E+00  0.00000000E+00
  0.00000000E+00  0.00000000E+00  0.00000000E+00
  0.00000000E+00  0.00000000E+00  0.00000000E+00
  0.00000000E+00  0.00000000E+00  0.00000000E+00
  0.00000000E+00  0.00000000E+00  0.00000000E+00
  0.00000000E+00  0.00000000E+00  0.00000000E+00
  0.00000000E+00  0.00000000E+00  0.00000000E+00
  0.00000000E+00  0.00000000E+00  0.00000000E+00
  0.00000000E+00  0.00000000E+00  0.00000000E+00
  0.00000000E+00  0.00000000E+00  0.00000000E+00
  0.00000000E+00  0.00000000E+00  0.00000000E+00
  0.00000000E+00  0.00000000E+00  0.00000000E+00
  0.00000000E+00  0.00000000E+00  0.00000000E+00
  0.00000000E+00  0.00000000E+00  0.00000000E+00
  0.00000000E+00  0.00000000E+00  0.00000000E+00
  0.00000000E+00  0.00000000E+00  0.00000000E+00
  0.00000000E+00  0.00000000E+00  0.00000000E+00
  0.00000000E+00  0.00000000E+00  0.00000000E+00
  0.00000000E+00  0.00000000E+00  0.00000000E+00
  0.00000000E+00  0.00000000E+00  0.00000000E+00
  0.00000000E+00  0.00000000E+00  0.00000000E+00
  0.00000000E+00  0.00000000E+00  0.00000000E+00
  0.00000000E+00  0.00000000E+00  0.00000000E+00
  0.00000000E+00  0.00000000E+00  0.00000000E+00
  0.00000000E+00  0.00000000E+00  0.00000000E+00
  0.00000000E+00  0.00000000E+00  0.00000000E+00
  0.00000000E+00  0.00000000E+00  0.00000000E+00
  0.00000000E+00  0.00000000E+00  0.00000000E+00
  0.00000000E+00  0.00000000E+00  0.00000000E+00
  0.00000000E+00  0.00000000E+00  0.00000000E+00
  0.00000000E+00  0.00000000E+00  0.00000000E+00
  0.00000000E+00  0.00000000E+00  0.00000000E+00
  0.00000000E+00  0.00000000E+00  0.00000000E+00
  0.00000000E+00  0.00000000E+00  0.00000000E+00
  0.00000000E+00  0.00000000E+00  0.00000000E+00
  0.00000000E+00  0.00000000E+00  0.00000000E+00
  0.00000000E+00  0.00000000E+00  0.00000000E+00
  0.00000000E+00  0.00000000E+00  0.00000000E+00
  0.00000000E+00  0.00000000E+00  0.00000000E+00
  0.00000000E+00  0.00000000E+00  0.00000000E+00
  0.00000000E+00  0.00000000E+00  0.00000000E+00
  0.00000000E+00  0.00000000E+00  0.00000000E+00
  0.00000000E+00  0.00000000E+00  0.00000000E+00
  0.00000000E+00  0.00000000E+00  0.00000000E+00
  0.00000000E+00  0.00000000E+00  0.00000000E+00
  0.00000000E+00  0.00000000E+00  0.00000000E+00
  0.00000000E+00  0.00000000E+00  0.00000000E+00
  0.00000000E+00  0.00000000E+00  0.00000000E+00
  0.00000000E+00  0.00000000E+00  0.00000000E+00
  0.00000000E+00  0.00000000E+00  0.00000000E+00
  0.00000000E+00  0.00000000E+00  0.00000000E+00
  0.00000000E+00  0.00000000E+00  0.00000000E+00
  0.00000000E+00  0.00000000E+00  0.00000000E+00
  0.00000000E+00  0.00000000E+00  0.00000000E+00
  0.00000000E+00  0.00000000E+00  0.00000000E+00
  0.00000000E+00  0.00000000E+00  0.00000000E+00
  0.00000000E+00  0.00000000E+00  0.00000000E+00
  0.00000000E+00  0.00000000E+00  0.00000000E+00
  0.00000000E+00  0.00000000E+00  0.00000000E+00
  0.00000000E+00  0.00000000E+00  0.00000000E+00
  0.00000000E+00  0.00000000E+00  0.00000000E+00
  0.00000000E+00  0.00000000E+00  0.00000000E+00
  0.00000000E+00  0.00000000E+00  0.00000000E+00
  0.00000000E+00  0.00000000E+00  0.00000000E+00
  0.00000000E+00  0.00000000E+00  0.00000000E+00
  0.00000000E+00  0.00000000E+00  0.00000000E+00
  0.00000000E+00  0.00000000E+00  0.00000000E+00
  0.00000000E+00  0.00000000E+00  0.00000000E+00
  0.00000000E+00  0.00000000E+00  0.00000000E+00
  0.00000000E+00  0.00000000E+00  0.00000000E+00
  0.00000000E+00  0.00000000E+00  0.00000000E+00
  0.00000000E+00  0.00000000E+00  0.00000000E+00
  0.00000000E+00  0.00000000E+00  0.00000000E+00
  0.00000000E+00  0.00000000E+00  0.00000000E+00
  0.00000000E+00  0.00000000E+00  0.00000000E+00
  0.00000000E+00  0.00000000E+00  0.00000000E+00
  0.00000000E+00  0.00000000E+00  0.00000000E+00
  0.00000000E+00  0.00000000E+00  0.00000000E+00
  0.00000000E+00  0.00000000E+00  0.00000000E+00
  0.00000000E+00  0.00000000E+00  0.00000000E+00
  0.00000000E+00  0.00000000E+00  0.00000000E+00
  0.00000000E+00  0.00000000E+00  0.00000000E+00
  0.00000000E+00  0.00000000E+00  0.00000000E+00
  0.00000000E+00  0.00000000E+00  0.00000000E+00
  0.00000000E+00  0.00000000E+00  0.00000000E+00
  0.00000000E+00  0.00000000E+00  0.00000000E+00
  0.00000000E+00  0.00000000E+00  0.00000000E+00
  0.00000000E+00  0.00000000E+00  0.00000000E+00
  0.00000000E+00  0.00000000E+00  0.00000000E+00
  0.00000000E+00  0.00000000E+00  0.00000000E+00
  0.00000000E+00  0.00000000E+00  0.00000000E+00
  0.00000000E+00  0.00000000E+00  0.00000000E+00
  0.00000000E+00  0.00000000E+00  0.00000000E+00
  0.00000000E+00  0.00000000E+00  0.00000000E+00
  0.00000000E+00  0.00000000E+00  0.00000000E+00
  0.00000000E+00  0.00000000E+00  0.00000000E+00
  0.00000000E+00  0.00000000E+00  0.00000000E+00
  0.00000000E+00  0.00000000E+00  0.00000000E+00
  0.00000000E+00  0.00000000E+00  0.00000000E+00
  0.00000000E+00  0.00000000E+00  0.00000000E+00
  0.00000000E+00  0.00000000E+00  0.00000000E+00
  0.00000000E+00  0.00000000E+00  0.00000000E+00
  0.00000000E+00  0.00000000E+00  0.00000000E+00
  0.00000000E+00  0.00000000E+00  0.00000000E+00
  0.00000000E+00  0.00000000E+00  0.00000000E+00
  0.00000000E+00  0.00000000E+00  0.00000000E+00
  0.00000000E+00  0.00000000E+00  0.00000000E+00
  0.00000000E+00  0.00000000E+00  0.00000000E+00
  0.00000000E+00  0.00000000E+00  0.00000000E+00
  0.00000000E+00  0.00000000E+00  0.00000000E+00
  0.00000000E+00  0.00000000E+00  0.00000000E+00
  0.00000000E+00  0.00000000E+00  0.00000000E+00
  0.00000000E+00  0.00000000E+00  0.00000000E+00
  0.00000000E+00  0.00000000E+00  0.00000000E+00
  0.00000000E+00  0.00000000E+00  0.00000000E+00
  0.00000000E+00  0.00000000E+00  0.00000000E+00
  0.00000000E+00  0.00000000E+00  0.00000000E+00
  0.00000000E+00  0.00000000E+00  0.00000000E+00
  0.00000000E+00  0.00000000E+00  0.00000000E+00
  0.00000000E+00  0.00000000E+00  0.00000000E+00
  0.00000000E+00  0.00000000E+00  0.00000000E+00
  0.00000000E+00  0.00000000E+00  0.00000000E+00
  0.00000000E+00  0.00000000E+00  0.00000000E+00
  0.00000000E+00  0.00000000E+00  0.00000000E+00
  0.00000000E+00  0.00000000E+00  0.00000000E+00
  0.00000000E+00  0.00000000E+00  0.00000000E+00
  0.00000000E+00  0.00000000E+00  0.00000000E+00
  0.00000000E+00  0.00000000E+00  0.00000000E+00
  0.00000000E+00  0.00000000E+00  0.00000000E+00
  0.00000000E+00  0.00000000E+00  0.00000000E+00
  0.00000000E+00  0.00000000E+00  0.00000000E+00
  0.00000000E+00  0.00000000E+00  0.00000000E+00
  0.00000000E+00  0.00000000E+00  0.00000000E+00
  0.00000000E+00  0.00000000E+00  0.00000000E+00
  0.00000000E+00  0.00000000E+00  0.00000000E+00
  0.00000000E+00  0.00000000E+00  0.00000000E+00
  0.00000000E+00  0.00000000E+00  0.00000000E+00
  0.00000000E+00  0.00000000E+00  0.00000000E+00
  0.00000000E+00  0.00000000E+00  0.00000000E+00
  0.00000000E+00  0.00000000E+00  0.00000000E+00
  0.00000000E+00  0.00000000E+00  0.00000000E+00
  0.00000000E+00  0.00000000E+00  0.00000000E+00
  0.00000000E+00  0.00000000E+00  0.00000000E+00
  0.00000000E+00  0.00000000E+00  0.00000000E+00
  0.00000000E+00  0.00000000E+00  0.00000000E+00
  0.00000000E+00  0.00000000E+00  0.00000000E+00
  0.00000000E+00  0.00000000E+00  0.00000000E+00
  0.00000000E+00  0.00000000E+00  0.00000000E+00
  0.00000000E+00  0.00000000E+00  0.00000000E+00
  0.00000000E+00  0.00000000E+00  0.00000000E+00
  0.00000000E+00  0.00000000E+00  0.00000000E+00
  0.00000000E+00  0.00000000E+00  0.00000000E+00
  0.00000000E+00  0.00000000E+00  0.00000000E+00
  0.00000000E+00  0.00000000E+00  0.00000000E+00
  0.00000000E+00  0.00000000E+00  0.00000000E+00
  0.00000000E+00  0.00000000E+00  0.00000000E+00
  0.00000000E+00  0.00000000E+00  0.00000000E+00
  0.00000000E+00  0.00000000E+00  0.00000000E+00
  0.00000000E+00  0.00000000E+00  0.00000000E+00
  0.00000000E+00  0.00000000E+00  0.00000000E+00
  0.00000000E+00  0.00000000E+00  0.00000000E+00
  0.00000000E+00  0.00000000E+00  0.00000000E+00
  0.00000000E+00  0.00000000E+00  0.00000000E+00
  0.00000000E+00  0.00000000E+00  0.00000000E+00
  0.00000000E+00  0.00000000E+00  0.00000000E+00
  0.00000000E+00  0.00000000E+00  0.00000000E+00
  0.00000000E+00  0.00000000E+00  0.00000000E+00
  0.00000000E+00  0.00000000E+00  0.00000000E+00
  0.00000000E+00  0.00000000E+00  0.00000000E+00
  0.00000000E+00  0.00000000E+00  0.00000000E+00
  0.00000000E+00  0.00000000E+00  0.00000000E+00
  0.00000000E+00  0.00000000E+00  0.00000000E+00