FeMn_288_15                             
    1.000000000000000     
     9.7266779999999997    0.0000000000000000    0.0000000000000000
     0.0000000000000000    8.4235500000000005    0.0000000000000000
     0.0000000000000000    0.0000000000000000   45.0000000000000000
   Fe   Mn
   273    15
Direct
  0.4372824050668060  0.9482485501596845  0.2125177878043250
  0.0624847546486315  0.7070667402619899  0.5654287271426479
  0.4371124457190114  0.1129900563452689  0.1676509793832169
  0.6865188517207911  0.6295777984590045  0.7873158055923245
  0.9379169865636705  0.6207502726582019  0.4346009479670873
  0.6880189815951515  0.2858797918903857  0.3899057516517813
  0.8124518740965361  0.5463503664855980  0.7431395805880473
  0.9376403183167472  0.2919344423965818  0.6101310394430445
  0.5625127588041496  0.5307549902359310  0.1255209705591752
  0.4373576863547134  0.2924295254225422  0.6102172841529462
  0.9378883930375294  0.6224217759587819  0.5214985119364858
  0.0625163258538841  0.0352793526234394  0.3897983575642146
  0.8131002768572129  0.3730305375631423  0.5214999968799138
  0.0624186626468491  0.3799785220184087  0.7874628289874545
  0.8124542154782248  0.2116187273733548  0.6988317815767794
  0.1878585351692582  0.6291984897419816  0.7873234938900683
  0.0623033981291798  0.5317703739040712  0.2568772142920854
  0.6867743284896547  0.2983380359673773  0.8746537964796716
  0.0628236352126416  0.0463898805255156  0.7431488736369316
  0.9373004671008535  0.9616260639543737  0.6987568851366267
  0.8126175879071815  0.7114724189115739  0.6988575329071686
  0.1876777975130296  0.6208081106340152  0.4347071387611032
  0.9373195106766586  0.9507959056493773  0.3458006460988643
  0.3127344709961176  0.1985337587477550  0.2126535891348798
  0.4371632938074006  0.6206821647946160  0.4345451970559585
  0.9372400866374071  0.4570458830389330  0.5653502918222257
  0.4378531927249637  0.4573135311179669  0.5653536436185218
  0.1876483999471103  0.1223990113412826  0.5214163642514965
  0.0625813678477743  0.2145069018351214  0.8326400382752143
  0.5624522829674562  0.5314627514965526  0.2568119273432822
  0.3121432827309436  0.3799534910763626  0.7874624222270012
  0.1875439003496081  0.7961684628182946  0.7431502850179385
  0.9378977474518000  0.9471077610839621  0.2127673748118048
  0.4375343192009671  0.2854947364286503  0.3897643547577300
  0.8124176713520911  0.6978083815313966  0.2126136519335797
  0.6875845373772300  0.1272951009789875  0.6542359302229844
  0.0626446703497911  0.3663673566643485  0.3011452625303211
  0.0624830016257883  0.7005341713529067  0.3457091375850331
  0.0623517570707145  0.2118826886547085  0.6989057409151923
  0.9376274416068893  0.9642419638048945  0.8325335558406265
  0.8124106655164702  0.2008596004744575  0.3456954767037042
  0.0621889297178811  0.5467339613239064  0.8746213806444063
  0.9377284580991866  0.1164868757244713  0.3012413800447476
  0.8125301636205594  0.5356080262828709  0.3897937034175699
  0.6879478071860682  0.6157673500306245  0.3011653474737858
  0.5625533493182950  0.8707111595131365  0.4345918504518420
  0.6867239178679623  0.7983788418409566  0.8744504659675794
  0.4373941342005019  0.6273727586429780  0.6543141256373808
  0.4377551584461197  0.6298073346398055  0.7874001997564795
  0.3126034652705396  0.3704382595621494  0.4346383417660450
  0.0624426584257357  0.3729850578658249  0.5214384749486586
  0.6874601607208959  0.1222269339803972  0.5214236355473195
  0.9371510684448333  0.2819024317141513  0.2568633496856797
  0.0626069363509561  0.5354708476623080  0.3898595481574025
  0.5626365129899190  0.2147319837450872  0.8323034298308475
  0.9379148947624164  0.7921571502035449  0.6102877999639005
  0.4372251155977542  0.1206129093007719  0.4346122551866280
  0.5626516428853811  0.6982645583350631  0.2125689575991633
  0.8125125361352220  0.3770663566317486  0.6542754482270194
  0.9377386721238008  0.4479727206676601  0.2125800615656902
  0.1882875691837410  0.2790724387576756  0.1255009205087789
  0.0617436135551828  0.3625937425067237  0.1676157984602551
  0.5624872790348817  0.8632210774004367  0.1675939609999135
  0.1877357181477816  0.7796622296792676  0.1253827411938916
  0.9376001577823851  0.7960629395573023  0.7432050873942839
  0.1876088190744509  0.2814586387622305  0.2568233265901235
  0.8127414071300657  0.0423686541730858  0.6102275407201732
  0.5623400653979296  0.0462724814354922  0.7431348194186409
  0.5625362642021192  0.0354765596400784  0.3898303665549026
  0.8121924403671966  0.8627560263166689  0.1676487667022403
  0.3124954626101337  0.3771775418616569  0.6541448885459786
  0.0620808678811023  0.7152282341620447  0.8324277371137051
  0.6872907843837653  0.4647021506417951  0.8321847323303776
  0.6877934073451593  0.1161139990756114  0.3011648351401368
  0.3125856782899783  0.7073508344981146  0.5653909113148428
  0.0628741723864913  0.2077222544134619  0.5653940070568316
  0.8125242076294380  0.3662865241116217  0.3011391231579804
  0.8126896236689137  0.8770773471148086  0.6543322334071330
  0.3124870455811167  0.8774459590165425  0.6542933588794477
  0.6876579954924947  0.1300477797947956  0.7874077464523489
  0.8121762095041214  0.8703196091480369  0.4343889882421379
  0.6876766744259938  0.2956825710648416  0.7431548008908362
  0.9376805406574606  0.6161964941437676  0.3011170851690844
  0.4376201280014679  0.9551766803654808  0.4785861927401668
  0.4372092967765311  0.7976923139452430  0.8744787245112422
  0.8130579391284417  0.7051287116950613  0.4786165573561741
  0.5622784130112222  0.8794489466393207  0.7873535110694297
  0.1873490295841324  0.1203465795802028  0.4345885107961026
  0.8122892156622402  0.3803535337131104  0.7874241633307091
  0.0624057299674378  0.8774953007943351  0.6541346760337611
  0.6872660243504642  0.4545934976291769  0.4785683072141023
  0.4370855108462028  0.7925792864033294  0.6102142725436703
  0.4374494700300613  0.2956351626491555  0.7431416254857424
  0.3123546730781357  0.8791718345835846  0.7874159058725817
  0.6878506368968973  0.1129396733673394  0.1675158785714286
  0.1877262820102088  0.2925665834160592  0.6101729901307689
  0.5625666566373264  0.8772380986180252  0.6543490023483890
  0.1882056674341307  0.7978515408454743  0.8745554608445979
  0.3124821445716940  0.2000839364739338  0.3456964947201538
  0.3122458312579902  0.5319011570112249  0.2568547659259192
  0.5626917001467551  0.2053669753145501  0.4785408241386503
  0.3128079227452392  0.8660437387585730  0.3011910637439308
  0.3122587778733280  0.2146787573967635  0.8324281137310285
  0.4374466010172506  0.9573439789880244  0.5653259577471759
  0.5627412950382276  0.2114504207129615  0.6988801875704356
  0.3123092767610241  0.0476576348755732  0.8746891065945451
  0.1871587367127947  0.2957413271537070  0.7432626288117753
  0.5624766418268810  0.7008228612142823  0.3457427012024617
  0.6868248094477195  0.2798683446220627  0.1254389215379193
  0.0631003489410982  0.2055761836288531  0.4785897799930805
  0.4375021563061740  0.2800624037078355  0.1254319212462277
  0.5622827754688073  0.7075692462233437  0.5653704651112489
  0.5624508736584064  0.3660417879598237  0.3011210654004394
  0.5621464895253648  0.7055311442568203  0.4786360234138379
  0.5624940294860749  0.5474576528917027  0.8745204888087734
  0.1871052088601055  0.2856532701521516  0.3898579849537266
  0.8127559656292364  0.7072735369355195  0.5654436163245024
  0.4375712122385865  0.9506758156329308  0.3458091480587207
  0.3128474247925762  0.7147059472928393  0.8322532195399479
  0.5623170833572214  0.5355149280612260  0.3897747073403135
  0.0623451162704445  0.7048971668348237  0.4785617339496384
  0.9371866728334243  0.4553327878984990  0.4785817762339565
  0.5621117365682207  0.3631815750595075  0.1677372566590127
  0.9379917473804806  0.7796370415932490  0.1253557463230406
  0.1875942834060266  0.4573084454616419  0.5653376506109590
  0.3127107270752841  0.6980704360060983  0.2125337718211674
  0.8125722728956016  0.5312552138139450  0.2568253085647377
  0.5626429285462151  0.0423476423135282  0.6101497023678677
  0.3124459450980677  0.5304445378892122  0.1254891980435603
  0.9375914257889144  0.4651748393588605  0.8324757532152933
  0.1878222589975536  0.9504149083577172  0.3457426240529410
  0.4372403079551788  0.4503952445791750  0.3456452336402940
  0.3121797777820843  0.0317413923612234  0.2568072157983569
  0.3124303810996835  0.0355506717518316  0.3898484670804422
  0.8120995871034513  0.0460702876903439  0.7431160389424479
  0.9371385533895008  0.7821828591931980  0.2567518034477468
  0.5626974244101135  0.7111300052755950  0.6988816253580871
  0.5625044010741322  0.8662279220055726  0.3011223935347386
  0.6871784870979790  0.6129475706781882  0.1678007043981499
  0.6875847220998277  0.7819512979646284  0.2567893771872388
  0.3123161765308021  0.8630543626787389  0.1676837547293788
  0.5621221161429802  0.3726929517585856  0.5214514407920380
  0.1871764604798778  0.9647832868389473  0.8325392116814322
  0.6871701870126590  0.4484850429782524  0.2127100553191515
  0.6871321265294102  0.9509872555990025  0.3456492091230646
  0.0624138813615280  0.5310937370737483  0.1254245262056745
  0.4372793509573703  0.4616113787125684  0.6989751002604808
  0.0625531115215878  0.5426146060494534  0.6102353450232320
  0.3124565152534660  0.7116414184158940  0.6988484638281091
  0.8119382832107993  0.2056275802914079  0.4785678369117846
  0.8117559278800772  0.8729945619590391  0.5214970992252003
  0.3125725209813583  0.0423813108266164  0.6101405618096933
  0.5624406633298348  0.3704314322223773  0.4345479199355271
  0.4370611181726459  0.1296988365947205  0.7874982043832869
  0.6871840345075040  0.9607471895419096  0.6988346474075755
  0.0633530811743687  0.0477051714481103  0.8747081604126273
  0.6877008480628638  0.7921394448331962  0.6101465463634155
  0.6872848841404262  0.4508790548781302  0.3456673869636145
  0.0623360589443109  0.8792541102383387  0.7873827298414365
  0.8121969654122757  0.5424236112554613  0.6101631626669265
  0.0626174973007192  0.0318110485135161  0.2568706193720825
  0.4378930803742298  0.4552245235176325  0.4785417395920580
  0.3129250025032947  0.0459950549545599  0.7431037693915797
  0.3123023372988353  0.5472531168647716  0.8745749920672922
  0.1880077056869043  0.4485402780617292  0.2127298955510054
  0.4374139141958220  0.4484789911825358  0.2125052680162813
  0.1875851506415450  0.9619624104485600  0.6988092860001049
  0.8129450811314913  0.7152877827390216  0.8324465802821948
  0.6871690777396976  0.2814152285547654  0.2567665150170702
  0.3127877370017678  0.5353292349842955  0.3898321948022345
  0.9377299343101239  0.2957618833445986  0.7432416369449846
  0.0630493118251651  0.8723730595018903  0.5214315068685291
  0.1878760938643751  0.4647327757227178  0.8322758281446480
  0.0622814500608128  0.7121235679224192  0.6987807593924783
  0.9377851156415826  0.9571712497412093  0.5651345866945479
  0.4378533025286531  0.9615474469650985  0.6987646769853070
  0.5623947522642783  0.3770626558190856  0.6543142820022837
  0.5626429264211628  0.0477570027015648  0.8745482175703773
  0.5624248485264561  0.7146292801568231  0.8321709478777919
  0.8125298939786542  0.8795479476311013  0.7873881980340184
  0.5624067079951488  0.2071884720815249  0.5651908434792721
  0.6874732997508887  0.4616681807504209  0.6989347258937494
  0.8126979940502296  0.5313603847774443  0.1254617649686144
  0.3125630419221872  0.7051912907227905  0.4785573942755266
  0.9376642391498595  0.4626186857422190  0.6988316319965130
  0.0621903712783603  0.0421309859620133  0.6100998091848487
  0.9377504476337750  0.1202174677118792  0.4349757269668100
  0.4375299031667066  0.6162519652352180  0.3010950734236880
  0.4378121660776079  0.9648663743894491  0.8322645708745202
  0.9376775124334735  0.6271870686427997  0.6543094855565814
  0.6874419183469724  0.9574650802032939  0.5655264269667813
  0.4376185983643304  0.2815229594478028  0.2568619305460039
  0.5627073555029506  0.5461807561882280  0.7431756640820687
  0.8125737303567687  0.3705547690142118  0.4344243887623328
  0.4377676532380243  0.7851008839545350  0.3898925581848244
  0.5626718176347676  0.5426416840453744  0.6101866789115438
  0.6873092085081988  0.7853348413830442  0.3897743662910965
  0.1873767788061041  0.7926181748230189  0.6101707480619279
  0.8125769825542865  0.1980131998440487  0.2125552987005457
  0.1879471224726485  0.2978467500468656  0.8747483753017248
  0.3126744871722522  0.5431603333503736  0.6101382885260211
  0.5625569661755335  0.3802807558553544  0.7875127723852277
  0.3123265805057202  0.7007379615469971  0.3457866389644569
  0.4375470089367995  0.7818232248232485  0.2569520448602438
  0.4371296098914182  0.6224271150897923  0.5215178901827160
  0.9372996849480160  0.6124677813097968  0.1674554636656111
  0.8114192135983106  0.0302446027389661  0.1253745998494498
  0.9376378773235354  0.2859948582268422  0.3896859102563081
  0.3126886168939467  0.3661971465509947  0.3011567760754720
  0.6873735972048137  0.7802274590126256  0.1253470864749976
  0.1877639197628727  0.6227811921294775  0.5214949193899379
  0.8125853796183093  0.5467989878123725  0.8746180094463173
  0.6875153811323044  0.6269494070075773  0.6542090272915041
  0.0624708733693257  0.8660482284227913  0.3011401944964153
  0.6875933875521021  0.7964950314850929  0.7430397416168528
  0.1875884383200264  0.6272779963636516  0.6542962896226810
  0.8124828802320543  0.8661529682720122  0.3011085201618087
  0.0624117736619713  0.2004336982296001  0.3456603505801927
  0.5627478278902750  0.0300407630595053  0.1253261357352020
  0.3126145515145962  0.5459558961812906  0.7430754155268103
  0.3123213773729083  0.0301421566361505  0.1253785270843704
  0.0624599551308791  0.1983660235333446  0.2125795484632965
  0.9368316687643227  0.2979469501696235  0.8747206188290976
  0.0626081412074092  0.6976782008078857  0.2125858227949056
  0.8115017158383180  0.0475211937078167  0.8746265140607538
  0.4377171427242658  0.1274569859971158  0.6542170594760168
  0.9373325972997872  0.7854922053953598  0.3897990208096550
  0.4371873142496128  0.1226147739671112  0.5213919995640671
  0.1874275340930073  0.9574538089172683  0.5654700446818318
  0.9370638868438089  0.6296608690674822  0.7874026756216487
  0.8123426990704116  0.0319839249993404  0.2568657644707217
  0.1875822049287571  0.4623336089132198  0.6987248298313111
  0.1875001315895303  0.6130457772462422  0.1677635704381523
  0.4371557298740119  0.7795721208743316  0.1253957468807434
  0.1876435818543579  0.4501364379330260  0.3457999676076107
  0.3125494909345606  0.3726041285694303  0.5214112408366059
  0.0624420907118938  0.8626100622471400  0.1677311722240639
  0.6879692872639398  0.9646926898722896  0.8323658067536084
  0.1878004895650559  0.7854635161278150  0.3897898820849215
  0.5626150852772307  0.1981942420629099  0.2126299163213496
  0.4378575566596304  0.2985829708191804  0.8746104048658164
  0.5628480771176518  0.8730937291363779  0.5215077585183371
  0.1871261869998270  0.6162410136115387  0.3011325271218344
  0.4374445914672269  0.6128863635325688  0.1676635965226027
  0.6873609454048566  0.4571074474752019  0.5653557945338792
  0.4375354697578839  0.7961356279773918  0.7431277477192473
  0.0625809321418958  0.3706453935240137  0.4345435938996296
  0.1874587325330171  0.1274392603918938  0.6542047794373267
  0.1876888009806454  0.9554952707875985  0.4785473816386723
  0.9374701722608688  0.1137605553684809  0.1675082543721425
  0.1878475488869480  0.4552596543395734  0.4785488117755262
  0.0627571653724904  0.3773386844211195  0.6542584372326344
  0.3124272246064180  0.2073375827654050  0.5653422333512390
  0.5625039232992451  0.0317771717323372  0.2568385734703852
  0.3125152215997921  0.8725762726791796  0.5214329243920856
  0.8128027701876790  0.3624342776449758  0.1675815439644523
  0.0635332108519428  0.0302912833733474  0.1254335951294692
  0.1868690268589204  0.1134848033501672  0.1675630426502720
  0.8125300763940126  0.7006413033695934  0.3456861129819695
  0.3123030862167475  0.2054042063224012  0.4785487632952349
  0.4375679152868972  0.4646170886251729  0.8323477289768489
  0.8129367559481034  0.2150370898019199  0.8323874874092665
  0.6877069623699763  0.1205918115208018  0.4345746969083031
  0.0628435621109311  0.8703190865922320  0.4346225910327902
  0.1874121260494120  0.9479064013133839  0.2125585116020618
  0.1874787784224446  0.1159402348236596  0.3010663166095621
  0.9373469161413863  0.1274249784669277  0.6542401147416436
  0.3126875733738686  0.3633576672109828  0.1677557511943522
  0.3126027553298558  0.8707891310065630  0.4347502905299927
  0.5624697460952262  0.2004976252795160  0.3457142977168857
  0.8127184354059773  0.0352638936459732  0.3897839112276713
  0.8122819428460789  0.2075459180892492  0.5654341812130010
  0.6875147402625336  0.9553887043233292  0.4785356132969454
  0.1881748628971548  0.1298384412431110  0.7871793506223589
  0.9377146002461857  0.1227284232716944  0.5213609650770660
  0.9376515928681879  0.2800513841014163  0.1257052937170328
  0.9375264763702165  0.4504716486073729  0.3458077936098033
  0.0622145123567740  0.5462323236816395  0.7431754572119177
  0.9375707077061098  0.9550923383990225  0.4786160194041100
  0.6877482790897186  0.9481195549971944  0.2128122804391775
  0.9362542983824245  0.1303331489230341  0.7870638530323465
  0.6872650848133265  0.6207653991300545  0.4349709425360280
  0.3125914587169545  0.2116160370060672  0.6988065106099810
  0.1872898478567255  0.7818159053803097  0.2567420274250899
  0.6876172557726040  0.2922994917781462  0.6103949301497079
  0.4374694224052369  0.1162700439845658  0.3012063993856261
  0.9371481502530880  0.7970120154729484  0.8743302928145326
  0.6873193582171651  0.6226667067777923  0.5212793301816073
 
  0.00000000E+00  0.00000000E+00  0.00000000E+00
  0.00000000E+00  0.00000000E+00  0.00000000E+00
  0.00000000E+00  0.00000000E+00  0.00000000E+00
  0.00000000E+00  0.00000000E+00  0.00000000E+00
  0.00000000E+00  0.00000000E+00  0.00000000E+00
  0.00000000E+00  0.00000000E+00  0.00000000E+00
  0.00000000E+00  0.00000000E+00  0.00000000E+00
  0.00000000E+00  0.00000000E+00  0.00000000E+00
  0.00000000E+00  0.00000000E+00  0.00000000E+00
  0.00000000E+00  0.00000000E+00  0.00000000E+00
  0.00000000E+00  0.00000000E+00  0.00000000E+00
  0.00000000E+00  0.00000000E+00  0.00000000E+00
  0.00000000E+00  0.00000000E+00  0.00000000E+00
  0.00000000E+00  0.00000000E+00  0.00000000E+00
  0.00000000E+00  0.00000000E+00  0.00000000E+00
  0.00000000E+00  0.00000000E+00  0.00000000E+00
  0.00000000E+00  0.00000000E+00  0.00000000E+00
  0.00000000E+00  0.00000000E+00  0.00000000E+00
  0.00000000E+00  0.00000000E+00  0.00000000E+00
  0.00000000E+00  0.00000000E+00  0.00000000E+00
  0.00000000E+00  0.00000000E+00  0.00000000E+00
  0.00000000E+00  0.00000000E+00  0.00000000E+00
  0.00000000E+00  0.00000000E+00  0.00000000E+00
  0.00000000E+00  0.00000000E+00  0.00000000E+00
  0.00000000E+00  0.00000000E+00  0.00000000E+00
  0.00000000E+00  0.00000000E+00  0.00000000E+00
  0.00000000E+00  0.00000000E+00  0.00000000E+00
  0.00000000E+00  0.00000000E+00  0.00000000E+00
  0.00000000E+00  0.00000000E+00  0.00000000E+00
  0.00000000E+00  0.00000000E+00  0.00000000E+00
  0.00000000E+00  0.00000000E+00  0.00000000E+00
  0.00000000E+00  0.00000000E+00  0.00000000E+00
  0.00000000E+00  0.00000000E+00  0.00000000E+00
  0.00000000E+00  0.00000000E+00  0.00000000E+00
  0.00000000E+00  0.00000000E+00  0.00000000E+00
  0.00000000E+00  0.00000000E+00  0.00000000E+00
  0.00000000E+00  0.00000000E+00  0.00000000E+00
  0.00000000E+00  0.00000000E+00  0.00000000E+00
  0.00000000E+00  0.00000000E+00  0.00000000E+00
  0.00000000E+00  0.00000000E+00  0.00000000E+00
  0.00000000E+00  0.00000000E+00  0.00000000E+00
  0.00000000E+00  0.00000000E+00  0.00000000E+00
  0.00000000E+00  0.00000000E+00  0.00000000E+00
  0.00000000E+00  0.00000000E+00  0.00000000E+00
  0.00000000E+00  0.00000000E+00  0.00000000E+00
  0.00000000E+00  0.00000000E+00  0.00000000E+00
  0.00000000E+00  0.00000000E+00  0.00000000E+00
  0.00000000E+00  0.00000000E+00  0.00000000E+00
  0.00000000E+00  0.00000000E+00  0.00000000E+00
  0.00000000E+00  0.00000000E+00  0.00000000E+00
  0.00000000E+00  0.00000000E+00  0.00000000E+00
  0.00000000E+00  0.00000000E+00  0.00000000E+00
  0.00000000E+00  0.00000000E+00  0.00000000E+00
  0.00000000E+00  0.00000000E+00  0.00000000E+00
  0.00000000E+00  0.00000000E+00  0.00000000E+00
  0.00000000E+00  0.00000000E+00  0.00000000E+00
  0.00000000E+00  0.00000000E+00  0.00000000E+00
  0.00000000E+00  0.00000000E+00  0.00000000E+00
  0.00000000E+00  0.00000000E+00  0.00000000E+00
  0.00000000E+00  0.00000000E+00  0.00000000E+00
  0.00000000E+00  0.00000000E+00  0.00000000E+00
  0.00000000E+00  0.00000000E+00  0.00000000E+00
  0.00000000E+00  0.00000000E+00  0.00000000E+00
  0.00000000E+00  0.00000000E+00  0.00000000E+00
  0.00000000E+00  0.00000000E+00  0.00000000E+00
  0.00000000E+00  0.00000000E+00  0.00000000E+00
  0.00000000E+00  0.00000000E+00  0.00000000E+00
  0.00000000E+00  0.00000000E+00  0.00000000E+00
  0.00000000E+00  0.00000000E+00  0.00000000E+00
  0.00000000E+00  0.00000000E+00  0.00000000E+00
  0.00000000E+00  0.00000000E+00  0.00000000E+00
  0.00000000E+00  0.00000000E+00  0.00000000E+00
  0.00000000E+00  0.00000000E+00  0.00000000E+00
  0.00000000E+00  0.00000000E+00  0.00000000E+00
  0.00000000E+00  0.00000000E+00  0.00000000E+00
  0.00000000E+00  0.00000000E+00  0.00000000E+00
  0.00000000E+00  0.00000000E+00  0.00000000E+00
  0.00000000E+00  0.00000000E+00  0.00000000E+00
  0.00000000E+00  0.00000000E+00  0.00000000E+00
  0.00000000E+00  0.00000000E+00  0.00000000E+00
  0.00000000E+00  0.00000000E+00  0.00000000E+00
  0.00000000E+00  0.00000000E+00  0.00000000E+00
  0.00000000E+00  0.00000000E+00  0.00000000E+00
  0.00000000E+00  0.00000000E+00  0.00000000E+00
  0.00000000E+00  0.00000000E+00  0.00000000E+00
  0.00000000E+00  0.00000000E+00  0.00000000E+00
  0.00000000E+00  0.00000000E+00  0.00000000E+00
  0.00000000E+00  0.00000000E+00  0.00000000E+00
  0.00000000E+00  0.00000000E+00  0.00000000E+00
  0.00000000E+00  0.00000000E+00  0.00000000E+00
  0.00000000E+00  0.00000000E+00  0.00000000E+00
  0.00000000E+00  0.00000000E+00  0.00000000E+00
  0.00000000E+00  0.00000000E+00  0.00000000E+00
  0.00000000E+00  0.00000000E+00  0.00000000E+00
  0.00000000E+00  0.00000000E+00  0.00000000E+00
  0.00000000E+00  0.00000000E+00  0.00000000E+00
  0.00000000E+00  0.00000000E+00  0.00000000E+00
  0.00000000E+00  0.00000000E+00  0.00000000E+00
  0.00000000E+00  0.00000000E+00  0.00000000E+00
  0.00000000E+00  0.00000000E+00  0.00000000E+00
  0.00000000E+00  0.00000000E+00  0.00000000E+00
  0.00000000E+00  0.00000000E+00  0.00000000E+00
  0.00000000E+00  0.00000000E+00  0.00000000E+00
  0.00000000E+00  0.00000000E+00  0.00000000E+00
  0.00000000E+00  0.00000000E+00  0.00000000E+00
  0.00000000E+00  0.00000000E+00  0.00000000E+00
  0.00000000E+00  0.00000000E+00  0.00000000E+00
  0.00000000E+00  0.00000000E+00  0.00000000E+00
  0.00000000E+00  0.00000000E+00  0.00000000E+00
  0.00000000E+00  0.00000000E+00  0.00000000E+00
  0.00000000E+00  0.00000000E+00  0.00000000E+00
  0.00000000E+00  0.00000000E+00  0.00000000E+00
  0.00000000E+00  0.00000000E+00  0.00000000E+00
  0.00000000E+00  0.00000000E+00  0.00000000E+00
  0.00000000E+00  0.00000000E+00  0.00000000E+00
  0.00000000E+00  0.00000000E+00  0.00000000E+00
  0.00000000E+00  0.00000000E+00  0.00000000E+00
  0.00000000E+00  0.00000000E+00  0.00000000E+00
  0.00000000E+00  0.00000000E+00  0.00000000E+00
  0.00000000E+00  0.00000000E+00  0.00000000E+00
  0.00000000E+00  0.00000000E+00  0.00000000E+00
  0.00000000E+00  0.00000000E+00  0.00000000E+00
  0.00000000E+00  0.00000000E+00  0.00000000E+00
  0.00000000E+00  0.00000000E+00  0.00000000E+00
  0.00000000E+00  0.00000000E+00  0.00000000E+00
  0.00000000E+00  0.00000000E+00  0.00000000E+00
  0.00000000E+00  0.00000000E+00  0.00000000E+00
  0.00000000E+00  0.00000000E+00  0.00000000E+00
  0.00000000E+00  0.00000000E+00  0.00000000E+00
  0.00000000E+00  0.00000000E+00  0.00000000E+00
  0.00000000E+00  0.00000000E+00  0.00000000E+00
  0.00000000E+00  0.00000000E+00  0.00000000E+00
  0.00000000E+00  0.00000000E+00  0.00000000E+00
  0.00000000E+00  0.00000000E+00  0.00000000E+00
  0.00000000E+00  0.00000000E+00  0.00000000E+00
  0.00000000E+00  0.00000000E+00  0.00000000E+00
  0.00000000E+00  0.00000000E+00  0.00000000E+00
  0.00000000E+00  0.00000000E+00  0.00000000E+00
  0.00000000E+00  0.00000000E+00  0.00000000E+00
  0.00000000E+00  0.00000000E+00  0.00000000E+00
  0.00000000E+00  0.00000000E+00  0.00000000E+00
  0.00000000E+00  0.00000000E+00  0.00000000E+00
  0.00000000E+00  0.00000000E+00  0.00000000E+00
  0.00000000E+00  0.00000000E+00  0.00000000E+00
  0.00000000E+00  0.00000000E+00  0.00000000E+00
  0.00000000E+00  0.00000000E+00  0.00000000E+00
  0.00000000E+00  0.00000000E+00  0.00000000E+00
  0.00000000E+00  0.00000000E+00  0.00000000E+00
  0.00000000E+00  0.00000000E+00  0.00000000E+00
  0.00000000E+00  0.00000000E+00  0.00000000E+00
  0.00000000E+00  0.00000000E+00  0.00000000E+00
  0.00000000E+00  0.00000000E+00  0.00000000E+00
  0.00000000E+00  0.00000000E+00  0.00000000E+00
  0.00000000E+00  0.00000000E+00  0.00000000E+00
  0.00000000E+00  0.00000000E+00  0.00000000E+00
  0.00000000E+00  0.00000000E+00  0.00000000E+00
  0.00000000E+00  0.00000000E+00  0.00000000E+00
  0.00000000E+00  0.00000000E+00  0.00000000E+00
  0.00000000E+00  0.00000000E+00  0.00000000E+00
  0.00000000E+00  0.00000000E+00  0.00000000E+00
  0.00000000E+00  0.00000000E+00  0.00000000E+00
  0.00000000E+00  0.00000000E+00  0.00000000E+00
  0.00000000E+00  0.00000000E+00  0.00000000E+00
  0.00000000E+00  0.00000000E+00  0.00000000E+00
  0.00000000E+00  0.00000000E+00  0.00000000E+00
  0.00000000E+00  0.00000000E+00  0.00000000E+00
  0.00000000E+00  0.00000000E+00  0.00000000E+00
  0.00000000E+00  0.00000000E+00  0.00000000E+00
  0.00000000E+00  0.00000000E+00  0.00000000E+00
  0.00000000E+00  0.00000000E+00  0.00000000E+00
  0.00000000E+00  0.00000000E+00  0.00000000E+00
  0.00000000E+00  0.00000000E+00  0.00000000E+00
  0.00000000E+00  0.00000000E+00  0.00000000E+00
  0.00000000E+00  0.00000000E+00  0.00000000E+00
  0.00000000E+00  0.00000000E+00  0.00000000E+00
  0.00000000E+00  0.00000000E+00  0.00000000E+00
  0.00000000E+00  0.00000000E+00  0.00000000E+00
  0.00000000E+00  0.00000000E+00  0.00000000E+00
  0.00000000E+00  0.00000000E+00  0.00000000E+00
  0.00000000E+00  0.00000000E+00  0.00000000E+00
  0.00000000E+00  0.00000000E+00  0.00000000E+00
  0.00000000E+00  0.00000000E+00  0.00000000E+00
  0.00000000E+00  0.00000000E+00  0.00000000E+00
  0.00000000E+00  0.00000000E+00  0.00000000E+00
  0.00000000E+00  0.00000000E+00  0.00000000E+00
  0.00000000E+00  0.00000000E+00  0.00000000E+00
  0.00000000E+00  0.00000000E+00  0.00000000E+00
  0.00000000E+00  0.00000000E+00  0.00000000E+00
  0.00000000E+00  0.00000000E+00  0.00000000E+00
  0.00000000E+00  0.00000000E+00  0.00000000E+00
  0.00000000E+00  0.00000000E+00  0.00000000E+00
  0.00000000E+00  0.00000000E+00  0.00000000E+00
  0.00000000E+00  0.00000000E+00  0.00000000E+00
  0.00000000E+00  0.00000000E+00  0.00000000E+00
  0.00000000E+00  0.00000000E+00  0.00000000E+00
  0.00000000E+00  0.00000000E+00  0.00000000E+00
  0.00000000E+00  0.00000000E+00  0.00000000E+00
  0.00000000E+00  0.00000000E+00  0.00000000E+00
  0.00000000E+00  0.00000000E+00  0.00000000E+00
  0.00000000E+00  0.00000000E+00  0.00000000E+00
  0.00000000E+00  0.00000000E+00  0.00000000E+00
  0.00000000E+00  0.00000000E+00  0.00000000E+00
  0.00000000E+00  0.00000000E+00  0.00000000E+00
  0.00000000E+00  0.00000000E+00  0.00000000E+00
  0.00000000E+00  0.00000000E+00  0.00000000E+00
  0.00000000E+00  0.00000000E+00  0.00000000E+00
  0.00000000E+00  0.00000000E+00  0.00000000E+00
  0.00000000E+00  0.00000000E+00  0.00000000E+00
  0.00000000E+00  0.00000000E+00  0.00000000E+00
  0.00000000E+00  0.00000000E+00  0.00000000E+00
  0.00000000E+00  0.00000000E+00  0.00000000E+00
  0.00000000E+00  0.00000000E+00  0.00000000E+00
  0.00000000E+00  0.00000000E+00  0.00000000E+00
  0.00000000E+00  0.00000000E+00  0.00000000E+00
  0.00000000E+00  0.00000000E+00  0.00000000E+00
  0.00000000E+00  0.00000000E+00  0.00000000E+00
  0.00000000E+00  0.00000000E+00  0.00000000E+00
  0.00000000E+00  0.00000000E+00  0.00000000E+00
  0.00000000E+00  0.00000000E+00  0.00000000E+00
  0.00000000E+00  0.00000000E+00  0.00000000E+00
  0.00000000E+00  0.00000000E+00  0.00000000E+00
  0.00000000E+00  0.00000000E+00  0.00000000E+00
  0.00000000E+00  0.00000000E+00  0.00000000E+00
  0.00000000E+00  0.00000000E+00  0.00000000E+00
  0.00000000E+00  0.00000000E+00  0.00000000E+00
  0.00000000E+00  0.00000000E+00  0.00000000E+00
  0.00000000E+00  0.00000000E+00  0.00000000E+00
  0.00000000E+00  0.00000000E+00  0.00000000E+00
  0.00000000E+00  0.00000000E+00  0.00000000E+00
  0.00000000E+00  0.00000000E+00  0.00000000E+00
  0.00000000E+00  0.00000000E+00  0.00000000E+00
  0.00000000E+00  0.00000000E+00  0.00000000E+00
  0.00000000E+00  0.00000000E+00  0.00000000E+00
  0.00000000E+00  0.00000000E+00  0.00000000E+00
  0.00000000E+00  0.00000000E+00  0.00000000E+00
  0.00000000E+00  0.00000000E+00  0.00000000E+00
  0.00000000E+00  0.00000000E+00  0.00000000E+00
  0.00000000E+00  0.00000000E+00  0.00000000E+00
  0.00000000E+00  0.00000000E+00  0.00000000E+00
  0.00000000E+00  0.00000000E+00  0.00000000E+00
  0.00000000E+00  0.00000000E+00  0.00000000E+00
  0.00000000E+00  0.00000000E+00  0.00000000E+00
  0.00000000E+00  0.00000000E+00  0.00000000E+00
  0.00000000E+00  0.00000000E+00  0.00000000E+00
  0.00000000E+00  0.00000000E+00  0.00000000E+00
  0.00000000E+00  0.00000000E+00  0.00000000E+00
  0.00000000E+00  0.00000000E+00  0.00000000E+00