FeMn_288_15                             
    1.000000000000000     
     9.7266779999999997    0.0000000000000000    0.0000000000000000
     0.0000000000000000    8.4235500000000005    0.0000000000000000
     0.0000000000000000    0.0000000000000000   45.0000000000000000
   Fe   Mn
   273    15
Direct
  0.4366887838111213  0.9459997091440916  0.2123014352846897
  0.0625356051800607  0.7078883136582262  0.5657265607794106
  0.4375021999951791  0.1137901557647430  0.1673040077031523
  0.6870036291424629  0.6320161840364237  0.7876002257632770
  0.9379506914995994  0.6199759241756932  0.4343869946966583
  0.6879158417418333  0.2860978722484786  0.3895399022138512
  0.8122955435111505  0.5474848860778924  0.7434739973594895
  0.9376535595713279  0.2917284505082448  0.6105160100547584
  0.5623026721601654  0.5296623357650280  0.1253883346428097
  0.4373131801818768  0.2922464738789778  0.6106200903634341
  0.9377809292574002  0.6213998645146444  0.5214433856786874
  0.0624315264790797  0.0352770772844296  0.3894001673939688
  0.8140011518119942  0.3733897787699997  0.5215560236834909
  0.0628067274219266  0.3828798751197135  0.7878110320770785
  0.8125259625617490  0.2120071677238974  0.6993715255652289
  0.1884903216860690  0.6316250407518450  0.7875399977195977
  0.0625929552860454  0.5307871475823630  0.2565329385826963
  0.6872939265032507  0.2997566839253817  0.8747326775367634
  0.0626969673393590  0.0473579316402606  0.7434783834028662
  0.9374150517642248  0.9620933677707729  0.6991886602289856
  0.8126235778106345  0.7119663051242427  0.6993408932790811
  0.1878415889515684  0.6200190726122198  0.4344210082990897
  0.9375232069762960  0.9518795665972052  0.3453166761898968
  0.3123087720056095  0.1958005753747500  0.2123054921375551
  0.4373065153483415  0.6198070255710393  0.4342935376324003
  0.9372898342607857  0.4577817564409333  0.5655297869197140
  0.4379023361654520  0.4581143561989374  0.5656319269824527
  0.1874665117131549  0.1227710407318886  0.5213459265330328
  0.0621142294006269  0.2130538403178703  0.8327626948456608
  0.5628242950102972  0.5304387687898037  0.2564775997463346
  0.3125400752949580  0.3827060037660230  0.7877938406611915
  0.1872764609878414  0.7972838186154886  0.7435438759930357
  0.9375226753428081  0.9445967806356338  0.2125762632273504
  0.4374567864835474  0.2855600431821871  0.3894076030082392
  0.8119558340850206  0.6948120349976847  0.2122942512446708
  0.6875746786825856  0.1262622633604586  0.6547270674728464
  0.0623878760870359  0.3658307505303094  0.3006190347821292
  0.0627264965799523  0.7016857155184908  0.3452446521059995
  0.0624095984803430  0.2124651861745570  0.6994002034222924
  0.9369681318769733  0.9633199447376266  0.8327573631070250
  0.8128139893751020  0.2019889764763640  0.3452062076292201
  0.0623533113640748  0.5474942812852738  0.8746923231111201
  0.9374591515526350  0.1162019553896110  0.3007951576033813
  0.8124004981587819  0.5357084728522552  0.3894319168605361
  0.6876375154054742  0.6155371738542164  0.3007252989262461
  0.5627212435803899  0.8700014996019956  0.4342791106621697
  0.6869785758633218  0.8000779889448776  0.8745218269559412
  0.4371984580525374  0.6264803919532563  0.6547840965766737
  0.4382390717141691  0.6323685477579807  0.7876686414284567
  0.3126088904908911  0.3697172324032977  0.4343415077370377
  0.0621780575391839  0.3732700349892308  0.5215077585225305
  0.6874967344577994  0.1216407039044816  0.5213563873811442
  0.9374680211942770  0.2809787381779766  0.2564643721906776
  0.0625845798681440  0.5356103234468975  0.3894513214675082
  0.5621267346250048  0.2138482764430032  0.8327138208160025
  0.9379587566053498  0.7919254077178084  0.6106428198076311
  0.4373437045188232  0.1199810068046592  0.4343840705447500
  0.5621995321203579  0.6953658804174608  0.2122016774259900
  0.8124150677128211  0.3758374252631148  0.6547461384018989
  0.9371894163341650  0.4453309984875528  0.2124221297855719
  0.1881429214207986  0.2774532635663904  0.1254315911954139
  0.0625306039956807  0.3642158961987022  0.1674042084395350
  0.5628195965247137  0.8647057788615035  0.1672931310390736
  0.1874411959236230  0.7781924213399377  0.1252628525924634
  0.9373707113777245  0.7971525598045469  0.7435963455093608
  0.1878402933689778  0.2804108079279432  0.2564808231554593
  0.8126233611222560  0.0423792835813062  0.6105874187319947
  0.5622291790843823  0.0471793641646797  0.7434826797398694
  0.5624016533661628  0.0356013840047247  0.3894553408748515
  0.8126638707517910  0.8640451547866566  0.1674103784042296
  0.3122919604630535  0.3761511580791780  0.6546203774808188
  0.0619097807531469  0.7138427687285067  0.8326255098454041
  0.6867746697979297  0.4639678071269060  0.8326018322860933
  0.6875700446534136  0.1158051641260765  0.3007208350191590
  0.3125916182171740  0.7080835126305376  0.5656917042569555
  0.0629181249129168  0.2084931415310464  0.5656527514313807
  0.8121651787312876  0.3658636267986193  0.3006147457874195
  0.8127114247761161  0.8759458996971411  0.6547695105369004
  0.3123343407167279  0.8765395456867254  0.6547548671476214
  0.6881965845430867  0.1325412269606384  0.7876130956299344
  0.8121959180078173  0.8695331653855488  0.4341309331590067
  0.6873914119081261  0.2965469914023141  0.7434614722657743
  0.9373885589361343  0.6158984883372468  0.3006855003434664
  0.4372542862027022  0.9551278166938244  0.4786258448454399
  0.4375183950526431  0.7990761942113149  0.8745950676706380
  0.8143060193578169  0.7055765178237231  0.4786089523382080
  0.5625440309721403  0.8821570154731159  0.7876952023212849
  0.1873192623164292  0.1196398471344414  0.4343591664370785
  0.8125407556222628  0.3833283261207687  0.7877554367340861
  0.0622320852716468  0.8765405511545690  0.6546288201246184
  0.6866581047569615  0.4546032205550405  0.4785699698047531
  0.4371189997281614  0.7923798940688795  0.6105552762730823
  0.4374724896094521  0.2963493731574435  0.7434735092374311
  0.3126621089381057  0.8817814637830170  0.7878194183106771
  0.6882605311226014  0.1137200820628900  0.1671908506757180
  0.1877523374258772  0.2924992410106924  0.6105498958793990
  0.5624719980088781  0.8760029753060902  0.6547440785647869
  0.1883943844253551  0.7994148182963002  0.8745850754460016
  0.3127334774549274  0.2010270445363275  0.3452592957741548
  0.3125555363814830  0.5309604148975908  0.2565122116601227
  0.5627066058303312  0.2048543246340171  0.4785500684531505
  0.3126842503932354  0.8653570917309076  0.3006779013502354
  0.3119913254199811  0.2136282981828306  0.8327229538187777
  0.4373864853728522  0.9580349177692280  0.5655725224041488
  0.5627651788304183  0.2117905395200542  0.6993924092558529
  0.3123822473195312  0.0487133656489326  0.8747938619399228
  0.1868072501584265  0.2964710067921977  0.7436146221549671
  0.5626080295502659  0.7018872670798898  0.3452772055920514
  0.6865104355272681  0.2781574031647468  0.1253843942294300
  0.0637346167583307  0.2049239802505269  0.4785601715043488
  0.4372438629882214  0.2786074893595940  0.1253827347935700
  0.5623835391883455  0.7083478875481158  0.5656240355217045
  0.5621287638890483  0.3655607282048626  0.3006379256638886
  0.5614013619632096  0.7051606786126396  0.4786661351920151
  0.5625889630677288  0.5487427146990677  0.8747172870553899
  0.1870128531270968  0.2857827750089343  0.3894342362723976
  0.8127785384346724  0.7080226170795288  0.5656930385538462
  0.4378638912976073  0.9517321512368309  0.3452928162809031
  0.3124259408401344  0.7134034506932851  0.8325989243082808
  0.5620125469992763  0.5356279297271910  0.3893852967294393
  0.0615159590486012  0.7054931076909181  0.4785255048211485
  0.9369787682931108  0.4559421632588869  0.4786548562872053
  0.5626065207551807  0.3643881440576863  0.1674241113007522
  0.9376181675058500  0.7779438652928470  0.1253179538870600
  0.1876281255613179  0.4580551791014426  0.5655628591574753
  0.3123133673915805  0.6952655586610806  0.2121100346857398
  0.8129135251394941  0.5302147999439731  0.2564845082081266
  0.5626208103676907  0.0422370330628867  0.6105248876561068
  0.3123965365416326  0.5293508851014749  0.1253316860187554
  0.9369947317607993  0.4645414714687235  0.8327944050655532
  0.1879064049957328  0.9513136582047365  0.3452834854511251
  0.4375331270515410  0.4513848785789395  0.3451836947148029
  0.3122610521615186  0.0310302717600319  0.2564807515018056
  0.3123422729435945  0.0356415694946070  0.3894680131954019
  0.8117601484707762  0.0468771557006693  0.7434684773744352
  0.9375513661472357  0.7810463789050152  0.2563863748895144
  0.5627038978938935  0.7114948570084604  0.6994280575030689
  0.5622952104565450  0.8655872857601381  0.3005943677578260
  0.6875776238812237  0.6139569137047373  0.1674948857698516
  0.6879208405337998  0.7808528646496828  0.2564343457315851
  0.3126568179911876  0.8642106647441404  0.1673087865678345
  0.5620436724818518  0.3732413223512221  0.5214577244090818
  0.1866106953456118  0.9638775304670012  0.8327897840110177
  0.6867522679756589  0.4459548811816137  0.2125233645527315
  0.6875440687581635  0.9521254834950037  0.3451992985462091
  0.0620421871446874  0.5299274903272465  0.1252370443585263
  0.4374243442477556  0.4621392758871125  0.6994501846839783
  0.0625349339755498  0.5427108074600729  0.6106139121768533
  0.3125817085060333  0.7121981174871239  0.6993377804538076
  0.8113947448551763  0.2050506667506287  0.4785412190560478
  0.8105547894593432  0.8727398841515804  0.5214785385154984
  0.3125032229829363  0.0423497644816111  0.6105171482348521
  0.5625835864727801  0.3697456592894039  0.4342730310386332
  0.4377654011754860  0.1319557773725810  0.7877327185796212
  0.6873830609868889  0.9610272573808258  0.6992831464244399
  0.0633569585108324  0.0485074317766323  0.8747848106640556
  0.6877242424639660  0.7918290110979265  0.6105089020368621
  0.6875403895777166  0.4521371304774431  0.3452153647316867
  0.0625782078279803  0.8817034647523576  0.7876370766327832
  0.8120523720611305  0.5422790753610477  0.6105578871475545
  0.0630552144307250  0.0311733987058485  0.2565369085744164
  0.4382091227817161  0.4554268760958051  0.4785499066132751
  0.3128975567741216  0.0467908464068041  0.7434331009463175
  0.3123775963469462  0.5481921015506367  0.8747452369400830
  0.1875431304247127  0.4461451177205375  0.2125230980129138
  0.4370351451659398  0.4457771614996140  0.2122886339438488
  0.1877515979740130  0.9624241533749598  0.6992695194086685
  0.8121646448648550  0.7138151089698445  0.8326995114033996
  0.6875789573230580  0.2801979595819067  0.2563915767671784
  0.3126964626305582  0.5354177751850734  0.3894312999005434
  0.9374971783126618  0.2964926602129543  0.7436100849660013
  0.0635421132484045  0.8722920552315889  0.5213668047825971
  0.1875882059857721  0.4638092473087453  0.8325754767163810
  0.0623331804654435  0.7126091534329114  0.6993370461229939
  0.9378054067868942  0.9580630591351078  0.5654332911480394
  0.4379497519139655  0.9617832994335498  0.6992231547439878
  0.5623148183094192  0.3759730989968041  0.6547572929660264
  0.5626749762616120  0.0488956026098333  0.8747379667289334
  0.5620079252128133  0.7136111689052096  0.8325948533085129
  0.8127781109740456  0.8821847120214078  0.7877434929500926
  0.5622529828537606  0.2077864204864265  0.5654404053178889
  0.6874867559237030  0.4619465904158992  0.6994071395176898
  0.8125518873365045  0.5303442201827211  0.1253159052380728
  0.3128024739304736  0.7053095775193414  0.4785513855356277
  0.9376684678049705  0.4631076731357670  0.6992880617512409
  0.0622584817801213  0.0419524192133877  0.6105487270962389
  0.9378031328620704  0.1194101981220989  0.4347198720885215
  0.4374103422404227  0.6158447152849374  0.3006675701867730
  0.4373083730273135  0.9642815258194947  0.8326015950459305
  0.9374770794199524  0.6262330497067760  0.6548250462547391
  0.6875709956048572  0.9582150096013997  0.5657417717714625
  0.4379083360611575  0.2803875829119458  0.2564658957980433
  0.5626021701440843  0.5471399145066537  0.7435208205991490
  0.8124766499284806  0.3697180956040559  0.4341114159409944
  0.4376271564406504  0.7852070278609936  0.3894721657527598
  0.5627671638747319  0.5425874629188269  0.6105753453322764
  0.6871850783827287  0.7855535233377988  0.3893917873196572
  0.1873808815778513  0.7924727382921508  0.6105669965680219
  0.8121063023144155  0.1953403967664648  0.2122574004996491
  0.1882942256526693  0.2990256895716582  0.8746659507114941
  0.3126678124114415  0.5431667650060119  0.6105742371699183
  0.5629829782151292  0.3830999203327085  0.7879632556249777
  0.3127024442870447  0.7017149454264546  0.3453154216308912
  0.4377036408490518  0.7807622438670502  0.2566333098140156
  0.4373088751188665  0.6223181789880058  0.5214806162944693
  0.9377971991731312  0.6132954429422243  0.1670905238302045
  0.8114029288582494  0.0292156574328160  0.1252783140726506
  0.9374467005229201  0.2862326165062704  0.3893205480491441
  0.3126622416276027  0.3656910367187549  0.3006412647887917
  0.6870252108988218  0.7789782348814341  0.1253261975288154
  0.1879189194907875  0.6218784957182228  0.5215331321332070
  0.8130659339910531  0.5481049925350484  0.8747994199114537
  0.6873851846324970  0.6258261462681660  0.6546739212641769
  0.0621453955503007  0.8655002255072556  0.3006343003100762
  0.6873396532584133  0.7973252272167699  0.7433913862086434
  0.1874843326611042  0.6264919065702537  0.6548036134530422
  0.8121951805867156  0.8656420654806040  0.3005918816237415
  0.0625018739726531  0.2014157932518633  0.3452085567804918
  0.5624638601981574  0.0288539786153477  0.1251985143772106
  0.3124676652545194  0.5469424568323734  0.7434283628389119
  0.3120998046078414  0.0290052083672537  0.1252340613908820
  0.0620641507020830  0.1959374007448433  0.2122872267345908
  0.9372098303025659  0.2995300300329787  0.8746387947514113
  0.0620494863969564  0.6946428768048996  0.2122082209221777
  0.8115968832620440  0.0486283597412310  0.8747268303120052
  0.4375560696368302  0.1264969266197020  0.6546782094598083
  0.9372956127959080  0.7856806471671501  0.3893927824624259
  0.4372597075858832  0.1225449303403228  0.5213544389585089
  0.1873236547750564  0.9582815959303789  0.5657890599815925
  0.9373800344553160  0.6322838540785264  0.7875640190230998
  0.8126861241045664  0.0311447180393023  0.2565345017859474
  0.1877834952925921  0.4628468019496161  0.6992084271586797
  0.1879863135139697  0.6141264634079849  0.1673607108610178
  0.4367849107221700  0.7779508854581074  0.1253788752558604
  0.1879193622361489  0.4511324025859020  0.3452902731011741
  0.3119673217572790  0.3730869283145211  0.5214328843463615
  0.0629857171503992  0.8634780498102987  0.1674125199280954
  0.6872045562700730  0.9644963017833631  0.8326558904408199
  0.1876946201617125  0.7854957373570916  0.3894075214053787
  0.5621944644459995  0.1953688661123051  0.2122541356840947
  0.4380368042781414  0.3002239147891947  0.8746451059454019
  0.5631849073437829  0.8732961858991494  0.5215388895287276
  0.1870304271784400  0.6160352829140447  0.3006557423668832
  0.4378411331084460  0.6137339023705422  0.1672673409577805
  0.6872962626899505  0.4581159778196528  0.5655974246145326
  0.4373355533262595  0.7969028037182188  0.7434962012880825
  0.0627126253447374  0.3698300985751979  0.4341972903184940
  0.1870905160990843  0.1266251983921228  0.6546881066070623
  0.1872559824511641  0.9556345380810669  0.4785257738242561
  0.9380396402520109  0.1145552613466142  0.1672990216482603
  0.1882868605029578  0.4552222694741100  0.4786334362820996
  0.0625896369669708  0.3764516521588407  0.6546950890826790
  0.3124139534740635  0.2081477448495181  0.5656236757565135
  0.5628586319466925  0.0308718863821758  0.2565021169204847
  0.3129486104917944  0.8727599732633267  0.5213955987219818
  0.8129188825149117  0.3638650428432360  0.1673694377187136
  0.0633297614212890  0.0292214050604761  0.1253333154157185
  0.1874425526912273  0.1139638223858063  0.1672986031869231
  0.8128520481131253  0.7018084375696274  0.3452300426176319
  0.3122712451850863  0.2048370014080881  0.4785545169624672
  0.4370498508836308  0.4640047900827443  0.8327925276225712
  0.8123207976186295  0.2141537647847135  0.8326824220556168
  0.6878734503944920  0.1198946516245043  0.4343369492164917
  0.0629020360696236  0.8695387337637469  0.4343843488445465
  0.1868143316179211  0.9452590719848394  0.2123516501724828
  0.1872501714517417  0.1155493243570191  0.3006322824468161
  0.9372423027636922  0.1265293891673377  0.6547332365526713
  0.3131596446488023  0.3645949425980969  0.1674237329949993
  0.3126499343252177  0.8701425267909706  0.4345082563079768
  0.5628284763407015  0.2015425406003971  0.3452662984682564
  0.8125180696746525  0.0352563424800181  0.3893755729782002
  0.8125050263079766  0.2083014440968325  0.5656722743095761
  0.6879802548918388  0.9560521174460450  0.4785902005250949
  0.1888943216610448  0.1323849599018631  0.7873146773076740
  0.9377770955779762  0.1234068883847220  0.5214105126940830
  0.9372787040625550  0.2788145668101288  0.1256489796030446
  0.9378601313992277  0.4520477686585180  0.3453447337985626
  0.0620051051238556  0.5471909545237498  0.7435473506787385
  0.9377364032402531  0.9545225398397748  0.4784927408741699
  0.6872339785707479  0.9452145954112045  0.2126044404399495
  0.9368699991046850  0.1327474950323671  0.7872114381900052
  0.6873440323929116  0.6199992572161979  0.4346992146609371
  0.3126522257718971  0.2121354931627057  0.6994172248506344
  0.1876207718283799  0.7808829202313066  0.2564212818835960
  0.6876319989279125  0.2922980026260794  0.6107714858079023
  0.4372776227926209  0.1158549339219451  0.3007065915280543
  0.9379870199209502  0.7980559515690516  0.8743870689349246
  0.6871763805321492  0.6225769638052276  0.5213589655496740
 
  0.00000000E+00  0.00000000E+00  0.00000000E+00
  0.00000000E+00  0.00000000E+00  0.00000000E+00
  0.00000000E+00  0.00000000E+00  0.00000000E+00
  0.00000000E+00  0.00000000E+00  0.00000000E+00
  0.00000000E+00  0.00000000E+00  0.00000000E+00
  0.00000000E+00  0.00000000E+00  0.00000000E+00
  0.00000000E+00  0.00000000E+00  0.00000000E+00
  0.00000000E+00  0.00000000E+00  0.00000000E+00
  0.00000000E+00  0.00000000E+00  0.00000000E+00
  0.00000000E+00  0.00000000E+00  0.00000000E+00
  0.00000000E+00  0.00000000E+00  0.00000000E+00
  0.00000000E+00  0.00000000E+00  0.00000000E+00
  0.00000000E+00  0.00000000E+00  0.00000000E+00
  0.00000000E+00  0.00000000E+00  0.00000000E+00
  0.00000000E+00  0.00000000E+00  0.00000000E+00
  0.00000000E+00  0.00000000E+00  0.00000000E+00
  0.00000000E+00  0.00000000E+00  0.00000000E+00
  0.00000000E+00  0.00000000E+00  0.00000000E+00
  0.00000000E+00  0.00000000E+00  0.00000000E+00
  0.00000000E+00  0.00000000E+00  0.00000000E+00
  0.00000000E+00  0.00000000E+00  0.00000000E+00
  0.00000000E+00  0.00000000E+00  0.00000000E+00
  0.00000000E+00  0.00000000E+00  0.00000000E+00
  0.00000000E+00  0.00000000E+00  0.00000000E+00
  0.00000000E+00  0.00000000E+00  0.00000000E+00
  0.00000000E+00  0.00000000E+00  0.00000000E+00
  0.00000000E+00  0.00000000E+00  0.00000000E+00
  0.00000000E+00  0.00000000E+00  0.00000000E+00
  0.00000000E+00  0.00000000E+00  0.00000000E+00
  0.00000000E+00  0.00000000E+00  0.00000000E+00
  0.00000000E+00  0.00000000E+00  0.00000000E+00
  0.00000000E+00  0.00000000E+00  0.00000000E+00
  0.00000000E+00  0.00000000E+00  0.00000000E+00
  0.00000000E+00  0.00000000E+00  0.00000000E+00
  0.00000000E+00  0.00000000E+00  0.00000000E+00
  0.00000000E+00  0.00000000E+00  0.00000000E+00
  0.00000000E+00  0.00000000E+00  0.00000000E+00
  0.00000000E+00  0.00000000E+00  0.00000000E+00
  0.00000000E+00  0.00000000E+00  0.00000000E+00
  0.00000000E+00  0.00000000E+00  0.00000000E+00
  0.00000000E+00  0.00000000E+00  0.00000000E+00
  0.00000000E+00  0.00000000E+00  0.00000000E+00
  0.00000000E+00  0.00000000E+00  0.00000000E+00
  0.00000000E+00  0.00000000E+00  0.00000000E+00
  0.00000000E+00  0.00000000E+00  0.00000000E+00
  0.00000000E+00  0.00000000E+00  0.00000000E+00
  0.00000000E+00  0.00000000E+00  0.00000000E+00
  0.00000000E+00  0.00000000E+00  0.00000000E+00
  0.00000000E+00  0.00000000E+00  0.00000000E+00
  0.00000000E+00  0.00000000E+00  0.00000000E+00
  0.00000000E+00  0.00000000E+00  0.00000000E+00
  0.00000000E+00  0.00000000E+00  0.00000000E+00
  0.00000000E+00  0.00000000E+00  0.00000000E+00
  0.00000000E+00  0.00000000E+00  0.00000000E+00
  0.00000000E+00  0.00000000E+00  0.00000000E+00
  0.00000000E+00  0.00000000E+00  0.00000000E+00
  0.00000000E+00  0.00000000E+00  0.00000000E+00
  0.00000000E+00  0.00000000E+00  0.00000000E+00
  0.00000000E+00  0.00000000E+00  0.00000000E+00
  0.00000000E+00  0.00000000E+00  0.00000000E+00
  0.00000000E+00  0.00000000E+00  0.00000000E+00
  0.00000000E+00  0.00000000E+00  0.00000000E+00
  0.00000000E+00  0.00000000E+00  0.00000000E+00
  0.00000000E+00  0.00000000E+00  0.00000000E+00
  0.00000000E+00  0.00000000E+00  0.00000000E+00
  0.00000000E+00  0.00000000E+00  0.00000000E+00
  0.00000000E+00  0.00000000E+00  0.00000000E+00
  0.00000000E+00  0.00000000E+00  0.00000000E+00
  0.00000000E+00  0.00000000E+00  0.00000000E+00
  0.00000000E+00  0.00000000E+00  0.00000000E+00
  0.00000000E+00  0.00000000E+00  0.00000000E+00
  0.00000000E+00  0.00000000E+00  0.00000000E+00
  0.00000000E+00  0.00000000E+00  0.00000000E+00
  0.00000000E+00  0.00000000E+00  0.00000000E+00
  0.00000000E+00  0.00000000E+00  0.00000000E+00
  0.00000000E+00  0.00000000E+00  0.00000000E+00
  0.00000000E+00  0.00000000E+00  0.00000000E+00
  0.00000000E+00  0.00000000E+00  0.00000000E+00
  0.00000000E+00  0.00000000E+00  0.00000000E+00
  0.00000000E+00  0.00000000E+00  0.00000000E+00
  0.00000000E+00  0.00000000E+00  0.00000000E+00
  0.00000000E+00  0.00000000E+00  0.00000000E+00
  0.00000000E+00  0.00000000E+00  0.00000000E+00
  0.00000000E+00  0.00000000E+00  0.00000000E+00
  0.00000000E+00  0.00000000E+00  0.00000000E+00
  0.00000000E+00  0.00000000E+00  0.00000000E+00
  0.00000000E+00  0.00000000E+00  0.00000000E+00
  0.00000000E+00  0.00000000E+00  0.00000000E+00
  0.00000000E+00  0.00000000E+00  0.00000000E+00
  0.00000000E+00  0.00000000E+00  0.00000000E+00
  0.00000000E+00  0.00000000E+00  0.00000000E+00
  0.00000000E+00  0.00000000E+00  0.00000000E+00
  0.00000000E+00  0.00000000E+00  0.00000000E+00
  0.00000000E+00  0.00000000E+00  0.00000000E+00
  0.00000000E+00  0.00000000E+00  0.00000000E+00
  0.00000000E+00  0.00000000E+00  0.00000000E+00
  0.00000000E+00  0.00000000E+00  0.00000000E+00
  0.00000000E+00  0.00000000E+00  0.00000000E+00
  0.00000000E+00  0.00000000E+00  0.00000000E+00
  0.00000000E+00  0.00000000E+00  0.00000000E+00
  0.00000000E+00  0.00000000E+00  0.00000000E+00
  0.00000000E+00  0.00000000E+00  0.00000000E+00
  0.00000000E+00  0.00000000E+00  0.00000000E+00
  0.00000000E+00  0.00000000E+00  0.00000000E+00
  0.00000000E+00  0.00000000E+00  0.00000000E+00
  0.00000000E+00  0.00000000E+00  0.00000000E+00
  0.00000000E+00  0.00000000E+00  0.00000000E+00
  0.00000000E+00  0.00000000E+00  0.00000000E+00
  0.00000000E+00  0.00000000E+00  0.00000000E+00
  0.00000000E+00  0.00000000E+00  0.00000000E+00
  0.00000000E+00  0.00000000E+00  0.00000000E+00
  0.00000000E+00  0.00000000E+00  0.00000000E+00
  0.00000000E+00  0.00000000E+00  0.00000000E+00
  0.00000000E+00  0.00000000E+00  0.00000000E+00
  0.00000000E+00  0.00000000E+00  0.00000000E+00
  0.00000000E+00  0.00000000E+00  0.00000000E+00
  0.00000000E+00  0.00000000E+00  0.00000000E+00
  0.00000000E+00  0.00000000E+00  0.00000000E+00
  0.00000000E+00  0.00000000E+00  0.00000000E+00
  0.00000000E+00  0.00000000E+00  0.00000000E+00
  0.00000000E+00  0.00000000E+00  0.00000000E+00
  0.00000000E+00  0.00000000E+00  0.00000000E+00
  0.00000000E+00  0.00000000E+00  0.00000000E+00
  0.00000000E+00  0.00000000E+00  0.00000000E+00
  0.00000000E+00  0.00000000E+00  0.00000000E+00
  0.00000000E+00  0.00000000E+00  0.00000000E+00
  0.00000000E+00  0.00000000E+00  0.00000000E+00
  0.00000000E+00  0.00000000E+00  0.00000000E+00
  0.00000000E+00  0.00000000E+00  0.00000000E+00
  0.00000000E+00  0.00000000E+00  0.00000000E+00
  0.00000000E+00  0.00000000E+00  0.00000000E+00
  0.00000000E+00  0.00000000E+00  0.00000000E+00
  0.00000000E+00  0.00000000E+00  0.00000000E+00
  0.00000000E+00  0.00000000E+00  0.00000000E+00
  0.00000000E+00  0.00000000E+00  0.00000000E+00
  0.00000000E+00  0.00000000E+00  0.00000000E+00
  0.00000000E+00  0.00000000E+00  0.00000000E+00
  0.00000000E+00  0.00000000E+00  0.00000000E+00
  0.00000000E+00  0.00000000E+00  0.00000000E+00
  0.00000000E+00  0.00000000E+00  0.00000000E+00
  0.00000000E+00  0.00000000E+00  0.00000000E+00
  0.00000000E+00  0.00000000E+00  0.00000000E+00
  0.00000000E+00  0.00000000E+00  0.00000000E+00
  0.00000000E+00  0.00000000E+00  0.00000000E+00
  0.00000000E+00  0.00000000E+00  0.00000000E+00
  0.00000000E+00  0.00000000E+00  0.00000000E+00
  0.00000000E+00  0.00000000E+00  0.00000000E+00
  0.00000000E+00  0.00000000E+00  0.00000000E+00
  0.00000000E+00  0.00000000E+00  0.00000000E+00
  0.00000000E+00  0.00000000E+00  0.00000000E+00
  0.00000000E+00  0.00000000E+00  0.00000000E+00
  0.00000000E+00  0.00000000E+00  0.00000000E+00
  0.00000000E+00  0.00000000E+00  0.00000000E+00
  0.00000000E+00  0.00000000E+00  0.00000000E+00
  0.00000000E+00  0.00000000E+00  0.00000000E+00
  0.00000000E+00  0.00000000E+00  0.00000000E+00
  0.00000000E+00  0.00000000E+00  0.00000000E+00
  0.00000000E+00  0.00000000E+00  0.00000000E+00
  0.00000000E+00  0.00000000E+00  0.00000000E+00
  0.00000000E+00  0.00000000E+00  0.00000000E+00
  0.00000000E+00  0.00000000E+00  0.00000000E+00
  0.00000000E+00  0.00000000E+00  0.00000000E+00
  0.00000000E+00  0.00000000E+00  0.00000000E+00
  0.00000000E+00  0.00000000E+00  0.00000000E+00
  0.00000000E+00  0.00000000E+00  0.00000000E+00
  0.00000000E+00  0.00000000E+00  0.00000000E+00
  0.00000000E+00  0.00000000E+00  0.00000000E+00
  0.00000000E+00  0.00000000E+00  0.00000000E+00
  0.00000000E+00  0.00000000E+00  0.00000000E+00
  0.00000000E+00  0.00000000E+00  0.00000000E+00
  0.00000000E+00  0.00000000E+00  0.00000000E+00
  0.00000000E+00  0.00000000E+00  0.00000000E+00
  0.00000000E+00  0.00000000E+00  0.00000000E+00
  0.00000000E+00  0.00000000E+00  0.00000000E+00
  0.00000000E+00  0.00000000E+00  0.00000000E+00
  0.00000000E+00  0.00000000E+00  0.00000000E+00
  0.00000000E+00  0.00000000E+00  0.00000000E+00
  0.00000000E+00  0.00000000E+00  0.00000000E+00
  0.00000000E+00  0.00000000E+00  0.00000000E+00
  0.00000000E+00  0.00000000E+00  0.00000000E+00
  0.00000000E+00  0.00000000E+00  0.00000000E+00
  0.00000000E+00  0.00000000E+00  0.00000000E+00
  0.00000000E+00  0.00000000E+00  0.00000000E+00
  0.00000000E+00  0.00000000E+00  0.00000000E+00
  0.00000000E+00  0.00000000E+00  0.00000000E+00
  0.00000000E+00  0.00000000E+00  0.00000000E+00
  0.00000000E+00  0.00000000E+00  0.00000000E+00
  0.00000000E+00  0.00000000E+00  0.00000000E+00
  0.00000000E+00  0.00000000E+00  0.00000000E+00
  0.00000000E+00  0.00000000E+00  0.00000000E+00
  0.00000000E+00  0.00000000E+00  0.00000000E+00
  0.00000000E+00  0.00000000E+00  0.00000000E+00
  0.00000000E+00  0.00000000E+00  0.00000000E+00
  0.00000000E+00  0.00000000E+00  0.00000000E+00
  0.00000000E+00  0.00000000E+00  0.00000000E+00
  0.00000000E+00  0.00000000E+00  0.00000000E+00
  0.00000000E+00  0.00000000E+00  0.00000000E+00
  0.00000000E+00  0.00000000E+00  0.00000000E+00
  0.00000000E+00  0.00000000E+00  0.00000000E+00
  0.00000000E+00  0.00000000E+00  0.00000000E+00
  0.00000000E+00  0.00000000E+00  0.00000000E+00
  0.00000000E+00  0.00000000E+00  0.00000000E+00
  0.00000000E+00  0.00000000E+00  0.00000000E+00
  0.00000000E+00  0.00000000E+00  0.00000000E+00
  0.00000000E+00  0.00000000E+00  0.00000000E+00
  0.00000000E+00  0.00000000E+00  0.00000000E+00
  0.00000000E+00  0.00000000E+00  0.00000000E+00
  0.00000000E+00  0.00000000E+00  0.00000000E+00
  0.00000000E+00  0.00000000E+00  0.00000000E+00
  0.00000000E+00  0.00000000E+00  0.00000000E+00
  0.00000000E+00  0.00000000E+00  0.00000000E+00
  0.00000000E+00  0.00000000E+00  0.00000000E+00
  0.00000000E+00  0.00000000E+00  0.00000000E+00
  0.00000000E+00  0.00000000E+00  0.00000000E+00
  0.00000000E+00  0.00000000E+00  0.00000000E+00
  0.00000000E+00  0.00000000E+00  0.00000000E+00
  0.00000000E+00  0.00000000E+00  0.00000000E+00
  0.00000000E+00  0.00000000E+00  0.00000000E+00
  0.00000000E+00  0.00000000E+00  0.00000000E+00
  0.00000000E+00  0.00000000E+00  0.00000000E+00
  0.00000000E+00  0.00000000E+00  0.00000000E+00
  0.00000000E+00  0.00000000E+00  0.00000000E+00
  0.00000000E+00  0.00000000E+00  0.00000000E+00
  0.00000000E+00  0.00000000E+00  0.00000000E+00
  0.00000000E+00  0.00000000E+00  0.00000000E+00
  0.00000000E+00  0.00000000E+00  0.00000000E+00
  0.00000000E+00  0.00000000E+00  0.00000000E+00
  0.00000000E+00  0.00000000E+00  0.00000000E+00
  0.00000000E+00  0.00000000E+00  0.00000000E+00
  0.00000000E+00  0.00000000E+00  0.00000000E+00
  0.00000000E+00  0.00000000E+00  0.00000000E+00
  0.00000000E+00  0.00000000E+00  0.00000000E+00
  0.00000000E+00  0.00000000E+00  0.00000000E+00
  0.00000000E+00  0.00000000E+00  0.00000000E+00
  0.00000000E+00  0.00000000E+00  0.00000000E+00
  0.00000000E+00  0.00000000E+00  0.00000000E+00
  0.00000000E+00  0.00000000E+00  0.00000000E+00
  0.00000000E+00  0.00000000E+00  0.00000000E+00
  0.00000000E+00  0.00000000E+00  0.00000000E+00
  0.00000000E+00  0.00000000E+00  0.00000000E+00
  0.00000000E+00  0.00000000E+00  0.00000000E+00
  0.00000000E+00  0.00000000E+00  0.00000000E+00
  0.00000000E+00  0.00000000E+00  0.00000000E+00
  0.00000000E+00  0.00000000E+00  0.00000000E+00
  0.00000000E+00  0.00000000E+00  0.00000000E+00
  0.00000000E+00  0.00000000E+00  0.00000000E+00
  0.00000000E+00  0.00000000E+00  0.00000000E+00