CuInSe2gb                               
   1.00000000000000     
     9.7266780392896699    0.0000000000000000    0.0000000000000000
     0.0000000000000000    8.4235502764570693    0.0000000000000000
     0.0000000000000000    0.0000000000000000   45.0000000000000000
   Fe   Mn
   281     7
Direct
  0.0576500984899133  0.7006085403066020  0.2112766105336512
  0.3158946864565799  0.7198277406218014  0.8756591066777261
  0.6881511789936361  0.9578746791506717  0.6114014660892636
  0.4381446132216880  0.4577596658650036  0.6113970514878506
  0.4358002954522369  0.2871970106536182  0.2556204681800713
  0.0611031089348680  0.3864914366031710  0.8339966612908886
  0.3113186409595444  0.8867008981350200  0.8340375246265792
  0.4422621164288797  0.6263839090922785  0.7002688575790261
  0.0643954239675146  0.2128682862444449  0.7443864315223319
  0.1823419266815510  0.4518731287380621  0.2113746572457441
  0.5638295012352097  0.2091151285529486  0.4778885740673042
  0.0638908796463060  0.8745201274417267  0.5667765690975319
  0.5653302510916158  0.2194905629828477  0.8755625950527459
  0.8098973809373717  0.5317135865720763  0.1245548631555630
  0.4327495637179735  0.9521799706974778  0.2113147577180639
  0.5639947040478404  0.3745501735876093  0.5667265459851878
  0.8117665771879783  0.0423100844675274  0.3885329974291893
  0.6860488106856487  0.7904903172188362  0.5221398101985220
  0.4388582727550311  0.4590389394244853  0.4778675018454036
  0.4386164547684995  0.9622588291846284  0.7444464544620523
  0.4388214168412030  0.6244101447733410  0.5667895825838390
  0.5673599928941048  0.8764299949314284  0.7001780706773314
  0.3109859864878635  0.0312987429709662  0.1242786676682661
  0.6869693074933446  0.9586327152949865  0.3443914366277576
  0.6882609338999871  0.7796093937841745  0.1245970794657028
  0.0575898469222774  0.3735009935847535  0.2997586271181767
  0.6887440581766506  0.4712756910587445  0.8753828302803902
  0.4327427054657640  0.4519068460628784  0.2113829274342390
  0.8110786607554090  0.3751528416101361  0.4331379793157340
  0.5629742877748990  0.7078192904326890  0.6114674374964868
  0.5629760739535321  0.5412600571775048  0.6556005102239880
  0.9360550228660925  0.1252075806646981  0.4331646979985002
  0.5605257946528583  0.5374354358658953  0.2554081343253228
  0.6867167910623536  0.4584420047276305  0.3441607449664936
  0.1875503550124592  0.6128479548043896  0.1662063306937754
  0.1922562626514727  0.7990687706480933  0.7885679360567359
  0.4424795064647030  0.1263698036046210  0.7003017213411084
  0.9323558610551012  0.6235059021112587  0.2998278933875263
  0.3152204998344554  0.2194572177162648  0.8755901259727377
  0.3137659220338878  0.8745999326866255  0.5667326571178549
  0.8153236938914837  0.2196186931548893  0.8755929719351428
  0.8129098735977320  0.5413340118714277  0.6556384469705918
  0.5604753427044642  0.5300856480825900  0.1244860834031936
  0.5674056911247636  0.0492883780543024  0.7888036986740858
  0.1861401825531129  0.2874701745747521  0.2556002649729138
  0.8109994394306520  0.8756825337505858  0.4330947527038085
  0.5672522122443107  0.3766233673092178  0.7003744414506726
  0.0610302763945547  0.0301381565543227  0.1245269627256238
  0.3128539326629332  0.5411638988601961  0.6555959584048759
  0.5617825145874179  0.2085856648698256  0.3443730186143442
  0.1880349664198334  0.9578295213245565  0.6114018056956466
  0.3074459138736848  0.3737503360908442  0.2998208871649050
  0.4379338906365358  0.7914805773746907  0.6556550115626665
  0.1922899319367102  0.2979912359345983  0.7886799488265767
  0.0639232894709259  0.3643640652094860  0.1660834096145360
  0.6921870033686311  0.6262644697245525  0.7002388990027409
  0.3116577864093143  0.5419658369364873  0.3885149344821864
  0.0652263488128117  0.7195046678461250  0.8757435770200088
  0.9364844500083092  0.6366807688325522  0.8341409782198890
  0.3178971673797347  0.5493469838463682  0.7887962126036978
  0.3072609350677648  0.2004815467289100  0.2112849229038637
  0.0638412324284406  0.7089844609684900  0.4779422117177602
  0.5574448663069952  0.2010803807184164  0.2113369166604371
  0.3140042884785691  0.2133200851617832  0.7443355056754254
  0.0671038334669609  0.3766494385539745  0.7002640856451259
  0.1863549217239965  0.6367515714913583  0.8338884921845173
  0.0673610857291515  0.0488575001635580  0.7888585156560165
  0.4390105407554883  0.1245681600071206  0.5667408602152366
  0.9380809614389543  0.2917007371157839  0.6555292423520451
  0.8070429098287324  0.2006323705592127  0.2112930628538452
  0.9325936739603726  0.9519545314341934  0.2114025770308527
  0.9389759455553598  0.6246637816946199  0.5667568090000349
  0.8110535875277595  0.3864152335051602  0.8340046634737606
  0.1921205976820969  0.6264977071824854  0.7002547174332375
  0.8112525299749997  0.8865304088338551  0.8342013880403638
  0.6882792807085238  0.2914262676932247  0.6556447921917463
  0.3131698650829355  0.2078380323569433  0.6114692254049467
  0.4386219179844036  0.4622920626314616  0.7443239319321384
  0.4368126556341668  0.7920933783732107  0.3886159391616293
  0.6882258394240595  0.9623918735490822  0.7445012923635570
  0.8067939722207003  0.7008591725738544  0.2113870202276894
  0.8129620262425742  0.7076525609698693  0.6113721799385389
  0.4364403426384937  0.7798692131155447  0.1244930257608022
  0.3138327304406608  0.7127259533170321  0.7443460220575794
  0.3175844302425829  0.0491148283165561  0.7888369518642527
  0.8121956619421562  0.5423078417892867  0.3885585468690080
  0.6862379497838277  0.2909295298850545  0.5220960610838448
  0.6924939700036301  0.7992172256877679  0.7887314052016328
  0.1860571628588699  0.7874275577401244  0.2555661923040072
  0.6882126382748655  0.1129646862526934  0.1662911914633337
  0.6885985949103739  0.9590831683534191  0.4778950093795806
  0.9369320770415267  0.9590107051520460  0.3443084526986985
  0.8111596122909990  0.0403579871903720  0.5220799685231813
  0.6855302876382782  0.6250711084264780  0.4331252160246819
  0.4369320285276794  0.4587643575366542  0.3442831477147683
  0.8138982878372628  0.2131504485646615  0.7443348713268518
  0.4392249739860278  0.9715862970313167  0.8754258840431937
  0.5639214692650746  0.8745057035143591  0.5667201779557648
  0.8113599813699064  0.0309551395447598  0.1242328888284292
  0.4327600681672746  0.6236642045821643  0.2998646310165414
  0.8151822635027370  0.7201615240566651  0.8756774860273018
  0.6880408428410711  0.4577678827409590  0.6114147247260570
  0.5609898462078511  0.3866884464802410  0.8339339040887416
  0.8074642882761248  0.3736788414348929  0.2997736863480026
  0.1869496608490734  0.2920582012425168  0.3884988941429074
  0.8169046467450017  0.5490652118314616  0.7889549525229055
  0.1863674756140555  0.7902575253710759  0.5221842309248681
  0.3075357089738381  0.8736139965274643  0.2997180392575682
  0.1824163374546116  0.9514292751972707  0.2113498380531645
  0.1893592607164857  0.4626472312233286  0.7443131556256265
  0.4360955981432180  0.2907600266670811  0.5220825331328738
  0.0618692121595110  0.7086819440832532  0.3443089150105158
  0.1882093109708502  0.7909919579700443  0.6555470057746632
  0.4422642416974800  0.7991820260002975  0.7886005419798341
  0.6855334787736928  0.1251430941039650  0.4331655134081248
  0.9361642008421063  0.7904946167971806  0.5221384835953239
  0.6880955077762492  0.6142737329009025  0.1662906676435551
  0.8120370465766386  0.7084525782754689  0.3443536387088124
  0.9388938111685460  0.4624450809970481  0.7442809636885381
  0.1870951930378919  0.4586306165756059  0.3443073181419241
  0.5676181052953347  0.5489937883835361  0.7888740098110854
  0.5642191789975309  0.3643855669911820  0.1658664846315270
  0.5619117185849578  0.7085459820829486  0.3443423274160856
  0.5576091636275413  0.3736174073531288  0.2998456482450050
  0.1886361063183809  0.4709983240371202  0.8754996350194352
  0.1882900896129052  0.1129807840066320  0.1662231843562033
  0.4422809829497852  0.2985757656470005  0.7886494407226662
  0.6861234415014219  0.7874150206766785  0.2555774373812894
  0.9369863623522284  0.1363821808604141  0.8340094434447595
  0.4386232238299362  0.9588779347904813  0.4778719501206588
  0.5654319871004997  0.7199168458726124  0.8755840063484819
  0.1885510464674817  0.4590205367525664  0.4778659290490846
  0.9358101472580922  0.2793917779596465  0.1247785288196569
  0.3117748039208573  0.0420653553761612  0.3885262596618954
  0.0628973374623484  0.0411025281321592  0.6556309153484481
  0.5611258319049598  0.3747863063369176  0.4331181766570197
  0.6880819853305404  0.4621046065143232  0.7443114573254530
  0.5640579435195923  0.2131404289761390  0.7443523013231935
  0.9424903789686778  0.1269518568556953  0.7002681104879578
  0.5630268098713970  0.0409953406036735  0.6556088095578314
  0.5613541847235508  0.5403680553623028  0.5220668361777244
  0.1824972779646487  0.1231340973102201  0.2996603987719356
  0.4379670870593503  0.1133760800153875  0.1662234489914935
  0.6824452989827160  0.6235588436743222  0.2997810306462933
  0.9326639648732226  0.1231687598686010  0.2996988832618250
  0.8138546948861820  0.3745869385381888  0.5667631632770322
  0.0575767921824060  0.8733846364831034  0.2997679688134045
  0.1888636048859571  0.6244875920324600  0.5668304539029024
  0.9415592157541017  0.7988012287032497  0.7887893782601016
  0.3115348995824384  0.3864834978384299  0.8340139211763296
  0.9392346719218069  0.4712665928430117  0.8754180830304072
  0.4367749329592272  0.6368669774616594  0.8339208586335741
  0.0620410582971247  0.2088362171884935  0.3444088145356454
  0.1886675943263753  0.9711523023137695  0.8754281686180445
  0.9363646209106732  0.7804657347274657  0.1243757369422023
  0.6869760556008979  0.7921192840847608  0.3885561301158137
  0.9379970274296552  0.7913386890858725  0.6556610920983086
  0.9384938825368747  0.1128275000197294  0.1662954146438691
  0.4377898506043714  0.2915068874734131  0.6556606147351728
  0.0576137505216674  0.2004380905197050  0.2114151950832431
  0.6821990346815084  0.9521245378526086  0.2115395023508693
  0.1826318893493475  0.6235586032226185  0.2998037037320297
  0.8171685999623596  0.8764398033148550  0.7002161931770541
  0.9423474239547182  0.6265459905977262  0.7003130652324931
  0.1920315995965054  0.1267593442914297  0.7002615883475604
  0.9388561412203991  0.4589122837232901  0.4779094418991368
  0.8131080091488713  0.2077198537257779  0.6114396414534260
  0.1863504581378286  0.6251284842288487  0.4331306923786204
  0.4325552490805228  0.1233464597296473  0.2997402054009004
  0.6823898232732074  0.1234014597435467  0.2997023353737513
  0.5617432153720374  0.5419412085795325  0.3885692390564988
  0.8118938398861971  0.2087057430078727  0.3444530412889601
  0.4390076953935902  0.4712665225953873  0.8753499090869064
  0.5613647295262182  0.8866044434032917  0.8340928774931734
  0.3137727748151849  0.2090643960311765  0.4778871100085607
  0.1888117760342859  0.9589841447971732  0.4778600428269565
  0.0613322318222451  0.8867053642760753  0.8340993611058424
  0.0613193157111221  0.5404722319467371  0.5221207187904481
  0.9386517499393026  0.9587926661345366  0.4778225886237834
  0.0631090710209074  0.7076991364434082  0.6113820045230215
  0.5610031100459936  0.0409055070214889  0.5221038814483662
  0.6922563895005963  0.2983831405011452  0.7886718010104835
  0.8139924062958674  0.3632453720202931  0.1659749403721777
  0.4359778332486010  0.1250870284984589  0.4331450295420474
  0.0637933512343731  0.2087233864873924  0.4778841333966716
  0.3130686648215281  0.0412857463830335  0.6555880738955882
  0.4361212435181838  0.7903631058357611  0.5220758107390319
  0.1869073076800719  0.1366776321782271  0.8339759280379062
  0.1873647692706531  0.2785643048041805  0.1243933061503759
  0.9369524377781789  0.4588316979650423  0.3442953427922529
  0.5649607362140016  0.8647144411586586  0.1659888965189684
  0.3071860812298658  0.7005233828250282  0.2114213193981680
  0.9383098074778526  0.6134263536003342  0.1662889067778503
  0.1881225290578858  0.4577934928161055  0.6114252452460206
  0.0672349581231579  0.8766583120323733  0.7001647489732843
  0.0630012523944508  0.5411522739604054  0.6556952938938907
  0.3113584964407688  0.5322327512320013  0.1239768412943563
  0.9366960830497972  0.7920030362553537  0.3885348806630882
  0.9420042247625006  0.2982071447828958  0.7887119788581962
  0.1877814463103396  0.2914649081426512  0.6556271673203976
  0.9381202780406619  0.9577775428379600  0.6114693153742491
  0.8139305906847449  0.7130386169659662  0.7444805385232461
  0.6860291910115464  0.2870418933141372  0.2555557320390585
  0.0646600198231706  0.7128237240468172  0.7442984672199452
  0.6819847101574991  0.4515454849329315  0.2114335159994746
  0.8136973938929050  0.2087151720097026  0.4779028254713714
  0.5637172537819368  0.7089920721182821  0.4779574776667584
  0.0638644652904181  0.8642678950478433  0.1659146424281455
  0.9362121743715847  0.2905256909757971  0.5221741774986206
  0.6875991193612493  0.7912365985704444  0.6556620694897285
  0.0610566155632831  0.8751551860542703  0.4331004894220672
  0.0655555129451224  0.2191908418225640  0.8756671326646247
  0.8130077660700715  0.0412345207753308  0.6556040674639481
  0.5613685415400409  0.0300085496163863  0.1245234955249546
  0.3109976040237994  0.3747706226708922  0.4331288199352445
  0.3139777826058960  0.3745532762064830  0.5667039825788019
  0.3137685445338675  0.7089974399705538  0.4778796618303937
  0.0611869070227232  0.0405991073268831  0.5220578510681723
  0.3170785679598096  0.8763083884213051  0.7002515799543678
  0.0607285609856441  0.5376391707505731  0.2554743893154154
  0.6867086175293782  0.1369833760962829  0.8339722554310285
  0.8106559909278326  0.0371829207655698  0.2556810459671039
  0.1865156264265435  0.1251136222454373  0.4331657667996570
  0.6923726309856842  0.1264820524893498  0.7002127749608914
  0.1861200292614944  0.2907004111612789  0.5221137149470088
  0.4354851575858821  0.7869536494899150  0.2556170905814908
  0.8109530051148215  0.5371853257833923  0.2555289641440014
  0.0631004819286597  0.2079355563175379  0.6113941067192363
  0.1866814411870143  0.7919841416017319  0.3885826296770787
  0.3111034505425186  0.5405401057119842  0.5221010715536258
  0.8171829826697427  0.3765814061862531  0.7002672007933711
  0.6866744281697522  0.2920484526073120  0.3885400098635538
  0.1889891449391451  0.1246609509853982  0.5667228360535592
  0.6889305332079829  0.9713163598460665  0.8753757569902031
  0.6888172464937391  0.1246593987791353  0.5667559811200779
  0.4369272700109971  0.9588120997383290  0.3443827931387268
  0.1889794150530414  0.9624757365626977  0.7444374714375291
  0.9356988727819936  0.7870364489370451  0.2557178563345621
  0.5610765514398780  0.8756278953410662  0.4331423316094138
  0.3108987915734002  0.8754944715812523  0.4331526434136429
  0.8111103870518763  0.5401736808782319  0.5220909454848773
  0.9325375410077659  0.4515388457879690  0.2114726958271200
  0.3106006918856689  0.5369296685481317  0.2555710079822311
  0.5616447277397236  0.0420511026035684  0.3885218908961127
  0.9380753958758736  0.4575719846483515  0.6114396786728815
  0.0617712595234044  0.0422296903242267  0.3885816038164019
  0.0617746046499614  0.5421077549057688  0.3885567920293868
  0.4368803560088779  0.2919481605183492  0.3885380034641539
  0.6888152209211886  0.4590340362519955  0.4779564798667002
  0.0640754924183147  0.3746209820385831  0.5667313863056264
  0.5572979259902668  0.7007407368624039  0.2112451497431982
  0.9356869443906838  0.2871516847147930  0.2556856974327500
  0.8169473906570892  0.0488121735315275  0.7888243696034316
  0.1869407003410688  0.9587914688714085  0.3443586299751789
  0.5576370764780679  0.8734560802351899  0.2998100902690405
  0.0612405824909601  0.3752085572346337  0.4331044484862246
  0.3118999896669918  0.7084770211683443  0.3443125150696966
  0.3118041059321091  0.2084210966914562  0.3444243197802633
  0.9388000917479562  0.1247645470177097  0.5667103324965899
  0.4379645481394278  0.9578931163767332  0.6114556099060097
  0.5609742023064175  0.0376512904206834  0.2556124353676328
  0.1879817552417809  0.7802356392081373  0.1245196080726271
  0.0606546470290156  0.0379941333978055  0.2557028203548628
  0.6888957895790255  0.6244870422288773  0.5668348569672541
  0.4380826516888372  0.6130474366084651  0.1661527598256656
  0.3112023839900815  0.0408882211491674  0.5221022995472754
  0.6871183909273392  0.2788952656316166  0.1248204705063316
  0.8136103851701111  0.7089577238887635  0.4779311221030729
  0.4368710917828871  0.1366712745774987  0.8337973622934660
  0.3173299642461810  0.3761108781487998  0.7002329201017514
  0.6870014162050037  0.6370185546673554  0.8339041882832232
  0.5636446120528742  0.7125400550378613  0.7444130604393522
  0.9366617800463657  0.2920960281900129  0.3885380162694558
  0.9390746305314785  0.9708566927024641  0.8754220626329315
  0.5631029672542618  0.2077689959155871  0.6114160057823932
  0.8139633915062848  0.8745957952028722  0.5667725414416612
  0.8076455417094234  0.8735087871557236  0.2997075124362680
  0.3108108386333926  0.0372202003351093  0.2556489737908145
  0.4366833871495673  0.2794033835950789  0.1243789471859814
  0.3129264476494907  0.7077316997046947  0.6114009698859323
  0.4356544889640774  0.6251963789582520  0.4331575055697290
  0.9361043207952475  0.6250628152179230  0.4331859346747824
  0.3150943983082063  0.8631114172303480  0.1656474273072793
  0.0677735473482651  0.5489089840140088  0.7886660900020520
  0.8144633039548720  0.8634817758746093  0.1657233006443141
  0.3140126993023552  0.3634880895215570  0.1655934858863879
  0.9381586111867898  0.9627647723395267  0.7445759769501119
  0.0600938415331617  0.5299557143083123  0.1246590816178136
 
  0.00000000E+00  0.00000000E+00  0.00000000E+00
  0.00000000E+00  0.00000000E+00  0.00000000E+00
  0.00000000E+00  0.00000000E+00  0.00000000E+00
  0.00000000E+00  0.00000000E+00  0.00000000E+00
  0.00000000E+00  0.00000000E+00  0.00000000E+00
  0.00000000E+00  0.00000000E+00  0.00000000E+00
  0.00000000E+00  0.00000000E+00  0.00000000E+00
  0.00000000E+00  0.00000000E+00  0.00000000E+00
  0.00000000E+00  0.00000000E+00  0.00000000E+00
  0.00000000E+00  0.00000000E+00  0.00000000E+00
  0.00000000E+00  0.00000000E+00  0.00000000E+00
  0.00000000E+00  0.00000000E+00  0.00000000E+00
  0.00000000E+00  0.00000000E+00  0.00000000E+00
  0.00000000E+00  0.00000000E+00  0.00000000E+00
  0.00000000E+00  0.00000000E+00  0.00000000E+00
  0.00000000E+00  0.00000000E+00  0.00000000E+00
  0.00000000E+00  0.00000000E+00  0.00000000E+00
  0.00000000E+00  0.00000000E+00  0.00000000E+00
  0.00000000E+00  0.00000000E+00  0.00000000E+00
  0.00000000E+00  0.00000000E+00  0.00000000E+00
  0.00000000E+00  0.00000000E+00  0.00000000E+00
  0.00000000E+00  0.00000000E+00  0.00000000E+00
  0.00000000E+00  0.00000000E+00  0.00000000E+00
  0.00000000E+00  0.00000000E+00  0.00000000E+00
  0.00000000E+00  0.00000000E+00  0.00000000E+00
  0.00000000E+00  0.00000000E+00  0.00000000E+00
  0.00000000E+00  0.00000000E+00  0.00000000E+00
  0.00000000E+00  0.00000000E+00  0.00000000E+00
  0.00000000E+00  0.00000000E+00  0.00000000E+00
  0.00000000E+00  0.00000000E+00  0.00000000E+00
  0.00000000E+00  0.00000000E+00  0.00000000E+00
  0.00000000E+00  0.00000000E+00  0.00000000E+00
  0.00000000E+00  0.00000000E+00  0.00000000E+00
  0.00000000E+00  0.00000000E+00  0.00000000E+00
  0.00000000E+00  0.00000000E+00  0.00000000E+00
  0.00000000E+00  0.00000000E+00  0.00000000E+00
  0.00000000E+00  0.00000000E+00  0.00000000E+00
  0.00000000E+00  0.00000000E+00  0.00000000E+00
  0.00000000E+00  0.00000000E+00  0.00000000E+00
  0.00000000E+00  0.00000000E+00  0.00000000E+00
  0.00000000E+00  0.00000000E+00  0.00000000E+00
  0.00000000E+00  0.00000000E+00  0.00000000E+00
  0.00000000E+00  0.00000000E+00  0.00000000E+00
  0.00000000E+00  0.00000000E+00  0.00000000E+00
  0.00000000E+00  0.00000000E+00  0.00000000E+00
  0.00000000E+00  0.00000000E+00  0.00000000E+00
  0.00000000E+00  0.00000000E+00  0.00000000E+00
  0.00000000E+00  0.00000000E+00  0.00000000E+00
  0.00000000E+00  0.00000000E+00  0.00000000E+00
  0.00000000E+00  0.00000000E+00  0.00000000E+00
  0.00000000E+00  0.00000000E+00  0.00000000E+00
  0.00000000E+00  0.00000000E+00  0.00000000E+00
  0.00000000E+00  0.00000000E+00  0.00000000E+00
  0.00000000E+00  0.00000000E+00  0.00000000E+00
  0.00000000E+00  0.00000000E+00  0.00000000E+00
  0.00000000E+00  0.00000000E+00  0.00000000E+00
  0.00000000E+00  0.00000000E+00  0.00000000E+00
  0.00000000E+00  0.00000000E+00  0.00000000E+00
  0.00000000E+00  0.00000000E+00  0.00000000E+00
  0.00000000E+00  0.00000000E+00  0.00000000E+00
  0.00000000E+00  0.00000000E+00  0.00000000E+00
  0.00000000E+00  0.00000000E+00  0.00000000E+00
  0.00000000E+00  0.00000000E+00  0.00000000E+00
  0.00000000E+00  0.00000000E+00  0.00000000E+00
  0.00000000E+00  0.00000000E+00  0.00000000E+00
  0.00000000E+00  0.00000000E+00  0.00000000E+00
  0.00000000E+00  0.00000000E+00  0.00000000E+00
  0.00000000E+00  0.00000000E+00  0.00000000E+00
  0.00000000E+00  0.00000000E+00  0.00000000E+00
  0.00000000E+00  0.00000000E+00  0.00000000E+00
  0.00000000E+00  0.00000000E+00  0.00000000E+00
  0.00000000E+00  0.00000000E+00  0.00000000E+00
  0.00000000E+00  0.00000000E+00  0.00000000E+00
  0.00000000E+00  0.00000000E+00  0.00000000E+00
  0.00000000E+00  0.00000000E+00  0.00000000E+00
  0.00000000E+00  0.00000000E+00  0.00000000E+00
  0.00000000E+00  0.00000000E+00  0.00000000E+00
  0.00000000E+00  0.00000000E+00  0.00000000E+00
  0.00000000E+00  0.00000000E+00  0.00000000E+00
  0.00000000E+00  0.00000000E+00  0.00000000E+00
  0.00000000E+00  0.00000000E+00  0.00000000E+00
  0.00000000E+00  0.00000000E+00  0.00000000E+00
  0.00000000E+00  0.00000000E+00  0.00000000E+00
  0.00000000E+00  0.00000000E+00  0.00000000E+00
  0.00000000E+00  0.00000000E+00  0.00000000E+00
  0.00000000E+00  0.00000000E+00  0.00000000E+00
  0.00000000E+00  0.00000000E+00  0.00000000E+00
  0.00000000E+00  0.00000000E+00  0.00000000E+00
  0.00000000E+00  0.00000000E+00  0.00000000E+00
  0.00000000E+00  0.00000000E+00  0.00000000E+00
  0.00000000E+00  0.00000000E+00  0.00000000E+00
  0.00000000E+00  0.00000000E+00  0.00000000E+00
  0.00000000E+00  0.00000000E+00  0.00000000E+00
  0.00000000E+00  0.00000000E+00  0.00000000E+00
  0.00000000E+00  0.00000000E+00  0.00000000E+00
  0.00000000E+00  0.00000000E+00  0.00000000E+00
  0.00000000E+00  0.00000000E+00  0.00000000E+00
  0.00000000E+00  0.00000000E+00  0.00000000E+00
  0.00000000E+00  0.00000000E+00  0.00000000E+00
  0.00000000E+00  0.00000000E+00  0.00000000E+00
  0.00000000E+00  0.00000000E+00  0.00000000E+00
  0.00000000E+00  0.00000000E+00  0.00000000E+00
  0.00000000E+00  0.00000000E+00  0.00000000E+00
  0.00000000E+00  0.00000000E+00  0.00000000E+00
  0.00000000E+00  0.00000000E+00  0.00000000E+00
  0.00000000E+00  0.00000000E+00  0.00000000E+00
  0.00000000E+00  0.00000000E+00  0.00000000E+00
  0.00000000E+00  0.00000000E+00  0.00000000E+00
  0.00000000E+00  0.00000000E+00  0.00000000E+00
  0.00000000E+00  0.00000000E+00  0.00000000E+00
  0.00000000E+00  0.00000000E+00  0.00000000E+00
  0.00000000E+00  0.00000000E+00  0.00000000E+00
  0.00000000E+00  0.00000000E+00  0.00000000E+00
  0.00000000E+00  0.00000000E+00  0.00000000E+00
  0.00000000E+00  0.00000000E+00  0.00000000E+00
  0.00000000E+00  0.00000000E+00  0.00000000E+00
  0.00000000E+00  0.00000000E+00  0.00000000E+00
  0.00000000E+00  0.00000000E+00  0.00000000E+00
  0.00000000E+00  0.00000000E+00  0.00000000E+00
  0.00000000E+00  0.00000000E+00  0.00000000E+00
  0.00000000E+00  0.00000000E+00  0.00000000E+00
  0.00000000E+00  0.00000000E+00  0.00000000E+00
  0.00000000E+00  0.00000000E+00  0.00000000E+00
  0.00000000E+00  0.00000000E+00  0.00000000E+00
  0.00000000E+00  0.00000000E+00  0.00000000E+00
  0.00000000E+00  0.00000000E+00  0.00000000E+00
  0.00000000E+00  0.00000000E+00  0.00000000E+00
  0.00000000E+00  0.00000000E+00  0.00000000E+00
  0.00000000E+00  0.00000000E+00  0.00000000E+00
  0.00000000E+00  0.00000000E+00  0.00000000E+00
  0.00000000E+00  0.00000000E+00  0.00000000E+00
  0.00000000E+00  0.00000000E+00  0.00000000E+00
  0.00000000E+00  0.00000000E+00  0.00000000E+00
  0.00000000E+00  0.00000000E+00  0.00000000E+00
  0.00000000E+00  0.00000000E+00  0.00000000E+00
  0.00000000E+00  0.00000000E+00  0.00000000E+00
  0.00000000E+00  0.00000000E+00  0.00000000E+00
  0.00000000E+00  0.00000000E+00  0.00000000E+00
  0.00000000E+00  0.00000000E+00  0.00000000E+00
  0.00000000E+00  0.00000000E+00  0.00000000E+00
  0.00000000E+00  0.00000000E+00  0.00000000E+00
  0.00000000E+00  0.00000000E+00  0.00000000E+00
  0.00000000E+00  0.00000000E+00  0.00000000E+00
  0.00000000E+00  0.00000000E+00  0.00000000E+00
  0.00000000E+00  0.00000000E+00  0.00000000E+00
  0.00000000E+00  0.00000000E+00  0.00000000E+00
  0.00000000E+00  0.00000000E+00  0.00000000E+00
  0.00000000E+00  0.00000000E+00  0.00000000E+00
  0.00000000E+00  0.00000000E+00  0.00000000E+00
  0.00000000E+00  0.00000000E+00  0.00000000E+00
  0.00000000E+00  0.00000000E+00  0.00000000E+00
  0.00000000E+00  0.00000000E+00  0.00000000E+00
  0.00000000E+00  0.00000000E+00  0.00000000E+00
  0.00000000E+00  0.00000000E+00  0.00000000E+00
  0.00000000E+00  0.00000000E+00  0.00000000E+00
  0.00000000E+00  0.00000000E+00  0.00000000E+00
  0.00000000E+00  0.00000000E+00  0.00000000E+00
  0.00000000E+00  0.00000000E+00  0.00000000E+00
  0.00000000E+00  0.00000000E+00  0.00000000E+00
  0.00000000E+00  0.00000000E+00  0.00000000E+00
  0.00000000E+00  0.00000000E+00  0.00000000E+00
  0.00000000E+00  0.00000000E+00  0.00000000E+00
  0.00000000E+00  0.00000000E+00  0.00000000E+00
  0.00000000E+00  0.00000000E+00  0.00000000E+00
  0.00000000E+00  0.00000000E+00  0.00000000E+00
  0.00000000E+00  0.00000000E+00  0.00000000E+00
  0.00000000E+00  0.00000000E+00  0.00000000E+00
  0.00000000E+00  0.00000000E+00  0.00000000E+00
  0.00000000E+00  0.00000000E+00  0.00000000E+00
  0.00000000E+00  0.00000000E+00  0.00000000E+00
  0.00000000E+00  0.00000000E+00  0.00000000E+00
  0.00000000E+00  0.00000000E+00  0.00000000E+00
  0.00000000E+00  0.00000000E+00  0.00000000E+00
  0.00000000E+00  0.00000000E+00  0.00000000E+00
  0.00000000E+00  0.00000000E+00  0.00000000E+00
  0.00000000E+00  0.00000000E+00  0.00000000E+00
  0.00000000E+00  0.00000000E+00  0.00000000E+00
  0.00000000E+00  0.00000000E+00  0.00000000E+00
  0.00000000E+00  0.00000000E+00  0.00000000E+00
  0.00000000E+00  0.00000000E+00  0.00000000E+00
  0.00000000E+00  0.00000000E+00  0.00000000E+00
  0.00000000E+00  0.00000000E+00  0.00000000E+00
  0.00000000E+00  0.00000000E+00  0.00000000E+00
  0.00000000E+00  0.00000000E+00  0.00000000E+00
  0.00000000E+00  0.00000000E+00  0.00000000E+00
  0.00000000E+00  0.00000000E+00  0.00000000E+00
  0.00000000E+00  0.00000000E+00  0.00000000E+00
  0.00000000E+00  0.00000000E+00  0.00000000E+00
  0.00000000E+00  0.00000000E+00  0.00000000E+00
  0.00000000E+00  0.00000000E+00  0.00000000E+00
  0.00000000E+00  0.00000000E+00  0.00000000E+00
  0.00000000E+00  0.00000000E+00  0.00000000E+00
  0.00000000E+00  0.00000000E+00  0.00000000E+00
  0.00000000E+00  0.00000000E+00  0.00000000E+00
  0.00000000E+00  0.00000000E+00  0.00000000E+00
  0.00000000E+00  0.00000000E+00  0.00000000E+00
  0.00000000E+00  0.00000000E+00  0.00000000E+00
  0.00000000E+00  0.00000000E+00  0.00000000E+00
  0.00000000E+00  0.00000000E+00  0.00000000E+00
  0.00000000E+00  0.00000000E+00  0.00000000E+00
  0.00000000E+00  0.00000000E+00  0.00000000E+00
  0.00000000E+00  0.00000000E+00  0.00000000E+00
  0.00000000E+00  0.00000000E+00  0.00000000E+00
  0.00000000E+00  0.00000000E+00  0.00000000E+00
  0.00000000E+00  0.00000000E+00  0.00000000E+00
  0.00000000E+00  0.00000000E+00  0.00000000E+00
  0.00000000E+00  0.00000000E+00  0.00000000E+00
  0.00000000E+00  0.00000000E+00  0.00000000E+00
  0.00000000E+00  0.00000000E+00  0.00000000E+00
  0.00000000E+00  0.00000000E+00  0.00000000E+00
  0.00000000E+00  0.00000000E+00  0.00000000E+00
  0.00000000E+00  0.00000000E+00  0.00000000E+00
  0.00000000E+00  0.00000000E+00  0.00000000E+00
  0.00000000E+00  0.00000000E+00  0.00000000E+00
  0.00000000E+00  0.00000000E+00  0.00000000E+00
  0.00000000E+00  0.00000000E+00  0.00000000E+00
  0.00000000E+00  0.00000000E+00  0.00000000E+00
  0.00000000E+00  0.00000000E+00  0.00000000E+00
  0.00000000E+00  0.00000000E+00  0.00000000E+00
  0.00000000E+00  0.00000000E+00  0.00000000E+00
  0.00000000E+00  0.00000000E+00  0.00000000E+00
  0.00000000E+00  0.00000000E+00  0.00000000E+00
  0.00000000E+00  0.00000000E+00  0.00000000E+00
  0.00000000E+00  0.00000000E+00  0.00000000E+00
  0.00000000E+00  0.00000000E+00  0.00000000E+00
  0.00000000E+00  0.00000000E+00  0.00000000E+00
  0.00000000E+00  0.00000000E+00  0.00000000E+00
  0.00000000E+00  0.00000000E+00  0.00000000E+00
  0.00000000E+00  0.00000000E+00  0.00000000E+00
  0.00000000E+00  0.00000000E+00  0.00000000E+00
  0.00000000E+00  0.00000000E+00  0.00000000E+00
  0.00000000E+00  0.00000000E+00  0.00000000E+00
  0.00000000E+00  0.00000000E+00  0.00000000E+00
  0.00000000E+00  0.00000000E+00  0.00000000E+00
  0.00000000E+00  0.00000000E+00  0.00000000E+00
  0.00000000E+00  0.00000000E+00  0.00000000E+00
  0.00000000E+00  0.00000000E+00  0.00000000E+00
  0.00000000E+00  0.00000000E+00  0.00000000E+00
  0.00000000E+00  0.00000000E+00  0.00000000E+00
  0.00000000E+00  0.00000000E+00  0.00000000E+00
  0.00000000E+00  0.00000000E+00  0.00000000E+00
  0.00000000E+00  0.00000000E+00  0.00000000E+00
  0.00000000E+00  0.00000000E+00  0.00000000E+00
  0.00000000E+00  0.00000000E+00  0.00000000E+00
  0.00000000E+00  0.00000000E+00  0.00000000E+00
  0.00000000E+00  0.00000000E+00  0.00000000E+00
  0.00000000E+00  0.00000000E+00  0.00000000E+00