CuInSe2gb                               
   1.00000000000000     
     9.7266780392896699    0.0000000000000000    0.0000000000000000
     0.0000000000000000    8.4235502764570693    0.0000000000000000
     0.0000000000000000    0.0000000000000000   45.0000000000000000
   Fe   Mn
   281     7
Direct
  0.0531819846430504  0.7013372248192462  0.2113423174970486
  0.3181807072109082  0.7238403183748646  0.8761297220471342
  0.6876588185333800  0.9581621225814714  0.6113628468490041
  0.4378397180680442  0.4580580425966184  0.6113993262446241
  0.4398838916094406  0.2882160272721604  0.2554795021290884
  0.0586906748351071  0.3884472415241674  0.8333699338735602
  0.3086488261951046  0.8877269356767169  0.8334938873182304
  0.4470686198832894  0.6261059448348593  0.7002081126586381
  0.0602547168752097  0.2124761171408719  0.7448198568583438
  0.1780623039220796  0.4508879043503343  0.2114700130263256
  0.5678123129972589  0.2106424859016898  0.4775148805117888
  0.0665687013399557  0.8750622172728433  0.5668678207241505
  0.5682245141781526  0.2238597513250964  0.8760645067366781
  0.8072917603640054  0.5261228858036510  0.1240840669104055
  0.4297142922274026  0.9508567091406493  0.2114516295007937
  0.5665464540016750  0.3750133700698546  0.5668571999194071
  0.8122037222342537  0.0418979369374055  0.3886140108236167
  0.6817880257905048  0.7889818844996221  0.5224907567711858
  0.4428977965945399  0.4605804574285755  0.4775011239602099
  0.4343751311592361  0.9622971516027126  0.7445433359697364
  0.4415951108395318  0.6250208829913501  0.5668634702242306
  0.5716609802308701  0.8760136514849326  0.7004636717283126
  0.3114872191202482  0.0276801449670131  0.1240159726978720
  0.6902317398256195  0.9593429694279398  0.3441750249522161
  0.6881051944249917  0.7835325967446141  0.1241980175322507
  0.0525180972048538  0.3738346521284777  0.2997155098279505
  0.6893686427785115  0.4673641878366017  0.8758892839898395
  0.4287415016577031  0.4511354560445139  0.2114946066453669
  0.8084919828008392  0.3750552558864575  0.4331229037917257
  0.5630659473033541  0.7083609657805027  0.6115117446020210
  0.5596618285902301  0.5405658190781027  0.6558088887015099
  0.9334256076507329  0.1250176037195088  0.4331187668077141
  0.5650063682447867  0.5375264806389639  0.2554153694113994
  0.6902175570364961  0.4592820355194877  0.3441859550644109
  0.1906088520666919  0.6103150487469349  0.1662722202536756
  0.1955447959888576  0.7989840704095227  0.7887141976138996
  0.4472225085185881  0.1260047716676764  0.7001990735154739
  0.9277160046236242  0.6236044455438486  0.2996580025665871
  0.3174781319391957  0.2231088900501788  0.8760695167426165
  0.3166133332122992  0.8747441901785346  0.5668332255922895
  0.8172782427266913  0.2235736452316949  0.8761143595091909
  0.8095855419302411  0.5409651541624787  0.6557547626063134
  0.5589366357524416  0.5258660963968879  0.1238977092130265
  0.5699653661797646  0.0493510493829408  0.7888272097825628
  0.1899377305503479  0.2882218309160884  0.2554526110294073
  0.8084591769744668  0.8749366496002706  0.4330795260886502
  0.5723171355165840  0.3761370235860603  0.7002168646984663
  0.0599365329268577  0.0285278160876065  0.1240967206552198
  0.3096392761008248  0.5406639399939889  0.6558170505283536
  0.5651867398849580  0.2093529361969058  0.3440901147852390
  0.1876665609301840  0.9581809434702295  0.6113267366079348
  0.3027285611554248  0.3738156888747647  0.2997026902735918
  0.4345604417089403  0.7904554472003250  0.6558365415231128
  0.1959712206177446  0.2983180700124681  0.7886515710791823
  0.0670095209224518  0.3639501544390145  0.1664446658439697
  0.6971479712353880  0.6262452118842800  0.7003350565704025
  0.3121919227470323  0.5417958154806133  0.3885981928160751
  0.0677689892252871  0.7228077638900653  0.8761241022564304
  0.9336392682971224  0.6375958047644302  0.8336672694839771
  0.3201424662551268  0.5493351310449787  0.7888051271284221
  0.3037559955727978  0.2008727068936791  0.2113452791381536
  0.0680326489676450  0.7106690727496104  0.4774738550254044
  0.5532564210866194  0.2015095804943546  0.2113025411239166
  0.3105828796580022  0.2114800798460746  0.7445959912222477
  0.0721004328387334  0.3763341658352819  0.7003523449729080
  0.1833041301584688  0.6376140132336954  0.8335132281348093
  0.0702769220758609  0.0490865721888375  0.7888581263622362
  0.4415469854954772  0.1249893857843854  0.5669048516859670
  0.9347251646681778  0.2906899588137120  0.6558166136181155
  0.8037626118116351  0.2010971295546411  0.2112680836135885
  0.9291936087804332  0.9506554716157873  0.2115971602141314
  0.9415313367453598  0.6250273391866409  0.5668343917975189
  0.8082411875857907  0.3876939949414581  0.8334703084799434
  0.1971806424759772  0.6259766547725911  0.7001343605644758
  0.8085897584944293  0.8877892850573386  0.8335093364305691
  0.6847569697908344  0.2906357731315407  0.6559044721350076
  0.3126577855814349  0.2079484153257438  0.6113428938498517
  0.4350106735896317  0.4627208712796982  0.7446565927430910
  0.4367810245678440  0.7915977486814798  0.3884500525447639
  0.6849615232720357  0.9625101505261947  0.7445405582138485
  0.8028487987319546  0.7013843244412540  0.2114274379048762
  0.8130815387730428  0.7084145352792540  0.6115405804713823
  0.4367997181025068  0.7845524568971103  0.1241329239974936
  0.3100912567656104  0.7117155418257056  0.7445405163458895
  0.3210254023943188  0.0491321875789365  0.7887077426754284
  0.8116010966658223  0.5415379142253327  0.3884300356962321
  0.6823237433783594  0.2881937082486112  0.5223436286918451
  0.6957976494296177  0.7989423333585590  0.7887533785856037
  0.1899479526966313  0.7881451735295003  0.2554432749048055
  0.6910671821997322  0.1111766509094180  0.1666899435369722
  0.6926001724763987  0.9606229406334932  0.4774934824643195
  0.9403485630480977  0.9595255757019262  0.3441560592753278
  0.8069882837145370  0.0386838911253553  0.5225274318449560
  0.6835020287154935  0.6250618862329188  0.4331061741175961
  0.4402418649811696  0.4592551202422526  0.3441852366638625
  0.8108813503687833  0.2114796960512841  0.7445703431456504
  0.4394377742454611  0.9675880302957846  0.8759143751804194
  0.5665606246998335  0.8747349766981314  0.5668168601677825
  0.8099114800827841  0.0278981442786737  0.1239653899641413
  0.4275574889711066  0.6237203275309363  0.2996265562250734
  0.8168993853960873  0.7229525084427080  0.8761967914217188
  0.6876534199340317  0.4580132897001448  0.6113725669054743
  0.5585517382579015  0.3876622225707798  0.8332791152937949
  0.8027156067259150  0.3736717084982502  0.2996338291531681
  0.1869974062492126  0.2917963615622494  0.3884915069105683
  0.8205355983897969  0.5492186520888130  0.7887916610079896
  0.1822551096805305  0.7891717474262794  0.5225456911947409
  0.3027493670049568  0.8741770957556595  0.2997825432538547
  0.1786061274728889  0.9511642995697975  0.2114583396728713
  0.1848078560342263  0.4620125765987318  0.7447386392613480
  0.4324397972961529  0.2883435518424383  0.5223288149148035
  0.0651845756780332  0.7091241384908390  0.3440323977707890
  0.1847023997637622  0.7906416319804394  0.6558031672346660
  0.4457595986260408  0.7987459787690065  0.7886966095288083
  0.6833885752559897  0.1250011196540878  0.4330788671450976
  0.9321240552128773  0.7883844395141617  0.5223609350292580
  0.6912160879558513  0.6124091030478074  0.1666900796684740
  0.8152813982424316  0.7094111926122278  0.3440872663807513
  0.9347490292735580  0.4623410912058287  0.7448984855010163
  0.1903660980195295  0.4594376796132988  0.3441641310543097
  0.5704781291879233  0.5493239605215195  0.7888383433558910
  0.5661474777026257  0.3636933123946340  0.1666427680832181
  0.5652191801683585  0.7094278522222487  0.3441163153836673
  0.5526622168674666  0.3738213705783748  0.2996731276984964
  0.1892752065893630  0.4674224733565404  0.8758906701589396
  0.1913169493417026  0.1117204263224282  0.1665730450182888
  0.4451935614580373  0.2985455827293700  0.7886491677372006
  0.6899568807413919  0.7881203235479510  0.2554310655386623
  0.9336055156255059  0.1375217795382580  0.8335243123566057
  0.4427445431847509  0.9607245280689546  0.4774638445321033
  0.5676012536066213  0.7243488004094404  0.8761112787700135
  0.1927223333959818  0.4608198278706372  0.4774725792315750
  0.9344236085423679  0.2833472205490481  0.1241868660726280
  0.3121178515252379  0.0420022550796286  0.3886742839976390
  0.0597149736918587  0.0405581712690353  0.6558902510472552
  0.5584392818960293  0.3749376621145151  0.4331214248854907
  0.6844392556606653  0.4625334230092441  0.7449357758299120
  0.5605022661178398  0.2124127646535093  0.7445994824685338
  0.9471507194581847  0.1262186353385626  0.7002833403459789
  0.5596341670199888  0.0408052307650597  0.6557787780118078
  0.5568610602603454  0.5391088879252353  0.5225332065490044
  0.1777062601980977  0.1239004768967937  0.2997336686952605
  0.4405850214843597  0.1107629081287912  0.1665991021375819
  0.6776558552177063  0.6237554855714570  0.2996142591992094
  0.9276377245691556  0.1239521196802413  0.2998347776820015
  0.8166016661680466  0.3750521181489158  0.5668810554526702
  0.0528023297866507  0.8739119652882262  0.2998438109523955
  0.1916399965643186  0.6249236826864244  0.5668776012823038
  0.9457925506947691  0.7992812931346320  0.7887336536145021
  0.3083164034025510  0.3874808803965624  0.8334801783085810
  0.9392019718378183  0.4681292768275807  0.8758849312912292
  0.4336093194309593  0.6379616504727530  0.8334875429648858
  0.0650648191720456  0.2091647422268778  0.3439760361539301
  0.1895496245402794  0.9673414030071807  0.8760325398716948
  0.9361966988742568  0.7841275924885246  0.1241509229308757
  0.6867945483226485  0.7915188432216118  0.3884701935880778
  0.9346821281790643  0.7906361491581659  0.6558150146699769
  0.9407122571082619  0.1106505990814989  0.1666510692091888
  0.4349657945826553  0.2906798007236210  0.6559496410407382
  0.0537451357099300  0.2003545354882899  0.2115531623772946
  0.6784699703615278  0.9513647635400345  0.2114556704906786
  0.1776111504682406  0.6238334245066023  0.2995799854173424
  0.8221436735247717  0.8763038536488580  0.7003654684322372
  0.9470596051825386  0.6264024091172531  0.7003816213732307
  0.1972375089934163  0.1259752795487016  0.7001490614735240
  0.9429423319155906  0.4606916076504617  0.4774385330445827
  0.8127590034725678  0.2081163466049903  0.6113666645020019
  0.1833670802021849  0.6250548513708236  0.4331313530400274
  0.4276087716903949  0.1237639311804813  0.2997223424248278
  0.6777527112809966  0.1238510258931842  0.2997525056713065
  0.5619288853584509  0.5417120738909507  0.3885170352857862
  0.8151104438376983  0.2092213207115435  0.3440159301727768
  0.4392483439022273  0.4674614579316717  0.8757728576383483
  0.5586812401693910  0.8875557866801967  0.8333097875785164
  0.3177901383167950  0.2106020189807278  0.4774665760961527
  0.1926995496029364  0.9605903077967466  0.4775151888058433
  0.0583815459320508  0.8876307154943421  0.8334798152249859
  0.0569826189252640  0.5388618963936405  0.5224215904144314
  0.9428092575256811  0.9605963167260801  0.4774304104797399
  0.0628978940584612  0.7081346497677160  0.6115031683191274
  0.5572296723818547  0.0383725712625128  0.5223544435748123
  0.6958896293711981  0.2985392596049384  0.7886848957000360
  0.8172910632838948  0.3631427041806277  0.1667127813457130
  0.4334274880234716  0.1248963694137441  0.4330918574503432
  0.0677670900988646  0.2107397762149159  0.4774615448436306
  0.3096038708599602  0.0406033427011850  0.6558115404192624
  0.4319995544350050  0.7886608838839443  0.5224247240056377
  0.1835792660273470  0.1376701180917507  0.8335382595708316
  0.1863038480063655  0.2832649771705128  0.1241479172358996
  0.9403498694760920  0.4594152788497650  0.3441871338947806
  0.5672499952550583  0.8637773531712598  0.1663962452319471
  0.3038242403448505  0.7011779093984923  0.2113489507187108
  0.9403578210310471  0.6102471181820542  0.1664501630890471
  0.1876725660998852  0.4580067255524100  0.6113547008088386
  0.0722413613408519  0.8762430814630510  0.7001697373979954
  0.0597179009611092  0.5406015862427022  0.6557979915031757
  0.3102851183403247  0.5265308572816747  0.1239380549665214
  0.9368057767953821  0.7916585032143092  0.3885046769612551
  0.9458185610790778  0.2981656535874547  0.7886509095501071
  0.1845925856415405  0.2905007806139984  0.6558549815255144
  0.9375726810659554  0.9580075180766000  0.6113774970450409
  0.8109775685811543  0.7113656910234056  0.7446059201708402
  0.6899423669262993  0.2882074617571457  0.2554859138291114
  0.0598796800215853  0.7119564742868768  0.7448877389203231
  0.6785124568866209  0.4509399546417481  0.2113194455595108
  0.8179604394832648  0.2108559600039726  0.4775502613810371
  0.5677458849898946  0.7106423203729635  0.4774513993600930
  0.0665331008538309  0.8628765420854739  0.1663717811450288
  0.9322409173757052  0.2883200582019568  0.5224182345805541
  0.6846115016644311  0.7905122050650865  0.6558338230450079
  0.0582885018963326  0.8746178820490952  0.4331382063916836
  0.0678300714039316  0.2228114692142198  0.8760706212614129
  0.8096651331595607  0.0404744820337643  0.6558606785659633
  0.5599245607820342  0.0270886627034394  0.1240732926127122
  0.3084583443259296  0.3748902476619271  0.4330671116660858
  0.3165141594456273  0.3749278063862361  0.5668539415768193
  0.3178225932663514  0.7105098278265377  0.4774250309196071
  0.0571970249899489  0.0383647219038377  0.5224430041339084
  0.3221385059281329  0.8763448844481611  0.7003883322962662
  0.0649623091723430  0.5375899599694902  0.2553643258526304
  0.6834744816547642  0.1376924186440626  0.8335166594483501
  0.8148318541476502  0.0374663882489638  0.2553390991790280
  0.1835200993676235  0.1250395784705225  0.4331035699406252
  0.6973114732921165  0.1264037711485662  0.7003311306272786
  0.1823643581603227  0.2883518135426474  0.5223604873282697
  0.4399384990389447  0.7881239128089811  0.2554387168813097
  0.8145518620786372  0.5375495008973077  0.2554939846020444
  0.0627913043912785  0.2080546700224525  0.6113202294247685
  0.1865661480223114  0.7914421616920558  0.3884181861743436
  0.3072057889670060  0.5384057426150209  0.5224298462801076
  0.8219175602715783  0.3762178048893755  0.7001171604527902
  0.6869911385555879  0.2917515980541931  0.3884844883761516
  0.1916035850030351  0.1250148160554237  0.5668803646829427
  0.6897586840252860  0.9683506986901673  0.8760942638462638
  0.6915645226709470  0.1249912567244309  0.5668969058905529
  0.4402965898779151  0.9593355345728377  0.3441760238904814
  0.1843168890194786  0.9623875427678186  0.7445270148099961
  0.9402138959971608  0.7881217619853721  0.2554429551681994
  0.5584208483327705  0.8749331754728089  0.4331213340055625
  0.3083380958535547  0.8749426695192640  0.4331133766448528
  0.8071918292538810  0.5392063369229551  0.5225422488574268
  0.9287158903524142  0.4510388606422700  0.2113529110999831
  0.3145320391154266  0.5377877239317175  0.2555342598868667
  0.5622714452565312  0.0420450540393136  0.3886787485190127
  0.9377894898757090  0.4580377354013432  0.6114243317668828
  0.0621001147903603  0.0418082934564549  0.3885444597718327
  0.0620214955698113  0.5415068267602267  0.3884884816348492
  0.4369540528609436  0.2916772942543343  0.3885074997203045
  0.6928250853220166  0.4606762075015470  0.4774566680557938
  0.0665796212693123  0.3749516473276288  0.5668727802744078
  0.5531953197779957  0.7015285595793176  0.2113499274337047
  0.9400319406755132  0.2882533868505069  0.2554624113194682
  0.8200543716033430  0.0494124484020811  0.7889013890724352
  0.1902231850730449  0.9593114784221105  0.3441915077126982
  0.5525841538981281  0.8740769356699059  0.2998644836787447
  0.0583209733936643  0.3750151787826403  0.4330959173973601
  0.3153367916101589  0.7094378031454566  0.3441563367273219
  0.3152283355275313  0.2093281852393513  0.3441236037632917
  0.9417544557576238  0.1249949439957214  0.5667579230744669
  0.4378925976072260  0.9582499624904385  0.6114484197750663
  0.5648027855911405  0.0374928570642579  0.2554051832849140
  0.1867532383998951  0.7846305515461049  0.1242798985512744
  0.0652295360719923  0.0373173382461251  0.2550883214828145
  0.6916644851851839  0.6249743261460420  0.5668799468708744
  0.4402996209748328  0.6102493161433828  0.1663541351739299
  0.3071129410464977  0.0384059186536690  0.5223458869860957
  0.6866130645401299  0.2833930563976713  0.1241464942503260
  0.8177368701043172  0.7107981401362724  0.4774527429174571
  0.4335358150430276  0.1377721739322928  0.8334679273630878
  0.3223243402108963  0.3761672931290212  0.7002026866033415
  0.6836107356717022  0.6378714349172155  0.8334452551605129
  0.5606464201746651  0.7114795867269712  0.7446013656083239
  0.9372834207151827  0.2919421084613346  0.3886201768183142
  0.9395802301618493  0.9680749370339173  0.8761026417489576
  0.5627028609726987  0.2079499342015934  0.6112997155035772
  0.8166141554234762  0.8749550923828557  0.5668692749319034
  0.8026600920299374  0.8739656369226261  0.2997702864712036
  0.3148643791224335  0.0377788143328655  0.2551626557201530
  0.4351770047235275  0.2838025457605387  0.1238660808724140
  0.3130982104777337  0.7083831791954054  0.6115086621024802
  0.4333492626531585  0.6250120030049925  0.4331048417447980
  0.9323322383344640  0.6253387900036178  0.4333086864220001
  0.3181610746780207  0.8629580972028774  0.1660900166564065
  0.0715814028803368  0.5490378215978327  0.7885818461287808
  0.8179379958993103  0.8632926679347809  0.1660640547974427
  0.3172899567846131  0.3641348154229787  0.1656905959971142
  0.9337881338281444  0.9621865498616043  0.7445126301028232
  0.0583659348164699  0.5259871113276529  0.1245121509396212
 
  0.00000000E+00  0.00000000E+00  0.00000000E+00
  0.00000000E+00  0.00000000E+00  0.00000000E+00
  0.00000000E+00  0.00000000E+00  0.00000000E+00
  0.00000000E+00  0.00000000E+00  0.00000000E+00
  0.00000000E+00  0.00000000E+00  0.00000000E+00
  0.00000000E+00  0.00000000E+00  0.00000000E+00
  0.00000000E+00  0.00000000E+00  0.00000000E+00
  0.00000000E+00  0.00000000E+00  0.00000000E+00
  0.00000000E+00  0.00000000E+00  0.00000000E+00
  0.00000000E+00  0.00000000E+00  0.00000000E+00
  0.00000000E+00  0.00000000E+00  0.00000000E+00
  0.00000000E+00  0.00000000E+00  0.00000000E+00
  0.00000000E+00  0.00000000E+00  0.00000000E+00
  0.00000000E+00  0.00000000E+00  0.00000000E+00
  0.00000000E+00  0.00000000E+00  0.00000000E+00
  0.00000000E+00  0.00000000E+00  0.00000000E+00
  0.00000000E+00  0.00000000E+00  0.00000000E+00
  0.00000000E+00  0.00000000E+00  0.00000000E+00
  0.00000000E+00  0.00000000E+00  0.00000000E+00
  0.00000000E+00  0.00000000E+00  0.00000000E+00
  0.00000000E+00  0.00000000E+00  0.00000000E+00
  0.00000000E+00  0.00000000E+00  0.00000000E+00
  0.00000000E+00  0.00000000E+00  0.00000000E+00
  0.00000000E+00  0.00000000E+00  0.00000000E+00
  0.00000000E+00  0.00000000E+00  0.00000000E+00
  0.00000000E+00  0.00000000E+00  0.00000000E+00
  0.00000000E+00  0.00000000E+00  0.00000000E+00
  0.00000000E+00  0.00000000E+00  0.00000000E+00
  0.00000000E+00  0.00000000E+00  0.00000000E+00
  0.00000000E+00  0.00000000E+00  0.00000000E+00
  0.00000000E+00  0.00000000E+00  0.00000000E+00
  0.00000000E+00  0.00000000E+00  0.00000000E+00
  0.00000000E+00  0.00000000E+00  0.00000000E+00
  0.00000000E+00  0.00000000E+00  0.00000000E+00
  0.00000000E+00  0.00000000E+00  0.00000000E+00
  0.00000000E+00  0.00000000E+00  0.00000000E+00
  0.00000000E+00  0.00000000E+00  0.00000000E+00
  0.00000000E+00  0.00000000E+00  0.00000000E+00
  0.00000000E+00  0.00000000E+00  0.00000000E+00
  0.00000000E+00  0.00000000E+00  0.00000000E+00
  0.00000000E+00  0.00000000E+00  0.00000000E+00
  0.00000000E+00  0.00000000E+00  0.00000000E+00
  0.00000000E+00  0.00000000E+00  0.00000000E+00
  0.00000000E+00  0.00000000E+00  0.00000000E+00
  0.00000000E+00  0.00000000E+00  0.00000000E+00
  0.00000000E+00  0.00000000E+00  0.00000000E+00
  0.00000000E+00  0.00000000E+00  0.00000000E+00
  0.00000000E+00  0.00000000E+00  0.00000000E+00
  0.00000000E+00  0.00000000E+00  0.00000000E+00
  0.00000000E+00  0.00000000E+00  0.00000000E+00
  0.00000000E+00  0.00000000E+00  0.00000000E+00
  0.00000000E+00  0.00000000E+00  0.00000000E+00
  0.00000000E+00  0.00000000E+00  0.00000000E+00
  0.00000000E+00  0.00000000E+00  0.00000000E+00
  0.00000000E+00  0.00000000E+00  0.00000000E+00
  0.00000000E+00  0.00000000E+00  0.00000000E+00
  0.00000000E+00  0.00000000E+00  0.00000000E+00
  0.00000000E+00  0.00000000E+00  0.00000000E+00
  0.00000000E+00  0.00000000E+00  0.00000000E+00
  0.00000000E+00  0.00000000E+00  0.00000000E+00
  0.00000000E+00  0.00000000E+00  0.00000000E+00
  0.00000000E+00  0.00000000E+00  0.00000000E+00
  0.00000000E+00  0.00000000E+00  0.00000000E+00
  0.00000000E+00  0.00000000E+00  0.00000000E+00
  0.00000000E+00  0.00000000E+00  0.00000000E+00
  0.00000000E+00  0.00000000E+00  0.00000000E+00
  0.00000000E+00  0.00000000E+00  0.00000000E+00
  0.00000000E+00  0.00000000E+00  0.00000000E+00
  0.00000000E+00  0.00000000E+00  0.00000000E+00
  0.00000000E+00  0.00000000E+00  0.00000000E+00
  0.00000000E+00  0.00000000E+00  0.00000000E+00
  0.00000000E+00  0.00000000E+00  0.00000000E+00
  0.00000000E+00  0.00000000E+00  0.00000000E+00
  0.00000000E+00  0.00000000E+00  0.00000000E+00
  0.00000000E+00  0.00000000E+00  0.00000000E+00
  0.00000000E+00  0.00000000E+00  0.00000000E+00
  0.00000000E+00  0.00000000E+00  0.00000000E+00
  0.00000000E+00  0.00000000E+00  0.00000000E+00
  0.00000000E+00  0.00000000E+00  0.00000000E+00
  0.00000000E+00  0.00000000E+00  0.00000000E+00
  0.00000000E+00  0.00000000E+00  0.00000000E+00
  0.00000000E+00  0.00000000E+00  0.00000000E+00
  0.00000000E+00  0.00000000E+00  0.00000000E+00
  0.00000000E+00  0.00000000E+00  0.00000000E+00
  0.00000000E+00  0.00000000E+00  0.00000000E+00
  0.00000000E+00  0.00000000E+00  0.00000000E+00
  0.00000000E+00  0.00000000E+00  0.00000000E+00
  0.00000000E+00  0.00000000E+00  0.00000000E+00
  0.00000000E+00  0.00000000E+00  0.00000000E+00
  0.00000000E+00  0.00000000E+00  0.00000000E+00
  0.00000000E+00  0.00000000E+00  0.00000000E+00
  0.00000000E+00  0.00000000E+00  0.00000000E+00
  0.00000000E+00  0.00000000E+00  0.00000000E+00
  0.00000000E+00  0.00000000E+00  0.00000000E+00
  0.00000000E+00  0.00000000E+00  0.00000000E+00
  0.00000000E+00  0.00000000E+00  0.00000000E+00
  0.00000000E+00  0.00000000E+00  0.00000000E+00
  0.00000000E+00  0.00000000E+00  0.00000000E+00
  0.00000000E+00  0.00000000E+00  0.00000000E+00
  0.00000000E+00  0.00000000E+00  0.00000000E+00
  0.00000000E+00  0.00000000E+00  0.00000000E+00
  0.00000000E+00  0.00000000E+00  0.00000000E+00
  0.00000000E+00  0.00000000E+00  0.00000000E+00
  0.00000000E+00  0.00000000E+00  0.00000000E+00
  0.00000000E+00  0.00000000E+00  0.00000000E+00
  0.00000000E+00  0.00000000E+00  0.00000000E+00
  0.00000000E+00  0.00000000E+00  0.00000000E+00
  0.00000000E+00  0.00000000E+00  0.00000000E+00
  0.00000000E+00  0.00000000E+00  0.00000000E+00
  0.00000000E+00  0.00000000E+00  0.00000000E+00
  0.00000000E+00  0.00000000E+00  0.00000000E+00
  0.00000000E+00  0.00000000E+00  0.00000000E+00
  0.00000000E+00  0.00000000E+00  0.00000000E+00
  0.00000000E+00  0.00000000E+00  0.00000000E+00
  0.00000000E+00  0.00000000E+00  0.00000000E+00
  0.00000000E+00  0.00000000E+00  0.00000000E+00
  0.00000000E+00  0.00000000E+00  0.00000000E+00
  0.00000000E+00  0.00000000E+00  0.00000000E+00
  0.00000000E+00  0.00000000E+00  0.00000000E+00
  0.00000000E+00  0.00000000E+00  0.00000000E+00
  0.00000000E+00  0.00000000E+00  0.00000000E+00
  0.00000000E+00  0.00000000E+00  0.00000000E+00
  0.00000000E+00  0.00000000E+00  0.00000000E+00
  0.00000000E+00  0.00000000E+00  0.00000000E+00
  0.00000000E+00  0.00000000E+00  0.00000000E+00
  0.00000000E+00  0.00000000E+00  0.00000000E+00
  0.00000000E+00  0.00000000E+00  0.00000000E+00
  0.00000000E+00  0.00000000E+00  0.00000000E+00
  0.00000000E+00  0.00000000E+00  0.00000000E+00
  0.00000000E+00  0.00000000E+00  0.00000000E+00
  0.00000000E+00  0.00000000E+00  0.00000000E+00
  0.00000000E+00  0.00000000E+00  0.00000000E+00
  0.00000000E+00  0.00000000E+00  0.00000000E+00
  0.00000000E+00  0.00000000E+00  0.00000000E+00
  0.00000000E+00  0.00000000E+00  0.00000000E+00
  0.00000000E+00  0.00000000E+00  0.00000000E+00
  0.00000000E+00  0.00000000E+00  0.00000000E+00
  0.00000000E+00  0.00000000E+00  0.00000000E+00
  0.00000000E+00  0.00000000E+00  0.00000000E+00
  0.00000000E+00  0.00000000E+00  0.00000000E+00
  0.00000000E+00  0.00000000E+00  0.00000000E+00
  0.00000000E+00  0.00000000E+00  0.00000000E+00
  0.00000000E+00  0.00000000E+00  0.00000000E+00
  0.00000000E+00  0.00000000E+00  0.00000000E+00
  0.00000000E+00  0.00000000E+00  0.00000000E+00
  0.00000000E+00  0.00000000E+00  0.00000000E+00
  0.00000000E+00  0.00000000E+00  0.00000000E+00
  0.00000000E+00  0.00000000E+00  0.00000000E+00
  0.00000000E+00  0.00000000E+00  0.00000000E+00
  0.00000000E+00  0.00000000E+00  0.00000000E+00
  0.00000000E+00  0.00000000E+00  0.00000000E+00
  0.00000000E+00  0.00000000E+00  0.00000000E+00
  0.00000000E+00  0.00000000E+00  0.00000000E+00
  0.00000000E+00  0.00000000E+00  0.00000000E+00
  0.00000000E+00  0.00000000E+00  0.00000000E+00
  0.00000000E+00  0.00000000E+00  0.00000000E+00
  0.00000000E+00  0.00000000E+00  0.00000000E+00
  0.00000000E+00  0.00000000E+00  0.00000000E+00
  0.00000000E+00  0.00000000E+00  0.00000000E+00
  0.00000000E+00  0.00000000E+00  0.00000000E+00
  0.00000000E+00  0.00000000E+00  0.00000000E+00
  0.00000000E+00  0.00000000E+00  0.00000000E+00
  0.00000000E+00  0.00000000E+00  0.00000000E+00
  0.00000000E+00  0.00000000E+00  0.00000000E+00
  0.00000000E+00  0.00000000E+00  0.00000000E+00
  0.00000000E+00  0.00000000E+00  0.00000000E+00
  0.00000000E+00  0.00000000E+00  0.00000000E+00
  0.00000000E+00  0.00000000E+00  0.00000000E+00
  0.00000000E+00  0.00000000E+00  0.00000000E+00
  0.00000000E+00  0.00000000E+00  0.00000000E+00
  0.00000000E+00  0.00000000E+00  0.00000000E+00
  0.00000000E+00  0.00000000E+00  0.00000000E+00
  0.00000000E+00  0.00000000E+00  0.00000000E+00
  0.00000000E+00  0.00000000E+00  0.00000000E+00
  0.00000000E+00  0.00000000E+00  0.00000000E+00
  0.00000000E+00  0.00000000E+00  0.00000000E+00
  0.00000000E+00  0.00000000E+00  0.00000000E+00
  0.00000000E+00  0.00000000E+00  0.00000000E+00
  0.00000000E+00  0.00000000E+00  0.00000000E+00
  0.00000000E+00  0.00000000E+00  0.00000000E+00
  0.00000000E+00  0.00000000E+00  0.00000000E+00
  0.00000000E+00  0.00000000E+00  0.00000000E+00
  0.00000000E+00  0.00000000E+00  0.00000000E+00
  0.00000000E+00  0.00000000E+00  0.00000000E+00
  0.00000000E+00  0.00000000E+00  0.00000000E+00
  0.00000000E+00  0.00000000E+00  0.00000000E+00
  0.00000000E+00  0.00000000E+00  0.00000000E+00
  0.00000000E+00  0.00000000E+00  0.00000000E+00
  0.00000000E+00  0.00000000E+00  0.00000000E+00
  0.00000000E+00  0.00000000E+00  0.00000000E+00
  0.00000000E+00  0.00000000E+00  0.00000000E+00
  0.00000000E+00  0.00000000E+00  0.00000000E+00
  0.00000000E+00  0.00000000E+00  0.00000000E+00
  0.00000000E+00  0.00000000E+00  0.00000000E+00
  0.00000000E+00  0.00000000E+00  0.00000000E+00
  0.00000000E+00  0.00000000E+00  0.00000000E+00
  0.00000000E+00  0.00000000E+00  0.00000000E+00
  0.00000000E+00  0.00000000E+00  0.00000000E+00
  0.00000000E+00  0.00000000E+00  0.00000000E+00
  0.00000000E+00  0.00000000E+00  0.00000000E+00
  0.00000000E+00  0.00000000E+00  0.00000000E+00
  0.00000000E+00  0.00000000E+00  0.00000000E+00
  0.00000000E+00  0.00000000E+00  0.00000000E+00
  0.00000000E+00  0.00000000E+00  0.00000000E+00
  0.00000000E+00  0.00000000E+00  0.00000000E+00
  0.00000000E+00  0.00000000E+00  0.00000000E+00
  0.00000000E+00  0.00000000E+00  0.00000000E+00
  0.00000000E+00  0.00000000E+00  0.00000000E+00
  0.00000000E+00  0.00000000E+00  0.00000000E+00
  0.00000000E+00  0.00000000E+00  0.00000000E+00
  0.00000000E+00  0.00000000E+00  0.00000000E+00
  0.00000000E+00  0.00000000E+00  0.00000000E+00
  0.00000000E+00  0.00000000E+00  0.00000000E+00
  0.00000000E+00  0.00000000E+00  0.00000000E+00
  0.00000000E+00  0.00000000E+00  0.00000000E+00
  0.00000000E+00  0.00000000E+00  0.00000000E+00
  0.00000000E+00  0.00000000E+00  0.00000000E+00
  0.00000000E+00  0.00000000E+00  0.00000000E+00
  0.00000000E+00  0.00000000E+00  0.00000000E+00
  0.00000000E+00  0.00000000E+00  0.00000000E+00
  0.00000000E+00  0.00000000E+00  0.00000000E+00
  0.00000000E+00  0.00000000E+00  0.00000000E+00
  0.00000000E+00  0.00000000E+00  0.00000000E+00
  0.00000000E+00  0.00000000E+00  0.00000000E+00
  0.00000000E+00  0.00000000E+00  0.00000000E+00
  0.00000000E+00  0.00000000E+00  0.00000000E+00
  0.00000000E+00  0.00000000E+00  0.00000000E+00
  0.00000000E+00  0.00000000E+00  0.00000000E+00
  0.00000000E+00  0.00000000E+00  0.00000000E+00
  0.00000000E+00  0.00000000E+00  0.00000000E+00
  0.00000000E+00  0.00000000E+00  0.00000000E+00
  0.00000000E+00  0.00000000E+00  0.00000000E+00
  0.00000000E+00  0.00000000E+00  0.00000000E+00
  0.00000000E+00  0.00000000E+00  0.00000000E+00
  0.00000000E+00  0.00000000E+00  0.00000000E+00
  0.00000000E+00  0.00000000E+00  0.00000000E+00
  0.00000000E+00  0.00000000E+00  0.00000000E+00
  0.00000000E+00  0.00000000E+00  0.00000000E+00
  0.00000000E+00  0.00000000E+00  0.00000000E+00
  0.00000000E+00  0.00000000E+00  0.00000000E+00
  0.00000000E+00  0.00000000E+00  0.00000000E+00
  0.00000000E+00  0.00000000E+00  0.00000000E+00
  0.00000000E+00  0.00000000E+00  0.00000000E+00
  0.00000000E+00  0.00000000E+00  0.00000000E+00
  0.00000000E+00  0.00000000E+00  0.00000000E+00
  0.00000000E+00  0.00000000E+00  0.00000000E+00
  0.00000000E+00  0.00000000E+00  0.00000000E+00