FeMn_288_15                             
    1.000000000000000     
     9.7266779999999997    0.0000000000000000    0.0000000000000000
     0.0000000000000000    8.4235500000000005    0.0000000000000000
     0.0000000000000000    0.0000000000000000   45.0000000000000000
   Fe   Mn
   273    15
Direct
  0.3124569458923042  0.5468252080753280  0.7438893503476374
  0.0629346385862989  0.8583287424207536  0.1669932882503399
  0.6876212605626701  0.2757386142054496  0.1226583324100927
  0.1873323145430459  0.4691720293490599  0.8328429949998526
  0.5625918330916755  0.3764007626740690  0.6550743662066196
  0.1903692102080013  0.3009299775025477  0.8768964450699774
  0.6879755350580421  0.1082820221939539  0.1672547617408292
  0.4381860747774164  0.6083378697354968  0.1673397881319901
  0.0613101384653857  0.6970379344679740  0.2114706839207100
  0.6875071398566655  0.7807939470160019  0.2554645412487033
  0.6874954350609811  0.4562645397621000  0.4783007938053158
  0.8123880764991723  0.2052757810320392  0.4784790259150751
  0.5625152207021128  0.8726252728194077  0.5211526052895199
  0.3129424427299987  0.0327124660639047  0.2557890958096556
  0.9374431091925434  0.2761063477846133  0.1225792108978071
  0.3123062310188655  0.5266458120397872  0.1225783898082962
  0.0626964788323024  0.0262035184498178  0.1227982648352721
  0.5633615133744011  0.7070165060468596  0.5655543028779448
  0.0624235513720569  0.7061043825387033  0.4782531177504922
  0.9388426326127268  0.1211522249632538  0.4345169842054565
  0.9380684040640567  0.9510200237981730  0.3453635833014461
  0.4368288678400845  0.7966640857467554  0.7438164895165027
  0.0615916154387880  0.7194186700933536  0.8331348041063812
  0.8112995148521757  0.0511629008787995  0.8768200748225135
  0.1871638818804108  0.4558508814461361  0.4781853301083580
  0.3127795172306695  0.7005570611109280  0.3456845232153000
  0.4376194620381837  0.9693587912027828  0.8328018770021003
  0.0634624935726962  0.3664687403933159  0.3005972267538173
  0.4374966982095455  0.4473578727284140  0.2116724148186630
  0.6871443279662867  0.9475310888055308  0.2115761724518584
  0.3134426834864827  0.0418750876071839  0.6106687297301564
  0.4387400408434843  0.1210995570001331  0.5212852360300241
  0.3126407617963528  0.8801639262153391  0.7885787730577907
  0.4378865010972413  0.6225985897698040  0.5212519943486688
  0.4382285359080957  0.7803597991685416  0.2553628713844167
  0.0632736419299676  0.2106352051704224  0.6996665052458932
  0.1883707288772631  0.1087418133340785  0.1671559480192208
  0.5630164684756137  0.3708457515756430  0.5214428737756092
  0.5625022078613013  0.5265290890108806  0.1225999925814024
  0.3121794433311466  0.7106681039748968  0.6999665062331494
  0.5615708932854270  0.0462201368221310  0.7436222858656163
  0.6874547604760243  0.6215175730461147  0.4344514833772716
  0.4373410874594548  0.6221767934163039  0.4344230925039372
  0.4375468254211440  0.7991796935190414  0.8770040364580572
  0.9363157016614336  0.7909851504917141  0.6105622910261311
  0.5617885802881313  0.5458182951018444  0.7438339393598612
  0.3124413917318785  0.2058087837748959  0.4782196710312220
  0.3135334407636481  0.2109190419793988  0.6995740403708151
  0.6859137453177002  0.9575054212270132  0.5652660098274636
  0.1884589016437347  0.4614907231864380  0.6997127370565679
  0.8129435918429551  0.8803849261327001  0.7889191181938618
  0.9374201984998638  0.6268240340388972  0.6551579797570205
  0.5635899426270218  0.0536028471288871  0.8768747093310119
  0.9367550192995618  0.6210629081849045  0.5213238674141124
  0.5626516621906328  0.3716364481827509  0.4344865596004686
  0.8136553640825253  0.8576643059725758  0.1671539880573672
  0.9383575185909344  0.1172487072597802  0.3006178759014596
  0.6885354125666038  0.6087680632036092  0.1671740497364951
  0.6868678951033899  0.2863557450684985  0.3890025414349246
  0.9366017869442144  0.4710985189616721  0.8333740004393222
  0.1873706584107357  0.7764034378007645  0.1227898442873588
  0.6867618583245011  0.1306315246329808  0.7885040332399263
  0.9378081905844958  0.4607959928029677  0.6998270062079930
  0.9365954923170682  0.9475207657267114  0.2114978966885266
  0.1892694286750122  0.2820537818107146  0.2558903191265053
  0.1881951382804437  0.9504016960211181  0.3454550168411262
  0.4367710716557826  0.7863718243908123  0.3891563285448073
  0.3124042813830430  0.6964295115127158  0.2116381951761055
  0.9380401491574132  0.2878038631078154  0.3894182878197631
  0.0621165496379139  0.7059447051730537  0.5653251661452876
  0.1889949951856014  0.4520346363491038  0.3455579068808363
  0.3132191334102100  0.0456845959245954  0.7437968115958880
  0.0623540983414087  0.5269873869602844  0.1227801593124001
  0.4382366425420596  0.1088000328532611  0.1671269243851098
  0.3127002281377738  0.7066200095999545  0.5654490731400045
  0.8114971536246183  0.5405060108959318  0.6102772611581759
  0.6868545047720382  0.1169278436150857  0.3008676403548016
  0.3137298425692081  0.5305943455603938  0.2557833909418087
  0.4372574469684307  0.4600559018106548  0.6996012377361609
  0.1876743312021553  0.1220111462310222  0.5210143342079818
  0.8115828377243747  0.8767513853665866  0.6552035742292477
  0.9373857256599957  0.6209329203013713  0.4345258802323302
  0.8124678387425809  0.8670649386190793  0.3005857434319647
  0.5635935927622210  0.7176594512522920  0.8333984936939661
  0.1884116781656076  0.9568878838088902  0.5651161801788761
  0.9372303416861228  0.4560986816092527  0.4784510336412814
  0.9363857991408147  0.8002560303544091  0.8768562993549637
  0.5626184884958468  0.5314730325518252  0.2555469690787235
  0.9365987515951900  0.9568297759131548  0.4782016204530364
  0.0617349042485750  0.8711238735639868  0.5209469862756465
  0.4374621733473162  0.1284447914990851  0.6551918785370987
  0.3121251687330365  0.3805329862299202  0.7885654424092761
  0.6893045860297690  0.9699720046828268  0.8336784791163531
  0.3143701820254751  0.5513362777491834  0.8769682752636938
  0.4366753242720023  0.2864023080505748  0.3893428499758978
  0.6869038432582859  0.1204051907252503  0.4344724121734927
  0.4360600113969056  0.6158249779266719  0.3006292398598237
  0.6863891469491464  0.9508669832037980  0.3456173455967610
  0.8118727811261083  0.3716569256787146  0.5214187429171997
  0.1877775105385482  0.6159055685492751  0.3006005956559683
  0.3119788869169773  0.5365940128622644  0.3890032876839465
  0.0625562952412833  0.2200138807796469  0.8330119956925806
  0.5623878987828342  0.5523972038942704  0.8766784170686154
  0.6874918988138502  0.2956678292979135  0.7438329994134997
  0.1873603522964941  0.1277856325068611  0.6552556634946276
  0.5617808076456038  0.8718764326920058  0.4344850275418266
  0.1878968347356197  0.7961780725899031  0.7437969299453281
  0.5611082106389218  0.0364545210080942  0.3892156903497050
  0.3116340452680830  0.3663346329866893  0.3003898013152744
  0.8124867656067241  0.3668122610371594  0.3005954553686873
  0.6873721264396898  0.4566548619885305  0.5655078847871770
  0.1882505475459996  0.2963275303747518  0.7441669892167158
  0.0622529935976487  0.5459584067664376  0.7440229160661748
  0.0625719973751907  0.8721439030660084  0.4346389762423733
  0.1877588879170076  0.6262677990038813  0.6551854202716902
  0.3128517823005566  0.8762824664580775  0.6552725973001687
  0.0622703837498732  0.1974164182380346  0.2113664803432379
  0.4373627836581298  0.3006997560408196  0.8766768199318601
  0.8128744331750847  0.5357880173224203  0.3892488578080379
  0.0632677017457984  0.0317601101685718  0.2557801244747145
  0.6865102496315072  0.1210781816624782  0.5212828600379474
  0.9372754280075027  0.2919791048443748  0.6101988097853630
  0.3131209034571029  0.8588711729711805  0.1670128690719783
  0.6872049298275281  0.9569845559902377  0.4785392830246829
  0.8124977442647486  0.0269470783178454  0.1225951068727704
  0.5611904978707207  0.8670941026911418  0.3008369208133787
  0.8122803507376671  0.2017428533475992  0.3454509143447105
  0.3140583765556271  0.8714726946575879  0.5212132983225646
  0.1861156278363575  0.9681999608237155  0.8327520074155691
  0.8120689361765816  0.0460176646654365  0.7438421412443469
  0.0632437238412195  0.2014776369974220  0.3453888190201402
  0.5624400030381944  0.8807078372892726  0.7885183082064514
  0.0629733560393162  0.8683246439375025  0.3005681895555801
  0.4377376062170322  0.9473861334203231  0.2114098253987661
  0.9367647024613345  0.9574793875027949  0.5653141678858027
  0.3127882023202585  0.0260974752278265  0.1228452905051608
  0.1880734754205403  0.7999396729920443  0.8769218174270794
  0.8112754998297350  0.2081780317648659  0.5652536790252422
  0.5625153873977584  0.2054806824679679  0.4785136033019666
  0.6872048988858164  0.6270691196966226  0.6551135715406790
  0.5624771489425080  0.0320383548106551  0.2555015132889901
  0.4367130916183754  0.4514887049879725  0.3457305408735408
  0.9382539893842057  0.1081122524188637  0.1672789643144191
  0.5626214618167523  0.8770725500119457  0.6552053079642511
  0.9384575929269204  0.2820136940440571  0.2556060640053176
  0.8125566839947335  0.3813876630172107  0.7886120147904691
  0.4387497225071877  0.9574403431787560  0.5653878375926488
  0.8124707777722193  0.7072680468597458  0.4784904899168473
  0.3128560594832453  0.3762933261658253  0.6551306624396981
  0.8131624856726861  0.5270051586859724  0.1226327844192041
  0.1876071382394514  0.6215185377196492  0.5212268408336098
  0.0624300381781197  0.2063181251847199  0.4781011224927315
  0.9379512211286117  0.6164249654765663  0.3006228981618776
  0.0621661201351549  0.3721492294278334  0.5212684141014091
  0.6880767810041671  0.4705104246664158  0.8335900181095257
  0.1865679598864476  0.9602072596563525  0.6998490306704475
  0.0632321326872345  0.0453389129143190  0.7440266543801579
  0.0631302672888368  0.8799089340513806  0.7886958257143554
  0.0631416824419464  0.0430970598714612  0.6106670112654233
  0.6872886753994385  0.1271089697695011  0.6551917331717544
  0.6859260337904327  0.2991322331639459  0.8768785920502478
  0.8127386215319404  0.5455843679476516  0.7440093223418446
  0.1865455570198155  0.9473410580494679  0.2113843552959787
  0.3129553560679159  0.3720654238013388  0.5212814269553432
  0.0626948440872799  0.8766962715797761  0.6554760818365056
  0.1878194490290563  0.6216153258057180  0.4345870960494775
  0.0637137042633559  0.5398256798357506  0.6106750532226022
  0.6864423831282966  0.6166821518054350  0.3004193136435594
  0.1871826678733047  0.6301639895827633  0.7886571704194782
  0.4368366124146298  0.6306951275065547  0.7884652555602206
  0.1873854919645190  0.2754062810346707  0.1227545435295406
  0.8114268084464878  0.0366919268887547  0.3892187795215413
  0.3130120404657584  0.8712244332709006  0.4347417307358599
  0.9366144067600771  0.1218182530744353  0.5211594120410078
  0.9384704997851833  0.1262260473712779  0.6552343656247563
  0.8131658608383969  0.3583836290170266  0.1671739471542799
  0.8119059498168367  0.0412207758430020  0.6105189320807120
  0.4373460817123745  0.7768056629626168  0.1227381355405518
  0.5626440442969768  0.2197485603386259  0.8332226548597332
  0.8112265205329120  0.3775453629299093  0.6548701630535469
  0.9367539320664601  0.9691121130882796  0.8336680403173576
  0.1864435491966454  0.2877206841648390  0.3894513172819224
  0.6869201096466457  0.4518073387905264  0.3457409874403374
  0.5605006028317707  0.3672400900957237  0.3005673087994541
  0.6878142105773204  0.7761453956129849  0.1225736609477193
  0.3135278638149533  0.0527179109695131  0.8771037930528920
  0.3124393765047283  0.5399683475708994  0.6103562216177528
  0.8120757980068479  0.5320298307017239  0.2553828132361196
  0.6875555933711340  0.6301262721703187  0.7886043821953410
  0.6863533866610857  0.7861194373787714  0.3891481696129614
  0.8127974483648136  0.0310798458107415  0.2553692786669261
  0.8123961593176776  0.8720083519399452  0.4346581001157338
  0.0631177541326772  0.5313957696829790  0.2556154853964431
  0.5625877024993012  0.6963571215596371  0.2116688263069750
  0.4380529935484938  0.4569293355585644  0.5655782885064020
  0.5626162242303600  0.3799938440451942  0.7886482778737670
  0.9383084564013319  0.6090264773801525  0.1669307577062949
  0.0637406348330617  0.6998362923018199  0.3456161633870888
  0.9372527628852634  0.7848222394563138  0.3891625670301976
  0.5621087613432775  0.2003721884468054  0.3456566433904393
  0.5621309022300321  0.2105345357958175  0.6996111453193661
  0.3121801053836304  0.3715910715123907  0.4343841608355496
  0.5618915966086735  0.5363742513605916  0.3889840521643186
  0.5621381186656660  0.7074065264762506  0.4784924196959236
  0.5618451468633133  0.7012882612136119  0.3457125908055674
  0.4372249275984117  0.9612121211858772  0.6998163876697029
  0.4380696958777191  0.9504424425209156  0.3456431741775088
  0.8128970898379615  0.3717928536233595  0.4343931787040689
  0.9376960371607438  0.2961876716854511  0.7439544900719821
  0.8125979664215905  0.2094315751024840  0.6996723463494000
  0.9367628400410709  0.4477513205725590  0.2114793398943427
  0.6878613682469970  0.7960248101795246  0.7438971610276079
  0.1871822647330464  0.1214553610951976  0.4346634613514370
  0.1871547219356910  0.4473785969735458  0.2114062954993892
  0.4383470621317843  0.9568525367415834  0.4783482159633628
  0.9363795597045316  0.2997084404966575  0.8773020978914564
  0.5621322298959006  0.0416587359408362  0.6103134955155524
  0.6863626292412625  0.2924771927223621  0.6106083446321052
  0.8119521860432831  0.7056225766705454  0.5652682397842490
  0.4380696959940290  0.4685848487461030  0.8331552076335905
  0.4384793959653431  0.2927282154362637  0.6107808497161873
  0.6875236623555537  0.6218161277122194  0.5214427274254382
  0.3132967561274936  0.3577838328666063  0.1673138454074377
  0.5628186061512519  0.3578397522439261  0.1672179688682819
  0.5615662073677836  0.1977268420718703  0.2114991523663070
  0.8119193105223447  0.1975800417427939  0.2114709052577649
  0.0626796761001788  0.0370057280280760  0.3894591385294862
  0.1875409619087944  0.4568911373565501  0.5655188781834390
  0.4380484343975331  0.7907790376143452  0.6104620559139710
  0.5632000923009809  0.5402283239066041  0.6105643204738630
  0.4376320677805211  0.2749620697678243  0.1228221134320894
  0.1878500986850943  0.6085421767085242  0.1671714213222251
  0.4377762306128226  0.2957296163735368  0.7439655025742377
  0.6859603804008531  0.7904935503968114  0.6105674387432745
  0.9387385021977781  0.6299843823372765  0.7886522849524022
  0.1879968487724867  0.7857235733763184  0.3892722969225721
  0.5633563890699339  0.2062744868645854  0.5653126629164232
  0.4381479065976419  0.6280008073741103  0.6554414910558278
  0.0624225533977433  0.3711868026554804  0.4344937781509480
  0.8124788425949011  0.7004254591393368  0.3456572121355474
  0.9378562390251656  0.7814278067233547  0.2555022029574426
  0.3123617346684293  0.1980193293581169  0.2114899777377826
  0.4369493335796766  0.1207716789785126  0.4344082339233791
  0.3129778113835935  0.2203487079974247  0.8328865678855167
  0.8112711486816683  0.8721368946643943  0.5210839978896898
  0.1873635871912096  0.1174953374207423  0.3003817912784053
  0.6880563463370964  0.7999129509741820  0.8769407299740951
  0.6866979077695706  0.9613009917458958  0.6996361710909684
  0.3128705327362891  0.0361942930741198  0.3893840501511828
  0.6861139959449779  0.4612031767054090  0.6994759566459706
  0.3127687970439094  0.7062775218338191  0.4783610667440030
  0.1880277992358058  0.1301099715630922  0.7885755085411469
  0.0614327387861445  0.2081181340611276  0.5655766370761131
  0.9376863246061887  0.7754761975705495  0.1227939741093669
  0.6867233118540242  0.2827226420406436  0.2554685681971728
  0.9381372502285534  0.4513851868109957  0.3458027848228186
  0.4367920227584514  0.1305118539912667  0.7884191095012315
  0.4378019202018011  0.4566477880380709  0.4783744379512637
  0.9381495771300298  0.1301007013574627  0.7885876349411742
  0.9381703801054667  0.7956226346036419  0.7437379328834370
  0.8137592572363848  0.7114093290799498  0.6997628310981925
  0.5631252043750526  0.8586799282262514  0.1670831475674912
  0.0634707657450389  0.3584062473820593  0.1671283399439359
  0.3116420396338797  0.7187376717605167  0.8329202033106246
  0.4357018024814080  0.1176810480501896  0.3005028269738987
  0.5622261685507119  0.0267248859459480  0.1228950043449682
  0.0623135625088292  0.5541161134007865  0.8769049526775912
  0.0617394761726314  0.0500847743819121  0.8769248775384355
  0.8107665287029631  0.5538345977707954  0.8768154956798406
  0.1886116791296162  0.7908854539253186  0.6106360028250631
  0.6866484537199244  0.4478763655746671  0.2116755010909002
  0.4370307983853748  0.2829324124234157  0.2557666398847920
  0.1878872163106385  0.7808711697489537  0.2554800603092457
  0.8115896193733005  0.6970573916941413  0.2118475736275112
  0.0639535040981730  0.7112398516861507  0.6997402201267204
  0.8118987987959070  0.2191517243936145  0.8339069531369738
  0.9367401021410314  0.9612886494325017  0.6994203460358763
  0.3111967580965515  0.8689838171056888  0.3009941784436169
  0.0616149999399055  0.5358479155953123  0.3889157987596928
  0.9369028914218243  0.4560011142875942  0.5654896293665632
  0.0628734968810147  0.3803031223202871  0.7883369305509099
  0.8132422343146871  0.7194599265173740  0.8343659090929205
  0.1874703835376705  0.9570402702055847  0.4782672664481327
  0.3139844363752086  0.2077427926021513  0.5655580864632394
  0.0617161122842631  0.3775225380598899  0.6552913290108644
  0.5631281629316736  0.7104724193396458  0.6995366769248721
  0.1871659600566043  0.2924630684889536  0.6106189389609387
  0.3139127617630286  0.2009260894062005  0.3453077135137422
 
  0.00000000E+00  0.00000000E+00  0.00000000E+00
  0.00000000E+00  0.00000000E+00  0.00000000E+00
  0.00000000E+00  0.00000000E+00  0.00000000E+00
  0.00000000E+00  0.00000000E+00  0.00000000E+00
  0.00000000E+00  0.00000000E+00  0.00000000E+00
  0.00000000E+00  0.00000000E+00  0.00000000E+00
  0.00000000E+00  0.00000000E+00  0.00000000E+00
  0.00000000E+00  0.00000000E+00  0.00000000E+00
  0.00000000E+00  0.00000000E+00  0.00000000E+00
  0.00000000E+00  0.00000000E+00  0.00000000E+00
  0.00000000E+00  0.00000000E+00  0.00000000E+00
  0.00000000E+00  0.00000000E+00  0.00000000E+00
  0.00000000E+00  0.00000000E+00  0.00000000E+00
  0.00000000E+00  0.00000000E+00  0.00000000E+00
  0.00000000E+00  0.00000000E+00  0.00000000E+00
  0.00000000E+00  0.00000000E+00  0.00000000E+00
  0.00000000E+00  0.00000000E+00  0.00000000E+00
  0.00000000E+00  0.00000000E+00  0.00000000E+00
  0.00000000E+00  0.00000000E+00  0.00000000E+00
  0.00000000E+00  0.00000000E+00  0.00000000E+00
  0.00000000E+00  0.00000000E+00  0.00000000E+00
  0.00000000E+00  0.00000000E+00  0.00000000E+00
  0.00000000E+00  0.00000000E+00  0.00000000E+00
  0.00000000E+00  0.00000000E+00  0.00000000E+00
  0.00000000E+00  0.00000000E+00  0.00000000E+00
  0.00000000E+00  0.00000000E+00  0.00000000E+00
  0.00000000E+00  0.00000000E+00  0.00000000E+00
  0.00000000E+00  0.00000000E+00  0.00000000E+00
  0.00000000E+00  0.00000000E+00  0.00000000E+00
  0.00000000E+00  0.00000000E+00  0.00000000E+00
  0.00000000E+00  0.00000000E+00  0.00000000E+00
  0.00000000E+00  0.00000000E+00  0.00000000E+00
  0.00000000E+00  0.00000000E+00  0.00000000E+00
  0.00000000E+00  0.00000000E+00  0.00000000E+00
  0.00000000E+00  0.00000000E+00  0.00000000E+00
  0.00000000E+00  0.00000000E+00  0.00000000E+00
  0.00000000E+00  0.00000000E+00  0.00000000E+00
  0.00000000E+00  0.00000000E+00  0.00000000E+00
  0.00000000E+00  0.00000000E+00  0.00000000E+00
  0.00000000E+00  0.00000000E+00  0.00000000E+00
  0.00000000E+00  0.00000000E+00  0.00000000E+00
  0.00000000E+00  0.00000000E+00  0.00000000E+00
  0.00000000E+00  0.00000000E+00  0.00000000E+00
  0.00000000E+00  0.00000000E+00  0.00000000E+00
  0.00000000E+00  0.00000000E+00  0.00000000E+00
  0.00000000E+00  0.00000000E+00  0.00000000E+00
  0.00000000E+00  0.00000000E+00  0.00000000E+00
  0.00000000E+00  0.00000000E+00  0.00000000E+00
  0.00000000E+00  0.00000000E+00  0.00000000E+00
  0.00000000E+00  0.00000000E+00  0.00000000E+00
  0.00000000E+00  0.00000000E+00  0.00000000E+00
  0.00000000E+00  0.00000000E+00  0.00000000E+00
  0.00000000E+00  0.00000000E+00  0.00000000E+00
  0.00000000E+00  0.00000000E+00  0.00000000E+00
  0.00000000E+00  0.00000000E+00  0.00000000E+00
  0.00000000E+00  0.00000000E+00  0.00000000E+00
  0.00000000E+00  0.00000000E+00  0.00000000E+00
  0.00000000E+00  0.00000000E+00  0.00000000E+00
  0.00000000E+00  0.00000000E+00  0.00000000E+00
  0.00000000E+00  0.00000000E+00  0.00000000E+00
  0.00000000E+00  0.00000000E+00  0.00000000E+00
  0.00000000E+00  0.00000000E+00  0.00000000E+00
  0.00000000E+00  0.00000000E+00  0.00000000E+00
  0.00000000E+00  0.00000000E+00  0.00000000E+00
  0.00000000E+00  0.00000000E+00  0.00000000E+00
  0.00000000E+00  0.00000000E+00  0.00000000E+00
  0.00000000E+00  0.00000000E+00  0.00000000E+00
  0.00000000E+00  0.00000000E+00  0.00000000E+00
  0.00000000E+00  0.00000000E+00  0.00000000E+00
  0.00000000E+00  0.00000000E+00  0.00000000E+00
  0.00000000E+00  0.00000000E+00  0.00000000E+00
  0.00000000E+00  0.00000000E+00  0.00000000E+00
  0.00000000E+00  0.00000000E+00  0.00000000E+00
  0.00000000E+00  0.00000000E+00  0.00000000E+00
  0.00000000E+00  0.00000000E+00  0.00000000E+00
  0.00000000E+00  0.00000000E+00  0.00000000E+00
  0.00000000E+00  0.00000000E+00  0.00000000E+00
  0.00000000E+00  0.00000000E+00  0.00000000E+00
  0.00000000E+00  0.00000000E+00  0.00000000E+00
  0.00000000E+00  0.00000000E+00  0.00000000E+00
  0.00000000E+00  0.00000000E+00  0.00000000E+00
  0.00000000E+00  0.00000000E+00  0.00000000E+00
  0.00000000E+00  0.00000000E+00  0.00000000E+00
  0.00000000E+00  0.00000000E+00  0.00000000E+00
  0.00000000E+00  0.00000000E+00  0.00000000E+00
  0.00000000E+00  0.00000000E+00  0.00000000E+00
  0.00000000E+00  0.00000000E+00  0.00000000E+00
  0.00000000E+00  0.00000000E+00  0.00000000E+00
  0.00000000E+00  0.00000000E+00  0.00000000E+00
  0.00000000E+00  0.00000000E+00  0.00000000E+00
  0.00000000E+00  0.00000000E+00  0.00000000E+00
  0.00000000E+00  0.00000000E+00  0.00000000E+00
  0.00000000E+00  0.00000000E+00  0.00000000E+00
  0.00000000E+00  0.00000000E+00  0.00000000E+00
  0.00000000E+00  0.00000000E+00  0.00000000E+00
  0.00000000E+00  0.00000000E+00  0.00000000E+00
  0.00000000E+00  0.00000000E+00  0.00000000E+00
  0.00000000E+00  0.00000000E+00  0.00000000E+00
  0.00000000E+00  0.00000000E+00  0.00000000E+00
  0.00000000E+00  0.00000000E+00  0.00000000E+00
  0.00000000E+00  0.00000000E+00  0.00000000E+00
  0.00000000E+00  0.00000000E+00  0.00000000E+00
  0.00000000E+00  0.00000000E+00  0.00000000E+00
  0.00000000E+00  0.00000000E+00  0.00000000E+00
  0.00000000E+00  0.00000000E+00  0.00000000E+00
  0.00000000E+00  0.00000000E+00  0.00000000E+00
  0.00000000E+00  0.00000000E+00  0.00000000E+00
  0.00000000E+00  0.00000000E+00  0.00000000E+00
  0.00000000E+00  0.00000000E+00  0.00000000E+00
  0.00000000E+00  0.00000000E+00  0.00000000E+00
  0.00000000E+00  0.00000000E+00  0.00000000E+00
  0.00000000E+00  0.00000000E+00  0.00000000E+00
  0.00000000E+00  0.00000000E+00  0.00000000E+00
  0.00000000E+00  0.00000000E+00  0.00000000E+00
  0.00000000E+00  0.00000000E+00  0.00000000E+00
  0.00000000E+00  0.00000000E+00  0.00000000E+00
  0.00000000E+00  0.00000000E+00  0.00000000E+00
  0.00000000E+00  0.00000000E+00  0.00000000E+00
  0.00000000E+00  0.00000000E+00  0.00000000E+00
  0.00000000E+00  0.00000000E+00  0.00000000E+00
  0.00000000E+00  0.00000000E+00  0.00000000E+00
  0.00000000E+00  0.00000000E+00  0.00000000E+00
  0.00000000E+00  0.00000000E+00  0.00000000E+00
  0.00000000E+00  0.00000000E+00  0.00000000E+00
  0.00000000E+00  0.00000000E+00  0.00000000E+00
  0.00000000E+00  0.00000000E+00  0.00000000E+00
  0.00000000E+00  0.00000000E+00  0.00000000E+00
  0.00000000E+00  0.00000000E+00  0.00000000E+00
  0.00000000E+00  0.00000000E+00  0.00000000E+00
  0.00000000E+00  0.00000000E+00  0.00000000E+00
  0.00000000E+00  0.00000000E+00  0.00000000E+00
  0.00000000E+00  0.00000000E+00  0.00000000E+00
  0.00000000E+00  0.00000000E+00  0.00000000E+00
  0.00000000E+00  0.00000000E+00  0.00000000E+00
  0.00000000E+00  0.00000000E+00  0.00000000E+00
  0.00000000E+00  0.00000000E+00  0.00000000E+00
  0.00000000E+00  0.00000000E+00  0.00000000E+00
  0.00000000E+00  0.00000000E+00  0.00000000E+00
  0.00000000E+00  0.00000000E+00  0.00000000E+00
  0.00000000E+00  0.00000000E+00  0.00000000E+00
  0.00000000E+00  0.00000000E+00  0.00000000E+00
  0.00000000E+00  0.00000000E+00  0.00000000E+00
  0.00000000E+00  0.00000000E+00  0.00000000E+00
  0.00000000E+00  0.00000000E+00  0.00000000E+00
  0.00000000E+00  0.00000000E+00  0.00000000E+00
  0.00000000E+00  0.00000000E+00  0.00000000E+00
  0.00000000E+00  0.00000000E+00  0.00000000E+00
  0.00000000E+00  0.00000000E+00  0.00000000E+00
  0.00000000E+00  0.00000000E+00  0.00000000E+00
  0.00000000E+00  0.00000000E+00  0.00000000E+00
  0.00000000E+00  0.00000000E+00  0.00000000E+00
  0.00000000E+00  0.00000000E+00  0.00000000E+00
  0.00000000E+00  0.00000000E+00  0.00000000E+00
  0.00000000E+00  0.00000000E+00  0.00000000E+00
  0.00000000E+00  0.00000000E+00  0.00000000E+00
  0.00000000E+00  0.00000000E+00  0.00000000E+00
  0.00000000E+00  0.00000000E+00  0.00000000E+00
  0.00000000E+00  0.00000000E+00  0.00000000E+00
  0.00000000E+00  0.00000000E+00  0.00000000E+00
  0.00000000E+00  0.00000000E+00  0.00000000E+00
  0.00000000E+00  0.00000000E+00  0.00000000E+00
  0.00000000E+00  0.00000000E+00  0.00000000E+00
  0.00000000E+00  0.00000000E+00  0.00000000E+00
  0.00000000E+00  0.00000000E+00  0.00000000E+00
  0.00000000E+00  0.00000000E+00  0.00000000E+00
  0.00000000E+00  0.00000000E+00  0.00000000E+00
  0.00000000E+00  0.00000000E+00  0.00000000E+00
  0.00000000E+00  0.00000000E+00  0.00000000E+00
  0.00000000E+00  0.00000000E+00  0.00000000E+00
  0.00000000E+00  0.00000000E+00  0.00000000E+00
  0.00000000E+00  0.00000000E+00  0.00000000E+00
  0.00000000E+00  0.00000000E+00  0.00000000E+00
  0.00000000E+00  0.00000000E+00  0.00000000E+00
  0.00000000E+00  0.00000000E+00  0.00000000E+00
  0.00000000E+00  0.00000000E+00  0.00000000E+00
  0.00000000E+00  0.00000000E+00  0.00000000E+00
  0.00000000E+00  0.00000000E+00  0.00000000E+00
  0.00000000E+00  0.00000000E+00  0.00000000E+00
  0.00000000E+00  0.00000000E+00  0.00000000E+00
  0.00000000E+00  0.00000000E+00  0.00000000E+00
  0.00000000E+00  0.00000000E+00  0.00000000E+00
  0.00000000E+00  0.00000000E+00  0.00000000E+00
  0.00000000E+00  0.00000000E+00  0.00000000E+00
  0.00000000E+00  0.00000000E+00  0.00000000E+00
  0.00000000E+00  0.00000000E+00  0.00000000E+00
  0.00000000E+00  0.00000000E+00  0.00000000E+00
  0.00000000E+00  0.00000000E+00  0.00000000E+00
  0.00000000E+00  0.00000000E+00  0.00000000E+00
  0.00000000E+00  0.00000000E+00  0.00000000E+00
  0.00000000E+00  0.00000000E+00  0.00000000E+00
  0.00000000E+00  0.00000000E+00  0.00000000E+00
  0.00000000E+00  0.00000000E+00  0.00000000E+00
  0.00000000E+00  0.00000000E+00  0.00000000E+00
  0.00000000E+00  0.00000000E+00  0.00000000E+00
  0.00000000E+00  0.00000000E+00  0.00000000E+00
  0.00000000E+00  0.00000000E+00  0.00000000E+00
  0.00000000E+00  0.00000000E+00  0.00000000E+00
  0.00000000E+00  0.00000000E+00  0.00000000E+00
  0.00000000E+00  0.00000000E+00  0.00000000E+00
  0.00000000E+00  0.00000000E+00  0.00000000E+00
  0.00000000E+00  0.00000000E+00  0.00000000E+00
  0.00000000E+00  0.00000000E+00  0.00000000E+00
  0.00000000E+00  0.00000000E+00  0.00000000E+00
  0.00000000E+00  0.00000000E+00  0.00000000E+00
  0.00000000E+00  0.00000000E+00  0.00000000E+00
  0.00000000E+00  0.00000000E+00  0.00000000E+00
  0.00000000E+00  0.00000000E+00  0.00000000E+00
  0.00000000E+00  0.00000000E+00  0.00000000E+00
  0.00000000E+00  0.00000000E+00  0.00000000E+00
  0.00000000E+00  0.00000000E+00  0.00000000E+00
  0.00000000E+00  0.00000000E+00  0.00000000E+00
  0.00000000E+00  0.00000000E+00  0.00000000E+00
  0.00000000E+00  0.00000000E+00  0.00000000E+00
  0.00000000E+00  0.00000000E+00  0.00000000E+00
  0.00000000E+00  0.00000000E+00  0.00000000E+00
  0.00000000E+00  0.00000000E+00  0.00000000E+00
  0.00000000E+00  0.00000000E+00  0.00000000E+00
  0.00000000E+00  0.00000000E+00  0.00000000E+00
  0.00000000E+00  0.00000000E+00  0.00000000E+00
  0.00000000E+00  0.00000000E+00  0.00000000E+00
  0.00000000E+00  0.00000000E+00  0.00000000E+00
  0.00000000E+00  0.00000000E+00  0.00000000E+00
  0.00000000E+00  0.00000000E+00  0.00000000E+00
  0.00000000E+00  0.00000000E+00  0.00000000E+00
  0.00000000E+00  0.00000000E+00  0.00000000E+00
  0.00000000E+00  0.00000000E+00  0.00000000E+00
  0.00000000E+00  0.00000000E+00  0.00000000E+00
  0.00000000E+00  0.00000000E+00  0.00000000E+00
  0.00000000E+00  0.00000000E+00  0.00000000E+00
  0.00000000E+00  0.00000000E+00  0.00000000E+00
  0.00000000E+00  0.00000000E+00  0.00000000E+00
  0.00000000E+00  0.00000000E+00  0.00000000E+00
  0.00000000E+00  0.00000000E+00  0.00000000E+00
  0.00000000E+00  0.00000000E+00  0.00000000E+00
  0.00000000E+00  0.00000000E+00  0.00000000E+00
  0.00000000E+00  0.00000000E+00  0.00000000E+00
  0.00000000E+00  0.00000000E+00  0.00000000E+00
  0.00000000E+00  0.00000000E+00  0.00000000E+00
  0.00000000E+00  0.00000000E+00  0.00000000E+00
  0.00000000E+00  0.00000000E+00  0.00000000E+00
  0.00000000E+00  0.00000000E+00  0.00000000E+00
  0.00000000E+00  0.00000000E+00  0.00000000E+00
  0.00000000E+00  0.00000000E+00  0.00000000E+00
  0.00000000E+00  0.00000000E+00  0.00000000E+00
  0.00000000E+00  0.00000000E+00  0.00000000E+00
  0.00000000E+00  0.00000000E+00  0.00000000E+00
  0.00000000E+00  0.00000000E+00  0.00000000E+00