FeMn_288_15                             
    1.000000000000000     
     9.7266779999999997    0.0000000000000000    0.0000000000000000
     0.0000000000000000    8.4235500000000005    0.0000000000000000
     0.0000000000000000    0.0000000000000000   45.0000000000000000
   Fe   Mn
   273    15
Direct
  0.3125561496622323  0.5462205598181894  0.7443769918911241
  0.0630930703445313  0.8583331027331079  0.1663019779550816
  0.6878539054102847  0.2753066609113924  0.1235978086010785
  0.1877333994383917  0.4686490803282984  0.8333765876216633
  0.5630228797900708  0.3770806695461148  0.6552773366514050
  0.1892949525439488  0.2994254755899950  0.8765028612343783
  0.6883990066686807  0.1083772479336298  0.1664318987449003
  0.4387191542825508  0.6086626101536324  0.1665368873879512
  0.0615340164945868  0.6972122911316400  0.2113051893671437
  0.6876443544101888  0.7815760995814800  0.2556152342405389
  0.6871954694538192  0.4560495371821026  0.4782434050460653
  0.8123228992267684  0.2062546722368836  0.4783366406793549
  0.5622451713261983  0.8716202959590278  0.5213492489092572
  0.3129546598813892  0.0315455146048381  0.2557601054735365
  0.9372572303629496  0.2753648864700141  0.1235757399466763
  0.3124928642888054  0.5269481574704892  0.1234384700905771
  0.0624096142045358  0.0268936978003680  0.1236813039193412
  0.5628333991865550  0.7075917903566478  0.5654674891162886
  0.0626786622879981  0.7056945746508722  0.4782822757822152
  0.9380201602573904  0.1208784187319591  0.4341787484606007
  0.9377188106338334  0.9512642426373823  0.3451319561968718
  0.4374445561206369  0.7964209091118137  0.7441642940075304
  0.0627201770181891  0.7187306305678026  0.8335600433513320
  0.8121570386131202  0.0534210621593201  0.8767216686379919
  0.1872598043169222  0.4560161451633433  0.4782296037108553
  0.3129728389189699  0.7011327092672117  0.3451061007809305
  0.4365772440305382  0.9694450070795929  0.8333431370339551
  0.0621821214136487  0.3670694854160699  0.3001500478439510
  0.4374032525601520  0.4472729840162203  0.2112943075866815
  0.6869232316197449  0.9478308750345288  0.2114123208382288
  0.3131790627387915  0.0415949293957645  0.6108046064146835
  0.4378716522318991  0.1213357653571140  0.5212933173378390
  0.3123987782535638  0.8806397129744986  0.7889795085418052
  0.4379661429745475  0.6222252590057822  0.5213822412786999
  0.4378356348176933  0.7815667800779106  0.2555290159527311
  0.0630964808390092  0.2102636664150131  0.6999811436306785
  0.1881488688196214  0.1081608378250844  0.1665015822735244
  0.5625396755193344  0.3716188771090547  0.5213303351932287
  0.5622920166785838  0.5267603743806802  0.1235997213659849
  0.3132941963093782  0.7104654591855932  0.6999201943503494
  0.5615971177695758  0.0462286502596022  0.7440211856700331
  0.6872810005834816  0.6211545178959533  0.4340485926640676
  0.4380566973154098  0.6214911956714414  0.4341266370510997
  0.4357570680408510  0.8004323458072162  0.8765949243864903
  0.9366645040639516  0.7912458060166310  0.6107147375337790
  0.5619283749349717  0.5460194755213700  0.7440542803438184
  0.3125299711042303  0.2063487318299582  0.4782855232844811
  0.3136242950387921  0.2106489635247390  0.6999615241560405
  0.6863569616900118  0.9569230164127500  0.5653978074942816
  0.1884246423293532  0.4615545087783692  0.7000319382712343
  0.8132969599342098  0.8806371618231104  0.7890202269539245
  0.9372206053853748  0.6271716033716784  0.6551371697561499
  0.5615919553546160  0.0538767834941730  0.8766678229142381
  0.9371334652050785  0.6213371969544228  0.5213212513977616
  0.5632558927709558  0.3716271735155264  0.4341702520020460
  0.8131891863703558  0.8573958049668351  0.1662909697263492
  0.9372262228597749  0.1172916917990390  0.3002425088391574
  0.6885785738188919  0.6089011447028596  0.1662948822636021
  0.6869904069576991  0.2863808046780080  0.3889115284408428
  0.9375426513150288  0.4700705418852964  0.8338565137822106
  0.1875594798588161  0.7763339482436010  0.1235940650300617
  0.6873911305636031  0.1306085840060762  0.7887468246763893
  0.9372113536210480  0.4608869092053340  0.6999672996912415
  0.9368621904671496  0.9478092402202840  0.2114060721327239
  0.1881968543482043  0.2814738467953709  0.2556741536261604
  0.1882569421719561  0.9512735636444999  0.3450984839760370
  0.4377281520820113  0.7862702802332515  0.3889207606960237
  0.3123320343120791  0.6972147603421416  0.2114626264116426
  0.9369539664855583  0.2867540773964142  0.3889704148009178
  0.0625273397000416  0.7070484955421105  0.5654009579495776
  0.1891020352281925  0.4506578560242140  0.3451654045513164
  0.3129458424144357  0.0462666739149277  0.7442263236559482
  0.0627216924563817  0.5267281916579746  0.1235697050977727
  0.4385406588103140  0.1081441537427645  0.1665361196303420
  0.3126708626715671  0.7067529012067403  0.5655147077915155
  0.8124631068290614  0.5405865125928307  0.6106208054801618
  0.6866947694012333  0.1171928414388605  0.3003798986595974
  0.3131140805747340  0.5319047218169096  0.2556985747841382
  0.4378195426949255  0.4611422675128447  0.6999113601763089
  0.1874010289520143  0.1220004694636851  0.5211742956795756
  0.8116658980239603  0.8766944416529312  0.6551620221938168
  0.9371478709660445  0.6211587826189144  0.4342505645053525
  0.8120919262025645  0.8671374704340327  0.3001619088989972
  0.5623123299661213  0.7186472372837303  0.8336712547888889
  0.1879630166108488  0.9568357843302202  0.5651655228889557
  0.9372629351804880  0.4562212307891180  0.4784426792820611
  0.9381403362507953  0.7998309871345910  0.8768524738597963
  0.5629419943808631  0.5316323657236646  0.2556647730630875
  0.9369832673380456  0.9566359735348114  0.4781921248269475
  0.0619185824774449  0.8712679608264251  0.5212026987237599
  0.4374062988025127  0.1270590174475939  0.6551702110044263
  0.3114756180384433  0.3798109352207546  0.7888612674521157
  0.6882504501473198  0.9702736496005696  0.8337932263109603
  0.3130794931924623  0.5519204473012699  0.8766148102012832
  0.4376248343887652  0.2863203543750353  0.3889394291579814
  0.6870125621996495  0.1209692634700857  0.4339823812949078
  0.4362765213624988  0.6170394049119933  0.3002345622833921
  0.6869620756516757  0.9510825108253325  0.3452708429568789
  0.8119886790290038  0.3718700444186385  0.5213235829844738
  0.1876929010185200  0.6170266544885774  0.3001438832377915
  0.3124873489040036  0.5363630993137423  0.3887686212567403
  0.0629496595775575  0.2197902965421750  0.8335584380223197
  0.5611577267521146  0.5526888246052181  0.8766592131647321
  0.6873216801428094  0.2956412281365001  0.7441350251741053
  0.1873579518647079  0.1267848768997555  0.6551800775709415
  0.5624281371814926  0.8718777952607771  0.4340830348776410
  0.1876616710780846  0.7963218413986048  0.7442969558047506
  0.5621284022941022  0.0368687717863425  0.3889787207045939
  0.3123016457817781  0.3665670679582002  0.3002337272731952
  0.8117781883280176  0.3664042515545979  0.3001337554998565
  0.6869585182163404  0.4569899721426672  0.5654560181685633
  0.1883266141571242  0.2961037978220853  0.7445460320176773
  0.0624133794157231  0.5457523651806159  0.7445553978211130
  0.0620123952516005  0.8717590136996848  0.4343077974308006
  0.1880865023791958  0.6271481113852613  0.6551603971314639
  0.3132151230633927  0.8759270193609980  0.6552399678112868
  0.0622890243765393  0.1973713216866512  0.2112994351047855
  0.4359912967705843  0.2994402502417561  0.8764940675545987
  0.8116562111177373  0.5363392359477540  0.3890136432399601
  0.0630879300731381  0.0315874795033984  0.2556719309717585
  0.6868016789127631  0.1212744187882653  0.5214077928719969
  0.9370857940018327  0.2915290040986598  0.6104109618044919
  0.3133903959608292  0.8587452590902817  0.1664092876097842
  0.6868594314470016  0.9569259707285308  0.4783628250370156
  0.8125378484563375  0.0275617899240253  0.1236806852467481
  0.5609033479204955  0.8672635479557462  0.3003364374133348
  0.8118747592502585  0.2014893214427780  0.3451612204459894
  0.3135969242412616  0.8714799203883533  0.5213661393914655
  0.1873751511271979  0.9695289600746392  0.8333450872657278
  0.8122416179649435  0.0460196219590991  0.7442489509204596
  0.0635204439712320  0.2011385198353498  0.3452301537771571
  0.5622766786031682  0.8808981111739163  0.7888049409508028
  0.0629668411417839  0.8676904996635050  0.3001092122896800
  0.4373588370265500  0.9474541102534425  0.2113355307345839
  0.9371868033520028  0.9574081148560302  0.5653982727502920
  0.3126084133023807  0.0263430404592346  0.1236365693876579
  0.1891874929946978  0.8005474963322874  0.8765874453152286
  0.8119116428636444  0.2069478739107814  0.5654112384856769
  0.5622478580297874  0.2064114607067561  0.4783744881189583
  0.6869946832705892  0.6276956702420982  0.6552368005007041
  0.5626521660359037  0.0317208731185428  0.2555756329164608
  0.4373414510925404  0.4505904135659043  0.3453360543609240
  0.9378162013732511  0.1083838288733697  0.1663871170197816
  0.5620551501221156  0.8763028464470359  0.6552457165355386
  0.9381098860090651  0.2817164546557071  0.2556719873752161
  0.8131515198260685  0.3806147684691859  0.7888346500763040
  0.4382866966303863  0.9567845452054982  0.5655142018701954
  0.8124966703406583  0.7065771202797752  0.4784585403290212
  0.3127237478319737  0.3772164264883283  0.6551751547569454
  0.8126590924574550  0.5270447450431170  0.1235700628683578
  0.1875170096497027  0.6214774554194216  0.5212820674515013
  0.0626337462012926  0.2068055838898972  0.4782118773780346
  0.9375661735936706  0.6164866027678680  0.3001569689821847
  0.0626261920237877  0.3718588078203501  0.5212811563134402
  0.6882100166651097  0.4699437346566533  0.8338036019671581
  0.1865689241661941  0.9602487230180823  0.7000112128863002
  0.0632148668168198  0.0458543535381687  0.7445431220372535
  0.0632911549628855  0.8805487759904740  0.7888453850782552
  0.0631453437372732  0.0427994984022719  0.6107391659207508
  0.6876431197846713  0.1268588078312574  0.6551631927861225
  0.6866190607544121  0.2981535336183505  0.8766774723135016
  0.8123174252386791  0.5458618826480822  0.7443943625851311
  0.1868898765174375  0.9473850511586319  0.2113285258473383
  0.3127954061779314  0.3722192409927249  0.5213547815589713
  0.0627191405852576  0.8764687677763027  0.6554402865831507
  0.1875641667109092  0.6214213015422415  0.4344485013056832
  0.0637090616195015  0.5402590137202794  0.6107904571175109
  0.6867020931225246  0.6166703405712030  0.3000957930923509
  0.1870939006089585  0.6298756213029004  0.7889240929338553
  0.4364543622088155  0.6305108551376889  0.7887529822803163
  0.1870927454081150  0.2753018433357028  0.1235038973256206
  0.8112042897257039  0.0366366473752415  0.3890842398163294
  0.3131809932179404  0.8711572526259835  0.4345353706816240
  0.9374855672265057  0.1217074200693450  0.5213942080999313
  0.9379171292087773  0.1260937213391043  0.6552182136626241
  0.8131931233655374  0.3583313408980201  0.1663868089363418
  0.8122241059295967  0.0412979647713646  0.6106793899096055
  0.4374586515065024  0.7763724731126077  0.1236321074102393
  0.5622807286729952  0.2187388403364591  0.8336055060281881
  0.8115592264857717  0.3772602399834747  0.6549106117097518
  0.9376705396188826  0.9704787666253502  0.8338246910464988
  0.1867808848854043  0.2871911985525658  0.3889879126572660
  0.6866723515412905  0.4510517402761493  0.3454568643273066
  0.5618385707071684  0.3668279213774303  0.3002105749438214
  0.6878654055976295  0.7758536467693258  0.1236148401425090
  0.3126989620005263  0.0526692623682946  0.8765504739563430
  0.3119987590835599  0.5408041959038522  0.6104939488768047
  0.8127229363036703  0.5316229522407038  0.2555358633111717
  0.6876316179468819  0.6305681877919169  0.7887561315035729
  0.6866272198010002  0.7862656584546956  0.3890589255594594
  0.8127447225657551  0.0314985970628733  0.2554955334257785
  0.8121400504758209  0.8721245146642722  0.4340667028874921
  0.0626966408238069  0.5315064585276690  0.2557055712247725
  0.5622489029848148  0.6969505915080797  0.2113557150897168
  0.4371943090672120  0.4572943366783995  0.5654779319229547
  0.5621887301598009  0.3797847365869281  0.7887487696494749
  0.9378619833606896  0.6087807606158658  0.1662608504644182
  0.0631013552198194  0.7005310611669175  0.3452183126018276
  0.9366298613398271  0.7854874526011396  0.3890034829704549
  0.5622655958745623  0.2008172147291685  0.3453202558789714
  0.5624379185721895  0.2106496559931906  0.6999342994497730
  0.3125977829584607  0.3717784768646314  0.4342400048211652
  0.5623476272144410  0.5361281214531844  0.3889282525240551
  0.5620813339050763  0.7067547907151307  0.4784954537811466
  0.5623337614989115  0.7011487733572871  0.3453991583135619
  0.4371254856966564  0.9608006131570261  0.6999291148378501
  0.4377958896368391  0.9512820159947677  0.3451645136532450
  0.8119417418978221  0.3717066838076629  0.4341542656251149
  0.9377798442901981  0.2954715571399914  0.7444515173093059
  0.8126282097054636  0.2097039457054568  0.6998054128011583
  0.9369381145938132  0.4474940513369898  0.2112793651407243
  0.6877680970730629  0.7959322530506262  0.7440874388800234
  0.1871850996696081  0.1215553462336298  0.4344159141055219
  0.1868945864481206  0.4472722336345445  0.2112046168431400
  0.4382637833757660  0.9569418655772648  0.4783370684714134
  0.9381705195366267  0.2987771200765461  0.8768269134008617
  0.5621182734593376  0.0416546485947787  0.6105994389268579
  0.6873609052298612  0.2911404712766363  0.6108365183587539
  0.8121400109816225  0.7069342369009560  0.5653134425546316
  0.4365726144948488  0.4688220214189339  0.8334218772838116
  0.4378458898067047  0.2913376579645507  0.6107406049313819
  0.6871197947281970  0.6217726231208717  0.5214676215707604
  0.3133801365580193  0.3580447118873310  0.1666796623324442
  0.5634315543669799  0.3582515805790539  0.1664759270065289
  0.5615923765810423  0.1974184388414006  0.2113255451742396
  0.8119899093606274  0.1976379945916192  0.2114027937119937
  0.0619705237152268  0.0366535730113074  0.3890218329183951
  0.1880139537721856  0.4569369182269365  0.5655614561129690
  0.4373820247193828  0.7911200255132892  0.6107854586821424
  0.5625545379118808  0.5411599762432457  0.6108374144649074
  0.4378174025584349  0.2752263072341564  0.1235536264161699
  0.1878057608344093  0.6087985748446310  0.1664974386830632
  0.4376660826427893  0.2958475867648682  0.7442739025617576
  0.6863737552247815  0.7912690119269575  0.6107858493209292
  0.9391506437540303  0.6301525239742900  0.7888141593731273
  0.1874417621050772  0.7859178296907450  0.3889827325603542
  0.5629456894950884  0.2061576920877323  0.5654588727882819
  0.4382106602200608  0.6276388291376191  0.6553013057483431
  0.0623268066237471  0.3716285096382443  0.4343711166308295
  0.8125693890036922  0.7009572548223770  0.3453657848599585
  0.9379225102596103  0.7815911646850808  0.2556324338103241
  0.3122095458351074  0.1974063211003811  0.2113451604583293
  0.4376619379999422  0.1212008765131733  0.4341661646016450
  0.3120215799640606  0.2193964487623248  0.8333102513921312
  0.8117693779544178  0.8718164834716985  0.5213598207871137
  0.1877544296423486  0.1167291756721793  0.3000812502961177
  0.6869008627781178  0.8000341136551128  0.8768510266245304
  0.6866870174888207  0.9607343745139267  0.6998967813300135
  0.3130405098272698  0.0367878311554902  0.3889002644883186
  0.6860917313066465  0.4615215741947328  0.6997307816352284
  0.3125626386121994  0.7059125494218051  0.4784358106020028
  0.1876032062895332  0.1305250470862235  0.7889030144150775
  0.0618520773710313  0.2070119722227068  0.5656069076936138
  0.9372465175296653  0.7757678559702105  0.1236075318516866
  0.6874732188272599  0.2818576273385043  0.2557172169723715
  0.9377184338502764  0.4511259238410668  0.3452617385530350
  0.4359252611696644  0.1304721991694346  0.7887597792325325
  0.4380008841642918  0.4563950346183329  0.4784050694423411
  0.9387110631363222  0.1303499936932495  0.7888209735095733
  0.9378667753401498  0.7958924066442138  0.7442041065211319
  0.8132907547444705  0.7111571765237313  0.6999544659611110
  0.5632117716964072  0.8583302878363062  0.1663062767947242
  0.0627807028089160  0.3583879406787280  0.1664434046888594
  0.3119134207317662  0.7192665482408792  0.8334490442459197
  0.4364568161651975  0.1167052296894204  0.3002742951091940
  0.5626307747008056  0.0268137200932777  0.1237467558972884
  0.0636844135473136  0.5526649595735480  0.8766144219936252
  0.0638916662740164  0.0523924881261536  0.8766106473315372
  0.8121687684976475  0.5527684369465432  0.8768446941733324
  0.1885380986172097  0.7913332981306996  0.6107611938699756
  0.6868284093907284  0.4474523492951426  0.2113512096146763
  0.4376475858664839  0.2817453792747724  0.2556877852258185
  0.1880754072176119  0.7816230924237511  0.2555430357839709
  0.8117737267388339  0.6971960962457047  0.2115995802931032
  0.0635810427314803  0.7113278761977757  0.6998539208992295
  0.8128279739243278  0.2199715645998258  0.8343184040312218
  0.9367787516157531  0.9614445242792370  0.6996339305166932
  0.3121537623327768  0.8681779228150401  0.3003639909773331
  0.0614677913334969  0.5365856762851782  0.3886816142557721
  0.9378381935033835  0.4560506932846441  0.5656275364879012
  0.0634913176586560  0.3793239287586970  0.7886235143533031
  0.8129897931425701  0.7197574991176876  0.8344019273942039
  0.1875435122536226  0.9567365749848715  0.4783947690409568
  0.3132687818688085  0.2076833673730285  0.5656509972555870
  0.0610340634954309  0.3778101888618694  0.6552263092777040
  0.5628804364132989  0.7101390996933167  0.6996262269759764
  0.1869292493731317  0.2917009107102466  0.6106552712473360
  0.3137627345883326  0.2006204035622819  0.3451431728967662
 
  0.00000000E+00  0.00000000E+00  0.00000000E+00
  0.00000000E+00  0.00000000E+00  0.00000000E+00
  0.00000000E+00  0.00000000E+00  0.00000000E+00
  0.00000000E+00  0.00000000E+00  0.00000000E+00
  0.00000000E+00  0.00000000E+00  0.00000000E+00
  0.00000000E+00  0.00000000E+00  0.00000000E+00
  0.00000000E+00  0.00000000E+00  0.00000000E+00
  0.00000000E+00  0.00000000E+00  0.00000000E+00
  0.00000000E+00  0.00000000E+00  0.00000000E+00
  0.00000000E+00  0.00000000E+00  0.00000000E+00
  0.00000000E+00  0.00000000E+00  0.00000000E+00
  0.00000000E+00  0.00000000E+00  0.00000000E+00
  0.00000000E+00  0.00000000E+00  0.00000000E+00
  0.00000000E+00  0.00000000E+00  0.00000000E+00
  0.00000000E+00  0.00000000E+00  0.00000000E+00
  0.00000000E+00  0.00000000E+00  0.00000000E+00
  0.00000000E+00  0.00000000E+00  0.00000000E+00
  0.00000000E+00  0.00000000E+00  0.00000000E+00
  0.00000000E+00  0.00000000E+00  0.00000000E+00
  0.00000000E+00  0.00000000E+00  0.00000000E+00
  0.00000000E+00  0.00000000E+00  0.00000000E+00
  0.00000000E+00  0.00000000E+00  0.00000000E+00
  0.00000000E+00  0.00000000E+00  0.00000000E+00
  0.00000000E+00  0.00000000E+00  0.00000000E+00
  0.00000000E+00  0.00000000E+00  0.00000000E+00
  0.00000000E+00  0.00000000E+00  0.00000000E+00
  0.00000000E+00  0.00000000E+00  0.00000000E+00
  0.00000000E+00  0.00000000E+00  0.00000000E+00
  0.00000000E+00  0.00000000E+00  0.00000000E+00
  0.00000000E+00  0.00000000E+00  0.00000000E+00
  0.00000000E+00  0.00000000E+00  0.00000000E+00
  0.00000000E+00  0.00000000E+00  0.00000000E+00
  0.00000000E+00  0.00000000E+00  0.00000000E+00
  0.00000000E+00  0.00000000E+00  0.00000000E+00
  0.00000000E+00  0.00000000E+00  0.00000000E+00
  0.00000000E+00  0.00000000E+00  0.00000000E+00
  0.00000000E+00  0.00000000E+00  0.00000000E+00
  0.00000000E+00  0.00000000E+00  0.00000000E+00
  0.00000000E+00  0.00000000E+00  0.00000000E+00
  0.00000000E+00  0.00000000E+00  0.00000000E+00
  0.00000000E+00  0.00000000E+00  0.00000000E+00
  0.00000000E+00  0.00000000E+00  0.00000000E+00
  0.00000000E+00  0.00000000E+00  0.00000000E+00
  0.00000000E+00  0.00000000E+00  0.00000000E+00
  0.00000000E+00  0.00000000E+00  0.00000000E+00
  0.00000000E+00  0.00000000E+00  0.00000000E+00
  0.00000000E+00  0.00000000E+00  0.00000000E+00
  0.00000000E+00  0.00000000E+00  0.00000000E+00
  0.00000000E+00  0.00000000E+00  0.00000000E+00
  0.00000000E+00  0.00000000E+00  0.00000000E+00
  0.00000000E+00  0.00000000E+00  0.00000000E+00
  0.00000000E+00  0.00000000E+00  0.00000000E+00
  0.00000000E+00  0.00000000E+00  0.00000000E+00
  0.00000000E+00  0.00000000E+00  0.00000000E+00
  0.00000000E+00  0.00000000E+00  0.00000000E+00
  0.00000000E+00  0.00000000E+00  0.00000000E+00
  0.00000000E+00  0.00000000E+00  0.00000000E+00
  0.00000000E+00  0.00000000E+00  0.00000000E+00
  0.00000000E+00  0.00000000E+00  0.00000000E+00
  0.00000000E+00  0.00000000E+00  0.00000000E+00
  0.00000000E+00  0.00000000E+00  0.00000000E+00
  0.00000000E+00  0.00000000E+00  0.00000000E+00
  0.00000000E+00  0.00000000E+00  0.00000000E+00
  0.00000000E+00  0.00000000E+00  0.00000000E+00
  0.00000000E+00  0.00000000E+00  0.00000000E+00
  0.00000000E+00  0.00000000E+00  0.00000000E+00
  0.00000000E+00  0.00000000E+00  0.00000000E+00
  0.00000000E+00  0.00000000E+00  0.00000000E+00
  0.00000000E+00  0.00000000E+00  0.00000000E+00
  0.00000000E+00  0.00000000E+00  0.00000000E+00
  0.00000000E+00  0.00000000E+00  0.00000000E+00
  0.00000000E+00  0.00000000E+00  0.00000000E+00
  0.00000000E+00  0.00000000E+00  0.00000000E+00
  0.00000000E+00  0.00000000E+00  0.00000000E+00
  0.00000000E+00  0.00000000E+00  0.00000000E+00
  0.00000000E+00  0.00000000E+00  0.00000000E+00
  0.00000000E+00  0.00000000E+00  0.00000000E+00
  0.00000000E+00  0.00000000E+00  0.00000000E+00
  0.00000000E+00  0.00000000E+00  0.00000000E+00
  0.00000000E+00  0.00000000E+00  0.00000000E+00
  0.00000000E+00  0.00000000E+00  0.00000000E+00
  0.00000000E+00  0.00000000E+00  0.00000000E+00
  0.00000000E+00  0.00000000E+00  0.00000000E+00
  0.00000000E+00  0.00000000E+00  0.00000000E+00
  0.00000000E+00  0.00000000E+00  0.00000000E+00
  0.00000000E+00  0.00000000E+00  0.00000000E+00
  0.00000000E+00  0.00000000E+00  0.00000000E+00
  0.00000000E+00  0.00000000E+00  0.00000000E+00
  0.00000000E+00  0.00000000E+00  0.00000000E+00
  0.00000000E+00  0.00000000E+00  0.00000000E+00
  0.00000000E+00  0.00000000E+00  0.00000000E+00
  0.00000000E+00  0.00000000E+00  0.00000000E+00
  0.00000000E+00  0.00000000E+00  0.00000000E+00
  0.00000000E+00  0.00000000E+00  0.00000000E+00
  0.00000000E+00  0.00000000E+00  0.00000000E+00
  0.00000000E+00  0.00000000E+00  0.00000000E+00
  0.00000000E+00  0.00000000E+00  0.00000000E+00
  0.00000000E+00  0.00000000E+00  0.00000000E+00
  0.00000000E+00  0.00000000E+00  0.00000000E+00
  0.00000000E+00  0.00000000E+00  0.00000000E+00
  0.00000000E+00  0.00000000E+00  0.00000000E+00
  0.00000000E+00  0.00000000E+00  0.00000000E+00
  0.00000000E+00  0.00000000E+00  0.00000000E+00
  0.00000000E+00  0.00000000E+00  0.00000000E+00
  0.00000000E+00  0.00000000E+00  0.00000000E+00
  0.00000000E+00  0.00000000E+00  0.00000000E+00
  0.00000000E+00  0.00000000E+00  0.00000000E+00
  0.00000000E+00  0.00000000E+00  0.00000000E+00
  0.00000000E+00  0.00000000E+00  0.00000000E+00
  0.00000000E+00  0.00000000E+00  0.00000000E+00
  0.00000000E+00  0.00000000E+00  0.00000000E+00
  0.00000000E+00  0.00000000E+00  0.00000000E+00
  0.00000000E+00  0.00000000E+00  0.00000000E+00
  0.00000000E+00  0.00000000E+00  0.00000000E+00
  0.00000000E+00  0.00000000E+00  0.00000000E+00
  0.00000000E+00  0.00000000E+00  0.00000000E+00
  0.00000000E+00  0.00000000E+00  0.00000000E+00
  0.00000000E+00  0.00000000E+00  0.00000000E+00
  0.00000000E+00  0.00000000E+00  0.00000000E+00
  0.00000000E+00  0.00000000E+00  0.00000000E+00
  0.00000000E+00  0.00000000E+00  0.00000000E+00
  0.00000000E+00  0.00000000E+00  0.00000000E+00
  0.00000000E+00  0.00000000E+00  0.00000000E+00
  0.00000000E+00  0.00000000E+00  0.00000000E+00
  0.00000000E+00  0.00000000E+00  0.00000000E+00
  0.00000000E+00  0.00000000E+00  0.00000000E+00
  0.00000000E+00  0.00000000E+00  0.00000000E+00
  0.00000000E+00  0.00000000E+00  0.00000000E+00
  0.00000000E+00  0.00000000E+00  0.00000000E+00
  0.00000000E+00  0.00000000E+00  0.00000000E+00
  0.00000000E+00  0.00000000E+00  0.00000000E+00
  0.00000000E+00  0.00000000E+00  0.00000000E+00
  0.00000000E+00  0.00000000E+00  0.00000000E+00
  0.00000000E+00  0.00000000E+00  0.00000000E+00
  0.00000000E+00  0.00000000E+00  0.00000000E+00
  0.00000000E+00  0.00000000E+00  0.00000000E+00
  0.00000000E+00  0.00000000E+00  0.00000000E+00
  0.00000000E+00  0.00000000E+00  0.00000000E+00
  0.00000000E+00  0.00000000E+00  0.00000000E+00
  0.00000000E+00  0.00000000E+00  0.00000000E+00
  0.00000000E+00  0.00000000E+00  0.00000000E+00
  0.00000000E+00  0.00000000E+00  0.00000000E+00
  0.00000000E+00  0.00000000E+00  0.00000000E+00
  0.00000000E+00  0.00000000E+00  0.00000000E+00
  0.00000000E+00  0.00000000E+00  0.00000000E+00
  0.00000000E+00  0.00000000E+00  0.00000000E+00
  0.00000000E+00  0.00000000E+00  0.00000000E+00
  0.00000000E+00  0.00000000E+00  0.00000000E+00
  0.00000000E+00  0.00000000E+00  0.00000000E+00
  0.00000000E+00  0.00000000E+00  0.00000000E+00
  0.00000000E+00  0.00000000E+00  0.00000000E+00
  0.00000000E+00  0.00000000E+00  0.00000000E+00
  0.00000000E+00  0.00000000E+00  0.00000000E+00
  0.00000000E+00  0.00000000E+00  0.00000000E+00
  0.00000000E+00  0.00000000E+00  0.00000000E+00
  0.00000000E+00  0.00000000E+00  0.00000000E+00
  0.00000000E+00  0.00000000E+00  0.00000000E+00
  0.00000000E+00  0.00000000E+00  0.00000000E+00
  0.00000000E+00  0.00000000E+00  0.00000000E+00
  0.00000000E+00  0.00000000E+00  0.00000000E+00
  0.00000000E+00  0.00000000E+00  0.00000000E+00
  0.00000000E+00  0.00000000E+00  0.00000000E+00
  0.00000000E+00  0.00000000E+00  0.00000000E+00
  0.00000000E+00  0.00000000E+00  0.00000000E+00
  0.00000000E+00  0.00000000E+00  0.00000000E+00
  0.00000000E+00  0.00000000E+00  0.00000000E+00
  0.00000000E+00  0.00000000E+00  0.00000000E+00
  0.00000000E+00  0.00000000E+00  0.00000000E+00
  0.00000000E+00  0.00000000E+00  0.00000000E+00
  0.00000000E+00  0.00000000E+00  0.00000000E+00
  0.00000000E+00  0.00000000E+00  0.00000000E+00
  0.00000000E+00  0.00000000E+00  0.00000000E+00
  0.00000000E+00  0.00000000E+00  0.00000000E+00
  0.00000000E+00  0.00000000E+00  0.00000000E+00
  0.00000000E+00  0.00000000E+00  0.00000000E+00
  0.00000000E+00  0.00000000E+00  0.00000000E+00
  0.00000000E+00  0.00000000E+00  0.00000000E+00
  0.00000000E+00  0.00000000E+00  0.00000000E+00
  0.00000000E+00  0.00000000E+00  0.00000000E+00
  0.00000000E+00  0.00000000E+00  0.00000000E+00
  0.00000000E+00  0.00000000E+00  0.00000000E+00
  0.00000000E+00  0.00000000E+00  0.00000000E+00
  0.00000000E+00  0.00000000E+00  0.00000000E+00
  0.00000000E+00  0.00000000E+00  0.00000000E+00
  0.00000000E+00  0.00000000E+00  0.00000000E+00
  0.00000000E+00  0.00000000E+00  0.00000000E+00
  0.00000000E+00  0.00000000E+00  0.00000000E+00
  0.00000000E+00  0.00000000E+00  0.00000000E+00
  0.00000000E+00  0.00000000E+00  0.00000000E+00
  0.00000000E+00  0.00000000E+00  0.00000000E+00
  0.00000000E+00  0.00000000E+00  0.00000000E+00
  0.00000000E+00  0.00000000E+00  0.00000000E+00
  0.00000000E+00  0.00000000E+00  0.00000000E+00
  0.00000000E+00  0.00000000E+00  0.00000000E+00
  0.00000000E+00  0.00000000E+00  0.00000000E+00
  0.00000000E+00  0.00000000E+00  0.00000000E+00
  0.00000000E+00  0.00000000E+00  0.00000000E+00
  0.00000000E+00  0.00000000E+00  0.00000000E+00
  0.00000000E+00  0.00000000E+00  0.00000000E+00
  0.00000000E+00  0.00000000E+00  0.00000000E+00
  0.00000000E+00  0.00000000E+00  0.00000000E+00
  0.00000000E+00  0.00000000E+00  0.00000000E+00
  0.00000000E+00  0.00000000E+00  0.00000000E+00
  0.00000000E+00  0.00000000E+00  0.00000000E+00
  0.00000000E+00  0.00000000E+00  0.00000000E+00
  0.00000000E+00  0.00000000E+00  0.00000000E+00
  0.00000000E+00  0.00000000E+00  0.00000000E+00
  0.00000000E+00  0.00000000E+00  0.00000000E+00
  0.00000000E+00  0.00000000E+00  0.00000000E+00
  0.00000000E+00  0.00000000E+00  0.00000000E+00
  0.00000000E+00  0.00000000E+00  0.00000000E+00
  0.00000000E+00  0.00000000E+00  0.00000000E+00
  0.00000000E+00  0.00000000E+00  0.00000000E+00
  0.00000000E+00  0.00000000E+00  0.00000000E+00
  0.00000000E+00  0.00000000E+00  0.00000000E+00
  0.00000000E+00  0.00000000E+00  0.00000000E+00
  0.00000000E+00  0.00000000E+00  0.00000000E+00
  0.00000000E+00  0.00000000E+00  0.00000000E+00
  0.00000000E+00  0.00000000E+00  0.00000000E+00
  0.00000000E+00  0.00000000E+00  0.00000000E+00
  0.00000000E+00  0.00000000E+00  0.00000000E+00
  0.00000000E+00  0.00000000E+00  0.00000000E+00
  0.00000000E+00  0.00000000E+00  0.00000000E+00
  0.00000000E+00  0.00000000E+00  0.00000000E+00
  0.00000000E+00  0.00000000E+00  0.00000000E+00
  0.00000000E+00  0.00000000E+00  0.00000000E+00
  0.00000000E+00  0.00000000E+00  0.00000000E+00
  0.00000000E+00  0.00000000E+00  0.00000000E+00
  0.00000000E+00  0.00000000E+00  0.00000000E+00
  0.00000000E+00  0.00000000E+00  0.00000000E+00
  0.00000000E+00  0.00000000E+00  0.00000000E+00
  0.00000000E+00  0.00000000E+00  0.00000000E+00
  0.00000000E+00  0.00000000E+00  0.00000000E+00
  0.00000000E+00  0.00000000E+00  0.00000000E+00
  0.00000000E+00  0.00000000E+00  0.00000000E+00
  0.00000000E+00  0.00000000E+00  0.00000000E+00
  0.00000000E+00  0.00000000E+00  0.00000000E+00
  0.00000000E+00  0.00000000E+00  0.00000000E+00
  0.00000000E+00  0.00000000E+00  0.00000000E+00
  0.00000000E+00  0.00000000E+00  0.00000000E+00
  0.00000000E+00  0.00000000E+00  0.00000000E+00
  0.00000000E+00  0.00000000E+00  0.00000000E+00
  0.00000000E+00  0.00000000E+00  0.00000000E+00
  0.00000000E+00  0.00000000E+00  0.00000000E+00
  0.00000000E+00  0.00000000E+00  0.00000000E+00
  0.00000000E+00  0.00000000E+00  0.00000000E+00
  0.00000000E+00  0.00000000E+00  0.00000000E+00