CuInSe2gb                               
   1.00000000000000     
     9.7266780392896699    0.0000000000000000    0.0000000000000000
     0.0000000000000000    8.4235502764570693    0.0000000000000000
     0.0000000000000000    0.0000000000000000   45.0000000000000000
   Fe   Mn
   274    14
Direct
  0.0612631458127258  0.0346479411387068  0.1244236793232150
  0.3135335875511764  0.8738744011474677  0.6551079138624206
  0.1866208176974309  0.1245740215027414  0.7884028642044227
  0.4402197774782002  0.2881569301160756  0.3892817934816195
  0.3148058475457726  0.7111958741695029  0.8336184890867062
  0.8156299686628390  0.2123061901681924  0.8336659250493824
  0.1897875925159131  0.9613881623954780  0.8338019958231910
  0.5616916570761391  0.2061939973587230  0.5657904439476914
  0.0636669520198313  0.0410854525023465  0.7441847870976308
  0.8112776105195053  0.8724100927252432  0.5217155305850211
  0.1886166100134556  0.2912801373411906  0.7442547513431333
  0.9371417002046545  0.4540420850578143  0.3448631498984081
  0.9393713768325375  0.2877028818865695  0.3891896783744271
  0.8128330650783444  0.0437268749438594  0.8756676501556312
  0.1859814659838431  0.7892427056224154  0.6106802518774720
  0.5643451084018382  0.0380692476725832  0.3892874032735489
  0.9403246644693337  0.9615309897907038  0.8338605564934032
  0.3132584409665325  0.5443639502796556  0.8757265344236610
  0.6885228187542828  0.2912902398025462  0.7442486604166758
  0.1845377494572757  0.6167080162180820  0.1662288030863415
  0.8118503513092025  0.2051998347178076  0.4783472844024043
  0.8109299427819803  0.5391242752092902  0.6107239749338040
  0.3127300236903247  0.8716369365466897  0.4342263408350275
  0.8119358812883996  0.0373468714872403  0.2558320617590097
  0.6871143585120620  0.9541306505050310  0.3448962107657138
  0.9338359279034316  0.1155025795502846  0.1663752088485812
  0.0621493185103285  0.8723756002089039  0.5215977377679474
  0.5615251563960411  0.5374053082958864  0.2556881414888512
  0.6872200150153246  0.7940430950071048  0.8757961414888280
  0.5590513984111610  0.3668616821092989  0.1661681166548923
  0.4385819923730066  0.7915729700501416  0.7442303646389402
  0.8117216213174264  0.7062121088026816  0.5657722938927671
  0.5614242119579429  0.8742697544785533  0.7884054316935967
  0.6864882498842501  0.1221478452468054  0.5216653071940973
  0.8135737166385202  0.3739529404842521  0.6551176203317766
  0.9402522157785910  0.4614996618312855  0.8338762302826354
  0.0616746363502592  0.2070289926229515  0.6998872097650002
  0.4366458341856251  0.9567557996595714  0.6998580073519103
  0.3148800237713188  0.2111999894176330  0.8336377892187513
  0.4386641951633599  0.6237941523730135  0.6550762619470563
  0.3111028422304499  0.5393142336827629  0.6106847803808039
  0.9367926054790252  0.4558112729481564  0.5658246289676175
  0.6886167188694829  0.7912247507427750  0.7442062951702706
  0.0649052326473088  0.0440695695728019  0.8756975164984423
  0.6896762401574639  0.7879282389756801  0.3891981681099956
  0.9386703101033375  0.7910189401859662  0.7442346292511922
  0.0624055447008421  0.2043512969569128  0.3448417457481807
  0.6873996822557142  0.4538476200968281  0.3448362629191039
  0.4362602748134395  0.1246400264579474  0.7885923050483110
  0.0632444759333710  0.2028459778505393  0.2115106621875098
  0.0579302960942413  0.3661301077836104  0.1661966984565274
  0.9365535191685159  0.7876810310547891  0.2556563412893410
  0.5615150859094661  0.2069382794385436  0.6998912599954499
  0.6867555272813844  0.9570689916137393  0.6999161855472363
  0.8113559758085639  0.8748809194193267  0.7884875078282454
  0.4368378608408884  0.9561951178167640  0.5657797194666200
  0.8113284842450812  0.3746500715725765  0.7884689639134519
  0.6867159206225929  0.2872832246425024  0.2557823415478997
  0.1867286015827368  0.4561445133109724  0.5657872151996339
  0.0582470434660584  0.8663230985323315  0.1663209293176061
  0.1861404272376605  0.2893168559651501  0.6107872929601077
  0.0617226439751215  0.2061753475720437  0.5657610397848039
  0.3117938618636671  0.2069199157078013  0.6998755036655072
  0.5640600304088013  0.5443378155599179  0.8757166753352074
  0.0616116229099377  0.7060660747443023  0.5657673947818886
  0.6861037111738764  0.6245551288993276  0.7884113723279069
  0.3145933935014559  0.5377738666073436  0.3892512465839036
  0.1870740961603950  0.6224066970087112  0.5216894317830661
  0.5624509815757353  0.8716552471816622  0.4341599325085058
  0.4367714301285492  0.4561873175105886  0.5658251591232758
  0.4385477568193252  0.2916059630134973  0.7442515624997182
  0.8156668030956129  0.8726857934747260  0.3002079070265146
  0.8120247196245831  0.7035911091065844  0.3448992698764932
  0.4400840863644737  0.4611645369212981  0.8337674241447786
  0.6874163160625577  0.9548742726822432  0.4783109585449178
  0.6867251204984516  0.4570983988844898  0.6999018959928974
  0.5618595336653935  0.8724051172528955  0.5216355515858018
  0.5636891853345423  0.3739708901538276  0.6550653966198272
  0.8136147799530870  0.8739039538441411  0.6550979290335678
  0.8119109046416620  0.3709681833415271  0.4340421419327063
  0.8115526711409683  0.5370185434444783  0.2558744682730543
  0.6902570948891941  0.4613419187242795  0.8337867281839899
  0.1863999582790068  0.7825272685379966  0.1241587327056974
  0.6893719321419963  0.2877587223074455  0.3892129185376925
  0.3134613588602232  0.3739730709411041  0.6550647649396888
  0.3124271719117140  0.2039783726553496  0.3449257409576174
  0.8136441098909273  0.5411387399886430  0.7441684964701086
  0.6905080432264142  0.9612835002451009  0.8337822886797315
  0.5635856144168910  0.8738845878667890  0.6550920883036568
  0.3118323016090626  0.7062286853124499  0.5657859201105616
  0.3096597173792371  0.5338110070596012  0.1241268371373184
  0.6880659577094642  0.9543732023112983  0.2117361408699474
  0.3118140274853672  0.2063476032543463  0.5658095892947911
  0.1871401964132488  0.9551613553231071  0.4783323762123012
  0.6870228947999183  0.9562261566030412  0.5658507066726290
  0.4360129240849516  0.7892473480010257  0.6106661501834716
  0.6835635203754683  0.6148553307343236  0.1661085099414518
  0.3155504747867411  0.8723720900031864  0.3001894232559902
  0.3120030787800125  0.7051376491991936  0.4782603335031720
  0.9360683152329468  0.2890763498819362  0.6106535975498433
  0.4407339420954738  0.6218955221281748  0.3002259108909981
  0.8096852799786914  0.8652420203565918  0.1663979973479403
  0.5640434144445167  0.2030247694558547  0.2116641173685526
  0.9344820826831446  0.6159721441895818  0.1664984976752810
  0.4372406966327997  0.9547953154556943  0.4783287602742066
  0.5614429580003376  0.3741429686799463  0.7884286052775632
  0.0617005700787272  0.3727282373379186  0.5215701841839924
  0.3088499719025403  0.3660881628392065  0.1661378420052310
  0.6908845770915553  0.1219609958162850  0.3002860748385852
  0.4401180896022146  0.9611658906044722  0.8337687438865230
  0.1850217440097091  0.2835129160744310  0.1244222197662268
  0.1866678726211963  0.2867525817798804  0.2557739395482872
  0.3127041046668088  0.3712139674201393  0.4341752586145786
  0.5607794875905883  0.0341257927747107  0.1243599085533476
  0.4359756946901549  0.2893478603949988  0.6106745538883452
  0.1872044437457396  0.4540743094297200  0.3448469924411550
  0.4337953970310542  0.2825702325564516  0.1244756256954398
  0.6867278385115940  0.7876275243063786  0.2559244795392049
  0.4367969751378642  0.1227491523178948  0.5216042499139913
  0.1888727428492062  0.2939000398878928  0.8758929846548205
  0.1884289750917774  0.1238120273729674  0.6551301340858348
  0.9387300011589295  0.1238385055040674  0.6550900449059278
  0.8143938363428158  0.5375788082770744  0.3891938651008585
  0.0646042533381966  0.0382562859045972  0.3892509995249602
  0.1846944640176728  0.1153249246943089  0.1666363443661067
  0.0610399441595084  0.5391261786366902  0.6107156826897980
  0.9366878842589644  0.2873716802378819  0.2557204415504652
  0.5609917021521246  0.5393989589717424  0.6106675022522918
  0.9367533386829905  0.9558966357047246  0.5657750017112015
  0.6906763548752544  0.6222329636368850  0.3003164355991511
  0.9375179731148116  0.6213688098838961  0.4340989529064666
  0.9364083342993891  0.6252904879049591  0.7884575113859688
  0.5615469333576439  0.7066940472741263  0.6998594631245738
  0.0643994506159967  0.7123503589160165  0.8336935200870026
  0.9409660859313030  0.1225529801787035  0.3002333596998198
  0.9359338788983369  0.7890671649233256  0.6107479274529000
  0.4369145454377855  0.7873635709527717  0.2559142961536979
  0.3113425794083550  0.3742008041059531  0.7884217685642123
  0.4386186030224490  0.4537724752649946  0.2114754966281434
  0.1870362060240887  0.1224114897406332  0.5216394333749655
  0.8117210336723094  0.7070087392267775  0.6998633716467060
  0.0608961514452321  0.0394747638098690  0.6106456193641973
  0.5648613434009395  0.2114106445301081  0.8336025068989317
  0.3118176413327571  0.8723482108227901  0.5216990838782745
  0.6858163063987405  0.2832095801436772  0.1241279009041499
  0.1885919111102999  0.9548896108903144  0.2117158562954382
  0.6858971323648222  0.2893862172114118  0.6107601123643360
  0.3109270209106371  0.0392604463946188  0.6106823443803202
  0.9363648928602352  0.1255007473051975  0.7884677990663028
  0.4380840610817439  0.7935347682162383  0.8758129041701032
  0.8136568539183062  0.0411855737016578  0.7441700679178013
  0.9367084111217208  0.4570032919452298  0.6998895898197590
  0.1885792334082073  0.6239018196421234  0.6551033817192768
  0.3118113527249766  0.7067823495334217  0.6998721567259204
  0.9342429574731089  0.2831101666870937  0.1242190182753574
  0.4372195503214201  0.4546508764184087  0.4782955018331245
  0.0622802973054168  0.7045906351226966  0.4783631890747808
  0.9373060248044603  0.1213210477567292  0.4344174477593379
  0.4410256180236657  0.1216973262145583  0.3002673357616700
  0.1872529410125217  0.1211183411740656  0.4340324281072912
  0.5642571202571327  0.0443754554881983  0.8757093651590357
  0.1864573820801174  0.9563108810092118  0.5658432592075602
  0.6841623757455845  0.7834132595596635  0.1245098072951022
  0.5623480516389150  0.7037807347781939  0.3449551909337751
  0.3147356455053323  0.0378588732157501  0.3892515387974967
  0.6848243727726034  0.1160084645604248  0.1666980133072404
  0.8139022546585476  0.2026958036522974  0.2115598682216057
  0.0612814826072714  0.5375199483691742  0.2555909472792364
  0.5623343352279255  0.7051894639971923  0.4783074722889709
  0.4346815689086210  0.7839919612420564  0.1240149358447599
  0.5653686141204101  0.3717739940713013  0.3002966871209129
  0.4371690938913349  0.9541375480412707  0.3448626199153230
  0.1866059834837906  0.9570077115365707  0.6999144306071456
  0.4338836723613993  0.6161069666105833  0.1662367137030809
  0.9382990720360191  0.4527987326477997  0.2117467411736582
  0.0611033838585720  0.5330202110085590  0.1242680862903153
  0.8117908671999113  0.3727786044931601  0.5216118538881181
  0.9407219014968126  0.6226632161490778  0.3000877871421686
  0.3119798231417982  0.0371476803907460  0.2557113406538581
  0.6860248001819013  0.7891783439334210  0.6106898979109004
  0.1896549523201579  0.4613996038398729  0.8338230512164745
  0.4348144002238984  0.1149982087916841  0.1665237487111172
  0.3115617988917533  0.3725584413322766  0.5216325762356775
  0.4362466055762009  0.6245544211929993  0.7885808305321058
  0.0614377794602452  0.0374814127391485  0.2557436824963742
  0.5617063014261892  0.7061640532357281  0.5657914188420685
  0.9386635094043058  0.2911603014449438  0.7442648987206885
  0.6861327544074192  0.1246872631482632  0.7884065210657953
  0.1875903833801338  0.4534813137822520  0.2115313573590107
  0.9391639516098037  0.7875991113960191  0.3892240427881483
  0.6872722812940173  0.2940677046730404  0.8758229806741152
  0.5570732245218346  0.8659385199652538  0.1662507238056297
  0.4365724956290158  0.4568398962108207  0.6999178655533991
  0.9376413897702202  0.9539511712787146  0.3448425932931058
  0.6866054944832211  0.6223041546828392  0.5216097909514401
  0.0635979991686146  0.8739131432392709  0.6550842356739441
  0.0616780050908160  0.8748221251306444  0.7885075944196742
  0.0636133254740721  0.3739206035523490  0.6551491168678569
  0.6870456782876012  0.4548649675982903  0.4781836576558395
  0.1864751865521719  0.7875749641819811  0.2558615825835018
  0.4374623374844118  0.1214183903571857  0.4342134088724298
  0.8112887834005477  0.0349510051100602  0.1243427286456176
  0.9366500687223622  0.6223806022715689  0.5215872414101882
  0.4386786336966647  0.1237122647279058  0.6550971097823743
  0.8113171158665542  0.5334820024844742  0.1240092511960830
  0.4374950624856530  0.4541077862804523  0.3449138330563690
  0.8122744827446515  0.2038326909975105  0.3449129749960436
  0.3126262829805102  0.7038445232017393  0.3448712298544971
  0.6885553102057232  0.1238677812297317  0.6550989563727835
  0.5656734440245571  0.8721855643259130  0.3002131895223569
  0.0636606889794017  0.5409869689339419  0.7441812024034697
  0.9386199417913778  0.9542297911055652  0.2115864519289347
  0.8137863166999846  0.7029876161417384  0.2115646412812751
  0.0655510171620102  0.8723542663512774  0.3002579163380852
  0.1906004615686835  0.1225239833928947  0.3000933765900187
  0.0623084102936024  0.7038305482357664  0.3448703164819791
  0.8112588830171513  0.0393493497919333  0.6106566702442223
  0.0624723736051988  0.3710334726640485  0.4340600471565279
  0.5625078506147908  0.2038510771886196  0.3449168242272138
  0.8155983857881466  0.3727429747350670  0.3001925465253332
  0.5624403224157140  0.0376394952656933  0.2557591002451501
  0.5642333166706783  0.5374945870562811  0.3892400265807506
  0.0624620652103842  0.2048941662590212  0.4783808750492413
  0.3114662506438003  0.8742753834312773  0.7884116065018179
  0.9367460104930994  0.9571867651412539  0.6998595915104653
  0.0660026921476156  0.3723947132860715  0.3002321875037262
  0.6885366023051492  0.6239387272347153  0.6551017877329731
  0.6866221001646304  0.4561603735201456  0.5657505404154424
  0.4385512911485649  0.9544630644341505  0.2117230890812669
  0.3121430081450349  0.2048338347442598  0.4782985592807378
  0.8125715560280058  0.5438667379928958  0.8756721546617358
  0.6877952386677666  0.6208555299623546  0.4341203425050292
  0.8118267692073672  0.2070233883119214  0.6998773755686239
  0.8122726306536853  0.7049616339487605  0.4783104959192452
  0.8116793963823951  0.8716382629072817  0.4341632676259748
  0.9372030944387553  0.9544438247293365  0.4784240388713479
  0.5623208976225116  0.2048574664001846  0.4783159925160762
  0.1872269947369765  0.6209636445304296  0.4342011203919663
  0.3134951842650200  0.0413343759252489  0.7442630402408844
  0.9386127994959950  0.6241285395742182  0.6550577580107630
  0.5648316535734632  0.7112540126413740  0.8335858038518408
  0.3157821864988266  0.3721332287653942  0.3002838519866909
  0.3134425490268546  0.5412262184034237  0.7442632890711822
  0.1875199532365467  0.4548303657865893  0.4782846941361901
  0.3133843606572481  0.0444889205522103  0.8757294492890790
  0.1866059826204095  0.4569755287099788  0.6999151529732168
  0.5620855892040982  0.3726170680100673  0.5216118576521555
  0.1891430518379814  0.2879859000166528  0.3892458554645958
  0.3134060448477692  0.2035890659474165  0.2114676615683373
  0.0641139675147750  0.7028765419522948  0.2114422300603242
  0.5623924618065179  0.3712464037033988  0.4341957786531730
  0.4368160471024354  0.6225319565865736  0.5214892525350232
  0.8155361119139638  0.7123429336551078  0.8336689302505591
  0.0615532322784253  0.3746956095807517  0.7884985194651112
  0.4379745805285751  0.2936371762884328  0.8758293443159814
  0.3112287923307148  0.0337333656464919  0.1241027662911748
  0.6877192343057171  0.1216140035614432  0.4341394330405632
  0.1872256730032472  0.9539086932282304  0.3448847117462147
  0.0642824961173039  0.2123673032420118  0.8336952133476421
  0.5611277090692127  0.0393030260119514  0.6106822198478352
  0.6881138420788264  0.4531359689620748  0.2116434492274618
  0.1885289107828234  0.7912400212353687  0.7442300750952902
  0.1907556066643889  0.6222551608232023  0.3001703180523934
  0.4399294086558360  0.7876106267568030  0.3892739175766570
  0.4368980301067760  0.2869830916735448  0.2557507317127316
  0.0648047852688089  0.5439539239189354  0.8757107347084359
  0.5636225064434415  0.0413849121255870  0.7442411174522502
  0.1888246706782952  0.7939529935102121  0.8758654128141179
  0.9370861711734696  0.4546386506675884  0.4782763838121019
  0.5636108417410908  0.5412371468177344  0.7442353861704510
  0.8116754658258403  0.2063406480811535  0.5658102569773165
  0.1865234732114841  0.6245110056258759  0.7883957511852130
  0.0649739504559860  0.5382479065880691  0.3892987287393878
  0.0616803068097033  0.7069913592188540  0.6998425614280559
  0.3114975372133563  0.5371628030455284  0.2555556137979891
  0.3127058134086255  0.7027880070191821  0.2117588909877738
  0.3089536335816707  0.8662892601513239  0.1657584464664484
  0.4368878610375233  0.6210864724077435  0.4341206360472865
  0.8153738580437507  0.0380600158586535  0.3892279453780063
  0.9378951450422142  0.2937005864228202  0.8756781995362980
  0.9378566724654829  0.7937287184464983  0.8757067308036282
  0.9344693028467687  0.7847702553199452  0.1247847912979465
  0.5617073844309847  0.5325572819402603  0.1243934118780243
  0.8076648082264055  0.3660301444132524  0.1657015213586200
  0.0620303033272529  0.8717255733340532  0.4341508910691234
  0.9369113914069087  0.1226874539557941  0.5214961761821453
  0.1902218148286111  0.7871023660697024  0.3890480837132132
  0.5645534355060476  0.7031126834006945  0.2118297324047862
 
  0.00000000E+00  0.00000000E+00  0.00000000E+00
  0.00000000E+00  0.00000000E+00  0.00000000E+00
  0.00000000E+00  0.00000000E+00  0.00000000E+00
  0.00000000E+00  0.00000000E+00  0.00000000E+00
  0.00000000E+00  0.00000000E+00  0.00000000E+00
  0.00000000E+00  0.00000000E+00  0.00000000E+00
  0.00000000E+00  0.00000000E+00  0.00000000E+00
  0.00000000E+00  0.00000000E+00  0.00000000E+00
  0.00000000E+00  0.00000000E+00  0.00000000E+00
  0.00000000E+00  0.00000000E+00  0.00000000E+00
  0.00000000E+00  0.00000000E+00  0.00000000E+00
  0.00000000E+00  0.00000000E+00  0.00000000E+00
  0.00000000E+00  0.00000000E+00  0.00000000E+00
  0.00000000E+00  0.00000000E+00  0.00000000E+00
  0.00000000E+00  0.00000000E+00  0.00000000E+00
  0.00000000E+00  0.00000000E+00  0.00000000E+00
  0.00000000E+00  0.00000000E+00  0.00000000E+00
  0.00000000E+00  0.00000000E+00  0.00000000E+00
  0.00000000E+00  0.00000000E+00  0.00000000E+00
  0.00000000E+00  0.00000000E+00  0.00000000E+00
  0.00000000E+00  0.00000000E+00  0.00000000E+00
  0.00000000E+00  0.00000000E+00  0.00000000E+00
  0.00000000E+00  0.00000000E+00  0.00000000E+00
  0.00000000E+00  0.00000000E+00  0.00000000E+00
  0.00000000E+00  0.00000000E+00  0.00000000E+00
  0.00000000E+00  0.00000000E+00  0.00000000E+00
  0.00000000E+00  0.00000000E+00  0.00000000E+00
  0.00000000E+00  0.00000000E+00  0.00000000E+00
  0.00000000E+00  0.00000000E+00  0.00000000E+00
  0.00000000E+00  0.00000000E+00  0.00000000E+00
  0.00000000E+00  0.00000000E+00  0.00000000E+00
  0.00000000E+00  0.00000000E+00  0.00000000E+00
  0.00000000E+00  0.00000000E+00  0.00000000E+00
  0.00000000E+00  0.00000000E+00  0.00000000E+00
  0.00000000E+00  0.00000000E+00  0.00000000E+00
  0.00000000E+00  0.00000000E+00  0.00000000E+00
  0.00000000E+00  0.00000000E+00  0.00000000E+00
  0.00000000E+00  0.00000000E+00  0.00000000E+00
  0.00000000E+00  0.00000000E+00  0.00000000E+00
  0.00000000E+00  0.00000000E+00  0.00000000E+00
  0.00000000E+00  0.00000000E+00  0.00000000E+00
  0.00000000E+00  0.00000000E+00  0.00000000E+00
  0.00000000E+00  0.00000000E+00  0.00000000E+00
  0.00000000E+00  0.00000000E+00  0.00000000E+00
  0.00000000E+00  0.00000000E+00  0.00000000E+00
  0.00000000E+00  0.00000000E+00  0.00000000E+00
  0.00000000E+00  0.00000000E+00  0.00000000E+00
  0.00000000E+00  0.00000000E+00  0.00000000E+00
  0.00000000E+00  0.00000000E+00  0.00000000E+00
  0.00000000E+00  0.00000000E+00  0.00000000E+00
  0.00000000E+00  0.00000000E+00  0.00000000E+00
  0.00000000E+00  0.00000000E+00  0.00000000E+00
  0.00000000E+00  0.00000000E+00  0.00000000E+00
  0.00000000E+00  0.00000000E+00  0.00000000E+00
  0.00000000E+00  0.00000000E+00  0.00000000E+00
  0.00000000E+00  0.00000000E+00  0.00000000E+00
  0.00000000E+00  0.00000000E+00  0.00000000E+00
  0.00000000E+00  0.00000000E+00  0.00000000E+00
  0.00000000E+00  0.00000000E+00  0.00000000E+00
  0.00000000E+00  0.00000000E+00  0.00000000E+00
  0.00000000E+00  0.00000000E+00  0.00000000E+00
  0.00000000E+00  0.00000000E+00  0.00000000E+00
  0.00000000E+00  0.00000000E+00  0.00000000E+00
  0.00000000E+00  0.00000000E+00  0.00000000E+00
  0.00000000E+00  0.00000000E+00  0.00000000E+00
  0.00000000E+00  0.00000000E+00  0.00000000E+00
  0.00000000E+00  0.00000000E+00  0.00000000E+00
  0.00000000E+00  0.00000000E+00  0.00000000E+00
  0.00000000E+00  0.00000000E+00  0.00000000E+00
  0.00000000E+00  0.00000000E+00  0.00000000E+00
  0.00000000E+00  0.00000000E+00  0.00000000E+00
  0.00000000E+00  0.00000000E+00  0.00000000E+00
  0.00000000E+00  0.00000000E+00  0.00000000E+00
  0.00000000E+00  0.00000000E+00  0.00000000E+00
  0.00000000E+00  0.00000000E+00  0.00000000E+00
  0.00000000E+00  0.00000000E+00  0.00000000E+00
  0.00000000E+00  0.00000000E+00  0.00000000E+00
  0.00000000E+00  0.00000000E+00  0.00000000E+00
  0.00000000E+00  0.00000000E+00  0.00000000E+00
  0.00000000E+00  0.00000000E+00  0.00000000E+00
  0.00000000E+00  0.00000000E+00  0.00000000E+00
  0.00000000E+00  0.00000000E+00  0.00000000E+00
  0.00000000E+00  0.00000000E+00  0.00000000E+00
  0.00000000E+00  0.00000000E+00  0.00000000E+00
  0.00000000E+00  0.00000000E+00  0.00000000E+00
  0.00000000E+00  0.00000000E+00  0.00000000E+00
  0.00000000E+00  0.00000000E+00  0.00000000E+00
  0.00000000E+00  0.00000000E+00  0.00000000E+00
  0.00000000E+00  0.00000000E+00  0.00000000E+00
  0.00000000E+00  0.00000000E+00  0.00000000E+00
  0.00000000E+00  0.00000000E+00  0.00000000E+00
  0.00000000E+00  0.00000000E+00  0.00000000E+00
  0.00000000E+00  0.00000000E+00  0.00000000E+00
  0.00000000E+00  0.00000000E+00  0.00000000E+00
  0.00000000E+00  0.00000000E+00  0.00000000E+00
  0.00000000E+00  0.00000000E+00  0.00000000E+00
  0.00000000E+00  0.00000000E+00  0.00000000E+00
  0.00000000E+00  0.00000000E+00  0.00000000E+00
  0.00000000E+00  0.00000000E+00  0.00000000E+00
  0.00000000E+00  0.00000000E+00  0.00000000E+00
  0.00000000E+00  0.00000000E+00  0.00000000E+00
  0.00000000E+00  0.00000000E+00  0.00000000E+00
  0.00000000E+00  0.00000000E+00  0.00000000E+00
  0.00000000E+00  0.00000000E+00  0.00000000E+00
  0.00000000E+00  0.00000000E+00  0.00000000E+00
  0.00000000E+00  0.00000000E+00  0.00000000E+00
  0.00000000E+00  0.00000000E+00  0.00000000E+00
  0.00000000E+00  0.00000000E+00  0.00000000E+00
  0.00000000E+00  0.00000000E+00  0.00000000E+00
  0.00000000E+00  0.00000000E+00  0.00000000E+00
  0.00000000E+00  0.00000000E+00  0.00000000E+00
  0.00000000E+00  0.00000000E+00  0.00000000E+00
  0.00000000E+00  0.00000000E+00  0.00000000E+00
  0.00000000E+00  0.00000000E+00  0.00000000E+00
  0.00000000E+00  0.00000000E+00  0.00000000E+00
  0.00000000E+00  0.00000000E+00  0.00000000E+00
  0.00000000E+00  0.00000000E+00  0.00000000E+00
  0.00000000E+00  0.00000000E+00  0.00000000E+00
  0.00000000E+00  0.00000000E+00  0.00000000E+00
  0.00000000E+00  0.00000000E+00  0.00000000E+00
  0.00000000E+00  0.00000000E+00  0.00000000E+00
  0.00000000E+00  0.00000000E+00  0.00000000E+00
  0.00000000E+00  0.00000000E+00  0.00000000E+00
  0.00000000E+00  0.00000000E+00  0.00000000E+00
  0.00000000E+00  0.00000000E+00  0.00000000E+00
  0.00000000E+00  0.00000000E+00  0.00000000E+00
  0.00000000E+00  0.00000000E+00  0.00000000E+00
  0.00000000E+00  0.00000000E+00  0.00000000E+00
  0.00000000E+00  0.00000000E+00  0.00000000E+00
  0.00000000E+00  0.00000000E+00  0.00000000E+00
  0.00000000E+00  0.00000000E+00  0.00000000E+00
  0.00000000E+00  0.00000000E+00  0.00000000E+00
  0.00000000E+00  0.00000000E+00  0.00000000E+00
  0.00000000E+00  0.00000000E+00  0.00000000E+00
  0.00000000E+00  0.00000000E+00  0.00000000E+00
  0.00000000E+00  0.00000000E+00  0.00000000E+00
  0.00000000E+00  0.00000000E+00  0.00000000E+00
  0.00000000E+00  0.00000000E+00  0.00000000E+00
  0.00000000E+00  0.00000000E+00  0.00000000E+00
  0.00000000E+00  0.00000000E+00  0.00000000E+00
  0.00000000E+00  0.00000000E+00  0.00000000E+00
  0.00000000E+00  0.00000000E+00  0.00000000E+00
  0.00000000E+00  0.00000000E+00  0.00000000E+00
  0.00000000E+00  0.00000000E+00  0.00000000E+00
  0.00000000E+00  0.00000000E+00  0.00000000E+00
  0.00000000E+00  0.00000000E+00  0.00000000E+00
  0.00000000E+00  0.00000000E+00  0.00000000E+00
  0.00000000E+00  0.00000000E+00  0.00000000E+00
  0.00000000E+00  0.00000000E+00  0.00000000E+00
  0.00000000E+00  0.00000000E+00  0.00000000E+00
  0.00000000E+00  0.00000000E+00  0.00000000E+00
  0.00000000E+00  0.00000000E+00  0.00000000E+00
  0.00000000E+00  0.00000000E+00  0.00000000E+00
  0.00000000E+00  0.00000000E+00  0.00000000E+00
  0.00000000E+00  0.00000000E+00  0.00000000E+00
  0.00000000E+00  0.00000000E+00  0.00000000E+00
  0.00000000E+00  0.00000000E+00  0.00000000E+00
  0.00000000E+00  0.00000000E+00  0.00000000E+00
  0.00000000E+00  0.00000000E+00  0.00000000E+00
  0.00000000E+00  0.00000000E+00  0.00000000E+00
  0.00000000E+00  0.00000000E+00  0.00000000E+00
  0.00000000E+00  0.00000000E+00  0.00000000E+00
  0.00000000E+00  0.00000000E+00  0.00000000E+00
  0.00000000E+00  0.00000000E+00  0.00000000E+00
  0.00000000E+00  0.00000000E+00  0.00000000E+00
  0.00000000E+00  0.00000000E+00  0.00000000E+00
  0.00000000E+00  0.00000000E+00  0.00000000E+00
  0.00000000E+00  0.00000000E+00  0.00000000E+00
  0.00000000E+00  0.00000000E+00  0.00000000E+00
  0.00000000E+00  0.00000000E+00  0.00000000E+00
  0.00000000E+00  0.00000000E+00  0.00000000E+00
  0.00000000E+00  0.00000000E+00  0.00000000E+00
  0.00000000E+00  0.00000000E+00  0.00000000E+00
  0.00000000E+00  0.00000000E+00  0.00000000E+00
  0.00000000E+00  0.00000000E+00  0.00000000E+00
  0.00000000E+00  0.00000000E+00  0.00000000E+00
  0.00000000E+00  0.00000000E+00  0.00000000E+00
  0.00000000E+00  0.00000000E+00  0.00000000E+00
  0.00000000E+00  0.00000000E+00  0.00000000E+00
  0.00000000E+00  0.00000000E+00  0.00000000E+00
  0.00000000E+00  0.00000000E+00  0.00000000E+00
  0.00000000E+00  0.00000000E+00  0.00000000E+00
  0.00000000E+00  0.00000000E+00  0.00000000E+00
  0.00000000E+00  0.00000000E+00  0.00000000E+00
  0.00000000E+00  0.00000000E+00  0.00000000E+00
  0.00000000E+00  0.00000000E+00  0.00000000E+00
  0.00000000E+00  0.00000000E+00  0.00000000E+00
  0.00000000E+00  0.00000000E+00  0.00000000E+00
  0.00000000E+00  0.00000000E+00  0.00000000E+00
  0.00000000E+00  0.00000000E+00  0.00000000E+00
  0.00000000E+00  0.00000000E+00  0.00000000E+00
  0.00000000E+00  0.00000000E+00  0.00000000E+00
  0.00000000E+00  0.00000000E+00  0.00000000E+00
  0.00000000E+00  0.00000000E+00  0.00000000E+00
  0.00000000E+00  0.00000000E+00  0.00000000E+00
  0.00000000E+00  0.00000000E+00  0.00000000E+00
  0.00000000E+00  0.00000000E+00  0.00000000E+00
  0.00000000E+00  0.00000000E+00  0.00000000E+00
  0.00000000E+00  0.00000000E+00  0.00000000E+00
  0.00000000E+00  0.00000000E+00  0.00000000E+00
  0.00000000E+00  0.00000000E+00  0.00000000E+00
  0.00000000E+00  0.00000000E+00  0.00000000E+00
  0.00000000E+00  0.00000000E+00  0.00000000E+00
  0.00000000E+00  0.00000000E+00  0.00000000E+00
  0.00000000E+00  0.00000000E+00  0.00000000E+00
  0.00000000E+00  0.00000000E+00  0.00000000E+00
  0.00000000E+00  0.00000000E+00  0.00000000E+00
  0.00000000E+00  0.00000000E+00  0.00000000E+00
  0.00000000E+00  0.00000000E+00  0.00000000E+00
  0.00000000E+00  0.00000000E+00  0.00000000E+00
  0.00000000E+00  0.00000000E+00  0.00000000E+00
  0.00000000E+00  0.00000000E+00  0.00000000E+00
  0.00000000E+00  0.00000000E+00  0.00000000E+00
  0.00000000E+00  0.00000000E+00  0.00000000E+00
  0.00000000E+00  0.00000000E+00  0.00000000E+00
  0.00000000E+00  0.00000000E+00  0.00000000E+00
  0.00000000E+00  0.00000000E+00  0.00000000E+00
  0.00000000E+00  0.00000000E+00  0.00000000E+00
  0.00000000E+00  0.00000000E+00  0.00000000E+00
  0.00000000E+00  0.00000000E+00  0.00000000E+00
  0.00000000E+00  0.00000000E+00  0.00000000E+00
  0.00000000E+00  0.00000000E+00  0.00000000E+00
  0.00000000E+00  0.00000000E+00  0.00000000E+00
  0.00000000E+00  0.00000000E+00  0.00000000E+00
  0.00000000E+00  0.00000000E+00  0.00000000E+00
  0.00000000E+00  0.00000000E+00  0.00000000E+00
  0.00000000E+00  0.00000000E+00  0.00000000E+00
  0.00000000E+00  0.00000000E+00  0.00000000E+00
  0.00000000E+00  0.00000000E+00  0.00000000E+00
  0.00000000E+00  0.00000000E+00  0.00000000E+00
  0.00000000E+00  0.00000000E+00  0.00000000E+00
  0.00000000E+00  0.00000000E+00  0.00000000E+00
  0.00000000E+00  0.00000000E+00  0.00000000E+00
  0.00000000E+00  0.00000000E+00  0.00000000E+00
  0.00000000E+00  0.00000000E+00  0.00000000E+00
  0.00000000E+00  0.00000000E+00  0.00000000E+00
  0.00000000E+00  0.00000000E+00  0.00000000E+00
  0.00000000E+00  0.00000000E+00  0.00000000E+00
  0.00000000E+00  0.00000000E+00  0.00000000E+00
  0.00000000E+00  0.00000000E+00  0.00000000E+00
  0.00000000E+00  0.00000000E+00  0.00000000E+00
  0.00000000E+00  0.00000000E+00  0.00000000E+00
  0.00000000E+00  0.00000000E+00  0.00000000E+00
  0.00000000E+00  0.00000000E+00  0.00000000E+00
  0.00000000E+00  0.00000000E+00  0.00000000E+00
  0.00000000E+00  0.00000000E+00  0.00000000E+00
  0.00000000E+00  0.00000000E+00  0.00000000E+00