FeMn_288_10
1.00
9.726678 0.000000 0.000000 
0.000000 8.423550 0.000000 
0.000000 0.000000 45.000000 
Fe Mn
  278 10
Direct
0.312518 0.371344 0.786317
0.812498 0.873166 0.301880
0.562500 0.204750 0.478641
0.812677 0.371853 0.521367
0.187701 0.622024 0.521383
0.062500 0.538260 0.609832
0.562500 0.373377 0.168975
0.437357 0.123170 0.434780
0.562500 0.539860 0.126796
0.562500 0.539973 0.257861
0.312418 0.872293 0.434826
0.937438 0.288364 0.609830
0.937299 0.122025 0.521383
0.687479 0.456506 0.213673
0.187474 0.787860 0.742107
0.937504 0.123324 0.168993
0.937492 0.456474 0.213674
0.937570 0.121571 0.653677
0.312445 0.039303 0.390087
0.812512 0.037889 0.742095
0.687329 0.288511 0.609833
0.562500 0.206143 0.346261
0.062500 0.537957 0.873180
0.812542 0.540019 0.257873
0.437512 0.121342 0.786319
0.437671 0.788511 0.609832
0.187461 0.289923 0.257887
0.562499 0.037960 0.873177
0.062500 0.037862 0.742106
0.937480 0.956347 0.346357
0.312457 0.040023 0.257873
0.687643 0.123170 0.434780
0.312329 0.871851 0.521368
0.062500 0.039908 0.257894
0.937496 0.954459 0.831001
0.187511 0.454691 0.698134
0.937504 0.623324 0.168994
0.312449 0.706237 0.346283
0.937439 0.788360 0.609830
0.687486 0.289969 0.257866
0.437514 0.289968 0.257866
0.312501 0.204468 0.830988
0.687488 0.621338 0.786319
0.687507 0.454718 0.698136
0.812831 0.705392 0.565484
0.687497 0.954478 0.830988
0.187496 0.623324 0.168994
0.562500 0.038464 0.609849
0.812482 0.206522 0.213688
0.812489 0.204712 0.698126
0.687509 0.954722 0.698137
0.062500 0.873358 0.169000
0.687467 0.123209 0.301836
0.437217 0.455409 0.565219
0.437511 0.621339 0.786319
0.437421 0.956151 0.346299
0.937538 0.289923 0.257887
0.187430 0.121571 0.653677
0.062500 0.206445 0.346411
0.437521 0.787985 0.873179
0.437419 0.456149 0.346299
0.062501 0.539047 0.390152
0.562500 0.537906 0.742093
0.562500 0.039947 0.390157
0.937526 0.287858 0.742107
0.687783 0.455409 0.565219
0.812499 0.704466 0.830988
0.937488 0.121324 0.786310
0.687487 0.789967 0.257867
0.062500 0.372028 0.521385
0.312502 0.873167 0.301880
0.687476 0.787911 0.742100
0.312501 0.539867 0.126802
0.937738 0.455849 0.478692
0.187474 0.287858 0.742107
0.813167 0.205803 0.478642
0.687499 0.454473 0.830988
0.562499 0.371337 0.786317
0.187512 0.121324 0.786310
0.437504 0.123342 0.168972
0.187562 0.288364 0.609830
0.436428 0.955744 0.478703
0.937540 0.789921 0.257887
0.062500 0.205588 0.478716
0.812499 0.873343 0.168977
0.062500 0.539837 0.126805
0.688572 0.955744 0.478703
0.562500 0.873273 0.301838
0.937332 0.122262 0.434844
0.062500 0.706511 0.213673
0.062500 0.037955 0.873180
0.812499 0.039865 0.126802
0.687476 0.787984 0.873179
0.812499 0.539867 0.126802
0.312511 0.204713 0.698126
0.687469 0.623210 0.301835
0.562500 0.705266 0.565319
0.437523 0.956508 0.213673
0.562500 0.704743 0.478641
0.562500 0.706583 0.213683
0.937479 0.456345 0.346357
0.187517 0.623084 0.301844
0.687498 0.289844 0.126795
0.187403 0.955453 0.565284
0.812551 0.706237 0.346283
0.187704 0.122026 0.521383
0.311836 0.705800 0.478642
0.062500 0.537861 0.742106
0.937497 0.787982 0.873180
0.813166 0.705801 0.478642
0.688570 0.455743 0.478703
0.062500 0.871675 0.653705
0.437533 0.289973 0.390087
0.937488 0.954695 0.698134
0.562499 0.871336 0.786317
0.187512 0.954696 0.698133
0.562500 0.873124 0.434714
0.062500 0.872024 0.521385
0.812372 0.038415 0.609842
0.437491 0.954722 0.698137
0.937489 0.454691 0.698134
0.062500 0.372095 0.434888
0.937488 0.621320 0.786310
0.562500 0.539946 0.390157
0.062500 0.872098 0.434889
0.437535 0.789969 0.390088
0.937626 0.789064 0.390101
0.312451 0.206241 0.346282
0.062500 0.705239 0.565156
0.687527 0.121572 0.653673
0.687788 0.955410 0.565218
0.187509 0.289833 0.126801
0.812829 0.205391 0.565484
0.187669 0.122262 0.434844
0.687478 0.956508 0.213673
0.562500 0.538465 0.609850
0.562500 0.704699 0.698143
0.437300 0.622616 0.521298
0.687641 0.623170 0.434780
0.562499 0.373274 0.301838
0.937526 0.787859 0.742107
0.437522 0.287915 0.742100
0.312323 0.371854 0.521367
0.187495 0.123325 0.168993
0.687466 0.789969 0.390088
0.062500 0.206513 0.213674
0.687329 0.788511 0.609832
0.562500 0.204704 0.698142
0.937481 0.123083 0.301844
0.812499 0.373344 0.168977
0.562500 0.037907 0.742093
0.812596 0.371555 0.653686
0.187426 0.621568 0.653678
0.187522 0.456345 0.346357
0.062500 0.039046 0.390153
0.687581 0.456148 0.346299
0.187670 0.622266 0.434844
0.312421 0.372293 0.434827
0.187266 0.455850 0.478691
0.937597 0.955453 0.565284
0.062500 0.539906 0.257895
0.562500 0.039977 0.257861
0.812498 0.373167 0.301879
0.562500 0.205267 0.565319
0.312501 0.373344 0.168977
0.062500 0.204451 0.831002
0.562501 0.039859 0.126796
0.187519 0.123083 0.301844
0.437671 0.288512 0.609833
0.437473 0.621567 0.653674
0.187508 0.456474 0.213674
0.437523 0.787912 0.742100
0.312517 0.206522 0.213687
0.812374 0.538414 0.609842
0.437359 0.623170 0.434780
0.062500 0.873135 0.301846
0.187504 0.787983 0.873179
0.187403 0.455452 0.565284
0.437303 0.122618 0.521298
0.812672 0.871852 0.521369
0.687497 0.623342 0.168972
0.937597 0.455452 0.565285
0.437503 0.289845 0.126795
0.937483 0.623084 0.301844
0.062500 0.704446 0.831001
0.312501 0.704466 0.830988
0.687477 0.287914 0.742100
0.437493 0.454718 0.698136
0.437472 0.121573 0.653673
0.562500 0.871686 0.653684
0.311833 0.205802 0.478642
0.062499 0.038260 0.609833
0.062500 0.371307 0.786306
0.437531 0.623211 0.301835
0.062499 0.039839 0.126805
0.436431 0.455744 0.478703
0.937740 0.955850 0.478690
0.812549 0.206241 0.346282
0.062500 0.706443 0.346412
0.187259 0.955852 0.478690
0.812479 0.037971 0.873179
0.312445 0.539300 0.390086
0.062498 0.373138 0.301846
0.937331 0.622266 0.434844
0.312516 0.706519 0.213687
0.437212 0.955410 0.565218
0.812479 0.537973 0.873179
0.562500 0.706135 0.346261
0.062500 0.204687 0.698146
0.562500 0.204497 0.830978
0.562500 0.372519 0.521321
0.437522 0.456506 0.213673
0.687527 0.621567 0.653674
0.437503 0.789844 0.126796
0.187520 0.956348 0.346357
0.812484 0.706519 0.213687
0.812556 0.539301 0.390086
0.812580 0.372293 0.434827
0.687580 0.956151 0.346299
0.312501 0.373168 0.301880
0.937491 0.789832 0.126801
0.687486 0.121341 0.786319
0.312458 0.540020 0.257873
0.312628 0.038415 0.609842
0.312511 0.704714 0.698126
0.937573 0.621568 0.653678
0.937624 0.289071 0.390101
0.562500 0.873378 0.168975
0.687698 0.122618 0.521298
0.062500 0.205237 0.565156
0.937299 0.622025 0.521383
0.937497 0.287982 0.873181
0.562501 0.373127 0.434715
0.562499 0.704497 0.830976
0.187460 0.789921 0.257887
0.562500 0.206585 0.213683
0.062500 0.705589 0.478717
0.187504 0.287982 0.873180
0.187377 0.289070 0.390101
0.812543 0.040022 0.257873
0.812480 0.871341 0.786316
0.312489 0.537891 0.742095
0.687496 0.123343 0.168972
0.062500 0.704693 0.698146
0.687700 0.622616 0.521298
0.812490 0.704713 0.698126
0.312627 0.538414 0.609842
0.437513 0.789968 0.257867
0.312405 0.371555 0.653686
0.437504 0.623343 0.168972
0.812511 0.537889 0.742095
0.562500 0.872520 0.521319
0.437500 0.454473 0.830988
0.562499 0.537964 0.873177
0.937491 0.289832 0.126801
0.687467 0.289973 0.390087
0.062500 0.871305 0.786306
0.687499 0.789844 0.126796
0.187375 0.789064 0.390101
0.437532 0.123209 0.301836
0.312169 0.705392 0.565484
0.062500 0.373358 0.169001
0.312519 0.871342 0.786316
0.812481 0.371344 0.786317
0.187508 0.789832 0.126801
0.312501 0.039865 0.126802
0.187502 0.954460 0.831001
0.937492 0.956474 0.213674
0.062500 0.371675 0.653704
0.187503 0.454462 0.831000
0.312171 0.205391 0.565484
0.312520 0.537975 0.873179
0.812595 0.871556 0.653685
0.937497 0.454461 0.831001
0.187560 0.788360 0.609830
0.187512 0.621320 0.786310
0.437501 0.954478 0.830988
0.812556 0.039302 0.390087
0.312501 0.873342 0.168977
0.812583 0.872293 0.434826
0.187507 0.956473 0.213674
0.812499 0.204468 0.830988
0.312487 0.037891 0.742094
0.562500 0.371685 0.653684
0.312404 0.871556 0.653685
0.312519 0.037972 0.873179
0.687475 0.287985 0.873180
0.437524 0.287985 0.873180
