CuInSe2gb                               
   1.00000000000000     
     9.7266780392896699    0.0000000000000000    0.0000000000000000
     0.0000000000000000    8.4235502764570693    0.0000000000000000
     0.0000000000000000    0.0000000000000000   45.0000000000000000
   Fe   Mn
   274    14
Direct
  0.0627204503455487  0.0371398197948028  0.1259701168871975
  0.3123954512904946  0.8714114108437645  0.6538210292119444
  0.1876252404868351  0.1196023936249385  0.7869372733695681
  0.4379920145294168  0.2911844279205217  0.3900587691387487
  0.3128331606008807  0.7054814354019231  0.8316882329453581
  0.8139876925033108  0.2061399044529378  0.8321315055934277
  0.1872104578662144  0.9562051837458730  0.8319876241856236
  0.5626236470842352  0.2056386152240950  0.5652600842437442
  0.0620565077003465  0.0368099156600480  0.7427702567958382
  0.8123389890537340  0.8722894461508920  0.5213042538752587
  0.1873436280839432  0.2866460549419509  0.7426984210750490
  0.9376756608912697  0.4572586632835896  0.3461183466370071
  0.9368842955878479  0.2905468993420485  0.3901045606865959
  0.8121712853621819  0.0386154836638467  0.8742011806467455
  0.1874897015091541  0.7877441940784637  0.6098838109930361
  0.5620912685914577  0.0407560128866419  0.3901196414049342
  0.9387570163975799  0.9568494725022783  0.8322880512581206
  0.3128177569556348  0.5383815828417940  0.8741232377462801
  0.6877613999249572  0.2870574678334026  0.7426962662621172
  0.1881672098803829  0.6212979457447914  0.1681138486746397
  0.8118897942532004  0.2065083405822166  0.4786934475488245
  0.8124733852396514  0.5377355106698527  0.6099527438769424
  0.3122689309742777  0.8734962801469605  0.4348421282420438
  0.8125816148761144  0.0409947329140317  0.2573746324778475
  0.6874196425314565  0.9574690611744459  0.3460977433900884
  0.9370642191060232  0.1211428948648145  0.1682948666610928
  0.0630106167472853  0.8724684091185582  0.5213405945394272
  0.5625899729835989  0.5410620394734867  0.2572971850111480
  0.6875578025747453  0.7881812259607852  0.8740806707188998
  0.5631500954016029  0.3713147071657240  0.1679949308892793
  0.4374490716112451  0.7870769694929448  0.7427329839447498
  0.8126797445445334  0.7054860203535874  0.5651644369112206
  0.5624042372542584  0.8692059262239391  0.7868580974033212
  0.6870747277309016  0.1221095854781594  0.5213515511537982
  0.8125875682590007  0.3710015749465911  0.6538748742135283
  0.9380280975694195  0.4553905834258881  0.8320830547422748
  0.0622175759746555  0.2041111338781092  0.6983700898154844
  0.4374059945301521  0.9543544996803209  0.6983504924939045
  0.3125303846069928  0.2048131691403094  0.8321115413684842
  0.4374930250123070  0.6212778539451401  0.6538821594859558
  0.3122615734207763  0.5379474686805443  0.6098666474097569
  0.9375049521482473  0.4555188731603484  0.5652084926574191
  0.6877237672856601  0.7876125353792278  0.7427525104274132
  0.9371953339369168  0.7880839762626434  0.1261789404040669
  0.6875779947312546  0.7902728590804161  0.3899974509488013
  0.9376407662034212  0.7871606931060656  0.7427620263261706
  0.0625186681910888  0.2073714429552006  0.3461197540483607
  0.8125581475964990  0.0406482156761818  0.3901486080308930
  0.4374403034346225  0.1195915746886571  0.7869219045291904
  0.0620315919468811  0.2068820708443002  0.2131253345318525
  0.0619420018043835  0.3713003661277033  0.1680399690389006
  0.9373087478210675  0.7910000769513736  0.2573188430935835
  0.5623710632686147  0.2043792481200345  0.6983702537171221
  0.6874474631594594  0.9543541619112683  0.6983829321165562
  0.4371984058373823  0.7879594023702209  0.1256943636999379
  0.4374308385324204  0.9556894107244059  0.5649721654122548
  0.8124925424849115  0.3694072101670491  0.7868978748616406
  0.6874063109068725  0.2909217339939864  0.2573197057218750
  0.1874951592409977  0.4557411158715429  0.5652196483986883
  0.0632085412521683  0.8715079421469265  0.1681245877299877
  0.1873433368823499  0.2877283928374535  0.6099694160953120
  0.5626908914478228  0.7072995626976321  0.3461918387235557
  0.3124933204994761  0.2043248407138639  0.6983825989435998
  0.5628763959885165  0.5390348510181789  0.8740108857994136
  0.0623933399025611  0.7054464987569380  0.5651802377141529
  0.6877548182520431  0.6194646406263172  0.7869816905687173
  0.3122849134596044  0.5409926410078862  0.3901466126576077
  0.1878379068809850  0.6226844894475555  0.5213150491611330
  0.5623204486358883  0.8734462738530886  0.4348140295376227
  0.4373628463691628  0.4559415692779807  0.5651970939868948
  0.4375637032013074  0.2875324345308852  0.7427335557521821
  0.8125424765566640  0.8750592180328149  0.3015932172930863
  0.8123515341299496  0.7071713637577125  0.3461502951422947
  0.4379960647549661  0.4552431661392821  0.8318236625864097
  0.6878451162281235  0.9563769417028765  0.4786279001685125
  0.6874467450944999  0.4542524430927489  0.6983129557790789
  0.5628962699311897  0.8723100626146622  0.5212279448872470
  0.5626085827719679  0.3709784179321845  0.6537391352122347
  0.8125678644781142  0.8711277992447232  0.6539050227947206
  0.8125010106866707  0.3735647196599398  0.4345980192701542
  0.8124836122396694  0.5406753731232863  0.2573410692650784
  0.6885861533485377  0.4551817069358535  0.8319967600970904
  0.1880892063106636  0.7879637199073050  0.1257125232972428
  0.6871687330149527  0.2907170644973278  0.3900869408457195
  0.3123054198237244  0.3712341249568424  0.6537731343155730
  0.3125711229574380  0.2071796873015794  0.3461185717603407
  0.8124005674932364  0.5367719250398285  0.7427699818626748
  0.6880461544609414  0.9555406894053388  0.8319213156794796
  0.5625711378300321  0.8715744406386313  0.6537165335072214
  0.3124479088064541  0.7053596660107998  0.5652761769607610
  0.3125067330852523  0.5384653351072086  0.1258435065185200
  0.6872879125722592  0.9572544197190763  0.2131761540964156
  0.3124834112904435  0.2060120352675364  0.5653048589339263
  0.1869443264114307  0.9565175575249267  0.4786850118726339
  0.6878581736630708  0.9559408869253818  0.5652892408884137
  0.4373376244308370  0.7877146887724822  0.6098719974036755
  0.6872108462647435  0.6198358326174266  0.1681698665816638
  0.3124788389728269  0.8747754642375406  0.3015564912515766
  0.3124493313822387  0.7056012676199364  0.4786206217650912
  0.9374376319937581  0.2875360969485405  0.6099091110935252
  0.4378495687627363  0.6247774647724096  0.3015669061706428
  0.8126094755557697  0.8706163750489022  0.1682594991359296
  0.5629294004982470  0.2068380761360374  0.2130373317380843
  0.9376151503955654  0.6198057659149736  0.1682204501704115
  0.9375018969901332  0.7868991192670240  0.8742328267006078
  0.5620839188709532  0.3692514600578279  0.7868914229593348
  0.0622024652963765  0.3727412716603793  0.5212936020975286
  0.3124415012381080  0.3705580829724542  0.1681416088225731
  0.6874982600258845  0.1252530421953874  0.3016706528516324
  0.4383874927726454  0.9549476553058274  0.8318052010496487
  0.1878125338340013  0.2882655366663007  0.1260428624708314
  0.1873014701513037  0.2905776478507894  0.2572814981706823
  0.3122261423778934  0.3734253403139081  0.4347005821620502
  0.5627653631312510  0.0373298721458880  0.1259481135563409
  0.4375227477109136  0.2876435142943267  0.6098057806262339
  0.1874216603686122  0.4575416707913970  0.3461536687815583
  0.4371893701477764  0.2883154328479218  0.1260315477667408
  0.6875272151255043  0.7913733294655907  0.2572803603976729
  0.4371810145562851  0.1229301859241546  0.5212560237332787
  0.1889226876496545  0.2883346199943531  0.8742562586937277
  0.1875000660411047  0.1211269155278224  0.6538980098741939
  0.9374459581399081  0.1208097684168335  0.6538647175001144
  0.3126159928731495  0.2072457107576560  0.2130250698316657
  0.0620314448295186  0.0407672788771386  0.3900734092900671
  0.1874776219800756  0.1200800172452458  0.1681057247255343
  0.0623955178784331  0.5376058012266990  0.6099155109359609
  0.9374088361649704  0.2905913241018910  0.2572764240338948
  0.5623894695674132  0.5376081282839513  0.6098273653231195
  0.9375220213491273  0.9555087194919356  0.5652270676664389
  0.6874178751371434  0.6252645038198462  0.3016267519988726
  0.9376124009782616  0.6236672708835780  0.4347944750732652
  0.9373922487509766  0.6206538587081114  0.7868288876327656
  0.5620022572888445  0.7039869809441657  0.6982552268272253
  0.0627625848592519  0.7067389845603280  0.8321200517941614
  0.9376015145750687  0.1251533945266510  0.3016289287997818
  0.9373595089503487  0.7874628158704651  0.6099184196374758
  0.4374914460360920  0.7909879064137949  0.2573295821861875
  0.3126431824722845  0.3693149334699361  0.7868124330721636
  0.4379642495818723  0.4570626171451896  0.2130503412628039
  0.1879866831251157  0.1218672437528204  0.5213014541211571
  0.8123894747055485  0.7043128361223551  0.6984368877307725
  0.0622794090242107  0.0378391851185352  0.6098028232585523
  0.5625529011581536  0.2048437445566210  0.8318530640639727
  0.3114444863637589  0.8722520103374067  0.5212610878454675
  0.6879417172730158  0.2879518893982589  0.1258558998873146
  0.1873780447656412  0.9576499648570341  0.2131982492435418
  0.6871367062444115  0.2878531422733018  0.6099285624164185
  0.3124892450030817  0.0373975612560233  0.6099299208299379
  0.9375179281937964  0.1197532914389167  0.7871329169236837
  0.4376083194761962  0.7879345377938456  0.8739886493918195
  0.8130310927975560  0.0369748461306272  0.7426824780541260
  0.9375423737112578  0.4540918214842731  0.6984453809015475
  0.1875204182145952  0.6210523918339704  0.6538690633007822
  0.3125871020335375  0.7042082707656910  0.6984120043118734
  0.9371974621270021  0.2879295576204305  0.1258669089324345
  0.4369778207101763  0.4560343146223068  0.4787177247420785
  0.0623896996001149  0.7058288213298286  0.4786574103000089
  0.9372231011432206  0.1232620396276019  0.4350000771842625
  0.4375497327305389  0.1247541701071979  0.3016079222999649
  0.1876198684581292  0.1232174432821258  0.4346076862225572
  0.5627016981038153  0.0385845410586490  0.8740636564666332
  0.1870362303166601  0.9561707297556726  0.5653414416167156
  0.6881856225556348  0.7882454001408845  0.1261352918456991
  0.5631167116155769  0.5369128799035308  0.1258713542802549
  0.3125092064682728  0.0406071538625560  0.3901349007204545
  0.6880569444609343  0.1211849289554088  0.1682305080207643
  0.8125536707569522  0.2065614643202710  0.2131011526818876
  0.0623854697450232  0.5409185819153595  0.2572937449466490
  0.5624095619664633  0.7055060672678929  0.4786715238664345
  0.0626128211018994  0.2057981576776194  0.5651513664492132
  0.5620743449343186  0.3749920435237047  0.3015499237709501
  0.4370837859783048  0.9570968752954657  0.3461543723770339
  0.1872964593767414  0.9542861147097191  0.6984274052204689
  0.4367491480253805  0.6214286182226401  0.1680571881182334
  0.9379172414111835  0.4569825393810069  0.2132175452757463
  0.0618150816742169  0.5367813375471877  0.1259224605132499
  0.8129311462931559  0.3725130547448811  0.5213358965785667
  0.9373161010532570  0.6250441088442712  0.3015361039938115
  0.3124286268255272  0.0404717703487007  0.2572944655205479
  0.6872928020432120  0.7875269927501050  0.6098608917289118
  0.1874499986558555  0.4558275685997628  0.8320650534370355
  0.4376092351325582  0.1201425590152452  0.1681469636086335
  0.3119555217761701  0.3721641480183500  0.5212945705353388
  0.4376625153808515  0.6189851850744540  0.7869069630241620
  0.0621434476290645  0.0407238544386162  0.2573154816837990
  0.5624358129968019  0.7051378143648876  0.5652960285618577
  0.9376802039278715  0.2866434064761769  0.7427392336963945
  0.6868774049584574  0.1193090998247183  0.7867772074468868
  0.1870816587333228  0.4571003587319883  0.2130610430123820
  0.9371191937933727  0.7907073089001347  0.3901115215376009
  0.6869149086282784  0.2888373283826060  0.8742350381986466
  0.5618951132357953  0.8715167638065144  0.1680910020545051
  0.4374104954825783  0.4542635422952311  0.6983870016662147
  0.9379624206173397  0.9573945410571015  0.3461201052906688
  0.6870371063141275  0.6226445850763871  0.5213361773671720
  0.0624588455466815  0.8711226044039524  0.6538856589516859
  0.0628400334649480  0.8698315860912605  0.7870129834553010
  0.0624269554741896  0.3710368078217756  0.6538416726517224
  0.6878889817673460  0.4562252558151808  0.4786686735455360
  0.1873503886730857  0.7910212223153584  0.2573600242720581
  0.4373223155321864  0.1236975342856701  0.4346668712772206
  0.8127620218573057  0.0380316964348704  0.1260987446758589
  0.9372956501529884  0.6225177436580357  0.5213029083217222
  0.0623711327854851  0.8733655739027466  0.4347325520728084
  0.8125532078746140  0.5371804749991363  0.1256952390229058
  0.4371410878255944  0.4572783984859758  0.3461684217935802
  0.8126197114738364  0.2073659990381644  0.3461635593246590
  0.3125508714713052  0.7078070377144929  0.3461402927833422
  0.6874578250308330  0.1211624807789137  0.6538633918433917
  0.5626932348944722  0.8751385739507009  0.3016913925610875
  0.0627890787892561  0.5365310582168338  0.7426981859408807
  0.9379539087825396  0.9572375456069299  0.2131326696565071
  0.8124226233023013  0.7066021348042553  0.2130619319381226
  0.0620982863225073  0.8749171304590689  0.3016842079913222
  0.1874810865051576  0.1249566936349041  0.3015668269071232
  0.0623225734383484  0.7077632546405159  0.3462342498681670
  0.8124515900820264  0.0376217205066290  0.6098377481094536
  0.0623135200136359  0.3736655709131543  0.4346570797893221
  0.5622998754270349  0.2074153544988210  0.3461136486035068
  0.8124063994441489  0.3748362915426499  0.3015744828023206
  0.5628775946569290  0.0410360998169802  0.2573413959831852
  0.5622208739195889  0.5403092006840082  0.3901171784928072
  0.0627356768322926  0.2062833713306191  0.4787093920967467
  0.3128127130101818  0.8688832990792633  0.7867595903382448
  0.9373760164354252  0.9541896637924990  0.6983415627094393
  0.0626713307871080  0.3751911330003356  0.3016029479858594
  0.6875616450386801  0.6210918776088492  0.6538520489960478
  0.6876001721092663  0.4558096659190446  0.5651979812646265
  0.4378746584817337  0.9575976276987427  0.2131708687950798
  0.3122425938802025  0.2061315203598937  0.4786290896420516
  0.4374995412643983  0.1213923094493068  0.6538705739038598
  0.6873234515943193  0.6237652756429062  0.4346503440530219
  0.8126020946762507  0.2045516456147359  0.6982919529200243
  0.8122163005061253  0.7061029510628766  0.4786384749602579
  0.8123189543345573  0.8732734666814287  0.4347321357255798
  0.9372842556838390  0.9554500117688168  0.4787839243694965
  0.5626451790703537  0.2055892573869889  0.4786943126816309
  0.1872172696727360  0.6234039186263426  0.4347871439688887
  0.3120899258434159  0.0372548668414294  0.7427323930872136
  0.9374485912871625  0.6209981130419694  0.6538205210261324
  0.5632694824308740  0.7054695551853171  0.8318793073816126
  0.3124159462181152  0.3748040316771010  0.3016552342772519
  0.5624574684861058  0.7069111886032228  0.2130410690482007
  0.1872773447817250  0.4558467190093337  0.4786617915820342
  0.3139520878135624  0.0394618909589177  0.8740268294006791
  0.1873412073617305  0.4539788164940680  0.6983270941777463
  0.8118385912467438  0.5378138616347782  0.8741496300298145
  0.1873060471596696  0.2907075767311735  0.3901007423979913
  0.4370326964185028  0.6241384551609103  0.4347121349372106
  0.0625211569488010  0.7069011350365896  0.2130554914265353
  0.5623267347184047  0.3735389748228874  0.4349999386154917
  0.4374941573435192  0.6229238195227790  0.5212893911281089
  0.8130703267351130  0.7065109382808311  0.8317770886677925
  0.0629172104075444  0.3700315821314228  0.7868877051639577
  0.4370790003142481  0.2884723253531875  0.8742209984929592
  0.3127257774752419  0.0374667116898558  0.1256444666495705
  0.6870699721608076  0.1228088700978834  0.4346247743114694
  0.1873164232810779  0.9573281687169577  0.3461397357855402
  0.0623358619391227  0.2055288946918098  0.8321481067490265
  0.5621883461409327  0.0372353875120040  0.6099434245411876
  0.6872398417919997  0.4570465773810830  0.2131669438099799
  0.1875725243577187  0.7870831186149255  0.7427152548309695
  0.1874573155915746  0.6248152142832871  0.3016733310992597
  0.4374949027542933  0.7908358323292093  0.3901902200287883
  0.4374105385227839  0.2906686619339609  0.2571965985031772
  0.0639352859150270  0.5388818649876763  0.8741628393920751
  0.5630601083516633  0.0372494184990315  0.7427857364769852
  0.1879738718235715  0.7872550929090159  0.8741340755687412
  0.9373889291680710  0.4556572037562739  0.4786694420811898
  0.8122549245612984  0.5401560288055695  0.3900798768606196
  0.8120150302717754  0.2058307376769412  0.5651936093788095
  0.1872752678791704  0.6196665016762964  0.7869650123846866
  0.0623352130698145  0.5406495362967981  0.3901770848146126
  0.0626633569807961  0.7041813832447369  0.6983753562600929
  0.3124615190425103  0.5407472878382614  0.2572079548792948
  0.3124541821972610  0.7066067093300112  0.2132570006095592
  0.3125723310755177  0.8713694899307046  0.1673234675102991
  0.5636074900686067  0.5373719091124306  0.7426282187016398
  0.6875187994643809  0.4571726977946058  0.3461836856545609
  0.9358606415201706  0.2891982720868368  0.8740464095797724
  0.4374975753562208  0.9560788691584161  0.4787873032641463
  0.0637472161490448  0.0367909060991009  0.8740340179852374
  0.1872300468051837  0.7906802426830831  0.3900208540393075
  0.8124527499650834  0.3713468867371959  0.1675810446669536
  0.5626681971917599  0.3726174110952348  0.5212023149996085
  0.9372821852981655  0.1224995861239956  0.5211659967248199
  0.8121544132980814  0.8692430489570565  0.7866574752248702
  0.3115788832538526  0.5367591492322379  0.7428235364544935
 
  0.00000000E+00  0.00000000E+00  0.00000000E+00
  0.00000000E+00  0.00000000E+00  0.00000000E+00
  0.00000000E+00  0.00000000E+00  0.00000000E+00
  0.00000000E+00  0.00000000E+00  0.00000000E+00
  0.00000000E+00  0.00000000E+00  0.00000000E+00
  0.00000000E+00  0.00000000E+00  0.00000000E+00
  0.00000000E+00  0.00000000E+00  0.00000000E+00
  0.00000000E+00  0.00000000E+00  0.00000000E+00
  0.00000000E+00  0.00000000E+00  0.00000000E+00
  0.00000000E+00  0.00000000E+00  0.00000000E+00
  0.00000000E+00  0.00000000E+00  0.00000000E+00
  0.00000000E+00  0.00000000E+00  0.00000000E+00
  0.00000000E+00  0.00000000E+00  0.00000000E+00
  0.00000000E+00  0.00000000E+00  0.00000000E+00
  0.00000000E+00  0.00000000E+00  0.00000000E+00
  0.00000000E+00  0.00000000E+00  0.00000000E+00
  0.00000000E+00  0.00000000E+00  0.00000000E+00
  0.00000000E+00  0.00000000E+00  0.00000000E+00
  0.00000000E+00  0.00000000E+00  0.00000000E+00
  0.00000000E+00  0.00000000E+00  0.00000000E+00
  0.00000000E+00  0.00000000E+00  0.00000000E+00
  0.00000000E+00  0.00000000E+00  0.00000000E+00
  0.00000000E+00  0.00000000E+00  0.00000000E+00
  0.00000000E+00  0.00000000E+00  0.00000000E+00
  0.00000000E+00  0.00000000E+00  0.00000000E+00
  0.00000000E+00  0.00000000E+00  0.00000000E+00
  0.00000000E+00  0.00000000E+00  0.00000000E+00
  0.00000000E+00  0.00000000E+00  0.00000000E+00
  0.00000000E+00  0.00000000E+00  0.00000000E+00
  0.00000000E+00  0.00000000E+00  0.00000000E+00
  0.00000000E+00  0.00000000E+00  0.00000000E+00
  0.00000000E+00  0.00000000E+00  0.00000000E+00
  0.00000000E+00  0.00000000E+00  0.00000000E+00
  0.00000000E+00  0.00000000E+00  0.00000000E+00
  0.00000000E+00  0.00000000E+00  0.00000000E+00
  0.00000000E+00  0.00000000E+00  0.00000000E+00
  0.00000000E+00  0.00000000E+00  0.00000000E+00
  0.00000000E+00  0.00000000E+00  0.00000000E+00
  0.00000000E+00  0.00000000E+00  0.00000000E+00
  0.00000000E+00  0.00000000E+00  0.00000000E+00
  0.00000000E+00  0.00000000E+00  0.00000000E+00
  0.00000000E+00  0.00000000E+00  0.00000000E+00
  0.00000000E+00  0.00000000E+00  0.00000000E+00
  0.00000000E+00  0.00000000E+00  0.00000000E+00
  0.00000000E+00  0.00000000E+00  0.00000000E+00
  0.00000000E+00  0.00000000E+00  0.00000000E+00
  0.00000000E+00  0.00000000E+00  0.00000000E+00
  0.00000000E+00  0.00000000E+00  0.00000000E+00
  0.00000000E+00  0.00000000E+00  0.00000000E+00
  0.00000000E+00  0.00000000E+00  0.00000000E+00
  0.00000000E+00  0.00000000E+00  0.00000000E+00
  0.00000000E+00  0.00000000E+00  0.00000000E+00
  0.00000000E+00  0.00000000E+00  0.00000000E+00
  0.00000000E+00  0.00000000E+00  0.00000000E+00
  0.00000000E+00  0.00000000E+00  0.00000000E+00
  0.00000000E+00  0.00000000E+00  0.00000000E+00
  0.00000000E+00  0.00000000E+00  0.00000000E+00
  0.00000000E+00  0.00000000E+00  0.00000000E+00
  0.00000000E+00  0.00000000E+00  0.00000000E+00
  0.00000000E+00  0.00000000E+00  0.00000000E+00
  0.00000000E+00  0.00000000E+00  0.00000000E+00
  0.00000000E+00  0.00000000E+00  0.00000000E+00
  0.00000000E+00  0.00000000E+00  0.00000000E+00
  0.00000000E+00  0.00000000E+00  0.00000000E+00
  0.00000000E+00  0.00000000E+00  0.00000000E+00
  0.00000000E+00  0.00000000E+00  0.00000000E+00
  0.00000000E+00  0.00000000E+00  0.00000000E+00
  0.00000000E+00  0.00000000E+00  0.00000000E+00
  0.00000000E+00  0.00000000E+00  0.00000000E+00
  0.00000000E+00  0.00000000E+00  0.00000000E+00
  0.00000000E+00  0.00000000E+00  0.00000000E+00
  0.00000000E+00  0.00000000E+00  0.00000000E+00
  0.00000000E+00  0.00000000E+00  0.00000000E+00
  0.00000000E+00  0.00000000E+00  0.00000000E+00
  0.00000000E+00  0.00000000E+00  0.00000000E+00
  0.00000000E+00  0.00000000E+00  0.00000000E+00
  0.00000000E+00  0.00000000E+00  0.00000000E+00
  0.00000000E+00  0.00000000E+00  0.00000000E+00
  0.00000000E+00  0.00000000E+00  0.00000000E+00
  0.00000000E+00  0.00000000E+00  0.00000000E+00
  0.00000000E+00  0.00000000E+00  0.00000000E+00
  0.00000000E+00  0.00000000E+00  0.00000000E+00
  0.00000000E+00  0.00000000E+00  0.00000000E+00
  0.00000000E+00  0.00000000E+00  0.00000000E+00
  0.00000000E+00  0.00000000E+00  0.00000000E+00
  0.00000000E+00  0.00000000E+00  0.00000000E+00
  0.00000000E+00  0.00000000E+00  0.00000000E+00
  0.00000000E+00  0.00000000E+00  0.00000000E+00
  0.00000000E+00  0.00000000E+00  0.00000000E+00
  0.00000000E+00  0.00000000E+00  0.00000000E+00
  0.00000000E+00  0.00000000E+00  0.00000000E+00
  0.00000000E+00  0.00000000E+00  0.00000000E+00
  0.00000000E+00  0.00000000E+00  0.00000000E+00
  0.00000000E+00  0.00000000E+00  0.00000000E+00
  0.00000000E+00  0.00000000E+00  0.00000000E+00
  0.00000000E+00  0.00000000E+00  0.00000000E+00
  0.00000000E+00  0.00000000E+00  0.00000000E+00
  0.00000000E+00  0.00000000E+00  0.00000000E+00
  0.00000000E+00  0.00000000E+00  0.00000000E+00
  0.00000000E+00  0.00000000E+00  0.00000000E+00
  0.00000000E+00  0.00000000E+00  0.00000000E+00
  0.00000000E+00  0.00000000E+00  0.00000000E+00
  0.00000000E+00  0.00000000E+00  0.00000000E+00
  0.00000000E+00  0.00000000E+00  0.00000000E+00
  0.00000000E+00  0.00000000E+00  0.00000000E+00
  0.00000000E+00  0.00000000E+00  0.00000000E+00
  0.00000000E+00  0.00000000E+00  0.00000000E+00
  0.00000000E+00  0.00000000E+00  0.00000000E+00
  0.00000000E+00  0.00000000E+00  0.00000000E+00
  0.00000000E+00  0.00000000E+00  0.00000000E+00
  0.00000000E+00  0.00000000E+00  0.00000000E+00
  0.00000000E+00  0.00000000E+00  0.00000000E+00
  0.00000000E+00  0.00000000E+00  0.00000000E+00
  0.00000000E+00  0.00000000E+00  0.00000000E+00
  0.00000000E+00  0.00000000E+00  0.00000000E+00
  0.00000000E+00  0.00000000E+00  0.00000000E+00
  0.00000000E+00  0.00000000E+00  0.00000000E+00
  0.00000000E+00  0.00000000E+00  0.00000000E+00
  0.00000000E+00  0.00000000E+00  0.00000000E+00
  0.00000000E+00  0.00000000E+00  0.00000000E+00
  0.00000000E+00  0.00000000E+00  0.00000000E+00
  0.00000000E+00  0.00000000E+00  0.00000000E+00
  0.00000000E+00  0.00000000E+00  0.00000000E+00
  0.00000000E+00  0.00000000E+00  0.00000000E+00
  0.00000000E+00  0.00000000E+00  0.00000000E+00
  0.00000000E+00  0.00000000E+00  0.00000000E+00
  0.00000000E+00  0.00000000E+00  0.00000000E+00
  0.00000000E+00  0.00000000E+00  0.00000000E+00
  0.00000000E+00  0.00000000E+00  0.00000000E+00
  0.00000000E+00  0.00000000E+00  0.00000000E+00
  0.00000000E+00  0.00000000E+00  0.00000000E+00
  0.00000000E+00  0.00000000E+00  0.00000000E+00
  0.00000000E+00  0.00000000E+00  0.00000000E+00
  0.00000000E+00  0.00000000E+00  0.00000000E+00
  0.00000000E+00  0.00000000E+00  0.00000000E+00
  0.00000000E+00  0.00000000E+00  0.00000000E+00
  0.00000000E+00  0.00000000E+00  0.00000000E+00
  0.00000000E+00  0.00000000E+00  0.00000000E+00
  0.00000000E+00  0.00000000E+00  0.00000000E+00
  0.00000000E+00  0.00000000E+00  0.00000000E+00
  0.00000000E+00  0.00000000E+00  0.00000000E+00
  0.00000000E+00  0.00000000E+00  0.00000000E+00
  0.00000000E+00  0.00000000E+00  0.00000000E+00
  0.00000000E+00  0.00000000E+00  0.00000000E+00
  0.00000000E+00  0.00000000E+00  0.00000000E+00
  0.00000000E+00  0.00000000E+00  0.00000000E+00
  0.00000000E+00  0.00000000E+00  0.00000000E+00
  0.00000000E+00  0.00000000E+00  0.00000000E+00
  0.00000000E+00  0.00000000E+00  0.00000000E+00
  0.00000000E+00  0.00000000E+00  0.00000000E+00
  0.00000000E+00  0.00000000E+00  0.00000000E+00
  0.00000000E+00  0.00000000E+00  0.00000000E+00
  0.00000000E+00  0.00000000E+00  0.00000000E+00
  0.00000000E+00  0.00000000E+00  0.00000000E+00
  0.00000000E+00  0.00000000E+00  0.00000000E+00
  0.00000000E+00  0.00000000E+00  0.00000000E+00
  0.00000000E+00  0.00000000E+00  0.00000000E+00
  0.00000000E+00  0.00000000E+00  0.00000000E+00
  0.00000000E+00  0.00000000E+00  0.00000000E+00
  0.00000000E+00  0.00000000E+00  0.00000000E+00
  0.00000000E+00  0.00000000E+00  0.00000000E+00
  0.00000000E+00  0.00000000E+00  0.00000000E+00
  0.00000000E+00  0.00000000E+00  0.00000000E+00
  0.00000000E+00  0.00000000E+00  0.00000000E+00
  0.00000000E+00  0.00000000E+00  0.00000000E+00
  0.00000000E+00  0.00000000E+00  0.00000000E+00
  0.00000000E+00  0.00000000E+00  0.00000000E+00
  0.00000000E+00  0.00000000E+00  0.00000000E+00
  0.00000000E+00  0.00000000E+00  0.00000000E+00
  0.00000000E+00  0.00000000E+00  0.00000000E+00
  0.00000000E+00  0.00000000E+00  0.00000000E+00
  0.00000000E+00  0.00000000E+00  0.00000000E+00
  0.00000000E+00  0.00000000E+00  0.00000000E+00
  0.00000000E+00  0.00000000E+00  0.00000000E+00
  0.00000000E+00  0.00000000E+00  0.00000000E+00
  0.00000000E+00  0.00000000E+00  0.00000000E+00
  0.00000000E+00  0.00000000E+00  0.00000000E+00
  0.00000000E+00  0.00000000E+00  0.00000000E+00
  0.00000000E+00  0.00000000E+00  0.00000000E+00
  0.00000000E+00  0.00000000E+00  0.00000000E+00
  0.00000000E+00  0.00000000E+00  0.00000000E+00
  0.00000000E+00  0.00000000E+00  0.00000000E+00
  0.00000000E+00  0.00000000E+00  0.00000000E+00
  0.00000000E+00  0.00000000E+00  0.00000000E+00
  0.00000000E+00  0.00000000E+00  0.00000000E+00
  0.00000000E+00  0.00000000E+00  0.00000000E+00
  0.00000000E+00  0.00000000E+00  0.00000000E+00
  0.00000000E+00  0.00000000E+00  0.00000000E+00
  0.00000000E+00  0.00000000E+00  0.00000000E+00
  0.00000000E+00  0.00000000E+00  0.00000000E+00
  0.00000000E+00  0.00000000E+00  0.00000000E+00
  0.00000000E+00  0.00000000E+00  0.00000000E+00
  0.00000000E+00  0.00000000E+00  0.00000000E+00
  0.00000000E+00  0.00000000E+00  0.00000000E+00
  0.00000000E+00  0.00000000E+00  0.00000000E+00
  0.00000000E+00  0.00000000E+00  0.00000000E+00
  0.00000000E+00  0.00000000E+00  0.00000000E+00
  0.00000000E+00  0.00000000E+00  0.00000000E+00
  0.00000000E+00  0.00000000E+00  0.00000000E+00
  0.00000000E+00  0.00000000E+00  0.00000000E+00
  0.00000000E+00  0.00000000E+00  0.00000000E+00
  0.00000000E+00  0.00000000E+00  0.00000000E+00
  0.00000000E+00  0.00000000E+00  0.00000000E+00
  0.00000000E+00  0.00000000E+00  0.00000000E+00
  0.00000000E+00  0.00000000E+00  0.00000000E+00
  0.00000000E+00  0.00000000E+00  0.00000000E+00
  0.00000000E+00  0.00000000E+00  0.00000000E+00
  0.00000000E+00  0.00000000E+00  0.00000000E+00
  0.00000000E+00  0.00000000E+00  0.00000000E+00
  0.00000000E+00  0.00000000E+00  0.00000000E+00
  0.00000000E+00  0.00000000E+00  0.00000000E+00
  0.00000000E+00  0.00000000E+00  0.00000000E+00
  0.00000000E+00  0.00000000E+00  0.00000000E+00
  0.00000000E+00  0.00000000E+00  0.00000000E+00
  0.00000000E+00  0.00000000E+00  0.00000000E+00
  0.00000000E+00  0.00000000E+00  0.00000000E+00
  0.00000000E+00  0.00000000E+00  0.00000000E+00
  0.00000000E+00  0.00000000E+00  0.00000000E+00
  0.00000000E+00  0.00000000E+00  0.00000000E+00
  0.00000000E+00  0.00000000E+00  0.00000000E+00
  0.00000000E+00  0.00000000E+00  0.00000000E+00
  0.00000000E+00  0.00000000E+00  0.00000000E+00
  0.00000000E+00  0.00000000E+00  0.00000000E+00
  0.00000000E+00  0.00000000E+00  0.00000000E+00
  0.00000000E+00  0.00000000E+00  0.00000000E+00
  0.00000000E+00  0.00000000E+00  0.00000000E+00
  0.00000000E+00  0.00000000E+00  0.00000000E+00
  0.00000000E+00  0.00000000E+00  0.00000000E+00
  0.00000000E+00  0.00000000E+00  0.00000000E+00
  0.00000000E+00  0.00000000E+00  0.00000000E+00
  0.00000000E+00  0.00000000E+00  0.00000000E+00
  0.00000000E+00  0.00000000E+00  0.00000000E+00
  0.00000000E+00  0.00000000E+00  0.00000000E+00
  0.00000000E+00  0.00000000E+00  0.00000000E+00
  0.00000000E+00  0.00000000E+00  0.00000000E+00
  0.00000000E+00  0.00000000E+00  0.00000000E+00
  0.00000000E+00  0.00000000E+00  0.00000000E+00
  0.00000000E+00  0.00000000E+00  0.00000000E+00
  0.00000000E+00  0.00000000E+00  0.00000000E+00
  0.00000000E+00  0.00000000E+00  0.00000000E+00
  0.00000000E+00  0.00000000E+00  0.00000000E+00
  0.00000000E+00  0.00000000E+00  0.00000000E+00
  0.00000000E+00  0.00000000E+00  0.00000000E+00
  0.00000000E+00  0.00000000E+00  0.00000000E+00
  0.00000000E+00  0.00000000E+00  0.00000000E+00
  0.00000000E+00  0.00000000E+00  0.00000000E+00
  0.00000000E+00  0.00000000E+00  0.00000000E+00