FeMn_288_15                             
    1.000000000000000     
     9.7266779999999997    0.0000000000000000    0.0000000000000000
     0.0000000000000000    8.4235500000000005    0.0000000000000000
     0.0000000000000000    0.0000000000000000   45.0000000000000000
   Fe   Mn
   273    15
Direct
  0.4371504159240782  0.2918668667238294  0.7423200828597429
  0.9376290927350995  0.6239878210928218  0.6537272476493103
  0.4376181697218979  0.7898566918328733  0.6098511573965267
  0.1875887438524826  0.4577799518743913  0.6982114541952216
  0.1876244646678085  0.1189300317539574  0.1686712185215888
  0.3115697752732040  0.2055767502712018  0.4787021762479504
  0.5626739862955178  0.5362466351423246  0.2576257032852185
  0.4372294180641614  0.6224470641869123  0.5212538010690426
  0.1873905196364531  0.1207110585720417  0.4348027079500287
  0.8122898849590195  0.3725828902204128  0.5213786219867389
  0.6875795605394025  0.1251525468816197  0.7865162698858340
  0.1874147002408141  0.9564111798263740  0.5652585553246930
  0.3124585719478799  0.2028295533334736  0.2133670443095827
  0.1874867247786004  0.9593977957149176  0.8313916330690083
  0.3124049524196135  0.7062669688241220  0.5652715821048359
  0.4376013319832349  0.7921798339636092  0.8734991696045196
  0.8123995000429719  0.7025456147624619  0.2134409204114997
  0.5624518975478993  0.7087721017999739  0.8312610927350226
  0.0623771859644834  0.5412915458928004  0.7422750233863171
  0.9374504587485606  0.9591173075222492  0.8312709471540110
  0.4381825449579636  0.2927042106254412  0.8734663132962069
  0.6880090365578543  0.1192543622579465  0.1687256538654046
  0.9371658868150143  0.4538691982920657  0.3462919826186247
  0.8125894028465752  0.7078452765897885  0.6981756457149064
  0.0624905921751691  0.3707468863119968  0.4349066590879502
  0.8125188605709207  0.7087658894375689  0.8312520340068232
  0.1874986139903238  0.4583408583444926  0.8313902870635159
  0.4373339572943080  0.1237991278235829  0.6539508182779535
  0.8126155263706824  0.5418070402592228  0.7423183576924087
  0.3124206291258838  0.8738497574021731  0.6538156430067134
  0.0626138420556098  0.7077080863542076  0.6981938376587918
  0.6875049526723529  0.4585629490605320  0.8313468664360995
  0.6872267418001757  0.7861448000433798  0.1265858395279383
  0.5622827097807644  0.7065333413445938  0.5648785817768239
  0.6875219835945428  0.7924214383150640  0.8734597920979602
  0.1871923565739238  0.4559800217364557  0.5651274422113590
  0.9376349365377309  0.1209845092620754  0.4348721998714324
  0.8125284748257013  0.5353437352450457  0.1263831521372328
  0.3127522369442051  0.8711806076292349  0.4348068886354981
  0.8124929003871738  0.5404689174197811  0.6098252958928921
  0.3122317447562135  0.8723626094961260  0.5214018928065054
  0.9374594978399354  0.6211126954911057  0.4348228834815066
  0.3127118934540613  0.3712907814492091  0.4347486357679001
  0.3125678879634037  0.5401412893770757  0.6098898226003194
  0.0616926825593781  0.5422725505280090  0.8734496065636245
  0.8126127420032906  0.8689146841380796  0.1687131195353477
  0.0618984253015240  0.0373301058259584  0.3901895649331962
  0.4372902044873885  0.4537307594274456  0.3462099781878463
  0.9375604248734711  0.4579404652958363  0.6982329049944507
  0.3125384981950085  0.3724948672286837  0.5214120150435225
  0.8119607868994309  0.7032096304287100  0.3461542834451581
  0.1877113129813951  0.6194937985459420  0.1687191171808730
  0.3123925674716906  0.3704019725004300  0.3017070051948951
  0.4375064935172190  0.7878168263868031  0.3902379414557436
  0.1872194191362832  0.2870277945268963  0.3901794604046426
  0.9379053681232236  0.2918447267280569  0.7423042400570848
  0.6876792735108390  0.2860817253548570  0.2576238111845859
  0.6878737256927026  0.4536369608509961  0.3461331825671844
  0.8119692817854256  0.2040292608574227  0.3462582580575457
  0.3125854750176776  0.3753560181759120  0.7865000111420833
  0.8124392931093032  0.0377018657542359  0.3901284608657836
  0.6872117682038281  0.4530371100065246  0.2135206754289934
  0.9371152520346517  0.2861151964839548  0.1263778573164135
  0.8125047919089246  0.3750957256282932  0.7864572394198389
  0.9378566189357895  0.7859983228700773  0.1266140452104275
  0.5626357136841059  0.3693784467376859  0.1686403626252436
  0.8124888356531249  0.0361022969981328  0.2575879517543659
  0.6875223154467445  0.6251290102358997  0.7865352540336881
  0.4375690018360464  0.1215697120855884  0.4352714901991081
  0.1877322460686412  0.9552827744486294  0.4786931550741264
  0.4372157334906965  0.2898624472505382  0.6098602494266200
  0.0630320323391670  0.2095932276131259  0.8313419244876979
  0.6880704979935524  0.4564482851881396  0.5653689502267448
  0.0626091461632599  0.8723663589849103  0.5213900939198995
  0.6876807519078441  0.6217052476060860  0.4349119001113246
  0.9372943629871084  0.9554485313878948  0.4786696930224071
  0.9378387028058235  0.4587464112228928  0.8313803074638223
  0.5626215284373077  0.5357558690211738  0.1265507673227848
  0.9379755719412290  0.2901042527424423  0.6098919725555439
  0.9377720239729814  0.6197915707041278  0.3017428603079012
  0.6878891831597114  0.6224101989144621  0.5213889378570910
  0.3117164613308958  0.7055461674820485  0.4786538926070553
  0.9376873746277083  0.6185295078452836  0.1687392577866321
  0.9378022471887986  0.1241326494374489  0.6538940609924773
  0.8127856802790647  0.5423568484728294  0.8735140508139825
  0.5626382090013876  0.5400590149597242  0.6098896566886775
  0.6879013582888494  0.9535882665515237  0.3462140484834823
  0.1875233801292539  0.9526215486062973  0.2134027321496227
  0.1874599335219679  0.4542465882048594  0.3462570395171174
  0.9377168272741775  0.1202363902913201  0.3017510029777111
  0.0626304771240917  0.8742051629924775  0.6538096778875462
  0.3119881463861686  0.2095502453545671  0.8313387956722872
  0.4368231692059824  0.2861561169041313  0.1265883691196499
  0.5625769875966956  0.2085662284162245  0.8312045711131545
  0.1876199114885118  0.7871976447766673  0.3901461068026403
  0.1875420254562641  0.2863728526468587  0.2576353288951160
  0.0619578580808947  0.5373176656633363  0.3901320260876036
  0.3128128296296300  0.7037669198929130  0.3462846830163652
  0.0623502071532496  0.2025858365407994  0.2135152049157841
  0.3129606592962269  0.0406219438172121  0.6098737464913608
  0.4372887456752453  0.6212186799052823  0.4349409485037287
  0.4375435373655999  0.1189016565211499  0.1686300559822972
  0.4374971168391037  0.7863240028931984  0.2575727362624957
  0.1875097869047975  0.7901182508629374  0.6098909365691408
  0.6877212427863446  0.7860378807251417  0.2576130062262035
  0.4370506477581919  0.9545350891806329  0.4786114241398083
  0.9374986754496059  0.7922624207804957  0.8734755776024419
  0.3126108219153110  0.5412865318513361  0.7423035879212089
  0.5623073046237086  0.0403054614218815  0.6098240890339633
  0.1875490640006046  0.7922167646957309  0.8734754483152388
  0.8125599699205225  0.2068172858132395  0.5652821457276910
  0.4374790197096348  0.4528631980266795  0.2135145964300791
  0.5628303025750023  0.3721047759748858  0.4347533320488764
  0.0624642742722468  0.7050918851887293  0.4786229845189749
  0.0624722039443935  0.0412901587546018  0.8734143569219045
  0.6875160851577401  0.4578133147798774  0.6983438890560378
  0.0626510139894370  0.3724789498340939  0.5213756007638167
  0.9375301995484497  0.6254655648945774  0.7864729426776443
  0.1876282964567756  0.6207457793820145  0.4348768898431407
  0.1871584019368211  0.1220533662307406  0.5214335421272174
  0.8128285478415642  0.7067764745018061  0.5652986805464293
  0.6875027413017402  0.2919574228841505  0.7423816678134630
  0.5622537843631135  0.5423342520875138  0.8735223424727163
  0.9376906100828151  0.7861437750994454  0.2576194253890075
  0.6875791955331696  0.2903059600841676  0.6099386775886209
  0.8124811752960963  0.3737511052834240  0.6537505776140238
  0.6875173999795667  0.2924564037570208  0.8734400932287478
  0.8126476772149948  0.0416931558190854  0.7423889583954992
  0.9374085536780845  0.1225436841166707  0.5214250691277554
  0.0624922850246353  0.7063183184328382  0.5651892041516686
  0.4370543922243742  0.4546385147632142  0.4786297471598331
  0.9370517843136150  0.1193546368390107  0.1686896840102678
  0.5627325534699816  0.2066077490896025  0.5649849811288037
  0.0625908242568266  0.5403671191340746  0.6098905604584319
  0.9376569347347049  0.7904357905636358  0.6098126698773658
  0.5626208397223078  0.5378008697769227  0.3901174247633520
  0.8126345257453699  0.0404843712422247  0.6098576711068197
  0.9373351250198569  0.4553444106786349  0.4786441220842302
  0.4374059373925953  0.6195455372739193  0.1686937799865904
  0.4378816521622544  0.1250705945204536  0.7863819962762347
  0.6879492932294520  0.4551392770415287  0.4785653653643077
  0.8124001371101633  0.5358495909497950  0.2575993247951725
  0.3130417320672714  0.2036430468703012  0.3461531357138513
  0.1875467635720974  0.7914229086597037  0.7423667469380553
  0.8131360099989977  0.2056354301596032  0.4786310302666249
  0.9369183158295556  0.2927481661243934  0.8734569532635236
  0.1875581372219198  0.1254668781874530  0.7865557163447657
  0.3124935607823205  0.3687602877746482  0.1687598473116298
  0.0625370776537138  0.2051850748252625  0.4786324487274668
  0.0625288036870919  0.2078508387428786  0.6981857347043621
  0.6880829254372115  0.1222428930802405  0.5213519822583010
  0.5624327865927302  0.0417195956227524  0.7423963478812733
  0.1872815620191763  0.4526747314203458  0.2134446443047148
  0.1875771986494496  0.4552667771151742  0.4786457227485374
  0.4372064057714168  0.9526084851185320  0.2134155054339408
  0.4375397358637123  0.2872309758930602  0.3901877601427729
  0.0626030603859047  0.2064916781101271  0.5651889200913923
  0.6881695638222360  0.1217264762640377  0.4348216893115799
  0.3119160452704786  0.2066465208131259  0.5653528889686662
  0.0625639517226490  0.7093609613722620  0.8311992872789409
  0.4375654785329167  0.2864445830024997  0.2575760343202314
  0.0624358120434317  0.8707936857978233  0.4349785289404663
  0.0624549600845258  0.5363551581279759  0.2575405525357208
  0.5624452762184275  0.3739061287829983  0.6538323528944772
  0.6870564594655835  0.2878873511827003  0.3902694955546952
  0.6874963943855925  0.9587772883639434  0.8313068504945199
  0.8125381242025955  0.8740604711809150  0.6538185359819944
  0.3124454066799390  0.7093543144235329  0.8312144501047400
  0.6875614655934021  0.9579523143615086  0.6981681409234898
  0.0623337721863247  0.5356281299245895  0.1265608263756110
  0.5625687956302644  0.0382252322200707  0.3901659857431846
  0.5624527025630132  0.5418075096020144  0.7423503433869970
  0.3125962106396232  0.5361116258513529  0.2576526281067451
  0.6873622128223886  0.6185071474044942  0.1688151554645461
  0.4373731063905895  0.7858365963110381  0.1265087108841594
  0.5625103958546098  0.8751199692615795  0.7865244512967479
  0.5625537949050131  0.8739551181320486  0.6538514278327209
  0.5627917126808089  0.8696906895877468  0.3016612612675283
  0.5624502452005149  0.7080172153489023  0.6982380804517376
  0.5626003003669852  0.2078794466271188  0.6982949614779909
  0.5624041315518685  0.3734142636425418  0.5213275642755976
  0.8124334955181646  0.2086208040230657  0.8312031092312611
  0.5623377798662903  0.8718062087443691  0.4347698998045038
  0.8125608787706674  0.3697139539175489  0.3017682873255158
  0.9374829923019055  0.6224478053708767  0.5213495564168407
  0.5622238537606310  0.8690924762691381  0.1685815173621265
  0.5623315101768944  0.2034413901977177  0.3463245273654845
  0.4375828169678094  0.6254506284137409  0.7864872253898785
  0.3126309222655168  0.0412394660691905  0.8734206035418047
  0.9373323683293432  0.2860997110586077  0.2576628255193565
  0.4371861511363537  0.6201696559905976  0.3017816097073314
  0.9373805563686870  0.7869326227503383  0.3901250131896749
  0.4375014422325210  0.4578801332835558  0.6982059524781297
  0.8124909021009322  0.2079132295655726  0.6982448764424112
  0.0622754029624128  0.7023164060510452  0.2134568039796116
  0.3126508980241984  0.0360256892131423  0.2575530385362584
  0.1875013606203493  0.2917318862313950  0.7424018194183462
  0.1872510041794271  0.6201393708235314  0.3017527001692930
  0.8124326477418691  0.8723046257710921  0.5213715537100533
  0.8126794605973160  0.5375514689924383  0.3900550103585338
  0.0618528273734240  0.8698688324841422  0.3016453117741406
  0.9377109172575943  0.7916429388471965  0.7424238505791736
  0.8124233089653949  0.2021986052586186  0.2135124903363470
  0.0626670040253705  0.0363600523574504  0.2575402341686285
  0.6877287326888430  0.6239363428382925  0.6538766897593481
  0.4373302698161487  0.7915217936901117  0.7424209563782928
  0.6874847321177060  0.1239576431707991  0.6537470507337675
  0.0625297380287453  0.0417735445153009  0.7422709035858234
  0.9371816351794223  0.9540932332041520  0.3462164105473658
  0.1875510956198921  0.9578698855606462  0.6981923267564865
  0.3125620656468760  0.2078559364965867  0.6982063553057968
  0.8130700537658022  0.7054939768345666  0.4786004366801765
  0.0625420474532044  0.0351299570692448  0.1265822813501144
  0.1875282284078756  0.7858458741722197  0.1264850799249636
  0.4370788734910929  0.9557567956402102  0.5653812426595152
  0.5627808703708906  0.8730306134214364  0.5213161824355361
  0.3134112112245105  0.5422394353365132  0.8734627065678858
  0.1873110737073070  0.6242508740052836  0.6538502989769113
  0.6879532855165991  0.2862283540974557  0.1263998619857932
  0.4371595870612835  0.1200854760930744  0.3017159054492645
  0.5625267406443248  0.7025715294672538  0.2133955284536017
  0.3123328678199567  0.5359912050148926  0.1265429194314967
  0.5626508603568219  0.7035814367023381  0.3462228649441497
  0.6870223004785482  0.7873450007402145  0.3902238641392007
  0.6872606534347242  0.6197083390094328  0.3017325968913584
  0.5625928393471374  0.2028248084426669  0.2134359489391729
  0.9375861631944301  0.9578440688696079  0.6983445493903017
  0.1880947007580363  0.2860392680965225  0.1265851154624038
  0.9372411760571967  0.1251321375400412  0.7863656538383216
  0.3123527637538416  0.0357844724213639  0.1264803278948044
  0.5623794266034320  0.0360126554011482  0.2576192530530284
  0.9376165197457060  0.9525004983316527  0.2133548023465192
  0.5624850806497216  0.0351956202433907  0.1265564427148997
  0.5625642689805218  0.3698841475983595  0.3017548648048643
  0.4371321167415640  0.4587722351848249  0.8313932852008602
  0.1875846509422937  0.2904076266057172  0.6099261406464702
  0.8123710306891991  0.8714551142358943  0.4348748327720861
  0.4375183088521528  0.9579788024839196  0.6983323069394932
  0.9376931700862118  0.4527762456005747  0.2135305864131206
  0.3122379521131394  0.5370317354299197  0.3901768326605437
  0.0623315215571407  0.0407528539623874  0.6099176365704552
  0.8125914310822784  0.8751341710867884  0.7865150541850939
  0.6874628559436335  0.9527610441709444  0.2134435204606801
  0.3124937153674162  0.0418038538150821  0.7422892321985942
  0.1870889395610894  0.9539093594416468  0.3462546861004087
  0.3125783886987258  0.7078807235910290  0.6982346497736400
  0.8121144884929166  0.3715017856514775  0.4349190486956840
  0.8123431475670999  0.8699279091108008  0.3017375963537419
  0.4375867311194738  0.6239413278943234  0.6537029306611413
  0.0628946646138712  0.8693949976426879  0.1686828870164639
  0.0625877828362203  0.3740972559366125  0.6537785841739120
  0.0621312542397781  0.3703173265562818  0.3017554901777153
  0.3125737439041940  0.8692112154112751  0.1687831444773737
  0.8127720308704502  0.0420099786421667  0.8734176533467053
  0.1874627288190118  0.1238982529866584  0.6538514013252321
  0.1874715014245850  0.7862686107409473  0.2575834944351192
  0.0625264386607759  0.3753822446673916  0.7864999596624687
  0.9377726378705922  0.4564653627797396  0.5652015167343668
  0.1874459751229302  0.1200050143700952  0.3017738286633379
  0.9375733869415648  0.9562072294680964  0.5651456272772976
  0.3125311366043835  0.8755822103866223  0.7864670543609449
  0.1874248724356693  0.6222700027396917  0.5214094174481042
  0.1875587412569213  0.6260742609846145  0.7863274985405171
  0.9376555421211634  0.2875899535637514  0.3902498839790453
  0.5622512816039147  0.0419569340902437  0.8734320369593510
  0.4375452674813007  0.9590919379715929  0.8312877110934600
  0.8125283826855801  0.0360045627250256  0.1265501141743728
  0.0625630061879135  0.8755769016054937  0.7864483910838286
  0.0625430526750432  0.3695090746437563  0.1686781205613491
  0.6877316592359569  0.9550289363251299  0.4786406238342771
  0.3125418505679317  0.3739954802468606  0.6538424454642743
  0.5625711796593084  0.3750611327278831  0.7864605870878135
  0.3124548655531591  0.7025558619597806  0.2133603903966340
  0.4371220624777541  0.4561895488474510  0.5654491016190188
  0.4374960738557355  0.1225769309419901  0.5214619146601530
  0.6876435652318156  0.9569920684189279  0.5653703747729076
  0.4383776457148023  0.9538772815454336  0.3461802569949625
  0.5627632543814299  0.7050814770556514  0.4786239764426738
  0.3118878739520820  0.8695385333694511  0.3016479223619956
  0.8126832136603958  0.3691436604907341  0.1680533186671548
  0.0626957386250781  0.2038954194361938  0.3464256083784315
  0.1875973781542734  0.2924883627641147  0.8732129206772468
  0.6875422044736009  0.7897390275383219  0.6100766245516670
  0.3118680234105716  0.0375547098277394  0.3900352246326633
  0.6875002113311999  0.7918587816225243  0.7423928097535827
  0.5624372742029521  0.2052179850625787  0.4786371806573125
  0.6870576384790974  0.1199812829647747  0.3017659126114365
  0.0626356095964786  0.7039973127176866  0.3462417638160580
 
  0.00000000E+00  0.00000000E+00  0.00000000E+00
  0.00000000E+00  0.00000000E+00  0.00000000E+00
  0.00000000E+00  0.00000000E+00  0.00000000E+00
  0.00000000E+00  0.00000000E+00  0.00000000E+00
  0.00000000E+00  0.00000000E+00  0.00000000E+00
  0.00000000E+00  0.00000000E+00  0.00000000E+00
  0.00000000E+00  0.00000000E+00  0.00000000E+00
  0.00000000E+00  0.00000000E+00  0.00000000E+00
  0.00000000E+00  0.00000000E+00  0.00000000E+00
  0.00000000E+00  0.00000000E+00  0.00000000E+00
  0.00000000E+00  0.00000000E+00  0.00000000E+00
  0.00000000E+00  0.00000000E+00  0.00000000E+00
  0.00000000E+00  0.00000000E+00  0.00000000E+00
  0.00000000E+00  0.00000000E+00  0.00000000E+00
  0.00000000E+00  0.00000000E+00  0.00000000E+00
  0.00000000E+00  0.00000000E+00  0.00000000E+00
  0.00000000E+00  0.00000000E+00  0.00000000E+00
  0.00000000E+00  0.00000000E+00  0.00000000E+00
  0.00000000E+00  0.00000000E+00  0.00000000E+00
  0.00000000E+00  0.00000000E+00  0.00000000E+00
  0.00000000E+00  0.00000000E+00  0.00000000E+00
  0.00000000E+00  0.00000000E+00  0.00000000E+00
  0.00000000E+00  0.00000000E+00  0.00000000E+00
  0.00000000E+00  0.00000000E+00  0.00000000E+00
  0.00000000E+00  0.00000000E+00  0.00000000E+00
  0.00000000E+00  0.00000000E+00  0.00000000E+00
  0.00000000E+00  0.00000000E+00  0.00000000E+00
  0.00000000E+00  0.00000000E+00  0.00000000E+00
  0.00000000E+00  0.00000000E+00  0.00000000E+00
  0.00000000E+00  0.00000000E+00  0.00000000E+00
  0.00000000E+00  0.00000000E+00  0.00000000E+00
  0.00000000E+00  0.00000000E+00  0.00000000E+00
  0.00000000E+00  0.00000000E+00  0.00000000E+00
  0.00000000E+00  0.00000000E+00  0.00000000E+00
  0.00000000E+00  0.00000000E+00  0.00000000E+00
  0.00000000E+00  0.00000000E+00  0.00000000E+00
  0.00000000E+00  0.00000000E+00  0.00000000E+00
  0.00000000E+00  0.00000000E+00  0.00000000E+00
  0.00000000E+00  0.00000000E+00  0.00000000E+00
  0.00000000E+00  0.00000000E+00  0.00000000E+00
  0.00000000E+00  0.00000000E+00  0.00000000E+00
  0.00000000E+00  0.00000000E+00  0.00000000E+00
  0.00000000E+00  0.00000000E+00  0.00000000E+00
  0.00000000E+00  0.00000000E+00  0.00000000E+00
  0.00000000E+00  0.00000000E+00  0.00000000E+00
  0.00000000E+00  0.00000000E+00  0.00000000E+00
  0.00000000E+00  0.00000000E+00  0.00000000E+00
  0.00000000E+00  0.00000000E+00  0.00000000E+00
  0.00000000E+00  0.00000000E+00  0.00000000E+00
  0.00000000E+00  0.00000000E+00  0.00000000E+00
  0.00000000E+00  0.00000000E+00  0.00000000E+00
  0.00000000E+00  0.00000000E+00  0.00000000E+00
  0.00000000E+00  0.00000000E+00  0.00000000E+00
  0.00000000E+00  0.00000000E+00  0.00000000E+00
  0.00000000E+00  0.00000000E+00  0.00000000E+00
  0.00000000E+00  0.00000000E+00  0.00000000E+00
  0.00000000E+00  0.00000000E+00  0.00000000E+00
  0.00000000E+00  0.00000000E+00  0.00000000E+00
  0.00000000E+00  0.00000000E+00  0.00000000E+00
  0.00000000E+00  0.00000000E+00  0.00000000E+00
  0.00000000E+00  0.00000000E+00  0.00000000E+00
  0.00000000E+00  0.00000000E+00  0.00000000E+00
  0.00000000E+00  0.00000000E+00  0.00000000E+00
  0.00000000E+00  0.00000000E+00  0.00000000E+00
  0.00000000E+00  0.00000000E+00  0.00000000E+00
  0.00000000E+00  0.00000000E+00  0.00000000E+00
  0.00000000E+00  0.00000000E+00  0.00000000E+00
  0.00000000E+00  0.00000000E+00  0.00000000E+00
  0.00000000E+00  0.00000000E+00  0.00000000E+00
  0.00000000E+00  0.00000000E+00  0.00000000E+00
  0.00000000E+00  0.00000000E+00  0.00000000E+00
  0.00000000E+00  0.00000000E+00  0.00000000E+00
  0.00000000E+00  0.00000000E+00  0.00000000E+00
  0.00000000E+00  0.00000000E+00  0.00000000E+00
  0.00000000E+00  0.00000000E+00  0.00000000E+00
  0.00000000E+00  0.00000000E+00  0.00000000E+00
  0.00000000E+00  0.00000000E+00  0.00000000E+00
  0.00000000E+00  0.00000000E+00  0.00000000E+00
  0.00000000E+00  0.00000000E+00  0.00000000E+00
  0.00000000E+00  0.00000000E+00  0.00000000E+00
  0.00000000E+00  0.00000000E+00  0.00000000E+00
  0.00000000E+00  0.00000000E+00  0.00000000E+00
  0.00000000E+00  0.00000000E+00  0.00000000E+00
  0.00000000E+00  0.00000000E+00  0.00000000E+00
  0.00000000E+00  0.00000000E+00  0.00000000E+00
  0.00000000E+00  0.00000000E+00  0.00000000E+00
  0.00000000E+00  0.00000000E+00  0.00000000E+00
  0.00000000E+00  0.00000000E+00  0.00000000E+00
  0.00000000E+00  0.00000000E+00  0.00000000E+00
  0.00000000E+00  0.00000000E+00  0.00000000E+00
  0.00000000E+00  0.00000000E+00  0.00000000E+00
  0.00000000E+00  0.00000000E+00  0.00000000E+00
  0.00000000E+00  0.00000000E+00  0.00000000E+00
  0.00000000E+00  0.00000000E+00  0.00000000E+00
  0.00000000E+00  0.00000000E+00  0.00000000E+00
  0.00000000E+00  0.00000000E+00  0.00000000E+00
  0.00000000E+00  0.00000000E+00  0.00000000E+00
  0.00000000E+00  0.00000000E+00  0.00000000E+00
  0.00000000E+00  0.00000000E+00  0.00000000E+00
  0.00000000E+00  0.00000000E+00  0.00000000E+00
  0.00000000E+00  0.00000000E+00  0.00000000E+00
  0.00000000E+00  0.00000000E+00  0.00000000E+00
  0.00000000E+00  0.00000000E+00  0.00000000E+00
  0.00000000E+00  0.00000000E+00  0.00000000E+00
  0.00000000E+00  0.00000000E+00  0.00000000E+00
  0.00000000E+00  0.00000000E+00  0.00000000E+00
  0.00000000E+00  0.00000000E+00  0.00000000E+00
  0.00000000E+00  0.00000000E+00  0.00000000E+00
  0.00000000E+00  0.00000000E+00  0.00000000E+00
  0.00000000E+00  0.00000000E+00  0.00000000E+00
  0.00000000E+00  0.00000000E+00  0.00000000E+00
  0.00000000E+00  0.00000000E+00  0.00000000E+00
  0.00000000E+00  0.00000000E+00  0.00000000E+00
  0.00000000E+00  0.00000000E+00  0.00000000E+00
  0.00000000E+00  0.00000000E+00  0.00000000E+00
  0.00000000E+00  0.00000000E+00  0.00000000E+00
  0.00000000E+00  0.00000000E+00  0.00000000E+00
  0.00000000E+00  0.00000000E+00  0.00000000E+00
  0.00000000E+00  0.00000000E+00  0.00000000E+00
  0.00000000E+00  0.00000000E+00  0.00000000E+00
  0.00000000E+00  0.00000000E+00  0.00000000E+00
  0.00000000E+00  0.00000000E+00  0.00000000E+00
  0.00000000E+00  0.00000000E+00  0.00000000E+00
  0.00000000E+00  0.00000000E+00  0.00000000E+00
  0.00000000E+00  0.00000000E+00  0.00000000E+00
  0.00000000E+00  0.00000000E+00  0.00000000E+00
  0.00000000E+00  0.00000000E+00  0.00000000E+00
  0.00000000E+00  0.00000000E+00  0.00000000E+00
  0.00000000E+00  0.00000000E+00  0.00000000E+00
  0.00000000E+00  0.00000000E+00  0.00000000E+00
  0.00000000E+00  0.00000000E+00  0.00000000E+00
  0.00000000E+00  0.00000000E+00  0.00000000E+00
  0.00000000E+00  0.00000000E+00  0.00000000E+00
  0.00000000E+00  0.00000000E+00  0.00000000E+00
  0.00000000E+00  0.00000000E+00  0.00000000E+00
  0.00000000E+00  0.00000000E+00  0.00000000E+00
  0.00000000E+00  0.00000000E+00  0.00000000E+00
  0.00000000E+00  0.00000000E+00  0.00000000E+00
  0.00000000E+00  0.00000000E+00  0.00000000E+00
  0.00000000E+00  0.00000000E+00  0.00000000E+00
  0.00000000E+00  0.00000000E+00  0.00000000E+00
  0.00000000E+00  0.00000000E+00  0.00000000E+00
  0.00000000E+00  0.00000000E+00  0.00000000E+00
  0.00000000E+00  0.00000000E+00  0.00000000E+00
  0.00000000E+00  0.00000000E+00  0.00000000E+00
  0.00000000E+00  0.00000000E+00  0.00000000E+00
  0.00000000E+00  0.00000000E+00  0.00000000E+00
  0.00000000E+00  0.00000000E+00  0.00000000E+00
  0.00000000E+00  0.00000000E+00  0.00000000E+00
  0.00000000E+00  0.00000000E+00  0.00000000E+00
  0.00000000E+00  0.00000000E+00  0.00000000E+00
  0.00000000E+00  0.00000000E+00  0.00000000E+00
  0.00000000E+00  0.00000000E+00  0.00000000E+00
  0.00000000E+00  0.00000000E+00  0.00000000E+00
  0.00000000E+00  0.00000000E+00  0.00000000E+00
  0.00000000E+00  0.00000000E+00  0.00000000E+00
  0.00000000E+00  0.00000000E+00  0.00000000E+00
  0.00000000E+00  0.00000000E+00  0.00000000E+00
  0.00000000E+00  0.00000000E+00  0.00000000E+00
  0.00000000E+00  0.00000000E+00  0.00000000E+00
  0.00000000E+00  0.00000000E+00  0.00000000E+00
  0.00000000E+00  0.00000000E+00  0.00000000E+00
  0.00000000E+00  0.00000000E+00  0.00000000E+00
  0.00000000E+00  0.00000000E+00  0.00000000E+00
  0.00000000E+00  0.00000000E+00  0.00000000E+00
  0.00000000E+00  0.00000000E+00  0.00000000E+00
  0.00000000E+00  0.00000000E+00  0.00000000E+00
  0.00000000E+00  0.00000000E+00  0.00000000E+00
  0.00000000E+00  0.00000000E+00  0.00000000E+00
  0.00000000E+00  0.00000000E+00  0.00000000E+00
  0.00000000E+00  0.00000000E+00  0.00000000E+00
  0.00000000E+00  0.00000000E+00  0.00000000E+00
  0.00000000E+00  0.00000000E+00  0.00000000E+00
  0.00000000E+00  0.00000000E+00  0.00000000E+00
  0.00000000E+00  0.00000000E+00  0.00000000E+00
  0.00000000E+00  0.00000000E+00  0.00000000E+00
  0.00000000E+00  0.00000000E+00  0.00000000E+00
  0.00000000E+00  0.00000000E+00  0.00000000E+00
  0.00000000E+00  0.00000000E+00  0.00000000E+00
  0.00000000E+00  0.00000000E+00  0.00000000E+00
  0.00000000E+00  0.00000000E+00  0.00000000E+00
  0.00000000E+00  0.00000000E+00  0.00000000E+00
  0.00000000E+00  0.00000000E+00  0.00000000E+00
  0.00000000E+00  0.00000000E+00  0.00000000E+00
  0.00000000E+00  0.00000000E+00  0.00000000E+00
  0.00000000E+00  0.00000000E+00  0.00000000E+00
  0.00000000E+00  0.00000000E+00  0.00000000E+00
  0.00000000E+00  0.00000000E+00  0.00000000E+00
  0.00000000E+00  0.00000000E+00  0.00000000E+00
  0.00000000E+00  0.00000000E+00  0.00000000E+00
  0.00000000E+00  0.00000000E+00  0.00000000E+00
  0.00000000E+00  0.00000000E+00  0.00000000E+00
  0.00000000E+00  0.00000000E+00  0.00000000E+00
  0.00000000E+00  0.00000000E+00  0.00000000E+00
  0.00000000E+00  0.00000000E+00  0.00000000E+00
  0.00000000E+00  0.00000000E+00  0.00000000E+00
  0.00000000E+00  0.00000000E+00  0.00000000E+00
  0.00000000E+00  0.00000000E+00  0.00000000E+00
  0.00000000E+00  0.00000000E+00  0.00000000E+00
  0.00000000E+00  0.00000000E+00  0.00000000E+00
  0.00000000E+00  0.00000000E+00  0.00000000E+00
  0.00000000E+00  0.00000000E+00  0.00000000E+00
  0.00000000E+00  0.00000000E+00  0.00000000E+00
  0.00000000E+00  0.00000000E+00  0.00000000E+00
  0.00000000E+00  0.00000000E+00  0.00000000E+00
  0.00000000E+00  0.00000000E+00  0.00000000E+00
  0.00000000E+00  0.00000000E+00  0.00000000E+00
  0.00000000E+00  0.00000000E+00  0.00000000E+00
  0.00000000E+00  0.00000000E+00  0.00000000E+00
  0.00000000E+00  0.00000000E+00  0.00000000E+00
  0.00000000E+00  0.00000000E+00  0.00000000E+00
  0.00000000E+00  0.00000000E+00  0.00000000E+00
  0.00000000E+00  0.00000000E+00  0.00000000E+00
  0.00000000E+00  0.00000000E+00  0.00000000E+00
  0.00000000E+00  0.00000000E+00  0.00000000E+00
  0.00000000E+00  0.00000000E+00  0.00000000E+00
  0.00000000E+00  0.00000000E+00  0.00000000E+00
  0.00000000E+00  0.00000000E+00  0.00000000E+00
  0.00000000E+00  0.00000000E+00  0.00000000E+00
  0.00000000E+00  0.00000000E+00  0.00000000E+00
  0.00000000E+00  0.00000000E+00  0.00000000E+00
  0.00000000E+00  0.00000000E+00  0.00000000E+00
  0.00000000E+00  0.00000000E+00  0.00000000E+00
  0.00000000E+00  0.00000000E+00  0.00000000E+00
  0.00000000E+00  0.00000000E+00  0.00000000E+00
  0.00000000E+00  0.00000000E+00  0.00000000E+00
  0.00000000E+00  0.00000000E+00  0.00000000E+00
  0.00000000E+00  0.00000000E+00  0.00000000E+00
  0.00000000E+00  0.00000000E+00  0.00000000E+00
  0.00000000E+00  0.00000000E+00  0.00000000E+00
  0.00000000E+00  0.00000000E+00  0.00000000E+00
  0.00000000E+00  0.00000000E+00  0.00000000E+00
  0.00000000E+00  0.00000000E+00  0.00000000E+00
  0.00000000E+00  0.00000000E+00  0.00000000E+00
  0.00000000E+00  0.00000000E+00  0.00000000E+00
  0.00000000E+00  0.00000000E+00  0.00000000E+00
  0.00000000E+00  0.00000000E+00  0.00000000E+00
  0.00000000E+00  0.00000000E+00  0.00000000E+00
  0.00000000E+00  0.00000000E+00  0.00000000E+00
  0.00000000E+00  0.00000000E+00  0.00000000E+00
  0.00000000E+00  0.00000000E+00  0.00000000E+00
  0.00000000E+00  0.00000000E+00  0.00000000E+00
  0.00000000E+00  0.00000000E+00  0.00000000E+00
  0.00000000E+00  0.00000000E+00  0.00000000E+00
  0.00000000E+00  0.00000000E+00  0.00000000E+00
  0.00000000E+00  0.00000000E+00  0.00000000E+00
  0.00000000E+00  0.00000000E+00  0.00000000E+00