FeMn_288_15                             
    1.000000000000000     
     9.7266779999999997    0.0000000000000000    0.0000000000000000
     0.0000000000000000    8.4235500000000005    0.0000000000000000
     0.0000000000000000    0.0000000000000000   45.0000000000000000
   Fe   Mn
   273    15
Direct
  0.4371008176597296  0.2933137706634631  0.7421562182270491
  0.9376636786278963  0.6250707691954700  0.6536380267303944
  0.4376285947056867  0.7906910553105947  0.6097962803130594
  0.1875817637582596  0.4590980007786304  0.6981042274370047
  0.1876608401877214  0.1175030157325358  0.1688021421143721
  0.3117016017076932  0.2054627063504949  0.4787631112086524
  0.5626737684619931  0.5346597483157048  0.2577538624590059
  0.4373068136036725  0.6225767034626681  0.5213087751081228
  0.1873690436793490  0.1203155138879055  0.4348417073157627
  0.8123075063417023  0.3727423154183206  0.5214046907314263
  0.6875639323219392  0.1266869777117056  0.7863914304214289
  0.1874407926437578  0.9568655128959705  0.5652619821585709
  0.3124713449559127  0.2011053970093769  0.2134844963915377
  0.1874740064620197  0.9606655885219646  0.8312667377986007
  0.3123924272047461  0.7067583016309481  0.5652789779786107
  0.4376856601756636  0.7933698610345700  0.8733512015670051
  0.8123786783281406  0.7008310825670654  0.2135532897305735
  0.5624427093815058  0.7100604874934737  0.8311350256260964
  0.0623550211493414  0.5427132899295664  0.7421389459546653
  0.9374209056075294  0.9603565705297582  0.8311553205788645
  0.4382963968518116  0.2938434482302553  0.8733164074758371
  0.6879706190679307  0.1178627110631849  0.1688479193305228
  0.9371619409751755  0.4530548321238201  0.3463558969088907
  0.8126022129959204  0.7090978229715234  0.6980610282276617
  0.0625079401146821  0.3703449995912245  0.4349425704567854
  0.8124757524176279  0.7100439343663254  0.8311328659456947
  0.1874712809468918  0.4595863859239854  0.8312713528091170
  0.4373017108033024  0.1249140816771184  0.6538634932130035
  0.8126265420116606  0.5432126302365539  0.7421771965418733
  0.3124062235490156  0.8749753450155656  0.6537183707883897
  0.0626052387886307  0.7090002932733048  0.6980902030552110
  0.6874798346980384  0.4598422717622713  0.8311940610852959
  0.6870800091651337  0.7849275375665408  0.1267130006730985
  0.5622643506761129  0.7069424959848523  0.5648762286604789
  0.6875858868975796  0.7936422726679221  0.8733192454209493
  0.1872186803856507  0.4564570753723054  0.5651339874211255
  0.9376600901176297  0.1206044241174004  0.4349101759854045
  0.8124099924823713  0.5340804688733833  0.1265125971471371
  0.3127309913838471  0.8706990695243673  0.4348535039407325
  0.8125244728160155  0.5412555003696403  0.6097811286471403
  0.3121885362595553  0.8723836825879393  0.5214293049853501
  0.9374650425785469  0.6207168175295400  0.4348661404383759
  0.3126945949942435  0.3708362053039622  0.4347903876381864
  0.3125460691790041  0.5409862873462081  0.6098427175774876
  0.0615717883821454  0.5433761962126615  0.8733100520578523
  0.8126141722301802  0.8675701245398904  0.1688332064679141
  0.0619132439750497  0.0368319180062735  0.3902315052129735
  0.4372502203070986  0.4528742466219680  0.3462728957486371
  0.9375493146379482  0.4592147131508400  0.6981210948102948
  0.3125915416595645  0.3725186903354057  0.5214472413919041
  0.8119924623814769  0.7024053985830466  0.3462126278025385
  0.1877283780753364  0.6181057578301771  0.1688363041534931
  0.3124392834867731  0.3691402932065411  0.3017686117767835
  0.4374922312845408  0.7872456293886015  0.3902887071498016
  0.1872331705666812  0.2865488885941340  0.3902328040683802
  0.9378872053690044  0.2932755030618712  0.7421503973055635
  0.6877039211780955  0.2845228252046505  0.2577446268591084
  0.6878749257813237  0.4527583228824020  0.3461977404325873
  0.8119854720990113  0.2032137479233390  0.3463145660770576
  0.3125865738741462  0.3768871257379229  0.7863739951601389
  0.8124350439399526  0.0371809720767877  0.3901916742224174
  0.6871634825659716  0.4512876533944531  0.2136380701086867
  0.9370420790004039  0.2849760818578738  0.1265116866043646
  0.8124938675007169  0.3766140152963952  0.7863265928424431
  0.9378322022071391  0.7848145691688735  0.1267250915399138
  0.5626572020565564  0.3679478148318369  0.1687735342065869
  0.8125226992747144  0.0345238734684884  0.2576927277739763
  0.6875216700888495  0.6267017768308683  0.7863970040218907
  0.4375503056900180  0.1211474554816805  0.4353210068275978
  0.1877850533655031  0.9549986562271991  0.4787580027734110
  0.4371965117634298  0.2907353559562379  0.6098067338775374
  0.0630133793071885  0.2108617589571536  0.8312324357962554
  0.6880746677996381  0.4569248626990653  0.5653737032178470
  0.0626012419776563  0.8724430711119443  0.5214320767739693
  0.6876619732944023  0.6212696968853236  0.4349521182221288
  0.9372557524315134  0.9552741262163625  0.4787256909931662
  0.9378138728809389  0.4599774255730149  0.8312481515920424
  0.5625537536320947  0.5343805266891506  0.1266735122949329
  0.9380238525233018  0.2909051508602424  0.6098410653845131
  0.9378226447929200  0.6185336167166570  0.3018054142518675
  0.6878969780139368  0.6225103957348794  0.5214199621245418
  0.3116214649626372  0.7055614140965216  0.4787081522455495
  0.9377222997048653  0.6171322459159175  0.1688392371432653
  0.9378102163705645  0.1252391495457122  0.6538075973776780
  0.8127078554728085  0.5435569968643814  0.8733729932222095
  0.5626505310231875  0.5408771761367634  0.6098422032172808
  0.6878879839713233  0.9527667931955993  0.3462668729590413
  0.1875290688867782  0.9508394331276163  0.2135209238208374
  0.1874806367457126  0.4534446013612768  0.3463116420358505
  0.9377239486048652  0.1189901671350071  0.3018102180401822
  0.0626321477470216  0.8753010177038439  0.6537269618992247
  0.3119668569820845  0.2108361453982610  0.8312238676073194
  0.4367950942195467  0.2848544333568755  0.1267289361378286
  0.5625851788695222  0.2098299330334118  0.8310757553538102
  0.1876237894381263  0.7866843433792555  0.3902025032230023
  0.1875821446162928  0.2848417164992996  0.2577439444668665
  0.0619847731036117  0.5368082934559260  0.3901778438745909
  0.3127801016537968  0.7029766389039781  0.3463320197751109
  0.0623825413074711  0.2008093896644117  0.2136149749957691
  0.3129533112704536  0.0414611156427100  0.6098187210187653
  0.4372570765942181  0.6207910667737737  0.4349741429259920
  0.4375486132362131  0.1175124837820638  0.1687782718328051
  0.4375049050067638  0.7847663327079093  0.2576865784750657
  0.1875374436588176  0.7909063133038132  0.6098369315395598
  0.6877437600483247  0.7844534927139600  0.2577310174934536
  0.4370748070226935  0.9543977166260166  0.4786700543732900
  0.9374158080530491  0.7934346661524984  0.8733570519416001
  0.3125938213471063  0.5427240320094910  0.7421567672389265
  0.5622960784780731  0.0411453514820210  0.6097648999969032
  0.1874988012814681  0.7933783107270735  0.8733498520267584
  0.8126214352560561  0.2072322516717998  0.5652740584684388
  0.4374638197951085  0.4510803323962161  0.2136485075783925
  0.5628223578856257  0.3716848462268473  0.4348038468537636
  0.0625002784473829  0.7049130030151395  0.4786887588921119
  0.0624205978146308  0.0423777733432781  0.8732941004754852
  0.6875253484668865  0.4590543819443675  0.6982250373117928
  0.0627551027776597  0.3725069115758375  0.5214088532170565
  0.9374955335275122  0.6269797670821513  0.7863475211095342
  0.1876508900655773  0.6203748856362998  0.4349194469320769
  0.1870860832845757  0.1221526522946515  0.5214803033752535
  0.8128483142092952  0.7071751424604128  0.5652964468416808
  0.6874643819144602  0.2934043582675802  0.7422258868952906
  0.5623399816404150  0.5435052795021145  0.8733617603348416
  0.9377443743257691  0.7846066317622027  0.2577335406843572
  0.6876231218987134  0.2911553873706261  0.6098855061988357
  0.8124800158016506  0.3748942918989555  0.6536685523222018
  0.6875276487331373  0.2936859309223418  0.8732950739172307
  0.8126306473029320  0.0431678430196773  0.7422397835162234
  0.9374847930418494  0.1225495921541589  0.5214670651126291
  0.0625518179589413  0.7067533100169309  0.5652060842264895
  0.4370986920135932  0.4542915881649989  0.4786930362590539
  0.9370730497733862  0.1179336370407142  0.1687962785180085
  0.5627181132075220  0.2071014573226341  0.5649744975160003
  0.0626347449627009  0.5411822597886302  0.6098401768946184
  0.9376644879724976  0.7912253262182298  0.6097641114585249
  0.5625927073365660  0.5372358730717801  0.3901792805419389
  0.8126712016216138  0.0412813041894972  0.6098037878012187
  0.9372957204409184  0.4551656424372249  0.4786993451556135
  0.4374088872414420  0.6180928645368652  0.1688331284411803
  0.4378651257660008  0.1266543144204914  0.7862527201382771
  0.6881052742764566  0.4549308973548294  0.4786202135755993
  0.8123973228489582  0.5343102061852862  0.2577100105163975
  0.3129943374878890  0.2028553596844506  0.3462127855187470
  0.1875243010069984  0.7928667766013916  0.7422256505908096
  0.8131513545051653  0.2054997203414148  0.4786807189495447
  0.9368137671007553  0.2939025548581894  0.8733225092394890
  0.1875555420032857  0.1269899517306595  0.7864212018227668
  0.3125079795461224  0.3673438726966935  0.1688962236762799
  0.0625364572808923  0.2051188605696621  0.4786913555852796
  0.0625179087375265  0.2091465993305176  0.6980683515859973
  0.6880757535181466  0.1222713085629767  0.5213812093220582
  0.5624030494501036  0.0431954062385113  0.7422375647825630
  0.1873591465171881  0.4509507347356384  0.2135552739135441
  0.1874581983063362  0.4550783451132921  0.4787000467423064
  0.4371766255909558  0.9508742571854127  0.2135264627661443
  0.4375241093544591  0.2866833879946659  0.3902461788464464
  0.0626611174238892  0.2069252193906927  0.5651987152748784
  0.6882006793346992  0.1213047712920580  0.4348739998186954
  0.3118885273230303  0.2071255154379040  0.5653452948414638
  0.0625163915908940  0.7105984792332413  0.8311038309863331
  0.4375859430589288  0.2848796138769264  0.2576896293533351
  0.0624444173261540  0.8704097183298011  0.4350112717078182
  0.0625076328886356  0.5348291890841517  0.2576566551233506
  0.5624306126091845  0.3750273275049127  0.6537422956045520
  0.6870562924149859  0.2873435320865338  0.3903246214318542
  0.6874780557058950  0.9600327141103493  0.8311869533151175
  0.8125627003379928  0.8751930400599096  0.6537381068305214
  0.3124755040975221  0.7106254915604721  0.8311153104561436
  0.6875783760985903  0.9592226869098326  0.6980522981524874
  0.0623363670880824  0.5344685634608234  0.1266713718386848
  0.5625533360032010  0.0376435271170582  0.3902357855341762
  0.5624145101110812  0.5432005724624369  0.7422037500008478
  0.3126378999821176  0.5345811735766951  0.2577717137170323
  0.6873403921358269  0.6170638836678878  0.1689299261153704
  0.4373913502445859  0.7844986809959504  0.1266391980223773
  0.5625040375541921  0.8767146939883156  0.7863878644969930
  0.5625136782520721  0.8750764516448811  0.6537665129689290
  0.5627336978327662  0.8684303668252821  0.3017310566926285
  0.5624435970689388  0.7092732189448515  0.6981106818093317
  0.5625992279668562  0.2091375587908370  0.6981665426502762
  0.5622865387906774  0.3735026482334167  0.5213512657075566
  0.8123777896241717  0.2098612403679897  0.8310781585733583
  0.5623205185620099  0.8713672913420832  0.4348056417761880
  0.8125471399026377  0.3685111576653603  0.3018276520961058
  0.9375136133997241  0.6225782520860401  0.5213816447927075
  0.5621579832444635  0.8677505005060969  0.1687187559598708
  0.5623299230343002  0.2026349091401466  0.3463941718259161
  0.4375995158023132  0.6270035220804397  0.7863531353886716
  0.3126281886138038  0.0423593944297142  0.8732881926363588
  0.9373871567500859  0.2845528004443019  0.2577770921654159
  0.4372084983788317  0.6189214162504898  0.3018488472836974
  0.9373786842480861  0.7864902686424734  0.3901808960599486
  0.4374875706572466  0.4591869188219556  0.6980881609989388
  0.8124781386072977  0.2091457315567969  0.6981250155434996
  0.0623170291130157  0.7005765799477210  0.2135757618527944
  0.3126934028783785  0.0344283630220282  0.2576674987131733
  0.1874850506156283  0.2931053718239772  0.7422483812213727
  0.1872309943000410  0.6188641246225239  0.3018159063939772
  0.8125345636732271  0.8724312617631571  0.5214067174642462
  0.8126555566344170  0.5370505164547320  0.3901131850201446
  0.0618721079231561  0.8686277418432680  0.3017165389489731
  0.9376641663590867  0.7930590973998057  0.7422855026575427
  0.8124073894105910  0.2004483546817700  0.2136325410523175
  0.0627220371769219  0.0348570228606576  0.2576463181204636
  0.6877220623031726  0.6250563100052087  0.6537953340907570
  0.4373299249120275  0.7929546615487052  0.7422745492169049
  0.6874593990660846  0.1250492419197140  0.6536527386160135
  0.0625206356605403  0.0431859030315655  0.7421270444064743
  0.9371937888475061  0.9532652349866574  0.3462730536262784
  0.1875432619459106  0.9591538801124770  0.6980807566004482
  0.3125614603191142  0.2091544018653717  0.6980831405371611
  0.8131575474051909  0.7052120508350838  0.4786614638062850
  0.0625295376209177  0.0339067243435530  0.1267142773432991
  0.1875933615690951  0.7845312016034818  0.1266000174731100
  0.4370934870777006  0.9562381643028146  0.5653795150872180
  0.5627807687224330  0.8731318012740766  0.5213468574328900
  0.3134869217264825  0.5433427067691033  0.8733078975148646
  0.1872885969180568  0.6253773970137860  0.6537665034263956
  0.6878595570679648  0.2849526838707074  0.1265263061341849
  0.4371531818653610  0.1187970234974826  0.3017877906429798
  0.5624864744129365  0.7008788230782025  0.2135220642717904
  0.3123827698924273  0.5346641285600922  0.1266656410717134
  0.5626530778003052  0.7026979958689468  0.3462806813983160
  0.6870130107976288  0.7867986139365456  0.3902828279363863
  0.6872143093142603  0.6184377942072496  0.3017955164354412
  0.5625527922391268  0.2010626734290106  0.2135542554889993
  0.9375852222658718  0.9591019546594276  0.6982343889051419
  0.1881509039161803  0.2847948605941316  0.1267323634388709
  0.9372264352408357  0.1266699154580617  0.7862392545064772
  0.3124115751344578  0.0344685306240568  0.1266197822729078
  0.5623691145166513  0.0344331912210945  0.2577261658819870
  0.9376396954062007  0.9507627328552064  0.2134614385178454
  0.5624020988563563  0.0339541332017485  0.1266886319700612
  0.5625625264478402  0.3686195204598585  0.3018294419171845
  0.4371028510731513  0.4600447437391009  0.8312599716851818
  0.1875856150112092  0.2912254417992624  0.6098687619710410
  0.8124074917984402  0.8710053591085063  0.4349138492995089
  0.4375052027624788  0.9592625488167669  0.6982087863840696
  0.9376840949052603  0.4509756743230920  0.2136356925580328
  0.3122335773232988  0.5364796179614386  0.3902268710938230
  0.0623704002975621  0.0415441821635461  0.6098649400156197
  0.8125827103149207  0.8766847346884632  0.7863826315541351
  0.6874446690907605  0.9509695640822053  0.2135553093891887
  0.3124745364897698  0.0432397270274950  0.7421401282453719
  0.1871277821206246  0.9531295262943219  0.3463112015988388
  0.3125578491934382  0.7091858727610444  0.6981143841395241
  0.8121269454997002  0.3710891063134663  0.4349693143861833
  0.8123226433319272  0.8686945800658225  0.3018048332829001
  0.4375418160906019  0.6250820759013173  0.6536087112189621
  0.0629291843115329  0.8679528501713306  0.1687934662350981
  0.0625989065252302  0.3752012551819655  0.6536948106413312
  0.0621437247367665  0.3690792438781352  0.3018259631342332
  0.3126049725468431  0.8678195191680104  0.1689044124716998
  0.8127720510811575  0.0431951309503079  0.8732868523398390
  0.1874612743567763  0.1249987197076234  0.6537609181207891
  0.1875173803048437  0.7847203174631671  0.2576913408106113
  0.0625270040981539  0.3768871005362169  0.7863739053024106
  0.9378231198894363  0.4569070898039248  0.5652142865351757
  0.1874950956102256  0.1188297173949729  0.3018329754590826
  0.9376236831617072  0.9566553130008866  0.5651511379391602
  0.3125386214574493  0.8771440962113214  0.7863358699543835
  0.1873588174342406  0.6223955634856774  0.5214455336650032
  0.1875673757364078  0.6275622813442673  0.7862157689524600
  0.9376459612924440  0.2870771965872173  0.3903091452876765
  0.5622982661530378  0.0431443172685114  0.8732805607758670
  0.4375423037613266  0.9603483652861312  0.8311658822785012
  0.8124335906543080  0.0347728758717974  0.1266749837586942
  0.0625538480785745  0.8770981591149245  0.7863221685144828
  0.0625793779144315  0.3681160922082779  0.1687997253139416
  0.6877316357746770  0.9549583160467849  0.4786961997480195
  0.3125311551582159  0.3751297480524872  0.6537475846029847
  0.5625646862217458  0.3766020369397889  0.7863255872377468
  0.3124791472140820  0.7008314433732188  0.2134797349691988
  0.4371278256721062  0.4567008456984226  0.5654494193863620
  0.4375621190870991  0.1227588715433491  0.5214869675923047
  0.6876633791483131  0.9573948125614777  0.5653776376552734
  0.4383531195332013  0.9530939119434061  0.3462411436134679
  0.5627259981829760  0.7049100277934039  0.4786828741857693
  0.3119161644092884  0.8682665873051428  0.3017169662178562
  0.8126313885745208  0.3677502619805928  0.1681623370961947
  0.0627181492515870  0.2031090114843539  0.3464676544337516
  0.1875625134208653  0.2935645991215094  0.8730760761305401
  0.6875734299750625  0.7905510223093150  0.6100166122994771
  0.3118299018892882  0.0370265168618547  0.3900912792815988
  0.6874912998034333  0.7933379465683155  0.7422423122226373
  0.5623742475819332  0.2050073697616712  0.4786989323226001
  0.6870780193029508  0.1187064636324522  0.3018276824781205
  0.0626587557627988  0.7032561670045784  0.3462827784181093
 
  0.00000000E+00  0.00000000E+00  0.00000000E+00
  0.00000000E+00  0.00000000E+00  0.00000000E+00
  0.00000000E+00  0.00000000E+00  0.00000000E+00
  0.00000000E+00  0.00000000E+00  0.00000000E+00
  0.00000000E+00  0.00000000E+00  0.00000000E+00
  0.00000000E+00  0.00000000E+00  0.00000000E+00
  0.00000000E+00  0.00000000E+00  0.00000000E+00
  0.00000000E+00  0.00000000E+00  0.00000000E+00
  0.00000000E+00  0.00000000E+00  0.00000000E+00
  0.00000000E+00  0.00000000E+00  0.00000000E+00
  0.00000000E+00  0.00000000E+00  0.00000000E+00
  0.00000000E+00  0.00000000E+00  0.00000000E+00
  0.00000000E+00  0.00000000E+00  0.00000000E+00
  0.00000000E+00  0.00000000E+00  0.00000000E+00
  0.00000000E+00  0.00000000E+00  0.00000000E+00
  0.00000000E+00  0.00000000E+00  0.00000000E+00
  0.00000000E+00  0.00000000E+00  0.00000000E+00
  0.00000000E+00  0.00000000E+00  0.00000000E+00
  0.00000000E+00  0.00000000E+00  0.00000000E+00
  0.00000000E+00  0.00000000E+00  0.00000000E+00
  0.00000000E+00  0.00000000E+00  0.00000000E+00
  0.00000000E+00  0.00000000E+00  0.00000000E+00
  0.00000000E+00  0.00000000E+00  0.00000000E+00
  0.00000000E+00  0.00000000E+00  0.00000000E+00
  0.00000000E+00  0.00000000E+00  0.00000000E+00
  0.00000000E+00  0.00000000E+00  0.00000000E+00
  0.00000000E+00  0.00000000E+00  0.00000000E+00
  0.00000000E+00  0.00000000E+00  0.00000000E+00
  0.00000000E+00  0.00000000E+00  0.00000000E+00
  0.00000000E+00  0.00000000E+00  0.00000000E+00
  0.00000000E+00  0.00000000E+00  0.00000000E+00
  0.00000000E+00  0.00000000E+00  0.00000000E+00
  0.00000000E+00  0.00000000E+00  0.00000000E+00
  0.00000000E+00  0.00000000E+00  0.00000000E+00
  0.00000000E+00  0.00000000E+00  0.00000000E+00
  0.00000000E+00  0.00000000E+00  0.00000000E+00
  0.00000000E+00  0.00000000E+00  0.00000000E+00
  0.00000000E+00  0.00000000E+00  0.00000000E+00
  0.00000000E+00  0.00000000E+00  0.00000000E+00
  0.00000000E+00  0.00000000E+00  0.00000000E+00
  0.00000000E+00  0.00000000E+00  0.00000000E+00
  0.00000000E+00  0.00000000E+00  0.00000000E+00
  0.00000000E+00  0.00000000E+00  0.00000000E+00
  0.00000000E+00  0.00000000E+00  0.00000000E+00
  0.00000000E+00  0.00000000E+00  0.00000000E+00
  0.00000000E+00  0.00000000E+00  0.00000000E+00
  0.00000000E+00  0.00000000E+00  0.00000000E+00
  0.00000000E+00  0.00000000E+00  0.00000000E+00
  0.00000000E+00  0.00000000E+00  0.00000000E+00
  0.00000000E+00  0.00000000E+00  0.00000000E+00
  0.00000000E+00  0.00000000E+00  0.00000000E+00
  0.00000000E+00  0.00000000E+00  0.00000000E+00
  0.00000000E+00  0.00000000E+00  0.00000000E+00
  0.00000000E+00  0.00000000E+00  0.00000000E+00
  0.00000000E+00  0.00000000E+00  0.00000000E+00
  0.00000000E+00  0.00000000E+00  0.00000000E+00
  0.00000000E+00  0.00000000E+00  0.00000000E+00
  0.00000000E+00  0.00000000E+00  0.00000000E+00
  0.00000000E+00  0.00000000E+00  0.00000000E+00
  0.00000000E+00  0.00000000E+00  0.00000000E+00
  0.00000000E+00  0.00000000E+00  0.00000000E+00
  0.00000000E+00  0.00000000E+00  0.00000000E+00
  0.00000000E+00  0.00000000E+00  0.00000000E+00
  0.00000000E+00  0.00000000E+00  0.00000000E+00
  0.00000000E+00  0.00000000E+00  0.00000000E+00
  0.00000000E+00  0.00000000E+00  0.00000000E+00
  0.00000000E+00  0.00000000E+00  0.00000000E+00
  0.00000000E+00  0.00000000E+00  0.00000000E+00
  0.00000000E+00  0.00000000E+00  0.00000000E+00
  0.00000000E+00  0.00000000E+00  0.00000000E+00
  0.00000000E+00  0.00000000E+00  0.00000000E+00
  0.00000000E+00  0.00000000E+00  0.00000000E+00
  0.00000000E+00  0.00000000E+00  0.00000000E+00
  0.00000000E+00  0.00000000E+00  0.00000000E+00
  0.00000000E+00  0.00000000E+00  0.00000000E+00
  0.00000000E+00  0.00000000E+00  0.00000000E+00
  0.00000000E+00  0.00000000E+00  0.00000000E+00
  0.00000000E+00  0.00000000E+00  0.00000000E+00
  0.00000000E+00  0.00000000E+00  0.00000000E+00
  0.00000000E+00  0.00000000E+00  0.00000000E+00
  0.00000000E+00  0.00000000E+00  0.00000000E+00
  0.00000000E+00  0.00000000E+00  0.00000000E+00
  0.00000000E+00  0.00000000E+00  0.00000000E+00
  0.00000000E+00  0.00000000E+00  0.00000000E+00
  0.00000000E+00  0.00000000E+00  0.00000000E+00
  0.00000000E+00  0.00000000E+00  0.00000000E+00
  0.00000000E+00  0.00000000E+00  0.00000000E+00
  0.00000000E+00  0.00000000E+00  0.00000000E+00
  0.00000000E+00  0.00000000E+00  0.00000000E+00
  0.00000000E+00  0.00000000E+00  0.00000000E+00
  0.00000000E+00  0.00000000E+00  0.00000000E+00
  0.00000000E+00  0.00000000E+00  0.00000000E+00
  0.00000000E+00  0.00000000E+00  0.00000000E+00
  0.00000000E+00  0.00000000E+00  0.00000000E+00
  0.00000000E+00  0.00000000E+00  0.00000000E+00
  0.00000000E+00  0.00000000E+00  0.00000000E+00
  0.00000000E+00  0.00000000E+00  0.00000000E+00
  0.00000000E+00  0.00000000E+00  0.00000000E+00
  0.00000000E+00  0.00000000E+00  0.00000000E+00
  0.00000000E+00  0.00000000E+00  0.00000000E+00
  0.00000000E+00  0.00000000E+00  0.00000000E+00
  0.00000000E+00  0.00000000E+00  0.00000000E+00
  0.00000000E+00  0.00000000E+00  0.00000000E+00
  0.00000000E+00  0.00000000E+00  0.00000000E+00
  0.00000000E+00  0.00000000E+00  0.00000000E+00
  0.00000000E+00  0.00000000E+00  0.00000000E+00
  0.00000000E+00  0.00000000E+00  0.00000000E+00
  0.00000000E+00  0.00000000E+00  0.00000000E+00
  0.00000000E+00  0.00000000E+00  0.00000000E+00
  0.00000000E+00  0.00000000E+00  0.00000000E+00
  0.00000000E+00  0.00000000E+00  0.00000000E+00
  0.00000000E+00  0.00000000E+00  0.00000000E+00
  0.00000000E+00  0.00000000E+00  0.00000000E+00
  0.00000000E+00  0.00000000E+00  0.00000000E+00
  0.00000000E+00  0.00000000E+00  0.00000000E+00
  0.00000000E+00  0.00000000E+00  0.00000000E+00
  0.00000000E+00  0.00000000E+00  0.00000000E+00
  0.00000000E+00  0.00000000E+00  0.00000000E+00
  0.00000000E+00  0.00000000E+00  0.00000000E+00
  0.00000000E+00  0.00000000E+00  0.00000000E+00
  0.00000000E+00  0.00000000E+00  0.00000000E+00
  0.00000000E+00  0.00000000E+00  0.00000000E+00
  0.00000000E+00  0.00000000E+00  0.00000000E+00
  0.00000000E+00  0.00000000E+00  0.00000000E+00
  0.00000000E+00  0.00000000E+00  0.00000000E+00
  0.00000000E+00  0.00000000E+00  0.00000000E+00
  0.00000000E+00  0.00000000E+00  0.00000000E+00
  0.00000000E+00  0.00000000E+00  0.00000000E+00
  0.00000000E+00  0.00000000E+00  0.00000000E+00
  0.00000000E+00  0.00000000E+00  0.00000000E+00
  0.00000000E+00  0.00000000E+00  0.00000000E+00
  0.00000000E+00  0.00000000E+00  0.00000000E+00
  0.00000000E+00  0.00000000E+00  0.00000000E+00
  0.00000000E+00  0.00000000E+00  0.00000000E+00
  0.00000000E+00  0.00000000E+00  0.00000000E+00
  0.00000000E+00  0.00000000E+00  0.00000000E+00
  0.00000000E+00  0.00000000E+00  0.00000000E+00
  0.00000000E+00  0.00000000E+00  0.00000000E+00
  0.00000000E+00  0.00000000E+00  0.00000000E+00
  0.00000000E+00  0.00000000E+00  0.00000000E+00
  0.00000000E+00  0.00000000E+00  0.00000000E+00
  0.00000000E+00  0.00000000E+00  0.00000000E+00
  0.00000000E+00  0.00000000E+00  0.00000000E+00
  0.00000000E+00  0.00000000E+00  0.00000000E+00
  0.00000000E+00  0.00000000E+00  0.00000000E+00
  0.00000000E+00  0.00000000E+00  0.00000000E+00
  0.00000000E+00  0.00000000E+00  0.00000000E+00
  0.00000000E+00  0.00000000E+00  0.00000000E+00
  0.00000000E+00  0.00000000E+00  0.00000000E+00
  0.00000000E+00  0.00000000E+00  0.00000000E+00
  0.00000000E+00  0.00000000E+00  0.00000000E+00
  0.00000000E+00  0.00000000E+00  0.00000000E+00
  0.00000000E+00  0.00000000E+00  0.00000000E+00
  0.00000000E+00  0.00000000E+00  0.00000000E+00
  0.00000000E+00  0.00000000E+00  0.00000000E+00
  0.00000000E+00  0.00000000E+00  0.00000000E+00
  0.00000000E+00  0.00000000E+00  0.00000000E+00
  0.00000000E+00  0.00000000E+00  0.00000000E+00
  0.00000000E+00  0.00000000E+00  0.00000000E+00
  0.00000000E+00  0.00000000E+00  0.00000000E+00
  0.00000000E+00  0.00000000E+00  0.00000000E+00
  0.00000000E+00  0.00000000E+00  0.00000000E+00
  0.00000000E+00  0.00000000E+00  0.00000000E+00
  0.00000000E+00  0.00000000E+00  0.00000000E+00
  0.00000000E+00  0.00000000E+00  0.00000000E+00
  0.00000000E+00  0.00000000E+00  0.00000000E+00
  0.00000000E+00  0.00000000E+00  0.00000000E+00
  0.00000000E+00  0.00000000E+00  0.00000000E+00
  0.00000000E+00  0.00000000E+00  0.00000000E+00
  0.00000000E+00  0.00000000E+00  0.00000000E+00
  0.00000000E+00  0.00000000E+00  0.00000000E+00
  0.00000000E+00  0.00000000E+00  0.00000000E+00
  0.00000000E+00  0.00000000E+00  0.00000000E+00
  0.00000000E+00  0.00000000E+00  0.00000000E+00
  0.00000000E+00  0.00000000E+00  0.00000000E+00
  0.00000000E+00  0.00000000E+00  0.00000000E+00
  0.00000000E+00  0.00000000E+00  0.00000000E+00
  0.00000000E+00  0.00000000E+00  0.00000000E+00
  0.00000000E+00  0.00000000E+00  0.00000000E+00
  0.00000000E+00  0.00000000E+00  0.00000000E+00
  0.00000000E+00  0.00000000E+00  0.00000000E+00
  0.00000000E+00  0.00000000E+00  0.00000000E+00
  0.00000000E+00  0.00000000E+00  0.00000000E+00
  0.00000000E+00  0.00000000E+00  0.00000000E+00
  0.00000000E+00  0.00000000E+00  0.00000000E+00
  0.00000000E+00  0.00000000E+00  0.00000000E+00
  0.00000000E+00  0.00000000E+00  0.00000000E+00
  0.00000000E+00  0.00000000E+00  0.00000000E+00
  0.00000000E+00  0.00000000E+00  0.00000000E+00
  0.00000000E+00  0.00000000E+00  0.00000000E+00
  0.00000000E+00  0.00000000E+00  0.00000000E+00
  0.00000000E+00  0.00000000E+00  0.00000000E+00
  0.00000000E+00  0.00000000E+00  0.00000000E+00
  0.00000000E+00  0.00000000E+00  0.00000000E+00
  0.00000000E+00  0.00000000E+00  0.00000000E+00
  0.00000000E+00  0.00000000E+00  0.00000000E+00
  0.00000000E+00  0.00000000E+00  0.00000000E+00
  0.00000000E+00  0.00000000E+00  0.00000000E+00
  0.00000000E+00  0.00000000E+00  0.00000000E+00
  0.00000000E+00  0.00000000E+00  0.00000000E+00
  0.00000000E+00  0.00000000E+00  0.00000000E+00
  0.00000000E+00  0.00000000E+00  0.00000000E+00
  0.00000000E+00  0.00000000E+00  0.00000000E+00
  0.00000000E+00  0.00000000E+00  0.00000000E+00
  0.00000000E+00  0.00000000E+00  0.00000000E+00
  0.00000000E+00  0.00000000E+00  0.00000000E+00
  0.00000000E+00  0.00000000E+00  0.00000000E+00
  0.00000000E+00  0.00000000E+00  0.00000000E+00
  0.00000000E+00  0.00000000E+00  0.00000000E+00
  0.00000000E+00  0.00000000E+00  0.00000000E+00
  0.00000000E+00  0.00000000E+00  0.00000000E+00
  0.00000000E+00  0.00000000E+00  0.00000000E+00
  0.00000000E+00  0.00000000E+00  0.00000000E+00
  0.00000000E+00  0.00000000E+00  0.00000000E+00
  0.00000000E+00  0.00000000E+00  0.00000000E+00
  0.00000000E+00  0.00000000E+00  0.00000000E+00
  0.00000000E+00  0.00000000E+00  0.00000000E+00
  0.00000000E+00  0.00000000E+00  0.00000000E+00
  0.00000000E+00  0.00000000E+00  0.00000000E+00
  0.00000000E+00  0.00000000E+00  0.00000000E+00
  0.00000000E+00  0.00000000E+00  0.00000000E+00
  0.00000000E+00  0.00000000E+00  0.00000000E+00
  0.00000000E+00  0.00000000E+00  0.00000000E+00
  0.00000000E+00  0.00000000E+00  0.00000000E+00
  0.00000000E+00  0.00000000E+00  0.00000000E+00
  0.00000000E+00  0.00000000E+00  0.00000000E+00
  0.00000000E+00  0.00000000E+00  0.00000000E+00
  0.00000000E+00  0.00000000E+00  0.00000000E+00
  0.00000000E+00  0.00000000E+00  0.00000000E+00
  0.00000000E+00  0.00000000E+00  0.00000000E+00
  0.00000000E+00  0.00000000E+00  0.00000000E+00
  0.00000000E+00  0.00000000E+00  0.00000000E+00
  0.00000000E+00  0.00000000E+00  0.00000000E+00
  0.00000000E+00  0.00000000E+00  0.00000000E+00
  0.00000000E+00  0.00000000E+00  0.00000000E+00
  0.00000000E+00  0.00000000E+00  0.00000000E+00
  0.00000000E+00  0.00000000E+00  0.00000000E+00
  0.00000000E+00  0.00000000E+00  0.00000000E+00
  0.00000000E+00  0.00000000E+00  0.00000000E+00
  0.00000000E+00  0.00000000E+00  0.00000000E+00
  0.00000000E+00  0.00000000E+00  0.00000000E+00
  0.00000000E+00  0.00000000E+00  0.00000000E+00
  0.00000000E+00  0.00000000E+00  0.00000000E+00
  0.00000000E+00  0.00000000E+00  0.00000000E+00
  0.00000000E+00  0.00000000E+00  0.00000000E+00
  0.00000000E+00  0.00000000E+00  0.00000000E+00
  0.00000000E+00  0.00000000E+00  0.00000000E+00