CuInSe2gb                               
   1.00000000000000     
     9.7266780392896699    0.0000000000000000    0.0000000000000000
     0.0000000000000000    8.4235502764570693    0.0000000000000000
     0.0000000000000000    0.0000000000000000   45.0000000000000000
   Fe   Mn
   281     7
Direct
  0.0639755361636066  0.0337803767035088  0.1248563047760192
  0.0631831549890804  0.8729435073466897  0.5216306874801681
  0.1904409952233855  0.1241713569361407  0.7882111260461553
  0.4348542741278866  0.2874618463537083  0.3894504143102703
  0.3105026267755677  0.7113302627351928  0.8334076120663749
  0.8105795774952121  0.2111973238257917  0.8334736661005585
  0.1854128065257599  0.7877365298202413  0.3894703981957541
  0.5629068680169146  0.2064950291399923  0.5654405837748666
  0.0616475357430999  0.0406851174050772  0.7439270649619554
  0.8130284725548326  0.8728949189656245  0.5216930206713380
  0.1868325071308128  0.2910793357783737  0.7439347809599268
  0.9376658083796118  0.4529851972878775  0.3451382349072261
  0.9356044853460371  0.2873515681915981  0.3894448227155914
  0.8127134618542743  0.0432260641464706  0.8752784725157552
  0.1874084276263188  0.7910566053155473  0.6105250613298070
  0.5603079977089210  0.0371373051543793  0.3895119179670119
  0.9354888003058006  0.9613291763608287  0.8334194526465052
  0.3126519507368200  0.5435303980274842  0.8752911376494703
  0.6869962271949689  0.2910254227491959  0.7438948161720305
  0.1903605650937121  0.6151597149043793  0.1666643738525920
  0.8131834998173358  0.2049923176499494  0.4781360336638905
  0.8126252318010363  0.5412260572379185  0.6103587612206753
  0.3130281054831848  0.8709814912945250  0.4340671132620361
  0.8132738468072966  0.0366707802638173  0.2560962202737915
  0.6880132378744488  0.9534649828860426  0.3451236849900483
  0.9412582264393583  0.1144931149911398  0.1667070403162186
  0.9384235250177464  0.1230421025760764  0.5216457574016538
  0.5631607575647120  0.5366317536694198  0.2560638697891211
  0.6880308265578935  0.7934081539040256  0.8753252722254470
  0.5666531099358044  0.3661345365342823  0.1666733749351445
  0.4368014734869939  0.7911990849558548  0.7439304233479134
  0.8130626392333852  0.7074076083430906  0.5654723995635321
  0.5656034661461979  0.8741472800169451  0.7881835172303406
  0.6883505708019202  0.1230056873045887  0.5216573302911303
  0.1884361143109708  0.2871074961521463  0.2560720939081713
  0.9354816664559953  0.4612202739659785  0.8334579554905006
  0.0630217287106819  0.2075048176206504  0.6996163487957565
  0.4381116314466731  0.9575963237348954  0.6996772101657590
  0.3105535229289507  0.2112275475072294  0.8334264952157862
  0.4355497813903916  0.6251517362292697  0.6548617076059322
  0.3129429095148564  0.5409274537671623  0.6104603065031570
  0.9379182971752074  0.4568365237886640  0.5656021151222512
  0.6866825361594842  0.7909596443414187  0.7439480393117730
  0.3106930661989461  0.8751184675166478  0.6548801464591228
  0.6853549756001664  0.7873261981936479  0.3894919822093196
  0.9367196547119444  0.7909436610925767  0.7438938104484306
  0.0629317431372318  0.2031969672832523  0.3450991130081563
  0.8104882219379520  0.0375976444353439  0.3894849839751414
  0.4405008941593458  0.1241297101184094  0.7882135826010442
  0.0611349133240654  0.2033431372989202  0.2117825322089269
  0.0663871685919490  0.3655555745186386  0.1666861214623030
  0.9382928547823447  0.7870200427653283  0.2560772353588490
  0.5633082632616191  0.2074465851578947  0.6996510351760604
  0.6875791813578179  0.9575955362907914  0.6996467138276363
  0.4403402620400501  0.7838794959109651  0.1249710061697213
  0.4383758462292083  0.9566126866848045  0.5657298683640442
  0.8155066877574570  0.3739361511264623  0.7882013111390078
  0.6883273658542506  0.2868239213598600  0.2560994992744298
  0.1883193305994844  0.4567286615035087  0.5656383364857804
  0.0654596054286263  0.8653414656943693  0.1667129807757682
  0.1879045416444817  0.2906575978928357  0.6103628139161547
  0.5628517481989679  0.7034741042989482  0.3451090229631300
  0.3132375922072682  0.2072973592300963  0.6996256853366264
  0.5625203809467617  0.5434080748735794  0.8752953396647053
  0.0628029933638808  0.7067635118385323  0.5656649324580386
  0.6904984898475679  0.6243795705740557  0.7882941489902220
  0.3105902921912672  0.5378462336178310  0.3894060285940371
  0.1875492107703444  0.6230475156809822  0.5216494118642858
  0.5625670661941969  0.8709607907332380  0.4341431243987596
  0.4384099897973515  0.4563505443729008  0.5656661490665131
  0.4367352624003520  0.2910638469720462  0.7438764000023947
  0.8083476563330597  0.8719948968091880  0.3004213803341959
  0.8129662354959694  0.7034174201581962  0.3451971767041778
  0.4353931332242430  0.4611549305201540  0.8334526659068621
  0.6878017765145759  0.9543928991736533  0.4781340007005036
  0.6877931204973924  0.4575184077226150  0.6996236148784160
  0.5630849808033999  0.8731815928233170  0.5216656507779452
  0.5600751084090212  0.3746955557358192  0.6548786195713662
  0.8103434335888757  0.8749120336020600  0.6548056540306156
  0.8126999207163016  0.3710734891727993  0.4343128486962351
  0.8130985031861598  0.5368629283315157  0.2561378737680733
  0.6854714889259061  0.4611198268818879  0.8334917082318115
  0.1906085168852600  0.7824539394254693  0.1249815744289679
  0.0626263391691838  0.0432638592868108  0.8752757206441374
  0.3104418222500182  0.3748728165349666  0.6548440175309822
  0.3128270565717979  0.2030678733357636  0.3450407877240790
  0.8117693812827133  0.5409258974667899  0.7440110159382926
  0.6854375133661345  0.9612095981998293  0.8334768342734665
  0.5601990674876415  0.8750387238362048  0.6548688147343860
  0.3129361372789715  0.7069571816918648  0.5658028395289363
  0.3134818397914084  0.5334889296995262  0.1245384045488463
  0.6858386308852300  0.9542127791877314  0.2120409199000813
  0.3131820046205466  0.2069873544759593  0.5657190405739488
  0.3118692135414036  0.5410493298405936  0.7439502904777704
  0.6880334883977518  0.9570334672621235  0.5656241537546339
  0.4376578183759609  0.7906748573301442  0.6104168161646231
  0.6915316806445706  0.6158561043590731  0.1667568112107099
  0.3084189145704205  0.8718813484969299  0.3003466552530332
  0.3127104220220467  0.7043290160239626  0.4780635212254492
  0.9378137516642671  0.2910912306754306  0.6103064111559012
  0.4333892591996445  0.6218196742528228  0.3004002452168115
  0.8174548463100294  0.8653253626123141  0.1667322279185349
  0.5607412373656844  0.2036999179265531  0.2118927013855865
  0.9407886916486732  0.6166274423599394  0.1667902329556853
  0.9380968437132468  0.7932395446651931  0.8753509463265272
  0.5654969114299879  0.3740779101616010  0.7881854471552577
  0.0632640584414162  0.3725449602320982  0.5216483149197134
  0.5638834381073037  0.3729633418594288  0.5216940067247570
  0.6834523113553191  0.1220026649031861  0.3003556873982315
  0.4354264667969032  0.9610759022631277  0.8334755460351165
  0.1901911837421574  0.2834717976796563  0.1247821345769688
  0.8155587508723938  0.8740219299331470  0.7881663270283269
  0.3128963647004865  0.3708275182928340  0.4341637455767171
  0.5638303668354685  0.0333493232214230  0.1248539775938332
  0.4375977224842401  0.2907712578220648  0.6104891763736492
  0.1879704015110648  0.4529958247572696  0.3452090120617465
  0.4396144722405023  0.2832052413920365  0.1247249379955263
  0.6884236957360192  0.7866916601369096  0.2560746918243315
  0.1886023993370903  0.9576385248012699  0.6997047789132284
  0.1879802913283247  0.2932786261938635  0.8753399245766416
  0.1856745588131736  0.1247579707896646  0.6548050697005702
  0.9354651529399673  0.1248834150482332  0.6548340724107903
  0.3108016991737460  0.2035488465235556  0.2118858518498210
  0.0603166454113911  0.0370691420930963  0.3894620684327541
  0.1911978326623457  0.1154857537875954  0.1668933605032242
  0.0622588921287734  0.5408957618125533  0.6104288449598004
  0.9381476733941648  0.2868386799970435  0.2560757451082851
  0.5623490431780437  0.5410319777528754  0.6104024556564155
  0.9379440801932650  0.9569853311467779  0.5657395842125367
  0.6833563333255662  0.6221146894987546  0.3003114614983958
  0.9375613639424899  0.6207753142222866  0.4342433740213699
  0.9406079283405328  0.6241621710185500  0.7882611309257109
  0.5631174477647516  0.7078861882590817  0.6996712542906225
  0.0605359947617772  0.7112127357188294  0.8334356404047855
  0.9335472943989738  0.1216741530804327  0.3002980070782165
  0.9376452274709931  0.7914254794350992  0.6103970859922232
  0.4383143261342981  0.7867434438273422  0.2560304995433768
  0.3154594960353580  0.3740475681166698  0.7881638056428657
  0.4360016474050762  0.4538454042092563  0.2119352853194248
  0.1875870228254890  0.1233569702013701  0.5216484261387937
  0.8128804527408675  0.7074254698362936  0.6996429923148978
  0.0627699503942412  0.0410757120876420  0.6104150188435737
  0.5606076511125450  0.2111108641138493  0.8334259281187328
  0.3134397381711861  0.8730053450714877  0.5216963687346315
  0.6907812920577373  0.2839281398614312  0.1249665153984641
  0.1859941668449241  0.9540211022606782  0.2119808944372900
  0.6875662690594835  0.2908785615185935  0.6103902111087453
  0.3124789881153295  0.0406322799055404  0.6104743541701674
  0.9406034357954893  0.1238150781903388  0.7883516935416670
  0.4380436164808775  0.7933763424139292  0.8753542365728730
  0.8116946609513774  0.0406586313332041  0.7439570856757582
  0.4378877093116398  0.1229745905786193  0.5216704327215107
  0.1854980156640766  0.6252927407606745  0.6549060267084020
  0.3131083344047370  0.7080580055450003  0.6996953469234061
  0.9394217921739829  0.2838013425206343  0.1250078129177004
  0.4379819574122009  0.4544624924826663  0.4781457360447269
  0.0626424857112214  0.7041111281929222  0.4780697024010591
  0.9377371436014771  0.1209948851454972  0.4341809064387486
  0.4332402783763072  0.1217899940234082  0.3003785527224556
  0.1876626234453146  0.1215768860555421  0.4341377525144355
  0.5626538865492531  0.0432728637204720  0.8752750859332713
  0.1880446481761463  0.9567363536598915  0.5653571221209056
  0.6894291780092047  0.7822384824988213  0.1249742726450510
  0.5639862813005360  0.5337877499229359  0.1248229660985681
  0.3102067523160871  0.0368443742929636  0.3894932215487311
  0.6909964764172750  0.1150541162181879  0.1669465515211908
  0.8104790602283862  0.2031772390262262  0.2118607561540331
  0.0631141341629590  0.5369831954906048  0.2561310673458281
  0.5627497099678033  0.7047530546401941  0.4781294453332440
  0.0630770025711604  0.2067315027428688  0.5656045380626872
  0.5584519019047665  0.3717493765823248  0.3003686669822249
  0.4377409262209645  0.9532563709064105  0.3450646211549594
  0.1854206107863103  0.9611513665431255  0.8334865501418992
  0.4412976467265602  0.6152168780127366  0.1668166510218801
  0.9359579706552473  0.4534069349326568  0.2120204918705872
  0.0651986610579005  0.5340023429982707  0.1248101785598331
  0.8129656810589776  0.3725618729430540  0.5216815273167682
  0.9333459536766430  0.6217472420919392  0.3004207814302959
  0.3132704147765409  0.0366122323115291  0.2561256245913428
  0.6876375168068878  0.7912982092891605  0.6105030817445993
  0.1854521305488305  0.4610693632296228  0.8334701548830034
  0.4405148436510627  0.1155592435551260  0.1668136589815991
  0.3124093097257609  0.3723629115192466  0.5216906665339144
  0.4406851925651478  0.6240637660887702  0.7881867292642133
  0.0629689468512223  0.0365915662504687  0.2561291619294722
  0.5634578606071904  0.7069179801836769  0.5656178892378085
  0.9365983385920933  0.2909165354659335  0.7440135412024728
  0.6907334587917364  0.1241430985470142  0.7882387512782172
  0.1855603765224633  0.4541640848192000  0.2120408572820572
  0.9356772752060334  0.7874104465893155  0.3894251430305097
  0.6879816480925464  0.2932643796842851  0.8753275117549008
  0.3167887021285339  0.8653640716255998  0.1667225320922845
  0.4384604803274900  0.4577539436044937  0.6996928463424653
  0.9379960264317792  0.9534405827672612  0.3450801875119438
  0.6885389245136114  0.6225649864744461  0.5217066631433870
  0.0608587829860744  0.8748496168763419  0.6548161478022502
  0.0657252343577880  0.8739707382037835  0.7882193674877261
  0.0608542447514347  0.3749116918402173  0.6548865199708116
  0.6874245031492991  0.4549199131531056  0.4781099056075346
  0.1882661713707544  0.7867380392333418  0.2560798219273701
  0.4373507488799849  0.1211774449488326  0.4341940971526736
  0.8137535499608195  0.0351212016929152  0.1248501101692016
  0.9379557623739152  0.6234986076864272  0.5216825207612195
  0.0622203869431445  0.8707865805800302  0.4341991331429655
  0.8129818011543501  0.5340785416563929  0.1248930919399095
  0.4380484794578655  0.4531951313839669  0.3450981146352647
  0.8131183050397642  0.2033617647314988  0.3450179885635370
  0.3129508124132909  0.7030671990592283  0.3450980597145529
  0.6854336995312866  0.1246622444970824  0.6548443189729077
  0.5584300553465862  0.8721245227148182  0.3003281640583658
  0.0617215596678919  0.5410441998392851  0.7439691109516091
  0.9359343339543332  0.9539521672479767  0.2119616054286233
  0.8106503861095806  0.7033424069932865  0.2118670180889757
  0.0586765022403792  0.8719300773567304  0.3003838419059182
  0.1834571238093668  0.1217577996906418  0.3003666540248681
  0.0629603253801393  0.7032529863782585  0.3450518469342114
  0.8126285868010134  0.0413311276334512  0.6104743103417445
  0.0624093269940598  0.3711237591347212  0.4342767521867351
  0.5628605885270291  0.2033911529493649  0.3450801330777554
  0.8083251757689447  0.3716780803784666  0.3003323008369292
  0.4385310751019650  0.9546227780166043  0.4780728618421782
  0.5601480289249339  0.5373951959789629  0.3894275565800684
  0.0619652137817526  0.2048738324126301  0.4780745833533760
  0.3155015349308931  0.8741504272866394  0.7882000304865120
  0.9380587518238422  0.9577528250836327  0.6997024718051045
  0.0583887823604702  0.3718973922214786  0.3003654266395147
  0.6856592938238191  0.6252157128087155  0.6548960449727503
  0.6878082814018833  0.4569959810325680  0.5656183508257612
  0.4359274642517778  0.9535549256104640  0.2119451466329096
  0.3135746752525231  0.2050257970773975  0.4780839348342049
  0.4356377076761654  0.1245523162570947  0.6547948784925101
  0.6878126139051876  0.6205550449252676  0.4341300190885293
  0.8127147391957009  0.2077596623125576  0.6996553984618468
  0.8130310554420097  0.7044739051486708  0.4780650655149033
  0.8127809293130902  0.8707457659732957  0.4342652068066523
  0.9370844590272689  0.9549097482526709  0.4780574591719683
  0.5624960317717050  0.2049249840534509  0.4781566286202337
  0.1872982000954787  0.6210333432040256  0.4341348386799323
  0.3118035297369304  0.0409965020851819  0.7439237985931501
  0.9356220843200225  0.6250808460108636  0.6548530693047073
  0.5606286441251777  0.7111527561261426  0.8333928751899439
  0.3085282522629539  0.3717058264275875  0.3003443480799290
  0.5607037405786802  0.7034520660468316  0.2119083895881197
  0.1880786202248781  0.4550383472399284  0.4780889882043793
  0.3126046414124212  0.0432448725149020  0.8752851419122465
  0.1887500794226979  0.4576949935514261  0.6996542600454987
  0.8126409974929542  0.5433532914316613  0.8752833334500553
  0.1851142640596168  0.2875941255284539  0.3893756291831602
  0.4377072228539571  0.6208067153965386  0.4345033134614566
  0.0609867408233200  0.7034917399205998  0.2118572224399015
  0.5625374848003749  0.3709133885632597  0.4341583438701683
  0.8168758790289181  0.3651390594261442  0.1667559970548914
  0.8106200339538937  0.7112042337447180  0.8334815207809860
  0.0655621325470939  0.3739582435471392  0.7882256234593078
  0.4379862650429583  0.2934358633484979  0.8753161167696707
  0.3137015684585273  0.0348189086384398  0.1249100068312669
  0.6876971950033776  0.1206936830925374  0.4342624295166859
  0.1878731814073276  0.9535370848175816  0.3450937210244712
  0.0604789318907887  0.2111188639129548  0.8334670861449897
  0.5626595016367837  0.0406408905645603  0.6104517749526652
  0.6857612450884781  0.4539523632073382  0.2119910035087676
  0.1869509596274973  0.7911507322540487  0.7439527127800305
  0.1832649486635391  0.6218830953466490  0.3004323910976734
  0.4350628828700392  0.7871928856115724  0.3893468639531598
  0.4382311124881929  0.2866808830766169  0.2561259837938971
  0.0626018165205300  0.5433985668132151  0.8753027429932158
  0.5617332260050009  0.0411521782596760  0.7438999377847625
  0.1879656669284336  0.7933777056125362  0.8753102768538478
  0.9374473909237447  0.4545136033691912  0.4781294126159726
  0.8105957283505091  0.5372757953303182  0.3895000400644308
  0.8131415873928912  0.2069745549971805  0.5655732352131063
  0.1907988906126491  0.6243015651537015  0.7883170690253134
  0.0601476899483905  0.5378742814044752  0.3894602270209165
  0.0631481872661132  0.7079278061865943  0.6996617560674965
  0.3130991383305157  0.5365467087103132  0.2561131055554272
  0.3108436822434895  0.7032541257439657  0.2118789236296707
  0.5668045022477345  0.8655914196699167  0.1667428705703008
  0.5616380455341966  0.5412424780751396  0.7439455171971623
  0.6880028955226024  0.4533408797478812  0.3450808348132354
  0.9380240577303331  0.2933132502835940  0.8753334101899970
  0.5631884455549299  0.0365482206985571  0.2560329271695441
  0.6849567972702064  0.2873600074703062  0.3893405804971813
  0.3169207201141353  0.3652868959747552  0.1662395568743346
  0.4384816191510852  0.6232141989692435  0.5215048832271330
  0.9385388427534658  0.4577497326893697  0.6998439311753424
  0.9396964832261990  0.7843638244738554  0.1250987663852870
  0.8098231825419717  0.3746777567201502  0.6546199892967056
  0.1875407726656263  0.9545666445851617  0.4782809130966822
 
  0.00000000E+00  0.00000000E+00  0.00000000E+00
  0.00000000E+00  0.00000000E+00  0.00000000E+00
  0.00000000E+00  0.00000000E+00  0.00000000E+00
  0.00000000E+00  0.00000000E+00  0.00000000E+00
  0.00000000E+00  0.00000000E+00  0.00000000E+00
  0.00000000E+00  0.00000000E+00  0.00000000E+00
  0.00000000E+00  0.00000000E+00  0.00000000E+00
  0.00000000E+00  0.00000000E+00  0.00000000E+00
  0.00000000E+00  0.00000000E+00  0.00000000E+00
  0.00000000E+00  0.00000000E+00  0.00000000E+00
  0.00000000E+00  0.00000000E+00  0.00000000E+00
  0.00000000E+00  0.00000000E+00  0.00000000E+00
  0.00000000E+00  0.00000000E+00  0.00000000E+00
  0.00000000E+00  0.00000000E+00  0.00000000E+00
  0.00000000E+00  0.00000000E+00  0.00000000E+00
  0.00000000E+00  0.00000000E+00  0.00000000E+00
  0.00000000E+00  0.00000000E+00  0.00000000E+00
  0.00000000E+00  0.00000000E+00  0.00000000E+00
  0.00000000E+00  0.00000000E+00  0.00000000E+00
  0.00000000E+00  0.00000000E+00  0.00000000E+00
  0.00000000E+00  0.00000000E+00  0.00000000E+00
  0.00000000E+00  0.00000000E+00  0.00000000E+00
  0.00000000E+00  0.00000000E+00  0.00000000E+00
  0.00000000E+00  0.00000000E+00  0.00000000E+00
  0.00000000E+00  0.00000000E+00  0.00000000E+00
  0.00000000E+00  0.00000000E+00  0.00000000E+00
  0.00000000E+00  0.00000000E+00  0.00000000E+00
  0.00000000E+00  0.00000000E+00  0.00000000E+00
  0.00000000E+00  0.00000000E+00  0.00000000E+00
  0.00000000E+00  0.00000000E+00  0.00000000E+00
  0.00000000E+00  0.00000000E+00  0.00000000E+00
  0.00000000E+00  0.00000000E+00  0.00000000E+00
  0.00000000E+00  0.00000000E+00  0.00000000E+00
  0.00000000E+00  0.00000000E+00  0.00000000E+00
  0.00000000E+00  0.00000000E+00  0.00000000E+00
  0.00000000E+00  0.00000000E+00  0.00000000E+00
  0.00000000E+00  0.00000000E+00  0.00000000E+00
  0.00000000E+00  0.00000000E+00  0.00000000E+00
  0.00000000E+00  0.00000000E+00  0.00000000E+00
  0.00000000E+00  0.00000000E+00  0.00000000E+00
  0.00000000E+00  0.00000000E+00  0.00000000E+00
  0.00000000E+00  0.00000000E+00  0.00000000E+00
  0.00000000E+00  0.00000000E+00  0.00000000E+00
  0.00000000E+00  0.00000000E+00  0.00000000E+00
  0.00000000E+00  0.00000000E+00  0.00000000E+00
  0.00000000E+00  0.00000000E+00  0.00000000E+00
  0.00000000E+00  0.00000000E+00  0.00000000E+00
  0.00000000E+00  0.00000000E+00  0.00000000E+00
  0.00000000E+00  0.00000000E+00  0.00000000E+00
  0.00000000E+00  0.00000000E+00  0.00000000E+00
  0.00000000E+00  0.00000000E+00  0.00000000E+00
  0.00000000E+00  0.00000000E+00  0.00000000E+00
  0.00000000E+00  0.00000000E+00  0.00000000E+00
  0.00000000E+00  0.00000000E+00  0.00000000E+00
  0.00000000E+00  0.00000000E+00  0.00000000E+00
  0.00000000E+00  0.00000000E+00  0.00000000E+00
  0.00000000E+00  0.00000000E+00  0.00000000E+00
  0.00000000E+00  0.00000000E+00  0.00000000E+00
  0.00000000E+00  0.00000000E+00  0.00000000E+00
  0.00000000E+00  0.00000000E+00  0.00000000E+00
  0.00000000E+00  0.00000000E+00  0.00000000E+00
  0.00000000E+00  0.00000000E+00  0.00000000E+00
  0.00000000E+00  0.00000000E+00  0.00000000E+00
  0.00000000E+00  0.00000000E+00  0.00000000E+00
  0.00000000E+00  0.00000000E+00  0.00000000E+00
  0.00000000E+00  0.00000000E+00  0.00000000E+00
  0.00000000E+00  0.00000000E+00  0.00000000E+00
  0.00000000E+00  0.00000000E+00  0.00000000E+00
  0.00000000E+00  0.00000000E+00  0.00000000E+00
  0.00000000E+00  0.00000000E+00  0.00000000E+00
  0.00000000E+00  0.00000000E+00  0.00000000E+00
  0.00000000E+00  0.00000000E+00  0.00000000E+00
  0.00000000E+00  0.00000000E+00  0.00000000E+00
  0.00000000E+00  0.00000000E+00  0.00000000E+00
  0.00000000E+00  0.00000000E+00  0.00000000E+00
  0.00000000E+00  0.00000000E+00  0.00000000E+00
  0.00000000E+00  0.00000000E+00  0.00000000E+00
  0.00000000E+00  0.00000000E+00  0.00000000E+00
  0.00000000E+00  0.00000000E+00  0.00000000E+00
  0.00000000E+00  0.00000000E+00  0.00000000E+00
  0.00000000E+00  0.00000000E+00  0.00000000E+00
  0.00000000E+00  0.00000000E+00  0.00000000E+00
  0.00000000E+00  0.00000000E+00  0.00000000E+00
  0.00000000E+00  0.00000000E+00  0.00000000E+00
  0.00000000E+00  0.00000000E+00  0.00000000E+00
  0.00000000E+00  0.00000000E+00  0.00000000E+00
  0.00000000E+00  0.00000000E+00  0.00000000E+00
  0.00000000E+00  0.00000000E+00  0.00000000E+00
  0.00000000E+00  0.00000000E+00  0.00000000E+00
  0.00000000E+00  0.00000000E+00  0.00000000E+00
  0.00000000E+00  0.00000000E+00  0.00000000E+00
  0.00000000E+00  0.00000000E+00  0.00000000E+00
  0.00000000E+00  0.00000000E+00  0.00000000E+00
  0.00000000E+00  0.00000000E+00  0.00000000E+00
  0.00000000E+00  0.00000000E+00  0.00000000E+00
  0.00000000E+00  0.00000000E+00  0.00000000E+00
  0.00000000E+00  0.00000000E+00  0.00000000E+00
  0.00000000E+00  0.00000000E+00  0.00000000E+00
  0.00000000E+00  0.00000000E+00  0.00000000E+00
  0.00000000E+00  0.00000000E+00  0.00000000E+00
  0.00000000E+00  0.00000000E+00  0.00000000E+00
  0.00000000E+00  0.00000000E+00  0.00000000E+00
  0.00000000E+00  0.00000000E+00  0.00000000E+00
  0.00000000E+00  0.00000000E+00  0.00000000E+00
  0.00000000E+00  0.00000000E+00  0.00000000E+00
  0.00000000E+00  0.00000000E+00  0.00000000E+00
  0.00000000E+00  0.00000000E+00  0.00000000E+00
  0.00000000E+00  0.00000000E+00  0.00000000E+00
  0.00000000E+00  0.00000000E+00  0.00000000E+00
  0.00000000E+00  0.00000000E+00  0.00000000E+00
  0.00000000E+00  0.00000000E+00  0.00000000E+00
  0.00000000E+00  0.00000000E+00  0.00000000E+00
  0.00000000E+00  0.00000000E+00  0.00000000E+00
  0.00000000E+00  0.00000000E+00  0.00000000E+00
  0.00000000E+00  0.00000000E+00  0.00000000E+00
  0.00000000E+00  0.00000000E+00  0.00000000E+00
  0.00000000E+00  0.00000000E+00  0.00000000E+00
  0.00000000E+00  0.00000000E+00  0.00000000E+00
  0.00000000E+00  0.00000000E+00  0.00000000E+00
  0.00000000E+00  0.00000000E+00  0.00000000E+00
  0.00000000E+00  0.00000000E+00  0.00000000E+00
  0.00000000E+00  0.00000000E+00  0.00000000E+00
  0.00000000E+00  0.00000000E+00  0.00000000E+00
  0.00000000E+00  0.00000000E+00  0.00000000E+00
  0.00000000E+00  0.00000000E+00  0.00000000E+00
  0.00000000E+00  0.00000000E+00  0.00000000E+00
  0.00000000E+00  0.00000000E+00  0.00000000E+00
  0.00000000E+00  0.00000000E+00  0.00000000E+00
  0.00000000E+00  0.00000000E+00  0.00000000E+00
  0.00000000E+00  0.00000000E+00  0.00000000E+00
  0.00000000E+00  0.00000000E+00  0.00000000E+00
  0.00000000E+00  0.00000000E+00  0.00000000E+00
  0.00000000E+00  0.00000000E+00  0.00000000E+00
  0.00000000E+00  0.00000000E+00  0.00000000E+00
  0.00000000E+00  0.00000000E+00  0.00000000E+00
  0.00000000E+00  0.00000000E+00  0.00000000E+00
  0.00000000E+00  0.00000000E+00  0.00000000E+00
  0.00000000E+00  0.00000000E+00  0.00000000E+00
  0.00000000E+00  0.00000000E+00  0.00000000E+00
  0.00000000E+00  0.00000000E+00  0.00000000E+00
  0.00000000E+00  0.00000000E+00  0.00000000E+00
  0.00000000E+00  0.00000000E+00  0.00000000E+00
  0.00000000E+00  0.00000000E+00  0.00000000E+00
  0.00000000E+00  0.00000000E+00  0.00000000E+00
  0.00000000E+00  0.00000000E+00  0.00000000E+00
  0.00000000E+00  0.00000000E+00  0.00000000E+00
  0.00000000E+00  0.00000000E+00  0.00000000E+00
  0.00000000E+00  0.00000000E+00  0.00000000E+00
  0.00000000E+00  0.00000000E+00  0.00000000E+00
  0.00000000E+00  0.00000000E+00  0.00000000E+00
  0.00000000E+00  0.00000000E+00  0.00000000E+00
  0.00000000E+00  0.00000000E+00  0.00000000E+00
  0.00000000E+00  0.00000000E+00  0.00000000E+00
  0.00000000E+00  0.00000000E+00  0.00000000E+00
  0.00000000E+00  0.00000000E+00  0.00000000E+00
  0.00000000E+00  0.00000000E+00  0.00000000E+00
  0.00000000E+00  0.00000000E+00  0.00000000E+00
  0.00000000E+00  0.00000000E+00  0.00000000E+00
  0.00000000E+00  0.00000000E+00  0.00000000E+00
  0.00000000E+00  0.00000000E+00  0.00000000E+00
  0.00000000E+00  0.00000000E+00  0.00000000E+00
  0.00000000E+00  0.00000000E+00  0.00000000E+00
  0.00000000E+00  0.00000000E+00  0.00000000E+00
  0.00000000E+00  0.00000000E+00  0.00000000E+00
  0.00000000E+00  0.00000000E+00  0.00000000E+00
  0.00000000E+00  0.00000000E+00  0.00000000E+00
  0.00000000E+00  0.00000000E+00  0.00000000E+00
  0.00000000E+00  0.00000000E+00  0.00000000E+00
  0.00000000E+00  0.00000000E+00  0.00000000E+00
  0.00000000E+00  0.00000000E+00  0.00000000E+00
  0.00000000E+00  0.00000000E+00  0.00000000E+00
  0.00000000E+00  0.00000000E+00  0.00000000E+00
  0.00000000E+00  0.00000000E+00  0.00000000E+00
  0.00000000E+00  0.00000000E+00  0.00000000E+00
  0.00000000E+00  0.00000000E+00  0.00000000E+00
  0.00000000E+00  0.00000000E+00  0.00000000E+00
  0.00000000E+00  0.00000000E+00  0.00000000E+00
  0.00000000E+00  0.00000000E+00  0.00000000E+00
  0.00000000E+00  0.00000000E+00  0.00000000E+00
  0.00000000E+00  0.00000000E+00  0.00000000E+00
  0.00000000E+00  0.00000000E+00  0.00000000E+00
  0.00000000E+00  0.00000000E+00  0.00000000E+00
  0.00000000E+00  0.00000000E+00  0.00000000E+00
  0.00000000E+00  0.00000000E+00  0.00000000E+00
  0.00000000E+00  0.00000000E+00  0.00000000E+00
  0.00000000E+00  0.00000000E+00  0.00000000E+00
  0.00000000E+00  0.00000000E+00  0.00000000E+00
  0.00000000E+00  0.00000000E+00  0.00000000E+00
  0.00000000E+00  0.00000000E+00  0.00000000E+00
  0.00000000E+00  0.00000000E+00  0.00000000E+00
  0.00000000E+00  0.00000000E+00  0.00000000E+00
  0.00000000E+00  0.00000000E+00  0.00000000E+00
  0.00000000E+00  0.00000000E+00  0.00000000E+00
  0.00000000E+00  0.00000000E+00  0.00000000E+00
  0.00000000E+00  0.00000000E+00  0.00000000E+00
  0.00000000E+00  0.00000000E+00  0.00000000E+00
  0.00000000E+00  0.00000000E+00  0.00000000E+00
  0.00000000E+00  0.00000000E+00  0.00000000E+00
  0.00000000E+00  0.00000000E+00  0.00000000E+00
  0.00000000E+00  0.00000000E+00  0.00000000E+00
  0.00000000E+00  0.00000000E+00  0.00000000E+00
  0.00000000E+00  0.00000000E+00  0.00000000E+00
  0.00000000E+00  0.00000000E+00  0.00000000E+00
  0.00000000E+00  0.00000000E+00  0.00000000E+00
  0.00000000E+00  0.00000000E+00  0.00000000E+00
  0.00000000E+00  0.00000000E+00  0.00000000E+00
  0.00000000E+00  0.00000000E+00  0.00000000E+00
  0.00000000E+00  0.00000000E+00  0.00000000E+00
  0.00000000E+00  0.00000000E+00  0.00000000E+00
  0.00000000E+00  0.00000000E+00  0.00000000E+00
  0.00000000E+00  0.00000000E+00  0.00000000E+00
  0.00000000E+00  0.00000000E+00  0.00000000E+00
  0.00000000E+00  0.00000000E+00  0.00000000E+00
  0.00000000E+00  0.00000000E+00  0.00000000E+00
  0.00000000E+00  0.00000000E+00  0.00000000E+00
  0.00000000E+00  0.00000000E+00  0.00000000E+00
  0.00000000E+00  0.00000000E+00  0.00000000E+00
  0.00000000E+00  0.00000000E+00  0.00000000E+00
  0.00000000E+00  0.00000000E+00  0.00000000E+00
  0.00000000E+00  0.00000000E+00  0.00000000E+00
  0.00000000E+00  0.00000000E+00  0.00000000E+00
  0.00000000E+00  0.00000000E+00  0.00000000E+00
  0.00000000E+00  0.00000000E+00  0.00000000E+00
  0.00000000E+00  0.00000000E+00  0.00000000E+00
  0.00000000E+00  0.00000000E+00  0.00000000E+00
  0.00000000E+00  0.00000000E+00  0.00000000E+00
  0.00000000E+00  0.00000000E+00  0.00000000E+00
  0.00000000E+00  0.00000000E+00  0.00000000E+00
  0.00000000E+00  0.00000000E+00  0.00000000E+00
  0.00000000E+00  0.00000000E+00  0.00000000E+00
  0.00000000E+00  0.00000000E+00  0.00000000E+00
  0.00000000E+00  0.00000000E+00  0.00000000E+00
  0.00000000E+00  0.00000000E+00  0.00000000E+00
  0.00000000E+00  0.00000000E+00  0.00000000E+00
  0.00000000E+00  0.00000000E+00  0.00000000E+00
  0.00000000E+00  0.00000000E+00  0.00000000E+00
  0.00000000E+00  0.00000000E+00  0.00000000E+00
  0.00000000E+00  0.00000000E+00  0.00000000E+00
  0.00000000E+00  0.00000000E+00  0.00000000E+00
  0.00000000E+00  0.00000000E+00  0.00000000E+00
  0.00000000E+00  0.00000000E+00  0.00000000E+00
  0.00000000E+00  0.00000000E+00  0.00000000E+00
  0.00000000E+00  0.00000000E+00  0.00000000E+00
  0.00000000E+00  0.00000000E+00  0.00000000E+00
  0.00000000E+00  0.00000000E+00  0.00000000E+00
  0.00000000E+00  0.00000000E+00  0.00000000E+00
  0.00000000E+00  0.00000000E+00  0.00000000E+00