FeMn_288_20                             
    1.000000000000000     
     9.7266779999999997    0.0000000000000000    0.0000000000000000
     0.0000000000000000    8.4235500000000005    0.0000000000000000
     0.0000000000000000    0.0000000000000000   45.0000000000000000
   Fe   Mn
   268    20
Direct
  0.3124497237078952  0.5367646225241950  0.1265306574518370
  0.4375011846243537  0.1218039204896945  0.4347655842282436
  0.1875206826425854  0.1208879538894375  0.3017281616544845
  0.6872431467393991  0.4549292891512713  0.3461751802165344
  0.3129850844421265  0.7055067655392585  0.4785604553059123
  0.6875395133975957  0.4537730401789487  0.2134997349033530
  0.9375004912689949  0.6222268162442243  0.5212906789961406
  0.9372323525951178  0.7906795702848523  0.8735684634307167
  0.4371626885813497  0.6239380627622434  0.7863276941749899
  0.1874369635293890  0.4536685779238488  0.2134698803679388
  0.4374174446278161  0.4538166255221825  0.2135188920402838
  0.3121523660366743  0.3721584076548697  0.5213340460518638
  0.5621319671875972  0.7058688903081451  0.5652268713570937
  0.5622505949861771  0.7050386920382887  0.4786779902282816
  0.3125968382619239  0.2060141837597894  0.5652668660749484
  0.6874337184183490  0.1208255327403527  0.3018044827648640
  0.4371619369667965  0.2872100148345383  0.2576231025336518
  0.5620824921126835  0.3710217813383075  0.3017187289559734
  0.9380147246361212  0.9554574267867384  0.5652886913643536
  0.4374224999112796  0.1209464230608469  0.3018241111775277
  0.6875507457806075  0.1201694682469187  0.1686736500014412
  0.1873124952949387  0.4570498583114763  0.6980467387343301
  0.9371781084609330  0.4572805462875197  0.6982343039154235
  0.5625276514883970  0.5402391448604912  0.8735822612660674
  0.9373861871885663  0.9545674809262708  0.4784518876213401
  0.8123094741793929  0.8727020868908016  0.6538067754014369
  0.6876418966589289  0.7869161592510412  0.1265123262820296
  0.3125697589807744  0.7033129901837992  0.2134628116628664
  0.5622547945045706  0.3732969692928105  0.6538192977219429
  0.1873987216920410  0.1206788651838528  0.1687807493484320
  0.9375996321845563  0.6219918199140347  0.4348442107300776
  0.0626007522661610  0.8702801005007460  0.1687169190252811
  0.4372767227618014  0.9574525632668962  0.8315761318378645
  0.8123880109817974  0.0366783084279995  0.1264687969633631
  0.8125564069682246  0.7071356866036169  0.8316293726945237
  0.6875008399176402  0.6206281047345463  0.1686513360302710
  0.6881248317422218  0.9550161023082814  0.4785509196052489
  0.0628307121660777  0.3710781974265353  0.3017400441577794
  0.3122141086607393  0.8740730624592402  0.7865834830487822
  0.6872510586409036  0.4556407798064889  0.4785276111429440
  0.0628079831848865  0.8720722241463192  0.4347333367778333
  0.0625710665831693  0.5400400637149254  0.6098013474350050
  0.0623562716344480  0.8742479028508936  0.7862854479845045
  0.8123888561363769  0.5369114886360369  0.1265052550847091
  0.4377869634603930  0.4560486027718995  0.5650981448537981
  0.3124869592292643  0.3710621610212662  0.3017835453080390
  0.5625673835069304  0.2067378278712365  0.6983023624316119
  0.3126457479832584  0.3705257937416786  0.1687385232676226
  0.1877810249445944  0.6222036257951679  0.5212908973182298
  0.3126782900696846  0.8735809822091807  0.6537810745046991
  0.6875605682118010  0.2905515048088312  0.7425076189200760
  0.6868798917867526  0.9564741198827449  0.6982220630866178
  0.0624877659316841  0.3739027614828521  0.7866271189242463
  0.6873191969513560  0.2877570744287978  0.1265439142918358
  0.4369375278977466  0.1236339685964501  0.6538351125124752
  0.0623727825353558  0.5382692165799646  0.3900743953620821
  0.8118856595325467  0.3739393194145069  0.7864076618136380
  0.8124568313990913  0.0373890283713799  0.2576144312012796
  0.3122917077410904  0.5378943690236900  0.3900484525382977
  0.5626920512905546  0.8707762527255944  0.3017266769055410
  0.1876941127686310  0.2872529715917977  0.2575882708598957
  0.0621335438628428  0.0372623177908113  0.2575943861850380
  0.0626083899275055  0.8727640823647594  0.5212804857571951
  0.0629515624786960  0.2061044129135656  0.5649962549808945
  0.1873531617413819  0.9555578248821259  0.5651690619887795
  0.4382745072429554  0.2912177835763206  0.8735460733274225
  0.9377345237493181  0.1203269415414051  0.1685897821239437
  0.4371252702112430  0.7867012016837870  0.1264957981045253
  0.4372114214878833  0.7903759843242351  0.7422769167118011
  0.5628427861393325  0.3721022370517055  0.5212902910685278
  0.4372600945650197  0.6235611941472080  0.6537742991784447
  0.9375763112852636  0.4565392426703428  0.5653937965723096
  0.4375341221371103  0.4563045269667087  0.6982455046119581
  0.3125391109318275  0.0379565497936219  0.3900537442393134
  0.9374862225637639  0.2882692505943957  0.3902170761093555
  0.0621933498667153  0.2043219853210315  0.3461562042301005
  0.3122793991483152  0.5399899050968235  0.6097650591791125
  0.9376633468514390  0.4556977285213233  0.4784768792572917
  0.1869289214116985  0.4581450146728709  0.8314827357972915
  0.4374830881551826  0.2878244035786073  0.3901313775048666
  0.8124077811262321  0.8708128885569856  0.1685727709391900
  0.3122565149568469  0.3716744806637164  0.4347822146311718
  0.9376508958937321  0.1221621899302995  0.5211981303669140
  0.5621398451948502  0.2058567651528276  0.5652207441707213
  0.5626875601731617  0.5371713917851725  0.2576995073785160
  0.1875670821742404  0.7874185984041180  0.2576722267542221
  0.8117797306503168  0.5408912393244485  0.8735859123636848
  0.0623577239287626  0.0397747619635045  0.6097618968322216
  0.3125091881484951  0.2039012409303553  0.2135278230666730
  0.6875294471827518  0.6219154358629042  0.4347840113975920
  0.3124813070225211  0.7048485211647852  0.3462330461900409
  0.4375380589208639  0.2869958335468117  0.1265329984948281
  0.4376136017061811  0.9545422184971871  0.3462357050155703
  0.9375179253344743  0.1212805671080968  0.3018682486475628
  0.9376187370813212  0.6205786767301296  0.1686874696076698
  0.3122933797229715  0.8708122612351532  0.3016208672879374
  0.4372140339577908  0.6221418481871956  0.5213739652540540
  0.4366440245292705  0.7909434089771500  0.8736204687846439
  0.1875009666054549  0.9536857383552405  0.2134598049134743
  0.5624206273868509  0.5393295923887048  0.6099053667809711
  0.6872091212366739  0.7882889961855892  0.3900759114452987
  0.1874754700729271  0.7866063678498481  0.1265072724121051
  0.8125354208134272  0.2036966002166199  0.2134338791728521
  0.5626492870386386  0.0368303351085488  0.1264586369051834
  0.1877971924229482  0.4557808327272346  0.4786058568460724
  0.6869276844188188  0.2913293010135902  0.8736389662700661
  0.6879885198934922  0.9561020732925266  0.5653162592358446
  0.3125181929989121  0.5403636640823903  0.7424176737140289
  0.6872763980256834  0.4564435785932875  0.5651637121054350
  0.5620615996125642  0.0418798269762579  0.8735263460074549
  0.6872177848488096  0.4568864693653371  0.6981188780043440
  0.1877351731265038  0.7898106819686784  0.6097664742877412
  0.8125059463729228  0.7068873880108419  0.6981128632407289
  0.3124746337706560  0.0371545733466297  0.2575794314709769
  0.3126099545468669  0.2065737847098215  0.8313882931757143
  0.5624419760974343  0.2055076912637114  0.4785717843459434
  0.0622743426145069  0.8731188870978353  0.6536691096904779
  0.8125411534389356  0.3707665325826225  0.3017975399386403
  0.0623187274356158  0.2037000061720440  0.2134354912123849
  0.5626449314666486  0.5380789470857045  0.3901818652015363
  0.5630107844137967  0.3718243030318065  0.4348968602036283
  0.3132240193750050  0.5412526749204959  0.8735575068882127
  0.1877897035347093  0.1215923882332529  0.4347547934314208
  0.6872842151730327  0.7899660189254811  0.6098271299920109
  0.9375352531050904  0.2908909277796558  0.7425048002495305
  0.4372919615121612  0.9558787806335661  0.5650386258339077
  0.0624228117865681  0.7075090565705223  0.6982020336982264
  0.1878627638984611  0.7878094798788272  0.3901121636027688
  0.0624820276793169  0.0409315777346502  0.7424071270771336
  0.8122506375373740  0.7056587168217840  0.4785934757724333
  0.4373817222858472  0.2904873904953847  0.7425893107946026
  0.5627153562271866  0.3705146506423099  0.1686342570694475
  0.4377497377132699  0.7879953526281416  0.3901293388641029
  0.1877762088467701  0.6239156242324646  0.7865970432270841
  0.5628362562510369  0.8739000702140607  0.7864981546341537
  0.1875308220193399  0.6206136744266346  0.1686713538307363
  0.0623642360762857  0.3702673159620628  0.1686408164698645
  0.3125707767664849  0.8713802651116747  0.4347974657401814
  0.1879617219280981  0.9580379588305593  0.8315006036949207
  0.5619521415234217  0.2073580659920011  0.8314234951806081
  0.5625949510617678  0.2037897339424670  0.2134530269616433
  0.6868888683169994  0.6241785425289008  0.7864672683453724
  0.0624307551557556  0.0370970285145611  0.1265852066121636
  0.1880040341210700  0.1240461336304798  0.7865933820015226
  0.1875005543737068  0.2868429395400514  0.1265566501706060
  0.8126142753827980  0.5370773473175460  0.2576406578539036
  0.0625943269891806  0.5367727808945518  0.1265198896335684
  0.9377368412544632  0.7875864956875771  0.2576069649835824
  0.9377596051493421  0.2872450473804966  0.2576301107746849
  0.5625783904678252  0.8707895179295387  0.1686288085578735
  0.0625330887815719  0.7031222090682644  0.2133962149562350
  0.5626943188179908  0.7064419575878187  0.6982477327556239
  0.0627175515756022  0.0382031875035669  0.3900173511134408
  0.1876769286842786  0.1235298102872105  0.6537528614588727
  0.1876017996357149  0.7903766341808057  0.7423981762160902
  0.0627801937541982  0.7057588096817039  0.5650411914824630
  0.8124698276842075  0.8721282274114619  0.4347156861320094
  0.9375370948538126  0.6209251193632624  0.3018049513410669
  0.8127857881677234  0.8725409664850742  0.5213140436237566
  0.5628753332382836  0.7048926197638408  0.3463487256097778
  0.4373811158766791  0.1205378402297532  0.1685611445600329
  0.3118174322223479  0.7075828439728876  0.8315735036467856
  0.4372870421820245  0.4576238964767806  0.8311903523970268
  0.8123706652741092  0.8740969157154417  0.7865285749495292
  0.8124804247487417  0.7062219557291213  0.5651236063404907
  0.3127648941725529  0.3742768883925316  0.7863155878359360
  0.1874272806183970  0.6238004758735043  0.6537767833124419
  0.5627541191264981  0.2045105367005570  0.3461888524654347
  0.3126889886453042  0.2055784281092284  0.4785604983432568
  0.0627974252984530  0.7056932547309159  0.4785775214885011
  0.4375494353426422  0.1241540260175090  0.7866993140580587
  0.6869456812934969  0.1248344030789472  0.7863837236429453
  0.0622231016606780  0.5408205155800120  0.7425006294045779
  0.9377775548496962  0.2871290582192110  0.1265826647808573
  0.1872952368387729  0.2901773022568077  0.7422603411045842
  0.0626943015701089  0.3736037049947269  0.6538377393606321
  0.8128521778637728  0.5396961660936238  0.6098195219468865
  0.0623129037910094  0.8711349200319355  0.3017641726624180
  0.0621397270166700  0.7063076305540124  0.8314487282242715
  0.1876382383782863  0.4562532475040365  0.5652591426748036
  0.3119199690811613  0.0399979688503641  0.6098658951075667
  0.1872895741825304  0.6210994136743151  0.3018413458337439
  0.9382524370611787  0.4577424068251544  0.8313721703760197
  0.8125367603786048  0.0411196945781223  0.7425211279062989
  0.9379053190112813  0.9535155079959842  0.2135351851420801
  0.0623355178562469  0.5375144242475252  0.2576691183200983
  0.6874562565527068  0.1217321673011076  0.4347096039470899
  0.9375610220965919  0.7878699987761801  0.3899938358593409
  0.6873450171145079  0.7904237359256286  0.7424941733514590
  0.1877181672246731  0.6219648351019950  0.4349512630184015
  0.6879872538734608  0.2878818313096505  0.3901336906049498
  0.4378372628400448  0.9570559848125912  0.6982187261189230
  0.8126397516429713  0.8708475235366113  0.3016924773326038
  0.4372734047963702  0.7871160311202038  0.2576336536554508
  0.6876409766011531  0.6205501803975492  0.3018244082006170
  0.5632174301741013  0.7077070100650795  0.8313571694377415
  0.9373776504720273  0.2899754159375259  0.6098785594955031
  0.9370973527238892  0.9572040048664084  0.6981041640248692
  0.8124206835748923  0.5409266248215134  0.7423677214691774
  0.5626258376110158  0.8733273370034097  0.6537868188367544
  0.3126576562528967  0.0368161838243401  0.1266176819743986
  0.3122014423666241  0.3740561492029634  0.6538495711881916
  0.8125693269984909  0.7037459664545224  0.2134686522226686
  0.6875050472524855  0.6230895352141891  0.6537731515773878
  0.1876403934040233  0.2902593946095101  0.6098403543344765
  0.0620645722615173  0.7044286885508072  0.3462889339225581
  0.8128982902940446  0.5383267390394100  0.3901104422170780
  0.6870667652491446  0.4572217872814729  0.8314823127478493
  0.5623128997673557  0.0407616143375938  0.7422826599079319
  0.1887637467867244  0.7903917514240980  0.8736191490259519
  0.4374672038761764  0.4555156058989109  0.4786258631543924
  0.5624255586686476  0.8718629744768477  0.4350264326992273
  0.5630305779940409  0.0371259266969255  0.2575704475405161
  0.0622114639926698  0.3720205912037651  0.4348993011596375
  0.1873793942629140  0.9551586047317113  0.4785335230479526
  0.4371510610532229  0.9536997674399071  0.2134277486705870
  0.4373203526064958  0.9555672819731588  0.4786524611432840
  0.0614678278588492  0.0416831201649884  0.8737576382815808
  0.4374796048184564  0.6212773559749486  0.4346959821020963
  0.3125340358946370  0.7068302207133471  0.6981838473169911
  0.5625577220109810  0.3746253654518381  0.7866089942626309
  0.6876000957450401  0.9560421078139411  0.8314314359484223
  0.1875209607786807  0.9544454152773850  0.3462085547786124
  0.8127356844490220  0.7042710113149027  0.3462627352595983
  0.0624450429840330  0.2071998499709833  0.6982461203628689
  0.4375015997361011  0.6211790616616839  0.3018543308984240
  0.9375919286296653  0.4536364759746891  0.2135102273089445
  0.9376884709405799  0.6230928687554582  0.6538728725199225
  0.5623112558651973  0.7036825481302985  0.2134544998163901
  0.1878945539045080  0.1221863804743080  0.5212977717222137
  0.8129011600980584  0.3729037795493341  0.5212929860037747
  0.5626704370211300  0.5369726440174388  0.1265026303117653
  0.8123427299005177  0.2047567495315030  0.3462534490438394
  0.8126121721047246  0.2071792295703697  0.8313321477566785
  0.3121755387107245  0.8722968067710842  0.5213289808557869
  0.8127095827543684  0.0380748502512307  0.3900928921143543
  0.6872921949739762  0.9542534866764721  0.3462182220759429
  0.9376034927809752  0.1214791954658447  0.4348529463099557
  0.8126373652898679  0.3729938577989419  0.6537422931066210
  0.4375637285786366  0.7898695336606439  0.6097237189563386
  0.0623390910712749  0.3726815916836365  0.5213163717632441
  0.9376466873923989  0.1229619977232394  0.6537594094038381
  0.8128702665693396  0.0401804346158968  0.6098494115453692
  0.4374982515833385  0.6206173309565164  0.1686690409313645
  0.1869684412388330  0.2903609023888342  0.8736035161275754
  0.5624722188324051  0.5406326135225711  0.7423832148829753
  0.1878427488544873  0.4546817556736585  0.3461886315427053
  0.3125503829408870  0.8706309572548145  0.1686271063812156
  0.8135210296306568  0.0409829082143645  0.8736680536505562
  0.3128044431153353  0.7058749785469376  0.5651600017192865
  0.4375921375937769  0.1227500797324304  0.5213375169335267
  0.4373041913219734  0.4548496592700734  0.3462816773216330
  0.0626592552357636  0.2072813190338300  0.8317831502340940
  0.8125025644466719  0.2073998867931079  0.6982850100449060
  0.9376456279378405  0.2896316835065404  0.8737316365011044
  0.1874198846732033  0.2881632591298969  0.3901400445933698
  0.9375569009238695  0.9541771084438204  0.3461357141030095
  0.9374886983584971  0.7908638844587401  0.7424350953725632
  0.4375955231654264  0.2895705128424036  0.6098188341142685
  0.8128327275666518  0.3720133821561492  0.4348116244042418
  0.6871151099446238  0.1223871041869925  0.5213568314376134
  0.9367230880172761  0.9575324605770476  0.8314826705869099
  0.9378667531585930  0.7867034882268099  0.1265163181526000
  0.6878008895558073  0.6222415922542568  0.5213138618743157
  0.6870722564808882  0.2895583001564307  0.6099206418588511
  0.3124011379760398  0.0402848886936834  0.7424226572782910
  0.6875413028035601  0.7873862733470280  0.2576115243821191
  0.8124201158862929  0.3707199722840220  0.1687030270739237
  0.0621422407939983  0.5407459102049843  0.8733720819617746
  0.1872934852810842  0.9564005510557707  0.6981859314958406
  0.3125155012522673  0.5377512812687489  0.2575957889412339
  0.8120321166110801  0.2058510326548708  0.4787296300799200
  0.5625876754705584  0.8723485610242885  0.5212497641720440
  0.9379107615237386  0.6235902834069428  0.7862018802847106
  0.9376288935321999  0.4549506548829504  0.3462805603739343
  0.8121539225928227  0.2058644770063490  0.5650242921729166
  0.3129023496944400  0.2039436420847495  0.3463160402860165
  0.9370348028073904  0.1241216625774344  0.7863011791989439
  0.6873757338259834  0.2865118478692741  0.2574356142463918
  0.3127732528231688  0.0410962663914591  0.8734777450204404
  0.6873583143833151  0.9541748366332579  0.2137498606370805
  0.5629129773884062  0.0397955701449886  0.6097251435508272
  0.6871790334137643  0.7911465223026859  0.8733600717222172
  0.0632129983216513  0.2059817505740088  0.4786151240794209
  0.6877868052916271  0.1236685131670020  0.6539278720976769
  0.5621857032434825  0.0379471972456128  0.3899502574932324
  0.3126145603009251  0.2076031558874595  0.6982567620613555
  0.9373670858163192  0.7895690359524986  0.6097253718420556
 
  0.00000000E+00  0.00000000E+00  0.00000000E+00
  0.00000000E+00  0.00000000E+00  0.00000000E+00
  0.00000000E+00  0.00000000E+00  0.00000000E+00
  0.00000000E+00  0.00000000E+00  0.00000000E+00
  0.00000000E+00  0.00000000E+00  0.00000000E+00
  0.00000000E+00  0.00000000E+00  0.00000000E+00
  0.00000000E+00  0.00000000E+00  0.00000000E+00
  0.00000000E+00  0.00000000E+00  0.00000000E+00
  0.00000000E+00  0.00000000E+00  0.00000000E+00
  0.00000000E+00  0.00000000E+00  0.00000000E+00
  0.00000000E+00  0.00000000E+00  0.00000000E+00
  0.00000000E+00  0.00000000E+00  0.00000000E+00
  0.00000000E+00  0.00000000E+00  0.00000000E+00
  0.00000000E+00  0.00000000E+00  0.00000000E+00
  0.00000000E+00  0.00000000E+00  0.00000000E+00
  0.00000000E+00  0.00000000E+00  0.00000000E+00
  0.00000000E+00  0.00000000E+00  0.00000000E+00
  0.00000000E+00  0.00000000E+00  0.00000000E+00
  0.00000000E+00  0.00000000E+00  0.00000000E+00
  0.00000000E+00  0.00000000E+00  0.00000000E+00
  0.00000000E+00  0.00000000E+00  0.00000000E+00
  0.00000000E+00  0.00000000E+00  0.00000000E+00
  0.00000000E+00  0.00000000E+00  0.00000000E+00
  0.00000000E+00  0.00000000E+00  0.00000000E+00
  0.00000000E+00  0.00000000E+00  0.00000000E+00
  0.00000000E+00  0.00000000E+00  0.00000000E+00
  0.00000000E+00  0.00000000E+00  0.00000000E+00
  0.00000000E+00  0.00000000E+00  0.00000000E+00
  0.00000000E+00  0.00000000E+00  0.00000000E+00
  0.00000000E+00  0.00000000E+00  0.00000000E+00
  0.00000000E+00  0.00000000E+00  0.00000000E+00
  0.00000000E+00  0.00000000E+00  0.00000000E+00
  0.00000000E+00  0.00000000E+00  0.00000000E+00
  0.00000000E+00  0.00000000E+00  0.00000000E+00
  0.00000000E+00  0.00000000E+00  0.00000000E+00
  0.00000000E+00  0.00000000E+00  0.00000000E+00
  0.00000000E+00  0.00000000E+00  0.00000000E+00
  0.00000000E+00  0.00000000E+00  0.00000000E+00
  0.00000000E+00  0.00000000E+00  0.00000000E+00
  0.00000000E+00  0.00000000E+00  0.00000000E+00
  0.00000000E+00  0.00000000E+00  0.00000000E+00
  0.00000000E+00  0.00000000E+00  0.00000000E+00
  0.00000000E+00  0.00000000E+00  0.00000000E+00
  0.00000000E+00  0.00000000E+00  0.00000000E+00
  0.00000000E+00  0.00000000E+00  0.00000000E+00
  0.00000000E+00  0.00000000E+00  0.00000000E+00
  0.00000000E+00  0.00000000E+00  0.00000000E+00
  0.00000000E+00  0.00000000E+00  0.00000000E+00
  0.00000000E+00  0.00000000E+00  0.00000000E+00
  0.00000000E+00  0.00000000E+00  0.00000000E+00
  0.00000000E+00  0.00000000E+00  0.00000000E+00
  0.00000000E+00  0.00000000E+00  0.00000000E+00
  0.00000000E+00  0.00000000E+00  0.00000000E+00
  0.00000000E+00  0.00000000E+00  0.00000000E+00
  0.00000000E+00  0.00000000E+00  0.00000000E+00
  0.00000000E+00  0.00000000E+00  0.00000000E+00
  0.00000000E+00  0.00000000E+00  0.00000000E+00
  0.00000000E+00  0.00000000E+00  0.00000000E+00
  0.00000000E+00  0.00000000E+00  0.00000000E+00
  0.00000000E+00  0.00000000E+00  0.00000000E+00
  0.00000000E+00  0.00000000E+00  0.00000000E+00
  0.00000000E+00  0.00000000E+00  0.00000000E+00
  0.00000000E+00  0.00000000E+00  0.00000000E+00
  0.00000000E+00  0.00000000E+00  0.00000000E+00
  0.00000000E+00  0.00000000E+00  0.00000000E+00
  0.00000000E+00  0.00000000E+00  0.00000000E+00
  0.00000000E+00  0.00000000E+00  0.00000000E+00
  0.00000000E+00  0.00000000E+00  0.00000000E+00
  0.00000000E+00  0.00000000E+00  0.00000000E+00
  0.00000000E+00  0.00000000E+00  0.00000000E+00
  0.00000000E+00  0.00000000E+00  0.00000000E+00
  0.00000000E+00  0.00000000E+00  0.00000000E+00
  0.00000000E+00  0.00000000E+00  0.00000000E+00
  0.00000000E+00  0.00000000E+00  0.00000000E+00
  0.00000000E+00  0.00000000E+00  0.00000000E+00
  0.00000000E+00  0.00000000E+00  0.00000000E+00
  0.00000000E+00  0.00000000E+00  0.00000000E+00
  0.00000000E+00  0.00000000E+00  0.00000000E+00
  0.00000000E+00  0.00000000E+00  0.00000000E+00
  0.00000000E+00  0.00000000E+00  0.00000000E+00
  0.00000000E+00  0.00000000E+00  0.00000000E+00
  0.00000000E+00  0.00000000E+00  0.00000000E+00
  0.00000000E+00  0.00000000E+00  0.00000000E+00
  0.00000000E+00  0.00000000E+00  0.00000000E+00
  0.00000000E+00  0.00000000E+00  0.00000000E+00
  0.00000000E+00  0.00000000E+00  0.00000000E+00
  0.00000000E+00  0.00000000E+00  0.00000000E+00
  0.00000000E+00  0.00000000E+00  0.00000000E+00
  0.00000000E+00  0.00000000E+00  0.00000000E+00
  0.00000000E+00  0.00000000E+00  0.00000000E+00
  0.00000000E+00  0.00000000E+00  0.00000000E+00
  0.00000000E+00  0.00000000E+00  0.00000000E+00
  0.00000000E+00  0.00000000E+00  0.00000000E+00
  0.00000000E+00  0.00000000E+00  0.00000000E+00
  0.00000000E+00  0.00000000E+00  0.00000000E+00
  0.00000000E+00  0.00000000E+00  0.00000000E+00
  0.00000000E+00  0.00000000E+00  0.00000000E+00
  0.00000000E+00  0.00000000E+00  0.00000000E+00
  0.00000000E+00  0.00000000E+00  0.00000000E+00
  0.00000000E+00  0.00000000E+00  0.00000000E+00
  0.00000000E+00  0.00000000E+00  0.00000000E+00
  0.00000000E+00  0.00000000E+00  0.00000000E+00
  0.00000000E+00  0.00000000E+00  0.00000000E+00
  0.00000000E+00  0.00000000E+00  0.00000000E+00
  0.00000000E+00  0.00000000E+00  0.00000000E+00
  0.00000000E+00  0.00000000E+00  0.00000000E+00
  0.00000000E+00  0.00000000E+00  0.00000000E+00
  0.00000000E+00  0.00000000E+00  0.00000000E+00
  0.00000000E+00  0.00000000E+00  0.00000000E+00
  0.00000000E+00  0.00000000E+00  0.00000000E+00
  0.00000000E+00  0.00000000E+00  0.00000000E+00
  0.00000000E+00  0.00000000E+00  0.00000000E+00
  0.00000000E+00  0.00000000E+00  0.00000000E+00
  0.00000000E+00  0.00000000E+00  0.00000000E+00
  0.00000000E+00  0.00000000E+00  0.00000000E+00
  0.00000000E+00  0.00000000E+00  0.00000000E+00
  0.00000000E+00  0.00000000E+00  0.00000000E+00
  0.00000000E+00  0.00000000E+00  0.00000000E+00
  0.00000000E+00  0.00000000E+00  0.00000000E+00
  0.00000000E+00  0.00000000E+00  0.00000000E+00
  0.00000000E+00  0.00000000E+00  0.00000000E+00
  0.00000000E+00  0.00000000E+00  0.00000000E+00
  0.00000000E+00  0.00000000E+00  0.00000000E+00
  0.00000000E+00  0.00000000E+00  0.00000000E+00
  0.00000000E+00  0.00000000E+00  0.00000000E+00
  0.00000000E+00  0.00000000E+00  0.00000000E+00
  0.00000000E+00  0.00000000E+00  0.00000000E+00
  0.00000000E+00  0.00000000E+00  0.00000000E+00
  0.00000000E+00  0.00000000E+00  0.00000000E+00
  0.00000000E+00  0.00000000E+00  0.00000000E+00
  0.00000000E+00  0.00000000E+00  0.00000000E+00
  0.00000000E+00  0.00000000E+00  0.00000000E+00
  0.00000000E+00  0.00000000E+00  0.00000000E+00
  0.00000000E+00  0.00000000E+00  0.00000000E+00
  0.00000000E+00  0.00000000E+00  0.00000000E+00
  0.00000000E+00  0.00000000E+00  0.00000000E+00
  0.00000000E+00  0.00000000E+00  0.00000000E+00
  0.00000000E+00  0.00000000E+00  0.00000000E+00
  0.00000000E+00  0.00000000E+00  0.00000000E+00
  0.00000000E+00  0.00000000E+00  0.00000000E+00
  0.00000000E+00  0.00000000E+00  0.00000000E+00
  0.00000000E+00  0.00000000E+00  0.00000000E+00
  0.00000000E+00  0.00000000E+00  0.00000000E+00
  0.00000000E+00  0.00000000E+00  0.00000000E+00
  0.00000000E+00  0.00000000E+00  0.00000000E+00
  0.00000000E+00  0.00000000E+00  0.00000000E+00
  0.00000000E+00  0.00000000E+00  0.00000000E+00
  0.00000000E+00  0.00000000E+00  0.00000000E+00
  0.00000000E+00  0.00000000E+00  0.00000000E+00
  0.00000000E+00  0.00000000E+00  0.00000000E+00
  0.00000000E+00  0.00000000E+00  0.00000000E+00
  0.00000000E+00  0.00000000E+00  0.00000000E+00
  0.00000000E+00  0.00000000E+00  0.00000000E+00
  0.00000000E+00  0.00000000E+00  0.00000000E+00
  0.00000000E+00  0.00000000E+00  0.00000000E+00
  0.00000000E+00  0.00000000E+00  0.00000000E+00
  0.00000000E+00  0.00000000E+00  0.00000000E+00
  0.00000000E+00  0.00000000E+00  0.00000000E+00
  0.00000000E+00  0.00000000E+00  0.00000000E+00
  0.00000000E+00  0.00000000E+00  0.00000000E+00
  0.00000000E+00  0.00000000E+00  0.00000000E+00
  0.00000000E+00  0.00000000E+00  0.00000000E+00
  0.00000000E+00  0.00000000E+00  0.00000000E+00
  0.00000000E+00  0.00000000E+00  0.00000000E+00
  0.00000000E+00  0.00000000E+00  0.00000000E+00
  0.00000000E+00  0.00000000E+00  0.00000000E+00
  0.00000000E+00  0.00000000E+00  0.00000000E+00
  0.00000000E+00  0.00000000E+00  0.00000000E+00
  0.00000000E+00  0.00000000E+00  0.00000000E+00
  0.00000000E+00  0.00000000E+00  0.00000000E+00
  0.00000000E+00  0.00000000E+00  0.00000000E+00
  0.00000000E+00  0.00000000E+00  0.00000000E+00
  0.00000000E+00  0.00000000E+00  0.00000000E+00
  0.00000000E+00  0.00000000E+00  0.00000000E+00
  0.00000000E+00  0.00000000E+00  0.00000000E+00
  0.00000000E+00  0.00000000E+00  0.00000000E+00
  0.00000000E+00  0.00000000E+00  0.00000000E+00
  0.00000000E+00  0.00000000E+00  0.00000000E+00
  0.00000000E+00  0.00000000E+00  0.00000000E+00
  0.00000000E+00  0.00000000E+00  0.00000000E+00
  0.00000000E+00  0.00000000E+00  0.00000000E+00
  0.00000000E+00  0.00000000E+00  0.00000000E+00
  0.00000000E+00  0.00000000E+00  0.00000000E+00
  0.00000000E+00  0.00000000E+00  0.00000000E+00
  0.00000000E+00  0.00000000E+00  0.00000000E+00
  0.00000000E+00  0.00000000E+00  0.00000000E+00
  0.00000000E+00  0.00000000E+00  0.00000000E+00
  0.00000000E+00  0.00000000E+00  0.00000000E+00
  0.00000000E+00  0.00000000E+00  0.00000000E+00
  0.00000000E+00  0.00000000E+00  0.00000000E+00
  0.00000000E+00  0.00000000E+00  0.00000000E+00
  0.00000000E+00  0.00000000E+00  0.00000000E+00
  0.00000000E+00  0.00000000E+00  0.00000000E+00
  0.00000000E+00  0.00000000E+00  0.00000000E+00
  0.00000000E+00  0.00000000E+00  0.00000000E+00
  0.00000000E+00  0.00000000E+00  0.00000000E+00
  0.00000000E+00  0.00000000E+00  0.00000000E+00
  0.00000000E+00  0.00000000E+00  0.00000000E+00
  0.00000000E+00  0.00000000E+00  0.00000000E+00
  0.00000000E+00  0.00000000E+00  0.00000000E+00
  0.00000000E+00  0.00000000E+00  0.00000000E+00
  0.00000000E+00  0.00000000E+00  0.00000000E+00
  0.00000000E+00  0.00000000E+00  0.00000000E+00
  0.00000000E+00  0.00000000E+00  0.00000000E+00
  0.00000000E+00  0.00000000E+00  0.00000000E+00
  0.00000000E+00  0.00000000E+00  0.00000000E+00
  0.00000000E+00  0.00000000E+00  0.00000000E+00
  0.00000000E+00  0.00000000E+00  0.00000000E+00
  0.00000000E+00  0.00000000E+00  0.00000000E+00
  0.00000000E+00  0.00000000E+00  0.00000000E+00
  0.00000000E+00  0.00000000E+00  0.00000000E+00
  0.00000000E+00  0.00000000E+00  0.00000000E+00
  0.00000000E+00  0.00000000E+00  0.00000000E+00
  0.00000000E+00  0.00000000E+00  0.00000000E+00
  0.00000000E+00  0.00000000E+00  0.00000000E+00
  0.00000000E+00  0.00000000E+00  0.00000000E+00
  0.00000000E+00  0.00000000E+00  0.00000000E+00
  0.00000000E+00  0.00000000E+00  0.00000000E+00
  0.00000000E+00  0.00000000E+00  0.00000000E+00
  0.00000000E+00  0.00000000E+00  0.00000000E+00
  0.00000000E+00  0.00000000E+00  0.00000000E+00
  0.00000000E+00  0.00000000E+00  0.00000000E+00
  0.00000000E+00  0.00000000E+00  0.00000000E+00
  0.00000000E+00  0.00000000E+00  0.00000000E+00
  0.00000000E+00  0.00000000E+00  0.00000000E+00
  0.00000000E+00  0.00000000E+00  0.00000000E+00
  0.00000000E+00  0.00000000E+00  0.00000000E+00
  0.00000000E+00  0.00000000E+00  0.00000000E+00
  0.00000000E+00  0.00000000E+00  0.00000000E+00
  0.00000000E+00  0.00000000E+00  0.00000000E+00
  0.00000000E+00  0.00000000E+00  0.00000000E+00
  0.00000000E+00  0.00000000E+00  0.00000000E+00
  0.00000000E+00  0.00000000E+00  0.00000000E+00
  0.00000000E+00  0.00000000E+00  0.00000000E+00
  0.00000000E+00  0.00000000E+00  0.00000000E+00
  0.00000000E+00  0.00000000E+00  0.00000000E+00
  0.00000000E+00  0.00000000E+00  0.00000000E+00
  0.00000000E+00  0.00000000E+00  0.00000000E+00
  0.00000000E+00  0.00000000E+00  0.00000000E+00
  0.00000000E+00  0.00000000E+00  0.00000000E+00
  0.00000000E+00  0.00000000E+00  0.00000000E+00
  0.00000000E+00  0.00000000E+00  0.00000000E+00
  0.00000000E+00  0.00000000E+00  0.00000000E+00
  0.00000000E+00  0.00000000E+00  0.00000000E+00
  0.00000000E+00  0.00000000E+00  0.00000000E+00
  0.00000000E+00  0.00000000E+00  0.00000000E+00
  0.00000000E+00  0.00000000E+00  0.00000000E+00