CuInSe2gb                               
   1.00000000000000     
     9.7266780392896699    0.0000000000000000    0.0000000000000000
     0.0000000000000000    8.4235502764570693    0.0000000000000000
     0.0000000000000000    0.0000000000000000   45.0000000000000000
   Fe   Mn
   274    14
Direct
  0.0608347200069383  0.0334255653709465  0.1247638975667093
  0.3140383980513129  0.8744368542029882  0.6548554716709032
  0.1869216351360014  0.1225245473035110  0.7880407785876467
  0.4396627298481454  0.2879788137680673  0.3895070468009812
  0.3151187110949020  0.7098084428391559  0.8330512532439837
  0.8161843358343820  0.2110365567987262  0.8333453797174836
  0.1894314606500331  0.9607142869161421  0.8334233835825007
  0.5618048100313124  0.2061270966283818  0.5656877949200355
  0.0636951776123596  0.0403491072238486  0.7438952070871954
  0.8109723456959478  0.8724183654200144  0.5218127422269360
  0.1889100867278831  0.2903536599488012  0.7439469671501189
  0.9373135240516881  0.4538096848908071  0.3450595326070753
  0.9392311720527110  0.2881040336317885  0.3894609584727318
  0.8126915331020461  0.0424867384358761  0.8751921305620366
  0.1852909854240107  0.7887222318521877  0.6104462126684793
  0.5643611154134948  0.0376786453038058  0.3894751046636423
  0.9414225713380705  0.9612288817296737  0.8334683684770463
  0.3141863748789165  0.5414781358341904  0.8752698918298586
  0.6893538107131376  0.2902384155610861  0.7439787365367722
  0.1840598214997131  0.6165630100440742  0.1667068854065113
  0.8120418825527603  0.2053778290839045  0.4781997994416510
  0.8103034979154742  0.5385920055342418  0.6105129705775115
  0.3122890371743643  0.8714466093950577  0.4344107409853169
  0.8114187739748571  0.0387403749052246  0.2561646003732905
  0.6869853854934822  0.9547569162452072  0.3450726971566193
  0.9332500387210634  0.1164483085577384  0.1667974740236512
  0.0622378720966936  0.8723757771293860  0.5217828123688756
  0.5614294632861271  0.5391808788271790  0.2561382742462182
  0.6867751450971377  0.7913250264329809  0.8753068254327445
  0.5585779288127590  0.3671341814464076  0.1664783054677810
  0.4391540459763542  0.7906105962260468  0.7439858374774083
  0.8115191901628075  0.7061274767034867  0.5656588078119237
  0.5618441710360902  0.8723143705212044  0.7880541673743698
  0.6860708629401781  0.1218004774883597  0.5217222767741075
  0.8140944261319158  0.3746908567662694  0.6550003568248818
  0.9412683178217462  0.4612820413449278  0.8334327228569127
  0.0614530995396445  0.2074675480284644  0.6995305812263338
  0.4364795868052949  0.9571882691512067  0.6995364882341329
  0.3148376526828489  0.2098023499788701  0.8335648631602922
  0.4391206722348363  0.6240790875722241  0.6548525924899318
  0.3105630567925418  0.5389173122988385  0.6104831960302353
  0.9365559840570515  0.4557650196383259  0.5657264157561035
  0.6892595729610784  0.7909232719218142  0.7439281775186101
  0.9343152591762570  0.7851003596636965  0.1249975805860142
  0.6896653808400086  0.7876889916700809  0.3894987904831736
  0.9393206312604606  0.7904945610194822  0.7439400138709646
  0.0622270455615220  0.2039804641731009  0.3451082801285706
  0.8147112257196012  0.0382712230766348  0.3895179735614046
  0.4366599923250494  0.1223580434447948  0.7882171001120173
  0.0627208322771063  0.2048023568978250  0.2117558242245375
  0.0573204182400470  0.3665383906481134  0.1666286914823605
  0.9361013945867771  0.7891500045969673  0.2560716193322259
  0.5616503201601613  0.2071784425724831  0.6995762083862925
  0.6864453713826687  0.9574370372425972  0.6996257290991102
  0.8114979728909952  0.8725665357990461  0.7880279872744722
  0.4366756582612903  0.9560188663482933  0.5656638778076557
  0.8116499784716872  0.3728439711867169  0.7879563428145987
  0.6862352616963396  0.2888846448080128  0.2561911310621014
  0.1870762268021400  0.4560845122179411  0.5656463382823652
  0.0585475402818510  0.8668122756663529  0.1666116582744855
  0.1857573675653754  0.2887267290960603  0.6104988989878822
  0.1896452387124863  0.7880908424813294  0.3895338715615936
  0.3115221873916857  0.2073764485239037  0.6996179537843481
  0.5644346644697428  0.5421371770662163  0.8752462247516687
  0.0617338198960206  0.7060645283652491  0.5656176816053988
  0.6864497356996588  0.6227246384019340  0.7880430063891658
  0.3144298007540893  0.5382667292062354  0.3895520000850810
  0.1868748364123498  0.6223234779554259  0.5216554433828549
  0.5621398876432856  0.8710216845917429  0.4343812674574040
  0.4365802518254187  0.4568358982108357  0.5656442392037440
  0.4392417421217700  0.2907870037963650  0.7439266867432039
  0.8156849038633740  0.8737493446579370  0.3004067470600671
  0.8124957205542519  0.7038893215215426  0.3451791552334822
  0.4406256982933799  0.4599432297260730  0.8334497660017568
  0.6872054024940265  0.9549263032416841  0.4782479304801171
  0.6867055024408966  0.4571052093575801  0.6995679099761054
  0.5617620495351865  0.8722318232848211  0.5216997381063400
  0.5644973001475303  0.3740584030898286  0.6547855302413514
  0.8141703016882983  0.8738239003237188  0.6549096196137039
  0.8123125449445902  0.3711672086058615  0.4342798824877721
  0.8113550398132313  0.5385447605915102  0.2560795420417695
  0.6908475608925564  0.4601507658269971  0.8333544659478279
  0.1856897804399520  0.7846617070356940  0.1244836074406455
  0.6895083904744983  0.2875660514590901  0.3894740242381628
  0.3138966032148282  0.3743958972880242  0.6549307475371914
  0.3118774085593197  0.2041873156608355  0.3451437533168967
  0.8142506941353197  0.5402294902201555  0.7438161874470030
  0.6906949610031015  0.9603196165328827  0.8334373999455156
  0.5641584862885185  0.8737043900703346  0.6549344788867135
  0.3121937410238311  0.7062444833355669  0.5657009318316142
  0.3111109824496543  0.5352709747210026  0.1246347678855603
  0.6880660265064021  0.9549121422020299  0.2119358273953829
  0.3122723851963808  0.2062927326002039  0.5656027535571910
  0.1868463022133461  0.9545531256920224  0.4781346397099505
  0.6875207631544176  0.9557123699399501  0.5655913523679529
  0.4354366438990068  0.7892384836986409  0.6104212875137756
  0.6830334822622330  0.6151678065828038  0.1667392229315665
  0.3160561606479427  0.8731470858022741  0.3004066845759765
  0.3125079325842980  0.7045242397667807  0.4781678803668023
  0.9352153490104903  0.2886571135481298  0.6105157039919321
  0.4414403615677983  0.6235210419567937  0.3005710874641376
  0.8075761441483139  0.8659128797751827  0.1666999926846125
  0.5642134496926561  0.2050252623563321  0.2118640591377018
  0.9338390623208832  0.6150257410536449  0.1668189645246071
  0.4368924564082841  0.9545981207229953  0.4782554985137564
  0.5618659699083121  0.3721475913677215  0.7881241383665181
  0.0615350076279584  0.3727158615710831  0.5217081226400696
  0.3074558313281308  0.3651835404685670  0.1668298830144415
  0.6913479723518565  0.1240697721442459  0.3004913313678991
  0.4410292212420857  0.9599281654260511  0.8333551925458915
  0.1852176660356242  0.2850589302654200  0.1250311210305692
  0.1861120870436696  0.2884778914055843  0.2561537746422093
  0.3126147320493886  0.3714093207829185  0.4343089024941985
  0.5615472803698333  0.0336894581156182  0.1248502300698892
  0.4352632909356821  0.2890006353946582  0.6104218899474158
  0.1867798560936941  0.4540164985294442  0.3451215930452693
  0.4342762963528033  0.2851388502239832  0.1249938476972941
  0.6861962661767442  0.7891865059272072  0.2560906881385424
  0.4367489628337671  0.1224668311334032  0.5217206100433808
  0.1895868444577395  0.2914570960876629  0.8755387088789606
  0.1888812919464677  0.1243183501332922  0.6549664865526408
  0.9395438320437149  0.1241195386817758  0.6549203935084541
  0.8145167854041322  0.5381691941114940  0.3895283905187565
  0.0643634278116453  0.0383824726350744  0.3894801739615422
  0.1827803434997321  0.1154129053195112  0.1666129184189508
  0.0604228376894291  0.5385926766793571  0.6104505780857954
  0.9362466241752673  0.2887133123395446  0.2560689650408742
  0.5603371416993875  0.5390769773034497  0.6104039575131681
  0.9365797739586540  0.9556661387676932  0.5657073813623495
  0.6910838196559465  0.6243612078330970  0.3003458374450289
  0.9375063782454945  0.6213942392418913  0.4343135713855792
  0.9364391454422394  0.6239920901590329  0.7880356236490428
  0.5612950594891496  0.7068289993398893  0.6995485440316307
  0.0646171543084388  0.7117197881981874  0.8333891860079023
  0.9411512649697008  0.1240492497416477  0.3004250331606090
  0.9353009418188307  0.7886352080712947  0.6104989626376940
  0.4363668330166723  0.7890857925138649  0.2562045632971702
  0.3119018869981016  0.3719359822656640  0.7880932447737822
  0.4390628678304474  0.4553892244101037  0.2118383229598734
  0.1871202226661556  0.1218573257001890  0.5216952383624425
  0.8115697191771659  0.7073995053053619  0.6996172490100117
  0.0600113349048092  0.0386977540122022  0.6104518807697009
  0.5649498763680042  0.2099042682351314  0.8331879852653795
  0.3116469438308979  0.8722123647937614  0.5216719987187803
  0.6851369489113650  0.2853723459941055  0.1247442762524182
  0.1874382662727842  0.9558727743941959  0.2119811612801458
  0.6852265744454029  0.2890920114853764  0.6105049151600073
  0.3102082139621622  0.0388258186247845  0.6104481613652936
  0.9368219223622234  0.1236191712788278  0.7881032893848851
  0.4378157528157391  0.7905464407901469  0.8753179992632480
  0.8144063683809696  0.0406453248404441  0.7438538316210384
  0.9364949331209037  0.4572356623289764  0.6995815756071617
  0.1890453233630934  0.6239035098619450  0.6548924319072501
  0.3115266801795170  0.7071826393348719  0.6995442304739162
  0.9345259056310625  0.2847557042802895  0.1248446685134060
  0.4370878610669273  0.4546970501209818  0.4781856353318470
  0.0620641255847341  0.7044530722750164  0.4782580230333138
  0.9372310447719051  0.1212568866475522  0.4344997345359413
  0.4410454202778143  0.1236176811896080  0.3005505244420403
  0.1876424808378615  0.1210688399565355  0.4341766012395926
  0.5643793101423952  0.0415394340929230  0.8753333603940165
  0.1864661070785900  0.9557869216412466  0.5656509390147277
  0.6850850798773701  0.7850650991113028  0.1250729645661955
  0.5617430969828104  0.5336065805425386  0.1248076351544975
  0.3144538391083038  0.0383351934241914  0.3895134380921414
  0.6842358938233074  0.1167571906032800  0.1668517783049348
  0.8140128347153033  0.2044964835585990  0.2118467376378076
  0.0611749906169904  0.5389811832239338  0.2561517311573919
  0.5617600295078622  0.7048672222768905  0.4782298013932518
  0.4343797322158223  0.7846325749335298  0.1245973063042780
  0.5660367181243824  0.3740682109378972  0.3005211326869819
  0.4366798722678600  0.9546648828057955  0.3451693805664845
  0.1867160215652306  0.9576949455286298  0.6996133484859738
  0.4331328517410920  0.6168469395365276  0.1667781694861493
  0.9389701269474054  0.4555757022218819  0.2120150797496417
  0.0603547715295996  0.5331742388482894  0.1247582418100946
  0.8118539778324900  0.3729131106424294  0.5217866839093316
  0.9411098334535941  0.6236278896353387  0.3004702817806766
  0.3113127851554775  0.0382348350611855  0.2561977559216214
  0.6856567888798384  0.7888066109375015  0.6104422363137197
  0.1903494643165202  0.4607543425594014  0.8334802241112396
  0.4338630294098224  0.1154838388880900  0.1668125430774167
  0.3113159060206539  0.3724357219814279  0.5217887665356455
  0.4369506586431761  0.6223935913404941  0.7881906685807993
  0.0611211294758587  0.0386676793721085  0.2560579169913442
  0.5616992358521146  0.7063530766811660  0.5656783709213559
  0.9392372492126733  0.2897331676829268  0.7439136207473102
  0.6862898559056515  0.1227555074604920  0.7879962045717047
  0.1872938256493959  0.4555262430987065  0.2119083918509722
  0.9396448531135928  0.7883247885963512  0.3894159887523466
  0.6871553678838009  0.2916731982150279  0.8754186215261056
  0.5574910278778300  0.8664980778412917  0.1666793575284559
  0.4363974215227690  0.4569334847741638  0.6994827670343777
  0.9372358358003150  0.9544577913071635  0.3451048590877445
  0.6864728401990317  0.6225826269678280  0.5217242525373055
  0.0643201293822971  0.8735111548648922  0.6549974642990299
  0.0619330316697067  0.8728085681276760  0.7881231905633516
  0.0641571552587454  0.3741742368255137  0.6549201275577315
  0.6870702003145626  0.4546874726691038  0.4781826688257399
  0.1861413426116724  0.7892331745740634  0.2561819516224146
  0.4374053296235549  0.1210245101187667  0.4342929108951590
  0.8112736165590992  0.0350742336221949  0.1249118708384795
  0.9365792385894846  0.6221423603835058  0.5216624825877866
  0.0625455490187406  0.8714377886793360  0.4341904759715770
  0.8111648346999701  0.5342331950209326  0.1244874429362657
  0.4364820939484090  0.4542013013437348  0.3451485975546758
  0.8122677936101573  0.2046801318667190  0.3451287657386596
  0.3114895289487567  0.7046657511870960  0.3451245849688529
  0.6895763380029865  0.1242351550381182  0.6549045017637509
  0.5661438264019099  0.8741337800040953  0.3004032666152157
  0.0636725825740948  0.5398227328604815  0.7438456317410972
  0.9390298549296092  0.9550870352082841  0.2118968955341373
  0.8138197884417282  0.7047354939472191  0.2117480545984115
  0.0660608270971216  0.8736850664178892  0.3004900603811669
  0.1910732441187534  0.1235366284426439  0.3004517181655768
  0.0617425992755070  0.7045806588400317  0.3451606730600039
  0.8110147376866325  0.0389370576560080  0.6104035291775223
  0.0625113177629736  0.3714847869333585  0.4341639554600532
  0.5615834785390849  0.2039742901062299  0.3451873688022288
  0.8163609652757815  0.3737530220370024  0.3002617376756465
  0.5614819729687561  0.0393526200052207  0.2561109810957855
  0.5645162294894420  0.5378678828928953  0.3895246303944755
  0.0623091460148699  0.2049641583200919  0.4783044617443225
  0.3121741651258512  0.8717703528027099  0.7878940341456273
  0.9364803006450476  0.9575733759874008  0.6995481346097624
  0.0661331165483878  0.3738346096838284  0.3004855644703628
  0.6896410036101988  0.6241711575239997  0.6549058995556788
  0.6867631137378170  0.4562646324830523  0.5657025372089232
  0.4391449711947288  0.9557281589916622  0.2120702650203578
  0.3120438080579324  0.2046827420172018  0.4781235849631716
  0.8134628368316889  0.5416840656978253  0.8753101596750401
  0.6873684104593607  0.6211106066120852  0.4343030658358812
  0.8117375604774250  0.2073715254761099  0.6996085247144174
  0.8121269700326424  0.7044565859813959  0.4782120120695298
  0.8125047741490380  0.8713241141112427  0.4342264299902786
  0.9374217451100489  0.9542414098192382  0.4781862819158801
  0.5620059197121102  0.2050726853589790  0.4781726025457510
  0.1876677732833692  0.6211799673912364  0.4342613204161128
  0.3138936079730271  0.0408509066796535  0.7439260424277938
  0.9390932482239969  0.6241980352177317  0.6548735262696649
  0.5651458036447277  0.7099620181025408  0.8331911742404589
  0.3158204464660880  0.3733348304362751  0.3004756938012458
  0.5639962508069917  0.7051386370083582  0.2117603594966846
  0.1871399810419897  0.4545102886486247  0.4781882018028100
  0.3148201331431097  0.0432320637937263  0.8752380287111439
  0.1862878498091949  0.4572806786665891  0.6995546473269697
  0.5617067361311832  0.3722585565182240  0.5217742970467081
  0.1896045494210161  0.2880223251463797  0.3895255529018236
  0.4372522772046198  0.6211281011290490  0.4343919153886781
  0.0634272561318970  0.7050932495818034  0.2117660400560599
  0.5622252438827713  0.3710111837629004  0.4343674799370947
  0.4365232388956015  0.6224183129904042  0.5217453278890957
  0.8157049190911027  0.7111000827703919  0.8330896609138694
  0.0622400441075278  0.3733709803835715  0.7880096074319228
  0.4377207287496110  0.2917375109090813  0.8755177615238446
  0.3107981850268629  0.0342534890352762  0.1243558277781164
  0.6873581998659323  0.1207457512233547  0.4342116689470910
  0.1868273852746594  0.9545835010720730  0.3451751971322712
  0.0649472892716619  0.2107180096684529  0.8333529271804373
  0.5604434560559962  0.0389252692845194  0.6103946488227801
  0.6878079106863081  0.4554043988215771  0.2119647986832876
  0.1889168279990922  0.7904253948558843  0.7438735402870136
  0.1911392587265305  0.6233970740697857  0.3004409480578997
  0.4391820771490745  0.7882158453256227  0.3895519638065151
  0.4361049179979045  0.2889772580656437  0.2560300162138755
  0.0657497670510459  0.5419381644730645  0.8753025572002053
  0.5647517785238126  0.0409048288968821  0.7439718822453072
  0.1887592336327448  0.7912361280307849  0.8754392786713823
  0.9370408282910521  0.4544227115159026  0.4782314007670788
  0.5647385592493808  0.5405427160415173  0.7438483378479193
  0.8111406665834917  0.2061522364039635  0.5656888986787183
  0.1868574785814534  0.6229920110958515  0.7880768767699086
  0.0647502866174065  0.5382072906249440  0.3894603496153436
  0.0616516529628863  0.7074557698840045  0.6995456358175602
  0.3107710744793927  0.5380714797269345  0.2559311821114767
  0.3139682604374290  0.7051539332438334  0.2120001252668674
  0.3071282318369576  0.8661634831616455  0.1661418566165867
  0.3141186938888249  0.2056311725756196  0.2120542402339891
  0.6866813646234570  0.4534358402200924  0.3450596298670454
  0.9366820500823652  0.2924661515232803  0.8754219752839097
  0.9375643757229286  0.7895548805754223  0.8752767555524662
  0.0655638480309717  0.0406332626679180  0.8751748850970248
  0.5611503706237209  0.7050849818292340  0.3451588576779704
  0.8075688146954033  0.3662375110576448  0.1662749693648410
  0.4395863347622516  0.1243120324412938  0.6547557471749910
  0.9367464694836970  0.1223307716287355  0.5214619740272836
  0.0624793585239644  0.2065872520559899  0.5658941466308101
  0.3143918628308939  0.5400887249789889  0.7439947407679639
 
  0.00000000E+00  0.00000000E+00  0.00000000E+00
  0.00000000E+00  0.00000000E+00  0.00000000E+00
  0.00000000E+00  0.00000000E+00  0.00000000E+00
  0.00000000E+00  0.00000000E+00  0.00000000E+00
  0.00000000E+00  0.00000000E+00  0.00000000E+00
  0.00000000E+00  0.00000000E+00  0.00000000E+00
  0.00000000E+00  0.00000000E+00  0.00000000E+00
  0.00000000E+00  0.00000000E+00  0.00000000E+00
  0.00000000E+00  0.00000000E+00  0.00000000E+00
  0.00000000E+00  0.00000000E+00  0.00000000E+00
  0.00000000E+00  0.00000000E+00  0.00000000E+00
  0.00000000E+00  0.00000000E+00  0.00000000E+00
  0.00000000E+00  0.00000000E+00  0.00000000E+00
  0.00000000E+00  0.00000000E+00  0.00000000E+00
  0.00000000E+00  0.00000000E+00  0.00000000E+00
  0.00000000E+00  0.00000000E+00  0.00000000E+00
  0.00000000E+00  0.00000000E+00  0.00000000E+00
  0.00000000E+00  0.00000000E+00  0.00000000E+00
  0.00000000E+00  0.00000000E+00  0.00000000E+00
  0.00000000E+00  0.00000000E+00  0.00000000E+00
  0.00000000E+00  0.00000000E+00  0.00000000E+00
  0.00000000E+00  0.00000000E+00  0.00000000E+00
  0.00000000E+00  0.00000000E+00  0.00000000E+00
  0.00000000E+00  0.00000000E+00  0.00000000E+00
  0.00000000E+00  0.00000000E+00  0.00000000E+00
  0.00000000E+00  0.00000000E+00  0.00000000E+00
  0.00000000E+00  0.00000000E+00  0.00000000E+00
  0.00000000E+00  0.00000000E+00  0.00000000E+00
  0.00000000E+00  0.00000000E+00  0.00000000E+00
  0.00000000E+00  0.00000000E+00  0.00000000E+00
  0.00000000E+00  0.00000000E+00  0.00000000E+00
  0.00000000E+00  0.00000000E+00  0.00000000E+00
  0.00000000E+00  0.00000000E+00  0.00000000E+00
  0.00000000E+00  0.00000000E+00  0.00000000E+00
  0.00000000E+00  0.00000000E+00  0.00000000E+00
  0.00000000E+00  0.00000000E+00  0.00000000E+00
  0.00000000E+00  0.00000000E+00  0.00000000E+00
  0.00000000E+00  0.00000000E+00  0.00000000E+00
  0.00000000E+00  0.00000000E+00  0.00000000E+00
  0.00000000E+00  0.00000000E+00  0.00000000E+00
  0.00000000E+00  0.00000000E+00  0.00000000E+00
  0.00000000E+00  0.00000000E+00  0.00000000E+00
  0.00000000E+00  0.00000000E+00  0.00000000E+00
  0.00000000E+00  0.00000000E+00  0.00000000E+00
  0.00000000E+00  0.00000000E+00  0.00000000E+00
  0.00000000E+00  0.00000000E+00  0.00000000E+00
  0.00000000E+00  0.00000000E+00  0.00000000E+00
  0.00000000E+00  0.00000000E+00  0.00000000E+00
  0.00000000E+00  0.00000000E+00  0.00000000E+00
  0.00000000E+00  0.00000000E+00  0.00000000E+00
  0.00000000E+00  0.00000000E+00  0.00000000E+00
  0.00000000E+00  0.00000000E+00  0.00000000E+00
  0.00000000E+00  0.00000000E+00  0.00000000E+00
  0.00000000E+00  0.00000000E+00  0.00000000E+00
  0.00000000E+00  0.00000000E+00  0.00000000E+00
  0.00000000E+00  0.00000000E+00  0.00000000E+00
  0.00000000E+00  0.00000000E+00  0.00000000E+00
  0.00000000E+00  0.00000000E+00  0.00000000E+00
  0.00000000E+00  0.00000000E+00  0.00000000E+00
  0.00000000E+00  0.00000000E+00  0.00000000E+00
  0.00000000E+00  0.00000000E+00  0.00000000E+00
  0.00000000E+00  0.00000000E+00  0.00000000E+00
  0.00000000E+00  0.00000000E+00  0.00000000E+00
  0.00000000E+00  0.00000000E+00  0.00000000E+00
  0.00000000E+00  0.00000000E+00  0.00000000E+00
  0.00000000E+00  0.00000000E+00  0.00000000E+00
  0.00000000E+00  0.00000000E+00  0.00000000E+00
  0.00000000E+00  0.00000000E+00  0.00000000E+00
  0.00000000E+00  0.00000000E+00  0.00000000E+00
  0.00000000E+00  0.00000000E+00  0.00000000E+00
  0.00000000E+00  0.00000000E+00  0.00000000E+00
  0.00000000E+00  0.00000000E+00  0.00000000E+00
  0.00000000E+00  0.00000000E+00  0.00000000E+00
  0.00000000E+00  0.00000000E+00  0.00000000E+00
  0.00000000E+00  0.00000000E+00  0.00000000E+00
  0.00000000E+00  0.00000000E+00  0.00000000E+00
  0.00000000E+00  0.00000000E+00  0.00000000E+00
  0.00000000E+00  0.00000000E+00  0.00000000E+00
  0.00000000E+00  0.00000000E+00  0.00000000E+00
  0.00000000E+00  0.00000000E+00  0.00000000E+00
  0.00000000E+00  0.00000000E+00  0.00000000E+00
  0.00000000E+00  0.00000000E+00  0.00000000E+00
  0.00000000E+00  0.00000000E+00  0.00000000E+00
  0.00000000E+00  0.00000000E+00  0.00000000E+00
  0.00000000E+00  0.00000000E+00  0.00000000E+00
  0.00000000E+00  0.00000000E+00  0.00000000E+00
  0.00000000E+00  0.00000000E+00  0.00000000E+00
  0.00000000E+00  0.00000000E+00  0.00000000E+00
  0.00000000E+00  0.00000000E+00  0.00000000E+00
  0.00000000E+00  0.00000000E+00  0.00000000E+00
  0.00000000E+00  0.00000000E+00  0.00000000E+00
  0.00000000E+00  0.00000000E+00  0.00000000E+00
  0.00000000E+00  0.00000000E+00  0.00000000E+00
  0.00000000E+00  0.00000000E+00  0.00000000E+00
  0.00000000E+00  0.00000000E+00  0.00000000E+00
  0.00000000E+00  0.00000000E+00  0.00000000E+00
  0.00000000E+00  0.00000000E+00  0.00000000E+00
  0.00000000E+00  0.00000000E+00  0.00000000E+00
  0.00000000E+00  0.00000000E+00  0.00000000E+00
  0.00000000E+00  0.00000000E+00  0.00000000E+00
  0.00000000E+00  0.00000000E+00  0.00000000E+00
  0.00000000E+00  0.00000000E+00  0.00000000E+00
  0.00000000E+00  0.00000000E+00  0.00000000E+00
  0.00000000E+00  0.00000000E+00  0.00000000E+00
  0.00000000E+00  0.00000000E+00  0.00000000E+00
  0.00000000E+00  0.00000000E+00  0.00000000E+00
  0.00000000E+00  0.00000000E+00  0.00000000E+00
  0.00000000E+00  0.00000000E+00  0.00000000E+00
  0.00000000E+00  0.00000000E+00  0.00000000E+00
  0.00000000E+00  0.00000000E+00  0.00000000E+00
  0.00000000E+00  0.00000000E+00  0.00000000E+00
  0.00000000E+00  0.00000000E+00  0.00000000E+00
  0.00000000E+00  0.00000000E+00  0.00000000E+00
  0.00000000E+00  0.00000000E+00  0.00000000E+00
  0.00000000E+00  0.00000000E+00  0.00000000E+00
  0.00000000E+00  0.00000000E+00  0.00000000E+00
  0.00000000E+00  0.00000000E+00  0.00000000E+00
  0.00000000E+00  0.00000000E+00  0.00000000E+00
  0.00000000E+00  0.00000000E+00  0.00000000E+00
  0.00000000E+00  0.00000000E+00  0.00000000E+00
  0.00000000E+00  0.00000000E+00  0.00000000E+00
  0.00000000E+00  0.00000000E+00  0.00000000E+00
  0.00000000E+00  0.00000000E+00  0.00000000E+00
  0.00000000E+00  0.00000000E+00  0.00000000E+00
  0.00000000E+00  0.00000000E+00  0.00000000E+00
  0.00000000E+00  0.00000000E+00  0.00000000E+00
  0.00000000E+00  0.00000000E+00  0.00000000E+00
  0.00000000E+00  0.00000000E+00  0.00000000E+00
  0.00000000E+00  0.00000000E+00  0.00000000E+00
  0.00000000E+00  0.00000000E+00  0.00000000E+00
  0.00000000E+00  0.00000000E+00  0.00000000E+00
  0.00000000E+00  0.00000000E+00  0.00000000E+00
  0.00000000E+00  0.00000000E+00  0.00000000E+00
  0.00000000E+00  0.00000000E+00  0.00000000E+00
  0.00000000E+00  0.00000000E+00  0.00000000E+00
  0.00000000E+00  0.00000000E+00  0.00000000E+00
  0.00000000E+00  0.00000000E+00  0.00000000E+00
  0.00000000E+00  0.00000000E+00  0.00000000E+00
  0.00000000E+00  0.00000000E+00  0.00000000E+00
  0.00000000E+00  0.00000000E+00  0.00000000E+00
  0.00000000E+00  0.00000000E+00  0.00000000E+00
  0.00000000E+00  0.00000000E+00  0.00000000E+00
  0.00000000E+00  0.00000000E+00  0.00000000E+00
  0.00000000E+00  0.00000000E+00  0.00000000E+00
  0.00000000E+00  0.00000000E+00  0.00000000E+00
  0.00000000E+00  0.00000000E+00  0.00000000E+00
  0.00000000E+00  0.00000000E+00  0.00000000E+00
  0.00000000E+00  0.00000000E+00  0.00000000E+00
  0.00000000E+00  0.00000000E+00  0.00000000E+00
  0.00000000E+00  0.00000000E+00  0.00000000E+00
  0.00000000E+00  0.00000000E+00  0.00000000E+00
  0.00000000E+00  0.00000000E+00  0.00000000E+00
  0.00000000E+00  0.00000000E+00  0.00000000E+00
  0.00000000E+00  0.00000000E+00  0.00000000E+00
  0.00000000E+00  0.00000000E+00  0.00000000E+00
  0.00000000E+00  0.00000000E+00  0.00000000E+00
  0.00000000E+00  0.00000000E+00  0.00000000E+00
  0.00000000E+00  0.00000000E+00  0.00000000E+00
  0.00000000E+00  0.00000000E+00  0.00000000E+00
  0.00000000E+00  0.00000000E+00  0.00000000E+00
  0.00000000E+00  0.00000000E+00  0.00000000E+00
  0.00000000E+00  0.00000000E+00  0.00000000E+00
  0.00000000E+00  0.00000000E+00  0.00000000E+00
  0.00000000E+00  0.00000000E+00  0.00000000E+00
  0.00000000E+00  0.00000000E+00  0.00000000E+00
  0.00000000E+00  0.00000000E+00  0.00000000E+00
  0.00000000E+00  0.00000000E+00  0.00000000E+00
  0.00000000E+00  0.00000000E+00  0.00000000E+00
  0.00000000E+00  0.00000000E+00  0.00000000E+00
  0.00000000E+00  0.00000000E+00  0.00000000E+00
  0.00000000E+00  0.00000000E+00  0.00000000E+00
  0.00000000E+00  0.00000000E+00  0.00000000E+00
  0.00000000E+00  0.00000000E+00  0.00000000E+00
  0.00000000E+00  0.00000000E+00  0.00000000E+00
  0.00000000E+00  0.00000000E+00  0.00000000E+00
  0.00000000E+00  0.00000000E+00  0.00000000E+00
  0.00000000E+00  0.00000000E+00  0.00000000E+00
  0.00000000E+00  0.00000000E+00  0.00000000E+00
  0.00000000E+00  0.00000000E+00  0.00000000E+00
  0.00000000E+00  0.00000000E+00  0.00000000E+00
  0.00000000E+00  0.00000000E+00  0.00000000E+00
  0.00000000E+00  0.00000000E+00  0.00000000E+00
  0.00000000E+00  0.00000000E+00  0.00000000E+00
  0.00000000E+00  0.00000000E+00  0.00000000E+00
  0.00000000E+00  0.00000000E+00  0.00000000E+00
  0.00000000E+00  0.00000000E+00  0.00000000E+00
  0.00000000E+00  0.00000000E+00  0.00000000E+00
  0.00000000E+00  0.00000000E+00  0.00000000E+00
  0.00000000E+00  0.00000000E+00  0.00000000E+00
  0.00000000E+00  0.00000000E+00  0.00000000E+00
  0.00000000E+00  0.00000000E+00  0.00000000E+00
  0.00000000E+00  0.00000000E+00  0.00000000E+00
  0.00000000E+00  0.00000000E+00  0.00000000E+00
  0.00000000E+00  0.00000000E+00  0.00000000E+00
  0.00000000E+00  0.00000000E+00  0.00000000E+00
  0.00000000E+00  0.00000000E+00  0.00000000E+00
  0.00000000E+00  0.00000000E+00  0.00000000E+00
  0.00000000E+00  0.00000000E+00  0.00000000E+00
  0.00000000E+00  0.00000000E+00  0.00000000E+00
  0.00000000E+00  0.00000000E+00  0.00000000E+00
  0.00000000E+00  0.00000000E+00  0.00000000E+00
  0.00000000E+00  0.00000000E+00  0.00000000E+00
  0.00000000E+00  0.00000000E+00  0.00000000E+00
  0.00000000E+00  0.00000000E+00  0.00000000E+00
  0.00000000E+00  0.00000000E+00  0.00000000E+00
  0.00000000E+00  0.00000000E+00  0.00000000E+00
  0.00000000E+00  0.00000000E+00  0.00000000E+00
  0.00000000E+00  0.00000000E+00  0.00000000E+00
  0.00000000E+00  0.00000000E+00  0.00000000E+00
  0.00000000E+00  0.00000000E+00  0.00000000E+00
  0.00000000E+00  0.00000000E+00  0.00000000E+00
  0.00000000E+00  0.00000000E+00  0.00000000E+00
  0.00000000E+00  0.00000000E+00  0.00000000E+00
  0.00000000E+00  0.00000000E+00  0.00000000E+00
  0.00000000E+00  0.00000000E+00  0.00000000E+00
  0.00000000E+00  0.00000000E+00  0.00000000E+00
  0.00000000E+00  0.00000000E+00  0.00000000E+00
  0.00000000E+00  0.00000000E+00  0.00000000E+00
  0.00000000E+00  0.00000000E+00  0.00000000E+00
  0.00000000E+00  0.00000000E+00  0.00000000E+00
  0.00000000E+00  0.00000000E+00  0.00000000E+00
  0.00000000E+00  0.00000000E+00  0.00000000E+00
  0.00000000E+00  0.00000000E+00  0.00000000E+00
  0.00000000E+00  0.00000000E+00  0.00000000E+00
  0.00000000E+00  0.00000000E+00  0.00000000E+00
  0.00000000E+00  0.00000000E+00  0.00000000E+00
  0.00000000E+00  0.00000000E+00  0.00000000E+00
  0.00000000E+00  0.00000000E+00  0.00000000E+00
  0.00000000E+00  0.00000000E+00  0.00000000E+00
  0.00000000E+00  0.00000000E+00  0.00000000E+00
  0.00000000E+00  0.00000000E+00  0.00000000E+00
  0.00000000E+00  0.00000000E+00  0.00000000E+00
  0.00000000E+00  0.00000000E+00  0.00000000E+00
  0.00000000E+00  0.00000000E+00  0.00000000E+00
  0.00000000E+00  0.00000000E+00  0.00000000E+00
  0.00000000E+00  0.00000000E+00  0.00000000E+00
  0.00000000E+00  0.00000000E+00  0.00000000E+00
  0.00000000E+00  0.00000000E+00  0.00000000E+00
  0.00000000E+00  0.00000000E+00  0.00000000E+00
  0.00000000E+00  0.00000000E+00  0.00000000E+00
  0.00000000E+00  0.00000000E+00  0.00000000E+00
  0.00000000E+00  0.00000000E+00  0.00000000E+00
  0.00000000E+00  0.00000000E+00  0.00000000E+00
  0.00000000E+00  0.00000000E+00  0.00000000E+00
  0.00000000E+00  0.00000000E+00  0.00000000E+00
  0.00000000E+00  0.00000000E+00  0.00000000E+00
  0.00000000E+00  0.00000000E+00  0.00000000E+00