CuInSe2gb                               
   1.00000000000000     
     9.7266780392896699    0.0000000000000000    0.0000000000000000
     0.0000000000000000    8.4235502764570693    0.0000000000000000
     0.0000000000000000    0.0000000000000000   45.0000000000000000
   Fe   Mn
   274    14
Direct
  0.0621077696631217  0.0322595151482543  0.1243723273993712
  0.3168530448404925  0.8748813765977654  0.6548394888131920
  0.1853124586732265  0.1211240712178950  0.7883181776604327
  0.4413862732346456  0.2876228046041772  0.3890984933978814
  0.3175894559305275  0.7120710409213857  0.8328062652058454
  0.8174689507453127  0.2138095589468748  0.8333434920193884
  0.1915444043456085  0.9629015068406523  0.8331875281451493
  0.5625647755470803  0.2070509912158185  0.5655053296609215
  0.0658968158259296  0.0388045634868714  0.7438729627821850
  0.8114585570883687  0.8712426962238773  0.5213285049480829
  0.1910613207744146  0.2902640404559185  0.7439762527780076
  0.9343247056457729  0.4524468799706788  0.3450461647633776
  0.9408373698690612  0.2878920497977713  0.3890840648601879
  0.8120464999038768  0.0381758307512534  0.8754261362584035
  0.1833759269178720  0.7880948063326563  0.6108603995507468
  0.5662086422986894  0.0378856458937416  0.3891867922165048
  0.9417002655246489  0.9627857074379784  0.8335055391286655
  0.3150351168255865  0.5379083179705136  0.8756916392225578
  0.6908057076242125  0.2900961992553593  0.7439162663332793
  0.1831762100160198  0.6137467539118774  0.1666961632689362
  0.8115779441173805  0.2055377292351429  0.4786495099827138
  0.8085894728163738  0.5378070318821211  0.6108857154893657
  0.3119280246651904  0.8705092191283755  0.4344515943882728
  0.8092076044077210  0.0384863429234335  0.2562261517506401
  0.6835346204094760  0.9523704950055302  0.3450763143666739
  0.9312548117891913  0.1148549199071221  0.1672462829164652
  0.0615571026338556  0.8711882423873879  0.5213973524913464
  0.5592000791402799  0.5390622959280635  0.2560169040204617
  0.6848788122600421  0.7942273255368986  0.8754277374975005
  0.5572901714092481  0.3644118973075712  0.1667448184390413
  0.4399824589101423  0.7900824434672660  0.7440849252702486
  0.8113926028505039  0.7065192274153189  0.5654687722890755
  0.5606859271267424  0.8714588439485000  0.7882530999942731
  0.6862878419255011  0.1214749502717964  0.5213494633551666
  0.8162074994179150  0.3749711197736152  0.6549589640361128
  0.9415126693945088  0.4627137869533497  0.8335138567241808
  0.0600379878548221  0.2079620720083902  0.6995400741592067
  0.4348900967116248  0.9581790326191966  0.6995383778163609
  0.3164789305443409  0.2117151926346841  0.8333297945106092
  0.4414181243514325  0.6248344632328178  0.6548751136816866
  0.3087886507044193  0.5378656962099886  0.6108953637207661
  0.9371022639986472  0.4570053453047168  0.5655484568724429
  0.6903078184889523  0.7907580566877461  0.7439808673218814
  0.9338755028778610  0.7880548463452480  0.1246268062463551
  0.6912460997985033  0.7874901733157579  0.3891066240724970
  0.9406723401886747  0.7899960836424574  0.7441215271187234
  0.0596133326908514  0.2028082862589516  0.3450058564065760
  0.8157483972338729  0.0381313218636085  0.3891672274353902
  0.4354091807914302  0.1211224384295487  0.7885541762694361
  0.0648822673532029  0.2053851410909928  0.2118331116656536
  0.0557514310864223  0.3650981505155635  0.1667729204304313
  0.9339255953443968  0.7895281157978209  0.2560831275465249
  0.5601687814674425  0.2077958187428517  0.6995750035057896
  0.6849135807798085  0.9580326737072965  0.6996115008374439
  0.8100725307072479  0.8716717985102250  0.7880937197945730
  0.4366824574314447  0.9569435490687225  0.5654359950642808
  0.8107688001396731  0.3720110276197192  0.7881258102932450
  0.6843289313039078  0.2898074267411644  0.2560435225519511
  0.1868223252646564  0.4572252256939787  0.5654091018395312
  0.0563990846276785  0.8649619163825029  0.1668327554723514
  0.1837208453184063  0.2880610024346531  0.6108099808828112
  0.1901755372835086  0.7884890360588487  0.3892306098349269
  0.3104258074646879  0.2078550813573783  0.6996291293325591
  0.5637371849075410  0.5374831847025150  0.8756415954433923
  0.0618311405477010  0.7062407770056141  0.5654930031941312
  0.6851470808600910  0.6210647910166861  0.7880346091623246
  0.3160232443061627  0.5380895967864283  0.3888890171998923
  0.1866090044158520  0.6211498741258975  0.5212862927649637
  0.5622263791148564  0.8708351586515832  0.4345151326851657
  0.4368199463753289  0.4575434626018904  0.5654015226034889
  0.4401501367575337  0.2905593334681644  0.7438881748700384
  0.8190954305187661  0.8748027010728401  0.3004627573867842
  0.8089927951828989  0.7026827830291164  0.3450776948382569
  0.4422253381764928  0.4621400546094281  0.8331538863708717
  0.6872864282818912  0.9557446815894758  0.4785815063716473
  0.6850583255352217  0.4576245663058968  0.6995969678329178
  0.5616171634241272  0.8715665705541714  0.5213733963928368
  0.5664631045787418  0.3745244088252902  0.6548357900119411
  0.8163908653679923  0.8745935956636904  0.6549163878387244
  0.8124934610799329  0.3717498328800364  0.4344235401841964
  0.8095179881253864  0.5389327169201106  0.2560514355877924
  0.6919803066994324  0.4609330844700704  0.8331391480915632
  0.1862667826282597  0.7871302490118286  0.1242593093520727
  0.6908296159025710  0.2875450103006114  0.3889629169992571
  0.3167902265780554  0.3742785012368593  0.6549352316180951
  0.3094432870824259  0.2032853147066345  0.3451000516409665
  0.8156280713181308  0.5400041668975208  0.7439925249053498
  0.6918180959025612  0.9611315595814399  0.8331178046140491
  0.5661932822342555  0.8747376298789884  0.6549180088386076
  0.3117344903757649  0.7067656444598041  0.5654125159449604
  0.3121327975521049  0.5331298503352422  0.1244153739405567
  0.6889564394728636  0.9571170911409160  0.2118584539505897
  0.3113101530353132  0.2064800446667715  0.5654166599458648
  0.1869700788824369  0.9554746225042926  0.4785202310041526
  0.6878145798756513  0.9572137974754151  0.5653748559976178
  0.4336439393140442  0.7879471519378161  0.6108927884444035
  0.6830173658479036  0.6126273267671782  0.1668240847474085
  0.3188524380644505  0.8745492616241776  0.3004078617237295
  0.3122442044313342  0.7056386739242433  0.4786549800336665
  0.9335821528564890  0.2877922265567732  0.6107730856990961
  0.4441927895001979  0.6250711494777521  0.3005966069221355
  0.8065824610096187  0.8642243696192333  0.1671067123785001
  0.5653040276394765  0.2047332114052315  0.2116828441149799
  0.9320387863019723  0.6132314786338304  0.1668411176752384
  0.4371833064951334  0.9557725483744289  0.4786607019122435
  0.5603511369337799  0.3705629938282071  0.7882940567958194
  0.0611233976180495  0.3715608655060827  0.5214007778798276
  0.3068818318597403  0.3623315758759484  0.1672782432875211
  0.6943550795833473  0.1246118876247117  0.3004593804627280
  0.4427710587812559  0.9617008187456425  0.8330876147178764
  0.1844645937733824  0.2874924159959646  0.1246132372923910
  0.1840767929353746  0.2895342724542967  0.2560134856285458
  0.3120160763562791  0.3702898750558751  0.4344768076768623
  0.5628217527079934  0.0326916517633779  0.1245960749079554
  0.4336896649427329  0.2878135257491387  0.6108544491544883
  0.1845142498472272  0.4530473417547802  0.3450892672390548
  0.4343487092436040  0.2874340343824199  0.1246489141105920
  0.6843939123275510  0.7896982789870597  0.2559967350137426
  0.4364839385054426  0.1213936243558097  0.5213764056495213
  0.1887086888244285  0.2934876056667537  0.8757298166302878
  0.1911962519901838  0.1250654964963532  0.6549314503295350
  0.9416121926344246  0.1249910369931171  0.6549203485625692
  0.8152214325850878  0.5381370933416241  0.3892763151578554
  0.0656535480979265  0.0385215230206612  0.3890736453601306
  0.1831716078287831  0.1126572640092948  0.1665217151411260
  0.0586626303671625  0.5379989187066457  0.6108707597354289
  0.9345236744609684  0.2895705225329647  0.2559927469110344
  0.5588402896223541  0.5381425878410429  0.6107968060147163
  0.9371953330140468  0.9572000028550801  0.5653871983670928
  0.6941402536733240  0.6249377893327480  0.3003859562465819
  0.9372753059643439  0.6205409296878115  0.4344870434166594
  0.9347262094437521  0.6221605688918920  0.7879620830440998
  0.5601779076809773  0.7077652972518266  0.6995860175457540
  0.0653827766722988  0.7149252249275867  0.8336117537415326
  0.9442787213362116  0.1243759726244505  0.3004284588852865
  0.9338999536339211  0.7878144349147694  0.6108874239954823
  0.4341860733312585  0.7895567140623942  0.2560212313740680
  0.3105715252425764  0.3713897995438520  0.7881943868405369
  0.4398871301925075  0.4571006077902177  0.2118322990917415
  0.1866474333864591  0.1208387129803035  0.5212258330068222
  0.8098867467208546  0.7080250642157850  0.6995771223781150
  0.0585921783313821  0.0378244291808589  0.6109004441259621
  0.5654120940699173  0.2125104521491702  0.8329225137963666
  0.3112203209497611  0.8713918027213025  0.5213479571253539
  0.6860018426657236  0.2890641962046828  0.1244391269738659
  0.1894387090081149  0.9574650399195078  0.2120778826702080
  0.6836589545703725  0.2882748926339374  0.6108545911527102
  0.3087826945559660  0.0379720625269177  0.6109482649548161
  0.9355294909351728  0.1224632120119613  0.7883067608602486
  0.4369389936507032  0.7933419883148772  0.8755705001095662
  0.8155743356113354  0.0402769291322332  0.7438984888793543
  0.9348387510290965  0.4580926006463775  0.6996175276583202
  0.1912954532371030  0.6252440130962399  0.6549669424832482
  0.3103277209334883  0.7077649340629548  0.6995413215875083
  0.9344859144311367  0.2877854022712954  0.1245487890373843
  0.4370901071695509  0.4556143420751996  0.4786511405290005
  0.0621348250794386  0.7055145498795964  0.4784320172554891
  0.9371690882993461  0.1210322945697748  0.4345516062428233
  0.4440583566780800  0.1252109746725158  0.3005112490422120
  0.1877693926171786  0.1205224389305293  0.4344122200830512
  0.5625911145140488  0.0367291154252001  0.8758100100568510
  0.1867383486108922  0.9572970152672526  0.5654220370412583
  0.6858925306877329  0.7887917313849282  0.1245686924558906
  0.5628386835312117  0.5324666346601004  0.1244363517620362
  0.3148986337324682  0.0384092011606519  0.3892324842972807
  0.6824946751238539  0.1146805479256533  0.1672533323135539
  0.8152438127818591  0.2049215805352485  0.2116271856870401
  0.0598540633045377  0.5393674285106830  0.2560480712354133
  0.5622553268277074  0.7055677609307999  0.4786311180602175
  0.4344078504085492  0.7871835035445831  0.1244304845110418
  0.5692798536918230  0.3748377772284442  0.3004819626563126
  0.4342725624472167  0.9526392546140368  0.3450657032222977
  0.1851807448569018  0.9579442438530984  0.6996978637233451
  0.4297049279612888  0.6162431569892786  0.1667797108217226
  0.9393412977045260  0.4570487281392603  0.2121239128519793
  0.0621471747568685  0.5323316738664797  0.1245294320709640
  0.8117417950348719  0.3711721744275667  0.5212967102221066
  0.9441006417831714  0.6245568788082559  0.3004473955880277
  0.3099878316895003  0.0390948983807627  0.2559360067021315
  0.6835904345610742  0.7879473637540915  0.6108675133301005
  0.1918298280105208  0.4626731030174566  0.8331540989942685
  0.4318245494756434  0.1134958494250014  0.1666726734858713
  0.3111876628096426  0.3712096873169762  0.5212899387963893
  0.4350397039250538  0.6203994270478220  0.7882997541125939
  0.0588521634096124  0.0387191877145123  0.2562226458899595
  0.5621501564847340  0.7071759127584358  0.5654244869062188
  0.9402821408308328  0.2896229127491877  0.7439940988310724
  0.6842535732182918  0.1210058845783849  0.7882359586114474
  0.1891882858308244  0.4571450750299902  0.2118336810924422
  0.9411276442592276  0.7879700245756954  0.3889553615975516
  0.6862842060757355  0.2952365098078590  0.8756944068309542
  0.5560989988187085  0.8649975623930658  0.1668866636925766
  0.4352171245322801  0.4575054835326159  0.6994388430277755
  0.9347239863877790  0.9529619465244077  0.3450585407408630
  0.6862814004560426  0.6212700031623859  0.5212858500216002
  0.0661358683729591  0.8742602043501928  0.6549157240236809
  0.0605987746697631  0.8721655129679391  0.7881986307539915
  0.0662969045816015  0.3750017525459739  0.6549088096574995
  0.6868481624545081  0.4555311478776151  0.4786995047677549
  0.1841676314496477  0.7895100561828097  0.2559986364272613
  0.4372679550842311  0.1208571175749933  0.4344851728542113
  0.8122943477845311  0.0322654754731839  0.1243878005744154
  0.9365330254469456  0.6212363638188677  0.5213250801421107
  0.0624478248242352  0.8703108614756030  0.4344515493049004
  0.8121634463619619  0.5320325898596877  0.1243086938272760
  0.4341221061791648  0.4532661980352172  0.3452308762365687
  0.8101486792769108  0.2041658306651832  0.3449602957475129
  0.3099484632053342  0.7034559947105927  0.3450440853751131
  0.6912510643025296  0.1250141219781420  0.6548791696723301
  0.5693569070548279  0.8748773447489526  0.3005073310997245
  0.0657346293181387  0.5397743036108339  0.7440111544649659
  0.9401648522454605  0.9562434310306462  0.2116313725631832
  0.8153792593689033  0.7049808472061009  0.2114631143243447
  0.0686570770829576  0.8750327698544832  0.3004383534911902
  0.1943538301718076  0.1249338541511117  0.3005383924473765
  0.0593010941220439  0.7034091518032798  0.3450094396098070
  0.8089745101972086  0.0378927893547175  0.6109062750388008
  0.0620492502841544  0.3707886937566555  0.4343788681808251
  0.5600630280726165  0.2038542462196857  0.3452472847290303
  0.8188761731982115  0.3749857687541491  0.3004006923321296
  0.5597061277051110  0.0396269479658598  0.2559891259835745
  0.5664586758932343  0.5382259413853656  0.3890232251073147
  0.0622732500590790  0.2056730943818616  0.4786623234061892
  0.3112103141549379  0.8700377062848086  0.7879997480246834
  0.9348606399908836  0.9581422083253878  0.6995949685214221
  0.0689225365029281  0.3748061779875225  0.3005155641237793
  0.6913421186795208  0.6249800712072807  0.6549619603403197
  0.6869493957439172  0.4572457530715707  0.5654581532795311
  0.4397185447569428  0.9576493489631936  0.2122539642749996
  0.3122947677794631  0.2057753603634781  0.4786481080217880
  0.8136924494401002  0.5367524800041161  0.8755256650752798
  0.6878585977777687  0.6209905741223973  0.4343907820025076
  0.8106478592169448  0.2075219214937154  0.6996576587415685
  0.8120689363145094  0.7057996027247490  0.4786266715123274
  0.8122612223230750  0.8713587322414373  0.4344080754029417
  0.9369745575394135  0.9553300719249938  0.4786338367918549
  0.5621725459224720  0.2056724038538558  0.4786037171431555
  0.1873086998663045  0.6209254058824244  0.4345200810261090
  0.3155579128628774  0.0406068903614928  0.7438431539002849
  0.9417038757618674  0.6252135443376459  0.6549471729124722
  0.5661074633208384  0.7127676235845106  0.8330380034750462
  0.3188872713690708  0.3741775587645521  0.3004834644574778
  0.5650576497343635  0.7048343596518729  0.2116662648263902
  0.1870790573152807  0.4553917554149441  0.4785167902791647
  0.3150557942774180  0.0384751973547802  0.8755343788971613
  0.1848404899179060  0.4580333757406589  0.6995604108629417
  0.5613958324839740  0.3714011431956747  0.5213714717111759
  0.1901616116284109  0.2886120480412468  0.3892944078839638
  0.4372199092662080  0.6207056065145296  0.4344761132897409
  0.0656613094048824  0.7054240116014766  0.2117672621968227
  0.5623289766043796  0.3708549267724865  0.4345049376460841
  0.4366772532238277  0.6214325364807219  0.5214119519219934
  0.8165213802874507  0.7133622874495434  0.8330965242855183
  0.0611264312425016  0.3720364773237869  0.7880583044492839
  0.4373525178686818  0.2938756392837578  0.8758713928506234
  0.3116610767815287  0.0326691940373633  0.1244633690600170
  0.6874751562198970  0.1200880063943210  0.4344769500315780
  0.1842972732152892  0.9531415234052981  0.3451195550344416
  0.0663639073495907  0.2130160803985969  0.8336608873285136
  0.5586118469250843  0.0380928137969115  0.6109620692020122
  0.6889154150443672  0.4568512075029311  0.2122095250000089
  0.1907030004607139  0.7899947929865200  0.7440178217873741
  0.1939478362091474  0.6249219316231879  0.3005260753146258
  0.4410671647576735  0.7875036503381718  0.3892197220419352
  0.4334718151325898  0.2895079711236484  0.2560984122713935
  0.0650618266438780  0.5380789158572484  0.8755117771774544
  0.5659197137371883  0.0400617765808344  0.7439439480130819
  0.1882451115578879  0.7934614584083917  0.8754185018544995
  0.9368457109711728  0.4553455364684525  0.4785261332584944
  0.5655232181651439  0.5405156188071518  0.7439390235474743
  0.8112722784232117  0.2067167513259988  0.5653932195304908
  0.1861118568738826  0.6201628565214559  0.7879705454157793
  0.0662515957918835  0.5385105717654671  0.3889431063941374
  0.0602358008178434  0.7076827708912655  0.6994689167415720
  0.3091707900394409  0.5388719337720390  0.2555896874679148
  0.3152425066126228  0.7045728231343176  0.2123403730086568
  0.3054687727730828  0.8644396860589916  0.1660810382217099
  0.3153535839736822  0.2063060661083207  0.2121395353752415
  0.6836992808569400  0.4531302505049026  0.3451337592093822
  0.9355113772241813  0.2948528950975423  0.8752015201047249
  0.9372087560530840  0.7920816033501770  0.8751984348931502
  0.0653497162281897  0.0364753142486683  0.8752162850718318
  0.5590033969427305  0.7051966182778070  0.3450811890780776
  0.8057133268960215  0.3647188597490119  0.1665635980265406
  0.4426316389448572  0.1244202439815967  0.6546263509567390
  0.9363409197254524  0.1212732952299397  0.5212924746795043
  0.0634002116608190  0.2063488137985086  0.5656626553713060
  0.3153091282327822  0.5398955774607536  0.7441668225137753
 
  0.00000000E+00  0.00000000E+00  0.00000000E+00
  0.00000000E+00  0.00000000E+00  0.00000000E+00
  0.00000000E+00  0.00000000E+00  0.00000000E+00
  0.00000000E+00  0.00000000E+00  0.00000000E+00
  0.00000000E+00  0.00000000E+00  0.00000000E+00
  0.00000000E+00  0.00000000E+00  0.00000000E+00
  0.00000000E+00  0.00000000E+00  0.00000000E+00
  0.00000000E+00  0.00000000E+00  0.00000000E+00
  0.00000000E+00  0.00000000E+00  0.00000000E+00
  0.00000000E+00  0.00000000E+00  0.00000000E+00
  0.00000000E+00  0.00000000E+00  0.00000000E+00
  0.00000000E+00  0.00000000E+00  0.00000000E+00
  0.00000000E+00  0.00000000E+00  0.00000000E+00
  0.00000000E+00  0.00000000E+00  0.00000000E+00
  0.00000000E+00  0.00000000E+00  0.00000000E+00
  0.00000000E+00  0.00000000E+00  0.00000000E+00
  0.00000000E+00  0.00000000E+00  0.00000000E+00
  0.00000000E+00  0.00000000E+00  0.00000000E+00
  0.00000000E+00  0.00000000E+00  0.00000000E+00
  0.00000000E+00  0.00000000E+00  0.00000000E+00
  0.00000000E+00  0.00000000E+00  0.00000000E+00
  0.00000000E+00  0.00000000E+00  0.00000000E+00
  0.00000000E+00  0.00000000E+00  0.00000000E+00
  0.00000000E+00  0.00000000E+00  0.00000000E+00
  0.00000000E+00  0.00000000E+00  0.00000000E+00
  0.00000000E+00  0.00000000E+00  0.00000000E+00
  0.00000000E+00  0.00000000E+00  0.00000000E+00
  0.00000000E+00  0.00000000E+00  0.00000000E+00
  0.00000000E+00  0.00000000E+00  0.00000000E+00
  0.00000000E+00  0.00000000E+00  0.00000000E+00
  0.00000000E+00  0.00000000E+00  0.00000000E+00
  0.00000000E+00  0.00000000E+00  0.00000000E+00
  0.00000000E+00  0.00000000E+00  0.00000000E+00
  0.00000000E+00  0.00000000E+00  0.00000000E+00
  0.00000000E+00  0.00000000E+00  0.00000000E+00
  0.00000000E+00  0.00000000E+00  0.00000000E+00
  0.00000000E+00  0.00000000E+00  0.00000000E+00
  0.00000000E+00  0.00000000E+00  0.00000000E+00
  0.00000000E+00  0.00000000E+00  0.00000000E+00
  0.00000000E+00  0.00000000E+00  0.00000000E+00
  0.00000000E+00  0.00000000E+00  0.00000000E+00
  0.00000000E+00  0.00000000E+00  0.00000000E+00
  0.00000000E+00  0.00000000E+00  0.00000000E+00
  0.00000000E+00  0.00000000E+00  0.00000000E+00
  0.00000000E+00  0.00000000E+00  0.00000000E+00
  0.00000000E+00  0.00000000E+00  0.00000000E+00
  0.00000000E+00  0.00000000E+00  0.00000000E+00
  0.00000000E+00  0.00000000E+00  0.00000000E+00
  0.00000000E+00  0.00000000E+00  0.00000000E+00
  0.00000000E+00  0.00000000E+00  0.00000000E+00
  0.00000000E+00  0.00000000E+00  0.00000000E+00
  0.00000000E+00  0.00000000E+00  0.00000000E+00
  0.00000000E+00  0.00000000E+00  0.00000000E+00
  0.00000000E+00  0.00000000E+00  0.00000000E+00
  0.00000000E+00  0.00000000E+00  0.00000000E+00
  0.00000000E+00  0.00000000E+00  0.00000000E+00
  0.00000000E+00  0.00000000E+00  0.00000000E+00
  0.00000000E+00  0.00000000E+00  0.00000000E+00
  0.00000000E+00  0.00000000E+00  0.00000000E+00
  0.00000000E+00  0.00000000E+00  0.00000000E+00
  0.00000000E+00  0.00000000E+00  0.00000000E+00
  0.00000000E+00  0.00000000E+00  0.00000000E+00
  0.00000000E+00  0.00000000E+00  0.00000000E+00
  0.00000000E+00  0.00000000E+00  0.00000000E+00
  0.00000000E+00  0.00000000E+00  0.00000000E+00
  0.00000000E+00  0.00000000E+00  0.00000000E+00
  0.00000000E+00  0.00000000E+00  0.00000000E+00
  0.00000000E+00  0.00000000E+00  0.00000000E+00
  0.00000000E+00  0.00000000E+00  0.00000000E+00
  0.00000000E+00  0.00000000E+00  0.00000000E+00
  0.00000000E+00  0.00000000E+00  0.00000000E+00
  0.00000000E+00  0.00000000E+00  0.00000000E+00
  0.00000000E+00  0.00000000E+00  0.00000000E+00
  0.00000000E+00  0.00000000E+00  0.00000000E+00
  0.00000000E+00  0.00000000E+00  0.00000000E+00
  0.00000000E+00  0.00000000E+00  0.00000000E+00
  0.00000000E+00  0.00000000E+00  0.00000000E+00
  0.00000000E+00  0.00000000E+00  0.00000000E+00
  0.00000000E+00  0.00000000E+00  0.00000000E+00
  0.00000000E+00  0.00000000E+00  0.00000000E+00
  0.00000000E+00  0.00000000E+00  0.00000000E+00
  0.00000000E+00  0.00000000E+00  0.00000000E+00
  0.00000000E+00  0.00000000E+00  0.00000000E+00
  0.00000000E+00  0.00000000E+00  0.00000000E+00
  0.00000000E+00  0.00000000E+00  0.00000000E+00
  0.00000000E+00  0.00000000E+00  0.00000000E+00
  0.00000000E+00  0.00000000E+00  0.00000000E+00
  0.00000000E+00  0.00000000E+00  0.00000000E+00
  0.00000000E+00  0.00000000E+00  0.00000000E+00
  0.00000000E+00  0.00000000E+00  0.00000000E+00
  0.00000000E+00  0.00000000E+00  0.00000000E+00
  0.00000000E+00  0.00000000E+00  0.00000000E+00
  0.00000000E+00  0.00000000E+00  0.00000000E+00
  0.00000000E+00  0.00000000E+00  0.00000000E+00
  0.00000000E+00  0.00000000E+00  0.00000000E+00
  0.00000000E+00  0.00000000E+00  0.00000000E+00
  0.00000000E+00  0.00000000E+00  0.00000000E+00
  0.00000000E+00  0.00000000E+00  0.00000000E+00
  0.00000000E+00  0.00000000E+00  0.00000000E+00
  0.00000000E+00  0.00000000E+00  0.00000000E+00
  0.00000000E+00  0.00000000E+00  0.00000000E+00
  0.00000000E+00  0.00000000E+00  0.00000000E+00
  0.00000000E+00  0.00000000E+00  0.00000000E+00
  0.00000000E+00  0.00000000E+00  0.00000000E+00
  0.00000000E+00  0.00000000E+00  0.00000000E+00
  0.00000000E+00  0.00000000E+00  0.00000000E+00
  0.00000000E+00  0.00000000E+00  0.00000000E+00
  0.00000000E+00  0.00000000E+00  0.00000000E+00
  0.00000000E+00  0.00000000E+00  0.00000000E+00
  0.00000000E+00  0.00000000E+00  0.00000000E+00
  0.00000000E+00  0.00000000E+00  0.00000000E+00
  0.00000000E+00  0.00000000E+00  0.00000000E+00
  0.00000000E+00  0.00000000E+00  0.00000000E+00
  0.00000000E+00  0.00000000E+00  0.00000000E+00
  0.00000000E+00  0.00000000E+00  0.00000000E+00
  0.00000000E+00  0.00000000E+00  0.00000000E+00
  0.00000000E+00  0.00000000E+00  0.00000000E+00
  0.00000000E+00  0.00000000E+00  0.00000000E+00
  0.00000000E+00  0.00000000E+00  0.00000000E+00
  0.00000000E+00  0.00000000E+00  0.00000000E+00
  0.00000000E+00  0.00000000E+00  0.00000000E+00
  0.00000000E+00  0.00000000E+00  0.00000000E+00
  0.00000000E+00  0.00000000E+00  0.00000000E+00
  0.00000000E+00  0.00000000E+00  0.00000000E+00
  0.00000000E+00  0.00000000E+00  0.00000000E+00
  0.00000000E+00  0.00000000E+00  0.00000000E+00
  0.00000000E+00  0.00000000E+00  0.00000000E+00
  0.00000000E+00  0.00000000E+00  0.00000000E+00
  0.00000000E+00  0.00000000E+00  0.00000000E+00
  0.00000000E+00  0.00000000E+00  0.00000000E+00
  0.00000000E+00  0.00000000E+00  0.00000000E+00
  0.00000000E+00  0.00000000E+00  0.00000000E+00
  0.00000000E+00  0.00000000E+00  0.00000000E+00
  0.00000000E+00  0.00000000E+00  0.00000000E+00
  0.00000000E+00  0.00000000E+00  0.00000000E+00
  0.00000000E+00  0.00000000E+00  0.00000000E+00
  0.00000000E+00  0.00000000E+00  0.00000000E+00
  0.00000000E+00  0.00000000E+00  0.00000000E+00
  0.00000000E+00  0.00000000E+00  0.00000000E+00
  0.00000000E+00  0.00000000E+00  0.00000000E+00
  0.00000000E+00  0.00000000E+00  0.00000000E+00
  0.00000000E+00  0.00000000E+00  0.00000000E+00
  0.00000000E+00  0.00000000E+00  0.00000000E+00
  0.00000000E+00  0.00000000E+00  0.00000000E+00
  0.00000000E+00  0.00000000E+00  0.00000000E+00
  0.00000000E+00  0.00000000E+00  0.00000000E+00
  0.00000000E+00  0.00000000E+00  0.00000000E+00
  0.00000000E+00  0.00000000E+00  0.00000000E+00
  0.00000000E+00  0.00000000E+00  0.00000000E+00
  0.00000000E+00  0.00000000E+00  0.00000000E+00
  0.00000000E+00  0.00000000E+00  0.00000000E+00
  0.00000000E+00  0.00000000E+00  0.00000000E+00
  0.00000000E+00  0.00000000E+00  0.00000000E+00
  0.00000000E+00  0.00000000E+00  0.00000000E+00
  0.00000000E+00  0.00000000E+00  0.00000000E+00
  0.00000000E+00  0.00000000E+00  0.00000000E+00
  0.00000000E+00  0.00000000E+00  0.00000000E+00
  0.00000000E+00  0.00000000E+00  0.00000000E+00
  0.00000000E+00  0.00000000E+00  0.00000000E+00
  0.00000000E+00  0.00000000E+00  0.00000000E+00
  0.00000000E+00  0.00000000E+00  0.00000000E+00
  0.00000000E+00  0.00000000E+00  0.00000000E+00
  0.00000000E+00  0.00000000E+00  0.00000000E+00
  0.00000000E+00  0.00000000E+00  0.00000000E+00
  0.00000000E+00  0.00000000E+00  0.00000000E+00
  0.00000000E+00  0.00000000E+00  0.00000000E+00
  0.00000000E+00  0.00000000E+00  0.00000000E+00
  0.00000000E+00  0.00000000E+00  0.00000000E+00
  0.00000000E+00  0.00000000E+00  0.00000000E+00
  0.00000000E+00  0.00000000E+00  0.00000000E+00
  0.00000000E+00  0.00000000E+00  0.00000000E+00
  0.00000000E+00  0.00000000E+00  0.00000000E+00
  0.00000000E+00  0.00000000E+00  0.00000000E+00
  0.00000000E+00  0.00000000E+00  0.00000000E+00
  0.00000000E+00  0.00000000E+00  0.00000000E+00
  0.00000000E+00  0.00000000E+00  0.00000000E+00
  0.00000000E+00  0.00000000E+00  0.00000000E+00
  0.00000000E+00  0.00000000E+00  0.00000000E+00
  0.00000000E+00  0.00000000E+00  0.00000000E+00
  0.00000000E+00  0.00000000E+00  0.00000000E+00
  0.00000000E+00  0.00000000E+00  0.00000000E+00
  0.00000000E+00  0.00000000E+00  0.00000000E+00
  0.00000000E+00  0.00000000E+00  0.00000000E+00
  0.00000000E+00  0.00000000E+00  0.00000000E+00
  0.00000000E+00  0.00000000E+00  0.00000000E+00
  0.00000000E+00  0.00000000E+00  0.00000000E+00
  0.00000000E+00  0.00000000E+00  0.00000000E+00
  0.00000000E+00  0.00000000E+00  0.00000000E+00
  0.00000000E+00  0.00000000E+00  0.00000000E+00
  0.00000000E+00  0.00000000E+00  0.00000000E+00
  0.00000000E+00  0.00000000E+00  0.00000000E+00
  0.00000000E+00  0.00000000E+00  0.00000000E+00
  0.00000000E+00  0.00000000E+00  0.00000000E+00
  0.00000000E+00  0.00000000E+00  0.00000000E+00
  0.00000000E+00  0.00000000E+00  0.00000000E+00
  0.00000000E+00  0.00000000E+00  0.00000000E+00
  0.00000000E+00  0.00000000E+00  0.00000000E+00
  0.00000000E+00  0.00000000E+00  0.00000000E+00
  0.00000000E+00  0.00000000E+00  0.00000000E+00
  0.00000000E+00  0.00000000E+00  0.00000000E+00
  0.00000000E+00  0.00000000E+00  0.00000000E+00
  0.00000000E+00  0.00000000E+00  0.00000000E+00
  0.00000000E+00  0.00000000E+00  0.00000000E+00
  0.00000000E+00  0.00000000E+00  0.00000000E+00
  0.00000000E+00  0.00000000E+00  0.00000000E+00
  0.00000000E+00  0.00000000E+00  0.00000000E+00
  0.00000000E+00  0.00000000E+00  0.00000000E+00
  0.00000000E+00  0.00000000E+00  0.00000000E+00
  0.00000000E+00  0.00000000E+00  0.00000000E+00
  0.00000000E+00  0.00000000E+00  0.00000000E+00
  0.00000000E+00  0.00000000E+00  0.00000000E+00
  0.00000000E+00  0.00000000E+00  0.00000000E+00
  0.00000000E+00  0.00000000E+00  0.00000000E+00
  0.00000000E+00  0.00000000E+00  0.00000000E+00
  0.00000000E+00  0.00000000E+00  0.00000000E+00
  0.00000000E+00  0.00000000E+00  0.00000000E+00
  0.00000000E+00  0.00000000E+00  0.00000000E+00
  0.00000000E+00  0.00000000E+00  0.00000000E+00
  0.00000000E+00  0.00000000E+00  0.00000000E+00
  0.00000000E+00  0.00000000E+00  0.00000000E+00
  0.00000000E+00  0.00000000E+00  0.00000000E+00
  0.00000000E+00  0.00000000E+00  0.00000000E+00
  0.00000000E+00  0.00000000E+00  0.00000000E+00
  0.00000000E+00  0.00000000E+00  0.00000000E+00
  0.00000000E+00  0.00000000E+00  0.00000000E+00
  0.00000000E+00  0.00000000E+00  0.00000000E+00
  0.00000000E+00  0.00000000E+00  0.00000000E+00
  0.00000000E+00  0.00000000E+00  0.00000000E+00
  0.00000000E+00  0.00000000E+00  0.00000000E+00
  0.00000000E+00  0.00000000E+00  0.00000000E+00
  0.00000000E+00  0.00000000E+00  0.00000000E+00
  0.00000000E+00  0.00000000E+00  0.00000000E+00
  0.00000000E+00  0.00000000E+00  0.00000000E+00
  0.00000000E+00  0.00000000E+00  0.00000000E+00
  0.00000000E+00  0.00000000E+00  0.00000000E+00
  0.00000000E+00  0.00000000E+00  0.00000000E+00
  0.00000000E+00  0.00000000E+00  0.00000000E+00
  0.00000000E+00  0.00000000E+00  0.00000000E+00
  0.00000000E+00  0.00000000E+00  0.00000000E+00
  0.00000000E+00  0.00000000E+00  0.00000000E+00
  0.00000000E+00  0.00000000E+00  0.00000000E+00
  0.00000000E+00  0.00000000E+00  0.00000000E+00
  0.00000000E+00  0.00000000E+00  0.00000000E+00
  0.00000000E+00  0.00000000E+00  0.00000000E+00
  0.00000000E+00  0.00000000E+00  0.00000000E+00
  0.00000000E+00  0.00000000E+00  0.00000000E+00
  0.00000000E+00  0.00000000E+00  0.00000000E+00