FeMn_288_20                             
    1.000000000000000     
     9.7266779999999997    0.0000000000000000    0.0000000000000000
     0.0000000000000000    8.4235500000000005    0.0000000000000000
     0.0000000000000000    0.0000000000000000   45.0000000000000000
   Fe   Mn
   268    20
Direct
  0.9372196169311384  0.7871689873413886  0.3899844714636602
  0.3118446812720079  0.0420890251785785  0.8735923122519278
  0.3123794704936443  0.7076440872462983  0.6981297567566946
  0.3126077505113560  0.5363569047767417  0.2575706076392151
  0.8122643691039300  0.2066251012627224  0.5654102071719537
  0.4374073448911890  0.2865589486211433  0.2574958075631880
  0.4374739630215153  0.2918452712385033  0.8735288952280238
  0.0627156162552385  0.8714062532287583  0.4346998715077431
  0.9377791583760854  0.4548631064751767  0.4786304343753761
  0.4376375496283571  0.9535208969868033  0.3460588923407696
  0.4377972129079101  0.1219716377205673  0.4347264000903430
  0.6876741450092304  0.1196855179484146  0.3016314276751114
  0.1872889434706499  0.2914960778506123  0.8735704346994585
  0.9369699510816217  0.7920849009673840  0.8735865477800133
  0.1874738781919874  0.9580159954595169  0.6982882249956919
  0.4375846044311566  0.9524224896507895  0.2133118526579342
  0.4371428667850237  0.2907268081561458  0.6099972377902115
  0.0627685600622700  0.7064845834728897  0.5651743329386114
  0.5624362149964487  0.5411953444651643  0.8735098162149322
  0.5627580659642246  0.2024887745904269  0.2133711495480690
  0.4377843259720533  0.9581923107143356  0.8315966996140046
  0.5621371806057430  0.7061838208309704  0.5654402349275037
  0.0628698353337898  0.5357366661994220  0.2575058704465814
  0.1873281968766299  0.9584066200075974  0.8313655260060182
  0.0621634299805873  0.8749474763022412  0.7865985162396598
  0.1872514241586714  0.4582677296240566  0.6983660399285567
  0.6876519157513882  0.4580884900434372  0.6982432660601704
  0.3121129188229659  0.8753306289551286  0.7865800185054258
  0.4375555276484688  0.2873678331707346  0.3900156324460478
  0.3125233001906499  0.3727737841184940  0.5214341758963652
  0.0624377284494229  0.5418941439781132  0.8735808802187699
  0.3128811522473976  0.2069062321800555  0.5650909855157825
  0.9374291694015969  0.9575138934446967  0.6983637467274004
  0.0621955087745618  0.2054856832517254  0.4788130702277668
  0.5623264846878864  0.0407912928298650  0.6099032929801762
  0.3127013270685400  0.7038173783039476  0.3461159503764715
  0.9372832581051146  0.4583214812572294  0.8313661365104182
  0.9375634973146979  0.9528435438576734  0.2133414080846749
  0.6874652139968542  0.1252189217080738  0.7866496713064258
  0.3127003034573027  0.8699990648530862  0.3016210445049917
  0.6874313858003700  0.9536370877549235  0.3461684315277976
  0.1873579117114905  0.1201059529275826  0.3016304179839872
  0.8122585720062937  0.0416296645751624  0.7424721572410766
  0.6874774877080324  0.1195895293782472  0.1685023265773422
  0.8126573657847405  0.3747890869282433  0.7865909391634642
  0.9371359494380385  0.4579094443385656  0.6982265197427185
  0.1874849392154501  0.7858788678540090  0.1264860405121379
  0.6876231892431195  0.4560550392627378  0.5649257347783092
  0.1877083269983331  0.2860280333064644  0.1264357730392177
  0.4378558273599696  0.7879295545181290  0.3900404180906697
  0.1877007706269148  0.2906537768514796  0.6099794007349856
  0.0627368804137972  0.7057942621513321  0.4786914775385504
  0.9377978607320245  0.9537207393726066  0.3462108482076356
  0.9375567841611535  0.1221062318293516  0.5215019326079104
  0.8125802641881660  0.2055061839649023  0.4786161346044479
  0.8125827805161311  0.7075702185762388  0.6982507999600917
  0.5622214204953115  0.3725902996429272  0.5213470155662663
  0.4376932882757547  0.6199154503049158  0.3016950727375377
  0.6872266382080767  0.6218462268378775  0.4347297976371468
  0.8121906720992771  0.2076364601527597  0.6983139023624189
  0.3126114795190966  0.7027175042544437  0.2132895873858068
  0.3125286109691072  0.5405401718814011  0.6099245643277436
  0.1877713071140051  0.1244982907304328  0.6538436984082706
  0.5624599783738233  0.7051355344122786  0.4785748841985339
  0.9376607918500537  0.2860702860951585  0.1264090923895815
  0.6871601926845692  0.1240210615229518  0.6538389581805838
  0.4371261817835908  0.1243607216375792  0.6539485123546658
  0.3125358911297481  0.0361139669244144  0.1264432341219957
  0.5621174174533297  0.3715346285794165  0.4346633321693715
  0.4375436265158431  0.1225083158903557  0.5213927860899006
  0.5620822947629824  0.5365733049812054  0.2575488393555219
  0.1873607356508713  0.7908815930056328  0.6099593435500914
  0.6875940655686460  0.2860930073139124  0.1264160669841476
  0.3119830397131262  0.8713567491514363  0.4347983657532112
  0.9369460857275927  0.1253971236989409  0.7866263457006579
  0.4376296854441775  0.7910750448464198  0.6099676452176036
  0.9373031534839098  0.7903588492369824  0.6098710278224887
  0.5625796293849663  0.5359976518882449  0.1264597320755239
  0.3126491363858957  0.2036407927153538  0.3461508127491643
  0.6873725025892624  0.9524935357904825  0.2132222692250903
  0.8125516592269459  0.2025671090397711  0.2133491447589301
  0.9378262943909536  0.9549159568711659  0.4785347223449924
  0.5622456088506587  0.5404768079845873  0.6100256444518004
  0.0621487381570309  0.8741029158407546  0.6539487642985952
  0.5624773464811601  0.8726536399926536  0.5214292023458879
  0.4380826782259487  0.7859316601036282  0.2575236772551942
  0.6871877560224964  0.2920531450647377  0.8735098877421258
  0.3126782623518612  0.3704360687358027  0.3016965549477528
  0.4376916985320813  0.1201309563530420  0.3015501852778771
  0.0623701687425325  0.2080584148087919  0.8314120557725969
  0.8125345123948192  0.8696228221729911  0.1685849751504820
  0.8125028715679306  0.2033230737543919  0.3461060471646932
  0.0625786916057393  0.2027409523343026  0.2133486412376697
  0.0623775975439554  0.8730809805564931  0.5215179425716034
  0.0624370546689336  0.2080190008713829  0.6982687306122976
  0.8127729266919981  0.0361091331522089  0.1264155573812573
  0.9379779021932103  0.4560319041884220  0.5653682948092162
  0.3128708823960542  0.2024604993288914  0.2133318345505285
  0.3126985896132113  0.7065457987335990  0.5651884424448163
  0.6871907559448792  0.6249222468617953  0.7865577499631470
  0.5623500980805550  0.2081412650595760  0.6982356647769532
  0.5624680271220588  0.0360210959151295  0.2575167268204020
  0.1878370108976101  0.9527714016546853  0.2133414607323013
  0.4375910810214095  0.4525261078724209  0.2133768964659086
  0.0627383362878785  0.5368953539587844  0.3900156199067900
  0.0630303015574178  0.3695922937248730  0.3017419508954114
  0.0630183966567983  0.3724513837904841  0.5214363661637326
  0.0626531429352726  0.0359947167288557  0.1263893106988920
  0.5626970319622198  0.3694364932175094  0.1686547960999826
  0.4372229907584997  0.9578945737953023  0.6983808702845905
  0.9373163945698744  0.2904316505255852  0.6101132349305434
  0.9375536970756171  0.6192394494070133  0.3015926242961371
  0.8123797457482999  0.5402876267871893  0.6100150472462661
  0.5628875706003189  0.5371828628266340  0.3900197194449484
  0.1875882113235509  0.1211320260204836  0.4347540838124006
  0.5626808245889339  0.2066425789821351  0.5655584628985881
  0.4377950035684630  0.7859719916721745  0.1264801815371580
  0.6873263300340205  0.4583311645758534  0.8312977311593752
  0.0625730873957835  0.3696380738801843  0.1686065374412285
  0.8127048035305835  0.3711848903432328  0.4345329895955145
  0.8124722403836430  0.0407799945014106  0.6099632119830357
  0.6876425123034745  0.4528948307400480  0.2133981962652340
  0.3124321308453742  0.0414731720217305  0.7425233885104511
  0.1877205026827898  0.1195046742621933  0.1685391542164084
  0.4377648782001705  0.6217948889595061  0.4347218318994137
  0.9376690367738135  0.1242031982910959  0.6539930229331495
  0.8125171671088347  0.7037836122090805  0.3461584501486982
  0.6870646599710507  0.9580652339311310  0.8314892093896752
  0.5624850799871512  0.3739178089605537  0.6539718525504736
  0.4375814270112074  0.4538564336869328  0.3462026557297713
  0.4375824982784811  0.7914615792000999  0.7424851195930485
  0.0621829841352511  0.5415885304582371  0.7425341745308240
  0.3122544213066285  0.8724375405297149  0.5213456267934459
  0.8123761502019110  0.3743100360877278  0.6540664152791917
  0.8125620912427968  0.3698300845725214  0.3015975509515608
  0.4377490463281709  0.2918440497761882  0.7424160710657052
  0.0628206649166674  0.3706064752939690  0.4347585280180978
  0.3125550155303902  0.3696172475953994  0.1685936602235925
  0.6873186815178124  0.2915877841151084  0.7424206632162400
  0.5628363287735190  0.8717439510884419  0.4347557159650531
  0.8122403044862346  0.7063505582051857  0.5653773241749653
  0.9377796895228477  0.1195016810029457  0.3016379492309024
  0.4375567983898805  0.6226710381937590  0.5213755513554609
  0.9377110397439961  0.7858235407658472  0.1264164824252096
  0.1876969264693305  0.6198225993218293  0.3015667387587586
  0.3125438547614013  0.5375375052578411  0.3899602479573524
  0.8124252442710896  0.7084981825136465  0.8314269169206894
  0.9374952539306266  0.1196068048597320  0.1685029960986940
  0.6874413134256531  0.7905702292833103  0.6099710598180569
  0.0623505890001921  0.0416434881581828  0.7424835993174446
  0.8124460844580834  0.8743115312570908  0.6539333821682011
  0.1871131797994497  0.9550792021433281  0.4786213054638346
  0.1874911928594869  0.6197440074712895  0.1685764739802328
  0.9371214743825403  0.6250088708980897  0.7865567755127488
  0.0627899660977193  0.2037834519070910  0.3462556684628924
  0.5622300242985011  0.3747871229416359  0.7866102137256381
  0.5622279186340958  0.7088164784596408  0.8314117025189728
  0.5625504349890016  0.7036072098944253  0.3460373746644000
  0.5625603130513676  0.2034289129012206  0.3461840310514545
  0.3122965992394559  0.2080203711227908  0.8314040729968782
  0.6871479648022943  0.7921372580051980  0.8736397774262412
  0.4376265198315636  0.1249815757819509  0.7866482553522508
  0.0623267672597934  0.3747557610374131  0.7866035065845717
  0.8122064921989106  0.5417474408148933  0.8734946310034060
  0.6874472781768034  0.2902587279303041  0.6098610058374304
  0.3125207642776764  0.2080668652138993  0.6983185779224874
  0.0626439923000199  0.8696304915379085  0.3014471673666508
  0.3122218089216988  0.5416369257256315  0.7424399010852240
  0.8126731548828067  0.3697114119330489  0.1685443345830490
  0.4379589024402042  0.7921676487452628  0.8736590914527315
  0.8126761810688062  0.7030972346366406  0.2132861562226600
  0.6878940002411460  0.2863769093318769  0.2575656052176103
  0.8121456669054999  0.7054102654888906  0.4786376624578590
  0.0627977002320425  0.8697416528974673  0.1684910425508716
  0.3126428588157055  0.7050656443907762  0.4786094563290193
  0.3121742942399434  0.5417990634805975  0.8735670627919909
  0.6871375564825134  0.7917775671581548  0.7425581990632976
  0.1878180300529795  0.6245792531492133  0.6539292609978598
  0.1878527206670825  0.4539668233940410  0.3461250758408877
  0.6873932733240664  0.9579474288940977  0.6983435767756804
  0.4376270440762388  0.2860692063969797  0.1264509886935615
  0.1872111940519777  0.7916036458687696  0.8735985413885926
  0.1873107395108886  0.4584365781886257  0.8314372353481025
  0.0629580851645333  0.7027267919055497  0.2133071374694030
  0.4373369233858663  0.9562098973239676  0.5651192802144219
  0.5624409427069720  0.0372849016253180  0.3900939430628902
  0.5624040000332488  0.3700067283129128  0.3017224787851168
  0.0620829598454799  0.3742357971855615  0.6538583818895011
  0.1875270467858259  0.4526107538729930  0.2133566419787415
  0.1879077280834162  0.7860180859879552  0.2575261851444735
  0.1873921176883677  0.1249199499310163  0.7866132213638263
  0.5624957720752700  0.5416181642413878  0.7425515877097377
  0.6880093938768788  0.7873700507472126  0.3900003272367569
  0.6869703966771324  0.1216446958616009  0.4350514678249737
  0.9377431271661741  0.6199995476625537  0.1684925494772420
  0.3127846567399490  0.3714725120155136  0.4349217950547780
  0.6874760893700865  0.6197563029764979  0.3016754047618311
  0.6875686920909958  0.7858992935970125  0.1264134852960878
  0.4375481522501545  0.4579977920896347  0.6981723594461380
  0.5623839980625209  0.7079050065392704  0.6982972969781951
  0.5624536101055393  0.8691976939309047  0.1685051626384404
  0.8124896502348641  0.3725607197226067  0.5215106185421415
  0.0626684283546064  0.0364878189306530  0.2575412970191897
  0.5623281657853880  0.2085501931327721  0.8313251573545093
  0.4376451872871552  0.6195092223281911  0.1686594817413341
  0.0624849142358183  0.7035478197229670  0.3460906656031079
  0.8128476289688680  0.0421502067681396  0.8735745590267995
  0.5622221601121050  0.0417697561323541  0.7424738428847537
  0.4376091413413328  0.6250728213219291  0.7865816214044981
  0.9373567505825232  0.7864573050182244  0.2575367180505274
  0.0622497570585963  0.7077509660702567  0.6982709986352684
  0.3120523521994730  0.3747748289892130  0.7865742339716393
  0.0627042460197707  0.5360230918620104  0.1264040615265356
  0.8124121561089626  0.5413440750686720  0.7424326301534618
  0.3123252988676911  0.8745444025853497  0.6538209385281890
  0.5621356487993833  0.0416052711936099  0.8736071614553196
  0.6874255149227704  0.7868610524946311  0.2575441565449725
  0.6871582661136066  0.6243148417812094  0.6539789459604681
  0.9378303513074018  0.1215162002160290  0.4348659927257130
  0.4375576802840915  0.4558738301408451  0.4786262799366615
  0.5624254026590916  0.7024347449516661  0.2133003708689968
  0.1876607491151508  0.9536509567917364  0.3461743099183907
  0.8123872144598616  0.8713799894476499  0.4346371133563995
  0.8124737090026521  0.8755675860778955  0.7866444898393675
  0.9376207410646067  0.9561990864953747  0.5652220511042312
  0.3124517246926867  0.0411858944010374  0.6100135127939201
  0.1878938799911890  0.6222200723847026  0.5214006090153888
  0.3121342441703568  0.7081345186362847  0.8314831379541096
  0.8125565069528453  0.5358540235447357  0.1264481382417377
  0.0624752754452610  0.0419877983293849  0.8736176484473174
  0.4370448376366712  0.4564679031361112  0.5653922691007915
  0.4373586002676551  0.4582181586251540  0.8313643799451064
  0.5624875541108438  0.8697933917021534  0.3015276715484072
  0.0623757422236638  0.0407778385515839  0.6099596149352949
  0.1871123942318814  0.7869039528465236  0.3899607833378160
  0.3125030016089695  0.0359725330395659  0.2575274522079847
  0.6872951348409934  0.4534379334663314  0.3461687275137013
  0.9377638433198904  0.4529477901376493  0.2133829256817416
  0.8125503726438498  0.5368775597935886  0.2576245715071678
  0.9369748701237840  0.2913467722622705  0.7424589373392668
  0.8123469502526157  0.2083907051360897  0.8313705414171568
  0.1875039277905267  0.9562515092211804  0.5654284874799350
  0.9373240400879893  0.7914622333130178  0.7424971969956824
  0.9377162251882398  0.4536767334503658  0.3461922807842312
  0.5626164092194726  0.0362647360925044  0.1264642429843134
  0.9373269370126556  0.2919389513646919  0.8735397030833620
  0.1870358777978356  0.4554264225182313  0.4785673522450360
  0.5627001521004181  0.8744325215404494  0.6539331828646494
  0.1873273451293318  0.2917786919908915  0.7425182498561008
  0.1873428260678523  0.4567577356796492  0.5652848623258303
  0.0625467080552791  0.5404814616643737  0.6098020576852654
  0.1878888729460204  0.6212898004273694  0.4347336055048909
  0.9373948843316265  0.2876285461005988  0.3901454721484215
  0.1878552293874095  0.1222653886735381  0.5214238401962942
  0.3127067998033913  0.8697442648181311  0.1686411406079284
  0.3127095635082826  0.5358068589669754  0.1264402227930903
  0.6878131379058086  0.9551707573280849  0.4787304141354724
  0.0627205315354082  0.0372344050808169  0.3901639395190634
  0.6871601628079997  0.6227986454731697  0.5215053292326385
  0.9370859946215417  0.9583666922363951  0.8315157715567482
  0.8126393326623560  0.5370295351628478  0.3901662785930251
  0.6876431056804311  0.6196420301317421  0.1686000771723159
  0.4377721067023815  0.6242642693212772  0.6537430195312046
  0.5629017157769072  0.2056574050612816  0.4785823399338295
  0.6873715491896103  0.2873528792245577  0.3900917241223350
  0.8132047449806515  0.8729924046015716  0.5214792704186489
  0.0625675588788764  0.7082825192790626  0.8314363583025124
  0.4378592280939450  0.1194515169545906  0.1685359410088191
  0.5624723341986992  0.8755147092765264  0.7863729376585884
  0.4374013551904565  0.9550241906369371  0.4786703400407701
  0.1872697542885776  0.7916845449349803  0.7425042380443060
  0.8128182664429212  0.0368150539567324  0.3899255897192810
  0.6876916903630700  0.9551543451567645  0.5654988974523069
  0.9371668750171414  0.6209362966102548  0.4350487169382453
  0.9373836241795124  0.6222241600934663  0.5211788580526788
  0.3123185119576612  0.2057411031408351  0.4787156805154031
  0.6871478379334756  0.1225224229837141  0.5212480762556385
  0.3131217697233442  0.0367850317972822  0.3900218479889869
  0.1873747356008292  0.2879861237571239  0.3900142855883524
  0.1874891885221180  0.6246285840545367  0.7865220845454576
  0.1887088910769071  0.2864806228755628  0.2574839021604424
  0.9371199855996091  0.6245544614324261  0.6537720506988588
  0.8126916407641285  0.8690397176216165  0.3017864019136564
  0.6879130867602312  0.4555804971287262  0.4787810676474175
  0.0618709890373786  0.2066781352401232  0.5652659841848986
  0.3124611804391857  0.3742308913944555  0.6538205053705318
  0.9369711182740150  0.2873333997333913  0.2574475180238054
  0.8123829691564661  0.0359338597695056  0.2573344383144409
 
  0.00000000E+00  0.00000000E+00  0.00000000E+00
  0.00000000E+00  0.00000000E+00  0.00000000E+00
  0.00000000E+00  0.00000000E+00  0.00000000E+00
  0.00000000E+00  0.00000000E+00  0.00000000E+00
  0.00000000E+00  0.00000000E+00  0.00000000E+00
  0.00000000E+00  0.00000000E+00  0.00000000E+00
  0.00000000E+00  0.00000000E+00  0.00000000E+00
  0.00000000E+00  0.00000000E+00  0.00000000E+00
  0.00000000E+00  0.00000000E+00  0.00000000E+00
  0.00000000E+00  0.00000000E+00  0.00000000E+00
  0.00000000E+00  0.00000000E+00  0.00000000E+00
  0.00000000E+00  0.00000000E+00  0.00000000E+00
  0.00000000E+00  0.00000000E+00  0.00000000E+00
  0.00000000E+00  0.00000000E+00  0.00000000E+00
  0.00000000E+00  0.00000000E+00  0.00000000E+00
  0.00000000E+00  0.00000000E+00  0.00000000E+00
  0.00000000E+00  0.00000000E+00  0.00000000E+00
  0.00000000E+00  0.00000000E+00  0.00000000E+00
  0.00000000E+00  0.00000000E+00  0.00000000E+00
  0.00000000E+00  0.00000000E+00  0.00000000E+00
  0.00000000E+00  0.00000000E+00  0.00000000E+00
  0.00000000E+00  0.00000000E+00  0.00000000E+00
  0.00000000E+00  0.00000000E+00  0.00000000E+00
  0.00000000E+00  0.00000000E+00  0.00000000E+00
  0.00000000E+00  0.00000000E+00  0.00000000E+00
  0.00000000E+00  0.00000000E+00  0.00000000E+00
  0.00000000E+00  0.00000000E+00  0.00000000E+00
  0.00000000E+00  0.00000000E+00  0.00000000E+00
  0.00000000E+00  0.00000000E+00  0.00000000E+00
  0.00000000E+00  0.00000000E+00  0.00000000E+00
  0.00000000E+00  0.00000000E+00  0.00000000E+00
  0.00000000E+00  0.00000000E+00  0.00000000E+00
  0.00000000E+00  0.00000000E+00  0.00000000E+00
  0.00000000E+00  0.00000000E+00  0.00000000E+00
  0.00000000E+00  0.00000000E+00  0.00000000E+00
  0.00000000E+00  0.00000000E+00  0.00000000E+00
  0.00000000E+00  0.00000000E+00  0.00000000E+00
  0.00000000E+00  0.00000000E+00  0.00000000E+00
  0.00000000E+00  0.00000000E+00  0.00000000E+00
  0.00000000E+00  0.00000000E+00  0.00000000E+00
  0.00000000E+00  0.00000000E+00  0.00000000E+00
  0.00000000E+00  0.00000000E+00  0.00000000E+00
  0.00000000E+00  0.00000000E+00  0.00000000E+00
  0.00000000E+00  0.00000000E+00  0.00000000E+00
  0.00000000E+00  0.00000000E+00  0.00000000E+00
  0.00000000E+00  0.00000000E+00  0.00000000E+00
  0.00000000E+00  0.00000000E+00  0.00000000E+00
  0.00000000E+00  0.00000000E+00  0.00000000E+00
  0.00000000E+00  0.00000000E+00  0.00000000E+00
  0.00000000E+00  0.00000000E+00  0.00000000E+00
  0.00000000E+00  0.00000000E+00  0.00000000E+00
  0.00000000E+00  0.00000000E+00  0.00000000E+00
  0.00000000E+00  0.00000000E+00  0.00000000E+00
  0.00000000E+00  0.00000000E+00  0.00000000E+00
  0.00000000E+00  0.00000000E+00  0.00000000E+00
  0.00000000E+00  0.00000000E+00  0.00000000E+00
  0.00000000E+00  0.00000000E+00  0.00000000E+00
  0.00000000E+00  0.00000000E+00  0.00000000E+00
  0.00000000E+00  0.00000000E+00  0.00000000E+00
  0.00000000E+00  0.00000000E+00  0.00000000E+00
  0.00000000E+00  0.00000000E+00  0.00000000E+00
  0.00000000E+00  0.00000000E+00  0.00000000E+00
  0.00000000E+00  0.00000000E+00  0.00000000E+00
  0.00000000E+00  0.00000000E+00  0.00000000E+00
  0.00000000E+00  0.00000000E+00  0.00000000E+00
  0.00000000E+00  0.00000000E+00  0.00000000E+00
  0.00000000E+00  0.00000000E+00  0.00000000E+00
  0.00000000E+00  0.00000000E+00  0.00000000E+00
  0.00000000E+00  0.00000000E+00  0.00000000E+00
  0.00000000E+00  0.00000000E+00  0.00000000E+00
  0.00000000E+00  0.00000000E+00  0.00000000E+00
  0.00000000E+00  0.00000000E+00  0.00000000E+00
  0.00000000E+00  0.00000000E+00  0.00000000E+00
  0.00000000E+00  0.00000000E+00  0.00000000E+00
  0.00000000E+00  0.00000000E+00  0.00000000E+00
  0.00000000E+00  0.00000000E+00  0.00000000E+00
  0.00000000E+00  0.00000000E+00  0.00000000E+00
  0.00000000E+00  0.00000000E+00  0.00000000E+00
  0.00000000E+00  0.00000000E+00  0.00000000E+00
  0.00000000E+00  0.00000000E+00  0.00000000E+00
  0.00000000E+00  0.00000000E+00  0.00000000E+00
  0.00000000E+00  0.00000000E+00  0.00000000E+00
  0.00000000E+00  0.00000000E+00  0.00000000E+00
  0.00000000E+00  0.00000000E+00  0.00000000E+00
  0.00000000E+00  0.00000000E+00  0.00000000E+00
  0.00000000E+00  0.00000000E+00  0.00000000E+00
  0.00000000E+00  0.00000000E+00  0.00000000E+00
  0.00000000E+00  0.00000000E+00  0.00000000E+00
  0.00000000E+00  0.00000000E+00  0.00000000E+00
  0.00000000E+00  0.00000000E+00  0.00000000E+00
  0.00000000E+00  0.00000000E+00  0.00000000E+00
  0.00000000E+00  0.00000000E+00  0.00000000E+00
  0.00000000E+00  0.00000000E+00  0.00000000E+00
  0.00000000E+00  0.00000000E+00  0.00000000E+00
  0.00000000E+00  0.00000000E+00  0.00000000E+00
  0.00000000E+00  0.00000000E+00  0.00000000E+00
  0.00000000E+00  0.00000000E+00  0.00000000E+00
  0.00000000E+00  0.00000000E+00  0.00000000E+00
  0.00000000E+00  0.00000000E+00  0.00000000E+00
  0.00000000E+00  0.00000000E+00  0.00000000E+00
  0.00000000E+00  0.00000000E+00  0.00000000E+00
  0.00000000E+00  0.00000000E+00  0.00000000E+00
  0.00000000E+00  0.00000000E+00  0.00000000E+00
  0.00000000E+00  0.00000000E+00  0.00000000E+00
  0.00000000E+00  0.00000000E+00  0.00000000E+00
  0.00000000E+00  0.00000000E+00  0.00000000E+00
  0.00000000E+00  0.00000000E+00  0.00000000E+00
  0.00000000E+00  0.00000000E+00  0.00000000E+00
  0.00000000E+00  0.00000000E+00  0.00000000E+00
  0.00000000E+00  0.00000000E+00  0.00000000E+00
  0.00000000E+00  0.00000000E+00  0.00000000E+00
  0.00000000E+00  0.00000000E+00  0.00000000E+00
  0.00000000E+00  0.00000000E+00  0.00000000E+00
  0.00000000E+00  0.00000000E+00  0.00000000E+00
  0.00000000E+00  0.00000000E+00  0.00000000E+00
  0.00000000E+00  0.00000000E+00  0.00000000E+00
  0.00000000E+00  0.00000000E+00  0.00000000E+00
  0.00000000E+00  0.00000000E+00  0.00000000E+00
  0.00000000E+00  0.00000000E+00  0.00000000E+00
  0.00000000E+00  0.00000000E+00  0.00000000E+00
  0.00000000E+00  0.00000000E+00  0.00000000E+00
  0.00000000E+00  0.00000000E+00  0.00000000E+00
  0.00000000E+00  0.00000000E+00  0.00000000E+00
  0.00000000E+00  0.00000000E+00  0.00000000E+00
  0.00000000E+00  0.00000000E+00  0.00000000E+00
  0.00000000E+00  0.00000000E+00  0.00000000E+00
  0.00000000E+00  0.00000000E+00  0.00000000E+00
  0.00000000E+00  0.00000000E+00  0.00000000E+00
  0.00000000E+00  0.00000000E+00  0.00000000E+00
  0.00000000E+00  0.00000000E+00  0.00000000E+00
  0.00000000E+00  0.00000000E+00  0.00000000E+00
  0.00000000E+00  0.00000000E+00  0.00000000E+00
  0.00000000E+00  0.00000000E+00  0.00000000E+00
  0.00000000E+00  0.00000000E+00  0.00000000E+00
  0.00000000E+00  0.00000000E+00  0.00000000E+00
  0.00000000E+00  0.00000000E+00  0.00000000E+00
  0.00000000E+00  0.00000000E+00  0.00000000E+00
  0.00000000E+00  0.00000000E+00  0.00000000E+00
  0.00000000E+00  0.00000000E+00  0.00000000E+00
  0.00000000E+00  0.00000000E+00  0.00000000E+00
  0.00000000E+00  0.00000000E+00  0.00000000E+00
  0.00000000E+00  0.00000000E+00  0.00000000E+00
  0.00000000E+00  0.00000000E+00  0.00000000E+00
  0.00000000E+00  0.00000000E+00  0.00000000E+00
  0.00000000E+00  0.00000000E+00  0.00000000E+00
  0.00000000E+00  0.00000000E+00  0.00000000E+00
  0.00000000E+00  0.00000000E+00  0.00000000E+00
  0.00000000E+00  0.00000000E+00  0.00000000E+00
  0.00000000E+00  0.00000000E+00  0.00000000E+00
  0.00000000E+00  0.00000000E+00  0.00000000E+00
  0.00000000E+00  0.00000000E+00  0.00000000E+00
  0.00000000E+00  0.00000000E+00  0.00000000E+00
  0.00000000E+00  0.00000000E+00  0.00000000E+00
  0.00000000E+00  0.00000000E+00  0.00000000E+00
  0.00000000E+00  0.00000000E+00  0.00000000E+00
  0.00000000E+00  0.00000000E+00  0.00000000E+00
  0.00000000E+00  0.00000000E+00  0.00000000E+00
  0.00000000E+00  0.00000000E+00  0.00000000E+00
  0.00000000E+00  0.00000000E+00  0.00000000E+00
  0.00000000E+00  0.00000000E+00  0.00000000E+00
  0.00000000E+00  0.00000000E+00  0.00000000E+00
  0.00000000E+00  0.00000000E+00  0.00000000E+00
  0.00000000E+00  0.00000000E+00  0.00000000E+00
  0.00000000E+00  0.00000000E+00  0.00000000E+00
  0.00000000E+00  0.00000000E+00  0.00000000E+00
  0.00000000E+00  0.00000000E+00  0.00000000E+00
  0.00000000E+00  0.00000000E+00  0.00000000E+00
  0.00000000E+00  0.00000000E+00  0.00000000E+00
  0.00000000E+00  0.00000000E+00  0.00000000E+00
  0.00000000E+00  0.00000000E+00  0.00000000E+00
  0.00000000E+00  0.00000000E+00  0.00000000E+00
  0.00000000E+00  0.00000000E+00  0.00000000E+00
  0.00000000E+00  0.00000000E+00  0.00000000E+00
  0.00000000E+00  0.00000000E+00  0.00000000E+00
  0.00000000E+00  0.00000000E+00  0.00000000E+00
  0.00000000E+00  0.00000000E+00  0.00000000E+00
  0.00000000E+00  0.00000000E+00  0.00000000E+00
  0.00000000E+00  0.00000000E+00  0.00000000E+00
  0.00000000E+00  0.00000000E+00  0.00000000E+00
  0.00000000E+00  0.00000000E+00  0.00000000E+00
  0.00000000E+00  0.00000000E+00  0.00000000E+00
  0.00000000E+00  0.00000000E+00  0.00000000E+00
  0.00000000E+00  0.00000000E+00  0.00000000E+00
  0.00000000E+00  0.00000000E+00  0.00000000E+00
  0.00000000E+00  0.00000000E+00  0.00000000E+00
  0.00000000E+00  0.00000000E+00  0.00000000E+00
  0.00000000E+00  0.00000000E+00  0.00000000E+00
  0.00000000E+00  0.00000000E+00  0.00000000E+00
  0.00000000E+00  0.00000000E+00  0.00000000E+00
  0.00000000E+00  0.00000000E+00  0.00000000E+00
  0.00000000E+00  0.00000000E+00  0.00000000E+00
  0.00000000E+00  0.00000000E+00  0.00000000E+00
  0.00000000E+00  0.00000000E+00  0.00000000E+00
  0.00000000E+00  0.00000000E+00  0.00000000E+00
  0.00000000E+00  0.00000000E+00  0.00000000E+00
  0.00000000E+00  0.00000000E+00  0.00000000E+00
  0.00000000E+00  0.00000000E+00  0.00000000E+00
  0.00000000E+00  0.00000000E+00  0.00000000E+00
  0.00000000E+00  0.00000000E+00  0.00000000E+00
  0.00000000E+00  0.00000000E+00  0.00000000E+00
  0.00000000E+00  0.00000000E+00  0.00000000E+00
  0.00000000E+00  0.00000000E+00  0.00000000E+00
  0.00000000E+00  0.00000000E+00  0.00000000E+00
  0.00000000E+00  0.00000000E+00  0.00000000E+00
  0.00000000E+00  0.00000000E+00  0.00000000E+00
  0.00000000E+00  0.00000000E+00  0.00000000E+00
  0.00000000E+00  0.00000000E+00  0.00000000E+00
  0.00000000E+00  0.00000000E+00  0.00000000E+00
  0.00000000E+00  0.00000000E+00  0.00000000E+00
  0.00000000E+00  0.00000000E+00  0.00000000E+00
  0.00000000E+00  0.00000000E+00  0.00000000E+00
  0.00000000E+00  0.00000000E+00  0.00000000E+00
  0.00000000E+00  0.00000000E+00  0.00000000E+00
  0.00000000E+00  0.00000000E+00  0.00000000E+00
  0.00000000E+00  0.00000000E+00  0.00000000E+00
  0.00000000E+00  0.00000000E+00  0.00000000E+00
  0.00000000E+00  0.00000000E+00  0.00000000E+00
  0.00000000E+00  0.00000000E+00  0.00000000E+00
  0.00000000E+00  0.00000000E+00  0.00000000E+00
  0.00000000E+00  0.00000000E+00  0.00000000E+00
  0.00000000E+00  0.00000000E+00  0.00000000E+00
  0.00000000E+00  0.00000000E+00  0.00000000E+00
  0.00000000E+00  0.00000000E+00  0.00000000E+00
  0.00000000E+00  0.00000000E+00  0.00000000E+00
  0.00000000E+00  0.00000000E+00  0.00000000E+00
  0.00000000E+00  0.00000000E+00  0.00000000E+00
  0.00000000E+00  0.00000000E+00  0.00000000E+00
  0.00000000E+00  0.00000000E+00  0.00000000E+00
  0.00000000E+00  0.00000000E+00  0.00000000E+00
  0.00000000E+00  0.00000000E+00  0.00000000E+00
  0.00000000E+00  0.00000000E+00  0.00000000E+00
  0.00000000E+00  0.00000000E+00  0.00000000E+00
  0.00000000E+00  0.00000000E+00  0.00000000E+00
  0.00000000E+00  0.00000000E+00  0.00000000E+00
  0.00000000E+00  0.00000000E+00  0.00000000E+00
  0.00000000E+00  0.00000000E+00  0.00000000E+00
  0.00000000E+00  0.00000000E+00  0.00000000E+00
  0.00000000E+00  0.00000000E+00  0.00000000E+00
  0.00000000E+00  0.00000000E+00  0.00000000E+00
  0.00000000E+00  0.00000000E+00  0.00000000E+00
  0.00000000E+00  0.00000000E+00  0.00000000E+00
  0.00000000E+00  0.00000000E+00  0.00000000E+00
  0.00000000E+00  0.00000000E+00  0.00000000E+00
  0.00000000E+00  0.00000000E+00  0.00000000E+00
  0.00000000E+00  0.00000000E+00  0.00000000E+00
  0.00000000E+00  0.00000000E+00  0.00000000E+00
  0.00000000E+00  0.00000000E+00  0.00000000E+00