FeMn_288_15                             
    1.000000000000000     
     9.7266779999999997    0.0000000000000000    0.0000000000000000
     0.0000000000000000    8.4235500000000005    0.0000000000000000
     0.0000000000000000    0.0000000000000000   45.0000000000000000
   Fe   Mn
   273    15
Direct
  0.4375015936085659  0.4535029919650574  0.3464145541295338
  0.3125702246254461  0.3694312161024350  0.3019348275938268
  0.1873401302558791  0.6183923567692673  0.1689879115186411
  0.9375036065125140  0.4539259894312972  0.3463570899412288
  0.9375170141219654  0.9535958293515345  0.3463162038440937
  0.1874739735923802  0.1183391088190846  0.1689689177943990
  0.4372737009808420  0.1226272506845313  0.5213369591148648
  0.6870942047668335  0.1257934398306851  0.7862501780957265
  0.9378329800556309  0.6256045049700824  0.7863120460643553
  0.3124441125187049  0.2035287395181334  0.3463811653915838
  0.5625026961244630  0.3728143252978576  0.5213629833017691
  0.1876591593375612  0.4519776254089377  0.2137105646264986
  0.0632494988300771  0.5430845036385074  0.8732462873859005
  0.8124080061148210  0.5372019804438138  0.3901920750342633
  0.4372149286246499  0.1265609833345080  0.7862246080297555
  0.4374642530624592  0.6216573458913457  0.4348442084899024
  0.3123973484676428  0.8698092600641839  0.3020609519935097
  0.6876815820638496  0.4539818447116037  0.3464417832623761
  0.4374630370351365  0.9536916925851171  0.3464218903404373
  0.5623434404092311  0.0373625756440307  0.3903091687872653
  0.5622356023151923  0.0358201872252999  0.2578197026771176
  0.4374906668212798  0.6195879823815296  0.3019711661779249
  0.9374971465641725  0.4518497210189619  0.2137129453937070
  0.0626264806372841  0.0360281495839849  0.2578888636556245
  0.9376488245696146  0.7874453626361060  0.3902680857215948
  0.1876493494901333  0.1246419052845780  0.6535826811450540
  0.9377245921415621  0.1214137073214553  0.4348383264675264
  0.0626267274108861  0.7081590028731929  0.6979884880403163
  0.1877457473094118  0.9591542661157905  0.8312519558418725
  0.3123481913890874  0.5407264082680754  0.6097244493843625
  0.8125564676641536  0.3685903011471189  0.1689203178493032
  0.3126571580897846  0.3756635263356760  0.7863216474073338
  0.8122095142887579  0.7081962670779716  0.6980365984048280
  0.9374405634066590  0.6238517802278039  0.6535699541601395
  0.5622174610517767  0.3683065797716680  0.1688750979097762
  0.1872018034150266  0.6253556975426945  0.7861624784053314
  0.1873026965222594  0.2853054481889272  0.1267669417006647
  0.1875289518368033  0.6242512178801566  0.6535985287162340
  0.3124372472352010  0.0351576145914896  0.1267844463397073
  0.1873360358404954  0.4591571760549120  0.8310259437028792
  0.8126192160506748  0.7083710425808161  0.8313460864292140
  0.6872124265733357  0.1213041281403591  0.4351108303748265
  0.8127819743190312  0.8709247292603923  0.4348025696184877
  0.9372642791906319  0.9524350984800977  0.2137433162065328
  0.8125026436272010  0.8688672121578949  0.1688704439002336
  0.9374860509948068  0.4547279239984636  0.4785929611190497
  0.3124380603967929  0.3689206420176265  0.1688537763981241
  0.5621234649129309  0.8695616921718701  0.3019030157597163
  0.1867595087732956  0.7938984006620182  0.8733925505210152
  0.8127525377100400  0.5400268338621074  0.6097663758863250
  0.0625078351644989  0.0352338259106250  0.1267899774940298
  0.1876364783662679  0.1256044320096639  0.7863108366496017
  0.9376554827295479  0.9583027849998244  0.6980291508899121
  0.0622892932444879  0.8682393562259646  0.1689402547925785
  0.9376919065788013  0.1224052151341231  0.5213505765080721
  0.6878969780211686  0.9553154551199909  0.4786249149499556
  0.4374393187280563  0.4563005400868229  0.5650599872422932
  0.0624296670550143  0.5405886990437883  0.6096351539881570
  0.5620531399665915  0.2099232536947183  0.8310488598951630
  0.6875693727718689  0.9522557002887666  0.2137256560965348
  0.0626946746830099  0.3683662328107724  0.1688542281780472
  0.3126572878821987  0.3741348422683426  0.6536408972809120
  0.0625062648811990  0.2063932950005531  0.5650448163719688
  0.9370244495089244  0.2918000105893887  0.7421200564817637
  0.6870291654237335  0.9595861680873010  0.8311922692912596
  0.3125876137720719  0.5375603815584309  0.3901203161416492
  0.3125495847313519  0.8759245551594301  0.7863827775796021
  0.9371670982012303  0.9597503527468400  0.8312382304667316
  0.1873932656391611  0.7863759898871476  0.2579352503650687
  0.8123207722276622  0.2099176721700637  0.8313113347232500
  0.4376986237788666  0.7873103406899291  0.3902272095663129
  0.5625100949561957  0.8722698894909132  0.5212541285132634
  0.6881088593131823  0.4597556594811253  0.8311290953857570
  0.3121263971213821  0.5347918373280907  0.1267477129823885
  0.5625385373935302  0.2054572246620925  0.4787343630007539
  0.6874629479739320  0.2922722665326752  0.7421780591387662
  0.3116896843987679  0.0430829225580006  0.8733394724176673
  0.5627573262642375  0.8758986761746965  0.7862941968154722
  0.8125718055590385  0.0358208179454923  0.2579047676446797
  0.9378973770086452  0.7854502838797277  0.1268305452055154
  0.5621111138007113  0.3757293149707664  0.7861476982720349
  0.6877133949499049  0.7874128305403428  0.3902105168184558
  0.3126161812635637  0.3725666673229374  0.5213578714223673
  0.1879646309669139  0.9564136904719088  0.5652239017497142
  0.9374418237142392  0.7900546067051374  0.6096887716237001
  0.8128964595896313  0.7021206742747449  0.2136810039684145
  0.9370808361655345  0.4596559528071471  0.8312143678192235
  0.0624446498313631  0.5358528674265635  0.2578859469321731
  0.8126521615975737  0.2064769358642825  0.5650864787675665
  0.5624736914669959  0.0359116890283896  0.1267253249823108
  0.9375401390914816  0.1242619374806215  0.6536779360300689
  0.6875659299302386  0.2915562489312559  0.8733433721501248
  0.6872430065458889  0.7920034448806779  0.7420996561336801
  0.6871551212768224  0.4559416457316361  0.5650828946922927
  0.0628802573147233  0.5375746317878750  0.3902582395945295
  0.0625163544869023  0.8727324583773929  0.5212699930134572
  0.6875979868269031  0.4584701590267580  0.6980454265698064
  0.5622032580675215  0.5375276277583009  0.3902502473968490
  0.0627581575705142  0.2054484058272077  0.4786292336282172
  0.5624827486270242  0.7048433002972309  0.4785910446256895
  0.1872805044161800  0.2921091742173026  0.7422128366030029
  0.4376682688798219  0.7918216220576065  0.7421720381429529
  0.0623074963223049  0.2034898830748477  0.3464588787846306
  0.1874275365864503  0.1197764327158958  0.3020349452982281
  0.8126268549789303  0.3741336318985749  0.6535799302271896
  0.1878466387045503  0.6224800319279741  0.5212582611216735
  0.5632450938651012  0.0426762221916108  0.8733395541476107
  0.8123434768950649  0.0428640891078522  0.8733856157361715
  0.0620269630025730  0.3742602300639361  0.6536341406632944
  0.0625692755797618  0.7060819005087040  0.5648256391714381
  0.5621088906901002  0.5420564450336955  0.7420800561572982
  0.5625197454785851  0.5402074312871642  0.6097382336222763
  0.0627648641898671  0.0403288986671191  0.6097018806952665
  0.9370670649268391  0.7919230167451188  0.7421764593872270
  0.9377307304552632  0.2901444559016031  0.6097122722508082
  0.8121537420031887  0.5420017335680278  0.7422094349618750
  0.0624174502668624  0.3726781714533501  0.5212740534317438
  0.3126507429005665  0.0375746808665652  0.3902339676009460
  0.3120202468567907  0.8713204854990616  0.4348583932303542
  0.3120721461975002  0.8720553775254540  0.5212706274262424
  0.9369640526679210  0.9553578728838227  0.4786880425923077
  0.3125792306560989  0.5420984163514088  0.8732886455615467
  0.0625643181196075  0.3716662793028591  0.4348506376021944
  0.3124475957906994  0.8685833375438385  0.1689445225036364
  0.5624653398971000  0.3716855843941918  0.4347836622261105
  0.5626503113867811  0.8741089761953030  0.6535526883667240
  0.9375052183924767  0.6182263678865922  0.1689375930956145
  0.9374426577433551  0.6223303644045562  0.5213554403672260
  0.6872708893480984  0.1186878530144759  0.1689871826041619
  0.4376108977437324  0.7852471286775750  0.1267029061492844
  0.5625095547675710  0.7096821226516127  0.8314177800352168
  0.5622970199694225  0.2022599533346498  0.2137078905296057
  0.8124066050716960  0.3727421485470211  0.5213597981966333
  0.3125190416083189  0.7061772050096242  0.5651681201081457
  0.1873161162285217  0.7905929904939484  0.6097235941810527
  0.0622422100718227  0.3699041607795765  0.3019510221596711
  0.5628495545240614  0.7056618881459463  0.5650847617474503
  0.6872443907723820  0.1241938023018089  0.6537044408061571
  0.9376814831586242  0.1185027253054052  0.1690115421162165
  0.6874180742444567  0.6197890208801167  0.3020355785984045
  0.0627437036201388  0.2020406153558112  0.2136979212888133
  0.0624023513494240  0.7020439042251982  0.2137055550930204
  0.3126004738282712  0.3714879453783297  0.4349250182385538
  0.5623635378149521  0.0403463962050013  0.6096993125937219
  0.4375012746363743  0.1184597878115343  0.1689500875905072
  0.1877023466816607  0.4565010973843144  0.5651523782923282
  0.5626567488769488  0.8681648764855401  0.1688324093428438
  0.0628395562135519  0.7035912206439456  0.3464295206609278
  0.6875995058884666  0.6224361682143633  0.5213326628386529
  0.6874535726211920  0.6240080740213535  0.6535722070601478
  0.4377100425999756  0.9587582582481678  0.8313016259532456
  0.1877569263437531  0.1215203615179448  0.4348500758477317
  0.4375811536164376  0.1239574312377361  0.6536661993247271
  0.4370472636166983  0.4599672050850370  0.8311863840432419
  0.5622815985303854  0.0422713432150233  0.7422148035813114
  0.5624653942955108  0.2067860530106226  0.5651976162530258
  0.4375988572793680  0.6241637156132152  0.6535149616526555
  0.9386888578887277  0.7929016011506667  0.8734066194405750
  0.8124842151803745  0.0350977141598968  0.1268315896986140
  0.9376190296165626  0.4558737487684170  0.5651575037430825
  0.1876844969722794  0.6196210783806662  0.3019625370447132
  0.6876189875540230  0.1195770311782608  0.3019498902142129
  0.8124639407905552  0.3715626720952359  0.4347863922478263
  0.6870933138178176  0.7853984793477746  0.1267338497285406
  0.6873128250365169  0.2870863666789603  0.3902113039634718
  0.4375108749354008  0.9523709773362417  0.2136858641144219
  0.9373843558941282  0.2922501988472245  0.8732778287746155
  0.5628287832142920  0.3740758198182872  0.6536549905078833
  0.3124285757153320  0.0417689611185467  0.7420699994597013
  0.5626188948778965  0.5358863354412833  0.2578467551072937
  0.8126229179311464  0.8763634574923259  0.7861571115720861
  0.1875304357259196  0.9559785659738017  0.4785495588908278
  0.0629157615470649  0.8695971547223590  0.3019038320183710
  0.6874342990865119  0.9536376688536795  0.3463237772688009
  0.5617830778326991  0.5424290759062065  0.8733544969544585
  0.9376216819315534  0.2861691536835568  0.2579054924930969
  0.4377257382083343  0.7860016213331354  0.2579378935030270
  0.8125540719449931  0.3700294320654047  0.3019522450706729
  0.3125485037905029  0.7032121219580936  0.3463901022004964
  0.8122819584121992  0.3754405578833753  0.7863758448300340
  0.4376373593361791  0.7904527615548792  0.6096743296070273
  0.6872934234941918  0.2853395360100320  0.1267731168398961
  0.6872251464462560  0.7933478083942026  0.8733659783038420
  0.4374119413080165  0.2904989776197827  0.6098065421959914
  0.3125727629277665  0.5419236761816408  0.7421949727140835
  0.5628554250433625  0.3692589322655950  0.3020264521353798
  0.3126521995089009  0.0403830721652871  0.6096876765885497
  0.3125397958649933  0.2077482148339646  0.6979176479119036
  0.8124406058888913  0.7038116333109012  0.3464332890436742
  0.5622486153984150  0.7037030238258148  0.3463618108348003
  0.5622883133240367  0.7081310423234591  0.6979482352321950
  0.4377670596581315  0.2854773907651875  0.1267571712059360
  0.9376006577520148  0.4581028513585747  0.6978394820703084
  0.4373669366877193  0.4580919613858213  0.6978835946311066
  0.1875258838330827  0.2855733906382294  0.2578724183943185
  0.9375677234749209  0.2852010515452762  0.1267706224133141
  0.1875711775070584  0.9523099189161409  0.2137525519685780
  0.0627971435809953  0.3749476410905544  0.7861900260506895
  0.3123275672499703  0.2021562141933815  0.2137288529468035
  0.0624350451597158  0.8743050030500200  0.6535948461059192
  0.1870246849609981  0.7870833909062440  0.3901809180622364
  0.1873588895313068  0.7853304359435459  0.1267915131439605
  0.4375951230358965  0.2855249005414938  0.2578768417806742
  0.1876272694802128  0.9580186535855180  0.6980303631958558
  0.6875469587904008  0.9583646108781984  0.6979511723024776
  0.1873115979827337  0.4549365832451827  0.4785893428526690
  0.3122673823312372  0.7022169761653217  0.2137283915898679
  0.6874759731592547  0.7854805362965647  0.2578279201452410
  0.4373863793405366  0.4552700094491769  0.4786306527480851
  0.6876684957066547  0.6213378874955783  0.4348902838324714
  0.4372938924591839  0.4523133009327975  0.2137172271772695
  0.0627485706367056  0.0378163233352132  0.3902450453353954
  0.9375996133300094  0.2872896380117131  0.3902338910669855
  0.5626583603322860  0.2080232762075884  0.6980370229987569
  0.9373108338763505  0.6212545965823046  0.4348756121587127
  0.0629962129527350  0.5420381335202688  0.7420941961834888
  0.4376798331339952  0.2923394096270508  0.8732294798476183
  0.1875836091929424  0.2879436827491622  0.3902371616168182
  0.9375878792305643  0.7855407177622585  0.2578549685720937
  0.8127280340361259  0.8723828991280373  0.5213856244404256
  0.8128213481868197  0.2022380690380923  0.2137719876563483
  0.6877377041911544  0.7898050589292053  0.6097410022021449
  0.4376355763277835  0.1195832064798920  0.3020221163778536
  0.3124387690973112  0.2054124861159962  0.4786094140623812
  0.6872586822163433  0.6185460293137044  0.1688724724815819
  0.6873569101403313  0.9559853243414803  0.5652001453267306
  0.6874667429926299  0.2861307023472049  0.2578856796466818
  0.0621688227469380  0.8756358161146494  0.7863328595244364
  0.1874564229902120  0.4533925248842501  0.3463285520226294
  0.5628631273761736  0.2038702597081211  0.3463797557287769
  0.6873484103315165  0.2898768346054660  0.6096748624476861
  0.8121100880673150  0.7053028283760782  0.4786081517391690
  0.8125300476294637  0.2034306517078584  0.3464239152309213
  0.3129430355969188  0.7078619252905971  0.6979474757912562
  0.4371922380189864  0.6226100423787952  0.5213086962813698
  0.9375082180380969  0.1197980562695545  0.3019806741890256
  0.8128931955164334  0.5348152581820163  0.1267568035122898
  0.9378514167524915  0.1256183122952872  0.7863287493799118
  0.5627003086266910  0.8712967615384104  0.4347551204181481
  0.8123246060395816  0.2056164757348333  0.4786601063602881
  0.9377091846834243  0.6198521308401402  0.3019801562877105
  0.4377739526149428  0.6187669848699215  0.1688998449185941
  0.4378917788094994  0.2921051083779403  0.7422339507349190
  0.0625265532831541  0.8716340807158903  0.4349071841385000
  0.4371036899237712  0.6260461019751754  0.7863114126369639
  0.3130791144105239  0.7099526558394086  0.8312285144563156
  0.6875589046645255  0.4521946495994646  0.2137068541523775
  0.5623965502462104  0.5355837009561238  0.1266837638876004
  0.0628260357017927  0.0430774965404193  0.8734472856387077
  0.1870834188856677  0.2927241277715238  0.8732087985860479
  0.0625744648153022  0.0420511734223857  0.7422586803063038
  0.3126195977512666  0.2094643967254553  0.8310847512876040
  0.1876333500742143  0.4582355326332350  0.6980977989780476
  0.3128637530780786  0.7052358465325029  0.4785352650979548
  0.8120704951331015  0.2085362040805998  0.6979512450338251
  0.4376425553725097  0.2879226190792938  0.3902205448411238
  0.4374365961943140  0.1216661362910637  0.4347558334971613
  0.0628624890058087  0.2093957387321381  0.8310591025873212
  0.3122856678994482  0.2071171511716366  0.5651222343861512
  0.0625893205422312  0.5351394778872116  0.1267160439979499
  0.1876872655369133  0.6215111056500596  0.4348284131085072
  0.4375283707661402  0.9564424726262141  0.5648868241973062
  0.6878052852670521  0.4550639127586487  0.4786500773785454
  0.8121384206667724  0.7063917109995224  0.5651383527582210
  0.3124884716473058  0.5358835554622660  0.2578593894156149
  0.1876176395326996  0.2904162164289637  0.6096967305079860
  0.4372471798456664  0.9576494971145796  0.6980173725591020
  0.8126338015026532  0.8742308347947065  0.6536180840391331
  0.1875729918521818  0.1223933504503606  0.5213330169392247
  0.8128392433900167  0.8696878933127936  0.3020079938927757
  0.1877264978203572  0.9535420444591426  0.3462994203152522
  0.0617277551206362  0.7093223124518858  0.8311745766161771
  0.8121776451879474  0.0400546100934934  0.6096709327694139
  0.4373303479031188  0.7931222818697757  0.8731972048876213
  0.4375081580526986  0.9555781197697156  0.4787117537524239
  0.8122079576804646  0.5358806188046583  0.2578133387999439
  0.8121914484067128  0.5428465602900956  0.8730685293346278
  0.3124673850307097  0.0360204552958986  0.2578376711497488
  0.3125806262632002  0.8740870600877300  0.6534769323315415
  0.6874284047719460  0.1220654827683536  0.5212792610591295
  0.0621537529980617  0.2081505924798960  0.6981193700422322
  0.0625676504078553  0.7050919939939966  0.4786636408937705
  0.8124776583140793  0.0376190392860785  0.3900396504747135
  0.5629115985432007  0.7019979050028378  0.2139323126057338
  0.1874164667054298  0.7918027870010328  0.7421933834516433
  0.6878614888847678  0.6252946913201307  0.7859605516904650
  0.9370408038773451  0.9566196894480651  0.5651949767966581
  0.8129048739433197  0.0423535038642618  0.7422549571438010
 
  0.00000000E+00  0.00000000E+00  0.00000000E+00
  0.00000000E+00  0.00000000E+00  0.00000000E+00
  0.00000000E+00  0.00000000E+00  0.00000000E+00
  0.00000000E+00  0.00000000E+00  0.00000000E+00
  0.00000000E+00  0.00000000E+00  0.00000000E+00
  0.00000000E+00  0.00000000E+00  0.00000000E+00
  0.00000000E+00  0.00000000E+00  0.00000000E+00
  0.00000000E+00  0.00000000E+00  0.00000000E+00
  0.00000000E+00  0.00000000E+00  0.00000000E+00
  0.00000000E+00  0.00000000E+00  0.00000000E+00
  0.00000000E+00  0.00000000E+00  0.00000000E+00
  0.00000000E+00  0.00000000E+00  0.00000000E+00
  0.00000000E+00  0.00000000E+00  0.00000000E+00
  0.00000000E+00  0.00000000E+00  0.00000000E+00
  0.00000000E+00  0.00000000E+00  0.00000000E+00
  0.00000000E+00  0.00000000E+00  0.00000000E+00
  0.00000000E+00  0.00000000E+00  0.00000000E+00
  0.00000000E+00  0.00000000E+00  0.00000000E+00
  0.00000000E+00  0.00000000E+00  0.00000000E+00
  0.00000000E+00  0.00000000E+00  0.00000000E+00
  0.00000000E+00  0.00000000E+00  0.00000000E+00
  0.00000000E+00  0.00000000E+00  0.00000000E+00
  0.00000000E+00  0.00000000E+00  0.00000000E+00
  0.00000000E+00  0.00000000E+00  0.00000000E+00
  0.00000000E+00  0.00000000E+00  0.00000000E+00
  0.00000000E+00  0.00000000E+00  0.00000000E+00
  0.00000000E+00  0.00000000E+00  0.00000000E+00
  0.00000000E+00  0.00000000E+00  0.00000000E+00
  0.00000000E+00  0.00000000E+00  0.00000000E+00
  0.00000000E+00  0.00000000E+00  0.00000000E+00
  0.00000000E+00  0.00000000E+00  0.00000000E+00
  0.00000000E+00  0.00000000E+00  0.00000000E+00
  0.00000000E+00  0.00000000E+00  0.00000000E+00
  0.00000000E+00  0.00000000E+00  0.00000000E+00
  0.00000000E+00  0.00000000E+00  0.00000000E+00
  0.00000000E+00  0.00000000E+00  0.00000000E+00
  0.00000000E+00  0.00000000E+00  0.00000000E+00
  0.00000000E+00  0.00000000E+00  0.00000000E+00
  0.00000000E+00  0.00000000E+00  0.00000000E+00
  0.00000000E+00  0.00000000E+00  0.00000000E+00
  0.00000000E+00  0.00000000E+00  0.00000000E+00
  0.00000000E+00  0.00000000E+00  0.00000000E+00
  0.00000000E+00  0.00000000E+00  0.00000000E+00
  0.00000000E+00  0.00000000E+00  0.00000000E+00
  0.00000000E+00  0.00000000E+00  0.00000000E+00
  0.00000000E+00  0.00000000E+00  0.00000000E+00
  0.00000000E+00  0.00000000E+00  0.00000000E+00
  0.00000000E+00  0.00000000E+00  0.00000000E+00
  0.00000000E+00  0.00000000E+00  0.00000000E+00
  0.00000000E+00  0.00000000E+00  0.00000000E+00
  0.00000000E+00  0.00000000E+00  0.00000000E+00
  0.00000000E+00  0.00000000E+00  0.00000000E+00
  0.00000000E+00  0.00000000E+00  0.00000000E+00
  0.00000000E+00  0.00000000E+00  0.00000000E+00
  0.00000000E+00  0.00000000E+00  0.00000000E+00
  0.00000000E+00  0.00000000E+00  0.00000000E+00
  0.00000000E+00  0.00000000E+00  0.00000000E+00
  0.00000000E+00  0.00000000E+00  0.00000000E+00
  0.00000000E+00  0.00000000E+00  0.00000000E+00
  0.00000000E+00  0.00000000E+00  0.00000000E+00
  0.00000000E+00  0.00000000E+00  0.00000000E+00
  0.00000000E+00  0.00000000E+00  0.00000000E+00
  0.00000000E+00  0.00000000E+00  0.00000000E+00
  0.00000000E+00  0.00000000E+00  0.00000000E+00
  0.00000000E+00  0.00000000E+00  0.00000000E+00
  0.00000000E+00  0.00000000E+00  0.00000000E+00
  0.00000000E+00  0.00000000E+00  0.00000000E+00
  0.00000000E+00  0.00000000E+00  0.00000000E+00
  0.00000000E+00  0.00000000E+00  0.00000000E+00
  0.00000000E+00  0.00000000E+00  0.00000000E+00
  0.00000000E+00  0.00000000E+00  0.00000000E+00
  0.00000000E+00  0.00000000E+00  0.00000000E+00
  0.00000000E+00  0.00000000E+00  0.00000000E+00
  0.00000000E+00  0.00000000E+00  0.00000000E+00
  0.00000000E+00  0.00000000E+00  0.00000000E+00
  0.00000000E+00  0.00000000E+00  0.00000000E+00
  0.00000000E+00  0.00000000E+00  0.00000000E+00
  0.00000000E+00  0.00000000E+00  0.00000000E+00
  0.00000000E+00  0.00000000E+00  0.00000000E+00
  0.00000000E+00  0.00000000E+00  0.00000000E+00
  0.00000000E+00  0.00000000E+00  0.00000000E+00
  0.00000000E+00  0.00000000E+00  0.00000000E+00
  0.00000000E+00  0.00000000E+00  0.00000000E+00
  0.00000000E+00  0.00000000E+00  0.00000000E+00
  0.00000000E+00  0.00000000E+00  0.00000000E+00
  0.00000000E+00  0.00000000E+00  0.00000000E+00
  0.00000000E+00  0.00000000E+00  0.00000000E+00
  0.00000000E+00  0.00000000E+00  0.00000000E+00
  0.00000000E+00  0.00000000E+00  0.00000000E+00
  0.00000000E+00  0.00000000E+00  0.00000000E+00
  0.00000000E+00  0.00000000E+00  0.00000000E+00
  0.00000000E+00  0.00000000E+00  0.00000000E+00
  0.00000000E+00  0.00000000E+00  0.00000000E+00
  0.00000000E+00  0.00000000E+00  0.00000000E+00
  0.00000000E+00  0.00000000E+00  0.00000000E+00
  0.00000000E+00  0.00000000E+00  0.00000000E+00
  0.00000000E+00  0.00000000E+00  0.00000000E+00
  0.00000000E+00  0.00000000E+00  0.00000000E+00
  0.00000000E+00  0.00000000E+00  0.00000000E+00
  0.00000000E+00  0.00000000E+00  0.00000000E+00
  0.00000000E+00  0.00000000E+00  0.00000000E+00
  0.00000000E+00  0.00000000E+00  0.00000000E+00
  0.00000000E+00  0.00000000E+00  0.00000000E+00
  0.00000000E+00  0.00000000E+00  0.00000000E+00
  0.00000000E+00  0.00000000E+00  0.00000000E+00
  0.00000000E+00  0.00000000E+00  0.00000000E+00
  0.00000000E+00  0.00000000E+00  0.00000000E+00
  0.00000000E+00  0.00000000E+00  0.00000000E+00
  0.00000000E+00  0.00000000E+00  0.00000000E+00
  0.00000000E+00  0.00000000E+00  0.00000000E+00
  0.00000000E+00  0.00000000E+00  0.00000000E+00
  0.00000000E+00  0.00000000E+00  0.00000000E+00
  0.00000000E+00  0.00000000E+00  0.00000000E+00
  0.00000000E+00  0.00000000E+00  0.00000000E+00
  0.00000000E+00  0.00000000E+00  0.00000000E+00
  0.00000000E+00  0.00000000E+00  0.00000000E+00
  0.00000000E+00  0.00000000E+00  0.00000000E+00
  0.00000000E+00  0.00000000E+00  0.00000000E+00
  0.00000000E+00  0.00000000E+00  0.00000000E+00
  0.00000000E+00  0.00000000E+00  0.00000000E+00
  0.00000000E+00  0.00000000E+00  0.00000000E+00
  0.00000000E+00  0.00000000E+00  0.00000000E+00
  0.00000000E+00  0.00000000E+00  0.00000000E+00
  0.00000000E+00  0.00000000E+00  0.00000000E+00
  0.00000000E+00  0.00000000E+00  0.00000000E+00
  0.00000000E+00  0.00000000E+00  0.00000000E+00
  0.00000000E+00  0.00000000E+00  0.00000000E+00
  0.00000000E+00  0.00000000E+00  0.00000000E+00
  0.00000000E+00  0.00000000E+00  0.00000000E+00
  0.00000000E+00  0.00000000E+00  0.00000000E+00
  0.00000000E+00  0.00000000E+00  0.00000000E+00
  0.00000000E+00  0.00000000E+00  0.00000000E+00
  0.00000000E+00  0.00000000E+00  0.00000000E+00
  0.00000000E+00  0.00000000E+00  0.00000000E+00
  0.00000000E+00  0.00000000E+00  0.00000000E+00
  0.00000000E+00  0.00000000E+00  0.00000000E+00
  0.00000000E+00  0.00000000E+00  0.00000000E+00
  0.00000000E+00  0.00000000E+00  0.00000000E+00
  0.00000000E+00  0.00000000E+00  0.00000000E+00
  0.00000000E+00  0.00000000E+00  0.00000000E+00
  0.00000000E+00  0.00000000E+00  0.00000000E+00
  0.00000000E+00  0.00000000E+00  0.00000000E+00
  0.00000000E+00  0.00000000E+00  0.00000000E+00
  0.00000000E+00  0.00000000E+00  0.00000000E+00
  0.00000000E+00  0.00000000E+00  0.00000000E+00
  0.00000000E+00  0.00000000E+00  0.00000000E+00
  0.00000000E+00  0.00000000E+00  0.00000000E+00
  0.00000000E+00  0.00000000E+00  0.00000000E+00
  0.00000000E+00  0.00000000E+00  0.00000000E+00
  0.00000000E+00  0.00000000E+00  0.00000000E+00
  0.00000000E+00  0.00000000E+00  0.00000000E+00
  0.00000000E+00  0.00000000E+00  0.00000000E+00
  0.00000000E+00  0.00000000E+00  0.00000000E+00
  0.00000000E+00  0.00000000E+00  0.00000000E+00
  0.00000000E+00  0.00000000E+00  0.00000000E+00
  0.00000000E+00  0.00000000E+00  0.00000000E+00
  0.00000000E+00  0.00000000E+00  0.00000000E+00
  0.00000000E+00  0.00000000E+00  0.00000000E+00
  0.00000000E+00  0.00000000E+00  0.00000000E+00
  0.00000000E+00  0.00000000E+00  0.00000000E+00
  0.00000000E+00  0.00000000E+00  0.00000000E+00
  0.00000000E+00  0.00000000E+00  0.00000000E+00
  0.00000000E+00  0.00000000E+00  0.00000000E+00
  0.00000000E+00  0.00000000E+00  0.00000000E+00
  0.00000000E+00  0.00000000E+00  0.00000000E+00
  0.00000000E+00  0.00000000E+00  0.00000000E+00
  0.00000000E+00  0.00000000E+00  0.00000000E+00
  0.00000000E+00  0.00000000E+00  0.00000000E+00
  0.00000000E+00  0.00000000E+00  0.00000000E+00
  0.00000000E+00  0.00000000E+00  0.00000000E+00
  0.00000000E+00  0.00000000E+00  0.00000000E+00
  0.00000000E+00  0.00000000E+00  0.00000000E+00
  0.00000000E+00  0.00000000E+00  0.00000000E+00
  0.00000000E+00  0.00000000E+00  0.00000000E+00
  0.00000000E+00  0.00000000E+00  0.00000000E+00
  0.00000000E+00  0.00000000E+00  0.00000000E+00
  0.00000000E+00  0.00000000E+00  0.00000000E+00
  0.00000000E+00  0.00000000E+00  0.00000000E+00
  0.00000000E+00  0.00000000E+00  0.00000000E+00
  0.00000000E+00  0.00000000E+00  0.00000000E+00
  0.00000000E+00  0.00000000E+00  0.00000000E+00
  0.00000000E+00  0.00000000E+00  0.00000000E+00
  0.00000000E+00  0.00000000E+00  0.00000000E+00
  0.00000000E+00  0.00000000E+00  0.00000000E+00
  0.00000000E+00  0.00000000E+00  0.00000000E+00
  0.00000000E+00  0.00000000E+00  0.00000000E+00
  0.00000000E+00  0.00000000E+00  0.00000000E+00
  0.00000000E+00  0.00000000E+00  0.00000000E+00
  0.00000000E+00  0.00000000E+00  0.00000000E+00
  0.00000000E+00  0.00000000E+00  0.00000000E+00
  0.00000000E+00  0.00000000E+00  0.00000000E+00
  0.00000000E+00  0.00000000E+00  0.00000000E+00
  0.00000000E+00  0.00000000E+00  0.00000000E+00
  0.00000000E+00  0.00000000E+00  0.00000000E+00
  0.00000000E+00  0.00000000E+00  0.00000000E+00
  0.00000000E+00  0.00000000E+00  0.00000000E+00
  0.00000000E+00  0.00000000E+00  0.00000000E+00
  0.00000000E+00  0.00000000E+00  0.00000000E+00
  0.00000000E+00  0.00000000E+00  0.00000000E+00
  0.00000000E+00  0.00000000E+00  0.00000000E+00
  0.00000000E+00  0.00000000E+00  0.00000000E+00
  0.00000000E+00  0.00000000E+00  0.00000000E+00
  0.00000000E+00  0.00000000E+00  0.00000000E+00
  0.00000000E+00  0.00000000E+00  0.00000000E+00
  0.00000000E+00  0.00000000E+00  0.00000000E+00
  0.00000000E+00  0.00000000E+00  0.00000000E+00
  0.00000000E+00  0.00000000E+00  0.00000000E+00
  0.00000000E+00  0.00000000E+00  0.00000000E+00
  0.00000000E+00  0.00000000E+00  0.00000000E+00
  0.00000000E+00  0.00000000E+00  0.00000000E+00
  0.00000000E+00  0.00000000E+00  0.00000000E+00
  0.00000000E+00  0.00000000E+00  0.00000000E+00
  0.00000000E+00  0.00000000E+00  0.00000000E+00
  0.00000000E+00  0.00000000E+00  0.00000000E+00
  0.00000000E+00  0.00000000E+00  0.00000000E+00
  0.00000000E+00  0.00000000E+00  0.00000000E+00
  0.00000000E+00  0.00000000E+00  0.00000000E+00
  0.00000000E+00  0.00000000E+00  0.00000000E+00
  0.00000000E+00  0.00000000E+00  0.00000000E+00
  0.00000000E+00  0.00000000E+00  0.00000000E+00
  0.00000000E+00  0.00000000E+00  0.00000000E+00
  0.00000000E+00  0.00000000E+00  0.00000000E+00
  0.00000000E+00  0.00000000E+00  0.00000000E+00
  0.00000000E+00  0.00000000E+00  0.00000000E+00
  0.00000000E+00  0.00000000E+00  0.00000000E+00
  0.00000000E+00  0.00000000E+00  0.00000000E+00
  0.00000000E+00  0.00000000E+00  0.00000000E+00
  0.00000000E+00  0.00000000E+00  0.00000000E+00
  0.00000000E+00  0.00000000E+00  0.00000000E+00
  0.00000000E+00  0.00000000E+00  0.00000000E+00
  0.00000000E+00  0.00000000E+00  0.00000000E+00
  0.00000000E+00  0.00000000E+00  0.00000000E+00
  0.00000000E+00  0.00000000E+00  0.00000000E+00
  0.00000000E+00  0.00000000E+00  0.00000000E+00
  0.00000000E+00  0.00000000E+00  0.00000000E+00
  0.00000000E+00  0.00000000E+00  0.00000000E+00
  0.00000000E+00  0.00000000E+00  0.00000000E+00
  0.00000000E+00  0.00000000E+00  0.00000000E+00
  0.00000000E+00  0.00000000E+00  0.00000000E+00
  0.00000000E+00  0.00000000E+00  0.00000000E+00
  0.00000000E+00  0.00000000E+00  0.00000000E+00
  0.00000000E+00  0.00000000E+00  0.00000000E+00
  0.00000000E+00  0.00000000E+00  0.00000000E+00
  0.00000000E+00  0.00000000E+00  0.00000000E+00
  0.00000000E+00  0.00000000E+00  0.00000000E+00
  0.00000000E+00  0.00000000E+00  0.00000000E+00
  0.00000000E+00  0.00000000E+00  0.00000000E+00