FeMn_288_15                             
    1.000000000000000     
     9.7266779999999997    0.0000000000000000    0.0000000000000000
     0.0000000000000000    8.4235500000000005    0.0000000000000000
     0.0000000000000000    0.0000000000000000   45.0000000000000000
   Fe   Mn
   273    15
Direct
  0.4374949434846435  0.4533983365054532  0.3464809413508979
  0.3125987606833474  0.3693297503475446  0.3020053980601841
  0.1873068460529213  0.6178669925762481  0.1690968986747346
  0.9375019429855038  0.4538547957688635  0.3464195251872098
  0.9375281490318096  0.9535232822394658  0.3463792863973396
  0.1874772339001159  0.1177759739067842  0.1690774486014012
  0.4371432589807355  0.1225466798536235  0.5213282082390002
  0.6871120044729703  0.1262132972221581  0.7861513001258092
  0.9378328470219072  0.6260258473517156  0.7862150419627537
  0.3124585818865439  0.2034387034699733  0.3464431862879326
  0.5624925361590416  0.3728252137078509  0.5213561964975562
  0.1876682598952066  0.4516212389408987  0.2138038450709952
  0.0632650784469439  0.5438010499901713  0.8731550757061181
  0.8124103492431471  0.5371507690627240  0.3902402973135302
  0.4372370395309767  0.1269319313422697  0.7861244184562172
  0.4374443055463201  0.6216510911536118  0.4348708610488612
  0.3124130502824021  0.8696871362285229  0.3021277383379381
  0.6876770896980843  0.4538806811859081  0.3465058367120329
  0.4374459831886918  0.9536022675393084  0.3464855167085892
  0.5623400056960208  0.0373310089369184  0.3903578268400040
  0.5622301705383842  0.0355670875387734  0.2579028989591550
  0.4374938427656807  0.6194882702633504  0.3020442621594508
  0.9374962565070342  0.4515177300462700  0.2138075507719111
  0.0626402110634969  0.0357759633376194  0.2579635564898933
  0.9376546556266749  0.7874290789919218  0.3903133843151248
  0.1876521048981943  0.1246897474472044  0.6535124769485554
  0.9377216415667804  0.1214045301690265  0.4348636283133257
  0.0626486321616403  0.7082625347484427  0.6979257152719411
  0.1877646753993677  0.9598233656733848  0.8311450471767416
  0.3123474000033482  0.5406674584331018  0.6096872098386816
  0.8125231723690046  0.3680901701863941  0.1690443292261156
  0.3126555859089045  0.3760931006786828  0.7862257858910378
  0.8122267827369469  0.7083144647979787  0.6979673741948864
  0.9374418064178223  0.6238789127947113  0.6535065460127116
  0.5621904762909091  0.3677610689379087  0.1689773102257165
  0.1872066074075901  0.6257664404500385  0.7860669540369798
  0.1872370174875299  0.2846816756218387  0.1268676356439751
  0.1875288486118695  0.6242565648522020  0.6535398646103854
  0.3124212081992844  0.0345398034797896  0.1268948136266797
  0.1873108565523204  0.4598151526551381  0.8309089830852423
  0.8126403356010756  0.7089911841426372  0.8312385716436443
  0.6871997279084426  0.1212941420947230  0.4351316156126032
  0.8127672529924200  0.8709221380671631  0.4348207886751009
  0.9372637598277328  0.9520911534159191  0.2138373175120777
  0.8124813209232049  0.8683206692168591  0.1689869225225324
  0.9375016833607827  0.4547250702221033  0.4786012548897554
  0.3124292040453278  0.3683440450690237  0.1689596127735091
  0.5621340878722436  0.8694368116105874  0.3019711608355080
  0.1867336371083297  0.7945845509483698  0.8732996416680779
  0.8127529211604924  0.5399831033571540  0.6097226243074918
  0.0624427434436249  0.0345737871656181  0.1268860727557504
  0.1876056962264318  0.1260078101704386  0.7862149936848892
  0.9376689458258630  0.9583794217981341  0.6979641346564051
  0.0622547957580861  0.8677004035869182  0.1690570332773031
  0.9377674393447403  0.1224003854016555  0.5213412739616873
  0.6878582845111768  0.9552707192299447  0.4786136228548130
  0.4374376311723324  0.4562379499818641  0.5650406786647714
  0.0624220099776210  0.5405362758793905  0.6095906530611035
  0.5620475247506399  0.2105698856601841  0.8309407750638382
  0.6875708308009880  0.9518911227735671  0.2138238237300594
  0.0626879084342836  0.3678266066935824  0.1689643320010924
  0.3126698309292811  0.3741668314061067  0.6535714949508297
  0.0624890160077600  0.2063518605579989  0.5650220974232726
  0.9370567174826955  0.2920379100944658  0.7420491376313478
  0.6870818358063013  0.9602555171940199  0.8310796197410136
  0.3125918883066129  0.5375276971120651  0.3901681078860400
  0.3125738714545723  0.8763343482553875  0.7862906164673675
  0.9371754765443255  0.9604401016284796  0.8311260301274963
  0.1873905347442731  0.7861258516063537  0.2580123522981452
  0.8123480677575633  0.2105935336963099  0.8311907058113858
  0.4376980882335958  0.7872796369679803  0.3902770945779708
  0.5624695212890071  0.8721734540541000  0.5212391887865485
  0.6881230232050849  0.4604441111329557  0.8310174033205615
  0.3121052084541245  0.5341619020435817  0.1268545855836138
  0.5625646706725602  0.2054435050834247  0.4787242811632340
  0.6874728837470233  0.2925239941473537  0.7421056026286830
  0.3116207114390570  0.0438377788053154  0.8732352944638594
  0.5627665388368602  0.8763251938367292  0.7861959187257410
  0.8125782658479229  0.0355759014816946  0.2579791468434746
  0.9378651870580715  0.7848173165283812  0.1269159584590666
  0.5621137975390894  0.3761289965607298  0.7860472670733796
  0.6877146584604630  0.7873749921840482  0.3902565835840884
  0.3125961572396787  0.3725248430896871  0.5213459342902784
  0.1879586601143567  0.9563881384294826  0.5651968208017638
  0.9374363973066152  0.7900172161747319  0.6096434508042771
  0.8128778776581419  0.7017385883286783  0.2137857050223343
  0.9370789921053070  0.4603190642707604  0.8311027785740883
  0.0624327516049307  0.5356155402096719  0.2579606195350546
  0.8126439400578100  0.2064470033921527  0.5650646698599930
  0.5625071006090626  0.0353431799261300  0.1268228818735365
  0.9375568068583213  0.1242879992991456  0.6536118322449352
  0.6875704987695439  0.2922827676724900  0.8732398773033535
  0.6872527288181317  0.7922580889043622  0.7420316106206075
  0.6871607640407734  0.4558759238085854  0.5650606435870420
  0.0628742332464443  0.5375408151009792  0.3903038076696346
  0.0624990439758766  0.8727015178208952  0.5212527166697214
  0.6876140935318814  0.4585442825387115  0.6979693595054555
  0.5622128905478855  0.5374776622563459  0.3902980785594218
  0.0626926672006046  0.2053565335400160  0.4786342361560825
  0.5624218192415885  0.7048418874290676  0.4785964259584277
  0.1872708735511607  0.2923517978651816  0.7421421909100222
  0.4376913441144828  0.7920850220581711  0.7421027352078383
  0.0623088985808428  0.2034188374801419  0.3465212672939390
  0.1874318838404480  0.1196667286076572  0.3021028873765838
  0.8126317951284580  0.3741664245626717  0.6535094344470704
  0.1877748855275558  0.6224078954391855  0.5212435560476233
  0.5632758455853352  0.0434018845707635  0.8732366082833829
  0.8123668691653960  0.0436042039279190  0.8732911420993146
  0.0620431150714844  0.3742869790623013  0.6535674303615779
  0.0625278293650694  0.7060067207122621  0.5648046597512062
  0.5620889509420010  0.5423113902333121  0.7420133333589075
  0.5625438362173635  0.5401631130619144  0.6096967567387291
  0.0627800085825304  0.0402983955522846  0.6096589442487542
  0.9370975423421811  0.7921819138456658  0.7421072195052586
  0.9377314868047901  0.2901204714198655  0.6096692048500461
  0.8121842386871697  0.5422611711523397  0.7421353825329887
  0.0623596949261618  0.3726741530822010  0.5212673706914873
  0.3126387904005208  0.0375230183497848  0.3902830818717500
  0.3119938518677111  0.8713088666913106  0.4348775463998332
  0.3120880294355260  0.8720593570918166  0.5212577016730858
  0.9370028510709640  0.9553118415018593  0.4786884811978233
  0.3125559032807255  0.5428076035786408  0.8731976568632085
  0.0625422923794490  0.3716525667984591  0.4348716474288402
  0.3124335579935447  0.8680530168937461  0.1690562358506083
  0.5624737029591066  0.3716558742446361  0.4348066407050802
  0.5626746446555821  0.8741186927991479  0.6534843503129132
  0.9374716122318246  0.6176749032879659  0.1690616247203501
  0.9374285675176525  0.6222672332771776  0.5213436353162842
  0.6872277009091760  0.1181565909696191  0.1690993239118249
  0.4376406995068203  0.7846273560117593  0.1268079613616630
  0.5625066322698555  0.7103949564343601  0.8313092823532475
  0.5622953835072301  0.2019081498797560  0.2138003288218921
  0.8124254645886764  0.3727501880023421  0.5213566943254780
  0.3125184112638544  0.7061246256169984  0.5651476551304135
  0.1873071536957068  0.7905666331337540  0.6096848979029701
  0.0622583356576873  0.3698022165071602  0.3020178242921425
  0.5628477048413537  0.7056070035505521  0.5650613924836085
  0.6872842351803072  0.1242316459658885  0.6536363083991679
  0.9376700888139300  0.1179697249799609  0.1691269204944760
  0.6874179765822049  0.6197020389203742  0.3021021269341367
  0.0627472142172854  0.2016935734852122  0.2137941631026296
  0.0623949973179931  0.7016739057186046  0.2138049550217355
  0.3126015966201733  0.3714634065648380  0.4349466706141448
  0.5623590480210701  0.0403218446698717  0.6096552809257313
  0.4374848726490307  0.1179449453297139  0.1690553578533786
  0.1876775190026775  0.4564349519969482  0.5651278555266693
  0.5626187896276081  0.8675941564250162  0.1689386591571289
  0.0628483906478161  0.7035252256359078  0.3464899170364173
  0.6876184362135767  0.6224427785077196  0.5213310679741310
  0.6874717913248776  0.6240067595423592  0.6535038067299408
  0.4376948769579411  0.9593505949324335  0.8311955997052355
  0.1877422099882744  0.1214862040648664  0.4348701327353300
  0.4375815485722911  0.1240107391477146  0.6535989058439036
  0.4370911195952444  0.4606031398059249  0.8310714482391507
  0.5623318698780122  0.0425096018678883  0.7421455030315814
  0.5624563415163218  0.2067419686095259  0.5651777031911538
  0.4376153564818791  0.6241606078468225  0.6534512848165018
  0.9387187991187015  0.7936635177376244  0.8733114325031459
  0.8124848163298646  0.0344654848235036  0.1269174604430144
  0.9376243624833385  0.4558174789444238  0.5651300456895650
  0.1876954337363699  0.6195279323267668  0.3020339513467991
  0.6876360543239426  0.1194628865633667  0.3020206991306513
  0.8124440880250768  0.3715228919601251  0.4348071017891508
  0.6870729070744467  0.7847932784245287  0.1268241118908511
  0.6872937815407150  0.2870456647148866  0.3902586033187530
  0.4375032506109454  0.9520059688920893  0.2137787044437576
  0.9374310065771333  0.2929460367326174  0.8731790063203695
  0.5628412818313141  0.3741199534212840  0.6535857478808070
  0.3124632869352978  0.0419961146355537  0.7420010964890222
  0.5626438895192593  0.5356566263659239  0.2579277219625484
  0.8126540028306027  0.8767680739958250  0.7860616654642654
  0.1875028889910220  0.9559466909300639  0.4785554347732634
  0.0629241243345037  0.8694786732495532  0.3019710985087760
  0.6874492591596629  0.9535581267901118  0.3463922383819594
  0.5617621580922920  0.5431868204568275  0.8732474879599262
  0.9376304839162036  0.2859590967145794  0.2579765012928533
  0.4377296453846027  0.7857672028834760  0.2580176807536841
  0.8125755032530828  0.3699122383339289  0.3020213946150457
  0.3125517415996001  0.7031260872295335  0.3464559842020107
  0.8123114479194811  0.3758636128159347  0.7862775875819827
  0.4376462052474435  0.7904024425881518  0.6096306172483336
  0.6873012725543339  0.2847036396152200  0.1268652526911836
  0.6872239799959454  0.7940966715253162  0.8732648094248195
  0.4374227414532802  0.2904736303359464  0.6097647185128972
  0.3125673354253669  0.5421752269275497  0.7421320133907525
  0.5628626537199363  0.3691393676770828  0.3020983849372539
  0.3126548743394457  0.0403537785808026  0.6096442937878115
  0.3125526166958372  0.2078498274883663  0.6978530818307853
  0.8124404206079031  0.7037310839792869  0.3464948152789899
  0.5622563550412687  0.7036171239703911  0.3464239724727715
  0.5622964711081238  0.7082220326605683  0.6978839894411947
  0.4378281457138966  0.2849306469267593  0.1268610880577756
  0.9376155823822628  0.4582013216799595  0.6977713255338659
  0.4373873499466900  0.4581666360036927  0.6978140721964844
  0.1875294613033205  0.2853571441441916  0.2579482686715212
  0.9375409112850498  0.2845372087520378  0.1268604039221876
  0.1875625070598819  0.9519639305932849  0.2138485401079540
  0.0627948292147084  0.3753609816341084  0.7860980507569386
  0.3123297805844216  0.2017654394238858  0.2138204994452514
  0.0624531530829089  0.8743342256741869  0.6535308821789275
  0.1870219272119915  0.7870535080816575  0.3902279092185745
  0.1873013499244704  0.7847032239895939  0.1268937129017881
  0.4375938560515204  0.2852915008248548  0.2579567599119832
  0.1876377412412719  0.9580733953074165  0.6979643673220323
  0.6875759488627922  0.9584676307852910  0.6978872631904324
  0.1873193827563981  0.4550074779739481  0.4785914812900106
  0.3122602951386651  0.7018809462898328  0.2138210511479495
  0.6874793264601846  0.7852421801946550  0.2579111581565977
  0.4373421400713747  0.4552434714806115  0.4786325012763936
  0.6876490842229147  0.6213075898259057  0.4349038348233136
  0.4372999543966075  0.4519801925446258  0.2138153382508356
  0.0627297753229497  0.0377840965038293  0.3902894958595149
  0.9375949091416057  0.2872408256499956  0.3902799905897159
  0.5626956275059469  0.2081171440749033  0.6979688209914962
  0.9372956471853156  0.6212359128183839  0.4348931469088564
  0.0630330659713078  0.5422710130140048  0.7420231636759597
  0.4377138025016679  0.2930474859388735  0.8731242298570621
  0.1875833023402894  0.2878755995498404  0.3902841370981431
  0.9375884219040254  0.7853130464197142  0.2579306596115461
  0.8127082296877884  0.8722616164781831  0.5213765972976653
  0.8128230651335623  0.2018704047663106  0.2138660616281110
  0.6877361782214968  0.7897490526978569  0.6096964228065138
  0.4376444132717718  0.1194574912551483  0.3020921881705884
  0.3124812596290732  0.2053720865391708  0.4786174279108879
  0.6872316511619115  0.6180257761119050  0.1689815628084073
  0.6873556673712404  0.9559407615056306  0.5651780169731203
  0.6874617064274350  0.2858913530694321  0.2579627299748783
  0.0621767719933403  0.8760594047901699  0.7862374148455074
  0.1874804736390699  0.4533377728903813  0.3463992701300608
  0.5628576918628322  0.2037611222511128  0.3464441021063182
  0.6873549319919465  0.2898762061705447  0.6096297492749195
  0.8121180438368214  0.7053225656329430  0.4786165192043509
  0.8125410001362421  0.2033275960671219  0.3464881822922958
  0.3129476854228455  0.7079490879671313  0.6978847091779048
  0.4371788364963644  0.6226203106133325  0.5212928485541898
  0.9375209944808368  0.1196934311821586  0.3020534377300755
  0.8128819750113937  0.5341710761650329  0.1268419063019360
  0.9378648337257740  0.1260187173644606  0.7862371794529212
  0.5627069941726702  0.8712955927931765  0.4347764144323272
  0.8122638997432294  0.2056201422111029  0.4786507252566710
  0.9377231492085966  0.6197796419350594  0.3020477281075243
  0.4377641434284470  0.6182076536941767  0.1690027911786892
  0.4379402828279481  0.2923441419477425  0.7421645664847596
  0.0625110488546147  0.8716262730725768  0.4349317161647400
  0.4371058720301957  0.6264836764663611  0.7862146817943441
  0.3130970009659277  0.7106132517382093  0.8311195512632498
  0.6875684024791053  0.4518341248679681  0.2138041814957126
  0.5624318481668122  0.5349964744081072  0.1267779314701094
  0.0628374257550700  0.0438281330092216  0.8733554427126713
  0.1870490712223140  0.2934588734820340  0.8731076443666803
  0.0625434246817854  0.0422861556109445  0.7421856580136628
  0.3126130046421287  0.2100803105118177  0.8309766902624960
  0.1876667578172359  0.4583413374392523  0.6980300662375215
  0.3128637696994320  0.7052242791357194  0.4785384133538225
  0.8120922708203002  0.2085883078855598  0.6978895821587359
  0.4376408224115996  0.2878612381468178  0.3902707808300569
  0.4374338103154337  0.1216438153247334  0.4347752270448352
  0.0628534309009960  0.2100326855700164  0.8309476919378662
  0.3122695760974711  0.2070399137116660  0.5650955008215639
  0.0625243649223581  0.5344497949454039  0.1268043033412302
  0.1876850582882083  0.6215011790701273  0.4348525015957357
  0.4375101987851655  0.9564059171439192  0.5648619278120264
  0.6877828081012658  0.4549730435926395  0.4786488359467801
  0.8121352256700967  0.7063155164299377  0.5651111201434368
  0.3124961658020985  0.5356544416921712  0.2579406669125023
  0.1876092206476871  0.2903745734990327  0.6096563442341771
  0.4372574913304828  0.9577314309513788  0.6979544080689106
  0.8126502126347195  0.8742386208404015  0.6535519862832480
  0.1875866117677673  0.1223146828677237  0.5213231176669599
  0.8128446791768933  0.8695773677886987  0.3020736177474688
  0.1877355279082859  0.9534686376692774  0.3463613151012206
  0.0617514394748050  0.7100033994046830  0.8310567629184297
  0.8121915788280683  0.0400374298610129  0.6096276885515886
  0.4373148280880289  0.7938714988942724  0.8730998582672491
  0.4374786956700450  0.9555170451816428  0.4787137448857042
  0.8122171012073731  0.5356522861469248  0.2578869254896290
  0.8122216536050963  0.5435946798283557  0.8729570399049418
  0.3124722099202343  0.0357813441223589  0.2579171326421475
  0.3125830827248356  0.8740817523402286  0.6534185983289921
  0.6873995777924660  0.1220456017645739  0.5212757407952110
  0.0621512454748365  0.2082254630978974  0.6980542557381597
  0.0625648244836671  0.7050835999829251  0.4786697329867693
  0.8124726726451307  0.0375652346710366  0.3900894189694599
  0.5629102303654983  0.7016292512933200  0.2140284577163755
  0.1874151017779419  0.7920414387206680  0.7421322534155322
  0.6878772297962074  0.6256874615329794  0.7858710055082866
  0.9370357153010747  0.9565752701060262  0.5651751602522191
  0.8129385693426974  0.0425696169275719  0.7421881389617494
 
  0.00000000E+00  0.00000000E+00  0.00000000E+00
  0.00000000E+00  0.00000000E+00  0.00000000E+00
  0.00000000E+00  0.00000000E+00  0.00000000E+00
  0.00000000E+00  0.00000000E+00  0.00000000E+00
  0.00000000E+00  0.00000000E+00  0.00000000E+00
  0.00000000E+00  0.00000000E+00  0.00000000E+00
  0.00000000E+00  0.00000000E+00  0.00000000E+00
  0.00000000E+00  0.00000000E+00  0.00000000E+00
  0.00000000E+00  0.00000000E+00  0.00000000E+00
  0.00000000E+00  0.00000000E+00  0.00000000E+00
  0.00000000E+00  0.00000000E+00  0.00000000E+00
  0.00000000E+00  0.00000000E+00  0.00000000E+00
  0.00000000E+00  0.00000000E+00  0.00000000E+00
  0.00000000E+00  0.00000000E+00  0.00000000E+00
  0.00000000E+00  0.00000000E+00  0.00000000E+00
  0.00000000E+00  0.00000000E+00  0.00000000E+00
  0.00000000E+00  0.00000000E+00  0.00000000E+00
  0.00000000E+00  0.00000000E+00  0.00000000E+00
  0.00000000E+00  0.00000000E+00  0.00000000E+00
  0.00000000E+00  0.00000000E+00  0.00000000E+00
  0.00000000E+00  0.00000000E+00  0.00000000E+00
  0.00000000E+00  0.00000000E+00  0.00000000E+00
  0.00000000E+00  0.00000000E+00  0.00000000E+00
  0.00000000E+00  0.00000000E+00  0.00000000E+00
  0.00000000E+00  0.00000000E+00  0.00000000E+00
  0.00000000E+00  0.00000000E+00  0.00000000E+00
  0.00000000E+00  0.00000000E+00  0.00000000E+00
  0.00000000E+00  0.00000000E+00  0.00000000E+00
  0.00000000E+00  0.00000000E+00  0.00000000E+00
  0.00000000E+00  0.00000000E+00  0.00000000E+00
  0.00000000E+00  0.00000000E+00  0.00000000E+00
  0.00000000E+00  0.00000000E+00  0.00000000E+00
  0.00000000E+00  0.00000000E+00  0.00000000E+00
  0.00000000E+00  0.00000000E+00  0.00000000E+00
  0.00000000E+00  0.00000000E+00  0.00000000E+00
  0.00000000E+00  0.00000000E+00  0.00000000E+00
  0.00000000E+00  0.00000000E+00  0.00000000E+00
  0.00000000E+00  0.00000000E+00  0.00000000E+00
  0.00000000E+00  0.00000000E+00  0.00000000E+00
  0.00000000E+00  0.00000000E+00  0.00000000E+00
  0.00000000E+00  0.00000000E+00  0.00000000E+00
  0.00000000E+00  0.00000000E+00  0.00000000E+00
  0.00000000E+00  0.00000000E+00  0.00000000E+00
  0.00000000E+00  0.00000000E+00  0.00000000E+00
  0.00000000E+00  0.00000000E+00  0.00000000E+00
  0.00000000E+00  0.00000000E+00  0.00000000E+00
  0.00000000E+00  0.00000000E+00  0.00000000E+00
  0.00000000E+00  0.00000000E+00  0.00000000E+00
  0.00000000E+00  0.00000000E+00  0.00000000E+00
  0.00000000E+00  0.00000000E+00  0.00000000E+00
  0.00000000E+00  0.00000000E+00  0.00000000E+00
  0.00000000E+00  0.00000000E+00  0.00000000E+00
  0.00000000E+00  0.00000000E+00  0.00000000E+00
  0.00000000E+00  0.00000000E+00  0.00000000E+00
  0.00000000E+00  0.00000000E+00  0.00000000E+00
  0.00000000E+00  0.00000000E+00  0.00000000E+00
  0.00000000E+00  0.00000000E+00  0.00000000E+00
  0.00000000E+00  0.00000000E+00  0.00000000E+00
  0.00000000E+00  0.00000000E+00  0.00000000E+00
  0.00000000E+00  0.00000000E+00  0.00000000E+00
  0.00000000E+00  0.00000000E+00  0.00000000E+00
  0.00000000E+00  0.00000000E+00  0.00000000E+00
  0.00000000E+00  0.00000000E+00  0.00000000E+00
  0.00000000E+00  0.00000000E+00  0.00000000E+00
  0.00000000E+00  0.00000000E+00  0.00000000E+00
  0.00000000E+00  0.00000000E+00  0.00000000E+00
  0.00000000E+00  0.00000000E+00  0.00000000E+00
  0.00000000E+00  0.00000000E+00  0.00000000E+00
  0.00000000E+00  0.00000000E+00  0.00000000E+00
  0.00000000E+00  0.00000000E+00  0.00000000E+00
  0.00000000E+00  0.00000000E+00  0.00000000E+00
  0.00000000E+00  0.00000000E+00  0.00000000E+00
  0.00000000E+00  0.00000000E+00  0.00000000E+00
  0.00000000E+00  0.00000000E+00  0.00000000E+00
  0.00000000E+00  0.00000000E+00  0.00000000E+00
  0.00000000E+00  0.00000000E+00  0.00000000E+00
  0.00000000E+00  0.00000000E+00  0.00000000E+00
  0.00000000E+00  0.00000000E+00  0.00000000E+00
  0.00000000E+00  0.00000000E+00  0.00000000E+00
  0.00000000E+00  0.00000000E+00  0.00000000E+00
  0.00000000E+00  0.00000000E+00  0.00000000E+00
  0.00000000E+00  0.00000000E+00  0.00000000E+00
  0.00000000E+00  0.00000000E+00  0.00000000E+00
  0.00000000E+00  0.00000000E+00  0.00000000E+00
  0.00000000E+00  0.00000000E+00  0.00000000E+00
  0.00000000E+00  0.00000000E+00  0.00000000E+00
  0.00000000E+00  0.00000000E+00  0.00000000E+00
  0.00000000E+00  0.00000000E+00  0.00000000E+00
  0.00000000E+00  0.00000000E+00  0.00000000E+00
  0.00000000E+00  0.00000000E+00  0.00000000E+00
  0.00000000E+00  0.00000000E+00  0.00000000E+00
  0.00000000E+00  0.00000000E+00  0.00000000E+00
  0.00000000E+00  0.00000000E+00  0.00000000E+00
  0.00000000E+00  0.00000000E+00  0.00000000E+00
  0.00000000E+00  0.00000000E+00  0.00000000E+00
  0.00000000E+00  0.00000000E+00  0.00000000E+00
  0.00000000E+00  0.00000000E+00  0.00000000E+00
  0.00000000E+00  0.00000000E+00  0.00000000E+00
  0.00000000E+00  0.00000000E+00  0.00000000E+00
  0.00000000E+00  0.00000000E+00  0.00000000E+00
  0.00000000E+00  0.00000000E+00  0.00000000E+00
  0.00000000E+00  0.00000000E+00  0.00000000E+00
  0.00000000E+00  0.00000000E+00  0.00000000E+00
  0.00000000E+00  0.00000000E+00  0.00000000E+00
  0.00000000E+00  0.00000000E+00  0.00000000E+00
  0.00000000E+00  0.00000000E+00  0.00000000E+00
  0.00000000E+00  0.00000000E+00  0.00000000E+00
  0.00000000E+00  0.00000000E+00  0.00000000E+00
  0.00000000E+00  0.00000000E+00  0.00000000E+00
  0.00000000E+00  0.00000000E+00  0.00000000E+00
  0.00000000E+00  0.00000000E+00  0.00000000E+00
  0.00000000E+00  0.00000000E+00  0.00000000E+00
  0.00000000E+00  0.00000000E+00  0.00000000E+00
  0.00000000E+00  0.00000000E+00  0.00000000E+00
  0.00000000E+00  0.00000000E+00  0.00000000E+00
  0.00000000E+00  0.00000000E+00  0.00000000E+00
  0.00000000E+00  0.00000000E+00  0.00000000E+00
  0.00000000E+00  0.00000000E+00  0.00000000E+00
  0.00000000E+00  0.00000000E+00  0.00000000E+00
  0.00000000E+00  0.00000000E+00  0.00000000E+00
  0.00000000E+00  0.00000000E+00  0.00000000E+00
  0.00000000E+00  0.00000000E+00  0.00000000E+00
  0.00000000E+00  0.00000000E+00  0.00000000E+00
  0.00000000E+00  0.00000000E+00  0.00000000E+00
  0.00000000E+00  0.00000000E+00  0.00000000E+00
  0.00000000E+00  0.00000000E+00  0.00000000E+00
  0.00000000E+00  0.00000000E+00  0.00000000E+00
  0.00000000E+00  0.00000000E+00  0.00000000E+00
  0.00000000E+00  0.00000000E+00  0.00000000E+00
  0.00000000E+00  0.00000000E+00  0.00000000E+00
  0.00000000E+00  0.00000000E+00  0.00000000E+00
  0.00000000E+00  0.00000000E+00  0.00000000E+00
  0.00000000E+00  0.00000000E+00  0.00000000E+00
  0.00000000E+00  0.00000000E+00  0.00000000E+00
  0.00000000E+00  0.00000000E+00  0.00000000E+00
  0.00000000E+00  0.00000000E+00  0.00000000E+00
  0.00000000E+00  0.00000000E+00  0.00000000E+00
  0.00000000E+00  0.00000000E+00  0.00000000E+00
  0.00000000E+00  0.00000000E+00  0.00000000E+00
  0.00000000E+00  0.00000000E+00  0.00000000E+00
  0.00000000E+00  0.00000000E+00  0.00000000E+00
  0.00000000E+00  0.00000000E+00  0.00000000E+00
  0.00000000E+00  0.00000000E+00  0.00000000E+00
  0.00000000E+00  0.00000000E+00  0.00000000E+00
  0.00000000E+00  0.00000000E+00  0.00000000E+00
  0.00000000E+00  0.00000000E+00  0.00000000E+00
  0.00000000E+00  0.00000000E+00  0.00000000E+00
  0.00000000E+00  0.00000000E+00  0.00000000E+00
  0.00000000E+00  0.00000000E+00  0.00000000E+00
  0.00000000E+00  0.00000000E+00  0.00000000E+00
  0.00000000E+00  0.00000000E+00  0.00000000E+00
  0.00000000E+00  0.00000000E+00  0.00000000E+00
  0.00000000E+00  0.00000000E+00  0.00000000E+00
  0.00000000E+00  0.00000000E+00  0.00000000E+00
  0.00000000E+00  0.00000000E+00  0.00000000E+00
  0.00000000E+00  0.00000000E+00  0.00000000E+00
  0.00000000E+00  0.00000000E+00  0.00000000E+00
  0.00000000E+00  0.00000000E+00  0.00000000E+00
  0.00000000E+00  0.00000000E+00  0.00000000E+00
  0.00000000E+00  0.00000000E+00  0.00000000E+00
  0.00000000E+00  0.00000000E+00  0.00000000E+00
  0.00000000E+00  0.00000000E+00  0.00000000E+00
  0.00000000E+00  0.00000000E+00  0.00000000E+00
  0.00000000E+00  0.00000000E+00  0.00000000E+00
  0.00000000E+00  0.00000000E+00  0.00000000E+00
  0.00000000E+00  0.00000000E+00  0.00000000E+00
  0.00000000E+00  0.00000000E+00  0.00000000E+00
  0.00000000E+00  0.00000000E+00  0.00000000E+00
  0.00000000E+00  0.00000000E+00  0.00000000E+00
  0.00000000E+00  0.00000000E+00  0.00000000E+00
  0.00000000E+00  0.00000000E+00  0.00000000E+00
  0.00000000E+00  0.00000000E+00  0.00000000E+00
  0.00000000E+00  0.00000000E+00  0.00000000E+00
  0.00000000E+00  0.00000000E+00  0.00000000E+00
  0.00000000E+00  0.00000000E+00  0.00000000E+00
  0.00000000E+00  0.00000000E+00  0.00000000E+00
  0.00000000E+00  0.00000000E+00  0.00000000E+00
  0.00000000E+00  0.00000000E+00  0.00000000E+00
  0.00000000E+00  0.00000000E+00  0.00000000E+00
  0.00000000E+00  0.00000000E+00  0.00000000E+00
  0.00000000E+00  0.00000000E+00  0.00000000E+00
  0.00000000E+00  0.00000000E+00  0.00000000E+00
  0.00000000E+00  0.00000000E+00  0.00000000E+00
  0.00000000E+00  0.00000000E+00  0.00000000E+00
  0.00000000E+00  0.00000000E+00  0.00000000E+00
  0.00000000E+00  0.00000000E+00  0.00000000E+00
  0.00000000E+00  0.00000000E+00  0.00000000E+00
  0.00000000E+00  0.00000000E+00  0.00000000E+00
  0.00000000E+00  0.00000000E+00  0.00000000E+00
  0.00000000E+00  0.00000000E+00  0.00000000E+00
  0.00000000E+00  0.00000000E+00  0.00000000E+00
  0.00000000E+00  0.00000000E+00  0.00000000E+00
  0.00000000E+00  0.00000000E+00  0.00000000E+00
  0.00000000E+00  0.00000000E+00  0.00000000E+00
  0.00000000E+00  0.00000000E+00  0.00000000E+00
  0.00000000E+00  0.00000000E+00  0.00000000E+00
  0.00000000E+00  0.00000000E+00  0.00000000E+00
  0.00000000E+00  0.00000000E+00  0.00000000E+00
  0.00000000E+00  0.00000000E+00  0.00000000E+00
  0.00000000E+00  0.00000000E+00  0.00000000E+00
  0.00000000E+00  0.00000000E+00  0.00000000E+00
  0.00000000E+00  0.00000000E+00  0.00000000E+00
  0.00000000E+00  0.00000000E+00  0.00000000E+00
  0.00000000E+00  0.00000000E+00  0.00000000E+00
  0.00000000E+00  0.00000000E+00  0.00000000E+00
  0.00000000E+00  0.00000000E+00  0.00000000E+00
  0.00000000E+00  0.00000000E+00  0.00000000E+00
  0.00000000E+00  0.00000000E+00  0.00000000E+00
  0.00000000E+00  0.00000000E+00  0.00000000E+00
  0.00000000E+00  0.00000000E+00  0.00000000E+00
  0.00000000E+00  0.00000000E+00  0.00000000E+00
  0.00000000E+00  0.00000000E+00  0.00000000E+00
  0.00000000E+00  0.00000000E+00  0.00000000E+00
  0.00000000E+00  0.00000000E+00  0.00000000E+00
  0.00000000E+00  0.00000000E+00  0.00000000E+00
  0.00000000E+00  0.00000000E+00  0.00000000E+00
  0.00000000E+00  0.00000000E+00  0.00000000E+00
  0.00000000E+00  0.00000000E+00  0.00000000E+00
  0.00000000E+00  0.00000000E+00  0.00000000E+00
  0.00000000E+00  0.00000000E+00  0.00000000E+00
  0.00000000E+00  0.00000000E+00  0.00000000E+00
  0.00000000E+00  0.00000000E+00  0.00000000E+00
  0.00000000E+00  0.00000000E+00  0.00000000E+00
  0.00000000E+00  0.00000000E+00  0.00000000E+00
  0.00000000E+00  0.00000000E+00  0.00000000E+00
  0.00000000E+00  0.00000000E+00  0.00000000E+00
  0.00000000E+00  0.00000000E+00  0.00000000E+00
  0.00000000E+00  0.00000000E+00  0.00000000E+00
  0.00000000E+00  0.00000000E+00  0.00000000E+00
  0.00000000E+00  0.00000000E+00  0.00000000E+00
  0.00000000E+00  0.00000000E+00  0.00000000E+00
  0.00000000E+00  0.00000000E+00  0.00000000E+00
  0.00000000E+00  0.00000000E+00  0.00000000E+00
  0.00000000E+00  0.00000000E+00  0.00000000E+00
  0.00000000E+00  0.00000000E+00  0.00000000E+00
  0.00000000E+00  0.00000000E+00  0.00000000E+00
  0.00000000E+00  0.00000000E+00  0.00000000E+00
  0.00000000E+00  0.00000000E+00  0.00000000E+00
  0.00000000E+00  0.00000000E+00  0.00000000E+00
  0.00000000E+00  0.00000000E+00  0.00000000E+00
  0.00000000E+00  0.00000000E+00  0.00000000E+00
  0.00000000E+00  0.00000000E+00  0.00000000E+00
  0.00000000E+00  0.00000000E+00  0.00000000E+00
  0.00000000E+00  0.00000000E+00  0.00000000E+00
  0.00000000E+00  0.00000000E+00  0.00000000E+00
  0.00000000E+00  0.00000000E+00  0.00000000E+00
  0.00000000E+00  0.00000000E+00  0.00000000E+00