CuInSe2gb                               
   1.00000000000000     
     9.7266780392896699    0.0000000000000000    0.0000000000000000
     0.0000000000000000    8.4235502764570693    0.0000000000000000
     0.0000000000000000    0.0000000000000000   45.0000000000000000
   Fe   Mn
   281     7
Direct
  0.0573075523636422  0.7014505505546864  0.2114917345810142
  0.3158814879255920  0.7197478820706005  0.8756673560201452
  0.6882751617821666  0.9574529255298830  0.6113061967894440
  0.4381145475359235  0.4576175125977095  0.6114001716665319
  0.4358556651679025  0.2872482379816442  0.2556794815283857
  0.0612695958296794  0.3865534003947124  0.8340759535951477
  0.3119360837649034  0.8863837833312385  0.8341460358051734
  0.4416678912300229  0.6265379019647612  0.7001611350676225
  0.0643646695837573  0.2128953152912023  0.7443067078381945
  0.1823792725297326  0.4514957201762967  0.2113712457698288
  0.5637524094519094  0.2088865792003385  0.4778559266136551
  0.0639591925290717  0.8744132758674060  0.5666574614117744
  0.5654409387951973  0.2194916947402231  0.8755510616860337
  0.8108367165556644  0.5288661329419535  0.1246531575888977
  0.4321965470602334  0.9519297368214009  0.2114507236698515
  0.5641562232651366  0.3741845475666625  0.5666235443133830
  0.8118956930634286  0.0423417341751272  0.3885433954351507
  0.6863295198940843  0.7906608995866082  0.5221210501473537
  0.4387493259965949  0.4587998332730100  0.4778169283259399
  0.4388785358225269  0.9623400963059466  0.7445063679232714
  0.4386390873740683  0.6244176023105548  0.5667157711187283
  0.0608735727349205  0.5292029576942556  0.1247193565609442
  0.3112196640100922  0.0291536625032440  0.1248501783533644
  0.6869535425591914  0.9587861794415150  0.3444522692626546
  0.6844355650140130  0.7810859422479628  0.1239770205186116
  0.0579596139309735  0.3734941725354117  0.2997406329974855
  0.6890806072096017  0.4713618777498671  0.8753347440496697
  0.4322591950728267  0.4515303325871903  0.2113265510761894
  0.8112507751084618  0.3751921350414074  0.4331204699615878
  0.5630457542916250  0.7076425155869374  0.6113431064195570
  0.5630779424354829  0.5415509769177209  0.6554521548411932
  0.9363077445492367  0.1252495026982181  0.4331341291458149
  0.5608148294520711  0.5376394751526585  0.2556324750005499
  0.6866395070961282  0.4585906083486294  0.3442202894238203
  0.1883722289756933  0.6128065311046839  0.1661453613261162
  0.1925301843248718  0.7989013772653093  0.7886162069171606
  0.4416172109722964  0.1265702969403067  0.7001879025911745
  0.9329583351316101  0.6237004134176953  0.2998199294763493
  0.3152713655213288  0.2194804659476859  0.8756224676671450
  0.3135961304517373  0.8745294633295054  0.5666066905554810
  0.8154011280756545  0.2195309168454030  0.8755642071270737
  0.8132605963594201  0.5412891773766104  0.6555690547936328
  0.5604906086880421  0.5286795731916722  0.1247924775850163
  0.5672497317908595  0.0488370161871793  0.7888211300875538
  0.1857661441789227  0.2874299766857129  0.2557056205832043
  0.8111413107971861  0.8754983238212559  0.4330947719751189
  0.5669355761513282  0.3768705623563055  0.7002994964559323
  0.0604811684559882  0.0292463345845917  0.1247182978707145
  0.3131519192749906  0.5413900628751290  0.6555397739809760
  0.5617845016710354  0.2084649310253930  0.3444001429772940
  0.1882528898115210  0.9574728690786706  0.6114410318694914
  0.3078181691938003  0.3736691496004124  0.2998253557368768
  0.4378950114977211  0.7910684479277545  0.6554936273063121
  0.1921688678934872  0.2985488536887171  0.7887200976274743
  0.0636367055233260  0.3636479552137046  0.1662646681031809
  0.6922725273891015  0.6260976141185077  0.7002465276570069
  0.3119003868386160  0.5420330084230490  0.3885606260017184
  0.0653879450619040  0.7192960950642555  0.8756535347320529
  0.9369946990453583  0.6368982289455187  0.8340512609379502
  0.3178625168199441  0.5491631236366012  0.7887719117989292
  0.3074597341538848  0.2013440001812064  0.2114854759461325
  0.0637416256786328  0.7088047935817833  0.4778896665965259
  0.5574008719938615  0.2010939822229657  0.2114583350239589
  0.3139657382766222  0.2132001677803051  0.7442827827335331
  0.0669253708763090  0.3763452495578781  0.7002640334833413
  0.1867467293521666  0.6367816577114959  0.8338971189452864
  0.0672478282130744  0.0488190532758377  0.7887626266057114
  0.4388052896381753  0.1244599698222889  0.5666299738952875
  0.9382408691449353  0.2915405191734295  0.6555777486160863
  0.8073590097843736  0.2010492220681482  0.2113855058578684
  0.9322964454492314  0.9516205708429953  0.2112663011573629
  0.9389835026305744  0.6245065317507901  0.5667216146320271
  0.8116433618863496  0.3865903295373873  0.8341410901580545
  0.1919923922930828  0.6264324613740280  0.7002194403288928
  0.8111051649017261  0.8864016408333529  0.8340802224006991
  0.6884559516174007  0.2920034195779287  0.6555866447498629
  0.3126493156200966  0.2077595314666536  0.6113936526912577
  0.4389570705373888  0.4625021881629991  0.7442697873035502
  0.4368703788142585  0.7921030254601835  0.3885837370028351
  0.6898470595706914  0.9624351859669091  0.7445198090499128
  0.8072544040969883  0.7008444233041622  0.2115002356021228
  0.8138148864255061  0.7073509874358471  0.6112560410085613
  0.4345101160586299  0.7807079004894374  0.1243502644223431
  0.3137575075318535  0.7127264113560690  0.7442658673297208
  0.3180801417501505  0.0492374471962180  0.7889221345129244
  0.8120813796832367  0.5422588294886432  0.3885813409741246
  0.6865996049686894  0.2905531089883442  0.5220246838150285
  0.6923172125681670  0.7990203951835750  0.7886776008201032
  0.1857802737101976  0.7871078568035008  0.2556620105388688
  0.6880295272178203  0.1128229046164385  0.1662777975453904
  0.6884297158531867  0.9589770005391943  0.4778657647330394
  0.9367966781874730  0.9591218756021352  0.3443210894944693
  0.8116488235380966  0.0400441838210443  0.5219141461555390
  0.6858639381392052  0.6251296164974957  0.4331295519088146
  0.4368233025286844  0.4588262392227354  0.3443577269263484
  0.8151435482315573  0.2129487513362764  0.7443842552741640
  0.4390538912304212  0.9715834817205387  0.8753956109180855
  0.5641429205492438  0.8745637154095346  0.5666026903865232
  0.8107166575049031  0.0292141805065726  0.1243935104004832
  0.4330726901836990  0.6235777098301279  0.2997699752314916
  0.8150978913160878  0.7195667823105560  0.8756651076658213
  0.6883550399618895  0.4578393115080061  0.6113880894860348
  0.5614024526205065  0.3867509352198299  0.8340053540158342
  0.8077424125812745  0.3737801864805101  0.2997608252727274
  0.1869612154694088  0.2920987001271733  0.3885474917388592
  0.8165213272304802  0.5493310131036671  0.7889338356045895
  0.1867256587857197  0.7905402404907077  0.5221781174727687
  0.3079174463119162  0.8735621551213645  0.2998124630465820
  0.1821592097227947  0.9514604236277012  0.2113275658375500
  0.1893341991666571  0.4627943876976566  0.7443256890280909
  0.4365463622561160  0.2904928550076210  0.5220109674755483
  0.0618597074529422  0.7085469302704906  0.3443186825468410
  0.1880029546331768  0.7911042077742348  0.6555303267344794
  0.4425235599454531  0.7991654382183009  0.7886724992109028
  0.6856305508361890  0.1252299158502209  0.4331518210285298
  0.9366076823868164  0.7902527232629316  0.5220814846263699
  0.6881441019848686  0.6135205129599077  0.1662259372649175
  0.8119824013051640  0.7085794165394490  0.3443316560620588
  0.9391976378047989  0.4626754384263919  0.7442403134523253
  0.1869712928141564  0.4585829164093427  0.3443463850976314
  0.5678552216821712  0.5484329486996767  0.7888649045151396
  0.5620074898483031  0.3633288065719513  0.1662132937682110
  0.5618820975544480  0.7085793318324960  0.3444054287039208
  0.5578968426114242  0.3738162262731916  0.2997971143259716
  0.1888816151706292  0.4712197163565459  0.8754061770679826
  0.1882255372354549  0.1148854775458488  0.1661905999648570
  0.4423880795669836  0.2984220800456293  0.7885641788635603
  0.6858341670923896  0.7873210898921591  0.2557313144740012
  0.9369960655048389  0.1364121110902000  0.8338234418233167
  0.4385382048408877  0.9588130828622251  0.4778631936044934
  0.5654178206297815  0.7199278507094957  0.8756152585551418
  0.1883424971744475  0.4589649648323600  0.4778473280684691
  0.9347431400192965  0.2808313878863676  0.1245825093113824
  0.3118468388266885  0.0422082993995463  0.3885703093935620
  0.0630382203341480  0.0412307729760476  0.6556134849876192
  0.5612461898384313  0.3748451540058281  0.4330825164974222
  0.6891706065243128  0.4623416096311889  0.7443550643777457
  0.3118403251585660  0.3636402679217523  0.1662962188135873
  0.9423953980328571  0.1269897663425819  0.7002672446917536
  0.5631424539698912  0.0413474468054385  0.6555450936800665
  0.5615536665970919  0.5410115973506959  0.5219407346939366
  0.1829203829323791  0.1235081440349284  0.2997261663617028
  0.4380041044585565  0.1136371811918382  0.1662949621399708
  0.6831219065936789  0.6233934411763548  0.2997776119294916
  0.9331012363861501  0.1232222526977828  0.2997453640541541
  0.8136777706506741  0.3744471713032028  0.5666950353957165
  0.0579144367545023  0.8735263916160879  0.2997749530807416
  0.1888819820052919  0.6243156757317031  0.5667407321486579
  0.9415195946534261  0.7989008819084641  0.7887510453343187
  0.3114489847658404  0.3866342835108621  0.8341127199911552
  0.9391188098340373  0.4712457516739458  0.8754085670803953
  0.4366316400440606  0.6369413958304319  0.8340032946209740
  0.0619553827654368  0.2087794919556675  0.3444283313012100
  0.1886733975911703  0.9713162994472190  0.8754240558079205
  0.9345076811386888  0.7811522896053933  0.1242093780860211
  0.6870418681998489  0.7921310125764487  0.3885581798836272
  0.9382336460143815  0.7909934376416854  0.6555378902540229
  0.9384409478226972  0.1139097347126662  0.1661427467997376
  0.4381555504202371  0.2919235161597839  0.6556077430680046
  0.0575271357880794  0.2013018085523809  0.2114094907089688
  0.6825670289434418  0.9520022386802781  0.2113187418406933
  0.1829805609984703  0.6238658371873396  0.2997763045788739
  0.8177125630475054  0.8766544096318543  0.7002320655537044
  0.9423184647388457  0.6262508544669870  0.7002385445067938
  0.1923693381651877  0.1268153742737901  0.7001471118301165
  0.9387318405062319  0.4587833958268498  0.4779071594981835
  0.8136276502200190  0.2076922156305743  0.6113777730745890
  0.1865338394356728  0.6251877455878148  0.4331054867419438
  0.4329534303136180  0.1235228689022121  0.2997683346181700
  0.6829795850549155  0.1233055153071255  0.2997322724877077
  0.5617878080153813  0.5419568402522107  0.3885646421123599
  0.8118384721168747  0.2086688380068970  0.3444229710067520
  0.4390765986812639  0.4714843718951442  0.8752729004325415
  0.5613106336548159  0.8863119499033053  0.8341537127742059
  0.3137034743688655  0.2088828289049252  0.4778588432522533
  0.1886829454435729  0.9589212949943878  0.4779342709238342
  0.0614904433466482  0.8863203596549478  0.8340883957675017
  0.0614813501493614  0.5403677552705343  0.5220584817911432
  0.9385773176551244  0.9587465147325863  0.4778592784468664
  0.0629902822065506  0.7076805869797002  0.6113779539860775
  0.5614432984509904  0.0407299667667316  0.5220033203605469
  0.6924863407675710  0.2984903378354671  0.7887327355184829
  0.8133886738007947  0.3630412747070710  0.1661925995799986
  0.4362090207400992  0.1250928154751867  0.4331230858274382
  0.0636065267345007  0.2086800094171584  0.4778544725261116
  0.3133764952829993  0.0412144600099131  0.6554552176398236
  0.4365263677913747  0.7906481149664994  0.5220194164587927
  0.1872132190682151  0.1366539922999469  0.8338484354065776
  0.1849471292192056  0.2801125287328042  0.1245573517245269
  0.9369135490129240  0.4589204948263216  0.3443335250840073
  0.3131365932378944  0.8640685070080162  0.1663019997697656
  0.3075945863185018  0.7014974924189334  0.2114743085625929
  0.9377324651708383  0.6125611518755379  0.1662008820711263
  0.1881495573032448  0.4578890634838420  0.6114087172314938
  0.0673257215608080  0.8767918404243487  0.7001600383394251
  0.0632171233392560  0.5413544032733096  0.6556233205938776
  0.3106830334152761  0.5287020064978081  0.1248027502401543
  0.9368697550172752  0.7922384833208543  0.3885493865474942
  0.9419373343128599  0.2986668195921477  0.7887586020191203
  0.1879211930395670  0.2916213059356644  0.6555842187711164
  0.9381045530784529  0.9571944495633981  0.6114551165033854
  0.8147486544932400  0.7131055119130950  0.7444484890425469
  0.6859647470626359  0.2870985089488758  0.2556443600197764
  0.0644890577002721  0.7129267451718051  0.7442881432309523
  0.6825365448078038  0.4515645194575554  0.2112243930900446
  0.8134315657244842  0.2085939319776511  0.4778456935596032
  0.5636528000343944  0.7088522203038600  0.4779269102299815
  0.0622562606150628  0.8641018433291595  0.1662488172634896
  0.9365983092325167  0.2902405690267126  0.5221567495316763
  0.6879649437815964  0.7913889640501983  0.6556606762076697
  0.0613531933359012  0.8750546537992018  0.4330696378825813
  0.0654675294127899  0.2189843883582047  0.8757016925042567
  0.8131381621876879  0.0412226883330853  0.6554729603789116
  0.5609227858169713  0.0288879442879042  0.1244770466921281
  0.3111896603892002  0.3748355812788665  0.4330839477623130
  0.3140650744368833  0.3744745588816598  0.5666509049097725
  0.3136600106853120  0.7089326422825651  0.4778444571951193
  0.0615346781987543  0.0403120656280555  0.5220487959806229
  0.3164154589519086  0.8765009588527293  0.7001776596622341
  0.0607153497544117  0.5375356476719474  0.2556062377348660
  0.6871644455137144  0.1368158661528915  0.8339018663810130
  0.8104816681308098  0.0375753062816138  0.2556981266463041
  0.1867388001220123  0.1251628044673770  0.4331082738180626
  0.6923020173662531  0.1267861144627674  0.7000877658932030
  0.1864060337196521  0.2905011284343383  0.5220853669070719
  0.4358566523487682  0.7871000518406046  0.2557336009327468
  0.8107043992494853  0.5376601457446706  0.2555811898702662
  0.0631144577373432  0.2077637962175050  0.6113786512317811
  0.1867211659262721  0.7921099317385781  0.3886120556517582
  0.3115611817110378  0.5404549061738714  0.5220757589070442
  0.8171829318571382  0.3769793868240730  0.7003157429459783
  0.6867729895832216  0.2922105919412395  0.3885725931144420
  0.1888714181634396  0.1243173899280342  0.5666691400617331
  0.6888841632781143  0.9716313818839720  0.8754201320586124
  0.6888801362590025  0.1245755023504570  0.5666335690439889
  0.4369023053615947  0.9588606590041848  0.3444384992222692
  0.1887790071109330  0.9621440626862570  0.7443759353365346
  0.9356515729843470  0.7872219073176058  0.2556637370095321
  0.5612670187817267  0.8757169675365459  0.4331288465434733
  0.3112071572256577  0.8755287264676765  0.4331306589500904
  0.8114914096744100  0.5403823993376079  0.5220951841742226
  0.9325192245519260  0.4515873611534757  0.2112682057500974
  0.3112392456284176  0.5374003270531855  0.2556174020281776
  0.5616865967924638  0.0421041861171642  0.3885379267955513
  0.9382224081686288  0.4579912250514223  0.6114051647713137
  0.0618827887187604  0.0423479024100755  0.3885901786032926
  0.0618896118434490  0.5420035609328649  0.3885537551122397
  0.4368329829155502  0.2921032679937874  0.3885467094324733
  0.6887120485767970  0.4588578771104482  0.4778816773498420
  0.0640630282912878  0.3744164906182557  0.5667233737568058
  0.5578239653346611  0.7009317568227064  0.2114706559246809
  0.9359632892768056  0.2873266623598451  0.2556710488095696
  0.8169060707680191  0.0493063955184312  0.7888619838052334
  0.1867866925273970  0.9587287469955044  0.3443750068345604
  0.5579270362598486  0.8736117251300533  0.2997784283950509
  0.0615164890476728  0.3751605987752641  0.4330690239741001
  0.3119606001625692  0.7085900670972632  0.3443654543612386
  0.3119480287561972  0.2086031109402124  0.3444217994058690
  0.9390690472980568  0.1244238148357769  0.5666309825473835
  0.4378546479073376  0.9574542104808130  0.6113731275015818
  0.5607973287839826  0.0377646198122953  0.2557638367047138
  0.1850325263056667  0.7810046103935430  0.1246950867151762
  0.0606903729608215  0.0378710354055031  0.2556479589430561
  0.6889738598317070  0.6246697403101527  0.5666865440447205
  0.4388046319169343  0.6131742337851624  0.1661384674415821
  0.3115045349443603  0.0402923747375184  0.5220136775700494
  0.6848314325652454  0.2811988521126965  0.1246213694413517
  0.8136512053453389  0.7086781542818229  0.4778782208572194
  0.4373578533882538  0.1365390161331811  0.8338851761514440
  0.3169462812367804  0.3766313577463209  0.7003212183117807
  0.6873434320902335  0.6368109933188401  0.8339013604031433
  0.5639982446271974  0.7129385556438318  0.7444186275641591
  0.9369756286198225  0.2922334429247122  0.3885747114050150
  0.9393721707839419  0.9713193754085804  0.8753983936047652
  0.9390446041896492  0.9625725193258271  0.7444568359094602
  0.8138539220663167  0.8744959953694339  0.5666868177248466
  0.8080181756910298  0.8736118274531933  0.2997505949573405
  0.3111290870934296  0.0378075170805781  0.2557268665535399
  0.4348029642822639  0.2805218189004696  0.1246116629043940
  0.3126604719578275  0.7072620880402342  0.6112850576964631
  0.4359408609329401  0.6251052991462008  0.4331109803036534
  0.9360768212506702  0.6250793476997820  0.4331518893317254
  0.5625428705631998  0.8638705776093537  0.1659369576340393
  0.0678329744211623  0.5491404475453485  0.7886636472952602
  0.8146609992811704  0.8638040226343378  0.1658597581224579
  0.5637712069891644  0.2128557160943945  0.7444104479722125
  0.5630418241029137  0.2082694646125547  0.6112587799045935
  0.5675827656095906  0.8763957939129603  0.7003010214721285
 
  0.00000000E+00  0.00000000E+00  0.00000000E+00
  0.00000000E+00  0.00000000E+00  0.00000000E+00
  0.00000000E+00  0.00000000E+00  0.00000000E+00
  0.00000000E+00  0.00000000E+00  0.00000000E+00
  0.00000000E+00  0.00000000E+00  0.00000000E+00
  0.00000000E+00  0.00000000E+00  0.00000000E+00
  0.00000000E+00  0.00000000E+00  0.00000000E+00
  0.00000000E+00  0.00000000E+00  0.00000000E+00
  0.00000000E+00  0.00000000E+00  0.00000000E+00
  0.00000000E+00  0.00000000E+00  0.00000000E+00
  0.00000000E+00  0.00000000E+00  0.00000000E+00
  0.00000000E+00  0.00000000E+00  0.00000000E+00
  0.00000000E+00  0.00000000E+00  0.00000000E+00
  0.00000000E+00  0.00000000E+00  0.00000000E+00
  0.00000000E+00  0.00000000E+00  0.00000000E+00
  0.00000000E+00  0.00000000E+00  0.00000000E+00
  0.00000000E+00  0.00000000E+00  0.00000000E+00
  0.00000000E+00  0.00000000E+00  0.00000000E+00
  0.00000000E+00  0.00000000E+00  0.00000000E+00
  0.00000000E+00  0.00000000E+00  0.00000000E+00
  0.00000000E+00  0.00000000E+00  0.00000000E+00
  0.00000000E+00  0.00000000E+00  0.00000000E+00
  0.00000000E+00  0.00000000E+00  0.00000000E+00
  0.00000000E+00  0.00000000E+00  0.00000000E+00
  0.00000000E+00  0.00000000E+00  0.00000000E+00
  0.00000000E+00  0.00000000E+00  0.00000000E+00
  0.00000000E+00  0.00000000E+00  0.00000000E+00
  0.00000000E+00  0.00000000E+00  0.00000000E+00
  0.00000000E+00  0.00000000E+00  0.00000000E+00
  0.00000000E+00  0.00000000E+00  0.00000000E+00
  0.00000000E+00  0.00000000E+00  0.00000000E+00
  0.00000000E+00  0.00000000E+00  0.00000000E+00
  0.00000000E+00  0.00000000E+00  0.00000000E+00
  0.00000000E+00  0.00000000E+00  0.00000000E+00
  0.00000000E+00  0.00000000E+00  0.00000000E+00
  0.00000000E+00  0.00000000E+00  0.00000000E+00
  0.00000000E+00  0.00000000E+00  0.00000000E+00
  0.00000000E+00  0.00000000E+00  0.00000000E+00
  0.00000000E+00  0.00000000E+00  0.00000000E+00
  0.00000000E+00  0.00000000E+00  0.00000000E+00
  0.00000000E+00  0.00000000E+00  0.00000000E+00
  0.00000000E+00  0.00000000E+00  0.00000000E+00
  0.00000000E+00  0.00000000E+00  0.00000000E+00
  0.00000000E+00  0.00000000E+00  0.00000000E+00
  0.00000000E+00  0.00000000E+00  0.00000000E+00
  0.00000000E+00  0.00000000E+00  0.00000000E+00
  0.00000000E+00  0.00000000E+00  0.00000000E+00
  0.00000000E+00  0.00000000E+00  0.00000000E+00
  0.00000000E+00  0.00000000E+00  0.00000000E+00
  0.00000000E+00  0.00000000E+00  0.00000000E+00
  0.00000000E+00  0.00000000E+00  0.00000000E+00
  0.00000000E+00  0.00000000E+00  0.00000000E+00
  0.00000000E+00  0.00000000E+00  0.00000000E+00
  0.00000000E+00  0.00000000E+00  0.00000000E+00
  0.00000000E+00  0.00000000E+00  0.00000000E+00
  0.00000000E+00  0.00000000E+00  0.00000000E+00
  0.00000000E+00  0.00000000E+00  0.00000000E+00
  0.00000000E+00  0.00000000E+00  0.00000000E+00
  0.00000000E+00  0.00000000E+00  0.00000000E+00
  0.00000000E+00  0.00000000E+00  0.00000000E+00
  0.00000000E+00  0.00000000E+00  0.00000000E+00
  0.00000000E+00  0.00000000E+00  0.00000000E+00
  0.00000000E+00  0.00000000E+00  0.00000000E+00
  0.00000000E+00  0.00000000E+00  0.00000000E+00
  0.00000000E+00  0.00000000E+00  0.00000000E+00
  0.00000000E+00  0.00000000E+00  0.00000000E+00
  0.00000000E+00  0.00000000E+00  0.00000000E+00
  0.00000000E+00  0.00000000E+00  0.00000000E+00
  0.00000000E+00  0.00000000E+00  0.00000000E+00
  0.00000000E+00  0.00000000E+00  0.00000000E+00
  0.00000000E+00  0.00000000E+00  0.00000000E+00
  0.00000000E+00  0.00000000E+00  0.00000000E+00
  0.00000000E+00  0.00000000E+00  0.00000000E+00
  0.00000000E+00  0.00000000E+00  0.00000000E+00
  0.00000000E+00  0.00000000E+00  0.00000000E+00
  0.00000000E+00  0.00000000E+00  0.00000000E+00
  0.00000000E+00  0.00000000E+00  0.00000000E+00
  0.00000000E+00  0.00000000E+00  0.00000000E+00
  0.00000000E+00  0.00000000E+00  0.00000000E+00
  0.00000000E+00  0.00000000E+00  0.00000000E+00
  0.00000000E+00  0.00000000E+00  0.00000000E+00
  0.00000000E+00  0.00000000E+00  0.00000000E+00
  0.00000000E+00  0.00000000E+00  0.00000000E+00
  0.00000000E+00  0.00000000E+00  0.00000000E+00
  0.00000000E+00  0.00000000E+00  0.00000000E+00
  0.00000000E+00  0.00000000E+00  0.00000000E+00
  0.00000000E+00  0.00000000E+00  0.00000000E+00
  0.00000000E+00  0.00000000E+00  0.00000000E+00
  0.00000000E+00  0.00000000E+00  0.00000000E+00
  0.00000000E+00  0.00000000E+00  0.00000000E+00
  0.00000000E+00  0.00000000E+00  0.00000000E+00
  0.00000000E+00  0.00000000E+00  0.00000000E+00
  0.00000000E+00  0.00000000E+00  0.00000000E+00
  0.00000000E+00  0.00000000E+00  0.00000000E+00
  0.00000000E+00  0.00000000E+00  0.00000000E+00
  0.00000000E+00  0.00000000E+00  0.00000000E+00
  0.00000000E+00  0.00000000E+00  0.00000000E+00
  0.00000000E+00  0.00000000E+00  0.00000000E+00
  0.00000000E+00  0.00000000E+00  0.00000000E+00
  0.00000000E+00  0.00000000E+00  0.00000000E+00
  0.00000000E+00  0.00000000E+00  0.00000000E+00
  0.00000000E+00  0.00000000E+00  0.00000000E+00
  0.00000000E+00  0.00000000E+00  0.00000000E+00
  0.00000000E+00  0.00000000E+00  0.00000000E+00
  0.00000000E+00  0.00000000E+00  0.00000000E+00
  0.00000000E+00  0.00000000E+00  0.00000000E+00
  0.00000000E+00  0.00000000E+00  0.00000000E+00
  0.00000000E+00  0.00000000E+00  0.00000000E+00
  0.00000000E+00  0.00000000E+00  0.00000000E+00
  0.00000000E+00  0.00000000E+00  0.00000000E+00
  0.00000000E+00  0.00000000E+00  0.00000000E+00
  0.00000000E+00  0.00000000E+00  0.00000000E+00
  0.00000000E+00  0.00000000E+00  0.00000000E+00
  0.00000000E+00  0.00000000E+00  0.00000000E+00
  0.00000000E+00  0.00000000E+00  0.00000000E+00
  0.00000000E+00  0.00000000E+00  0.00000000E+00
  0.00000000E+00  0.00000000E+00  0.00000000E+00
  0.00000000E+00  0.00000000E+00  0.00000000E+00
  0.00000000E+00  0.00000000E+00  0.00000000E+00
  0.00000000E+00  0.00000000E+00  0.00000000E+00
  0.00000000E+00  0.00000000E+00  0.00000000E+00
  0.00000000E+00  0.00000000E+00  0.00000000E+00
  0.00000000E+00  0.00000000E+00  0.00000000E+00
  0.00000000E+00  0.00000000E+00  0.00000000E+00
  0.00000000E+00  0.00000000E+00  0.00000000E+00
  0.00000000E+00  0.00000000E+00  0.00000000E+00
  0.00000000E+00  0.00000000E+00  0.00000000E+00
  0.00000000E+00  0.00000000E+00  0.00000000E+00
  0.00000000E+00  0.00000000E+00  0.00000000E+00
  0.00000000E+00  0.00000000E+00  0.00000000E+00
  0.00000000E+00  0.00000000E+00  0.00000000E+00
  0.00000000E+00  0.00000000E+00  0.00000000E+00
  0.00000000E+00  0.00000000E+00  0.00000000E+00
  0.00000000E+00  0.00000000E+00  0.00000000E+00
  0.00000000E+00  0.00000000E+00  0.00000000E+00
  0.00000000E+00  0.00000000E+00  0.00000000E+00
  0.00000000E+00  0.00000000E+00  0.00000000E+00
  0.00000000E+00  0.00000000E+00  0.00000000E+00
  0.00000000E+00  0.00000000E+00  0.00000000E+00
  0.00000000E+00  0.00000000E+00  0.00000000E+00
  0.00000000E+00  0.00000000E+00  0.00000000E+00
  0.00000000E+00  0.00000000E+00  0.00000000E+00
  0.00000000E+00  0.00000000E+00  0.00000000E+00
  0.00000000E+00  0.00000000E+00  0.00000000E+00
  0.00000000E+00  0.00000000E+00  0.00000000E+00
  0.00000000E+00  0.00000000E+00  0.00000000E+00
  0.00000000E+00  0.00000000E+00  0.00000000E+00
  0.00000000E+00  0.00000000E+00  0.00000000E+00
  0.00000000E+00  0.00000000E+00  0.00000000E+00
  0.00000000E+00  0.00000000E+00  0.00000000E+00
  0.00000000E+00  0.00000000E+00  0.00000000E+00
  0.00000000E+00  0.00000000E+00  0.00000000E+00
  0.00000000E+00  0.00000000E+00  0.00000000E+00
  0.00000000E+00  0.00000000E+00  0.00000000E+00
  0.00000000E+00  0.00000000E+00  0.00000000E+00
  0.00000000E+00  0.00000000E+00  0.00000000E+00
  0.00000000E+00  0.00000000E+00  0.00000000E+00
  0.00000000E+00  0.00000000E+00  0.00000000E+00
  0.00000000E+00  0.00000000E+00  0.00000000E+00
  0.00000000E+00  0.00000000E+00  0.00000000E+00
  0.00000000E+00  0.00000000E+00  0.00000000E+00
  0.00000000E+00  0.00000000E+00  0.00000000E+00
  0.00000000E+00  0.00000000E+00  0.00000000E+00
  0.00000000E+00  0.00000000E+00  0.00000000E+00
  0.00000000E+00  0.00000000E+00  0.00000000E+00
  0.00000000E+00  0.00000000E+00  0.00000000E+00
  0.00000000E+00  0.00000000E+00  0.00000000E+00
  0.00000000E+00  0.00000000E+00  0.00000000E+00
  0.00000000E+00  0.00000000E+00  0.00000000E+00
  0.00000000E+00  0.00000000E+00  0.00000000E+00
  0.00000000E+00  0.00000000E+00  0.00000000E+00
  0.00000000E+00  0.00000000E+00  0.00000000E+00
  0.00000000E+00  0.00000000E+00  0.00000000E+00
  0.00000000E+00  0.00000000E+00  0.00000000E+00
  0.00000000E+00  0.00000000E+00  0.00000000E+00
  0.00000000E+00  0.00000000E+00  0.00000000E+00
  0.00000000E+00  0.00000000E+00  0.00000000E+00
  0.00000000E+00  0.00000000E+00  0.00000000E+00
  0.00000000E+00  0.00000000E+00  0.00000000E+00
  0.00000000E+00  0.00000000E+00  0.00000000E+00
  0.00000000E+00  0.00000000E+00  0.00000000E+00
  0.00000000E+00  0.00000000E+00  0.00000000E+00
  0.00000000E+00  0.00000000E+00  0.00000000E+00
  0.00000000E+00  0.00000000E+00  0.00000000E+00
  0.00000000E+00  0.00000000E+00  0.00000000E+00
  0.00000000E+00  0.00000000E+00  0.00000000E+00
  0.00000000E+00  0.00000000E+00  0.00000000E+00
  0.00000000E+00  0.00000000E+00  0.00000000E+00
  0.00000000E+00  0.00000000E+00  0.00000000E+00
  0.00000000E+00  0.00000000E+00  0.00000000E+00
  0.00000000E+00  0.00000000E+00  0.00000000E+00
  0.00000000E+00  0.00000000E+00  0.00000000E+00
  0.00000000E+00  0.00000000E+00  0.00000000E+00
  0.00000000E+00  0.00000000E+00  0.00000000E+00
  0.00000000E+00  0.00000000E+00  0.00000000E+00
  0.00000000E+00  0.00000000E+00  0.00000000E+00
  0.00000000E+00  0.00000000E+00  0.00000000E+00
  0.00000000E+00  0.00000000E+00  0.00000000E+00
  0.00000000E+00  0.00000000E+00  0.00000000E+00
  0.00000000E+00  0.00000000E+00  0.00000000E+00
  0.00000000E+00  0.00000000E+00  0.00000000E+00
  0.00000000E+00  0.00000000E+00  0.00000000E+00
  0.00000000E+00  0.00000000E+00  0.00000000E+00
  0.00000000E+00  0.00000000E+00  0.00000000E+00
  0.00000000E+00  0.00000000E+00  0.00000000E+00
  0.00000000E+00  0.00000000E+00  0.00000000E+00
  0.00000000E+00  0.00000000E+00  0.00000000E+00
  0.00000000E+00  0.00000000E+00  0.00000000E+00
  0.00000000E+00  0.00000000E+00  0.00000000E+00
  0.00000000E+00  0.00000000E+00  0.00000000E+00
  0.00000000E+00  0.00000000E+00  0.00000000E+00
  0.00000000E+00  0.00000000E+00  0.00000000E+00
  0.00000000E+00  0.00000000E+00  0.00000000E+00
  0.00000000E+00  0.00000000E+00  0.00000000E+00
  0.00000000E+00  0.00000000E+00  0.00000000E+00
  0.00000000E+00  0.00000000E+00  0.00000000E+00
  0.00000000E+00  0.00000000E+00  0.00000000E+00
  0.00000000E+00  0.00000000E+00  0.00000000E+00
  0.00000000E+00  0.00000000E+00  0.00000000E+00
  0.00000000E+00  0.00000000E+00  0.00000000E+00
  0.00000000E+00  0.00000000E+00  0.00000000E+00
  0.00000000E+00  0.00000000E+00  0.00000000E+00
  0.00000000E+00  0.00000000E+00  0.00000000E+00
  0.00000000E+00  0.00000000E+00  0.00000000E+00
  0.00000000E+00  0.00000000E+00  0.00000000E+00
  0.00000000E+00  0.00000000E+00  0.00000000E+00
  0.00000000E+00  0.00000000E+00  0.00000000E+00
  0.00000000E+00  0.00000000E+00  0.00000000E+00
  0.00000000E+00  0.00000000E+00  0.00000000E+00
  0.00000000E+00  0.00000000E+00  0.00000000E+00
  0.00000000E+00  0.00000000E+00  0.00000000E+00
  0.00000000E+00  0.00000000E+00  0.00000000E+00
  0.00000000E+00  0.00000000E+00  0.00000000E+00
  0.00000000E+00  0.00000000E+00  0.00000000E+00
  0.00000000E+00  0.00000000E+00  0.00000000E+00
  0.00000000E+00  0.00000000E+00  0.00000000E+00
  0.00000000E+00  0.00000000E+00  0.00000000E+00
  0.00000000E+00  0.00000000E+00  0.00000000E+00
  0.00000000E+00  0.00000000E+00  0.00000000E+00
  0.00000000E+00  0.00000000E+00  0.00000000E+00
  0.00000000E+00  0.00000000E+00  0.00000000E+00
  0.00000000E+00  0.00000000E+00  0.00000000E+00
  0.00000000E+00  0.00000000E+00  0.00000000E+00
  0.00000000E+00  0.00000000E+00  0.00000000E+00
  0.00000000E+00  0.00000000E+00  0.00000000E+00
  0.00000000E+00  0.00000000E+00  0.00000000E+00
  0.00000000E+00  0.00000000E+00  0.00000000E+00