CuInSe2gb                               
   1.00000000000000     
     9.7266780392896699    0.0000000000000000    0.0000000000000000
     0.0000000000000000    8.4235502764570693    0.0000000000000000
     0.0000000000000000    0.0000000000000000   45.0000000000000000
   Fe   Mn
   281     7
Direct
  0.0533535879897820  0.7018532972306395  0.2114254079742680
  0.3182688302110780  0.7238949205656630  0.8761752611125937
  0.6876045998461365  0.9582579814864484  0.6113246783567625
  0.4381448005594831  0.4576771881315679  0.6112200208865406
  0.4400666872714952  0.2881106754545535  0.2554837664640299
  0.0585989053054364  0.3880649916995518  0.8334602958298404
  0.3085580679245217  0.8876722106048510  0.8335016561344353
  0.4472079382467316  0.6261972647002193  0.7001458554056341
  0.0604196017393154  0.2121742891166210  0.7448255910401941
  0.1784597015965744  0.4512110204636237  0.2113131554104641
  0.5677682912911293  0.2106348841257280  0.4774679103503106
  0.0667967522878489  0.8748496013630689  0.5667646923054347
  0.5677343117406568  0.2238853241655051  0.8761206428166620
  0.8105928094809661  0.5319567718193237  0.1242884193727175
  0.4282433678183412  0.9512674315376280  0.2114455810240519
  0.5666959865642530  0.3748949097175002  0.5668945357680775
  0.8122126950706021  0.0418938372742477  0.3886118204763777
  0.6823306804802137  0.7885056425270389  0.5222685521830426
  0.4427551927823288  0.4607035976438439  0.4774831736237502
  0.4350352082766764  0.9619495757356068  0.7445694886663593
  0.4420613397682600  0.6250097446285484  0.5667282473119929
  0.0608354408333722  0.5310657911818958  0.1242859364828595
  0.3100660025185614  0.0318295269218943  0.1242676386319172
  0.6902725444658705  0.9593733493324013  0.3441742030348324
  0.6816492086597298  0.7775474021356643  0.1240600568891111
  0.0526911428452264  0.3738687056220211  0.2997739678395838
  0.6894339901499129  0.4675621784556688  0.8758867768047247
  0.4285493578180229  0.4510682504568393  0.2112898636491719
  0.8084643232371574  0.3751032282622703  0.4331375166361726
  0.5626291686598438  0.7080202217323769  0.6113663825565913
  0.5599251514323768  0.5414868006413381  0.6556868938953581
  0.9334282077897960  0.1249057561571142  0.4331016363305930
  0.5657496458479999  0.5375747473746634  0.2554712280753970
  0.6902546253907146  0.4593207566988367  0.3441781227985729
  0.1913305510109072  0.6119505050645928  0.1667425810270605
  0.1958430279297197  0.7988898839010862  0.7886561378046669
  0.4474268849057556  0.1261842184119923  0.7001839899105746
  0.9278556066905980  0.6236293320691954  0.2996574234448334
  0.3182144529178936  0.2238435136895346  0.8760567813591013
  0.3168172383703525  0.8744170892639458  0.5667741709390679
  0.8176315293972367  0.2234011885743244  0.8761190057446292
  0.8097933645623593  0.5410759656927877  0.6557317545041202
  0.5591539959692796  0.5317707433843031  0.1242486618339019
  0.5706235614976894  0.0495656498056994  0.7887287534155315
  0.1899002821797781  0.2882153431497765  0.2554680140935098
  0.8085408460276494  0.8749964554099302  0.4331261933437853
  0.5722273481968936  0.3761045300914254  0.7001894539163562
  0.0606678595004103  0.0315259695898869  0.1241542096186522
  0.3096721673545775  0.5407082277256553  0.6558190670592360
  0.5654615638513976  0.2094381741145984  0.3441350188187866
  0.1877626166110098  0.9581101018196101  0.6113068249061409
  0.3026340900097855  0.3739676577042810  0.2997663385838800
  0.4344266074993922  0.7909026935501264  0.6556459254850899
  0.1959973967597144  0.2982600935495445  0.7885688959590276
  0.0662658528757212  0.3624334912951357  0.1665423397710597
  0.6969126587262374  0.6265639268639807  0.7004225832627741
  0.3121817610945678  0.5417610356095084  0.3885716795378987
  0.0677547268779165  0.7231912329882313  0.8761060946337230
  0.9334531514763500  0.6375887732476277  0.8335338168884527
  0.3204772898621731  0.5494693166224666  0.7887694200425422
  0.3033592928625657  0.2018483442163441  0.2114206065274423
  0.0679248498668596  0.7106850681402352  0.4774678128979228
  0.5535255819868062  0.2015201366746489  0.2114486349599056
  0.3109492329899423  0.2113779126014688  0.7446673023137474
  0.0721493378562264  0.3761792207980625  0.7003034069341156
  0.1834239516199104  0.6375405412315528  0.8335098306831300
  0.0710712321506981  0.0488550294981556  0.7888005048505183
  0.4416592111547017  0.1249874209057619  0.5668201365286347
  0.9347479362055500  0.2908360416408886  0.6557610559983310
  0.8035783073892537  0.2016275088243019  0.2113702811726157
  0.9288618112995192  0.9511694704972645  0.2113308505795456
  0.9415723416005327  0.6251224907751366  0.5668766799856803
  0.8085446833050984  0.3878768732960440  0.8335020782170885
  0.1971795744854658  0.6259060367171571  0.7000668811799714
  0.8085043008697107  0.8876733317368537  0.8335155832914765
  0.6847929231658489  0.2907526951220467  0.6558166027081912
  0.3128697941441249  0.2080235934496921  0.6113303563895994
  0.4355389916136471  0.4624600159966596  0.7445233527271274
  0.4370416393003246  0.7917743766598953  0.3885355277404698
  0.6848745512885532  0.9629524908121551  0.7445426579858004
  0.8032727190719424  0.7017830788418166  0.2114699967358548
  0.8130975147064865  0.7077575563442213  0.6112696683784106
  0.4317974633071368  0.7780562015287362  0.1242095244328564
  0.3106914607845647  0.7118062118140265  0.7445817720545398
  0.3205734509214495  0.0493471723525428  0.7888339430055665
  0.8119421967059264  0.5417480158381746  0.3884404389405596
  0.6824211976544160  0.2881307700131793  0.5223177582423296
  0.6954155195721201  0.7990886794942436  0.7887699644787759
  0.1899391824473131  0.7881677857673957  0.2554741474506783
  0.6912044048699620  0.1116763474135809  0.1665773658654694
  0.6928496161987306  0.9606392302501225  0.4774635181597531
  0.9404231135763235  0.9594448502263443  0.3441335404861800
  0.8073787442799405  0.0382531758689313  0.5223587227173720
  0.6834933559487257  0.6250207539429786  0.4330761968389910
  0.4403203841460749  0.4592982949759828  0.3441968463022933
  0.8102532927592836  0.2122284163185002  0.7445694928249207
  0.4396126664491345  0.9676668452602855  0.8760445516011058
  0.5667989608033027  0.8748957157338904  0.5667557007019109
  0.8109633166687108  0.0316725039360262  0.1242953197790345
  0.4277657626519293  0.6239004861533451  0.2997251544076495
  0.8174148363005366  0.7235471483987024  0.8761362553412042
  0.6876310647080527  0.4581544523173474  0.6112307797832366
  0.5585953761774296  0.3877867619733202  0.8331847316695271
  0.8028491301968377  0.3737335955987284  0.2997072521408066
  0.1870758380516152  0.2918087143223814  0.3885206360175180
  0.8210882492003236  0.5488892378143360  0.7887915425550681
  0.1824477986279728  0.7882906811453213  0.5223980827251501
  0.3026749799021924  0.8739476838135496  0.2997543339511244
  0.1787352288356365  0.9512884623010388  0.2112654287380059
  0.1852300474126925  0.4622942898762624  0.7445811739665159
  0.4323964651560795  0.2882401528866698  0.5222993459475826
  0.0653749539008978  0.7094393170513860  0.3441464637042741
  0.1847433058093673  0.7905955742063675  0.6558120423739759
  0.4453326764257871  0.7990068457320770  0.7887546300250086
  0.6834582474624579  0.1250038955013702  0.4330635873445121
  0.9324344181694271  0.7881573923147790  0.5223347286493425
  0.6917630128631473  0.6127695079162472  0.1665532164095420
  0.8154509126368295  0.7094240308760613  0.3441491469139880
  0.9345543313993250  0.4626875816879957  0.7449035978251279
  0.1904280087745646  0.4593828164646506  0.3441568543103575
  0.5702591654004954  0.5494200355973304  0.7888667594070229
  0.5661411915667902  0.3621893630594266  0.1666541830089885
  0.5653991086499069  0.7095220399773713  0.3441396184444126
  0.5527195833656339  0.3740269702231508  0.2997546977710370
  0.1894929852076459  0.4673891636936512  0.8759184406339646
  0.1914732394442777  0.1126754762927740  0.1668708747733878
  0.4451383317004410  0.2988354882577665  0.7887492829391411
  0.6899951195644397  0.7882778218110912  0.2554536222457838
  0.9336921140807777  0.1376021385899223  0.8334871941533666
  0.4429381263958593  0.9607546613641745  0.4774542915700543
  0.5677400113972800  0.7242334886734904  0.8760699792583134
  0.1926660355725016  0.4608285456754717  0.4774778654121154
  0.9346181579761190  0.2789606288792343  0.1240912072100049
  0.3121032488123021  0.0418532614288766  0.3885448070250111
  0.0596770964504958  0.0405891971160975  0.6558936108991872
  0.5585028194126763  0.3748773075453241  0.4331012996676821
  0.6844967199884876  0.4625276683961070  0.7448983083868835
  0.3162775878276120  0.3625804050732306  0.1667301486521218
  0.9467896814520874  0.1267222537520185  0.7003053702297287
  0.5598221051375784  0.0409275537341971  0.6557374435253273
  0.5572796917701431  0.5384266562982458  0.5223426719344110
  0.1778625500333630  0.1237583970836084  0.2997043674067722
  0.4414953437961768  0.1123095807977055  0.1668351076795623
  0.6777185832515785  0.6239599275523002  0.2997352836181273
  0.9276916971440982  0.1239677586064929  0.2998083077153672
  0.8166262071837167  0.3747459806791039  0.5668261366944007
  0.0527699789245726  0.8739232377377176  0.2998009633992914
  0.1917465899219046  0.6250626297484796  0.5668256416621754
  0.9459721449940109  0.7988964128027759  0.7887549176245644
  0.3084870791508980  0.3876932146520310  0.8334871870191485
  0.9395045150457096  0.4674324079831671  0.8759596300362094
  0.4336594016958690  0.6378499324810918  0.8334925438882487
  0.0653089344372567  0.2094291156082689  0.3441114710709311
  0.1894160497619601  0.9675242551686727  0.8760019296213196
  0.9318964524598053  0.7787527102262961  0.1240591005568695
  0.6870418906729494  0.7917658361510146  0.3885394813733909
  0.9345303296484808  0.7907485953247925  0.6558259456413684
  0.9412450416432113  0.1116854882084662  0.1666606003475587
  0.4348091278869548  0.2906713661507707  0.6558932235828702
  0.0534492751384419  0.2018396105090991  0.2113910184214141
  0.6782851068066487  0.9513468670950438  0.2115746605923038
  0.1778035093443999  0.6236678177061958  0.2996511617806228
  0.8218583748412878  0.8759285827309292  0.7002173764822570
  0.9464918595730605  0.6258926871530304  0.7003577995362454
  0.1971588928807759  0.1262868117429994  0.7002847926074545
  0.9429239927533754  0.4607569840992637  0.4774261155329765
  0.8126722957409670  0.2078255142069607  0.6113555403581008
  0.1834200094639820  0.6251148357296269  0.4331310003743768
  0.4277297525739472  0.1240507637407326  0.2997519974050812
  0.6779003072549665  0.1241903086096414  0.2998001109859764
  0.5620920757572317  0.5417757364091368  0.3885480797529710
  0.8151842175064342  0.2094804339553681  0.3441099199109122
  0.4396687409472567  0.4674740550977379  0.8758733315228131
  0.5586029346988709  0.8874285216501961  0.8335057227619440
  0.3178717960514954  0.2106757867262250  0.4774514967979249
  0.1930356303425375  0.9607141754718341  0.4775037552403990
  0.0586444568247177  0.8877471772182410  0.8334310662915786
  0.0574184522328129  0.5383409407220319  0.5223534015870794
  0.9428690137241894  0.9606707643183622  0.4774455602979238
  0.0628901742155912  0.7078618028388225  0.6113118473730249
  0.5574656983411039  0.0382951099604745  0.5223683923920017
  0.6964632051609733  0.2985002295275945  0.7887405288231960
  0.8163505975154897  0.3621492549371216  0.1665089980717167
  0.4333983349031919  0.1250936120235270  0.4330757108151198
  0.0679314796588675  0.2106581239429538  0.4774628654525249
  0.3097552480915065  0.0406689677344956  0.6557610530376035
  0.4322309840105094  0.7883433626615168  0.5222888331317106
  0.1835742964958619  0.1376247626361383  0.8335241784608417
  0.1820165430571118  0.2776376422961582  0.1240488369260788
  0.9403509452814375  0.4593616778668336  0.3441843652685178
  0.3164651483979359  0.8624366981117718  0.1667431491819764
  0.3033756695161548  0.7019660847365385  0.2114547988173893
  0.9412510895213986  0.6123022293791629  0.1666332676896752
  0.1878052006377133  0.4582426633004217  0.6113904289447952
  0.0722713159375812  0.8762280068087156  0.7001385925061191
  0.0597273549410229  0.5407268120762068  0.6558333087154206
  0.3092398473823200  0.5306587010714637  0.1242475597797871
  0.9369967862205368  0.7917294505201861  0.3885324860148941
  0.9465126926056170  0.2985214595310566  0.7886002530723899
  0.1846247357030049  0.2906176423643516  0.6557916543360044
  0.9376190444799954  0.9580049877510702  0.6113299617601474
  0.8111306750185169  0.7113999240977074  0.7446165847522869
  0.6899516754427235  0.2881149811425220  0.2554856041252649
  0.0600470977529684  0.7119712725371183  0.7448876518365378
  0.6784079270807576  0.4508745454508185  0.2112879068311757
  0.8181009172953257  0.2108114365614466  0.4774829030172141
  0.5676954537993553  0.7104333115554193  0.4774686164530784
  0.0663126062878657  0.8624659495166618  0.1666595771551062
  0.9323855362551466  0.2881803271366107  0.5223575109846292
  0.6846816266309069  0.7907157853453486  0.6557788846752322
  0.0582929401337244  0.8747279384890341  0.4331215592350771
  0.0678202719579746  0.2228694460105988  0.8761187514277297
  0.8097813752085614  0.0408345305067225  0.6557651718713192
  0.5600508383790254  0.0319622542167604  0.1243742766294936
  0.3084177479083038  0.3748456648591630  0.4331046026749963
  0.3166183354538983  0.3747157896463993  0.5668109502043400
  0.3178298638365200  0.7105658082042948  0.4773950478915738
  0.0574416585401648  0.0382473575030663  0.5223521715887162
  0.3223381826917774  0.8761073850269451  0.7002616988328320
  0.0656605469394613  0.5378755070800184  0.2554273753748356
  0.6833927920745188  0.1376051754819481  0.8334665702537455
  0.8158370212496063  0.0375496281385839  0.2553451575535232
  0.1835489199180923  0.1249746044325895  0.4331377066237876
  0.6974781490575613  0.1266502515496959  0.7003140406709317
  0.1824379743388631  0.2882034036309110  0.5223309091851693
  0.4401527603258443  0.7881350427194664  0.2554591607729738
  0.8156767718924135  0.5376805592029710  0.2554418876798399
  0.0626156539433541  0.2080089416879502  0.6113076775218550
  0.1868631574517428  0.7916151884844631  0.3884690302510719
  0.3074224973481553  0.5382346971306764  0.5223456103298412
  0.8222902109364687  0.3761359795954377  0.7001078458648318
  0.6870005212954312  0.2917920187886118  0.3885304739733886
  0.1915927201886111  0.1249822262476188  0.5668929080593538
  0.6896013007281143  0.9682367804219800  0.8759801608756633
  0.6917932296321896  0.1251325253131507  0.5667209320386624
  0.4403457405732731  0.9592559576125504  0.3441851686217634
  0.1854116917924766  0.9621863078213571  0.7443518763051304
  0.9399382964426189  0.7882483391433596  0.2554574454828538
  0.5584819306951220  0.8750507770629913  0.4330792413528414
  0.3084496736113668  0.8750562249734957  0.4331232855518688
  0.8074049145192875  0.5382942766023904  0.5223718923283677
  0.9285528465568560  0.4509394742097320  0.2113113951180032
  0.3151638137070292  0.5379316982198344  0.2554492437058642
  0.5622211735796447  0.0419096054452278  0.3885941503920167
  0.9376283468438218  0.4582379488244995  0.6113776373248044
  0.0621496369624050  0.0418132241975456  0.3885493148960200
  0.0621225047512541  0.5417764085834956  0.3885116607651573
  0.4370856178365712  0.2918040880911582  0.3885497857770088
  0.6929465483824977  0.4607560562175240  0.4774472026011849
  0.0667340449747308  0.3746239414819011  0.5668214409224184
  0.5537085308160745  0.7018168176580724  0.2114925544964454
  0.9398513973261622  0.2882014698563217  0.2554651488037885
  0.8206777808139423  0.0492293129407539  0.7888472490791024
  0.1903484125748448  0.9593735191940330  0.3441508700691743
  0.5527595274013337  0.8738878907811555  0.2998770808726798
  0.0583537062917218  0.3749784412028028  0.4331057407425316
  0.3153402691500518  0.7094093339267853  0.3441654481228401
  0.3153443109775522  0.2094975773909081  0.3441066287083260
  0.9416574834713454  0.1250554194613869  0.5668571448877956
  0.4379837578713447  0.9580127077358297  0.6113048319217155
  0.5654504094902630  0.0374733997931505  0.2554474404406171
  0.1826422315990471  0.7792232107756780  0.1242829263678859
  0.0655809167733131  0.0376049250418787  0.2554575551818383
  0.6917284430473066  0.6249646307074314  0.5667775391646144
  0.4417329934583928  0.6124925655639427  0.1667913858496003
  0.3070596193640408  0.0383899662312649  0.5223155878796407
  0.6822771481139190  0.2789990638942521  0.1241888479268790
  0.8178511641275127  0.7107012104396815  0.4774359982353865
  0.4336446104745935  0.1378018183657666  0.8334915564182149
  0.3220470486309877  0.3762477272950854  0.7001760901584027
  0.6836495660209891  0.6377429935550381  0.8334989828163731
  0.5606225827458350  0.7121794113844342  0.7444608141365797
  0.9371920160291710  0.2919152567596920  0.3885821800542176
  0.9394874697403969  0.9674340924674506  0.8759500906300517
  0.9353639956525307  0.9622891911845731  0.7444574150848724
  0.8170180015417977  0.8748449672561881  0.5667117356694568
  0.8026737942166593  0.8740908402102935  0.2998402568561128
  0.3154957776810435  0.0377030583336634  0.2554739125918895
  0.4307024051906239  0.2780685369865437  0.1241727578865202
  0.3125195179658651  0.7081012566116267  0.6113697557186635
  0.4334195824917691  0.6250800942395245  0.4331037616423264
  0.9329732588472769  0.6251804908824237  0.4331817033424922
  0.5657952562077901  0.8616417249716701  0.1658610407691371
  0.0717545478664738  0.5492978696492509  0.7886586196010620
  0.8173148500533711  0.8620482323606881  0.1658589688819890
  0.5602354860666064  0.2108433026816231  0.7444539061582424
  0.5626601408536530  0.2068170790173717  0.6112423975442824
  0.5734277767273306  0.8770535755998597  0.7004562125190051
 
  0.00000000E+00  0.00000000E+00  0.00000000E+00
  0.00000000E+00  0.00000000E+00  0.00000000E+00
  0.00000000E+00  0.00000000E+00  0.00000000E+00
  0.00000000E+00  0.00000000E+00  0.00000000E+00
  0.00000000E+00  0.00000000E+00  0.00000000E+00
  0.00000000E+00  0.00000000E+00  0.00000000E+00
  0.00000000E+00  0.00000000E+00  0.00000000E+00
  0.00000000E+00  0.00000000E+00  0.00000000E+00
  0.00000000E+00  0.00000000E+00  0.00000000E+00
  0.00000000E+00  0.00000000E+00  0.00000000E+00
  0.00000000E+00  0.00000000E+00  0.00000000E+00
  0.00000000E+00  0.00000000E+00  0.00000000E+00
  0.00000000E+00  0.00000000E+00  0.00000000E+00
  0.00000000E+00  0.00000000E+00  0.00000000E+00
  0.00000000E+00  0.00000000E+00  0.00000000E+00
  0.00000000E+00  0.00000000E+00  0.00000000E+00
  0.00000000E+00  0.00000000E+00  0.00000000E+00
  0.00000000E+00  0.00000000E+00  0.00000000E+00
  0.00000000E+00  0.00000000E+00  0.00000000E+00
  0.00000000E+00  0.00000000E+00  0.00000000E+00
  0.00000000E+00  0.00000000E+00  0.00000000E+00
  0.00000000E+00  0.00000000E+00  0.00000000E+00
  0.00000000E+00  0.00000000E+00  0.00000000E+00
  0.00000000E+00  0.00000000E+00  0.00000000E+00
  0.00000000E+00  0.00000000E+00  0.00000000E+00
  0.00000000E+00  0.00000000E+00  0.00000000E+00
  0.00000000E+00  0.00000000E+00  0.00000000E+00
  0.00000000E+00  0.00000000E+00  0.00000000E+00
  0.00000000E+00  0.00000000E+00  0.00000000E+00
  0.00000000E+00  0.00000000E+00  0.00000000E+00
  0.00000000E+00  0.00000000E+00  0.00000000E+00
  0.00000000E+00  0.00000000E+00  0.00000000E+00
  0.00000000E+00  0.00000000E+00  0.00000000E+00
  0.00000000E+00  0.00000000E+00  0.00000000E+00
  0.00000000E+00  0.00000000E+00  0.00000000E+00
  0.00000000E+00  0.00000000E+00  0.00000000E+00
  0.00000000E+00  0.00000000E+00  0.00000000E+00
  0.00000000E+00  0.00000000E+00  0.00000000E+00
  0.00000000E+00  0.00000000E+00  0.00000000E+00
  0.00000000E+00  0.00000000E+00  0.00000000E+00
  0.00000000E+00  0.00000000E+00  0.00000000E+00
  0.00000000E+00  0.00000000E+00  0.00000000E+00
  0.00000000E+00  0.00000000E+00  0.00000000E+00
  0.00000000E+00  0.00000000E+00  0.00000000E+00
  0.00000000E+00  0.00000000E+00  0.00000000E+00
  0.00000000E+00  0.00000000E+00  0.00000000E+00
  0.00000000E+00  0.00000000E+00  0.00000000E+00
  0.00000000E+00  0.00000000E+00  0.00000000E+00
  0.00000000E+00  0.00000000E+00  0.00000000E+00
  0.00000000E+00  0.00000000E+00  0.00000000E+00
  0.00000000E+00  0.00000000E+00  0.00000000E+00
  0.00000000E+00  0.00000000E+00  0.00000000E+00
  0.00000000E+00  0.00000000E+00  0.00000000E+00
  0.00000000E+00  0.00000000E+00  0.00000000E+00
  0.00000000E+00  0.00000000E+00  0.00000000E+00
  0.00000000E+00  0.00000000E+00  0.00000000E+00
  0.00000000E+00  0.00000000E+00  0.00000000E+00
  0.00000000E+00  0.00000000E+00  0.00000000E+00
  0.00000000E+00  0.00000000E+00  0.00000000E+00
  0.00000000E+00  0.00000000E+00  0.00000000E+00
  0.00000000E+00  0.00000000E+00  0.00000000E+00
  0.00000000E+00  0.00000000E+00  0.00000000E+00
  0.00000000E+00  0.00000000E+00  0.00000000E+00
  0.00000000E+00  0.00000000E+00  0.00000000E+00
  0.00000000E+00  0.00000000E+00  0.00000000E+00
  0.00000000E+00  0.00000000E+00  0.00000000E+00
  0.00000000E+00  0.00000000E+00  0.00000000E+00
  0.00000000E+00  0.00000000E+00  0.00000000E+00
  0.00000000E+00  0.00000000E+00  0.00000000E+00
  0.00000000E+00  0.00000000E+00  0.00000000E+00
  0.00000000E+00  0.00000000E+00  0.00000000E+00
  0.00000000E+00  0.00000000E+00  0.00000000E+00
  0.00000000E+00  0.00000000E+00  0.00000000E+00
  0.00000000E+00  0.00000000E+00  0.00000000E+00
  0.00000000E+00  0.00000000E+00  0.00000000E+00
  0.00000000E+00  0.00000000E+00  0.00000000E+00
  0.00000000E+00  0.00000000E+00  0.00000000E+00
  0.00000000E+00  0.00000000E+00  0.00000000E+00
  0.00000000E+00  0.00000000E+00  0.00000000E+00
  0.00000000E+00  0.00000000E+00  0.00000000E+00
  0.00000000E+00  0.00000000E+00  0.00000000E+00
  0.00000000E+00  0.00000000E+00  0.00000000E+00
  0.00000000E+00  0.00000000E+00  0.00000000E+00
  0.00000000E+00  0.00000000E+00  0.00000000E+00
  0.00000000E+00  0.00000000E+00  0.00000000E+00
  0.00000000E+00  0.00000000E+00  0.00000000E+00
  0.00000000E+00  0.00000000E+00  0.00000000E+00
  0.00000000E+00  0.00000000E+00  0.00000000E+00
  0.00000000E+00  0.00000000E+00  0.00000000E+00
  0.00000000E+00  0.00000000E+00  0.00000000E+00
  0.00000000E+00  0.00000000E+00  0.00000000E+00
  0.00000000E+00  0.00000000E+00  0.00000000E+00
  0.00000000E+00  0.00000000E+00  0.00000000E+00
  0.00000000E+00  0.00000000E+00  0.00000000E+00
  0.00000000E+00  0.00000000E+00  0.00000000E+00
  0.00000000E+00  0.00000000E+00  0.00000000E+00
  0.00000000E+00  0.00000000E+00  0.00000000E+00
  0.00000000E+00  0.00000000E+00  0.00000000E+00
  0.00000000E+00  0.00000000E+00  0.00000000E+00
  0.00000000E+00  0.00000000E+00  0.00000000E+00
  0.00000000E+00  0.00000000E+00  0.00000000E+00
  0.00000000E+00  0.00000000E+00  0.00000000E+00
  0.00000000E+00  0.00000000E+00  0.00000000E+00
  0.00000000E+00  0.00000000E+00  0.00000000E+00
  0.00000000E+00  0.00000000E+00  0.00000000E+00
  0.00000000E+00  0.00000000E+00  0.00000000E+00
  0.00000000E+00  0.00000000E+00  0.00000000E+00
  0.00000000E+00  0.00000000E+00  0.00000000E+00
  0.00000000E+00  0.00000000E+00  0.00000000E+00
  0.00000000E+00  0.00000000E+00  0.00000000E+00
  0.00000000E+00  0.00000000E+00  0.00000000E+00
  0.00000000E+00  0.00000000E+00  0.00000000E+00
  0.00000000E+00  0.00000000E+00  0.00000000E+00
  0.00000000E+00  0.00000000E+00  0.00000000E+00
  0.00000000E+00  0.00000000E+00  0.00000000E+00
  0.00000000E+00  0.00000000E+00  0.00000000E+00
  0.00000000E+00  0.00000000E+00  0.00000000E+00
  0.00000000E+00  0.00000000E+00  0.00000000E+00
  0.00000000E+00  0.00000000E+00  0.00000000E+00
  0.00000000E+00  0.00000000E+00  0.00000000E+00
  0.00000000E+00  0.00000000E+00  0.00000000E+00
  0.00000000E+00  0.00000000E+00  0.00000000E+00
  0.00000000E+00  0.00000000E+00  0.00000000E+00
  0.00000000E+00  0.00000000E+00  0.00000000E+00
  0.00000000E+00  0.00000000E+00  0.00000000E+00
  0.00000000E+00  0.00000000E+00  0.00000000E+00
  0.00000000E+00  0.00000000E+00  0.00000000E+00
  0.00000000E+00  0.00000000E+00  0.00000000E+00
  0.00000000E+00  0.00000000E+00  0.00000000E+00
  0.00000000E+00  0.00000000E+00  0.00000000E+00
  0.00000000E+00  0.00000000E+00  0.00000000E+00
  0.00000000E+00  0.00000000E+00  0.00000000E+00
  0.00000000E+00  0.00000000E+00  0.00000000E+00
  0.00000000E+00  0.00000000E+00  0.00000000E+00
  0.00000000E+00  0.00000000E+00  0.00000000E+00
  0.00000000E+00  0.00000000E+00  0.00000000E+00
  0.00000000E+00  0.00000000E+00  0.00000000E+00
  0.00000000E+00  0.00000000E+00  0.00000000E+00
  0.00000000E+00  0.00000000E+00  0.00000000E+00
  0.00000000E+00  0.00000000E+00  0.00000000E+00
  0.00000000E+00  0.00000000E+00  0.00000000E+00
  0.00000000E+00  0.00000000E+00  0.00000000E+00
  0.00000000E+00  0.00000000E+00  0.00000000E+00
  0.00000000E+00  0.00000000E+00  0.00000000E+00
  0.00000000E+00  0.00000000E+00  0.00000000E+00
  0.00000000E+00  0.00000000E+00  0.00000000E+00
  0.00000000E+00  0.00000000E+00  0.00000000E+00
  0.00000000E+00  0.00000000E+00  0.00000000E+00
  0.00000000E+00  0.00000000E+00  0.00000000E+00
  0.00000000E+00  0.00000000E+00  0.00000000E+00
  0.00000000E+00  0.00000000E+00  0.00000000E+00
  0.00000000E+00  0.00000000E+00  0.00000000E+00
  0.00000000E+00  0.00000000E+00  0.00000000E+00
  0.00000000E+00  0.00000000E+00  0.00000000E+00
  0.00000000E+00  0.00000000E+00  0.00000000E+00
  0.00000000E+00  0.00000000E+00  0.00000000E+00
  0.00000000E+00  0.00000000E+00  0.00000000E+00
  0.00000000E+00  0.00000000E+00  0.00000000E+00
  0.00000000E+00  0.00000000E+00  0.00000000E+00
  0.00000000E+00  0.00000000E+00  0.00000000E+00
  0.00000000E+00  0.00000000E+00  0.00000000E+00
  0.00000000E+00  0.00000000E+00  0.00000000E+00
  0.00000000E+00  0.00000000E+00  0.00000000E+00
  0.00000000E+00  0.00000000E+00  0.00000000E+00
  0.00000000E+00  0.00000000E+00  0.00000000E+00
  0.00000000E+00  0.00000000E+00  0.00000000E+00
  0.00000000E+00  0.00000000E+00  0.00000000E+00
  0.00000000E+00  0.00000000E+00  0.00000000E+00
  0.00000000E+00  0.00000000E+00  0.00000000E+00
  0.00000000E+00  0.00000000E+00  0.00000000E+00
  0.00000000E+00  0.00000000E+00  0.00000000E+00
  0.00000000E+00  0.00000000E+00  0.00000000E+00
  0.00000000E+00  0.00000000E+00  0.00000000E+00
  0.00000000E+00  0.00000000E+00  0.00000000E+00
  0.00000000E+00  0.00000000E+00  0.00000000E+00
  0.00000000E+00  0.00000000E+00  0.00000000E+00
  0.00000000E+00  0.00000000E+00  0.00000000E+00
  0.00000000E+00  0.00000000E+00  0.00000000E+00
  0.00000000E+00  0.00000000E+00  0.00000000E+00
  0.00000000E+00  0.00000000E+00  0.00000000E+00
  0.00000000E+00  0.00000000E+00  0.00000000E+00
  0.00000000E+00  0.00000000E+00  0.00000000E+00
  0.00000000E+00  0.00000000E+00  0.00000000E+00
  0.00000000E+00  0.00000000E+00  0.00000000E+00
  0.00000000E+00  0.00000000E+00  0.00000000E+00
  0.00000000E+00  0.00000000E+00  0.00000000E+00
  0.00000000E+00  0.00000000E+00  0.00000000E+00
  0.00000000E+00  0.00000000E+00  0.00000000E+00
  0.00000000E+00  0.00000000E+00  0.00000000E+00
  0.00000000E+00  0.00000000E+00  0.00000000E+00
  0.00000000E+00  0.00000000E+00  0.00000000E+00
  0.00000000E+00  0.00000000E+00  0.00000000E+00
  0.00000000E+00  0.00000000E+00  0.00000000E+00
  0.00000000E+00  0.00000000E+00  0.00000000E+00
  0.00000000E+00  0.00000000E+00  0.00000000E+00
  0.00000000E+00  0.00000000E+00  0.00000000E+00
  0.00000000E+00  0.00000000E+00  0.00000000E+00
  0.00000000E+00  0.00000000E+00  0.00000000E+00
  0.00000000E+00  0.00000000E+00  0.00000000E+00
  0.00000000E+00  0.00000000E+00  0.00000000E+00
  0.00000000E+00  0.00000000E+00  0.00000000E+00
  0.00000000E+00  0.00000000E+00  0.00000000E+00
  0.00000000E+00  0.00000000E+00  0.00000000E+00
  0.00000000E+00  0.00000000E+00  0.00000000E+00
  0.00000000E+00  0.00000000E+00  0.00000000E+00
  0.00000000E+00  0.00000000E+00  0.00000000E+00
  0.00000000E+00  0.00000000E+00  0.00000000E+00
  0.00000000E+00  0.00000000E+00  0.00000000E+00
  0.00000000E+00  0.00000000E+00  0.00000000E+00
  0.00000000E+00  0.00000000E+00  0.00000000E+00
  0.00000000E+00  0.00000000E+00  0.00000000E+00
  0.00000000E+00  0.00000000E+00  0.00000000E+00
  0.00000000E+00  0.00000000E+00  0.00000000E+00
  0.00000000E+00  0.00000000E+00  0.00000000E+00
  0.00000000E+00  0.00000000E+00  0.00000000E+00
  0.00000000E+00  0.00000000E+00  0.00000000E+00
  0.00000000E+00  0.00000000E+00  0.00000000E+00
  0.00000000E+00  0.00000000E+00  0.00000000E+00
  0.00000000E+00  0.00000000E+00  0.00000000E+00
  0.00000000E+00  0.00000000E+00  0.00000000E+00
  0.00000000E+00  0.00000000E+00  0.00000000E+00
  0.00000000E+00  0.00000000E+00  0.00000000E+00
  0.00000000E+00  0.00000000E+00  0.00000000E+00
  0.00000000E+00  0.00000000E+00  0.00000000E+00
  0.00000000E+00  0.00000000E+00  0.00000000E+00
  0.00000000E+00  0.00000000E+00  0.00000000E+00
  0.00000000E+00  0.00000000E+00  0.00000000E+00
  0.00000000E+00  0.00000000E+00  0.00000000E+00
  0.00000000E+00  0.00000000E+00  0.00000000E+00
  0.00000000E+00  0.00000000E+00  0.00000000E+00
  0.00000000E+00  0.00000000E+00  0.00000000E+00
  0.00000000E+00  0.00000000E+00  0.00000000E+00
  0.00000000E+00  0.00000000E+00  0.00000000E+00
  0.00000000E+00  0.00000000E+00  0.00000000E+00
  0.00000000E+00  0.00000000E+00  0.00000000E+00
  0.00000000E+00  0.00000000E+00  0.00000000E+00
  0.00000000E+00  0.00000000E+00  0.00000000E+00
  0.00000000E+00  0.00000000E+00  0.00000000E+00
  0.00000000E+00  0.00000000E+00  0.00000000E+00
  0.00000000E+00  0.00000000E+00  0.00000000E+00
  0.00000000E+00  0.00000000E+00  0.00000000E+00
  0.00000000E+00  0.00000000E+00  0.00000000E+00
  0.00000000E+00  0.00000000E+00  0.00000000E+00
  0.00000000E+00  0.00000000E+00  0.00000000E+00
  0.00000000E+00  0.00000000E+00  0.00000000E+00
  0.00000000E+00  0.00000000E+00  0.00000000E+00
  0.00000000E+00  0.00000000E+00  0.00000000E+00