CuInSe2gb                               
   1.00000000000000     
     9.7266780392896699    0.0000000000000000    0.0000000000000000
     0.0000000000000000    8.4235502764570693    0.0000000000000000
     0.0000000000000000    0.0000000000000000   45.0000000000000000
   Fe   Mn
   274    14
Direct
  0.0619667580252590  0.0291972902150039  0.1241067325813140
  0.3162501242428394  0.8741701121686802  0.6551095774940660
  0.1830466207571589  0.1235683162503258  0.7888441031188447
  0.4416223683295588  0.2875600629379916  0.3890705467362310
  0.3179173295955851  0.7137997110165658  0.8332442075949036
  0.8180982446371364  0.2153705634132910  0.8336560017210021
  0.1918438460714255  0.9637027495744216  0.8336379284058459
  0.5620981184655293  0.2068742235575179  0.5655236618640748
  0.0655230991255771  0.0403906047704987  0.7442279516538873
  0.8117733668043080  0.8715211571239991  0.5213575150837184
  0.1909474866026311  0.2906984638723741  0.7444615711789472
  0.9336165827409642  0.4524797023038241  0.3448964482123753
  0.9410273316589417  0.2865916345759807  0.3889227114906866
  0.8123606489201021  0.0410506325938747  0.8757836816310485
  0.1837835865258876  0.7879389127194385  0.6108541727270692
  0.5665254994587208  0.0376461810214105  0.3890592026581145
  0.9425035320672200  0.9647606348055350  0.8338973135436586
  0.3134585913599854  0.5408313207385602  0.8761206788157289
  0.6904622927810318  0.2913235946488200  0.7443009973282056
  0.1819605060091495  0.6136593010167251  0.1666881164700302
  0.8122619310350502  0.2059215162787154  0.4786895720375787
  0.8088605699927544  0.5383509244106610  0.6110032269992346
  0.3117713505833751  0.8707540501654074  0.4343501373981565
  0.8087783806778774  0.0374228038537511  0.2558534782296466
  0.6830528944285356  0.9518651207291471  0.3446809893165728
  0.9310088132316556  0.1144018418961321  0.1668680974547831
  0.0618995851829208  0.8719342634963886  0.5213723362453334
  0.5576000474837330  0.5378633034433916  0.2554790450175396
  0.6846774805299864  0.7980883649377045  0.8759321384493522
  0.5559682855384810  0.3652449404860694  0.1666108932703199
  0.4401820450831824  0.7916971502270977  0.7444372888950044
  0.8113687969086747  0.7063523183677363  0.5654678375155129
  0.5591191037282851  0.8738318680408890  0.7887152011818573
  0.6868934652008887  0.1218226076643800  0.5214018127796978
  0.8162325950219582  0.3747127998429990  0.6549359837397249
  0.9424302230578833  0.4645259197450118  0.8338399813500090
  0.0606938288266032  0.2076245071101314  0.6997589399461868
  0.4345451512044588  0.9570439463557698  0.6998046851012332
  0.3171050257630152  0.2130273626395033  0.8334013869685907
  0.4415282397188915  0.6249486434009915  0.6549435184928354
  0.3088659040458358  0.5383359593673933  0.6109970201561044
  0.9365019959050626  0.4566984859117918  0.5656279258979013
  0.6901813578112319  0.7914528510516089  0.7441191764127018
  0.9346658065549251  0.7885733090098611  0.1244122417895467
  0.6918009858884315  0.7877257412314694  0.3890417619972071
  0.9404261972410842  0.7906428884751018  0.7444283945904510
  0.0587789371961474  0.2029721931726018  0.3449300520586490
  0.6838630014777095  0.4525458668413590  0.3449881633869822
  0.4334673602646120  0.1230083012133411  0.7890961537744645
  0.0656445290478993  0.2058418281737893  0.2111700625904977
  0.0553901922480812  0.3654578146316650  0.1666491131428933
  0.9332397135128432  0.7866826812343681  0.2555474458147866
  0.5608096038982603  0.2072893009984725  0.6997834826942821
  0.6851900106083195  0.9580230297074062  0.6997768538835418
  0.8085190246074384  0.8739837628437404  0.7884427123629764
  0.4368359325672783  0.9572336693926016  0.5653990022308449
  0.8085791278895439  0.3751170912066005  0.7884313963514556
  0.6842993510774288  0.2877205346480286  0.2561305496392873
  0.1873205001570394  0.4571757154101235  0.5655045716928259
  0.0559016643840740  0.8652868051450024  0.1666123170696356
  0.1837031332942820  0.2879809194976540  0.6109318085526196
  0.0621675123402398  0.2071746804727712  0.5653840142075475
  0.3109307136266588  0.2073756837223762  0.6998212581018234
  0.5622961347215262  0.5409781713392184  0.8759898391408717
  0.0622115874779703  0.7067562087061527  0.5655243249538552
  0.6826097963022929  0.6228990829466950  0.7886709230560943
  0.3159801310088329  0.5382604373417635  0.3889056533761492
  0.1868300751907657  0.6215394318749257  0.5214199051564776
  0.5624064228033162  0.8704198580039567  0.4344537622418457
  0.4368603227731600  0.4569927406555090  0.5655472980271871
  0.4397090538858172  0.2914657793812759  0.7442535020250703
  0.8212004647013493  0.8732915365222933  0.3002476915739188
  0.8085086653453776  0.7025355717783778  0.3448820028210046
  0.4426315792849905  0.4632281159963798  0.8333536907128168
  0.6873790007086863  0.9559660039298229  0.4786900123267887
  0.6846813632894082  0.4573749455933832  0.6997950553520056
  0.5621112058891398  0.8720463592623104  0.5214755630744257
  0.5660917594108084  0.3745393958585392  0.6549171598135871
  0.8161303738652245  0.8748095095825734  0.6549779213457011
  0.8116423299566633  0.3714931363133177  0.4341967925452223
  0.8085529382878490  0.5370644119286740  0.2558312046275363
  0.6922415644010748  0.4621144059271611  0.8333017223346143
  0.1864346584875885  0.7884643883079369  0.1240623471815286
  0.6914589892725498  0.2873471571366070  0.3890021664686094
  0.3159186969800852  0.3741705213635109  0.6550006075618426
  0.3088957317197329  0.2029579678910569  0.3445723515541205
  0.8157567665409039  0.5405372606316333  0.7442814757078119
  0.6920128938944087  0.9621004058481865  0.8334632695917571
  0.5657889222431854  0.8740468674128745  0.6549970947159677
  0.3113014408424694  0.7068087397835980  0.5655157393876665
  0.3127892310033383  0.5299699891678693  0.1240842334074940
  0.6894441058125808  0.9536864717947144  0.2117534859558849
  0.3114122702526482  0.2063885470198631  0.5655958716376790
  0.1875682191089896  0.9558396881645778  0.4786747770098184
  0.6873023652715019  0.9570586439962265  0.5654994385203810
  0.4337224317455004  0.7879822638809407  0.6109364298602128
  0.6827345267404801  0.6119626437208089  0.1664179901496155
  0.3201064908009981  0.8740663738096591  0.3002368169505770
  0.3123007713192485  0.7057565461070899  0.4786247928318237
  0.9337314283568624  0.2877501654113709  0.6109003909407948
  0.4458101771300432  0.6234774534552283  0.3001112420016021
  0.8070695651212459  0.8636747597300269  0.1667846521562336
  0.5666460121663025  0.2033025299825948  0.2114447244856746
  0.9324831605673083  0.6128203967479962  0.1667412693946179
  0.4373240660562498  0.9556689618208464  0.4786589601279675
  0.5582125701138275  0.3736399519282504  0.7887972435669248
  0.0614870737671886  0.3722513660618741  0.5213954069808323
  0.3072379110882087  0.3637730417109799  0.1666057926422831
  0.6953126218195149  0.1233065230389374  0.3002144770858678
  0.4427269423546626  0.9633314481523391  0.8333457170634773
  0.1853857289818989  0.2869943405315623  0.1240380336141575
  0.1833924979067036  0.2869080007106699  0.2558335592717114
  0.3123754146547584  0.3705952226336010  0.4344370590530120
  0.5631717263593127  0.0322019043534600  0.1242568923858814
  0.4340194787139134  0.2881920102496139  0.6108417324304155
  0.1837239478731071  0.4526885725098415  0.3449026123317384
  0.4339384775332324  0.2869872134662395  0.1240813569926827
  0.6831303460182326  0.7873389919857779  0.2557536224055474
  0.4368216142022953  0.1216973103641100  0.5214257442672894
  0.1885405274681741  0.2970649303316080  0.8761914880946259
  0.1912693984312883  0.1249402651898612  0.6550111435995546
  0.9411118886204058  0.1248334866622794  0.6549762553392263
  0.8162540104604231  0.5374697642262688  0.3889708040209711
  0.0667077331865317  0.0383704625199018  0.3891549459019989
  0.1833376001137779  0.1121455661901539  0.1665039492056575
  0.0584841930451788  0.5378072201021995  0.6109202119184409
  0.9337022320975932  0.2871167180385007  0.2558565497418877
  0.5589528177999129  0.5381788645475470  0.6109148175068535
  0.9368412709186398  0.9574016217716317  0.5654822777153975
  0.6946747481598027  0.6241557870858032  0.3001601126754926
  0.9374589125015041  0.6205311241874808  0.4344773838926496
  0.9329767057397343  0.6248314865245319  0.7884404403084878
  0.5603180089103537  0.7069026437442687  0.6997874653738730
  0.0658839556537310  0.7169267472178663  0.8341013445573749
  0.9451781303573871  0.1227971254478225  0.3000092422961991
  0.9336917939946671  0.7875350458158046  0.6109157764704265
  0.4329996748227197  0.7872977609195347  0.2556242107426889
  0.3087165193125636  0.3740633172317787  0.7888435477565576
  0.4400214728041049  0.4524892874077445  0.2112047757534235
  0.1869225898886879  0.1219463124693873  0.5213765710972926
  0.8104252607850245  0.7073185643984659  0.6997211012355560
  0.0586855407750267  0.0380444118714219  0.6108844366091601
  0.5661779049729198  0.2135444828999365  0.8332277070758017
  0.3118944581199834  0.8718783923238321  0.5213874057634036
  0.6867499557208201  0.2858122112717966  0.1239110830899584
  0.1905597233367259  0.9537624934583252  0.2117277319498065
  0.6838659750504227  0.2883817781657154  0.6110102048740872
  0.3087930325377800  0.0384156102128601  0.6110109525037943
  0.9340099447580421  0.1247342974646612  0.7885803201293964
  0.4363984450561373  0.7978104643779121  0.8762684479687755
  0.8153807862208406  0.0413029096252327  0.7443173121495733
  0.9355921085453754  0.4578912850440990  0.6996855557887740
  0.1911796652597084  0.6251470647533661  0.6549516090865642
  0.3081895944218727  0.5372699854988467  0.2556500987549320
  0.9339654398941259  0.2867669595610390  0.1238619446408377
  0.4373706234209333  0.4560501965435096  0.4785624681829664
  0.0623263643267777  0.7059767010312985  0.4785574877870095
  0.9369676227762448  0.1200230618404544  0.4345321421054860
  0.4447792076014562  0.1234119537164352  0.3004162665833415
  0.1872471723802502  0.1205656706578695  0.4342402133652217
  0.5625663522660059  0.0407733455815187  0.8760445828548626
  0.1867164045825918  0.9573583431437394  0.5655044771012924
  0.6847674852790246  0.7882258061424401  0.1243298839406978
  0.5588006041559089  0.7021622634948290  0.3448953096860113
  0.3164780775765859  0.0370926215970242  0.3890330551485089
  0.6824352455128583  0.1136254240029543  0.1667909240889461
  0.8161311812796164  0.2035876812571784  0.2112438799474426
  0.0584436897425241  0.5370504175687634  0.2557016472650802
  0.5625864764104341  0.7057323575715893  0.4786561170796370
  0.4352255576561105  0.7872527943073727  0.1241417993159975
  0.5699961329025439  0.3717086953852805  0.3001475315318506
  0.4335334139960988  0.9524983179425615  0.3449160805263843
  0.1856537592284841  0.9574765370577141  0.6997877320314111
  0.4316112968501373  0.6131941670103899  0.1661977517231678
  0.9406884700938989  0.4524022587037653  0.2115708502878635
  0.0619380848255757  0.5296141769346637  0.1240484321986779
  0.8118570004853397  0.3719971174507055  0.5213596782754982
  0.9454650260732853  0.6229314411741205  0.3000251081106323
  0.3086244643915421  0.0373544621471734  0.2555816189216492
  0.6837541458240147  0.7884359343608279  0.6109578118376654
  0.1918918133508393  0.4638256516071780  0.8335142897594221
  0.4319939082912538  0.1114643124377075  0.1666271828739448
  0.3117566209123066  0.3720196597901900  0.5213823550119128
  0.4328534765979548  0.6233462826739685  0.7889853986284009
  0.0589044194322141  0.0371997264509124  0.2558259496531537
  0.5622913757270254  0.7070723015210457  0.5655259326810046
  0.9398519016606233  0.2906465554037714  0.7445363854587458
  0.6817692786120289  0.1231520159571378  0.7885033390216514
  0.1901340484746814  0.4526111826657011  0.2111255726279063
  0.9412002906878298  0.7877750965829429  0.3889517200484802
  0.6855862283566517  0.2990434204284166  0.8760083764214712
  0.5566239747571584  0.8630007599888424  0.1662586025440228
  0.4352298004784589  0.4581233622746602  0.6996777496097941
  0.9338825088218506  0.9513032358887257  0.3447457160066668
  0.6865927704501468  0.6215045621646202  0.5213281691279995
  0.0660891748076837  0.8741635785890143  0.6549372526885153
  0.0582887733859904  0.8747404429917056  0.7885960629214646
  0.0662492254078432  0.3744221566659600  0.6549156902405422
  0.6872021840387557  0.4557935091647927  0.4786529897610468
  0.1831408051719088  0.7867218392874691  0.2555734668223341
  0.4369756586232710  0.1207650180688350  0.4343390977220514
  0.8140590582919146  0.0306969375836701  0.1240614101550600
  0.9368083493050744  0.6219853563716284  0.5213932383788000
  0.4414470341375805  0.1245709502823740  0.6549496939993570
  0.8131748392352524  0.5290802828241444  0.1239885596802099
  0.4338167844739270  0.4523805311263255  0.3450039422751591
  0.8091333972931175  0.2026135279269957  0.3450239220917579
  0.3092199194369857  0.7019380668061522  0.3447818473079262
  0.6912689951339531  0.1251889634149410  0.6550013142672266
  0.5707725553887892  0.8730200208093777  0.3002709786777568
  0.0652647518656970  0.5409029221796861  0.7443901299245761
  0.9406938269402961  0.9533076193040733  0.2113006545698251
  0.8162108420640551  0.7045887601452382  0.2114911334325789
  0.0706463258030733  0.8729145040910781  0.3003090803269504
  0.1946010226925244  0.1231922092175417  0.3000897723382464
  0.0586643523739527  0.7020648708136911  0.3448679820365328
  0.8089764948030765  0.0382891952084964  0.6110219033673577
  0.0627485098105180  0.3718263439606435  0.4343275550703459
  0.5591209758158959  0.2027834525023147  0.3447681482374279
  0.8207133066950135  0.3728410449953928  0.2999993907492710
  0.5590655425803446  0.0370936725011161  0.2554382053919490
  0.5668629858036189  0.5374773179398368  0.3890572386262571
  0.0626154139152121  0.2060473458702845  0.4786264045323410
  0.3100784382004451  0.8732740096212950  0.7884362509866369
  0.9352469555437299  0.9583371820954507  0.6996923761895394
  0.0699743833080677  0.3739898787364863  0.3000324429479377
  0.6914136575556284  0.6249941709766005  0.6552030887195027
  0.6866662264766920  0.4572318571988471  0.5654470958249395
  0.4404211896136644  0.9543349680505463  0.2119704409248068
  0.3126182551657788  0.2057567036794265  0.4787277727893797
  0.8121897957612989  0.5403054601037994  0.8758622228833803
  0.6880274073028360  0.6206933327223089  0.4344438993972053
  0.8110463722662398  0.2072177203999245  0.6998486427874026
  0.8126207996447666  0.7058253371481839  0.4786538817887006
  0.8113755592394339  0.8713093290077886  0.4341281033080491
  0.9373169189545844  0.9553603286384152  0.4786750593438048
  0.5624392491826895  0.2056866713503480  0.4786384750342623
  0.1871893318593569  0.6204165499935025  0.4344330180778219
  0.3148687995772393  0.0413924125284859  0.7440087441090779
  0.9413671027786538  0.6250852190795061  0.6549692234514245
  0.5663855742931918  0.7136176298247503  0.8333602951797942
  0.3205421687357918  0.3724830637415665  0.3000988265146835
  0.3152413292589347  0.5413616819376933  0.7443172487001298
  0.1873977618360919  0.4558167064483234  0.4786463097275405
  0.3144533570839310  0.0413540286038391  0.8759726579377567
  0.1855594380818703  0.4578338545516188  0.6996717389622771
  0.5618680640282614  0.3718339917882175  0.5213861771708496
  0.1909422401310466  0.2875354956313885  0.3888503493427301
  0.3161798593666477  0.2052332329265927  0.2112395133923407
  0.0678380129916308  0.7054272109072933  0.2114231621680676
  0.5619267200979842  0.3710253772394569  0.4344275055399170
  0.4367503001274906  0.6220820398557861  0.5213359830283607
  0.8171960212341678  0.7155311859694076  0.8334106455205517
  0.0588231996215760  0.3749068074584360  0.7884383487058152
  0.4364699216899914  0.2981556323004603  0.8763838989650312
  0.3115352674209189  0.0310374703400062  0.1241013325984691
  0.6878111965893263  0.1204166948734846  0.4342967125278890
  0.1837581961803046  0.9524137260668888  0.3448804026303672
  0.0668487489359257  0.2152671161406745  0.8340401470446365
  0.5590894001153415  0.0387036264257105  0.6110927893506309
  0.6891275690825703  0.4529187762331094  0.2116938697583166
  0.1896498933084701  0.7915962224293304  0.7444812093378157
  0.1952499542470015  0.6224916289159237  0.3000961008981449
  0.4412090968071874  0.7877144945309825  0.3890801181195597
  0.4338256775326219  0.2872565190952034  0.2558319880359533
  0.0632943308983931  0.5408187061945223  0.8758987376115819
  0.5656937320294069  0.0410669787051143  0.7443054448240201
  0.1882515598783290  0.7972875853252946  0.8761665992693918
  0.9373852405543602  0.4556958395582562  0.4786384002826403
  0.5651231795926160  0.5416029655971772  0.7441288350287344
  0.8113268650587158  0.2068413344021261  0.5654680173712274
  0.1844508730517762  0.6228610871623343  0.7885836792632971
  0.0675489354053707  0.5384893960947023  0.3890048694277373
  0.0606820182089214  0.7074099976032616  0.6996997877472145
  0.3097244164999464  0.7057491184177292  0.6998834664073992
  0.3154180244989603  0.7052224320264239  0.2121010355933286
  0.3059762104821985  0.8637258182329250  0.1658907375675373
  0.4367546005976704  0.6211816298820590  0.4344112482203336
  0.8179153864088740  0.0391029767936420  0.3891864237840079
  0.9347133175863377  0.2979085624982042  0.8755814117646976
  0.9369253258994346  0.7957571602509025  0.8756089920626073
  0.0653348713224786  0.0392029232569335  0.8757896516361640
  0.5622627437915969  0.5287277538448115  0.1245466839158948
  0.8057117533217801  0.3655036556859889  0.1659127533408795
  0.0618959068607420  0.8711465224438276  0.4343507644720576
  0.9365642378478523  0.1217709592690123  0.5215047911600568
  0.1936103258366601  0.7874742008993854  0.3888548148171010
  0.5677569867045424  0.7044480090256974  0.2119603528618209
 
  0.00000000E+00  0.00000000E+00  0.00000000E+00
  0.00000000E+00  0.00000000E+00  0.00000000E+00
  0.00000000E+00  0.00000000E+00  0.00000000E+00
  0.00000000E+00  0.00000000E+00  0.00000000E+00
  0.00000000E+00  0.00000000E+00  0.00000000E+00
  0.00000000E+00  0.00000000E+00  0.00000000E+00
  0.00000000E+00  0.00000000E+00  0.00000000E+00
  0.00000000E+00  0.00000000E+00  0.00000000E+00
  0.00000000E+00  0.00000000E+00  0.00000000E+00
  0.00000000E+00  0.00000000E+00  0.00000000E+00
  0.00000000E+00  0.00000000E+00  0.00000000E+00
  0.00000000E+00  0.00000000E+00  0.00000000E+00
  0.00000000E+00  0.00000000E+00  0.00000000E+00
  0.00000000E+00  0.00000000E+00  0.00000000E+00
  0.00000000E+00  0.00000000E+00  0.00000000E+00
  0.00000000E+00  0.00000000E+00  0.00000000E+00
  0.00000000E+00  0.00000000E+00  0.00000000E+00
  0.00000000E+00  0.00000000E+00  0.00000000E+00
  0.00000000E+00  0.00000000E+00  0.00000000E+00
  0.00000000E+00  0.00000000E+00  0.00000000E+00
  0.00000000E+00  0.00000000E+00  0.00000000E+00
  0.00000000E+00  0.00000000E+00  0.00000000E+00
  0.00000000E+00  0.00000000E+00  0.00000000E+00
  0.00000000E+00  0.00000000E+00  0.00000000E+00
  0.00000000E+00  0.00000000E+00  0.00000000E+00
  0.00000000E+00  0.00000000E+00  0.00000000E+00
  0.00000000E+00  0.00000000E+00  0.00000000E+00
  0.00000000E+00  0.00000000E+00  0.00000000E+00
  0.00000000E+00  0.00000000E+00  0.00000000E+00
  0.00000000E+00  0.00000000E+00  0.00000000E+00
  0.00000000E+00  0.00000000E+00  0.00000000E+00
  0.00000000E+00  0.00000000E+00  0.00000000E+00
  0.00000000E+00  0.00000000E+00  0.00000000E+00
  0.00000000E+00  0.00000000E+00  0.00000000E+00
  0.00000000E+00  0.00000000E+00  0.00000000E+00
  0.00000000E+00  0.00000000E+00  0.00000000E+00
  0.00000000E+00  0.00000000E+00  0.00000000E+00
  0.00000000E+00  0.00000000E+00  0.00000000E+00
  0.00000000E+00  0.00000000E+00  0.00000000E+00
  0.00000000E+00  0.00000000E+00  0.00000000E+00
  0.00000000E+00  0.00000000E+00  0.00000000E+00
  0.00000000E+00  0.00000000E+00  0.00000000E+00
  0.00000000E+00  0.00000000E+00  0.00000000E+00
  0.00000000E+00  0.00000000E+00  0.00000000E+00
  0.00000000E+00  0.00000000E+00  0.00000000E+00
  0.00000000E+00  0.00000000E+00  0.00000000E+00
  0.00000000E+00  0.00000000E+00  0.00000000E+00
  0.00000000E+00  0.00000000E+00  0.00000000E+00
  0.00000000E+00  0.00000000E+00  0.00000000E+00
  0.00000000E+00  0.00000000E+00  0.00000000E+00
  0.00000000E+00  0.00000000E+00  0.00000000E+00
  0.00000000E+00  0.00000000E+00  0.00000000E+00
  0.00000000E+00  0.00000000E+00  0.00000000E+00
  0.00000000E+00  0.00000000E+00  0.00000000E+00
  0.00000000E+00  0.00000000E+00  0.00000000E+00
  0.00000000E+00  0.00000000E+00  0.00000000E+00
  0.00000000E+00  0.00000000E+00  0.00000000E+00
  0.00000000E+00  0.00000000E+00  0.00000000E+00
  0.00000000E+00  0.00000000E+00  0.00000000E+00
  0.00000000E+00  0.00000000E+00  0.00000000E+00
  0.00000000E+00  0.00000000E+00  0.00000000E+00
  0.00000000E+00  0.00000000E+00  0.00000000E+00
  0.00000000E+00  0.00000000E+00  0.00000000E+00
  0.00000000E+00  0.00000000E+00  0.00000000E+00
  0.00000000E+00  0.00000000E+00  0.00000000E+00
  0.00000000E+00  0.00000000E+00  0.00000000E+00
  0.00000000E+00  0.00000000E+00  0.00000000E+00
  0.00000000E+00  0.00000000E+00  0.00000000E+00
  0.00000000E+00  0.00000000E+00  0.00000000E+00
  0.00000000E+00  0.00000000E+00  0.00000000E+00
  0.00000000E+00  0.00000000E+00  0.00000000E+00
  0.00000000E+00  0.00000000E+00  0.00000000E+00
  0.00000000E+00  0.00000000E+00  0.00000000E+00
  0.00000000E+00  0.00000000E+00  0.00000000E+00
  0.00000000E+00  0.00000000E+00  0.00000000E+00
  0.00000000E+00  0.00000000E+00  0.00000000E+00
  0.00000000E+00  0.00000000E+00  0.00000000E+00
  0.00000000E+00  0.00000000E+00  0.00000000E+00
  0.00000000E+00  0.00000000E+00  0.00000000E+00
  0.00000000E+00  0.00000000E+00  0.00000000E+00
  0.00000000E+00  0.00000000E+00  0.00000000E+00
  0.00000000E+00  0.00000000E+00  0.00000000E+00
  0.00000000E+00  0.00000000E+00  0.00000000E+00
  0.00000000E+00  0.00000000E+00  0.00000000E+00
  0.00000000E+00  0.00000000E+00  0.00000000E+00
  0.00000000E+00  0.00000000E+00  0.00000000E+00
  0.00000000E+00  0.00000000E+00  0.00000000E+00
  0.00000000E+00  0.00000000E+00  0.00000000E+00
  0.00000000E+00  0.00000000E+00  0.00000000E+00
  0.00000000E+00  0.00000000E+00  0.00000000E+00
  0.00000000E+00  0.00000000E+00  0.00000000E+00
  0.00000000E+00  0.00000000E+00  0.00000000E+00
  0.00000000E+00  0.00000000E+00  0.00000000E+00
  0.00000000E+00  0.00000000E+00  0.00000000E+00
  0.00000000E+00  0.00000000E+00  0.00000000E+00
  0.00000000E+00  0.00000000E+00  0.00000000E+00
  0.00000000E+00  0.00000000E+00  0.00000000E+00
  0.00000000E+00  0.00000000E+00  0.00000000E+00
  0.00000000E+00  0.00000000E+00  0.00000000E+00
  0.00000000E+00  0.00000000E+00  0.00000000E+00
  0.00000000E+00  0.00000000E+00  0.00000000E+00
  0.00000000E+00  0.00000000E+00  0.00000000E+00
  0.00000000E+00  0.00000000E+00  0.00000000E+00
  0.00000000E+00  0.00000000E+00  0.00000000E+00
  0.00000000E+00  0.00000000E+00  0.00000000E+00
  0.00000000E+00  0.00000000E+00  0.00000000E+00
  0.00000000E+00  0.00000000E+00  0.00000000E+00
  0.00000000E+00  0.00000000E+00  0.00000000E+00
  0.00000000E+00  0.00000000E+00  0.00000000E+00
  0.00000000E+00  0.00000000E+00  0.00000000E+00
  0.00000000E+00  0.00000000E+00  0.00000000E+00
  0.00000000E+00  0.00000000E+00  0.00000000E+00
  0.00000000E+00  0.00000000E+00  0.00000000E+00
  0.00000000E+00  0.00000000E+00  0.00000000E+00
  0.00000000E+00  0.00000000E+00  0.00000000E+00
  0.00000000E+00  0.00000000E+00  0.00000000E+00
  0.00000000E+00  0.00000000E+00  0.00000000E+00
  0.00000000E+00  0.00000000E+00  0.00000000E+00
  0.00000000E+00  0.00000000E+00  0.00000000E+00
  0.00000000E+00  0.00000000E+00  0.00000000E+00
  0.00000000E+00  0.00000000E+00  0.00000000E+00
  0.00000000E+00  0.00000000E+00  0.00000000E+00
  0.00000000E+00  0.00000000E+00  0.00000000E+00
  0.00000000E+00  0.00000000E+00  0.00000000E+00
  0.00000000E+00  0.00000000E+00  0.00000000E+00
  0.00000000E+00  0.00000000E+00  0.00000000E+00
  0.00000000E+00  0.00000000E+00  0.00000000E+00
  0.00000000E+00  0.00000000E+00  0.00000000E+00
  0.00000000E+00  0.00000000E+00  0.00000000E+00
  0.00000000E+00  0.00000000E+00  0.00000000E+00
  0.00000000E+00  0.00000000E+00  0.00000000E+00
  0.00000000E+00  0.00000000E+00  0.00000000E+00
  0.00000000E+00  0.00000000E+00  0.00000000E+00
  0.00000000E+00  0.00000000E+00  0.00000000E+00
  0.00000000E+00  0.00000000E+00  0.00000000E+00
  0.00000000E+00  0.00000000E+00  0.00000000E+00
  0.00000000E+00  0.00000000E+00  0.00000000E+00
  0.00000000E+00  0.00000000E+00  0.00000000E+00
  0.00000000E+00  0.00000000E+00  0.00000000E+00
  0.00000000E+00  0.00000000E+00  0.00000000E+00
  0.00000000E+00  0.00000000E+00  0.00000000E+00
  0.00000000E+00  0.00000000E+00  0.00000000E+00
  0.00000000E+00  0.00000000E+00  0.00000000E+00
  0.00000000E+00  0.00000000E+00  0.00000000E+00
  0.00000000E+00  0.00000000E+00  0.00000000E+00
  0.00000000E+00  0.00000000E+00  0.00000000E+00
  0.00000000E+00  0.00000000E+00  0.00000000E+00
  0.00000000E+00  0.00000000E+00  0.00000000E+00
  0.00000000E+00  0.00000000E+00  0.00000000E+00
  0.00000000E+00  0.00000000E+00  0.00000000E+00
  0.00000000E+00  0.00000000E+00  0.00000000E+00
  0.00000000E+00  0.00000000E+00  0.00000000E+00
  0.00000000E+00  0.00000000E+00  0.00000000E+00
  0.00000000E+00  0.00000000E+00  0.00000000E+00
  0.00000000E+00  0.00000000E+00  0.00000000E+00
  0.00000000E+00  0.00000000E+00  0.00000000E+00
  0.00000000E+00  0.00000000E+00  0.00000000E+00
  0.00000000E+00  0.00000000E+00  0.00000000E+00
  0.00000000E+00  0.00000000E+00  0.00000000E+00
  0.00000000E+00  0.00000000E+00  0.00000000E+00
  0.00000000E+00  0.00000000E+00  0.00000000E+00
  0.00000000E+00  0.00000000E+00  0.00000000E+00
  0.00000000E+00  0.00000000E+00  0.00000000E+00
  0.00000000E+00  0.00000000E+00  0.00000000E+00
  0.00000000E+00  0.00000000E+00  0.00000000E+00
  0.00000000E+00  0.00000000E+00  0.00000000E+00
  0.00000000E+00  0.00000000E+00  0.00000000E+00
  0.00000000E+00  0.00000000E+00  0.00000000E+00
  0.00000000E+00  0.00000000E+00  0.00000000E+00
  0.00000000E+00  0.00000000E+00  0.00000000E+00
  0.00000000E+00  0.00000000E+00  0.00000000E+00
  0.00000000E+00  0.00000000E+00  0.00000000E+00
  0.00000000E+00  0.00000000E+00  0.00000000E+00
  0.00000000E+00  0.00000000E+00  0.00000000E+00
  0.00000000E+00  0.00000000E+00  0.00000000E+00
  0.00000000E+00  0.00000000E+00  0.00000000E+00
  0.00000000E+00  0.00000000E+00  0.00000000E+00
  0.00000000E+00  0.00000000E+00  0.00000000E+00
  0.00000000E+00  0.00000000E+00  0.00000000E+00
  0.00000000E+00  0.00000000E+00  0.00000000E+00
  0.00000000E+00  0.00000000E+00  0.00000000E+00
  0.00000000E+00  0.00000000E+00  0.00000000E+00
  0.00000000E+00  0.00000000E+00  0.00000000E+00
  0.00000000E+00  0.00000000E+00  0.00000000E+00
  0.00000000E+00  0.00000000E+00  0.00000000E+00
  0.00000000E+00  0.00000000E+00  0.00000000E+00
  0.00000000E+00  0.00000000E+00  0.00000000E+00
  0.00000000E+00  0.00000000E+00  0.00000000E+00
  0.00000000E+00  0.00000000E+00  0.00000000E+00
  0.00000000E+00  0.00000000E+00  0.00000000E+00
  0.00000000E+00  0.00000000E+00  0.00000000E+00
  0.00000000E+00  0.00000000E+00  0.00000000E+00
  0.00000000E+00  0.00000000E+00  0.00000000E+00
  0.00000000E+00  0.00000000E+00  0.00000000E+00
  0.00000000E+00  0.00000000E+00  0.00000000E+00
  0.00000000E+00  0.00000000E+00  0.00000000E+00
  0.00000000E+00  0.00000000E+00  0.00000000E+00
  0.00000000E+00  0.00000000E+00  0.00000000E+00
  0.00000000E+00  0.00000000E+00  0.00000000E+00
  0.00000000E+00  0.00000000E+00  0.00000000E+00
  0.00000000E+00  0.00000000E+00  0.00000000E+00
  0.00000000E+00  0.00000000E+00  0.00000000E+00
  0.00000000E+00  0.00000000E+00  0.00000000E+00
  0.00000000E+00  0.00000000E+00  0.00000000E+00
  0.00000000E+00  0.00000000E+00  0.00000000E+00
  0.00000000E+00  0.00000000E+00  0.00000000E+00
  0.00000000E+00  0.00000000E+00  0.00000000E+00
  0.00000000E+00  0.00000000E+00  0.00000000E+00
  0.00000000E+00  0.00000000E+00  0.00000000E+00
  0.00000000E+00  0.00000000E+00  0.00000000E+00
  0.00000000E+00  0.00000000E+00  0.00000000E+00
  0.00000000E+00  0.00000000E+00  0.00000000E+00
  0.00000000E+00  0.00000000E+00  0.00000000E+00
  0.00000000E+00  0.00000000E+00  0.00000000E+00
  0.00000000E+00  0.00000000E+00  0.00000000E+00
  0.00000000E+00  0.00000000E+00  0.00000000E+00
  0.00000000E+00  0.00000000E+00  0.00000000E+00
  0.00000000E+00  0.00000000E+00  0.00000000E+00
  0.00000000E+00  0.00000000E+00  0.00000000E+00
  0.00000000E+00  0.00000000E+00  0.00000000E+00
  0.00000000E+00  0.00000000E+00  0.00000000E+00
  0.00000000E+00  0.00000000E+00  0.00000000E+00
  0.00000000E+00  0.00000000E+00  0.00000000E+00
  0.00000000E+00  0.00000000E+00  0.00000000E+00
  0.00000000E+00  0.00000000E+00  0.00000000E+00
  0.00000000E+00  0.00000000E+00  0.00000000E+00
  0.00000000E+00  0.00000000E+00  0.00000000E+00
  0.00000000E+00  0.00000000E+00  0.00000000E+00
  0.00000000E+00  0.00000000E+00  0.00000000E+00
  0.00000000E+00  0.00000000E+00  0.00000000E+00
  0.00000000E+00  0.00000000E+00  0.00000000E+00
  0.00000000E+00  0.00000000E+00  0.00000000E+00
  0.00000000E+00  0.00000000E+00  0.00000000E+00
  0.00000000E+00  0.00000000E+00  0.00000000E+00
  0.00000000E+00  0.00000000E+00  0.00000000E+00
  0.00000000E+00  0.00000000E+00  0.00000000E+00
  0.00000000E+00  0.00000000E+00  0.00000000E+00
  0.00000000E+00  0.00000000E+00  0.00000000E+00
  0.00000000E+00  0.00000000E+00  0.00000000E+00
  0.00000000E+00  0.00000000E+00  0.00000000E+00
  0.00000000E+00  0.00000000E+00  0.00000000E+00
  0.00000000E+00  0.00000000E+00  0.00000000E+00
  0.00000000E+00  0.00000000E+00  0.00000000E+00
  0.00000000E+00  0.00000000E+00  0.00000000E+00
  0.00000000E+00  0.00000000E+00  0.00000000E+00
  0.00000000E+00  0.00000000E+00  0.00000000E+00
  0.00000000E+00  0.00000000E+00  0.00000000E+00