CuInSe2gb                               
   1.00000000000000     
     9.7266780392896699    0.0000000000000000    0.0000000000000000
     0.0000000000000000    8.4235502764570693    0.0000000000000000
     0.0000000000000000    0.0000000000000000   45.0000000000000000
   Fe   Mn
   281     7
Direct
  0.0574475251487371  0.7008823091918360  0.2112069420081324
  0.3159040267080892  0.7199980827867810  0.8756874850295053
  0.6881619574051518  0.9577017034258409  0.6113606996916553
  0.4381071234068054  0.4577161884900065  0.6113671925960440
  0.4358863509303741  0.2873402348872107  0.2556303784352182
  0.0609860735766538  0.3864844162902079  0.8339790779500836
  0.3114202852325303  0.8866863518644660  0.8340291325751944
  0.4425031112173004  0.6264768933939805  0.7002767468052811
  0.0643719782923280  0.2129171279364580  0.7443705829421887
  0.1823258032347166  0.4514147190619615  0.2112949785421208
  0.5639302211455869  0.2091102329294981  0.4778626118050477
  0.0639207111583032  0.8744815547018288  0.5667337243506293
  0.5653825879843453  0.2196771458984726  0.8755665385850788
  0.8098608160651889  0.5317267386437505  0.1244379702165367
  0.4326346792012580  0.9522849270416585  0.2113573561356914
  0.5640397109143674  0.3744905770388949  0.5667188298758027
  0.8117650293340880  0.0422482191263660  0.3885442638259022
  0.6859535077646314  0.7905023093346772  0.5221667277993833
  0.4389809100652167  0.4590450657688285  0.4778564135803266
  0.4384190294001719  0.9622750228972911  0.7444623582361256
  0.4389068607995607  0.6245929900523373  0.5667798398307577
  0.5676462587209433  0.8766141757904303  0.7001880645732514
  0.3111997620308273  0.0312634016223093  0.1242408351117538
  0.6869601240781787  0.9586345639498965  0.3444155897411159
  0.6879424603658595  0.7795185512118172  0.1245033130876582
  0.0575210993757957  0.3735651265362740  0.2997158208185625
  0.6888633515290555  0.4713082276453304  0.8754147229349096
  0.4323718696282563  0.4517125841424974  0.2113852912381487
  0.8110040538296049  0.3751001096542011  0.4331484084308990
  0.5628707724934362  0.7077661678852590  0.6114455505221860
  0.5628401174117968  0.5413015741706457  0.6555630655870032
  0.9359608099364710  0.1251781632836633  0.4331585311069021
  0.5608129493744699  0.5373820737745929  0.2554674548818084
  0.6866473380857748  0.4585150996958460  0.3441748221917448
  0.1884649920422009  0.6126717340655335  0.1661044893501431
  0.1926028126515460  0.7989113105447295  0.7885716360606962
  0.4425941001418561  0.1263067474977330  0.7002409465681584
  0.9324873942673821  0.6235284417924887  0.2998248714419938
  0.3152415240154309  0.2196729037274062  0.8756005140806654
  0.3138363412507574  0.8744998245705957  0.5667266283348836
  0.8153881361273151  0.2197450802951914  0.8756228574402182
  0.8128076408712384  0.5412585160438710  0.6556231586952925
  0.5608210408980423  0.5305456976979669  0.1245430204848902
  0.5674319555635398  0.0490810655257812  0.7888239662736579
  0.1860307041976949  0.2873891673128320  0.2556205325428597
  0.8109408853766731  0.8756553687759716  0.4330923026074721
  0.5673312925057377  0.3769605458017488  0.7002999860595942
  0.0613803522869842  0.0311332936147627  0.1245151312981156
  0.3129769872803960  0.5411683371523967  0.6555950104690850
  0.5617454331329224  0.2085807601331970  0.3443670875374358
  0.1881028675945081  0.9579132909624453  0.6114272311268022
  0.3073081407062319  0.3736464247637750  0.2998128327924673
  0.4377590680473155  0.7917456848699692  0.6556222377563728
  0.1924005732282728  0.2982691576539498  0.7887202651792435
  0.0641837974557934  0.3641772436827816  0.1659291943185993
  0.6922416449781493  0.6264844753416555  0.7002442128243849
  0.3117635218936154  0.5419611338186180  0.3885274698586181
  0.0652548887938442  0.7197424274785404  0.8757261508729054
  0.9364532745641264  0.6367945836015234  0.8341499377720060
  0.3178188962590172  0.5494270224360484  0.7887994015063128
  0.3071500341745821  0.2010049751699414  0.2112348707408571
  0.0638146579727424  0.7089878836228003  0.4779297899592453
  0.5573574943605492  0.2013013482688223  0.2112722388267450
  0.3137222442144286  0.2130418004677725  0.7443213674163701
  0.0672257835836595  0.3765861271490421  0.7002880284363093
  0.1862867711560889  0.6369071546082913  0.8338965040537892
  0.0674320378189718  0.0487752998455294  0.7888286790603151
  0.4389110238554769  0.1244576312263868  0.5667318074513255
  0.9380378941015282  0.2916657126128801  0.6555340001052038
  0.8069568952522637  0.2006165578954280  0.2112933341486167
  0.9324356996045869  0.9518529110803856  0.2113965687333695
  0.9388913760974608  0.6246852490366542  0.5667581395418375
  0.8111462992423867  0.3866620618297542  0.8340785867883874
  0.1922661713894394  0.6265039586955652  0.7002368818363278
  0.8110840683761302  0.8865773385375462  0.8341527866128503
  0.6881197136046270  0.2914248643610130  0.6556209854737211
  0.3131117941576292  0.2078890901025328  0.6114229111629640
  0.4386417711166324  0.4626347389897286  0.7443029636758939
  0.4367752485623462  0.7920105247592373  0.3886009729516485
  0.6888479184939129  0.9623392788606910  0.7444378207568930
  0.8069280423306279  0.7012086026492130  0.2113650068637140
  0.8129525016300204  0.7076338646159609  0.6113320108855880
  0.4365604140469553  0.7798109509825474  0.1244049839106615
  0.3133869599569417  0.7124731230757350  0.7443520993893764
  0.3177827450125903  0.0490547091520376  0.7888675593849485
  0.8121931832356606  0.5422406379406021  0.3885657824776936
  0.6862882012722925  0.2906838542235857  0.5220891594888255
  0.6924372486340559  0.7990390794060276  0.7887401427768260
  0.1859927596592728  0.7874426411853200  0.2556205656300577
  0.6881956921350018  0.1134485554215231  0.1663070028709716
  0.6886691499736776  0.9590776000819803  0.4778845380697346
  0.9369367901335124  0.9590591375483377  0.3443216399471385
  0.8111480152233579  0.0402213611553482  0.5220812120019465
  0.6854945736662480  0.6251336970784638  0.4330947499957828
  0.4368890222187287  0.4588510997554746  0.3442886900481232
  0.8144574859438479  0.2130672287312571  0.7443446943972332
  0.4390998639368504  0.9714934046264293  0.8754986347729028
  0.5640024808914422  0.8744534784733775  0.5666626821598306
  0.8114424388571505  0.0309531377701463  0.1242368361999771
  0.4324676295088193  0.6236251726681138  0.2998468879783684
  0.8152593996474473  0.7202883071263000  0.8757019055162779
  0.6880530559882831  0.4577649570787861  0.6113716240669712
  0.5609612959957612  0.3866244143191281  0.8339570659870492
  0.8073911149229858  0.3736233245426327  0.2997635270696601
  0.1868734611919367  0.2920304413634301  0.3885222766948085
  0.8170538821691647  0.5490769112164884  0.7889670803824091
  0.1863984775783313  0.7903200802076611  0.5221897949255956
  0.3075352030908441  0.8736105146509843  0.2997088357632224
  0.1823226555068182  0.9515049914953653  0.2114378279438109
  0.1893498429004037  0.4627819868436818  0.7443425540009437
  0.4360449145898850  0.2904427254119326  0.5220849406434990
  0.0618376648660224  0.7085851688176381  0.3442917790720960
  0.1880003776824835  0.7909179723335479  0.6555444937910903
  0.4424547786461646  0.7989794858171317  0.7886436845448351
  0.6854787857150888  0.1251606089297782  0.4331610186224828
  0.9361579202956460  0.7904602293280437  0.5221372340685385
  0.6881560289932657  0.6136786069804042  0.1662244147993364
  0.8120546348791992  0.7084836229832024  0.3442990790340523
  0.9389163728123641  0.4626723147277821  0.7443275064620135
  0.1871592047678397  0.4586265230591926  0.3442911150839422
  0.5677854418789573  0.5486957802209818  0.7888211752851648
  0.5639011832754016  0.3640804891080990  0.1659137454269409
  0.5619584172284213  0.7084891220461770  0.3443462414013952
  0.5575201439360473  0.3736477955965163  0.2998305729665929
  0.1887174587908117  0.4708118420335121  0.8754536864971957
  0.1881979306363840  0.1131098390135388  0.1662789354722192
  0.4423946974187031  0.2986599091039088  0.7886235682135768
  0.6862006289696666  0.7874925995430104  0.2556099590952670
  0.9368161542562843  0.1364101459062695  0.8339729830383527
  0.4386385608489292  0.9588982367575299  0.4778563763960563
  0.5654610960206800  0.7203382661569759  0.8756443128871101
  0.1886217249024416  0.4590387903114732  0.4778384566325865
  0.9363731051525744  0.2791862630087023  0.1247536700871941
  0.3117936627182323  0.0420272432024060  0.3885253577190899
  0.0628811055524054  0.0412985416432119  0.6556305336207581
  0.5611042720762337  0.3748475941399745  0.4331216905151326
  0.6883163761330313  0.4620878352387772  0.7443328027487006
  0.3130430520869572  0.3636935398941605  0.1657731546841025
  0.9426765978265780  0.1265994197147008  0.7002504945990825
  0.5630770364313374  0.0410323497922219  0.6556041965782455
  0.5613585480277054  0.5404623097574044  0.5220607560946317
  0.1823718021058338  0.1232419922224553  0.2996201553210777
  0.4384475617808321  0.1134538147196911  0.1662045113431633
  0.6823157996946526  0.6236038537211608  0.2997862516640334
  0.9325577490011149  0.1230732429778064  0.2996836856669524
  0.8138990574037630  0.3745086841643867  0.5667386447577288
  0.0576219931658568  0.8733908025596191  0.2997606262276390
  0.1889460117285205  0.6244982405548678  0.5668261477499621
  0.9416326560927054  0.7988151958340183  0.7888185404125874
  0.3111329275176748  0.3867247023875050  0.8340728102922087
  0.9390892460764291  0.4711558127820922  0.8754013786426132
  0.4364306093454930  0.6368421253934672  0.8339031113940819
  0.0620239738322114  0.2088028364957484  0.3443957204095517
  0.1886658986722397  0.9710628627998888  0.8754365001760106
  0.9358617434378733  0.7801121517938681  0.1243183562783270
  0.6869763481758936  0.7922818091467885  0.3885957473135507
  0.9379548118520754  0.7912583190302105  0.6556539958611379
  0.9385221966259478  0.1130575355781227  0.1663073652031113
  0.4379736589339965  0.2916960935513747  0.6556394648058149
  0.0574793893511631  0.2003264985085553  0.2114761785286025
  0.6820802563300418  0.9522345673199032  0.2115014797407053
  0.1825469515670772  0.6235991952992982  0.2997852624540028
  0.8171559680586523  0.8766571066630127  0.7002089960445774
  0.9424957885788577  0.6265525156924473  0.7003104918106940
  0.1922419121949994  0.1264518062485950  0.7002336519697373
  0.9388773464505531  0.4588582767009026  0.4778825842232358
  0.8131316108676410  0.2078341203879313  0.6113967016481682
  0.1863218935160975  0.6251782551196492  0.4331235735371934
  0.4324424682094313  0.1232452404989290  0.2996892428692728
  0.6822850620377203  0.1233682958019767  0.2996806810990886
  0.5617846946030043  0.5419711142003845  0.3885803796921981
  0.8119713730669210  0.2087564614767048  0.3444621586936283
  0.4387753306878189  0.4711459560169876  0.8753705491326277
  0.5613366974283304  0.8864336559014151  0.8340958446939326
  0.3138751403877587  0.2089986994754530  0.4778815170519444
  0.1888711077604337  0.9589333342346332  0.4778521390976503
  0.0611937884868326  0.8865790834982672  0.8341031407082419
  0.0611607229636717  0.5404339881717126  0.5221147255598777
  0.9387253163377808  0.9587954460285462  0.4778016466643871
  0.0630936356190241  0.7075752939443765  0.6113652571027406
  0.5610225219957612  0.0407218927603718  0.5221297532212478
  0.6923316925861386  0.2984321552486051  0.7886844971458726
  0.8138310564621126  0.3633521087428151  0.1659749533482277
  0.4360118457735499  0.1250905623599245  0.4331539934154154
  0.0637762133381630  0.2087551030123483  0.4778677801264826
  0.3128041662125798  0.0411979066798578  0.6555294895559338
  0.4360867279295051  0.7902919391616319  0.5220903246395217
  0.1869139711208933  0.1368333635034048  0.8339511142889607
  0.1868814977980515  0.2790395927501282  0.1246573495776145
  0.9370825480367589  0.4589308367529206  0.3443070548884546
  0.5641692649130643  0.8647227628693802  0.1660208381079882
  0.3071452055656374  0.7010331921262386  0.2114179122699045
  0.9388805185791731  0.6129902326114676  0.1662785789842680
  0.1880147677144428  0.4577347676803349  0.6114208007144911
  0.0673771868114255  0.8765000692731312  0.7001476224183600
  0.0629343365807149  0.5412499135233365  0.6556929753905533
  0.3114050836055301  0.5320611631738213  0.1244837353762082
  0.9366807319784499  0.7920169881579147  0.3885501483082576
  0.9420795167327146  0.2984477305195204  0.7887119269237503
  0.1876971267496265  0.2913077481482747  0.6556217022275548
  0.9379938497227481  0.9577624135932764  0.6114804055891262
  0.8144221339551101  0.7129983578614271  0.7444554462532762
  0.6860236402644559  0.2873168791307535  0.2555988753122409
  0.0648234717150288  0.7127754636107243  0.7443159685711838
  0.6819473296524234  0.4514585286453567  0.2114186851578932
  0.8137182582308292  0.2087665274101597  0.4778857410772810
  0.5637895479152913  0.7090139046574597  0.4779283249024353
  0.0642511887337999  0.8639434052541514  0.1660625288243004
  0.9361483239560222  0.2903340601700755  0.5221759492255319
  0.6874968796316820  0.7915047141419621  0.6556863449851380
  0.0610423914016051  0.8752122589792999  0.4331036397869258
  0.0654894630534356  0.2194160862576345  0.8756948208440672
  0.8130422659403469  0.0411365431801391  0.6555447710641523
  0.5610857577563826  0.0304207817554512  0.1245303589701272
  0.3109738185096783  0.3747448688608848  0.4331155197641152
  0.3139905922372640  0.3744832575486086  0.5666878886395066
  0.3138331499740425  0.7090134015353980  0.4778673293884708
  0.0611451533132989  0.0404345406181923  0.5220564405547008
  0.3170616455374118  0.8763818975076372  0.7002168306958533
  0.0607809838638660  0.5373818770509060  0.2555116409653980
  0.6866782107703665  0.1370274461129694  0.8339604867145602
  0.8106997967820503  0.0371566700879730  0.2557436276951957
  0.1864856863524977  0.1250558340167228  0.4331652040316488
  0.6925631567066022  0.1259424384972520  0.7001537427924155
  0.1861608186935778  0.2905075222973659  0.5221227602396334
  0.4355610838525498  0.7871220212386933  0.2556567534382071
  0.8108877258075288  0.5370571492873210  0.2555677847308248
  0.0630399345024746  0.2079153443510234  0.6113818294262395
  0.1867599748516583  0.7920644355349131  0.3886023002227384
  0.3110949550717116  0.5405184428991594  0.5221178114569984
  0.8169741136661112  0.3766561272645843  0.7002900111833493
  0.6867344801026523  0.2921149868971489  0.3885519334202756
  0.1891013430653580  0.1245094562753526  0.5667040414206765
  0.6889923116879311  0.9713957583163455  0.8754330680416827
  0.6888767734129231  0.1245726110899207  0.5667225572914206
  0.4369562130577075  0.9587088357107408  0.3444034032323350
  0.1887394663012532  0.9622186407007930  0.7444052237921320
  0.9357128780963128  0.7869690879804069  0.2556910825792416
  0.5610033483710014  0.8755870732269705  0.4331398630566364
  0.3108550543663980  0.8755093177634204  0.4331581867776453
  0.8110878397905786  0.5400616052940236  0.5220880859927108
  0.9324816921605311  0.4515239959129365  0.2113881424391147
  0.3107710807047508  0.5371123863573196  0.2555759093105419
  0.5616515150616356  0.0420206858234519  0.3885238200167027
  0.9381072471235302  0.4576373359148859  0.6114426269623432
  0.0617089060486368  0.0422147885172294  0.3885795791327266
  0.0616730828404952  0.5420629182247059  0.3885687442684869
  0.4368646877766508  0.2919359216293538  0.3885505631196288
  0.6889011444137061  0.4589144278349502  0.4779353014497066
  0.0640913255294405  0.3745784238226992  0.5667360411416745
  0.5574034335334870  0.7009368083697287  0.2112468166143036
  0.9358606642264009  0.2874422203078611  0.2556972732296836
  0.8168684218039677  0.0487726275220968  0.7887573109362198
  0.1870267553218840  0.9587256974647743  0.3443869270237173
  0.5574326827544790  0.8736042566212684  0.2998053518697531
  0.0611498363381479  0.3751520436470741  0.4331078607150608
  0.3120401563492982  0.7086258329428446  0.3443044369795718
  0.3118239148659143  0.2085306534206391  0.3444392706227894
  0.9389145897552935  0.1246442792500254  0.5666963064363859
  0.4379682074224873  0.9578068643381860  0.6114161764692224
  0.5610785571477896  0.0374864603264419  0.2556752890947148
  0.1882285217800859  0.7800461405332800  0.1244225650329266
  0.0607528352367515  0.0380502941638906  0.2557772705476822
  0.6889393679022533  0.6246482945299402  0.5668304134723828
  0.4377934245075142  0.6129737177578649  0.1661167985046164
  0.3111326631208792  0.0406790474696350  0.5221154026130537
  0.6864977109406030  0.2790749384575483  0.1247555332953919
  0.8137261758064340  0.7090355546822430  0.4779130198960629
  0.4368800314277721  0.1365604565044707  0.8338277302878589
  0.3176522239936074  0.3761701438694434  0.7002242514385402
  0.6871786853591529  0.6369540240447951  0.8338503547015710
  0.5636499769328381  0.7124002443388611  0.7443861730300724
  0.9366204998047376  0.2920367127661592  0.3885513894420562
  0.9391006876491849  0.9707940659326062  0.8754024212197904
  0.5630892122830485  0.2077575253963249  0.6114061419438551
  0.8139717220031526  0.8744142975623809  0.5667661714675670
  0.8075682015061943  0.8735469487834027  0.2996877078880814
  0.3106158595038492  0.0372278342223454  0.2557427363997100
  0.4365495870442810  0.2792374694324501  0.1247298352471256
  0.3129347876540338  0.7077912558931160  0.6113818178690956
  0.4356601291875352  0.6252148822531292  0.4331374194875383
  0.9360193290438703  0.6250671215851620  0.4331742532577672
  0.3148553268820660  0.8631744457491640  0.1657315419442114
  0.0679401669871266  0.5487699161560494  0.7886469279317513
  0.8146881926963505  0.8630950734271093  0.1657961200038712
  0.5635545521243853  0.2132218783283023  0.7444468345038524
  0.9382041743251995  0.9625006118532632  0.7445168670080775
  0.0602026682267981  0.5298430751171251  0.1245625791436005
 
  0.00000000E+00  0.00000000E+00  0.00000000E+00
  0.00000000E+00  0.00000000E+00  0.00000000E+00
  0.00000000E+00  0.00000000E+00  0.00000000E+00
  0.00000000E+00  0.00000000E+00  0.00000000E+00
  0.00000000E+00  0.00000000E+00  0.00000000E+00
  0.00000000E+00  0.00000000E+00  0.00000000E+00
  0.00000000E+00  0.00000000E+00  0.00000000E+00
  0.00000000E+00  0.00000000E+00  0.00000000E+00
  0.00000000E+00  0.00000000E+00  0.00000000E+00
  0.00000000E+00  0.00000000E+00  0.00000000E+00
  0.00000000E+00  0.00000000E+00  0.00000000E+00
  0.00000000E+00  0.00000000E+00  0.00000000E+00
  0.00000000E+00  0.00000000E+00  0.00000000E+00
  0.00000000E+00  0.00000000E+00  0.00000000E+00
  0.00000000E+00  0.00000000E+00  0.00000000E+00
  0.00000000E+00  0.00000000E+00  0.00000000E+00
  0.00000000E+00  0.00000000E+00  0.00000000E+00
  0.00000000E+00  0.00000000E+00  0.00000000E+00
  0.00000000E+00  0.00000000E+00  0.00000000E+00
  0.00000000E+00  0.00000000E+00  0.00000000E+00
  0.00000000E+00  0.00000000E+00  0.00000000E+00
  0.00000000E+00  0.00000000E+00  0.00000000E+00
  0.00000000E+00  0.00000000E+00  0.00000000E+00
  0.00000000E+00  0.00000000E+00  0.00000000E+00
  0.00000000E+00  0.00000000E+00  0.00000000E+00
  0.00000000E+00  0.00000000E+00  0.00000000E+00
  0.00000000E+00  0.00000000E+00  0.00000000E+00
  0.00000000E+00  0.00000000E+00  0.00000000E+00
  0.00000000E+00  0.00000000E+00  0.00000000E+00
  0.00000000E+00  0.00000000E+00  0.00000000E+00
  0.00000000E+00  0.00000000E+00  0.00000000E+00
  0.00000000E+00  0.00000000E+00  0.00000000E+00
  0.00000000E+00  0.00000000E+00  0.00000000E+00
  0.00000000E+00  0.00000000E+00  0.00000000E+00
  0.00000000E+00  0.00000000E+00  0.00000000E+00
  0.00000000E+00  0.00000000E+00  0.00000000E+00
  0.00000000E+00  0.00000000E+00  0.00000000E+00
  0.00000000E+00  0.00000000E+00  0.00000000E+00
  0.00000000E+00  0.00000000E+00  0.00000000E+00
  0.00000000E+00  0.00000000E+00  0.00000000E+00
  0.00000000E+00  0.00000000E+00  0.00000000E+00
  0.00000000E+00  0.00000000E+00  0.00000000E+00
  0.00000000E+00  0.00000000E+00  0.00000000E+00
  0.00000000E+00  0.00000000E+00  0.00000000E+00
  0.00000000E+00  0.00000000E+00  0.00000000E+00
  0.00000000E+00  0.00000000E+00  0.00000000E+00
  0.00000000E+00  0.00000000E+00  0.00000000E+00
  0.00000000E+00  0.00000000E+00  0.00000000E+00
  0.00000000E+00  0.00000000E+00  0.00000000E+00
  0.00000000E+00  0.00000000E+00  0.00000000E+00
  0.00000000E+00  0.00000000E+00  0.00000000E+00
  0.00000000E+00  0.00000000E+00  0.00000000E+00
  0.00000000E+00  0.00000000E+00  0.00000000E+00
  0.00000000E+00  0.00000000E+00  0.00000000E+00
  0.00000000E+00  0.00000000E+00  0.00000000E+00
  0.00000000E+00  0.00000000E+00  0.00000000E+00
  0.00000000E+00  0.00000000E+00  0.00000000E+00
  0.00000000E+00  0.00000000E+00  0.00000000E+00
  0.00000000E+00  0.00000000E+00  0.00000000E+00
  0.00000000E+00  0.00000000E+00  0.00000000E+00
  0.00000000E+00  0.00000000E+00  0.00000000E+00
  0.00000000E+00  0.00000000E+00  0.00000000E+00
  0.00000000E+00  0.00000000E+00  0.00000000E+00
  0.00000000E+00  0.00000000E+00  0.00000000E+00
  0.00000000E+00  0.00000000E+00  0.00000000E+00
  0.00000000E+00  0.00000000E+00  0.00000000E+00
  0.00000000E+00  0.00000000E+00  0.00000000E+00
  0.00000000E+00  0.00000000E+00  0.00000000E+00
  0.00000000E+00  0.00000000E+00  0.00000000E+00
  0.00000000E+00  0.00000000E+00  0.00000000E+00
  0.00000000E+00  0.00000000E+00  0.00000000E+00
  0.00000000E+00  0.00000000E+00  0.00000000E+00
  0.00000000E+00  0.00000000E+00  0.00000000E+00
  0.00000000E+00  0.00000000E+00  0.00000000E+00
  0.00000000E+00  0.00000000E+00  0.00000000E+00
  0.00000000E+00  0.00000000E+00  0.00000000E+00
  0.00000000E+00  0.00000000E+00  0.00000000E+00
  0.00000000E+00  0.00000000E+00  0.00000000E+00
  0.00000000E+00  0.00000000E+00  0.00000000E+00
  0.00000000E+00  0.00000000E+00  0.00000000E+00
  0.00000000E+00  0.00000000E+00  0.00000000E+00
  0.00000000E+00  0.00000000E+00  0.00000000E+00
  0.00000000E+00  0.00000000E+00  0.00000000E+00
  0.00000000E+00  0.00000000E+00  0.00000000E+00
  0.00000000E+00  0.00000000E+00  0.00000000E+00
  0.00000000E+00  0.00000000E+00  0.00000000E+00
  0.00000000E+00  0.00000000E+00  0.00000000E+00
  0.00000000E+00  0.00000000E+00  0.00000000E+00
  0.00000000E+00  0.00000000E+00  0.00000000E+00
  0.00000000E+00  0.00000000E+00  0.00000000E+00
  0.00000000E+00  0.00000000E+00  0.00000000E+00
  0.00000000E+00  0.00000000E+00  0.00000000E+00
  0.00000000E+00  0.00000000E+00  0.00000000E+00
  0.00000000E+00  0.00000000E+00  0.00000000E+00
  0.00000000E+00  0.00000000E+00  0.00000000E+00
  0.00000000E+00  0.00000000E+00  0.00000000E+00
  0.00000000E+00  0.00000000E+00  0.00000000E+00
  0.00000000E+00  0.00000000E+00  0.00000000E+00
  0.00000000E+00  0.00000000E+00  0.00000000E+00
  0.00000000E+00  0.00000000E+00  0.00000000E+00
  0.00000000E+00  0.00000000E+00  0.00000000E+00
  0.00000000E+00  0.00000000E+00  0.00000000E+00
  0.00000000E+00  0.00000000E+00  0.00000000E+00
  0.00000000E+00  0.00000000E+00  0.00000000E+00
  0.00000000E+00  0.00000000E+00  0.00000000E+00
  0.00000000E+00  0.00000000E+00  0.00000000E+00
  0.00000000E+00  0.00000000E+00  0.00000000E+00
  0.00000000E+00  0.00000000E+00  0.00000000E+00
  0.00000000E+00  0.00000000E+00  0.00000000E+00
  0.00000000E+00  0.00000000E+00  0.00000000E+00
  0.00000000E+00  0.00000000E+00  0.00000000E+00
  0.00000000E+00  0.00000000E+00  0.00000000E+00
  0.00000000E+00  0.00000000E+00  0.00000000E+00
  0.00000000E+00  0.00000000E+00  0.00000000E+00
  0.00000000E+00  0.00000000E+00  0.00000000E+00
  0.00000000E+00  0.00000000E+00  0.00000000E+00
  0.00000000E+00  0.00000000E+00  0.00000000E+00
  0.00000000E+00  0.00000000E+00  0.00000000E+00
  0.00000000E+00  0.00000000E+00  0.00000000E+00
  0.00000000E+00  0.00000000E+00  0.00000000E+00
  0.00000000E+00  0.00000000E+00  0.00000000E+00
  0.00000000E+00  0.00000000E+00  0.00000000E+00
  0.00000000E+00  0.00000000E+00  0.00000000E+00
  0.00000000E+00  0.00000000E+00  0.00000000E+00
  0.00000000E+00  0.00000000E+00  0.00000000E+00
  0.00000000E+00  0.00000000E+00  0.00000000E+00
  0.00000000E+00  0.00000000E+00  0.00000000E+00
  0.00000000E+00  0.00000000E+00  0.00000000E+00
  0.00000000E+00  0.00000000E+00  0.00000000E+00
  0.00000000E+00  0.00000000E+00  0.00000000E+00
  0.00000000E+00  0.00000000E+00  0.00000000E+00
  0.00000000E+00  0.00000000E+00  0.00000000E+00
  0.00000000E+00  0.00000000E+00  0.00000000E+00
  0.00000000E+00  0.00000000E+00  0.00000000E+00
  0.00000000E+00  0.00000000E+00  0.00000000E+00
  0.00000000E+00  0.00000000E+00  0.00000000E+00
  0.00000000E+00  0.00000000E+00  0.00000000E+00
  0.00000000E+00  0.00000000E+00  0.00000000E+00
  0.00000000E+00  0.00000000E+00  0.00000000E+00
  0.00000000E+00  0.00000000E+00  0.00000000E+00
  0.00000000E+00  0.00000000E+00  0.00000000E+00
  0.00000000E+00  0.00000000E+00  0.00000000E+00
  0.00000000E+00  0.00000000E+00  0.00000000E+00
  0.00000000E+00  0.00000000E+00  0.00000000E+00
  0.00000000E+00  0.00000000E+00  0.00000000E+00
  0.00000000E+00  0.00000000E+00  0.00000000E+00
  0.00000000E+00  0.00000000E+00  0.00000000E+00
  0.00000000E+00  0.00000000E+00  0.00000000E+00
  0.00000000E+00  0.00000000E+00  0.00000000E+00
  0.00000000E+00  0.00000000E+00  0.00000000E+00
  0.00000000E+00  0.00000000E+00  0.00000000E+00
  0.00000000E+00  0.00000000E+00  0.00000000E+00
  0.00000000E+00  0.00000000E+00  0.00000000E+00
  0.00000000E+00  0.00000000E+00  0.00000000E+00
  0.00000000E+00  0.00000000E+00  0.00000000E+00
  0.00000000E+00  0.00000000E+00  0.00000000E+00
  0.00000000E+00  0.00000000E+00  0.00000000E+00
  0.00000000E+00  0.00000000E+00  0.00000000E+00
  0.00000000E+00  0.00000000E+00  0.00000000E+00
  0.00000000E+00  0.00000000E+00  0.00000000E+00
  0.00000000E+00  0.00000000E+00  0.00000000E+00
  0.00000000E+00  0.00000000E+00  0.00000000E+00
  0.00000000E+00  0.00000000E+00  0.00000000E+00
  0.00000000E+00  0.00000000E+00  0.00000000E+00
  0.00000000E+00  0.00000000E+00  0.00000000E+00
  0.00000000E+00  0.00000000E+00  0.00000000E+00
  0.00000000E+00  0.00000000E+00  0.00000000E+00
  0.00000000E+00  0.00000000E+00  0.00000000E+00
  0.00000000E+00  0.00000000E+00  0.00000000E+00
  0.00000000E+00  0.00000000E+00  0.00000000E+00
  0.00000000E+00  0.00000000E+00  0.00000000E+00
  0.00000000E+00  0.00000000E+00  0.00000000E+00
  0.00000000E+00  0.00000000E+00  0.00000000E+00
  0.00000000E+00  0.00000000E+00  0.00000000E+00
  0.00000000E+00  0.00000000E+00  0.00000000E+00
  0.00000000E+00  0.00000000E+00  0.00000000E+00
  0.00000000E+00  0.00000000E+00  0.00000000E+00
  0.00000000E+00  0.00000000E+00  0.00000000E+00
  0.00000000E+00  0.00000000E+00  0.00000000E+00
  0.00000000E+00  0.00000000E+00  0.00000000E+00
  0.00000000E+00  0.00000000E+00  0.00000000E+00
  0.00000000E+00  0.00000000E+00  0.00000000E+00
  0.00000000E+00  0.00000000E+00  0.00000000E+00
  0.00000000E+00  0.00000000E+00  0.00000000E+00
  0.00000000E+00  0.00000000E+00  0.00000000E+00
  0.00000000E+00  0.00000000E+00  0.00000000E+00
  0.00000000E+00  0.00000000E+00  0.00000000E+00
  0.00000000E+00  0.00000000E+00  0.00000000E+00
  0.00000000E+00  0.00000000E+00  0.00000000E+00
  0.00000000E+00  0.00000000E+00  0.00000000E+00
  0.00000000E+00  0.00000000E+00  0.00000000E+00
  0.00000000E+00  0.00000000E+00  0.00000000E+00
  0.00000000E+00  0.00000000E+00  0.00000000E+00
  0.00000000E+00  0.00000000E+00  0.00000000E+00
  0.00000000E+00  0.00000000E+00  0.00000000E+00
  0.00000000E+00  0.00000000E+00  0.00000000E+00
  0.00000000E+00  0.00000000E+00  0.00000000E+00
  0.00000000E+00  0.00000000E+00  0.00000000E+00
  0.00000000E+00  0.00000000E+00  0.00000000E+00
  0.00000000E+00  0.00000000E+00  0.00000000E+00
  0.00000000E+00  0.00000000E+00  0.00000000E+00
  0.00000000E+00  0.00000000E+00  0.00000000E+00
  0.00000000E+00  0.00000000E+00  0.00000000E+00
  0.00000000E+00  0.00000000E+00  0.00000000E+00
  0.00000000E+00  0.00000000E+00  0.00000000E+00
  0.00000000E+00  0.00000000E+00  0.00000000E+00
  0.00000000E+00  0.00000000E+00  0.00000000E+00
  0.00000000E+00  0.00000000E+00  0.00000000E+00
  0.00000000E+00  0.00000000E+00  0.00000000E+00
  0.00000000E+00  0.00000000E+00  0.00000000E+00
  0.00000000E+00  0.00000000E+00  0.00000000E+00
  0.00000000E+00  0.00000000E+00  0.00000000E+00
  0.00000000E+00  0.00000000E+00  0.00000000E+00
  0.00000000E+00  0.00000000E+00  0.00000000E+00
  0.00000000E+00  0.00000000E+00  0.00000000E+00
  0.00000000E+00  0.00000000E+00  0.00000000E+00
  0.00000000E+00  0.00000000E+00  0.00000000E+00
  0.00000000E+00  0.00000000E+00  0.00000000E+00
  0.00000000E+00  0.00000000E+00  0.00000000E+00
  0.00000000E+00  0.00000000E+00  0.00000000E+00
  0.00000000E+00  0.00000000E+00  0.00000000E+00
  0.00000000E+00  0.00000000E+00  0.00000000E+00
  0.00000000E+00  0.00000000E+00  0.00000000E+00
  0.00000000E+00  0.00000000E+00  0.00000000E+00
  0.00000000E+00  0.00000000E+00  0.00000000E+00
  0.00000000E+00  0.00000000E+00  0.00000000E+00
  0.00000000E+00  0.00000000E+00  0.00000000E+00
  0.00000000E+00  0.00000000E+00  0.00000000E+00
  0.00000000E+00  0.00000000E+00  0.00000000E+00
  0.00000000E+00  0.00000000E+00  0.00000000E+00
  0.00000000E+00  0.00000000E+00  0.00000000E+00
  0.00000000E+00  0.00000000E+00  0.00000000E+00
  0.00000000E+00  0.00000000E+00  0.00000000E+00
  0.00000000E+00  0.00000000E+00  0.00000000E+00
  0.00000000E+00  0.00000000E+00  0.00000000E+00
  0.00000000E+00  0.00000000E+00  0.00000000E+00
  0.00000000E+00  0.00000000E+00  0.00000000E+00
  0.00000000E+00  0.00000000E+00  0.00000000E+00
  0.00000000E+00  0.00000000E+00  0.00000000E+00
  0.00000000E+00  0.00000000E+00  0.00000000E+00
  0.00000000E+00  0.00000000E+00  0.00000000E+00
  0.00000000E+00  0.00000000E+00  0.00000000E+00
  0.00000000E+00  0.00000000E+00  0.00000000E+00
  0.00000000E+00  0.00000000E+00  0.00000000E+00
  0.00000000E+00  0.00000000E+00  0.00000000E+00
  0.00000000E+00  0.00000000E+00  0.00000000E+00
  0.00000000E+00  0.00000000E+00  0.00000000E+00