CuInSe2gb                               
   1.00000000000000     
     9.7266780392896699    0.0000000000000000    0.0000000000000000
     0.0000000000000000    8.4235502764570693    0.0000000000000000
     0.0000000000000000    0.0000000000000000   45.0000000000000000
   Fe   Mn
   281     7
Direct
  0.0533105358424383  0.7014233405685628  0.2113456117874024
  0.3182325310405575  0.7237640130708100  0.8761506702411477
  0.6876263862556966  0.9582264162432251  0.6113502930478169
  0.4377814187321462  0.4580963428105718  0.6113649794178588
  0.4399179710791495  0.2880994787092039  0.2554650380147894
  0.0585220621267790  0.3883253441713085  0.8333900183304649
  0.3085860465046535  0.8876399092814425  0.8334999008026595
  0.4470685516737229  0.6261504789898926  0.7001471238249035
  0.0602774739792010  0.2122929756859263  0.7448292865892963
  0.1786596374107353  0.4509776769615495  0.2113153967746261
  0.5678427435473300  0.2106660938310542  0.4775208664097320
  0.0665622360202895  0.8749631331963134  0.5668177436695923
  0.5680721732415888  0.2241192463486495  0.8760621592476564
  0.8083427521176781  0.5259825476098269  0.1240704036198671
  0.4295543654298294  0.9511958439620720  0.2114815354563148
  0.5665727192869366  0.3749527525440520  0.5668228903742524
  0.8122371610898663  0.0419977268623209  0.3886260732096953
  0.6819360850307983  0.7886471782498254  0.5224231022441251
  0.4426806918029267  0.4605865338893323  0.4775103115871694
  0.4349182315498764  0.9619956653704104  0.7445564729377379
  0.4415593678512800  0.6247972853296290  0.5668383335462612
  0.5714167751521829  0.8760834526435743  0.7005254749296467
  0.3116424143746293  0.0280105740491830  0.1240396849118385
  0.6902536784759399  0.9594067450322880  0.3441379260262797
  0.6877493921546906  0.7844984240883701  0.1242872743519387
  0.0525795290024142  0.3737310638375697  0.2997394200238447
  0.6893831246703195  0.4675915052852171  0.8758627978654099
  0.4285295741444345  0.4516398739492595  0.2114162956783302
  0.8084985884586634  0.3752241985949056  0.4330833366621296
  0.5629374764137742  0.7082992053410969  0.6115811653786415
  0.5597891893338532  0.5413590317752898  0.6556717690266719
  0.9334739867929158  0.1249874929007089  0.4331178148645061
  0.5647555717926221  0.5375202772821897  0.2554083220302251
  0.6903054675009282  0.4591938779856936  0.3441872134120817
  0.1914289997870118  0.6105333047219452  0.1663058266141941
  0.1955741366766459  0.7989491716298026  0.7887323250555237
  0.4473315310042651  0.1259507571435175  0.7001609328967676
  0.9276076362098398  0.6235182524356612  0.2996595089173660
  0.3174996763179517  0.2229736870878254  0.8760742770849224
  0.3167088134119690  0.8746503379537031  0.5668194610232937
  0.8172177911070095  0.2235848918486275  0.8761186429458786
  0.8094843476822481  0.5411223616508560  0.6557211201778562
  0.5592431465485848  0.5258132520487269  0.1238593347186897
  0.5701520318884323  0.0497835745619032  0.7887232840630418
  0.1897820485354567  0.2881574879431674  0.2554712821838946
  0.8084635939200532  0.8749585938257073  0.4331013799253202
  0.5723776232055121  0.3760888680699548  0.7002022778643289
  0.0600094680270013  0.0290291278537901  0.1240868306069406
  0.3094675101693879  0.5406674633389090  0.6558387574087098
  0.5651753606787127  0.2093679247936409  0.3441066627023101
  0.1876556350268789  0.9581664523452847  0.6113713628883349
  0.3026740880735859  0.3736919823057063  0.2996998248718782
  0.4344831709298684  0.7905028160514824  0.6558309189967397
  0.1955780640029129  0.2982332087472535  0.7885945155770631
  0.0665547545395959  0.3632482942430397  0.1665176746883754
  0.6972038017457093  0.6261718849668070  0.7003137457145089
  0.3121090165250853  0.5417478841419873  0.3886236460250430
  0.0679853005610334  0.7229261189637816  0.8761121360178815
  0.9335733123567465  0.6375439073986893  0.8336390114250252
  0.3200778707735536  0.5494612808735850  0.7888165796100169
  0.3035294761304624  0.2012932333537008  0.2112393652126550
  0.0681157253212969  0.7106601627383494  0.4774778669686258
  0.5535727277015636  0.2016100553272950  0.2113361349431033
  0.3110163094306310  0.2116164857960116  0.7446393880096871
  0.0721658338430714  0.3762903811166012  0.7003327825766246
  0.1832720093853069  0.6375663213308986  0.8334898735080812
  0.0706301829173695  0.0491077470982603  0.7888246377729627
  0.4417084027819514  0.1249621203588585  0.5668968778665938
  0.9346767183715498  0.2909119231862357  0.6557782124743932
  0.8037750042127804  0.2013063373652877  0.2113442008716969
  0.9291419445800854  0.9508207780528034  0.2116258316229026
  0.9416385973442465  0.6249943831754710  0.5667556832030628
  0.8082539918857433  0.3877151045089433  0.8334976765997528
  0.1972213640102374  0.6259702599817247  0.7001080714605311
  0.8084902485471239  0.8878479445922483  0.8335304796062037
  0.6848056565714414  0.2906478418424132  0.6558831028835229
  0.3126241677501129  0.2079178992955244  0.6113326971648303
  0.4352550864843410  0.4623986619683093  0.7446086333274735
  0.4368493119296312  0.7916769420362917  0.3884905976253825
  0.6843548060932612  0.9625963633190697  0.7445542534051344
  0.8027940402768481  0.7011089774367533  0.2114940292904197
  0.8130233422110518  0.7083342789636103  0.6115523590306556
  0.4351750006017000  0.7845169575177043  0.1241168402338615
  0.3101698429199624  0.7118961235180427  0.7445494086523969
  0.3212478322315176  0.0492066634979870  0.7886953411178169
  0.8115482216791969  0.5416086628596968  0.3884099648082500
  0.6823769331187801  0.2881818961208678  0.5223413993610658
  0.6961397274527041  0.7986830142724086  0.7886986112076393
  0.1899930495090173  0.7882673520208737  0.2554605987269052
  0.6909785382801638  0.1114637272860430  0.1666824897824303
  0.6926146205066134  0.9606076045769225  0.4775057854792629
  0.9402431538653464  0.9593933341890359  0.3441299607441314
  0.8070601553286393  0.0384755812172446  0.5225336048186134
  0.6835642071818612  0.6250514886936651  0.4331211055837099
  0.4404303281902067  0.4592806162317767  0.3442002994016075
  0.8109201250226949  0.2117556445193352  0.7445298178527686
  0.4392416117845294  0.9676635914690556  0.8759151127228002
  0.5665516967819997  0.8747432901226143  0.5667955287516939
  0.8102822404625548  0.0280198170414307  0.1240587705720936
  0.4276653778812298  0.6237319860683852  0.2996285783577995
  0.8169892340055033  0.7229729527475486  0.8762012898988840
  0.6876636689679603  0.4579550325261241  0.6113453908875983
  0.5585164087540818  0.3875966754877802  0.8332726566714863
  0.8027212685721640  0.3737191525604273  0.2996638500699814
  0.1870585213460180  0.2917632648892119  0.3884952279545217
  0.8205302329700204  0.5491688161928161  0.7888769767222777
  0.1823002293484784  0.7890114215682629  0.5225650588364580
  0.3025963792569205  0.8741187308531404  0.2998121829049389
  0.1784702782845715  0.9515234668968856  0.2114859326673933
  0.1851301528111075  0.4621818068427788  0.7446677110976168
  0.4325035681190368  0.2884526208308326  0.5223304421863473
  0.0652403430911757  0.7092651189043486  0.3441195933843438
  0.1848081932556372  0.7907431361483355  0.6557560113944170
  0.4458587523986647  0.7986654569330890  0.7887005690419043
  0.6833894271454974  0.1249793419531164  0.4330749831777372
  0.9322289953343397  0.7882408411940827  0.5223599296578590
  0.6912955811919435  0.6122108227687304  0.1665027728919110
  0.8152732360247835  0.7094414531264014  0.3441131218194821
  0.9346346458997845  0.4625704826444575  0.7449507622625321
  0.1903275113199784  0.4594036574536067  0.3441815190970208
  0.5704491051906445  0.5491931994302508  0.7888532808225360
  0.5663429553046573  0.3631916807111806  0.1667027501013088
  0.5652314768854648  0.7095099129227989  0.3441297912852753
  0.5525169602029513  0.3737939189119998  0.2996578133982254
  0.1892912450878303  0.4674434377018796  0.8758719765904146
  0.1912847276627451  0.1110224677011059  0.1666097697234177
  0.4448075750261284  0.2984418659138356  0.7887173340526886
  0.6900456988547466  0.7879826288771210  0.2554263528889238
  0.9335590680811630  0.1375588673337337  0.8335066160106063
  0.4428249061655611  0.9608016595764228  0.4774784636754840
  0.5675973879935824  0.7246038032242182  0.8760651085430032
  0.1926157005416545  0.4608495693279816  0.4774743266815161
  0.9331490364331467  0.2834110661794917  0.1240720883712310
  0.3121151414214243  0.0420686195504504  0.3887007054440649
  0.0596512641561524  0.0403065848024342  0.6559147382251898
  0.5585060010753974  0.3749090232662543  0.4331297435398687
  0.6843372290215641  0.4623721045744107  0.7449423719182965
  0.3161465971304831  0.3626147785920824  0.1664877840012144
  0.9472624719374632  0.1262208500318925  0.7003769721836230
  0.5596989273413617  0.0410480291776802  0.6557350290246723
  0.5568968557922127  0.5387381990304451  0.5225496703959083
  0.1777104962722094  0.1239221194167082  0.2998080725005591
  0.4407706299770334  0.1112115978496137  0.1666763226219405
  0.6777553518754676  0.6237402275379231  0.2996121924181561
  0.9275690776035068  0.1240137139245165  0.2998376569779946
  0.8166511280188378  0.3750174947817637  0.5668783454125784
  0.0527552920355784  0.8737853947715992  0.2998631302651671
  0.1915758841299021  0.6249408786660069  0.5668824646695783
  0.9460515125884958  0.7990421017379955  0.7887108889071981
  0.3083127905164932  0.3875195564968364  0.8334809399715171
  0.9388685691816507  0.4682279679648385  0.8758834487334310
  0.4336714582425158  0.6379014813991369  0.8335122608478029
  0.0650447190036958  0.2091863842699235  0.3440017386563330
  0.1895119124921270  0.9675990812716049  0.8760509634780398
  0.9371509346422359  0.7853868386574271  0.1242973821329710
  0.6866988072244651  0.7914017818328649  0.3884309892566289
  0.9345618847295604  0.7907243059474703  0.6558147734397825
  0.9409653126705295  0.1107285179901463  0.1667266439389915
  0.4348516831028155  0.2905977167172941  0.6559080593326564
  0.0532128299670950  0.2002374569191390  0.2115310346818895
  0.6781237812527721  0.9515042572900830  0.2114168191837936
  0.1776278000146269  0.6236647484728080  0.2996358840892838
  0.8220961034412122  0.8761088406365634  0.7003196592064809
  0.9470132868683681  0.6264043764004024  0.7003946962593247
  0.1971909712113717  0.1260108537433272  0.7001946899286549
  0.9428457791241548  0.4606665871517471  0.4774493112202158
  0.8127608284380272  0.2080136138267897  0.6113581656276486
  0.1833581380294173  0.6250525165683058  0.4331229546362717
  0.4275606570130066  0.1239236974819067  0.2997718941133020
  0.6776250089295163  0.1238950984874648  0.2998225214841043
  0.5619255893101404  0.5417272129552322  0.3884838596171097
  0.8150043763646553  0.2091968868655610  0.3440076706578490
  0.4391957979562749  0.4676208409513427  0.8757430325209727
  0.5585899593142728  0.8872703996320926  0.8334777931559828
  0.3177224793478978  0.2106010448978674  0.4774749521123923
  0.1926477281142391  0.9606644288602563  0.4775155924565637
  0.0585331480260334  0.8877972287017136  0.8334420815111092
  0.0571900841252418  0.5385702488688366  0.5223818417652524
  0.9427803872921683  0.9605870190632557  0.4774180947456802
  0.0626923028070260  0.7081744614692452  0.6114575607740351
  0.5572932106092200  0.0382883608671683  0.5223554862506998
  0.6961105410076615  0.2984214571281362  0.7886559329228388
  0.8167161490188076  0.3633676518379919  0.1666429055644385
  0.4333872629289137  0.1249927665425415  0.4331094781408263
  0.0678208161652589  0.2106588324814622  0.4774788240329258
  0.3095430536777269  0.0407379448792257  0.6557876668439762
  0.4321100203880071  0.7885669403250242  0.5223910205828065
  0.1836412207589428  0.1377163822997973  0.8335474129458320
  0.1869799025377259  0.2841888445607689  0.1240800230399773
  0.9402703788900173  0.4593679425418415  0.3441765797957746
  0.5667820895068720  0.8627358374906245  0.1664863999652320
  0.3038019282634331  0.7012208601653094  0.2113683932751812
  0.9403221484305504  0.6097518499643325  0.1663454712178106
  0.1876600039439404  0.4580093573789199  0.6113660499554311
  0.0721698203490565  0.8762558114537934  0.7001584478673447
  0.0597353820186613  0.5406567071954376  0.6558213997023496
  0.3103786717974228  0.5264654930831787  0.1237456929768415
  0.9367993008878873  0.7916131081051987  0.3884983133884838
  0.9460548455965526  0.2977384736840085  0.7885660043490040
  0.1845243585843726  0.2905504579971397  0.6558531442774871
  0.9375622576138184  0.9580143059391066  0.6113736039067854
  0.8111785454484186  0.7113689743306414  0.7446300984190222
  0.6898418160884665  0.2881509018818287  0.2554930601590299
  0.0599244194270372  0.7119457100765583  0.7448728710997261
  0.6786242286962025  0.4512790855270931  0.2113398502832225
  0.8179423871566450  0.2107377387813934  0.4775304513664774
  0.5677493453130575  0.7105332185490281  0.4774404783250020
  0.0661683740025097  0.8628271321236094  0.1663218201291227
  0.9323098905943573  0.2882093435364679  0.5223760904415731
  0.6847306024235360  0.7906462868803656  0.6557902214303235
  0.0581752797902599  0.8744726295242649  0.4331437161118898
  0.0677653623144284  0.2228279471369009  0.8760676351098583
  0.8098478971447800  0.0406623681801752  0.6558089167567657
  0.5603353314760157  0.0279563991398239  0.1240527815958791
  0.3083945393380769  0.3749455558406864  0.4330705012213354
  0.3165210917726849  0.3748927774410158  0.5668612553816400
  0.3178302128087565  0.7105316972800567  0.4774068888822623
  0.0572767371676246  0.0382798395448472  0.5224311346456200
  0.3219314037456200  0.8762526677226592  0.7003933122633815
  0.0650289345535599  0.5379136815721773  0.2552968123091145
  0.6834044257119627  0.1377084870635114  0.8335079281092538
  0.8148738880136431  0.0376757699814241  0.2552894366986013
  0.1834551172279948  0.1250126825135024  0.4331021173614684
  0.6977554204376548  0.1267291037804491  0.7002654763370644
  0.1823459695622358  0.2883497425901132  0.5223636859199333
  0.4398495250078602  0.7879159133470101  0.2554115976505578
  0.8147138286964268  0.5378745531207330  0.2554934675665676
  0.0627642537598511  0.2080230378025966  0.6113186936851254
  0.1864843226559019  0.7913931212361962  0.3884063262508199
  0.3072282011762282  0.5383331283039763  0.5223758377946864
  0.8220305515413888  0.3759845157368972  0.7000954979875936
  0.6869852786325056  0.2916307313490655  0.3884873193755339
  0.1914774682574240  0.1250594536581742  0.5668849851775906
  0.6897937197720460  0.9684679806936867  0.8760677553397923
  0.6915332848073956  0.1249896382724446  0.5668799436403346
  0.4402113252631230  0.9593302559363370  0.3441700796539598
  0.1847418647070136  0.9619934314510666  0.7445152481935460
  0.9402545514358014  0.7881307115094436  0.2554126198872569
  0.5584476647752429  0.8750230194168798  0.4331125904981047
  0.3083568189945561  0.8749589442404188  0.4331174274248753
  0.8072438202879634  0.5390814682482401  0.5225540386749747
  0.9284785722434146  0.4509882844282367  0.2113433761727775
  0.3144677699698735  0.5376331003105308  0.2555828571672874
  0.5622808095078385  0.0420457380064469  0.3886752579712204
  0.9377142092216993  0.4579682712311393  0.6114063137906431
  0.0621092274488668  0.0418410088492588  0.3885689137797919
  0.0621417975064208  0.5415688915109377  0.3884876508063606
  0.4369942597463184  0.2917817376218599  0.3885441497090554
  0.6927611719063559  0.4607660315162783  0.4774512608875936
  0.0666282875701459  0.3748532001924067  0.5668690720303995
  0.5531522627666824  0.7017695829120786  0.2113420532473900
  0.9399754373460329  0.2882926544375853  0.2554754389818811
  0.8200428946568294  0.0494370097380172  0.7888901209943785
  0.1902002333963085  0.9593932497355766  0.3441890641432668
  0.5527310414380026  0.8739046403936259  0.2998770000618856
  0.0583345770528097  0.3750861511467019  0.4331069326792836
  0.3152048806103516  0.7093824281528498  0.3441238404658050
  0.3152126327939526  0.2092441857714700  0.3441513564417396
  0.9417318424471591  0.1249706190766145  0.5667705272853129
  0.4378289752235954  0.9582800686096857  0.6114505288060628
  0.5644884521600438  0.0374988272091821  0.2554078613318992
  0.1871368663725322  0.7845314464974151  0.1243886461468567
  0.0650969837736605  0.0373280310576056  0.2551193454478871
  0.6916341504374536  0.6247213840409592  0.5668559445695576
  0.4411710051509990  0.6120779878685044  0.1664877384454443
  0.3072052393585210  0.0383274287251173  0.5223226566979481
  0.6844959155234437  0.2828100731107808  0.1239715646242002
  0.8176904499295700  0.7105592424224438  0.4774455214349531
  0.4335618334027527  0.1377833277318688  0.8334549977362863
  0.3224256058555957  0.3759468020826070  0.7001703544743442
  0.6835298074861208  0.6378878279215905  0.8334869115970523
  0.5609938802472485  0.7115058228930919  0.7446401902544729
  0.9373441611474136  0.2920141265569089  0.3886359506775842
  0.9396088422979523  0.9683099375266677  0.8760907035072465
  0.5625684630216788  0.2079218197688411  0.6113048004754545
  0.8165684532910140  0.8749976329601798  0.5668735747492694
  0.8025931320656098  0.8739843660646078  0.2997868975877125
  0.3151391071475790  0.0377576072440358  0.2550831217838614
  0.4358045232549601  0.2828934381016530  0.1238622737364143
  0.3129169650896415  0.7082300809630705  0.6115100481115866
  0.4333236175785370  0.6250607779493204  0.4331144734787283
  0.9323882197998816  0.6253079635249463  0.4332900139650914
  0.3179560371148565  0.8624012536903876  0.1661410643744698
  0.0715806224555020  0.5491636663422896  0.7886335585401270
  0.8174914336809387  0.8634502798727839  0.1660862270113382
  0.5603170808819208  0.2124121594024128  0.7445848715126080
  0.9339512708359068  0.9616816688827674  0.7444983756908351
  0.0596822440015720  0.5249374874022716  0.1244893237441062
 
  0.00000000E+00  0.00000000E+00  0.00000000E+00
  0.00000000E+00  0.00000000E+00  0.00000000E+00
  0.00000000E+00  0.00000000E+00  0.00000000E+00
  0.00000000E+00  0.00000000E+00  0.00000000E+00
  0.00000000E+00  0.00000000E+00  0.00000000E+00
  0.00000000E+00  0.00000000E+00  0.00000000E+00
  0.00000000E+00  0.00000000E+00  0.00000000E+00
  0.00000000E+00  0.00000000E+00  0.00000000E+00
  0.00000000E+00  0.00000000E+00  0.00000000E+00
  0.00000000E+00  0.00000000E+00  0.00000000E+00
  0.00000000E+00  0.00000000E+00  0.00000000E+00
  0.00000000E+00  0.00000000E+00  0.00000000E+00
  0.00000000E+00  0.00000000E+00  0.00000000E+00
  0.00000000E+00  0.00000000E+00  0.00000000E+00
  0.00000000E+00  0.00000000E+00  0.00000000E+00
  0.00000000E+00  0.00000000E+00  0.00000000E+00
  0.00000000E+00  0.00000000E+00  0.00000000E+00
  0.00000000E+00  0.00000000E+00  0.00000000E+00
  0.00000000E+00  0.00000000E+00  0.00000000E+00
  0.00000000E+00  0.00000000E+00  0.00000000E+00
  0.00000000E+00  0.00000000E+00  0.00000000E+00
  0.00000000E+00  0.00000000E+00  0.00000000E+00
  0.00000000E+00  0.00000000E+00  0.00000000E+00
  0.00000000E+00  0.00000000E+00  0.00000000E+00
  0.00000000E+00  0.00000000E+00  0.00000000E+00
  0.00000000E+00  0.00000000E+00  0.00000000E+00
  0.00000000E+00  0.00000000E+00  0.00000000E+00
  0.00000000E+00  0.00000000E+00  0.00000000E+00
  0.00000000E+00  0.00000000E+00  0.00000000E+00
  0.00000000E+00  0.00000000E+00  0.00000000E+00
  0.00000000E+00  0.00000000E+00  0.00000000E+00
  0.00000000E+00  0.00000000E+00  0.00000000E+00
  0.00000000E+00  0.00000000E+00  0.00000000E+00
  0.00000000E+00  0.00000000E+00  0.00000000E+00
  0.00000000E+00  0.00000000E+00  0.00000000E+00
  0.00000000E+00  0.00000000E+00  0.00000000E+00
  0.00000000E+00  0.00000000E+00  0.00000000E+00
  0.00000000E+00  0.00000000E+00  0.00000000E+00
  0.00000000E+00  0.00000000E+00  0.00000000E+00
  0.00000000E+00  0.00000000E+00  0.00000000E+00
  0.00000000E+00  0.00000000E+00  0.00000000E+00
  0.00000000E+00  0.00000000E+00  0.00000000E+00
  0.00000000E+00  0.00000000E+00  0.00000000E+00
  0.00000000E+00  0.00000000E+00  0.00000000E+00
  0.00000000E+00  0.00000000E+00  0.00000000E+00
  0.00000000E+00  0.00000000E+00  0.00000000E+00
  0.00000000E+00  0.00000000E+00  0.00000000E+00
  0.00000000E+00  0.00000000E+00  0.00000000E+00
  0.00000000E+00  0.00000000E+00  0.00000000E+00
  0.00000000E+00  0.00000000E+00  0.00000000E+00
  0.00000000E+00  0.00000000E+00  0.00000000E+00
  0.00000000E+00  0.00000000E+00  0.00000000E+00
  0.00000000E+00  0.00000000E+00  0.00000000E+00
  0.00000000E+00  0.00000000E+00  0.00000000E+00
  0.00000000E+00  0.00000000E+00  0.00000000E+00
  0.00000000E+00  0.00000000E+00  0.00000000E+00
  0.00000000E+00  0.00000000E+00  0.00000000E+00
  0.00000000E+00  0.00000000E+00  0.00000000E+00
  0.00000000E+00  0.00000000E+00  0.00000000E+00
  0.00000000E+00  0.00000000E+00  0.00000000E+00
  0.00000000E+00  0.00000000E+00  0.00000000E+00
  0.00000000E+00  0.00000000E+00  0.00000000E+00
  0.00000000E+00  0.00000000E+00  0.00000000E+00
  0.00000000E+00  0.00000000E+00  0.00000000E+00
  0.00000000E+00  0.00000000E+00  0.00000000E+00
  0.00000000E+00  0.00000000E+00  0.00000000E+00
  0.00000000E+00  0.00000000E+00  0.00000000E+00
  0.00000000E+00  0.00000000E+00  0.00000000E+00
  0.00000000E+00  0.00000000E+00  0.00000000E+00
  0.00000000E+00  0.00000000E+00  0.00000000E+00
  0.00000000E+00  0.00000000E+00  0.00000000E+00
  0.00000000E+00  0.00000000E+00  0.00000000E+00
  0.00000000E+00  0.00000000E+00  0.00000000E+00
  0.00000000E+00  0.00000000E+00  0.00000000E+00
  0.00000000E+00  0.00000000E+00  0.00000000E+00
  0.00000000E+00  0.00000000E+00  0.00000000E+00
  0.00000000E+00  0.00000000E+00  0.00000000E+00
  0.00000000E+00  0.00000000E+00  0.00000000E+00
  0.00000000E+00  0.00000000E+00  0.00000000E+00
  0.00000000E+00  0.00000000E+00  0.00000000E+00
  0.00000000E+00  0.00000000E+00  0.00000000E+00
  0.00000000E+00  0.00000000E+00  0.00000000E+00
  0.00000000E+00  0.00000000E+00  0.00000000E+00
  0.00000000E+00  0.00000000E+00  0.00000000E+00
  0.00000000E+00  0.00000000E+00  0.00000000E+00
  0.00000000E+00  0.00000000E+00  0.00000000E+00
  0.00000000E+00  0.00000000E+00  0.00000000E+00
  0.00000000E+00  0.00000000E+00  0.00000000E+00
  0.00000000E+00  0.00000000E+00  0.00000000E+00
  0.00000000E+00  0.00000000E+00  0.00000000E+00
  0.00000000E+00  0.00000000E+00  0.00000000E+00
  0.00000000E+00  0.00000000E+00  0.00000000E+00
  0.00000000E+00  0.00000000E+00  0.00000000E+00
  0.00000000E+00  0.00000000E+00  0.00000000E+00
  0.00000000E+00  0.00000000E+00  0.00000000E+00
  0.00000000E+00  0.00000000E+00  0.00000000E+00
  0.00000000E+00  0.00000000E+00  0.00000000E+00
  0.00000000E+00  0.00000000E+00  0.00000000E+00
  0.00000000E+00  0.00000000E+00  0.00000000E+00
  0.00000000E+00  0.00000000E+00  0.00000000E+00
  0.00000000E+00  0.00000000E+00  0.00000000E+00
  0.00000000E+00  0.00000000E+00  0.00000000E+00
  0.00000000E+00  0.00000000E+00  0.00000000E+00
  0.00000000E+00  0.00000000E+00  0.00000000E+00
  0.00000000E+00  0.00000000E+00  0.00000000E+00
  0.00000000E+00  0.00000000E+00  0.00000000E+00
  0.00000000E+00  0.00000000E+00  0.00000000E+00
  0.00000000E+00  0.00000000E+00  0.00000000E+00
  0.00000000E+00  0.00000000E+00  0.00000000E+00
  0.00000000E+00  0.00000000E+00  0.00000000E+00
  0.00000000E+00  0.00000000E+00  0.00000000E+00
  0.00000000E+00  0.00000000E+00  0.00000000E+00
  0.00000000E+00  0.00000000E+00  0.00000000E+00
  0.00000000E+00  0.00000000E+00  0.00000000E+00
  0.00000000E+00  0.00000000E+00  0.00000000E+00
  0.00000000E+00  0.00000000E+00  0.00000000E+00
  0.00000000E+00  0.00000000E+00  0.00000000E+00
  0.00000000E+00  0.00000000E+00  0.00000000E+00
  0.00000000E+00  0.00000000E+00  0.00000000E+00
  0.00000000E+00  0.00000000E+00  0.00000000E+00
  0.00000000E+00  0.00000000E+00  0.00000000E+00
  0.00000000E+00  0.00000000E+00  0.00000000E+00
  0.00000000E+00  0.00000000E+00  0.00000000E+00
  0.00000000E+00  0.00000000E+00  0.00000000E+00
  0.00000000E+00  0.00000000E+00  0.00000000E+00
  0.00000000E+00  0.00000000E+00  0.00000000E+00
  0.00000000E+00  0.00000000E+00  0.00000000E+00
  0.00000000E+00  0.00000000E+00  0.00000000E+00
  0.00000000E+00  0.00000000E+00  0.00000000E+00
  0.00000000E+00  0.00000000E+00  0.00000000E+00
  0.00000000E+00  0.00000000E+00  0.00000000E+00
  0.00000000E+00  0.00000000E+00  0.00000000E+00
  0.00000000E+00  0.00000000E+00  0.00000000E+00
  0.00000000E+00  0.00000000E+00  0.00000000E+00
  0.00000000E+00  0.00000000E+00  0.00000000E+00
  0.00000000E+00  0.00000000E+00  0.00000000E+00
  0.00000000E+00  0.00000000E+00  0.00000000E+00
  0.00000000E+00  0.00000000E+00  0.00000000E+00
  0.00000000E+00  0.00000000E+00  0.00000000E+00
  0.00000000E+00  0.00000000E+00  0.00000000E+00
  0.00000000E+00  0.00000000E+00  0.00000000E+00
  0.00000000E+00  0.00000000E+00  0.00000000E+00
  0.00000000E+00  0.00000000E+00  0.00000000E+00
  0.00000000E+00  0.00000000E+00  0.00000000E+00
  0.00000000E+00  0.00000000E+00  0.00000000E+00
  0.00000000E+00  0.00000000E+00  0.00000000E+00
  0.00000000E+00  0.00000000E+00  0.00000000E+00
  0.00000000E+00  0.00000000E+00  0.00000000E+00
  0.00000000E+00  0.00000000E+00  0.00000000E+00
  0.00000000E+00  0.00000000E+00  0.00000000E+00
  0.00000000E+00  0.00000000E+00  0.00000000E+00
  0.00000000E+00  0.00000000E+00  0.00000000E+00
  0.00000000E+00  0.00000000E+00  0.00000000E+00
  0.00000000E+00  0.00000000E+00  0.00000000E+00
  0.00000000E+00  0.00000000E+00  0.00000000E+00
  0.00000000E+00  0.00000000E+00  0.00000000E+00
  0.00000000E+00  0.00000000E+00  0.00000000E+00
  0.00000000E+00  0.00000000E+00  0.00000000E+00
  0.00000000E+00  0.00000000E+00  0.00000000E+00
  0.00000000E+00  0.00000000E+00  0.00000000E+00
  0.00000000E+00  0.00000000E+00  0.00000000E+00
  0.00000000E+00  0.00000000E+00  0.00000000E+00
  0.00000000E+00  0.00000000E+00  0.00000000E+00
  0.00000000E+00  0.00000000E+00  0.00000000E+00
  0.00000000E+00  0.00000000E+00  0.00000000E+00
  0.00000000E+00  0.00000000E+00  0.00000000E+00
  0.00000000E+00  0.00000000E+00  0.00000000E+00
  0.00000000E+00  0.00000000E+00  0.00000000E+00
  0.00000000E+00  0.00000000E+00  0.00000000E+00
  0.00000000E+00  0.00000000E+00  0.00000000E+00
  0.00000000E+00  0.00000000E+00  0.00000000E+00
  0.00000000E+00  0.00000000E+00  0.00000000E+00
  0.00000000E+00  0.00000000E+00  0.00000000E+00
  0.00000000E+00  0.00000000E+00  0.00000000E+00
  0.00000000E+00  0.00000000E+00  0.00000000E+00
  0.00000000E+00  0.00000000E+00  0.00000000E+00
  0.00000000E+00  0.00000000E+00  0.00000000E+00
  0.00000000E+00  0.00000000E+00  0.00000000E+00
  0.00000000E+00  0.00000000E+00  0.00000000E+00
  0.00000000E+00  0.00000000E+00  0.00000000E+00
  0.00000000E+00  0.00000000E+00  0.00000000E+00
  0.00000000E+00  0.00000000E+00  0.00000000E+00
  0.00000000E+00  0.00000000E+00  0.00000000E+00
  0.00000000E+00  0.00000000E+00  0.00000000E+00
  0.00000000E+00  0.00000000E+00  0.00000000E+00
  0.00000000E+00  0.00000000E+00  0.00000000E+00
  0.00000000E+00  0.00000000E+00  0.00000000E+00
  0.00000000E+00  0.00000000E+00  0.00000000E+00
  0.00000000E+00  0.00000000E+00  0.00000000E+00
  0.00000000E+00  0.00000000E+00  0.00000000E+00
  0.00000000E+00  0.00000000E+00  0.00000000E+00
  0.00000000E+00  0.00000000E+00  0.00000000E+00
  0.00000000E+00  0.00000000E+00  0.00000000E+00
  0.00000000E+00  0.00000000E+00  0.00000000E+00
  0.00000000E+00  0.00000000E+00  0.00000000E+00
  0.00000000E+00  0.00000000E+00  0.00000000E+00
  0.00000000E+00  0.00000000E+00  0.00000000E+00
  0.00000000E+00  0.00000000E+00  0.00000000E+00
  0.00000000E+00  0.00000000E+00  0.00000000E+00
  0.00000000E+00  0.00000000E+00  0.00000000E+00
  0.00000000E+00  0.00000000E+00  0.00000000E+00
  0.00000000E+00  0.00000000E+00  0.00000000E+00
  0.00000000E+00  0.00000000E+00  0.00000000E+00
  0.00000000E+00  0.00000000E+00  0.00000000E+00
  0.00000000E+00  0.00000000E+00  0.00000000E+00
  0.00000000E+00  0.00000000E+00  0.00000000E+00
  0.00000000E+00  0.00000000E+00  0.00000000E+00
  0.00000000E+00  0.00000000E+00  0.00000000E+00
  0.00000000E+00  0.00000000E+00  0.00000000E+00
  0.00000000E+00  0.00000000E+00  0.00000000E+00
  0.00000000E+00  0.00000000E+00  0.00000000E+00
  0.00000000E+00  0.00000000E+00  0.00000000E+00
  0.00000000E+00  0.00000000E+00  0.00000000E+00
  0.00000000E+00  0.00000000E+00  0.00000000E+00
  0.00000000E+00  0.00000000E+00  0.00000000E+00
  0.00000000E+00  0.00000000E+00  0.00000000E+00
  0.00000000E+00  0.00000000E+00  0.00000000E+00
  0.00000000E+00  0.00000000E+00  0.00000000E+00
  0.00000000E+00  0.00000000E+00  0.00000000E+00
  0.00000000E+00  0.00000000E+00  0.00000000E+00
  0.00000000E+00  0.00000000E+00  0.00000000E+00
  0.00000000E+00  0.00000000E+00  0.00000000E+00
  0.00000000E+00  0.00000000E+00  0.00000000E+00
  0.00000000E+00  0.00000000E+00  0.00000000E+00
  0.00000000E+00  0.00000000E+00  0.00000000E+00
  0.00000000E+00  0.00000000E+00  0.00000000E+00
  0.00000000E+00  0.00000000E+00  0.00000000E+00
  0.00000000E+00  0.00000000E+00  0.00000000E+00
  0.00000000E+00  0.00000000E+00  0.00000000E+00
  0.00000000E+00  0.00000000E+00  0.00000000E+00
  0.00000000E+00  0.00000000E+00  0.00000000E+00
  0.00000000E+00  0.00000000E+00  0.00000000E+00
  0.00000000E+00  0.00000000E+00  0.00000000E+00
  0.00000000E+00  0.00000000E+00  0.00000000E+00
  0.00000000E+00  0.00000000E+00  0.00000000E+00
  0.00000000E+00  0.00000000E+00  0.00000000E+00
  0.00000000E+00  0.00000000E+00  0.00000000E+00
  0.00000000E+00  0.00000000E+00  0.00000000E+00
  0.00000000E+00  0.00000000E+00  0.00000000E+00
  0.00000000E+00  0.00000000E+00  0.00000000E+00
  0.00000000E+00  0.00000000E+00  0.00000000E+00
  0.00000000E+00  0.00000000E+00  0.00000000E+00
  0.00000000E+00  0.00000000E+00  0.00000000E+00
  0.00000000E+00  0.00000000E+00  0.00000000E+00
  0.00000000E+00  0.00000000E+00  0.00000000E+00
  0.00000000E+00  0.00000000E+00  0.00000000E+00
  0.00000000E+00  0.00000000E+00  0.00000000E+00