CuInSe2gb                               
   1.00000000000000     
     9.7266780392896699    0.0000000000000000    0.0000000000000000
     0.0000000000000000    8.4235502764570693    0.0000000000000000
     0.0000000000000000    0.0000000000000000   45.0000000000000000
   Fe   Mn
   281     7
Direct
  0.0612263874286703  0.0304737540696387  0.1244090337699769
  0.0632854599609297  0.8718946147220900  0.5212492151701207
  0.1953158967123519  0.1241175854360469  0.7885603696186493
  0.4336625974380436  0.2876088256677932  0.3890479609515050
  0.3086123081323060  0.7129131072645599  0.8331608946065280
  0.8085841220525286  0.2128210318837447  0.8335030079288253
  0.1834504484690574  0.7875776643933224  0.3890805419417958
  0.5638652111384694  0.2076604233743496  0.5654229187425116
  0.0602899787007250  0.0417009920757258  0.7440641313579461
  0.8135667373433911  0.8721612449521394  0.5212821864466476
  0.1854235042794457  0.2915805717829464  0.7441602393109329
  0.9412690099306487  0.4521120422848747  0.3449099782456518
  0.9338034899173779  0.2874268978882716  0.3889471263432189
  0.4383959028441708  0.6222398527216622  0.5213002905276144
  0.1875932776456251  0.7920612646789916  0.6108719178033524
  0.5588435442484283  0.0375753431634697  0.3889373655838755
  0.9332733647202841  0.9636382853734117  0.8333262069347924
  0.3140848559945769  0.5421923461206311  0.8756597387607240
  0.6857137743754494  0.2915867244409141  0.7441603388334476
  0.1925961591422282  0.6117798701840076  0.1667512261958419
  0.8129809239877744  0.2058588883593013  0.4785772177904318
  0.8126040572792563  0.5418576215840798  0.6108591019631020
  0.3131988137843078  0.8705349910426756  0.4344568828396272
  0.8153260920521381  0.0353867095778768  0.2560266078051678
  0.6913566729876410  0.9519795275761671  0.3449709649362804
  0.9419027066025859  0.1125885792861128  0.1668447424513761
  0.9385071773425429  0.1221840746579904  0.5213438654470349
  0.5656278986702993  0.5352498964450153  0.2560158420490710
  0.6907491084743770  0.7944630954047434  0.8756760377754638
  0.5678758366802243  0.3633931459608499  0.1667928571350854
  0.4358909029400050  0.7918789755996464  0.7442071056244023
  0.8137584524574033  0.7077327054906293  0.5654542379074536
  0.5698061172235734  0.8742195430481184  0.7884036607174701
  0.6885290274616196  0.1223416114190658  0.5213665026796265
  0.1906175566837902  0.2854472335568938  0.2559989402464553
  0.9335627514240243  0.4631103233103886  0.8331409713534841
  0.0650150202073397  0.2083257133909371  0.6996882632057490
  0.8086612279690693  0.0373662911645675  0.3890952375614411
  0.3086088306865912  0.2129369422574421  0.8331706553471695
  0.4338695344187468  0.6255433675384083  0.6549637819867722
  0.3128432949458216  0.5417681166154553  0.6107616091335475
  0.9389364377939126  0.4575917336498437  0.5654275499530710
  0.6859458723831012  0.7917251826608366  0.7441614794904622
  0.3089016951807137  0.8758026265425154  0.6549027251982054
  0.6836453309296552  0.7878353990964089  0.3890596979643051
  0.9356897973783690  0.7917246652804676  0.7442024387274563
  0.0661188785460837  0.2024571882424515  0.3450387098826635
  0.4391796572047834  0.7860721274654732  0.1244563337636933
  0.4452337150636523  0.1241845708590080  0.7884599661190481
  0.0562881760717248  0.2027671749046777  0.2116927574207166
  0.0679556079077709  0.3633986359119437  0.1669384516175285
  0.9406393900123655  0.7852931510595118  0.2560050558474867
  0.5648377671434213  0.2081495485870842  0.6997008596028895
  0.6899472357099142  0.9582226352457435  0.6996874418361799
  0.6836391142114372  0.2876153191238809  0.3890489710494634
  0.4387859611801920  0.9577150260219989  0.5654642569167175
  0.8202237776922533  0.3751367933292467  0.7882744693034286
  0.6906204487160627  0.2853138754039743  0.2560326303338981
  0.1887573683747605  0.4577650265022991  0.5654385046499758
  0.0675976849066756  0.8631330637394571  0.1668677524277865
  0.1878050100617435  0.2918597776521089  0.6108031038624997
  0.5660667008426177  0.7016316642553613  0.3448983352235357
  0.3153008950266456  0.2083383081593876  0.6997002671315958
  0.5640363302825894  0.5421296838643337  0.8757148773117589
  0.0638845911313098  0.7077605565462086  0.5655418884722279
  0.6950255080538871  0.6241071621451068  0.7883409228486676
  0.3085824311701961  0.5376392372581978  0.3890801348999163
  0.1884018888678693  0.6223313435517587  0.5213479528344973
  0.5626038619859397  0.8704171696578349  0.4344706296166086
  0.4388445047714111  0.4577539622233258  0.5654662492360819
  0.4358292892914529  0.2914438902420481  0.7441170966752658
  0.8039788826365234  0.8722578440502565  0.3001860180316109
  0.8167346346718383  0.7022435009981970  0.3450384104599372
  0.4335139738632098  0.4630728320922577  0.8330890846867565
  0.6875817995388195  0.9559594710260783  0.4786405487892949
  0.6902154296475878  0.4582575553457887  0.6996891232458113
  0.5632387425969019  0.8719984235347988  0.5213238850420638
  0.5589054681691692  0.3757194758001650  0.6549059074818822
  0.8088426745163386  0.8756792793396603  0.6549418898942860
  0.8125651141524646  0.3705852577634023  0.4344777640043467
  0.8154559587028357  0.5355747209423015  0.2559251163077561
  0.6835734355804445  0.4634525671003047  0.8332897388357794
  0.1881592262158838  0.7854903292488576  0.1245115181019501
  0.0642735887835995  0.0426207010216260  0.8755414677919313
  0.3088610909010676  0.3756434569574021  0.6549318158112415
  0.3164003992749056  0.2022264699391206  0.3449252282516387
  0.8106910231169148  0.5413685425593745  0.7442278011057870
  0.6837445171119628  0.9638216806612562  0.8333399238288632
  0.5589574939843462  0.8758722584093355  0.6549149399202594
  0.3137647678445146  0.7073695813330767  0.5655709304674792
  0.3125033668343547  0.5306085881690337  0.1243909591520644
  0.6811472927004264  0.9530651276787792  0.2117918316287621
  0.3139571353790749  0.2078683057045286  0.5655629892653197
  0.3108450784797088  0.5416037517545271  0.7441353523555039
  0.6886962904901253  0.9579221989267985  0.5654435736164619
  0.4376285187695805  0.7920605045810191  0.6108854519886722
  0.6928422866226902  0.6132642208475965  0.1669486526287602
  0.3038886018505117  0.8723766688168825  0.3002528081555942
  0.3126869147783036  0.7055645307524629  0.4786657101025786
  0.9376774944932742  0.2918313151903658  0.6108426567995766
  0.4293155965767467  0.6228177875899729  0.3003041733822669
  0.8178403377485045  0.8632739967710383  0.1669587197258839
  0.5559415669029060  0.2023223372953666  0.2115312084940930
  0.9428178455037890  0.6132592065623560  0.1669314089535306
  0.9387634525337408  0.7936639761273139  0.8755908000193942
  0.5703291132686317  0.3744683302666232  0.7885660604664732
  0.0634888999891475  0.3723739049500366  0.5213628663488796
  0.5634462095887914  0.3722572863652587  0.5212986092741395
  0.6794208981336475  0.1218903998288133  0.3002306731013718
  0.4332403432840417  0.9627363521811464  0.8331640275866491
  0.1885040710136761  0.2851764979952177  0.1244733814463349
  0.8202273467267979  0.8746556200518368  0.7884039567736744
  0.3128854750486019  0.3707296989114009  0.4344485588795382
  0.9377727683632504  0.7918228413395162  0.6108319282741833
  0.4377054986333158  0.2917052685558404  0.6107004535430065
  0.1918233670057173  0.4520613931843590  0.3449807475654840
  0.4383274207409261  0.2856920711678528  0.1243595180078384
  0.6902269535629852  0.7855350526235436  0.2559349883485188
  0.1901083068500000  0.9581605245132027  0.6996922519478700
  0.1908145710161886  0.2965120530291011  0.8758786229386770
  0.1837757689363604  0.1253768022325543  0.6549393982484777
  0.9338321831354298  0.1258122456860545  0.6549343736932345
  0.3057310961158723  0.2019935835435789  0.2116099077771038
  0.0584529887953282  0.0374544748555252  0.3890633122542950
  0.1930709658488889  0.1135396852427366  0.1667545646038683
  0.0628467900431584  0.5419801865549242  0.6108687006557119
  0.9407155072731215  0.2854126806385895  0.2559485342804974
  0.5631501375137298  0.5415563942855263  0.6107136270648819
  0.9388475351531105  0.9579069467835925  0.5655279068431688
  0.6796769987042341  0.6218581729817899  0.3001385338771870
  0.9375653190189422  0.6196465187526945  0.4346277148529230
  0.9453250458486633  0.6241366758670457  0.7883169060077618
  0.5647649391547523  0.7082031219940805  0.6996606553494021
  0.0588260816593636  0.7128582139054113  0.8330985006634090
  0.9288176896335005  0.1222783481850034  0.3002489601545094
  0.9402222472253955  0.4582675499884954  0.6996819879500197
  0.4406515667495344  0.7853160209722139  0.2560041990099695
  0.3201078398856051  0.3739731765442056  0.7886266388597675
  0.4311169708085942  0.4531158027571087  0.2118940430112566
  0.1884309308909489  0.1223544492255408  0.5213018298853194
  0.8147938426017132  0.7080500707740630  0.6996957236709411
  0.0627248328373715  0.0418057500930811  0.6108320108921131
  0.5587064328012562  0.2129474531212561  0.8334519962607208
  0.3135369147578674  0.8721791500406550  0.5212843164125811
  0.6897337134644020  0.2858821441309582  0.1244899073435214
  0.1809596593439118  0.9524593525517556  0.2115328378733215
  0.6876164743793609  0.2919339832440272  0.6109118846095888
  0.3127446147261276  0.0417940829710301  0.6108396008653809
  0.9450999828995622  0.1245654668383566  0.7885080096667629
  0.4399078174020922  0.7948085249856914  0.8756852970526149
  0.8108203650883287  0.0415621741577884  0.7440985275981683
  0.4382286326120310  0.1220577082891065  0.5213489375881737
  0.1838691865585578  0.6256757474345324  0.6549239313201808
  0.3156101996497185  0.7085623703119122  0.6996764909149064
  0.9378004723042764  0.2849452421851461  0.1245492352098735
  0.4378221148366901  0.4559589481336348  0.4786255179980912
  0.0629191617737174  0.7056717080127350  0.4786187044440277
  0.9383452157677485  0.1198673143473031  0.4344021805619806
  0.4286809053982565  0.1220036460366340  0.3003189910232790
  0.1879673247261584  0.1200846653679008  0.4345235167465274
  0.5636304731280182  0.0425257705311843  0.8756036612731519
  0.1885409128236412  0.9575170067169700  0.5653077177767923
  0.6886684003909599  0.7850965941478327  0.1244397293721138
  0.5624035156324393  0.5310343441593761  0.1242688670755097
  0.3087038456218663  0.0373065154059791  0.3890449424771333
  0.6926338822828300  0.1128321704777456  0.1668634819128623
  0.8056464369046329  0.2030456290282493  0.2117660216132268
  0.0655367339579147  0.5352800482927826  0.2559949160733621
  0.5628260185611597  0.7057934627356354  0.4786313620741565
  0.0637920781721172  0.2077409338523351  0.5654704909193242
  0.5536885529102574  0.3722553626529190  0.3003239275502008
  0.4417951335646746  0.9522736261613229  0.3449164459713606
  0.1836466944577388  0.9627102684117371  0.8331402015291671
  0.4428639477281004  0.6114891723888835  0.1667353211823610
  0.9314173872312497  0.4531046799972003  0.2117102493490241
  0.0615580769550028  0.5310665411748366  0.1244023226421097
  0.8134828116122790  0.3724127107311818  0.5213584156723313
  0.9290999548205724  0.6228188161219440  0.3003121999915877
  0.3153497757866473  0.0357092239961163  0.2559710184947619
  0.6877879734217716  0.7917506845586538  0.6108087452204107
  0.1836015546779586  0.4627642384528922  0.8331348185404813
  0.4417506217098334  0.1125485846373285  0.1668423766259883
  0.3134728948029160  0.3723442917621946  0.5213539879234059
  0.4450720041789202  0.6241236284552762  0.7886131879418248
  0.0654306166396237  0.0354411234406940  0.2559897435513552
  0.5637682847139323  0.7076325549650900  0.5654277856054756
  0.9358810772051797  0.2915903287098345  0.7441950506738412
  0.6955822352804767  0.1243042131545207  0.7885460484996792
  0.1804765291588014  0.4531464038234447  0.2119107793872998
  0.9337373162116938  0.7873237001432460  0.3889958333545878
  0.6895678502779903  0.2948941256816489  0.8758163346248879
  0.3177440947014773  0.8627816171189264  0.1669339484111373
  0.4398517430800616  0.4582162574664257  0.6996468296528885
  0.8088088244023559  0.3754834416727220  0.6549471104795277
  0.6882671017984715  0.6224158006303725  0.5214145842278335
  0.0588676507947448  0.8755060057514041  0.6549763438498473
  0.0709660738133592  0.8734753265882697  0.7882711705755484
  0.0588436490474213  0.3756974819416763  0.6549178198809772
  0.6878295089927824  0.4557119584450255  0.4786229903216967
  0.1906253287438158  0.7853206754845935  0.2559888056705732
  0.4380220067669495  0.1201774096373868  0.4344493473979219
  0.8118040767999084  0.0310919850193229  0.1242974085540155
  0.9385124838553447  0.6223576222139967  0.5213822399252265
  0.0624621810328973  0.8706434226720093  0.4344411257157393
  0.8121291846147191  0.5310922839709543  0.1242801958648330
  0.4415174694423123  0.4521288423820800  0.3450170348640760
  0.8166099434392543  0.2021333719616315  0.3449526448028581
  0.3160489926585647  0.7016983769454562  0.3449179232663698
  0.6840286176689231  0.1258079050157572  0.6550157992749841
  0.5536994405541035  0.8721386908119266  0.3003281534310019
  0.0608285548754536  0.5415297112096806  0.7441198291302766
  0.9372676209673844  0.7849199989408844  0.1243607506588763
  0.8061197909628629  0.7025942131851205  0.2115721272890958
  0.0536047276172570  0.8730440008674519  0.3000966996296115
  0.1793831231399271  0.1229058500768480  0.3002405709927841
  0.0663846822232633  0.7020175503931015  0.3449425790504281
  0.8129223025232937  0.0416708419543221  0.6106816240078697
  0.0631863793043338  0.3706404252701420  0.4344695020897837
  0.5663201114038153  0.2018927545078559  0.3449700019384713
  0.8036514338645651  0.3720498861476780  0.3003338832273990
  0.4378724955620782  0.9559707048374576  0.4786149383539852
  0.5584054920587233  0.5374081100614334  0.3890688772522014
  0.0627149269476969  0.2057336171327627  0.4786443312031053
  0.3202382827847026  0.8742857270346426  0.7884784494280455
  0.9403120171724425  0.9582857977446062  0.6996882114723837
  0.0539045851206537  0.3723426692735201  0.3002919025902820
  0.6839244821864205  0.6258015066199227  0.6549042472071850
  0.6886927967099425  0.4577825553562455  0.5654512108782960
  0.4310962918124470  0.9527936576068133  0.2117518629920935
  0.3128133319411113  0.2058798384611581  0.4785998844248396
  0.4338685817657599  0.1254956562559425  0.6549532773543295
  0.6880372371811876  0.6203817600226900  0.4344281652314713
  0.8148687925555628  0.2084023197048643  0.6996823244379541
  0.8128252045668145  0.7059196297620117  0.4786191531994857
  0.5630838686647347  0.3702725355665246  0.4344484284884955
  0.9377765225391370  0.9558613834531237  0.4786676582797018
  0.5627814910463692  0.2057534573011082  0.4786222678894688
  0.1879936417774467  0.6202507085921027  0.4343998471547557
  0.3106112969107060  0.0420931149786865  0.7441760631994134
  0.9337931107633128  0.6256630528245407  0.6549213655702772
  0.5583762399620440  0.7131466835555292  0.8331021324161852
  0.3038859004928702  0.3723838644070660  0.3002789960444032
  0.5560773278750293  0.7023003622611940  0.2115332299312428
  0.1878406813906895  0.4559620981056204  0.4786180403360245
  0.3141903577033452  0.0419527684599521  0.8757225055751126
  0.1898091037827896  0.4582859437143169  0.6996616013031232
  0.8143923096389766  0.5421222847358548  0.8756405389510167
  0.1833599002694597  0.2885713488528588  0.3890591155366036
  0.4383094937416472  0.6204062536058341  0.4342380548690941
  0.0559857053224970  0.7023366437813104  0.2115688485559226
  0.5621743566282424  0.0306822811059463  0.1244269875348924
  0.8180243632019302  0.3627408716060529  0.1669739160488453
  0.8086589202568757  0.7136718660767116  0.8333386153175436
  0.0703480286639086  0.3744647296641206  0.7883790587803591
  0.4402037541186142  0.2958644150778733  0.8759229367486154
  0.3116399453426422  0.0310753369825183  0.1243104094200737
  0.6876129335789845  0.1202537681131740  0.4344675110366585
  0.1912280571156869  0.9518928137271040  0.3449956260747177
  0.0582472415666021  0.2126603551378182  0.8331894507437341
  0.5628552217352621  0.0417293840041107  0.6107388242753020
  0.6810361578640506  0.4527656826562416  0.2116445493733066
  0.1859662471522383  0.7918240812397889  0.7442024423717036
  0.1789700447911263  0.6223772486587333  0.3003079820649895
  0.4337586716243421  0.7876470998973774  0.3890846061320752
  0.4404066891242288  0.2853606716119381  0.2560194606967526
  0.0648627653939683  0.5417854196053518  0.8756270845084306
  0.5606497389928989  0.0421653966693967  0.7441972947478617
  0.1893634037210273  0.7945634553403124  0.8756755668054175
  0.9376045661640166  0.4558792952521808  0.4786410466407611
  0.8087512920797577  0.5375946618589315  0.3890709256386050
  0.8138772867831323  0.2077246581320420  0.5654101092459161
  0.1951563111391466  0.6242780111102323  0.7884943891091482
  0.9309085504916298  0.9530510365878241  0.2118104339155343
  0.0650576738903549  0.7079921194749873  0.6996692208881439
  0.3154989425271973  0.5355077696674632  0.2559181550490042
  0.3061649854443947  0.7023210244027903  0.2115616234939339
  0.5680972943531922  0.8629815746848127  0.1668761770525428
  0.5607435405508928  0.5415796732057006  0.7442255904791978
  0.6911580487506049  0.4521305662907664  0.3449122341141443
  0.9419148646010621  0.2954694747740286  0.8758016054948818
  0.5657495783401387  0.0358996401304188  0.2559120502773265
  0.4410097811420359  0.9573086065901647  0.6998328655606024
  0.3191741112098119  0.3629988459015371  0.1662591102649311
  0.8146146107252797  0.0419321614922387  0.8753470869377056
  0.8129644055246001  0.8713139951496098  0.4344709425165488
  0.0579869786358276  0.5376797886625788  0.3890060610536852
  0.9424712866447438  0.9524860395705114  0.3450594121113956
  0.1879065168035252  0.9560190539383568  0.4786248270932973
 
  0.00000000E+00  0.00000000E+00  0.00000000E+00
  0.00000000E+00  0.00000000E+00  0.00000000E+00
  0.00000000E+00  0.00000000E+00  0.00000000E+00
  0.00000000E+00  0.00000000E+00  0.00000000E+00
  0.00000000E+00  0.00000000E+00  0.00000000E+00
  0.00000000E+00  0.00000000E+00  0.00000000E+00
  0.00000000E+00  0.00000000E+00  0.00000000E+00
  0.00000000E+00  0.00000000E+00  0.00000000E+00
  0.00000000E+00  0.00000000E+00  0.00000000E+00
  0.00000000E+00  0.00000000E+00  0.00000000E+00
  0.00000000E+00  0.00000000E+00  0.00000000E+00
  0.00000000E+00  0.00000000E+00  0.00000000E+00
  0.00000000E+00  0.00000000E+00  0.00000000E+00
  0.00000000E+00  0.00000000E+00  0.00000000E+00
  0.00000000E+00  0.00000000E+00  0.00000000E+00
  0.00000000E+00  0.00000000E+00  0.00000000E+00
  0.00000000E+00  0.00000000E+00  0.00000000E+00
  0.00000000E+00  0.00000000E+00  0.00000000E+00
  0.00000000E+00  0.00000000E+00  0.00000000E+00
  0.00000000E+00  0.00000000E+00  0.00000000E+00
  0.00000000E+00  0.00000000E+00  0.00000000E+00
  0.00000000E+00  0.00000000E+00  0.00000000E+00
  0.00000000E+00  0.00000000E+00  0.00000000E+00
  0.00000000E+00  0.00000000E+00  0.00000000E+00
  0.00000000E+00  0.00000000E+00  0.00000000E+00
  0.00000000E+00  0.00000000E+00  0.00000000E+00
  0.00000000E+00  0.00000000E+00  0.00000000E+00
  0.00000000E+00  0.00000000E+00  0.00000000E+00
  0.00000000E+00  0.00000000E+00  0.00000000E+00
  0.00000000E+00  0.00000000E+00  0.00000000E+00
  0.00000000E+00  0.00000000E+00  0.00000000E+00
  0.00000000E+00  0.00000000E+00  0.00000000E+00
  0.00000000E+00  0.00000000E+00  0.00000000E+00
  0.00000000E+00  0.00000000E+00  0.00000000E+00
  0.00000000E+00  0.00000000E+00  0.00000000E+00
  0.00000000E+00  0.00000000E+00  0.00000000E+00
  0.00000000E+00  0.00000000E+00  0.00000000E+00
  0.00000000E+00  0.00000000E+00  0.00000000E+00
  0.00000000E+00  0.00000000E+00  0.00000000E+00
  0.00000000E+00  0.00000000E+00  0.00000000E+00
  0.00000000E+00  0.00000000E+00  0.00000000E+00
  0.00000000E+00  0.00000000E+00  0.00000000E+00
  0.00000000E+00  0.00000000E+00  0.00000000E+00
  0.00000000E+00  0.00000000E+00  0.00000000E+00
  0.00000000E+00  0.00000000E+00  0.00000000E+00
  0.00000000E+00  0.00000000E+00  0.00000000E+00
  0.00000000E+00  0.00000000E+00  0.00000000E+00
  0.00000000E+00  0.00000000E+00  0.00000000E+00
  0.00000000E+00  0.00000000E+00  0.00000000E+00
  0.00000000E+00  0.00000000E+00  0.00000000E+00
  0.00000000E+00  0.00000000E+00  0.00000000E+00
  0.00000000E+00  0.00000000E+00  0.00000000E+00
  0.00000000E+00  0.00000000E+00  0.00000000E+00
  0.00000000E+00  0.00000000E+00  0.00000000E+00
  0.00000000E+00  0.00000000E+00  0.00000000E+00
  0.00000000E+00  0.00000000E+00  0.00000000E+00
  0.00000000E+00  0.00000000E+00  0.00000000E+00
  0.00000000E+00  0.00000000E+00  0.00000000E+00
  0.00000000E+00  0.00000000E+00  0.00000000E+00
  0.00000000E+00  0.00000000E+00  0.00000000E+00
  0.00000000E+00  0.00000000E+00  0.00000000E+00
  0.00000000E+00  0.00000000E+00  0.00000000E+00
  0.00000000E+00  0.00000000E+00  0.00000000E+00
  0.00000000E+00  0.00000000E+00  0.00000000E+00
  0.00000000E+00  0.00000000E+00  0.00000000E+00
  0.00000000E+00  0.00000000E+00  0.00000000E+00
  0.00000000E+00  0.00000000E+00  0.00000000E+00
  0.00000000E+00  0.00000000E+00  0.00000000E+00
  0.00000000E+00  0.00000000E+00  0.00000000E+00
  0.00000000E+00  0.00000000E+00  0.00000000E+00
  0.00000000E+00  0.00000000E+00  0.00000000E+00
  0.00000000E+00  0.00000000E+00  0.00000000E+00
  0.00000000E+00  0.00000000E+00  0.00000000E+00
  0.00000000E+00  0.00000000E+00  0.00000000E+00
  0.00000000E+00  0.00000000E+00  0.00000000E+00
  0.00000000E+00  0.00000000E+00  0.00000000E+00
  0.00000000E+00  0.00000000E+00  0.00000000E+00
  0.00000000E+00  0.00000000E+00  0.00000000E+00
  0.00000000E+00  0.00000000E+00  0.00000000E+00
  0.00000000E+00  0.00000000E+00  0.00000000E+00
  0.00000000E+00  0.00000000E+00  0.00000000E+00
  0.00000000E+00  0.00000000E+00  0.00000000E+00
  0.00000000E+00  0.00000000E+00  0.00000000E+00
  0.00000000E+00  0.00000000E+00  0.00000000E+00
  0.00000000E+00  0.00000000E+00  0.00000000E+00
  0.00000000E+00  0.00000000E+00  0.00000000E+00
  0.00000000E+00  0.00000000E+00  0.00000000E+00
  0.00000000E+00  0.00000000E+00  0.00000000E+00
  0.00000000E+00  0.00000000E+00  0.00000000E+00
  0.00000000E+00  0.00000000E+00  0.00000000E+00
  0.00000000E+00  0.00000000E+00  0.00000000E+00
  0.00000000E+00  0.00000000E+00  0.00000000E+00
  0.00000000E+00  0.00000000E+00  0.00000000E+00
  0.00000000E+00  0.00000000E+00  0.00000000E+00
  0.00000000E+00  0.00000000E+00  0.00000000E+00
  0.00000000E+00  0.00000000E+00  0.00000000E+00
  0.00000000E+00  0.00000000E+00  0.00000000E+00
  0.00000000E+00  0.00000000E+00  0.00000000E+00
  0.00000000E+00  0.00000000E+00  0.00000000E+00
  0.00000000E+00  0.00000000E+00  0.00000000E+00
  0.00000000E+00  0.00000000E+00  0.00000000E+00
  0.00000000E+00  0.00000000E+00  0.00000000E+00
  0.00000000E+00  0.00000000E+00  0.00000000E+00
  0.00000000E+00  0.00000000E+00  0.00000000E+00
  0.00000000E+00  0.00000000E+00  0.00000000E+00
  0.00000000E+00  0.00000000E+00  0.00000000E+00
  0.00000000E+00  0.00000000E+00  0.00000000E+00
  0.00000000E+00  0.00000000E+00  0.00000000E+00
  0.00000000E+00  0.00000000E+00  0.00000000E+00
  0.00000000E+00  0.00000000E+00  0.00000000E+00
  0.00000000E+00  0.00000000E+00  0.00000000E+00
  0.00000000E+00  0.00000000E+00  0.00000000E+00
  0.00000000E+00  0.00000000E+00  0.00000000E+00
  0.00000000E+00  0.00000000E+00  0.00000000E+00
  0.00000000E+00  0.00000000E+00  0.00000000E+00
  0.00000000E+00  0.00000000E+00  0.00000000E+00
  0.00000000E+00  0.00000000E+00  0.00000000E+00
  0.00000000E+00  0.00000000E+00  0.00000000E+00
  0.00000000E+00  0.00000000E+00  0.00000000E+00
  0.00000000E+00  0.00000000E+00  0.00000000E+00
  0.00000000E+00  0.00000000E+00  0.00000000E+00
  0.00000000E+00  0.00000000E+00  0.00000000E+00
  0.00000000E+00  0.00000000E+00  0.00000000E+00
  0.00000000E+00  0.00000000E+00  0.00000000E+00
  0.00000000E+00  0.00000000E+00  0.00000000E+00
  0.00000000E+00  0.00000000E+00  0.00000000E+00
  0.00000000E+00  0.00000000E+00  0.00000000E+00
  0.00000000E+00  0.00000000E+00  0.00000000E+00
  0.00000000E+00  0.00000000E+00  0.00000000E+00
  0.00000000E+00  0.00000000E+00  0.00000000E+00
  0.00000000E+00  0.00000000E+00  0.00000000E+00
  0.00000000E+00  0.00000000E+00  0.00000000E+00
  0.00000000E+00  0.00000000E+00  0.00000000E+00
  0.00000000E+00  0.00000000E+00  0.00000000E+00
  0.00000000E+00  0.00000000E+00  0.00000000E+00
  0.00000000E+00  0.00000000E+00  0.00000000E+00
  0.00000000E+00  0.00000000E+00  0.00000000E+00
  0.00000000E+00  0.00000000E+00  0.00000000E+00
  0.00000000E+00  0.00000000E+00  0.00000000E+00
  0.00000000E+00  0.00000000E+00  0.00000000E+00
  0.00000000E+00  0.00000000E+00  0.00000000E+00
  0.00000000E+00  0.00000000E+00  0.00000000E+00
  0.00000000E+00  0.00000000E+00  0.00000000E+00
  0.00000000E+00  0.00000000E+00  0.00000000E+00
  0.00000000E+00  0.00000000E+00  0.00000000E+00
  0.00000000E+00  0.00000000E+00  0.00000000E+00
  0.00000000E+00  0.00000000E+00  0.00000000E+00
  0.00000000E+00  0.00000000E+00  0.00000000E+00
  0.00000000E+00  0.00000000E+00  0.00000000E+00
  0.00000000E+00  0.00000000E+00  0.00000000E+00
  0.00000000E+00  0.00000000E+00  0.00000000E+00
  0.00000000E+00  0.00000000E+00  0.00000000E+00
  0.00000000E+00  0.00000000E+00  0.00000000E+00
  0.00000000E+00  0.00000000E+00  0.00000000E+00
  0.00000000E+00  0.00000000E+00  0.00000000E+00
  0.00000000E+00  0.00000000E+00  0.00000000E+00
  0.00000000E+00  0.00000000E+00  0.00000000E+00
  0.00000000E+00  0.00000000E+00  0.00000000E+00
  0.00000000E+00  0.00000000E+00  0.00000000E+00
  0.00000000E+00  0.00000000E+00  0.00000000E+00
  0.00000000E+00  0.00000000E+00  0.00000000E+00
  0.00000000E+00  0.00000000E+00  0.00000000E+00
  0.00000000E+00  0.00000000E+00  0.00000000E+00
  0.00000000E+00  0.00000000E+00  0.00000000E+00
  0.00000000E+00  0.00000000E+00  0.00000000E+00
  0.00000000E+00  0.00000000E+00  0.00000000E+00
  0.00000000E+00  0.00000000E+00  0.00000000E+00
  0.00000000E+00  0.00000000E+00  0.00000000E+00
  0.00000000E+00  0.00000000E+00  0.00000000E+00
  0.00000000E+00  0.00000000E+00  0.00000000E+00
  0.00000000E+00  0.00000000E+00  0.00000000E+00
  0.00000000E+00  0.00000000E+00  0.00000000E+00
  0.00000000E+00  0.00000000E+00  0.00000000E+00
  0.00000000E+00  0.00000000E+00  0.00000000E+00
  0.00000000E+00  0.00000000E+00  0.00000000E+00
  0.00000000E+00  0.00000000E+00  0.00000000E+00
  0.00000000E+00  0.00000000E+00  0.00000000E+00
  0.00000000E+00  0.00000000E+00  0.00000000E+00
  0.00000000E+00  0.00000000E+00  0.00000000E+00
  0.00000000E+00  0.00000000E+00  0.00000000E+00
  0.00000000E+00  0.00000000E+00  0.00000000E+00
  0.00000000E+00  0.00000000E+00  0.00000000E+00
  0.00000000E+00  0.00000000E+00  0.00000000E+00
  0.00000000E+00  0.00000000E+00  0.00000000E+00
  0.00000000E+00  0.00000000E+00  0.00000000E+00
  0.00000000E+00  0.00000000E+00  0.00000000E+00
  0.00000000E+00  0.00000000E+00  0.00000000E+00
  0.00000000E+00  0.00000000E+00  0.00000000E+00
  0.00000000E+00  0.00000000E+00  0.00000000E+00
  0.00000000E+00  0.00000000E+00  0.00000000E+00
  0.00000000E+00  0.00000000E+00  0.00000000E+00
  0.00000000E+00  0.00000000E+00  0.00000000E+00
  0.00000000E+00  0.00000000E+00  0.00000000E+00
  0.00000000E+00  0.00000000E+00  0.00000000E+00
  0.00000000E+00  0.00000000E+00  0.00000000E+00
  0.00000000E+00  0.00000000E+00  0.00000000E+00
  0.00000000E+00  0.00000000E+00  0.00000000E+00
  0.00000000E+00  0.00000000E+00  0.00000000E+00
  0.00000000E+00  0.00000000E+00  0.00000000E+00
  0.00000000E+00  0.00000000E+00  0.00000000E+00
  0.00000000E+00  0.00000000E+00  0.00000000E+00
  0.00000000E+00  0.00000000E+00  0.00000000E+00
  0.00000000E+00  0.00000000E+00  0.00000000E+00
  0.00000000E+00  0.00000000E+00  0.00000000E+00
  0.00000000E+00  0.00000000E+00  0.00000000E+00
  0.00000000E+00  0.00000000E+00  0.00000000E+00
  0.00000000E+00  0.00000000E+00  0.00000000E+00
  0.00000000E+00  0.00000000E+00  0.00000000E+00
  0.00000000E+00  0.00000000E+00  0.00000000E+00
  0.00000000E+00  0.00000000E+00  0.00000000E+00
  0.00000000E+00  0.00000000E+00  0.00000000E+00
  0.00000000E+00  0.00000000E+00  0.00000000E+00
  0.00000000E+00  0.00000000E+00  0.00000000E+00
  0.00000000E+00  0.00000000E+00  0.00000000E+00
  0.00000000E+00  0.00000000E+00  0.00000000E+00
  0.00000000E+00  0.00000000E+00  0.00000000E+00
  0.00000000E+00  0.00000000E+00  0.00000000E+00
  0.00000000E+00  0.00000000E+00  0.00000000E+00
  0.00000000E+00  0.00000000E+00  0.00000000E+00
  0.00000000E+00  0.00000000E+00  0.00000000E+00
  0.00000000E+00  0.00000000E+00  0.00000000E+00
  0.00000000E+00  0.00000000E+00  0.00000000E+00
  0.00000000E+00  0.00000000E+00  0.00000000E+00
  0.00000000E+00  0.00000000E+00  0.00000000E+00
  0.00000000E+00  0.00000000E+00  0.00000000E+00
  0.00000000E+00  0.00000000E+00  0.00000000E+00
  0.00000000E+00  0.00000000E+00  0.00000000E+00
  0.00000000E+00  0.00000000E+00  0.00000000E+00
  0.00000000E+00  0.00000000E+00  0.00000000E+00
  0.00000000E+00  0.00000000E+00  0.00000000E+00
  0.00000000E+00  0.00000000E+00  0.00000000E+00
  0.00000000E+00  0.00000000E+00  0.00000000E+00
  0.00000000E+00  0.00000000E+00  0.00000000E+00
  0.00000000E+00  0.00000000E+00  0.00000000E+00
  0.00000000E+00  0.00000000E+00  0.00000000E+00
  0.00000000E+00  0.00000000E+00  0.00000000E+00
  0.00000000E+00  0.00000000E+00  0.00000000E+00
  0.00000000E+00  0.00000000E+00  0.00000000E+00
  0.00000000E+00  0.00000000E+00  0.00000000E+00
  0.00000000E+00  0.00000000E+00  0.00000000E+00
  0.00000000E+00  0.00000000E+00  0.00000000E+00
  0.00000000E+00  0.00000000E+00  0.00000000E+00
  0.00000000E+00  0.00000000E+00  0.00000000E+00
  0.00000000E+00  0.00000000E+00  0.00000000E+00
  0.00000000E+00  0.00000000E+00  0.00000000E+00
  0.00000000E+00  0.00000000E+00  0.00000000E+00
  0.00000000E+00  0.00000000E+00  0.00000000E+00