CuInSe2gb                               
   1.00000000000000     
     9.7266780392896699    0.0000000000000000    0.0000000000000000
     0.0000000000000000    8.4235502764570693    0.0000000000000000
     0.0000000000000000    0.0000000000000000   45.0000000000000000
   Fe   Mn
   281     7
Direct
  0.0629976778508411  0.0318054188394166  0.1248991933903827
  0.0632420519425047  0.8711432427807898  0.5211791201745696
  0.1900439861859227  0.1218986023020655  0.7883431459064397
  0.4338314893905694  0.2882130188056590  0.3890764070790123
  0.3080677252827209  0.7125106565900435  0.8331470516470698
  0.8079816369920015  0.2125743373405663  0.8329855575987640
  0.1837462268304444  0.7883133437806358  0.3890679554311294
  0.5635025253012700  0.2068834424700377  0.5652404147778159
  0.0596320142810727  0.0405269883799616  0.7438199539612421
  0.8135611237916253  0.8714145054312825  0.5212983382105368
  0.1846312174203172  0.2909170562848644  0.7438265598784275
  0.9406240863567011  0.4524286796516702  0.3450548653632093
  0.9337119738509404  0.2880054229853775  0.3890888891944194
  0.8111446524386635  0.0388451794989038  0.8753802035490417
  0.1887096543446295  0.7907033986859089  0.6106306541761237
  0.5583440551214791  0.0373217386401169  0.3890601177494100
  0.9325528196350136  0.9622767346532071  0.8329766376659447
  0.3110353897923420  0.5389777321798140  0.8754137433272531
  0.6847206573814254  0.2906784307620872  0.7438445952724064
  0.1928382407323557  0.6143223633133853  0.1672059095933480
  0.8129344363135625  0.2053629560841415  0.4786458592130657
  0.8136258638917134  0.5404146963420533  0.6106558986113679
  0.3134674321453606  0.8693667844445351  0.4344831429806233
  0.8156748346213334  0.0386800978497210  0.2562309573276905
  0.6906823295634803  0.9532272938249692  0.3452034424490003
  0.9416064543119308  0.1131060841320709  0.1669805299909297
  0.9385017433758790  0.1211808086982837  0.5212182470192326
  0.5658345362919313  0.5390147173665185  0.2562519460584968
  0.6875483820839842  0.7927469482578079  0.8753872823358445
  0.5686897396751358  0.3650289557780199  0.1670771368738624
  0.4345828244473068  0.7906623046334665  0.7438910924256980
  0.8140050625742188  0.7072401390067938  0.5654202910894921
  0.5649544430628639  0.8710111511798385  0.7882527049101248
  0.6884575268513068  0.1213270793312026  0.5212486501598522
  0.8110368864600980  0.3748850038378572  0.6547337458413627
  0.9324460013731968  0.4621382971874100  0.8329116354621284
  0.0637531892154242  0.2077903117842723  0.6996394874405741
  0.4384812846262057  0.9578238003332912  0.6996216705333103
  0.3078944688881900  0.2124086686632470  0.8331886200320437
  0.4353966159875159  0.6250349390957324  0.6547666507122314
  0.3136762610129606  0.5404860305861010  0.6106246648615439
  0.9387340633700917  0.4565843567797632  0.5653901532062934
  0.6850928942744516  0.7910511302827929  0.7439385266420613
  0.9408390650424762  0.7873871126997901  0.1248074063693483
  0.6835660850154992  0.7876124076164677  0.3890300340085068
  0.9348830787030736  0.7906992794778439  0.7438408148655171
  0.0667293443921519  0.2024574795259498  0.3450673066338729
  0.8085430140750736  0.0378354880742108  0.3890769101065690
  0.4405370610572438  0.1217589898499096  0.7883866983580586
  0.0605010616287054  0.2072546269836412  0.2121349852392851
  0.0684033348410792  0.3650537196241800  0.1670663136625203
  0.9415757803630027  0.7886896818570402  0.2562307989711491
  0.5629586387294024  0.2082157973812746  0.6994638829628810
  0.6881241779403231  0.9577486369300523  0.6993833505308686
  0.4410060760443312  0.7871428222492556  0.1248277862580381
  0.4389404397238689  0.9572984259722340  0.5654503323611790
  0.8152179384133500  0.3704646766648342  0.7880952894738961
  0.6915371038794751  0.2886813163229586  0.2562304514742348
  0.1887883129602288  0.4572819117133609  0.5653487747247852
  0.0682634634492798  0.8646873070798403  0.1672237084767534
  0.1885069837311305  0.2903567091668123  0.6106049571990334
  0.5661668723631573  0.7026938247240231  0.3450531907278624
  0.3125367057204464  0.2077202821364704  0.6994348025513112
  0.5610063024719856  0.5387233366499694  0.8753816302363054
  0.0634432358201804  0.7066138824481504  0.5653776918112077
  0.6901580215264725  0.6216317781930933  0.7883270737315069
  0.3085713575275884  0.5377187370514235  0.3890853446429261
  0.1885115349991118  0.6214401411911407  0.5212712887276947
  0.5628581977012020  0.8698809291793210  0.4345100498975788
  0.4387352967326586  0.4570741511098407  0.5653700978351779
  0.4350737346654993  0.2906959784634804  0.7438951738550397
  0.8051836347792444  0.8741991219402770  0.3003656712786381
  0.8165357242102333  0.7026004247272528  0.3452248328343341
  0.4326006497245998  0.4621409884688187  0.8329396399044120
  0.6880746957362780  0.9554665430570904  0.4786791626847511
  0.6875901760040244  0.4579062237300563  0.6995082435869759
  0.5635476142164615  0.8712240576021488  0.5211938317905026
  0.5614170392872220  0.3746205471995939  0.6547597203059589
  0.8108359033152609  0.8745459224056732  0.6548364995564681
  0.8132262216903644  0.3695472993946832  0.4344271893982276
  0.8157583178084981  0.5392112697399554  0.2562732342960348
  0.6825810921117610  0.4620170473804635  0.8329428055137562
  0.1911847937167038  0.7875743926930279  0.1248238202647741
  0.0615483847794309  0.0393153664584957  0.8754997824593546
  0.3114529803570111  0.3743266618779100  0.6546163108397320
  0.3160698078265216  0.2029936811520077  0.3451457933363601
  0.8096771309382362  0.5406076203848877  0.7438868356001958
  0.6825764559651817  0.9620838485592775  0.8329297792139450
  0.5620196013603721  0.8750717941817395  0.6546441261457195
  0.3137488181771904  0.7069030087821594  0.5654821438093871
  0.3131627876601883  0.5324728230594961  0.1247934437878102
  0.6859654557133360  0.9563818946934575  0.2120803371382457
  0.3138174520424613  0.2075150783030165  0.5653652203157506
  0.3097211427724151  0.5402558182780862  0.7439638469727687
  0.6886827599873855  0.9567515280329099  0.5654088413408564
  0.4386220285411300  0.7907520524657772  0.6106370576659357
  0.6927238094216277  0.6130803618813522  0.1672838788925378
  0.3051679224688017  0.8740868636951161  0.3004608092512573
  0.3124706053765358  0.7054789812052622  0.4786912808987821
  0.9384303305301361  0.2900543955878523  0.6105642210768103
  0.4305578808937133  0.6248234149218852  0.3004707621705175
  0.8182056431774315  0.8643988784150771  0.1672247253422632
  0.5608560677841569  0.2069897477866159  0.2121517969602259
  0.9424693305522830  0.6130668527314782  0.1672227644801629
  0.9376175599509295  0.7926573943960329  0.8754146612219343
  0.5650634206758763  0.3707947882287955  0.7881229015436449
  0.0633581780456339  0.3715861191116659  0.5212582816051320
  0.5634291197823346  0.3713090009564805  0.5212548591697596
  0.6800418040524089  0.1242689847783126  0.3005008971253749
  0.4327693078275091  0.9620430582799961  0.8331121510496473
  0.1912636167997932  0.2873175026712562  0.1248563087855852
  0.8150173434193865  0.8709419761153955  0.7881951479925018
  0.3126746735472505  0.3700100967641063  0.4344687737753433
  0.5628797943273731  0.0319321898719184  0.1249254604545450
  0.4382853336015432  0.2907285200289158  0.6106262461926972
  0.1915003338185771  0.4523422214330731  0.3450923366608241
  0.4397474211548907  0.2877381543951255  0.1246517176411184
  0.6909675343107402  0.7883312340761176  0.2563742152412090
  0.4383878147105106  0.1208989637735790  0.5212042455627000
  0.1873079481386418  0.2926739490110959  0.8755231001428725
  0.1869771547781462  0.1235376694198996  0.6547214501087214
  0.9368581149745798  0.1244674765327093  0.6546598034341848
  0.3104579136944279  0.2064330716389692  0.2119682011367266
  0.0585495856482583  0.0374154289691661  0.3889846297347826
  0.1932080268836663  0.1142833830025777  0.1671088711421484
  0.0632457673441939  0.5403340939998805  0.6105940050155416
  0.9415365632035684  0.2886316411836156  0.2562929490981940
  0.5634990917569503  0.5403025919990073  0.6106238134730478
  0.9385505140591180  0.9569498034307402  0.5653351855545882
  0.6805347638732754  0.6249048696533681  0.3004647276336118
  0.9380522397408397  0.6199318480059033  0.4344863119778598
  0.9407821981726535  0.6213396775074654  0.7883219899104531
  0.5625557186287029  0.7078642914858169  0.6995208764205429
  0.0580756502274243  0.7125337768096308  0.8331035348335577
  0.9304190049702309  0.1246492174066752  0.3005008028908543
  0.9383158896899244  0.7901345527441106  0.6106286232851247
  0.4416959329006057  0.7889062192397748  0.2562404930852145
  0.3151784077762466  0.3709637895658193  0.7882918301621590
  0.4361400484056778  0.4569062673117089  0.2122863689377857
  0.1886473035596838  0.1211945713161005  0.5211283387688129
  0.8131530975254575  0.7080091332059013  0.6996291761600434
  0.0636777678442206  0.0404143447613987  0.6106414332769734
  0.5575659111811011  0.2120563525423867  0.8329698093382359
  0.3137896959081545  0.8714021406616674  0.5211930645056042
  0.6911668029560433  0.2871668515636995  0.1248561927543845
  0.1859257250270585  0.9568115462879776  0.2120960443817879
  0.6886422723239083  0.2905138130916872  0.6106825742477087
  0.3136572080295784  0.0403290765644321  0.6105684211093722
  0.9397729931312524  0.1214645215926916  0.7883585887746642
  0.4375694823533676  0.7924781169417248  0.8755030535026611
  0.8096448875806469  0.0406895270229918  0.7437825421636748
  0.9379005532396132  0.4576306519521129  0.6994528592681823
  0.1872246590387417  0.6248117179942029  0.6546477904056817
  0.3124597322102520  0.7082735902323725  0.6993585954234969
  0.9399390798633930  0.2876183262679320  0.1246656049999955
  0.4380429510636490  0.4553953558059827  0.4786563170764483
  0.0631185929720304  0.7051486773879256  0.4786686944089398
  0.9384545210286647  0.1195669720248519  0.4344705717641348
  0.4295523651155045  0.1238637175189240  0.3004636103137263
  0.1879807169137796  0.1196815343114950  0.4345622780796706
  0.5611929895384323  0.0390471767057048  0.8754278043897852
  0.1884821609707621  0.9565074260468682  0.5651617468341016
  0.6907616827949747  0.7874246861355997  0.1248236069768401
  0.5628565175658452  0.5327320922207761  0.1247849221398097
  0.3085704581701088  0.0374528194258370  0.3891600663815434
  0.6933245509483176  0.1143894477646080  0.1672251099727181
  0.8106505390905463  0.2066602955233406  0.2121437610078599
  0.0662910470822912  0.5382829379317756  0.2562559872321440
  0.5628501795037519  0.7054249473844606  0.4786253241988052
  0.0633323946580767  0.2074351286862517  0.5654184581009870
  0.5553834209620413  0.3743943632087214  0.3004606491566188
  0.4410032942205071  0.9528067493791641  0.3450699481461633
  0.1827253622940875  0.9624390908528185  0.8329475859359060
  0.4426923817292525  0.6128624246621612  0.1672425772115340
  0.9362968646323230  0.4565976599978375  0.2122231346446173
  0.0624759913607720  0.5327946679236045  0.1247504134169135
  0.8133554605598478  0.3711702062219679  0.5212535014041577
  0.9301287090770566  0.6244286131772748  0.3005550943404272
  0.3155518739574502  0.0400226213945914  0.2562613776046072
  0.6886123093636861  0.7904793259229153  0.6106733135924676
  0.1823198987211764  0.4625750162915089  0.8328296699463713
  0.4420631955074263  0.1137988150071731  0.1669894118792637
  0.3135846012996014  0.3713636546578232  0.5212589114626739
  0.4401767670147574  0.6217167212065534  0.7883472385952354
  0.0661590456766586  0.0394651940337584  0.2561583660654647
  0.5640285744891579  0.7069474158553468  0.5653194184833098
  0.9350669410131833  0.2906191426366321  0.7438761928377340
  0.6903227570694445  0.1218187223959723  0.7883104095674205
  0.1849591321691798  0.4567973186693630  0.2122762845499662
  0.9335049605485762  0.7877370555432065  0.3891002628266474
  0.6878508188761047  0.2931987517763457  0.8754472534174946
  0.3182485725082590  0.8642720834255359  0.1672527710069145
  0.4380031178102090  0.4579688734762071  0.6994930053948232
  0.9416891346801584  0.9526197685104780  0.3451193736822741
  0.6884675477611517  0.6213267456693408  0.5213039167691034
  0.0620614891662954  0.8751386047084447  0.6546456172515491
  0.0653745502066439  0.8710000509433989  0.7882579673495621
  0.0605062029594273  0.3746138763526837  0.6548181025628681
  0.6882157436532308  0.4553350009699215  0.4786381960914149
  0.1909040769151392  0.7886492684241488  0.2561876144331535
  0.4378354653401873  0.1198071740810701  0.4344679682223515
  0.8131070993731527  0.0326116905531948  0.1246323600606002
  0.9384543463089283  0.6211382714568644  0.5212968092639585
  0.0630301660486606  0.8694204155710819  0.4345332060688822
  0.8132568223590082  0.5324559543336372  0.1248375399388862
  0.4415056484801351  0.4525931043263674  0.3450737670943754
  0.8164517707184125  0.2025155155927934  0.3450887877928114
  0.3164534063849786  0.7023332768478610  0.3450754110009852
  0.6871585825538653  0.1250803266775552  0.6547044898937118
  0.5545254339780155  0.8740130520308448  0.3003885384091532
  0.0598217177452436  0.5407651426376271  0.7438176221246989
  0.9347252685395356  0.9566350979367467  0.2120631143449178
  0.8101232252617421  0.7067299840178142  0.2118149477102471
  0.0548164919978583  0.8737800658887556  0.3003792005160277
  0.1797055195740218  0.1236974563321884  0.3003879255216892
  0.0663216493957522  0.7026148745005846  0.3451037384186966
  0.8135341899477758  0.0406480936749894  0.6106452093558044
  0.0636242672813047  0.3693447449109001  0.4344835792337792
  0.5664890043849337  0.2025182404324463  0.3451043866028030
  0.8050006502442225  0.3743454388230666  0.3004501724703455
  0.4380308361209769  0.9552901181314175  0.4786136519351140
  0.5584176961179934  0.5372338851056306  0.3890292125055839
  0.0627404043742134  0.2056949661982849  0.4786219679454358
  0.3151653867101236  0.8716088467668877  0.7882924197023438
  0.9379979690602507  0.9578964050474476  0.6995054618098022
  0.0546334030569965  0.3742124000949125  0.3005418706729330
  0.6869081352528509  0.6245089367629106  0.6546939464758794
  0.6882513635441819  0.4570196233581887  0.5654064706176389
  0.4352361473956191  0.9569007009245578  0.2120820936774006
  0.3128084399743701  0.2058083204277885  0.4786321936659095
  0.4364672935761498  0.1243209501253079  0.6547481737360482
  0.6882054645033556  0.6200809411498125  0.4344915923097153
  0.8131633732121695  0.2082424461183449  0.6994517406207437
  0.8129526900785190  0.7053417793666372  0.4786462548393591
  0.8131857676920060  0.8695858399916911  0.4344601833967395
  0.9378326103354179  0.9558325605717803  0.4786371650979890
  0.5627401241018901  0.2054906139512374  0.4786343834965636
  0.1881178537117290  0.6196280336360388  0.4344345526862232
  0.3098990488433594  0.0404593799434381  0.7438404371235552
  0.9365568639122778  0.6243937004643424  0.6546103064678456
  0.5580702362980090  0.7127241256230923  0.8331209305009027
  0.3048110367763932  0.3744921252507818  0.3004546576652822
  0.5601948685721833  0.7059979627696821  0.2118430084480857
  0.1880048271086942  0.4555561792176457  0.4786328027338680
  0.3109332451737291  0.0386278096783057  0.8754618155601983
  0.1876710101630675  0.4579441422343738  0.6994402353668382
  0.8111044135762477  0.5387034052162601  0.8753643518734401
  0.1840751496342757  0.2878275069408407  0.3891504187961758
  0.4379844733883030  0.6201733108075959  0.4344611062107562
  0.0600093602330537  0.7062715754559530  0.2119233706251602
  0.5635671671815564  0.3692814195555180  0.4345654470230726
  0.4383665717041186  0.6213711362092925  0.5212555921245791
  0.8079187055199174  0.7123885840942048  0.8330218137116772
  0.0650918838464151  0.3707919176342629  0.7882286931897196
  0.4375403102078158  0.2925027524052900  0.8754420205055961
  0.3127589001762670  0.0324924723312312  0.1246683962824332
  0.6879887475649986  0.1200682822870263  0.4345061792833785
  0.1911145994394848  0.9525449011469929  0.3451867282565750
  0.0582524606227356  0.2125143811549329  0.8331453286917156
  0.5632865525710826  0.0403986322541570  0.6106004231853643
  0.6848552483796984  0.4566531413052508  0.2121524962600381
  0.1848283330704961  0.7904732622889085  0.7439631916881128
  0.1805553747327098  0.6244589246339585  0.3004785713306593
  0.4336202526834638  0.7876202829374317  0.3890761367858074
  0.4416250600525332  0.2887244804147994  0.2562792976934757
  0.0611329645368464  0.5388881654771815  0.8754355513501002
  0.5595633177066349  0.0408663583120337  0.7438132377102711
  0.1876275791483008  0.7926155401061989  0.8755441770737898
  0.9376656040247665  0.4555619948360037  0.4786395456058936
  0.8087793881849237  0.5375171548198432  0.3891058791008305
  0.8138154872013593  0.2071837516761305  0.5654763409096600
  0.1903906070408586  0.6215723383845427  0.7884584369135393
  0.0582479304243625  0.5375456058342278  0.3891397548667241
  0.0635704374211157  0.7084588148087400  0.6996226548881175
  0.3156835994954801  0.5390282213700319  0.2560770856677365
  0.3100270292234573  0.7068965779450431  0.2118032326122374
  0.5684432511782707  0.8645342763724423  0.1672523614382151
  0.5595960399953638  0.5406441544735382  0.7437816485747397
  0.6915489052461062  0.4525098044462974  0.3450598397582419
  0.9375073715322749  0.2930866758339175  0.8754349136180680
  0.5660760723125454  0.0387053747135805  0.2561979378274592
  0.6836179068299422  0.2882432886131769  0.3890480684900279
  0.3193863141023407  0.3639014607698568  0.1666084298578246
  0.8194878398862716  0.3642975528948035  0.1666011536351139
  0.1881305103240179  0.9569621080692878  0.6997903852691580
  0.3121160480336818  0.8742687174674245  0.6541192471582580
  0.1927160928705114  0.2890331107488878  0.2563471857305780
  0.1880529330421351  0.9554579554637506  0.4785551608075428
 
  0.00000000E+00  0.00000000E+00  0.00000000E+00
  0.00000000E+00  0.00000000E+00  0.00000000E+00
  0.00000000E+00  0.00000000E+00  0.00000000E+00
  0.00000000E+00  0.00000000E+00  0.00000000E+00
  0.00000000E+00  0.00000000E+00  0.00000000E+00
  0.00000000E+00  0.00000000E+00  0.00000000E+00
  0.00000000E+00  0.00000000E+00  0.00000000E+00
  0.00000000E+00  0.00000000E+00  0.00000000E+00
  0.00000000E+00  0.00000000E+00  0.00000000E+00
  0.00000000E+00  0.00000000E+00  0.00000000E+00
  0.00000000E+00  0.00000000E+00  0.00000000E+00
  0.00000000E+00  0.00000000E+00  0.00000000E+00
  0.00000000E+00  0.00000000E+00  0.00000000E+00
  0.00000000E+00  0.00000000E+00  0.00000000E+00
  0.00000000E+00  0.00000000E+00  0.00000000E+00
  0.00000000E+00  0.00000000E+00  0.00000000E+00
  0.00000000E+00  0.00000000E+00  0.00000000E+00
  0.00000000E+00  0.00000000E+00  0.00000000E+00
  0.00000000E+00  0.00000000E+00  0.00000000E+00
  0.00000000E+00  0.00000000E+00  0.00000000E+00
  0.00000000E+00  0.00000000E+00  0.00000000E+00
  0.00000000E+00  0.00000000E+00  0.00000000E+00
  0.00000000E+00  0.00000000E+00  0.00000000E+00
  0.00000000E+00  0.00000000E+00  0.00000000E+00
  0.00000000E+00  0.00000000E+00  0.00000000E+00
  0.00000000E+00  0.00000000E+00  0.00000000E+00
  0.00000000E+00  0.00000000E+00  0.00000000E+00
  0.00000000E+00  0.00000000E+00  0.00000000E+00
  0.00000000E+00  0.00000000E+00  0.00000000E+00
  0.00000000E+00  0.00000000E+00  0.00000000E+00
  0.00000000E+00  0.00000000E+00  0.00000000E+00
  0.00000000E+00  0.00000000E+00  0.00000000E+00
  0.00000000E+00  0.00000000E+00  0.00000000E+00
  0.00000000E+00  0.00000000E+00  0.00000000E+00
  0.00000000E+00  0.00000000E+00  0.00000000E+00
  0.00000000E+00  0.00000000E+00  0.00000000E+00
  0.00000000E+00  0.00000000E+00  0.00000000E+00
  0.00000000E+00  0.00000000E+00  0.00000000E+00
  0.00000000E+00  0.00000000E+00  0.00000000E+00
  0.00000000E+00  0.00000000E+00  0.00000000E+00
  0.00000000E+00  0.00000000E+00  0.00000000E+00
  0.00000000E+00  0.00000000E+00  0.00000000E+00
  0.00000000E+00  0.00000000E+00  0.00000000E+00
  0.00000000E+00  0.00000000E+00  0.00000000E+00
  0.00000000E+00  0.00000000E+00  0.00000000E+00
  0.00000000E+00  0.00000000E+00  0.00000000E+00
  0.00000000E+00  0.00000000E+00  0.00000000E+00
  0.00000000E+00  0.00000000E+00  0.00000000E+00
  0.00000000E+00  0.00000000E+00  0.00000000E+00
  0.00000000E+00  0.00000000E+00  0.00000000E+00
  0.00000000E+00  0.00000000E+00  0.00000000E+00
  0.00000000E+00  0.00000000E+00  0.00000000E+00
  0.00000000E+00  0.00000000E+00  0.00000000E+00
  0.00000000E+00  0.00000000E+00  0.00000000E+00
  0.00000000E+00  0.00000000E+00  0.00000000E+00
  0.00000000E+00  0.00000000E+00  0.00000000E+00
  0.00000000E+00  0.00000000E+00  0.00000000E+00
  0.00000000E+00  0.00000000E+00  0.00000000E+00
  0.00000000E+00  0.00000000E+00  0.00000000E+00
  0.00000000E+00  0.00000000E+00  0.00000000E+00
  0.00000000E+00  0.00000000E+00  0.00000000E+00
  0.00000000E+00  0.00000000E+00  0.00000000E+00
  0.00000000E+00  0.00000000E+00  0.00000000E+00
  0.00000000E+00  0.00000000E+00  0.00000000E+00
  0.00000000E+00  0.00000000E+00  0.00000000E+00
  0.00000000E+00  0.00000000E+00  0.00000000E+00
  0.00000000E+00  0.00000000E+00  0.00000000E+00
  0.00000000E+00  0.00000000E+00  0.00000000E+00
  0.00000000E+00  0.00000000E+00  0.00000000E+00
  0.00000000E+00  0.00000000E+00  0.00000000E+00
  0.00000000E+00  0.00000000E+00  0.00000000E+00
  0.00000000E+00  0.00000000E+00  0.00000000E+00
  0.00000000E+00  0.00000000E+00  0.00000000E+00
  0.00000000E+00  0.00000000E+00  0.00000000E+00
  0.00000000E+00  0.00000000E+00  0.00000000E+00
  0.00000000E+00  0.00000000E+00  0.00000000E+00
  0.00000000E+00  0.00000000E+00  0.00000000E+00
  0.00000000E+00  0.00000000E+00  0.00000000E+00
  0.00000000E+00  0.00000000E+00  0.00000000E+00
  0.00000000E+00  0.00000000E+00  0.00000000E+00
  0.00000000E+00  0.00000000E+00  0.00000000E+00
  0.00000000E+00  0.00000000E+00  0.00000000E+00
  0.00000000E+00  0.00000000E+00  0.00000000E+00
  0.00000000E+00  0.00000000E+00  0.00000000E+00
  0.00000000E+00  0.00000000E+00  0.00000000E+00
  0.00000000E+00  0.00000000E+00  0.00000000E+00
  0.00000000E+00  0.00000000E+00  0.00000000E+00
  0.00000000E+00  0.00000000E+00  0.00000000E+00
  0.00000000E+00  0.00000000E+00  0.00000000E+00
  0.00000000E+00  0.00000000E+00  0.00000000E+00
  0.00000000E+00  0.00000000E+00  0.00000000E+00
  0.00000000E+00  0.00000000E+00  0.00000000E+00
  0.00000000E+00  0.00000000E+00  0.00000000E+00
  0.00000000E+00  0.00000000E+00  0.00000000E+00
  0.00000000E+00  0.00000000E+00  0.00000000E+00
  0.00000000E+00  0.00000000E+00  0.00000000E+00
  0.00000000E+00  0.00000000E+00  0.00000000E+00
  0.00000000E+00  0.00000000E+00  0.00000000E+00
  0.00000000E+00  0.00000000E+00  0.00000000E+00
  0.00000000E+00  0.00000000E+00  0.00000000E+00
  0.00000000E+00  0.00000000E+00  0.00000000E+00
  0.00000000E+00  0.00000000E+00  0.00000000E+00
  0.00000000E+00  0.00000000E+00  0.00000000E+00
  0.00000000E+00  0.00000000E+00  0.00000000E+00
  0.00000000E+00  0.00000000E+00  0.00000000E+00
  0.00000000E+00  0.00000000E+00  0.00000000E+00
  0.00000000E+00  0.00000000E+00  0.00000000E+00
  0.00000000E+00  0.00000000E+00  0.00000000E+00
  0.00000000E+00  0.00000000E+00  0.00000000E+00
  0.00000000E+00  0.00000000E+00  0.00000000E+00
  0.00000000E+00  0.00000000E+00  0.00000000E+00
  0.00000000E+00  0.00000000E+00  0.00000000E+00
  0.00000000E+00  0.00000000E+00  0.00000000E+00
  0.00000000E+00  0.00000000E+00  0.00000000E+00
  0.00000000E+00  0.00000000E+00  0.00000000E+00
  0.00000000E+00  0.00000000E+00  0.00000000E+00
  0.00000000E+00  0.00000000E+00  0.00000000E+00
  0.00000000E+00  0.00000000E+00  0.00000000E+00
  0.00000000E+00  0.00000000E+00  0.00000000E+00
  0.00000000E+00  0.00000000E+00  0.00000000E+00
  0.00000000E+00  0.00000000E+00  0.00000000E+00
  0.00000000E+00  0.00000000E+00  0.00000000E+00
  0.00000000E+00  0.00000000E+00  0.00000000E+00
  0.00000000E+00  0.00000000E+00  0.00000000E+00
  0.00000000E+00  0.00000000E+00  0.00000000E+00
  0.00000000E+00  0.00000000E+00  0.00000000E+00
  0.00000000E+00  0.00000000E+00  0.00000000E+00
  0.00000000E+00  0.00000000E+00  0.00000000E+00
  0.00000000E+00  0.00000000E+00  0.00000000E+00
  0.00000000E+00  0.00000000E+00  0.00000000E+00
  0.00000000E+00  0.00000000E+00  0.00000000E+00
  0.00000000E+00  0.00000000E+00  0.00000000E+00
  0.00000000E+00  0.00000000E+00  0.00000000E+00
  0.00000000E+00  0.00000000E+00  0.00000000E+00
  0.00000000E+00  0.00000000E+00  0.00000000E+00
  0.00000000E+00  0.00000000E+00  0.00000000E+00
  0.00000000E+00  0.00000000E+00  0.00000000E+00
  0.00000000E+00  0.00000000E+00  0.00000000E+00
  0.00000000E+00  0.00000000E+00  0.00000000E+00
  0.00000000E+00  0.00000000E+00  0.00000000E+00
  0.00000000E+00  0.00000000E+00  0.00000000E+00
  0.00000000E+00  0.00000000E+00  0.00000000E+00
  0.00000000E+00  0.00000000E+00  0.00000000E+00
  0.00000000E+00  0.00000000E+00  0.00000000E+00
  0.00000000E+00  0.00000000E+00  0.00000000E+00
  0.00000000E+00  0.00000000E+00  0.00000000E+00
  0.00000000E+00  0.00000000E+00  0.00000000E+00
  0.00000000E+00  0.00000000E+00  0.00000000E+00
  0.00000000E+00  0.00000000E+00  0.00000000E+00
  0.00000000E+00  0.00000000E+00  0.00000000E+00
  0.00000000E+00  0.00000000E+00  0.00000000E+00
  0.00000000E+00  0.00000000E+00  0.00000000E+00
  0.00000000E+00  0.00000000E+00  0.00000000E+00
  0.00000000E+00  0.00000000E+00  0.00000000E+00
  0.00000000E+00  0.00000000E+00  0.00000000E+00
  0.00000000E+00  0.00000000E+00  0.00000000E+00
  0.00000000E+00  0.00000000E+00  0.00000000E+00
  0.00000000E+00  0.00000000E+00  0.00000000E+00
  0.00000000E+00  0.00000000E+00  0.00000000E+00
  0.00000000E+00  0.00000000E+00  0.00000000E+00
  0.00000000E+00  0.00000000E+00  0.00000000E+00
  0.00000000E+00  0.00000000E+00  0.00000000E+00
  0.00000000E+00  0.00000000E+00  0.00000000E+00
  0.00000000E+00  0.00000000E+00  0.00000000E+00
  0.00000000E+00  0.00000000E+00  0.00000000E+00
  0.00000000E+00  0.00000000E+00  0.00000000E+00
  0.00000000E+00  0.00000000E+00  0.00000000E+00
  0.00000000E+00  0.00000000E+00  0.00000000E+00
  0.00000000E+00  0.00000000E+00  0.00000000E+00
  0.00000000E+00  0.00000000E+00  0.00000000E+00
  0.00000000E+00  0.00000000E+00  0.00000000E+00
  0.00000000E+00  0.00000000E+00  0.00000000E+00
  0.00000000E+00  0.00000000E+00  0.00000000E+00
  0.00000000E+00  0.00000000E+00  0.00000000E+00
  0.00000000E+00  0.00000000E+00  0.00000000E+00
  0.00000000E+00  0.00000000E+00  0.00000000E+00
  0.00000000E+00  0.00000000E+00  0.00000000E+00
  0.00000000E+00  0.00000000E+00  0.00000000E+00
  0.00000000E+00  0.00000000E+00  0.00000000E+00
  0.00000000E+00  0.00000000E+00  0.00000000E+00
  0.00000000E+00  0.00000000E+00  0.00000000E+00
  0.00000000E+00  0.00000000E+00  0.00000000E+00
  0.00000000E+00  0.00000000E+00  0.00000000E+00
  0.00000000E+00  0.00000000E+00  0.00000000E+00
  0.00000000E+00  0.00000000E+00  0.00000000E+00
  0.00000000E+00  0.00000000E+00  0.00000000E+00
  0.00000000E+00  0.00000000E+00  0.00000000E+00
  0.00000000E+00  0.00000000E+00  0.00000000E+00
  0.00000000E+00  0.00000000E+00  0.00000000E+00
  0.00000000E+00  0.00000000E+00  0.00000000E+00
  0.00000000E+00  0.00000000E+00  0.00000000E+00
  0.00000000E+00  0.00000000E+00  0.00000000E+00
  0.00000000E+00  0.00000000E+00  0.00000000E+00
  0.00000000E+00  0.00000000E+00  0.00000000E+00
  0.00000000E+00  0.00000000E+00  0.00000000E+00
  0.00000000E+00  0.00000000E+00  0.00000000E+00
  0.00000000E+00  0.00000000E+00  0.00000000E+00
  0.00000000E+00  0.00000000E+00  0.00000000E+00
  0.00000000E+00  0.00000000E+00  0.00000000E+00
  0.00000000E+00  0.00000000E+00  0.00000000E+00
  0.00000000E+00  0.00000000E+00  0.00000000E+00
  0.00000000E+00  0.00000000E+00  0.00000000E+00
  0.00000000E+00  0.00000000E+00  0.00000000E+00
  0.00000000E+00  0.00000000E+00  0.00000000E+00
  0.00000000E+00  0.00000000E+00  0.00000000E+00
  0.00000000E+00  0.00000000E+00  0.00000000E+00
  0.00000000E+00  0.00000000E+00  0.00000000E+00
  0.00000000E+00  0.00000000E+00  0.00000000E+00
  0.00000000E+00  0.00000000E+00  0.00000000E+00
  0.00000000E+00  0.00000000E+00  0.00000000E+00
  0.00000000E+00  0.00000000E+00  0.00000000E+00
  0.00000000E+00  0.00000000E+00  0.00000000E+00
  0.00000000E+00  0.00000000E+00  0.00000000E+00
  0.00000000E+00  0.00000000E+00  0.00000000E+00
  0.00000000E+00  0.00000000E+00  0.00000000E+00
  0.00000000E+00  0.00000000E+00  0.00000000E+00
  0.00000000E+00  0.00000000E+00  0.00000000E+00
  0.00000000E+00  0.00000000E+00  0.00000000E+00
  0.00000000E+00  0.00000000E+00  0.00000000E+00
  0.00000000E+00  0.00000000E+00  0.00000000E+00
  0.00000000E+00  0.00000000E+00  0.00000000E+00
  0.00000000E+00  0.00000000E+00  0.00000000E+00
  0.00000000E+00  0.00000000E+00  0.00000000E+00
  0.00000000E+00  0.00000000E+00  0.00000000E+00
  0.00000000E+00  0.00000000E+00  0.00000000E+00
  0.00000000E+00  0.00000000E+00  0.00000000E+00
  0.00000000E+00  0.00000000E+00  0.00000000E+00
  0.00000000E+00  0.00000000E+00  0.00000000E+00
  0.00000000E+00  0.00000000E+00  0.00000000E+00
  0.00000000E+00  0.00000000E+00  0.00000000E+00
  0.00000000E+00  0.00000000E+00  0.00000000E+00
  0.00000000E+00  0.00000000E+00  0.00000000E+00
  0.00000000E+00  0.00000000E+00  0.00000000E+00
  0.00000000E+00  0.00000000E+00  0.00000000E+00
  0.00000000E+00  0.00000000E+00  0.00000000E+00
  0.00000000E+00  0.00000000E+00  0.00000000E+00
  0.00000000E+00  0.00000000E+00  0.00000000E+00
  0.00000000E+00  0.00000000E+00  0.00000000E+00
  0.00000000E+00  0.00000000E+00  0.00000000E+00
  0.00000000E+00  0.00000000E+00  0.00000000E+00
  0.00000000E+00  0.00000000E+00  0.00000000E+00
  0.00000000E+00  0.00000000E+00  0.00000000E+00
  0.00000000E+00  0.00000000E+00  0.00000000E+00
  0.00000000E+00  0.00000000E+00  0.00000000E+00
  0.00000000E+00  0.00000000E+00  0.00000000E+00
  0.00000000E+00  0.00000000E+00  0.00000000E+00
  0.00000000E+00  0.00000000E+00  0.00000000E+00