CuInSe2gb                               
   1.00000000000000     
     9.7266780392896699    0.0000000000000000    0.0000000000000000
     0.0000000000000000    8.4235502764570693    0.0000000000000000
     0.0000000000000000    0.0000000000000000   45.0000000000000000
   Fe   Mn
   281     7
Direct
  0.0580185372059270  0.7010493596894847  0.2110632189155882
  0.3161299633452848  0.7205551687400195  0.8757703576193556
  0.6883957219353783  0.9582613126695052  0.6114668502330231
  0.4381792826398167  0.4579616387936630  0.6114203846390199
  0.4366250508362556  0.2867915165165082  0.2555156758503620
  0.0608740148136869  0.3867809096063525  0.8341790825679546
  0.3113409428957008  0.8866915766270937  0.8342141185992904
  0.4421728394453601  0.6267877709907209  0.7003956522977380
  0.0634704209306951  0.2129051414157212  0.7445451460326358
  0.1824427906646207  0.4512667546895864  0.2112066130744058
  0.5639391680735668  0.2089235971747558  0.4778015237475692
  0.0641966689379369  0.8746318357006794  0.5668218075559259
  0.5657335411212807  0.2198959445820863  0.8757101992409149
  0.8101951201111112  0.5302982522671511  0.1244940232441024
  0.4331578591633002  0.9513635894602555  0.2111056213534717
  0.5642315926074802  0.3747550048701143  0.5667438056531605
  0.8117725979795979  0.0419639933012516  0.3885042361978337
  0.6861509558443731  0.7907603794293897  0.5221536044496009
  0.4389824578706055  0.4591080388703019  0.4778400917581807
  0.4378644997443864  0.9628990175216166  0.7445085039354423
  0.4389121182850768  0.6246346136862327  0.5668497320631856
  0.5667984122652397  0.8764796738040634  0.7003248285447412
  0.3106839552310094  0.0308738359673889  0.1241306982260201
  0.6869098988084467  0.9579842660121735  0.3441241540135655
  0.6877369615057443  0.7795851256989196  0.1246566274498925
  0.0577293583888394  0.3734313076479644  0.2996721061963163
  0.6889435409622657  0.4714236802392759  0.8754908949244564
  0.4331949776310569  0.4514509720705155  0.2110982392123410
  0.8110980561315800  0.3750888621953671  0.4330566173146608
  0.5630876470353422  0.7079687050919383  0.6115321507730265
  0.5630581402783248  0.5412969538065839  0.6557889110547939
  0.8145152026813852  0.8635789310643673  0.1659549402336866
  0.5608102407076013  0.5371431269402155  0.2555082785400450
  0.6868149705192892  0.4581846759535105  0.3440883208536222
  0.1884170633226075  0.6127435389587050  0.1661681265164861
  0.1917929162236274  0.7992656678360360  0.7887538347210633
  0.4425317426839026  0.1262340748594606  0.7003760078538209
  0.9328727249849610  0.6233680337877142  0.2997322289513990
  0.3152639396069832  0.2200741198881395  0.8757264360316681
  0.3137950858734800  0.8747201012178447  0.5667911577190885
  0.8153343209892114  0.2200477261027147  0.8757225029065520
  0.8127943233961927  0.5417818398119896  0.6556964172909241
  0.5602122265677612  0.5295438492749512  0.1244277507495362
  0.5668212372417931  0.0494151581527080  0.7889289478627020
  0.1866468159524107  0.2869764117502729  0.2554901781860095
  0.8107964888396576  0.8753989088428438  0.4330154955671744
  0.5665879845457601  0.3764572530352873  0.7004455622556878
  0.0612623930389734  0.0292186139416820  0.1244308704954843
  0.3127875822353595  0.5411546200434021  0.6558394104216533
  0.5618147545411460  0.2080704264873100  0.3441496508784614
  0.1882286792586355  0.9578589063479872  0.6113976401968676
  0.3076050383707368  0.3737792029346927  0.2995785501426486
  0.4378713734608396  0.7916941651802719  0.6557829951112449
  0.1916344311854485  0.2985440877911427  0.7888464282361807
  0.0639277950678432  0.3634626593197964  0.1659872431432282
  0.6913442337628073  0.6268063597886248  0.7003616639455114
  0.3116363426804628  0.5417045380228351  0.3885062227691844
  0.0654180833862497  0.7198920792955883  0.8758802715224542
  0.9362363995566215  0.6366967950007920  0.8343153388037970
  0.3172626525284056  0.5497553552815498  0.7889400080092199
  0.3074527138667846  0.2002510166035268  0.2110578201728660
  0.0640048304905577  0.7091305137110939  0.4779189244785880
  0.5572891832424473  0.2009082372496750  0.2110785908971811
  0.3135235349266585  0.2134362223663479  0.7443925279377632
  0.0675362546406047  0.3768186986155814  0.7003178085323964
  0.1861332031221810  0.6367426383901753  0.8339748407847567
  0.0667259331352208  0.0493140528599918  0.7889592286425794
  0.4391870525079825  0.1247120197215590  0.5668288693642523
  0.9380301450591649  0.2915915307508279  0.6557253742933993
  0.8074995447161880  0.2013434027115124  0.2111034362956064
  0.9325990729466030  0.9516574145373599  0.2112800053850537
  0.9391263116180339  0.6248798845982849  0.5667730589621676
  0.8110368802525217  0.3867013810770722  0.8342390878617865
  0.1920809651790754  0.6268603747854904  0.7003551683750509
  0.8110581254528721  0.8865863450968926  0.8342687898450492
  0.6879452604702558  0.2910268464675827  0.6557092162354865
  0.3134048609713375  0.2080827504114828  0.6115332048426797
  0.4380906409280412  0.4625749898812074  0.7444356309833680
  0.4365468315264299  0.7916222478179215  0.3884726511505119
  0.6876478285925279  0.9625915233638849  0.7445068718982334
  0.8074336190322098  0.7008153592670100  0.2111513787005768
  0.8131273673245321  0.7082436679994923  0.6113469083700067
  0.4371443491240579  0.7794375501214210  0.1242590119791016
  0.3132202883679784  0.7129604911410002  0.7444355396417219
  0.3171204737516840  0.0496559619018682  0.7889757864438278
  0.8116882409638736  0.5417675833498087  0.3884864938076400
  0.6862222217943270  0.2911837819432931  0.5221096304755363
  0.6919315266313184  0.7992009454541121  0.7888457706177179
  0.1868007464067048  0.7876888782589873  0.2555293500109307
  0.6888755369917172  0.1135896290012779  0.1661548395118229
  0.6887234928716004  0.9590720261034866  0.4778463523029586
  0.9370981621786496  0.9582158320258416  0.3441460307639798
  0.8110927761357557  0.0403972220141707  0.5220755777862133
  0.6854550158293677  0.6249930258891200  0.4330335437732760
  0.4368775824942825  0.4586120764928549  0.3441444141547476
  0.8130238432987442  0.2132714656724690  0.7445632004295339
  0.4390716739606146  0.9715285083964280  0.8755101997160508
  0.5640693378467790  0.8745372690818645  0.5667336963571524
  0.8104483762834188  0.0298842884222019  0.1245135481226989
  0.4324448465523230  0.6233161795018307  0.2996730211246187
  0.8151890130834383  0.7204325411712948  0.8758893409351821
  0.6882464975590608  0.4580411972587611  0.6114025227549167
  0.5610918275466679  0.3869702731758520  0.8341014602193222
  0.8076095748221621  0.3732275685838105  0.2997074251346395
  0.1866739417348205  0.2917831778587021  0.3884580540411550
  0.8164127689157202  0.5496762716981003  0.7891360816018059
  0.1862480791939157  0.7907318271256083  0.5222238595428524
  0.3077903759816995  0.8734700645800803  0.2995954846373926
  0.1827064299842744  0.9515962744835069  0.2112354365875441
  0.1886214998793001  0.4630898199662271  0.7444999025156057
  0.4359739530347844  0.2909211985307941  0.5221110759582553
  0.0621132944676133  0.7083891368209698  0.3442431844276118
  0.1880209197961371  0.7912335104202943  0.6557006322633172
  0.4416948265599959  0.7996457660050107  0.7887903881264511
  0.6853898434797305  0.1249408285754340  0.4330585317786476
  0.9362892882991368  0.7906994768393388  0.5221629697070748
  0.6888409764180010  0.6132432563842607  0.1660902644361524
  0.8121029415091553  0.7082808013452172  0.3442441453611175
  0.9384142416655248  0.4626784571476128  0.7444920411123314
  0.1869725130932724  0.4585370643871496  0.3441430106973581
  0.5672014962178573  0.5496016504354940  0.7890317268913403
  0.5653467235415264  0.3639294546836770  0.1657463125285617
  0.5616332677123128  0.7085079696913312  0.3442947181572790
  0.5579455895717861  0.3733763986649805  0.2995698744967865
  0.1888440050074308  0.4714656187952388  0.8755602270380479
  0.1889017309925889  0.1128296801519922  0.1660964926480255
  0.4415289999397208  0.2988873832849876  0.7887976287404790
  0.6860681461737205  0.7871620110613103  0.2554837048027508
  0.9368558899416156  0.1368251374217251  0.8341729419377144
  0.4386955569897625  0.9589748834718954  0.4778232056868277
  0.5654108458377352  0.7202067371268395  0.8757158953298262
  0.1887756731915259  0.4591881150801400  0.4778599159805725
  0.9362755742541504  0.2795678693883934  0.1246311090647079
  0.3115169937102310  0.0417661431088244  0.3884961281067224
  0.0629050936876788  0.0411195822656586  0.6557303612027550
  0.5609816272708740  0.3748805563688443  0.4330200732452499
  0.6875204123117858  0.4624932033032607  0.7445580214454414
  0.5636513379928780  0.2133344074474131  0.7443831615042092
  0.9424297401254923  0.1266879247847907  0.7003570872012110
  0.5629871192993563  0.0412593095918739  0.6557560720605590
  0.5612564143355874  0.5406146023024879  0.5220549394007197
  0.1826082180815962  0.1233607557146162  0.2995928070710375
  0.4383949896953668  0.1122799778169913  0.1659908212371079
  0.6823075186008483  0.6235155679812938  0.2996950124355700
  0.9326043134033548  0.1228719873852403  0.2996848468593359
  0.8140914219980262  0.3747939851114800  0.5668589034824144
  0.0578340986756787  0.8732666648373377  0.2996871501343193
  0.1891292959708850  0.6248210169147995  0.5669040190631479
  0.9412061140080190  0.7988331293416998  0.7889759872011094
  0.3112851784319025  0.3866811392653272  0.8341715363874319
  0.9392035309840884  0.4715445370027799  0.8755767530055241
  0.4366806544777908  0.6371973516253843  0.8341089895603202
  0.0618173528985352  0.2085932030286436  0.3442250736378258
  0.1888693860542582  0.9712351781656715  0.8755302925426127
  0.9364019126481425  0.7795862943852426  0.1246136051726352
  0.6866223199618126  0.7918054533870045  0.3885140332239542
  0.9379724894511101  0.7917313926259703  0.6557543370839135
  0.9386421143116122  0.1138091483465626  0.1661761330866464
  0.4375212369454546  0.2913702645099149  0.6558081466715904
  0.0584680521978111  0.2011440455549062  0.2111171670439965
  0.6828905682809255  0.9513352235010334  0.2112620247672432
  0.1825450095033459  0.6235051422375069  0.2997078140671806
  0.8167443519527838  0.8764785462381935  0.7003406000356392
  0.9424127048504329  0.6270198941764619  0.7003529681719591
  0.1920238214538731  0.1267166908773437  0.7003625308472833
  0.9389743892972034  0.4589678662233430  0.4778869311717826
  0.8131116228260503  0.2079767881734876  0.6114239133019344
  0.1864062138753032  0.6250688632499110  0.4330368500302806
  0.4327384596524090  0.1233339249275631  0.2996675999400540
  0.6823669313924885  0.1230730412559300  0.2996516016387184
  0.5614666215405937  0.5417155909976984  0.3885242053432068
  0.8121130468868509  0.2082481873289333  0.3443401321563326
  0.4391071722471142  0.4717240611833048  0.8755018236515180
  0.5610907327395259  0.8867079100079199  0.8342163418260101
  0.3138383166223508  0.2090538796462074  0.4778355452621227
  0.1887284911595848  0.9589782492812853  0.4778526589915583
  0.0610948800185700  0.8868665542357007  0.8341933850019646
  0.0612750540071970  0.5407140827292710  0.5221177047938457
  0.9390058264034545  0.9588070093536839  0.4778361511438823
  0.0632797078815005  0.7078246737561105  0.6114388424772903
  0.5610448226058868  0.0409980202404230  0.5221082229337811
  0.6918455002032817  0.2988637142471899  0.7887986453361768
  0.8143805736818774  0.3636305652758933  0.1660206685169594
  0.4357643395471928  0.1249778565294527  0.4330260810957090
  0.0639178177950976  0.2086508672561992  0.4778678798637100
  0.3130635344850549  0.0414262237782906  0.6557755510519282
  0.4360344301363602  0.7904471172587825  0.5220858466357619
  0.1867295633029598  0.1368165624906099  0.8340875492198082
  0.1860351916378379  0.2789832405742458  0.1244452436574419
  0.9368032346895367  0.4583756829788050  0.3441734403696422
  0.5655559374628537  0.8639497994396356  0.1658000367729396
  0.3075841832339844  0.7003183752072584  0.2111044256365975
  0.9381149384025741  0.6133495571914085  0.1661844105246121
  0.1881753528457633  0.4577399887104141  0.6114634663504379
  0.0675747109247747  0.8768407562098595  0.7002751189002950
  0.0630688105372419  0.5413170509568326  0.6558375785583896
  0.3106485261720858  0.5307760836168277  0.1240481546699647
  0.9364017881070515  0.7918590958363527  0.3884788709023091
  0.9415589095114102  0.2986397993821800  0.7888752672968511
  0.1877222545032374  0.2913325160944777  0.6557783194437533
  0.9385080632473157  0.9582349675952418  0.6114938606535467
  0.8131256777984053  0.7129099360464056  0.7445867959756860
  0.6862047064115188  0.2872439254824548  0.2554310945472841
  0.0641703788774401  0.7131029772247178  0.7444850942314045
  0.6828425649169769  0.4512435174732753  0.2112604604978695
  0.8138802920775883  0.2088263105944474  0.4778437413419021
  0.5639139358286439  0.7091145578325917  0.4778713437435093
  0.0636138044391507  0.8636627820412781  0.1660018205008224
  0.9362176356822837  0.2905742182705532  0.5221673390171657
  0.6876769240465651  0.7915674691361234  0.6557920089766743
  0.0607614069847034  0.8750034577455871  0.4330032834219407
  0.0655987112804737  0.2195612058760250  0.8758098025888382
  0.8128031021012362  0.0414919840224177  0.6557368912348380
  0.5603147642115011  0.0295117176114291  0.1243940568788699
  0.3108322944863434  0.3747700003179207  0.4330267868978477
  0.3142382356005782  0.3748802758594593  0.5667711782160275
  0.3139865709328191  0.7091806336775843  0.4778674387167869
  0.0613539962062051  0.0404097430010153  0.5220425981375850
  0.3170408230741566  0.8764906799393077  0.7003588941541272
  0.0618889588168363  0.5370854129117518  0.2555514198649505
  0.6864930695353759  0.1372207128194965  0.8341506605136887
  0.8113244236063267  0.0368357634776584  0.2555656926014813
  0.1862934689041451  0.1250165576167233  0.4330560157109766
  0.6916810205349517  0.1266069968945362  0.7002981810220960
  0.1863015574078430  0.2906249905329202  0.5221089648481684
  0.4364851497656370  0.7874744222039120  0.2555426616652162
  0.4386467032792994  0.6124623060806523  0.1660305180878977
  0.0634684315879285  0.2078035529512618  0.6112842166754595
  0.1863661967666264  0.7915248663824634  0.3884284000137023
  0.3112056656004356  0.5406805995883300  0.5221024670607742
  0.9359872267740720  0.1251249656873437  0.4330142212569796
  0.6864890709876265  0.2918822648473655  0.3884869037407777
  0.1890460037887763  0.1247797731785876  0.5668529649202227
  0.6890264487460578  0.9716683001435401  0.8755270206737740
  0.6890592897065091  0.1247509453016119  0.5667884511246069
  0.4368825880569630  0.9585356848248194  0.3441457492464200
  0.1883347989306363  0.9629364058790912  0.7445026706219005
  0.9365575483131231  0.7872840395243883  0.2555307480714914
  0.5611147796022766  0.8755041234279112  0.4330252046892613
  0.3108949049710260  0.8753055393460966  0.4330947298485769
  0.8110962249951641  0.5404733403067501  0.5221266347856226
  0.9326458330742301  0.4514611866905742  0.2113730220078413
  0.3115432106471013  0.5368085875543304  0.2556255956454837
  0.5614373276388610  0.0417664229172655  0.3885098474980009
  0.9382925056037539  0.4577658623560814  0.6114511854773673
  0.0615146287685531  0.0419432865858371  0.3885292753192288
  0.0615012289896069  0.5417292252826208  0.3884878182599674
  0.4365890817327390  0.2916864330544691  0.3884445325615176
  0.6888900970702521  0.4592314738139349  0.4778936455940039
  0.0640377165463091  0.3747837007349887  0.5668431487735003
  0.5576068473248634  0.7007141650648034  0.2111688406496534
  0.9364361012169622  0.2869659042656634  0.2555575498682036
  0.8165265098451592  0.0491464404520220  0.7889676440322523
  0.1869318937831429  0.9584867648229382  0.3442031597066396
  0.5577019002023533  0.8733509921138083  0.2996062040381149
  0.0610459705238643  0.3750019352145608  0.4330042570131656
  0.3118586416085755  0.7080862244816586  0.3441896655659432
  0.3119528573003702  0.2080521350471631  0.3441485926196913
  0.9389163936916975  0.1249731261542964  0.5668012715437575
  0.4378746340006091  0.9578578749588229  0.6114721468903148
  0.5604539075037429  0.0370782778845309  0.2555541488487411
  0.1862052980178661  0.7789558636236590  0.1243491099819404
  0.0621570214406459  0.0373344735701385  0.2555868291289305
  0.6889600747516640  0.6245508935452763  0.5668334444031726
  0.0608974051933233  0.5292254025409938  0.1244308802162471
  0.3111787738468525  0.0410350655048358  0.5221060808677046
  0.6875182731482891  0.2798241461512745  0.1246567754953870
  0.8136269294970071  0.7092429650912498  0.4778568515788397
  0.4367508541873059  0.1366106298759881  0.8339140999309703
  0.3173547226233743  0.3763791349245671  0.7003119943838861
  0.6869457559287810  0.6370959732313026  0.8341276404213330
  0.5633392727588373  0.7127135314033166  0.7445242558639404
  0.9363888856610881  0.2918725345647901  0.3885111318178222
  0.9392222893434373  0.9713145394631996  0.8755479559905166
  0.5632308412738805  0.2077616064673138  0.6114020634211955
  0.8142514949193065  0.8746191733349071  0.5668422368669592
  0.8074871375363476  0.8732445409806733  0.2996494795163312
  0.3112655263100375  0.0368584402209266  0.2555775928764429
  0.4369794334775108  0.2796799099608353  0.1242488150901114
  0.3132147742797206  0.7081868722262085  0.6114417359839714
  0.4355357275984081  0.6250733683768561  0.4330191143006469
  0.9357622785239231  0.6249407354294110  0.4330994283329301
  0.3151263041813021  0.8634540304093595  0.1655302687257243
  0.0671803411493375  0.5494341618002101  0.7888350199700863
  0.8176451988360278  0.3764258693842202  0.7003114165108653
  0.3149737132763321  0.3633042666703308  0.1655907944464373
  0.9376072964621228  0.9630918292643351  0.7446590926193076
  0.8118232961341965  0.5367809433072044  0.2553565683191805
 
  0.00000000E+00  0.00000000E+00  0.00000000E+00
  0.00000000E+00  0.00000000E+00  0.00000000E+00
  0.00000000E+00  0.00000000E+00  0.00000000E+00
  0.00000000E+00  0.00000000E+00  0.00000000E+00
  0.00000000E+00  0.00000000E+00  0.00000000E+00
  0.00000000E+00  0.00000000E+00  0.00000000E+00
  0.00000000E+00  0.00000000E+00  0.00000000E+00
  0.00000000E+00  0.00000000E+00  0.00000000E+00
  0.00000000E+00  0.00000000E+00  0.00000000E+00
  0.00000000E+00  0.00000000E+00  0.00000000E+00
  0.00000000E+00  0.00000000E+00  0.00000000E+00
  0.00000000E+00  0.00000000E+00  0.00000000E+00
  0.00000000E+00  0.00000000E+00  0.00000000E+00
  0.00000000E+00  0.00000000E+00  0.00000000E+00
  0.00000000E+00  0.00000000E+00  0.00000000E+00
  0.00000000E+00  0.00000000E+00  0.00000000E+00
  0.00000000E+00  0.00000000E+00  0.00000000E+00
  0.00000000E+00  0.00000000E+00  0.00000000E+00
  0.00000000E+00  0.00000000E+00  0.00000000E+00
  0.00000000E+00  0.00000000E+00  0.00000000E+00
  0.00000000E+00  0.00000000E+00  0.00000000E+00
  0.00000000E+00  0.00000000E+00  0.00000000E+00
  0.00000000E+00  0.00000000E+00  0.00000000E+00
  0.00000000E+00  0.00000000E+00  0.00000000E+00
  0.00000000E+00  0.00000000E+00  0.00000000E+00
  0.00000000E+00  0.00000000E+00  0.00000000E+00
  0.00000000E+00  0.00000000E+00  0.00000000E+00
  0.00000000E+00  0.00000000E+00  0.00000000E+00
  0.00000000E+00  0.00000000E+00  0.00000000E+00
  0.00000000E+00  0.00000000E+00  0.00000000E+00
  0.00000000E+00  0.00000000E+00  0.00000000E+00
  0.00000000E+00  0.00000000E+00  0.00000000E+00
  0.00000000E+00  0.00000000E+00  0.00000000E+00
  0.00000000E+00  0.00000000E+00  0.00000000E+00
  0.00000000E+00  0.00000000E+00  0.00000000E+00
  0.00000000E+00  0.00000000E+00  0.00000000E+00
  0.00000000E+00  0.00000000E+00  0.00000000E+00
  0.00000000E+00  0.00000000E+00  0.00000000E+00
  0.00000000E+00  0.00000000E+00  0.00000000E+00
  0.00000000E+00  0.00000000E+00  0.00000000E+00
  0.00000000E+00  0.00000000E+00  0.00000000E+00
  0.00000000E+00  0.00000000E+00  0.00000000E+00
  0.00000000E+00  0.00000000E+00  0.00000000E+00
  0.00000000E+00  0.00000000E+00  0.00000000E+00
  0.00000000E+00  0.00000000E+00  0.00000000E+00
  0.00000000E+00  0.00000000E+00  0.00000000E+00
  0.00000000E+00  0.00000000E+00  0.00000000E+00
  0.00000000E+00  0.00000000E+00  0.00000000E+00
  0.00000000E+00  0.00000000E+00  0.00000000E+00
  0.00000000E+00  0.00000000E+00  0.00000000E+00
  0.00000000E+00  0.00000000E+00  0.00000000E+00
  0.00000000E+00  0.00000000E+00  0.00000000E+00
  0.00000000E+00  0.00000000E+00  0.00000000E+00
  0.00000000E+00  0.00000000E+00  0.00000000E+00
  0.00000000E+00  0.00000000E+00  0.00000000E+00
  0.00000000E+00  0.00000000E+00  0.00000000E+00
  0.00000000E+00  0.00000000E+00  0.00000000E+00
  0.00000000E+00  0.00000000E+00  0.00000000E+00
  0.00000000E+00  0.00000000E+00  0.00000000E+00
  0.00000000E+00  0.00000000E+00  0.00000000E+00
  0.00000000E+00  0.00000000E+00  0.00000000E+00
  0.00000000E+00  0.00000000E+00  0.00000000E+00
  0.00000000E+00  0.00000000E+00  0.00000000E+00
  0.00000000E+00  0.00000000E+00  0.00000000E+00
  0.00000000E+00  0.00000000E+00  0.00000000E+00
  0.00000000E+00  0.00000000E+00  0.00000000E+00
  0.00000000E+00  0.00000000E+00  0.00000000E+00
  0.00000000E+00  0.00000000E+00  0.00000000E+00
  0.00000000E+00  0.00000000E+00  0.00000000E+00
  0.00000000E+00  0.00000000E+00  0.00000000E+00
  0.00000000E+00  0.00000000E+00  0.00000000E+00
  0.00000000E+00  0.00000000E+00  0.00000000E+00
  0.00000000E+00  0.00000000E+00  0.00000000E+00
  0.00000000E+00  0.00000000E+00  0.00000000E+00
  0.00000000E+00  0.00000000E+00  0.00000000E+00
  0.00000000E+00  0.00000000E+00  0.00000000E+00
  0.00000000E+00  0.00000000E+00  0.00000000E+00
  0.00000000E+00  0.00000000E+00  0.00000000E+00
  0.00000000E+00  0.00000000E+00  0.00000000E+00
  0.00000000E+00  0.00000000E+00  0.00000000E+00
  0.00000000E+00  0.00000000E+00  0.00000000E+00
  0.00000000E+00  0.00000000E+00  0.00000000E+00
  0.00000000E+00  0.00000000E+00  0.00000000E+00
  0.00000000E+00  0.00000000E+00  0.00000000E+00
  0.00000000E+00  0.00000000E+00  0.00000000E+00
  0.00000000E+00  0.00000000E+00  0.00000000E+00
  0.00000000E+00  0.00000000E+00  0.00000000E+00
  0.00000000E+00  0.00000000E+00  0.00000000E+00
  0.00000000E+00  0.00000000E+00  0.00000000E+00
  0.00000000E+00  0.00000000E+00  0.00000000E+00
  0.00000000E+00  0.00000000E+00  0.00000000E+00
  0.00000000E+00  0.00000000E+00  0.00000000E+00
  0.00000000E+00  0.00000000E+00  0.00000000E+00
  0.00000000E+00  0.00000000E+00  0.00000000E+00
  0.00000000E+00  0.00000000E+00  0.00000000E+00
  0.00000000E+00  0.00000000E+00  0.00000000E+00
  0.00000000E+00  0.00000000E+00  0.00000000E+00
  0.00000000E+00  0.00000000E+00  0.00000000E+00
  0.00000000E+00  0.00000000E+00  0.00000000E+00
  0.00000000E+00  0.00000000E+00  0.00000000E+00
  0.00000000E+00  0.00000000E+00  0.00000000E+00
  0.00000000E+00  0.00000000E+00  0.00000000E+00
  0.00000000E+00  0.00000000E+00  0.00000000E+00
  0.00000000E+00  0.00000000E+00  0.00000000E+00
  0.00000000E+00  0.00000000E+00  0.00000000E+00
  0.00000000E+00  0.00000000E+00  0.00000000E+00
  0.00000000E+00  0.00000000E+00  0.00000000E+00
  0.00000000E+00  0.00000000E+00  0.00000000E+00
  0.00000000E+00  0.00000000E+00  0.00000000E+00
  0.00000000E+00  0.00000000E+00  0.00000000E+00
  0.00000000E+00  0.00000000E+00  0.00000000E+00
  0.00000000E+00  0.00000000E+00  0.00000000E+00
  0.00000000E+00  0.00000000E+00  0.00000000E+00
  0.00000000E+00  0.00000000E+00  0.00000000E+00
  0.00000000E+00  0.00000000E+00  0.00000000E+00
  0.00000000E+00  0.00000000E+00  0.00000000E+00
  0.00000000E+00  0.00000000E+00  0.00000000E+00
  0.00000000E+00  0.00000000E+00  0.00000000E+00
  0.00000000E+00  0.00000000E+00  0.00000000E+00
  0.00000000E+00  0.00000000E+00  0.00000000E+00
  0.00000000E+00  0.00000000E+00  0.00000000E+00
  0.00000000E+00  0.00000000E+00  0.00000000E+00
  0.00000000E+00  0.00000000E+00  0.00000000E+00
  0.00000000E+00  0.00000000E+00  0.00000000E+00
  0.00000000E+00  0.00000000E+00  0.00000000E+00
  0.00000000E+00  0.00000000E+00  0.00000000E+00
  0.00000000E+00  0.00000000E+00  0.00000000E+00
  0.00000000E+00  0.00000000E+00  0.00000000E+00
  0.00000000E+00  0.00000000E+00  0.00000000E+00
  0.00000000E+00  0.00000000E+00  0.00000000E+00
  0.00000000E+00  0.00000000E+00  0.00000000E+00
  0.00000000E+00  0.00000000E+00  0.00000000E+00
  0.00000000E+00  0.00000000E+00  0.00000000E+00
  0.00000000E+00  0.00000000E+00  0.00000000E+00
  0.00000000E+00  0.00000000E+00  0.00000000E+00
  0.00000000E+00  0.00000000E+00  0.00000000E+00
  0.00000000E+00  0.00000000E+00  0.00000000E+00
  0.00000000E+00  0.00000000E+00  0.00000000E+00
  0.00000000E+00  0.00000000E+00  0.00000000E+00
  0.00000000E+00  0.00000000E+00  0.00000000E+00
  0.00000000E+00  0.00000000E+00  0.00000000E+00
  0.00000000E+00  0.00000000E+00  0.00000000E+00
  0.00000000E+00  0.00000000E+00  0.00000000E+00
  0.00000000E+00  0.00000000E+00  0.00000000E+00
  0.00000000E+00  0.00000000E+00  0.00000000E+00
  0.00000000E+00  0.00000000E+00  0.00000000E+00
  0.00000000E+00  0.00000000E+00  0.00000000E+00
  0.00000000E+00  0.00000000E+00  0.00000000E+00
  0.00000000E+00  0.00000000E+00  0.00000000E+00
  0.00000000E+00  0.00000000E+00  0.00000000E+00
  0.00000000E+00  0.00000000E+00  0.00000000E+00
  0.00000000E+00  0.00000000E+00  0.00000000E+00
  0.00000000E+00  0.00000000E+00  0.00000000E+00
  0.00000000E+00  0.00000000E+00  0.00000000E+00
  0.00000000E+00  0.00000000E+00  0.00000000E+00
  0.00000000E+00  0.00000000E+00  0.00000000E+00
  0.00000000E+00  0.00000000E+00  0.00000000E+00
  0.00000000E+00  0.00000000E+00  0.00000000E+00
  0.00000000E+00  0.00000000E+00  0.00000000E+00
  0.00000000E+00  0.00000000E+00  0.00000000E+00
  0.00000000E+00  0.00000000E+00  0.00000000E+00
  0.00000000E+00  0.00000000E+00  0.00000000E+00
  0.00000000E+00  0.00000000E+00  0.00000000E+00
  0.00000000E+00  0.00000000E+00  0.00000000E+00
  0.00000000E+00  0.00000000E+00  0.00000000E+00
  0.00000000E+00  0.00000000E+00  0.00000000E+00
  0.00000000E+00  0.00000000E+00  0.00000000E+00
  0.00000000E+00  0.00000000E+00  0.00000000E+00
  0.00000000E+00  0.00000000E+00  0.00000000E+00
  0.00000000E+00  0.00000000E+00  0.00000000E+00
  0.00000000E+00  0.00000000E+00  0.00000000E+00
  0.00000000E+00  0.00000000E+00  0.00000000E+00
  0.00000000E+00  0.00000000E+00  0.00000000E+00
  0.00000000E+00  0.00000000E+00  0.00000000E+00
  0.00000000E+00  0.00000000E+00  0.00000000E+00
  0.00000000E+00  0.00000000E+00  0.00000000E+00
  0.00000000E+00  0.00000000E+00  0.00000000E+00
  0.00000000E+00  0.00000000E+00  0.00000000E+00
  0.00000000E+00  0.00000000E+00  0.00000000E+00
  0.00000000E+00  0.00000000E+00  0.00000000E+00
  0.00000000E+00  0.00000000E+00  0.00000000E+00
  0.00000000E+00  0.00000000E+00  0.00000000E+00
  0.00000000E+00  0.00000000E+00  0.00000000E+00
  0.00000000E+00  0.00000000E+00  0.00000000E+00
  0.00000000E+00  0.00000000E+00  0.00000000E+00
  0.00000000E+00  0.00000000E+00  0.00000000E+00
  0.00000000E+00  0.00000000E+00  0.00000000E+00
  0.00000000E+00  0.00000000E+00  0.00000000E+00
  0.00000000E+00  0.00000000E+00  0.00000000E+00
  0.00000000E+00  0.00000000E+00  0.00000000E+00
  0.00000000E+00  0.00000000E+00  0.00000000E+00
  0.00000000E+00  0.00000000E+00  0.00000000E+00
  0.00000000E+00  0.00000000E+00  0.00000000E+00
  0.00000000E+00  0.00000000E+00  0.00000000E+00
  0.00000000E+00  0.00000000E+00  0.00000000E+00
  0.00000000E+00  0.00000000E+00  0.00000000E+00
  0.00000000E+00  0.00000000E+00  0.00000000E+00
  0.00000000E+00  0.00000000E+00  0.00000000E+00
  0.00000000E+00  0.00000000E+00  0.00000000E+00
  0.00000000E+00  0.00000000E+00  0.00000000E+00
  0.00000000E+00  0.00000000E+00  0.00000000E+00
  0.00000000E+00  0.00000000E+00  0.00000000E+00
  0.00000000E+00  0.00000000E+00  0.00000000E+00
  0.00000000E+00  0.00000000E+00  0.00000000E+00
  0.00000000E+00  0.00000000E+00  0.00000000E+00
  0.00000000E+00  0.00000000E+00  0.00000000E+00
  0.00000000E+00  0.00000000E+00  0.00000000E+00
  0.00000000E+00  0.00000000E+00  0.00000000E+00
  0.00000000E+00  0.00000000E+00  0.00000000E+00
  0.00000000E+00  0.00000000E+00  0.00000000E+00
  0.00000000E+00  0.00000000E+00  0.00000000E+00
  0.00000000E+00  0.00000000E+00  0.00000000E+00
  0.00000000E+00  0.00000000E+00  0.00000000E+00
  0.00000000E+00  0.00000000E+00  0.00000000E+00
  0.00000000E+00  0.00000000E+00  0.00000000E+00
  0.00000000E+00  0.00000000E+00  0.00000000E+00
  0.00000000E+00  0.00000000E+00  0.00000000E+00
  0.00000000E+00  0.00000000E+00  0.00000000E+00
  0.00000000E+00  0.00000000E+00  0.00000000E+00
  0.00000000E+00  0.00000000E+00  0.00000000E+00
  0.00000000E+00  0.00000000E+00  0.00000000E+00
  0.00000000E+00  0.00000000E+00  0.00000000E+00
  0.00000000E+00  0.00000000E+00  0.00000000E+00
  0.00000000E+00  0.00000000E+00  0.00000000E+00
  0.00000000E+00  0.00000000E+00  0.00000000E+00
  0.00000000E+00  0.00000000E+00  0.00000000E+00
  0.00000000E+00  0.00000000E+00  0.00000000E+00
  0.00000000E+00  0.00000000E+00  0.00000000E+00
  0.00000000E+00  0.00000000E+00  0.00000000E+00
  0.00000000E+00  0.00000000E+00  0.00000000E+00
  0.00000000E+00  0.00000000E+00  0.00000000E+00
  0.00000000E+00  0.00000000E+00  0.00000000E+00
  0.00000000E+00  0.00000000E+00  0.00000000E+00
  0.00000000E+00  0.00000000E+00  0.00000000E+00
  0.00000000E+00  0.00000000E+00  0.00000000E+00
  0.00000000E+00  0.00000000E+00  0.00000000E+00
  0.00000000E+00  0.00000000E+00  0.00000000E+00
  0.00000000E+00  0.00000000E+00  0.00000000E+00
  0.00000000E+00  0.00000000E+00  0.00000000E+00
  0.00000000E+00  0.00000000E+00  0.00000000E+00
  0.00000000E+00  0.00000000E+00  0.00000000E+00
  0.00000000E+00  0.00000000E+00  0.00000000E+00
  0.00000000E+00  0.00000000E+00  0.00000000E+00
  0.00000000E+00  0.00000000E+00  0.00000000E+00
  0.00000000E+00  0.00000000E+00  0.00000000E+00
  0.00000000E+00  0.00000000E+00  0.00000000E+00
  0.00000000E+00  0.00000000E+00  0.00000000E+00