CuInSe2gb                               
   1.00000000000000     
     9.7266780392896699    0.0000000000000000    0.0000000000000000
     0.0000000000000000    8.4235502764570693    0.0000000000000000
     0.0000000000000000    0.0000000000000000   45.0000000000000000
   Fe   Mn
   281     7
Direct
  0.0540387786250248  0.7010890802999741  0.2112611254211568
  0.3181369909345657  0.7241659674368487  0.8762791075403401
  0.6880167767684431  0.9584141105539939  0.6113408987714775
  0.4384204206175100  0.4585690875981404  0.6115646967773214
  0.4406088975063153  0.2873990445525277  0.2550668704473650
  0.0585958945237744  0.3882209935693980  0.8335991044534241
  0.3085171381708269  0.8875706331033605  0.8335650390943347
  0.4468559492549843  0.6264477411157225  0.7004143318489011
  0.0597380083936336  0.2126061098189775  0.7449202151076784
  0.1788799843652180  0.4513497926534722  0.2113293430741546
  0.5678776660687757  0.2108139409635963  0.4774776917089416
  0.0666269199706352  0.8751492783345908  0.5669160532720854
  0.5681171191717004  0.2239633577550109  0.8761340004723120
  0.8091242304829936  0.5279426400851551  0.1239088762978242
  0.4290681970050826  0.9513067633860204  0.2113659790935072
  0.5664732708372482  0.3749790171482421  0.5668434790640576
  0.8112722172894343  0.0416987924020286  0.3883180848103214
  0.6818175665473769  0.7890215459687032  0.5223782224312039
  0.4427474954260810  0.4607571511305917  0.4774700073923661
  0.4338698599660098  0.9625620309193216  0.7447359173133784
  0.4417692214524058  0.6251607472026379  0.5668375507085044
  0.5713389332666574  0.8764395357790934  0.7005569744224242
  0.3092280540529390  0.0258900794802548  0.1238781437695561
  0.6900783009117376  0.9590482801456903  0.3440736322910797
  0.6879438668985808  0.7820072589468049  0.1241763885476107
  0.0526628509810650  0.3739236792009560  0.2995580040389424
  0.6897132219276939  0.4680132205803788  0.8761200912238526
  0.4289409911541758  0.4511969566897052  0.2114057705120340
  0.8084058153352481  0.3751006845258523  0.4330792838031017
  0.5635988154690961  0.7087065091432782  0.6115459660907493
  0.5600312237788850  0.5405117878771313  0.6559134381019314
  0.8177584221298658  0.8619639790580740  0.1667051102790961
  0.5657005048154520  0.5374775094732058  0.2551631645578611
  0.6898250122240821  0.4588569642346300  0.3440034072073359
  0.1917350139055096  0.6116463872935259  0.1663748594826625
  0.1944124186847073  0.7996760518252455  0.7888616283655180
  0.4466920548183923  0.1258616471343169  0.7003428130674019
  0.9279210577093671  0.6236456322849072  0.2995888762822250
  0.3176458203334723  0.2238224761753959  0.8761064965658302
  0.3167761213353342  0.8747650608971903  0.5668493771519336
  0.8173796440022260  0.2238082301834907  0.8762271313711432
  0.8096457223796282  0.5406796555300892  0.6558811692786802
  0.5589267800603460  0.5269132782520096  0.1238317231657331
  0.5692296291648338  0.0497234919569904  0.7890152888367306
  0.1906487351086150  0.2873981687212283  0.2551699690309123
  0.8084939819347268  0.8748405139111179  0.4330788123952822
  0.5721729754949637  0.3762686413362573  0.7004077504661801
  0.0572424281055364  0.0268537188893450  0.1240534286165536
  0.3097254886990133  0.5406626983187145  0.6558853816625342
  0.5652793916737821  0.2089577659020184  0.3440267557034629
  0.1880119422206364  0.9584866816152807  0.6114937696183252
  0.3028560691025484  0.3739975599105572  0.2996097216228463
  0.4347354634670818  0.7905055621844300  0.6559978815122899
  0.1949292778711238  0.2991961214196118  0.7888346010421593
  0.0674962093844108  0.3631558959213407  0.1666464407637148
  0.6973041257977365  0.6256755880489865  0.7004641560196381
  0.3115751078061400  0.5411381970646570  0.3884430952465818
  0.0676224874892465  0.7234486627886842  0.8761808124278297
  0.9337146383643325  0.6376619873629463  0.8340155498811266
  0.3199763358800197  0.5494865101115486  0.7889123812440620
  0.3045183899933189  0.2005453411001120  0.2111881057344250
  0.0680395652990214  0.7106930312786643  0.4774835581120375
  0.5544310435836644  0.2008371857218406  0.2110891639694322
  0.3095754944892292  0.2124684827165465  0.7448972852362596
  0.0714393630765347  0.3763756081773777  0.7005925205366001
  0.1833213174940531  0.6374582091268151  0.8335087620787980
  0.0693032351975538  0.0494054998639101  0.7890254488976637
  0.4415573121144270  0.1250408216616491  0.5669110409026211
  0.9346068002803022  0.2907971304706112  0.6558691699248559
  0.8042643446343497  0.2012963637522222  0.2111878619020210
  0.9292607523866194  0.9512807208206401  0.2112886383471374
  0.9415594831548078  0.6250485807719340  0.5668938403533134
  0.8082928587287899  0.3878174823625981  0.8335342665999859
  0.1966462364531150  0.6265468302827438  0.7003542094144342
  0.8086791175065986  0.8877707244544953  0.8335436850761918
  0.6846841971747611  0.2907101567054381  0.6559532731466442
  0.3129544504847165  0.2081810239089089  0.6114043351969360
  0.4347189447219877  0.4628987554973007  0.7446970641980022
  0.4363561534376923  0.7911658183635788  0.3884247711401808
  0.6846835230153513  0.9624999974508367  0.7447908575499751
  0.8038841375476580  0.7010474337299177  0.2112342650296732
  0.8131999216384909  0.7087436237593738  0.6115322667629298
  0.4372707433932090  0.7837796653898185  0.1239510363520151
  0.3098198386683247  0.7122117110181252  0.7448294329114211
  0.3200836099495174  0.0494113041676064  0.7888128557040527
  0.8113804725696104  0.5414128342975680  0.3883320137161604
  0.6825104444436600  0.2883819448292242  0.5222925691756640
  0.6948213510150637  0.7993181232453296  0.7889211916997213
  0.1904095311302827  0.7877399133101365  0.2551993594589764
  0.6918406081981804  0.1124531254696621  0.1666256508329974
  0.6927381442147008  0.9608233006724900  0.4774748239979386
  0.9402531409100379  0.9592078578294344  0.3441029745036971
  0.8072921389962993  0.0392807593175557  0.5224797286920451
  0.6834614848669096  0.6248987867888111  0.4330931218509589
  0.4401376592672804  0.4586332203708256  0.3440141924130997
  0.8101939141167205  0.2118326242057513  0.7446173207339064
  0.4397607122990494  0.9682252021145046  0.8761053254280757
  0.5666234063874710  0.8748696362054819  0.5668247643283428
  0.8093801179938275  0.0278607163008954  0.1239663141018942
  0.4280206614800516  0.6240020360431847  0.2994214621521404
  0.8168764028200055  0.7237946522198748  0.8763864969701829
  0.6878730543678063  0.4580686737475358  0.6114438399424839
  0.5584531185082703  0.3874319052865129  0.8334880508176401
  0.8027873261667237  0.3733969806537010  0.2994708295842479
  0.1864453115884851  0.2910958189078399  0.3883805917649689
  0.8199182313851057  0.5493076459329375  0.7889354428858230
  0.1824500713267574  0.7892628544800028  0.5225247417739763
  0.3029224524784391  0.8741014823816133  0.2995888270392909
  0.1782885078054716  0.9513551555305503  0.2112927142585104
  0.1846149330054979  0.4624134701582108  0.7448684101813123
  0.4325534754976695  0.2884889042976141  0.5223171535473571
  0.0652698489161545  0.7089882179074805  0.3439813189631981
  0.1849285787666077  0.7904881272692971  0.6558579819427717
  0.4447910988891852  0.7992669676673370  0.7888421645966193
  0.6834445760377477  0.1250650493480291  0.4329895024141451
  0.9322975753474524  0.7886409771558310  0.5223164133117355
  0.6918858808245033  0.6125082166300003  0.1666312549079545
  0.8147861354652569  0.7087015922798811  0.3439689497942348
  0.9343952330679404  0.4624645989338020  0.7449394420700935
  0.1903416040536848  0.4589332271536361  0.3440934403524377
  0.5696959292598690  0.5497940074695991  0.7891351234910056
  0.5664135826504477  0.3625088850026675  0.1664517408371196
  0.5648970654478139  0.7089864908549192  0.3439545839424424
  0.5528059315681843  0.3737932608657693  0.2996091891223599
  0.1897242700108683  0.4679758842120116  0.8760711039854495
  0.1915913886989652  0.1112928231933985  0.1663942997298664
  0.4446726899204648  0.2990080346515372  0.7887948392804853
  0.6909787465757241  0.7873364972104464  0.2553918861037180
  0.9335754313367569  0.1377712458077081  0.8335731651854191
  0.4428576844212537  0.9606873620958505  0.4774520353873788
  0.5675183155901168  0.7248284908401628  0.8762400488129103
  0.1926825419519491  0.4606302342086116  0.4774397843668500
  0.9343526660938887  0.2816572693864998  0.1241093213528970
  0.3114453895476765  0.0413638847353343  0.3883972122310417
  0.0600129244067243  0.0404738100437678  0.6559768015548065
  0.5584575683888776  0.3747540875638867  0.4330792937803641
  0.6837840917686632  0.4627418907735378  0.7450518975200013
  0.5602056561065886  0.2125878017724586  0.7448541324680770
  0.9465664903446912  0.1260773792508985  0.7004284684887593
  0.5596536829620666  0.0407358759826831  0.6558241547047795
  0.5570904746372083  0.5392188876430190  0.5225351164848983
  0.1780149371312364  0.1238698016618980  0.2995821522077315
  0.4418987837888410  0.1104382470765448  0.1663497458271810
  0.6777276176733039  0.6235585485510193  0.2995879402513519
  0.9278999324132181  0.1235845673742286  0.2996551167512700
  0.8164705788289769  0.3750749070792669  0.5669055611656660
  0.0530039418565231  0.8740335313290805  0.2995373333077426
  0.1915849028550267  0.6249043134501787  0.5669016220201252
  0.9445580478583568  0.7998851013753973  0.7889023813335015
  0.3083867104131954  0.3874659910431075  0.8335105084770559
  0.9395765180854265  0.4683690310616552  0.8761427159929741
  0.4335419675993207  0.6377167272503486  0.8335201337098284
  0.0651604293990096  0.2087815685823867  0.3439001977028084
  0.1898551597560023  0.9682576815374604  0.8760858696099297
  0.9348239946565389  0.7819720469362434  0.1241139885480619
  0.6863539184878505  0.7912459597846024  0.3883795984795425
  0.9347911362686759  0.7905883739682379  0.6558542679190297
  0.9413755707445891  0.1118913395137565  0.1665161332730982
  0.4350637995187466  0.2907267140072430  0.6560738627187481
  0.0542654881717719  0.2010695252155841  0.2112631622231439
  0.6788958844818261  0.9512686417141245  0.2112819387860825
  0.1783069266764146  0.6237867473226651  0.2994414886038102
  0.8218329759898776  0.8763072019597347  0.7004311537312052
  0.9464483054748571  0.6266554208356573  0.7005153012075926
  0.1962575161833863  0.1258350970785604  0.7003592166882869
  0.9429097382644056  0.4606608940539417  0.4774101384929834
  0.8130921766173982  0.2084477342410227  0.6115238797056719
  0.1833236220139823  0.6249635245327734  0.4331141202852720
  0.4280066949667601  0.1237077494586471  0.2994077113304258
  0.6781719343926220  0.1234057678327353  0.2994257810373595
  0.5615144527286361  0.5413032738515444  0.3884120049324257
  0.8146305734716375  0.2085582167821070  0.3439609686495097
  0.4397650374397578  0.4679167590283313  0.8759295679402278
  0.5586274684294370  0.8875694555815745  0.8334897838200107
  0.3179466085968410  0.2105606453559182  0.4774387215772253
  0.1929607826578086  0.9606979139785043  0.4774843348051779
  0.0585454826655538  0.8876276955255618  0.8335373510194406
  0.0571533183254284  0.5392512262172946  0.5224804627357871
  0.9426358543937863  0.9605886230181535  0.4773523638216974
  0.0631580157380007  0.7083853087051951  0.6115936989812623
  0.5574123155066943  0.0386480620038089  0.5223658888301865
  0.6949674934289658  0.2991537205571105  0.7888462130797913
  0.8177739193475068  0.3618347560889145  0.1666984475348025
  0.4335301089571740  0.1249070113359944  0.4330481482621498
  0.0678346745174298  0.2107985303384854  0.4774609128032437
  0.3097834887167809  0.0407027113390930  0.6558762421747539
  0.4322551051772094  0.7892503083932125  0.5224546523834339
  0.1836856129390563  0.1379090959576129  0.8335645034024377
  0.1855863388001501  0.2829825935369890  0.1242571387370750
  0.9403843956254734  0.4592714567049610  0.3441007960933923
  0.5666915569351069  0.8625779966169872  0.1664656769142283
  0.3040364864770631  0.7007898960694863  0.2112530876589387
  0.9412936354576765  0.6122631905479924  0.1665181266037575
  0.1881768540554835  0.4586172931203232  0.6114983687983470
  0.0720615086340723  0.8766284822088016  0.7002826859757760
  0.0597720121432347  0.5406491090462813  0.6558709946298206
  0.3082066614162478  0.5262174865370111  0.1239678953720088
  0.9363343026984089  0.7911017619419332  0.3884449056258333
  0.9445761670873750  0.2989602026227708  0.7887964085990096
  0.1848338454453545  0.2907668846159452  0.6559637336812840
  0.9378208083521918  0.9580310823859325  0.6113423779840557
  0.8107155989795632  0.7112768885236642  0.7446466513291604
  0.6908650800771479  0.2876627144986091  0.2552896818872703
  0.0592854070698141  0.7122388635203255  0.7449808933334677
  0.6789116499032083  0.4513134028574116  0.2112434505399817
  0.8179594557663462  0.2107508439344929  0.4775241011906280
  0.5676823928451515  0.7106150815954198  0.4774141252346678
  0.0677522462221744  0.8634783542275443  0.1666040722232958
  0.9323182949768951  0.2888521963736581  0.5224863246815835
  0.6845259089032031  0.7906030826902923  0.6559080575647520
  0.0583617094256231  0.8746724152339507  0.4331139530917083
  0.0682310389117074  0.2232343182320327  0.8761552653912742
  0.8098833202707129  0.0406317370556800  0.6559920751065046
  0.5596068657075808  0.0269168432579785  0.1238470812318612
  0.3085529723574162  0.3748389168152118  0.4330351087595367
  0.3165807679147051  0.3749206889416203  0.5668852675247168
  0.3176915982358398  0.7105169707952544  0.4773598108198042
  0.0570171737729399  0.0390428657113766  0.5225538299809920
  0.3215516274744736  0.8764851618654086  0.7005750504164872
  0.0650770253195521  0.5375631028519576  0.2551135055880620
  0.6836105011778110  0.1377549998635045  0.8335244059775698
  0.8150853941830681  0.0375288687612525  0.2551895775658208
  0.1836280931538401  0.1249577788238022  0.4331035296564701
  0.6972719236371271  0.1263638672229406  0.7003990218348790
  0.1824157134239407  0.2891969251836846  0.5224934964291421
  0.4406225387682127  0.7877156405779224  0.2552573770046374
  0.4415221138071944  0.6106084533561505  0.1664138458837113
  0.0632513338048361  0.2084013669194492  0.6114842848421603
  0.1860696142511848  0.7912272203738424  0.3883717285322604
  0.3074048653138519  0.5389104601194978  0.5224985965273149
  0.9333956487106723  0.1248988052058454  0.4330925065515835
  0.6864005297257041  0.2912775796491014  0.3883860576242427
  0.1915727838883732  0.1252095560709344  0.5668989324885876
  0.6896261406127208  0.9684641974539338  0.8761169005168484
  0.6916075680988693  0.1250499945122906  0.5668814333718406
  0.4401602373236619  0.9589276719133178  0.3440601874788835
  0.1837672305893555  0.9625569405688578  0.7448267832269380
  0.9405808397605707  0.7876197744335561  0.2552162456042702
  0.5583784333265617  0.8750159188123925  0.4330867549671928
  0.3082811891830321  0.8752107154568842  0.4330936375169571
  0.8073806193210776  0.5393739448857312  0.5225228120890878
  0.9292325002772717  0.4512676044412732  0.2112841822727925
  0.3153255249942482  0.5377943765614182  0.2550951497954129
  0.5615231314901703  0.0413137687883226  0.3883858443450841
  0.9379051412832845  0.4582377157546801  0.6115302830849719
  0.0613369798834639  0.0413391614196826  0.3884289300908750
  0.0615846307743869  0.5412590777077567  0.3884278076484238
  0.4365759362124465  0.2912045397911077  0.3883751004085352
  0.6929808396314967  0.4604826671728802  0.4774703471781321
  0.0667770179720090  0.3751328799349554  0.5668910979789725
  0.5541735506398207  0.7008954189580860  0.2111021635457421
  0.9409336735940919  0.2874338031900242  0.2553806765859257
  0.8190278705762830  0.0496111260577384  0.7891801457747529
  0.1899823507260990  0.9589689848611234  0.3440001581246049
  0.5528996607508618  0.8738605378352680  0.2996357887261997
  0.0585634353157396  0.3749307965388288  0.4331286693681052
  0.3151036692471046  0.7090720729317549  0.3439977385973582
  0.3148978186519943  0.2090508041133610  0.3439504152159058
  0.9418225955829173  0.1249884660843390  0.5667494345773336
  0.4384576896001626  0.9587511767384015  0.6115774395234714
  0.5654933513298916  0.0374904959783317  0.2550283866879475
  0.1859465074921676  0.7828029298439890  0.1242259516547905
  0.0652743684881670  0.0371919861185483  0.2551298213548766
  0.6916993179135529  0.6250355589104878  0.5668773342884560
  0.0569655924434833  0.5259825373400873  0.1241190303669218
  0.3070703480050766  0.0385800683407867  0.5222336017933917
  0.6874886261948204  0.2819863589595982  0.1241719240957400
  0.8179625385187012  0.7106839448063337  0.4774352352511149
  0.4334570178377234  0.1378422224313939  0.8335501205590222
  0.3222824629609641  0.3762974559574556  0.7003702975104474
  0.6836792273241367  0.6379141795260483  0.8335060196876138
  0.5596810257376935  0.7122383894770292  0.7448846292226667
  0.9368242331673722  0.2915748023994261  0.3884789117711315
  0.9398242076804113  0.9684269526940803  0.8761264029539892
  0.5628027198407695  0.2082441369308277  0.6112482359094333
  0.8165343201247676  0.8749566157336329  0.5668811329643322
  0.8033375148583031  0.8734186507914806  0.2994455851765163
  0.3152046310984247  0.0376772723014982  0.2551283189922208
  0.4367948645301085  0.2836291381375942  0.1240313355160889
  0.3132678267836126  0.7084078058983159  0.6115891955691504
  0.4335055582947067  0.6250424572764366  0.4331107415612469
  0.9327798330638681  0.6250340728161901  0.4332512872151744
  0.3182154933409327  0.8628000709288796  0.1657008608425729
  0.0708597638142436  0.5494466637148824  0.7887475794363248
  0.8221500811435941  0.3767384643959996  0.7002536424239110
  0.3185141521500207  0.3632600849603463  0.1657560604821275
  0.9328962279892125  0.9618153743428213  0.7447772508334838
  0.8159985303019794  0.5374610338842117  0.2554976917553251
 
  0.00000000E+00  0.00000000E+00  0.00000000E+00
  0.00000000E+00  0.00000000E+00  0.00000000E+00
  0.00000000E+00  0.00000000E+00  0.00000000E+00
  0.00000000E+00  0.00000000E+00  0.00000000E+00
  0.00000000E+00  0.00000000E+00  0.00000000E+00
  0.00000000E+00  0.00000000E+00  0.00000000E+00
  0.00000000E+00  0.00000000E+00  0.00000000E+00
  0.00000000E+00  0.00000000E+00  0.00000000E+00
  0.00000000E+00  0.00000000E+00  0.00000000E+00
  0.00000000E+00  0.00000000E+00  0.00000000E+00
  0.00000000E+00  0.00000000E+00  0.00000000E+00
  0.00000000E+00  0.00000000E+00  0.00000000E+00
  0.00000000E+00  0.00000000E+00  0.00000000E+00
  0.00000000E+00  0.00000000E+00  0.00000000E+00
  0.00000000E+00  0.00000000E+00  0.00000000E+00
  0.00000000E+00  0.00000000E+00  0.00000000E+00
  0.00000000E+00  0.00000000E+00  0.00000000E+00
  0.00000000E+00  0.00000000E+00  0.00000000E+00
  0.00000000E+00  0.00000000E+00  0.00000000E+00
  0.00000000E+00  0.00000000E+00  0.00000000E+00
  0.00000000E+00  0.00000000E+00  0.00000000E+00
  0.00000000E+00  0.00000000E+00  0.00000000E+00
  0.00000000E+00  0.00000000E+00  0.00000000E+00
  0.00000000E+00  0.00000000E+00  0.00000000E+00
  0.00000000E+00  0.00000000E+00  0.00000000E+00
  0.00000000E+00  0.00000000E+00  0.00000000E+00
  0.00000000E+00  0.00000000E+00  0.00000000E+00
  0.00000000E+00  0.00000000E+00  0.00000000E+00
  0.00000000E+00  0.00000000E+00  0.00000000E+00
  0.00000000E+00  0.00000000E+00  0.00000000E+00
  0.00000000E+00  0.00000000E+00  0.00000000E+00
  0.00000000E+00  0.00000000E+00  0.00000000E+00
  0.00000000E+00  0.00000000E+00  0.00000000E+00
  0.00000000E+00  0.00000000E+00  0.00000000E+00
  0.00000000E+00  0.00000000E+00  0.00000000E+00
  0.00000000E+00  0.00000000E+00  0.00000000E+00
  0.00000000E+00  0.00000000E+00  0.00000000E+00
  0.00000000E+00  0.00000000E+00  0.00000000E+00
  0.00000000E+00  0.00000000E+00  0.00000000E+00
  0.00000000E+00  0.00000000E+00  0.00000000E+00
  0.00000000E+00  0.00000000E+00  0.00000000E+00
  0.00000000E+00  0.00000000E+00  0.00000000E+00
  0.00000000E+00  0.00000000E+00  0.00000000E+00
  0.00000000E+00  0.00000000E+00  0.00000000E+00
  0.00000000E+00  0.00000000E+00  0.00000000E+00
  0.00000000E+00  0.00000000E+00  0.00000000E+00
  0.00000000E+00  0.00000000E+00  0.00000000E+00
  0.00000000E+00  0.00000000E+00  0.00000000E+00
  0.00000000E+00  0.00000000E+00  0.00000000E+00
  0.00000000E+00  0.00000000E+00  0.00000000E+00
  0.00000000E+00  0.00000000E+00  0.00000000E+00
  0.00000000E+00  0.00000000E+00  0.00000000E+00
  0.00000000E+00  0.00000000E+00  0.00000000E+00
  0.00000000E+00  0.00000000E+00  0.00000000E+00
  0.00000000E+00  0.00000000E+00  0.00000000E+00
  0.00000000E+00  0.00000000E+00  0.00000000E+00
  0.00000000E+00  0.00000000E+00  0.00000000E+00
  0.00000000E+00  0.00000000E+00  0.00000000E+00
  0.00000000E+00  0.00000000E+00  0.00000000E+00
  0.00000000E+00  0.00000000E+00  0.00000000E+00
  0.00000000E+00  0.00000000E+00  0.00000000E+00
  0.00000000E+00  0.00000000E+00  0.00000000E+00
  0.00000000E+00  0.00000000E+00  0.00000000E+00
  0.00000000E+00  0.00000000E+00  0.00000000E+00
  0.00000000E+00  0.00000000E+00  0.00000000E+00
  0.00000000E+00  0.00000000E+00  0.00000000E+00
  0.00000000E+00  0.00000000E+00  0.00000000E+00
  0.00000000E+00  0.00000000E+00  0.00000000E+00
  0.00000000E+00  0.00000000E+00  0.00000000E+00
  0.00000000E+00  0.00000000E+00  0.00000000E+00
  0.00000000E+00  0.00000000E+00  0.00000000E+00
  0.00000000E+00  0.00000000E+00  0.00000000E+00
  0.00000000E+00  0.00000000E+00  0.00000000E+00
  0.00000000E+00  0.00000000E+00  0.00000000E+00
  0.00000000E+00  0.00000000E+00  0.00000000E+00
  0.00000000E+00  0.00000000E+00  0.00000000E+00
  0.00000000E+00  0.00000000E+00  0.00000000E+00
  0.00000000E+00  0.00000000E+00  0.00000000E+00
  0.00000000E+00  0.00000000E+00  0.00000000E+00
  0.00000000E+00  0.00000000E+00  0.00000000E+00
  0.00000000E+00  0.00000000E+00  0.00000000E+00
  0.00000000E+00  0.00000000E+00  0.00000000E+00
  0.00000000E+00  0.00000000E+00  0.00000000E+00
  0.00000000E+00  0.00000000E+00  0.00000000E+00
  0.00000000E+00  0.00000000E+00  0.00000000E+00
  0.00000000E+00  0.00000000E+00  0.00000000E+00
  0.00000000E+00  0.00000000E+00  0.00000000E+00
  0.00000000E+00  0.00000000E+00  0.00000000E+00
  0.00000000E+00  0.00000000E+00  0.00000000E+00
  0.00000000E+00  0.00000000E+00  0.00000000E+00
  0.00000000E+00  0.00000000E+00  0.00000000E+00
  0.00000000E+00  0.00000000E+00  0.00000000E+00
  0.00000000E+00  0.00000000E+00  0.00000000E+00
  0.00000000E+00  0.00000000E+00  0.00000000E+00
  0.00000000E+00  0.00000000E+00  0.00000000E+00
  0.00000000E+00  0.00000000E+00  0.00000000E+00
  0.00000000E+00  0.00000000E+00  0.00000000E+00
  0.00000000E+00  0.00000000E+00  0.00000000E+00
  0.00000000E+00  0.00000000E+00  0.00000000E+00
  0.00000000E+00  0.00000000E+00  0.00000000E+00
  0.00000000E+00  0.00000000E+00  0.00000000E+00
  0.00000000E+00  0.00000000E+00  0.00000000E+00
  0.00000000E+00  0.00000000E+00  0.00000000E+00
  0.00000000E+00  0.00000000E+00  0.00000000E+00
  0.00000000E+00  0.00000000E+00  0.00000000E+00
  0.00000000E+00  0.00000000E+00  0.00000000E+00
  0.00000000E+00  0.00000000E+00  0.00000000E+00
  0.00000000E+00  0.00000000E+00  0.00000000E+00
  0.00000000E+00  0.00000000E+00  0.00000000E+00
  0.00000000E+00  0.00000000E+00  0.00000000E+00
  0.00000000E+00  0.00000000E+00  0.00000000E+00
  0.00000000E+00  0.00000000E+00  0.00000000E+00
  0.00000000E+00  0.00000000E+00  0.00000000E+00
  0.00000000E+00  0.00000000E+00  0.00000000E+00
  0.00000000E+00  0.00000000E+00  0.00000000E+00
  0.00000000E+00  0.00000000E+00  0.00000000E+00
  0.00000000E+00  0.00000000E+00  0.00000000E+00
  0.00000000E+00  0.00000000E+00  0.00000000E+00
  0.00000000E+00  0.00000000E+00  0.00000000E+00
  0.00000000E+00  0.00000000E+00  0.00000000E+00
  0.00000000E+00  0.00000000E+00  0.00000000E+00
  0.00000000E+00  0.00000000E+00  0.00000000E+00
  0.00000000E+00  0.00000000E+00  0.00000000E+00
  0.00000000E+00  0.00000000E+00  0.00000000E+00
  0.00000000E+00  0.00000000E+00  0.00000000E+00
  0.00000000E+00  0.00000000E+00  0.00000000E+00
  0.00000000E+00  0.00000000E+00  0.00000000E+00
  0.00000000E+00  0.00000000E+00  0.00000000E+00
  0.00000000E+00  0.00000000E+00  0.00000000E+00
  0.00000000E+00  0.00000000E+00  0.00000000E+00
  0.00000000E+00  0.00000000E+00  0.00000000E+00
  0.00000000E+00  0.00000000E+00  0.00000000E+00
  0.00000000E+00  0.00000000E+00  0.00000000E+00
  0.00000000E+00  0.00000000E+00  0.00000000E+00
  0.00000000E+00  0.00000000E+00  0.00000000E+00
  0.00000000E+00  0.00000000E+00  0.00000000E+00
  0.00000000E+00  0.00000000E+00  0.00000000E+00
  0.00000000E+00  0.00000000E+00  0.00000000E+00
  0.00000000E+00  0.00000000E+00  0.00000000E+00
  0.00000000E+00  0.00000000E+00  0.00000000E+00
  0.00000000E+00  0.00000000E+00  0.00000000E+00
  0.00000000E+00  0.00000000E+00  0.00000000E+00
  0.00000000E+00  0.00000000E+00  0.00000000E+00
  0.00000000E+00  0.00000000E+00  0.00000000E+00
  0.00000000E+00  0.00000000E+00  0.00000000E+00
  0.00000000E+00  0.00000000E+00  0.00000000E+00
  0.00000000E+00  0.00000000E+00  0.00000000E+00
  0.00000000E+00  0.00000000E+00  0.00000000E+00
  0.00000000E+00  0.00000000E+00  0.00000000E+00
  0.00000000E+00  0.00000000E+00  0.00000000E+00
  0.00000000E+00  0.00000000E+00  0.00000000E+00
  0.00000000E+00  0.00000000E+00  0.00000000E+00
  0.00000000E+00  0.00000000E+00  0.00000000E+00
  0.00000000E+00  0.00000000E+00  0.00000000E+00
  0.00000000E+00  0.00000000E+00  0.00000000E+00
  0.00000000E+00  0.00000000E+00  0.00000000E+00
  0.00000000E+00  0.00000000E+00  0.00000000E+00
  0.00000000E+00  0.00000000E+00  0.00000000E+00
  0.00000000E+00  0.00000000E+00  0.00000000E+00
  0.00000000E+00  0.00000000E+00  0.00000000E+00
  0.00000000E+00  0.00000000E+00  0.00000000E+00
  0.00000000E+00  0.00000000E+00  0.00000000E+00
  0.00000000E+00  0.00000000E+00  0.00000000E+00
  0.00000000E+00  0.00000000E+00  0.00000000E+00
  0.00000000E+00  0.00000000E+00  0.00000000E+00
  0.00000000E+00  0.00000000E+00  0.00000000E+00
  0.00000000E+00  0.00000000E+00  0.00000000E+00
  0.00000000E+00  0.00000000E+00  0.00000000E+00
  0.00000000E+00  0.00000000E+00  0.00000000E+00
  0.00000000E+00  0.00000000E+00  0.00000000E+00
  0.00000000E+00  0.00000000E+00  0.00000000E+00
  0.00000000E+00  0.00000000E+00  0.00000000E+00
  0.00000000E+00  0.00000000E+00  0.00000000E+00
  0.00000000E+00  0.00000000E+00  0.00000000E+00
  0.00000000E+00  0.00000000E+00  0.00000000E+00
  0.00000000E+00  0.00000000E+00  0.00000000E+00
  0.00000000E+00  0.00000000E+00  0.00000000E+00
  0.00000000E+00  0.00000000E+00  0.00000000E+00
  0.00000000E+00  0.00000000E+00  0.00000000E+00
  0.00000000E+00  0.00000000E+00  0.00000000E+00
  0.00000000E+00  0.00000000E+00  0.00000000E+00
  0.00000000E+00  0.00000000E+00  0.00000000E+00
  0.00000000E+00  0.00000000E+00  0.00000000E+00
  0.00000000E+00  0.00000000E+00  0.00000000E+00
  0.00000000E+00  0.00000000E+00  0.00000000E+00
  0.00000000E+00  0.00000000E+00  0.00000000E+00
  0.00000000E+00  0.00000000E+00  0.00000000E+00
  0.00000000E+00  0.00000000E+00  0.00000000E+00
  0.00000000E+00  0.00000000E+00  0.00000000E+00
  0.00000000E+00  0.00000000E+00  0.00000000E+00
  0.00000000E+00  0.00000000E+00  0.00000000E+00
  0.00000000E+00  0.00000000E+00  0.00000000E+00
  0.00000000E+00  0.00000000E+00  0.00000000E+00
  0.00000000E+00  0.00000000E+00  0.00000000E+00
  0.00000000E+00  0.00000000E+00  0.00000000E+00
  0.00000000E+00  0.00000000E+00  0.00000000E+00
  0.00000000E+00  0.00000000E+00  0.00000000E+00
  0.00000000E+00  0.00000000E+00  0.00000000E+00
  0.00000000E+00  0.00000000E+00  0.00000000E+00
  0.00000000E+00  0.00000000E+00  0.00000000E+00
  0.00000000E+00  0.00000000E+00  0.00000000E+00
  0.00000000E+00  0.00000000E+00  0.00000000E+00
  0.00000000E+00  0.00000000E+00  0.00000000E+00
  0.00000000E+00  0.00000000E+00  0.00000000E+00
  0.00000000E+00  0.00000000E+00  0.00000000E+00
  0.00000000E+00  0.00000000E+00  0.00000000E+00
  0.00000000E+00  0.00000000E+00  0.00000000E+00
  0.00000000E+00  0.00000000E+00  0.00000000E+00
  0.00000000E+00  0.00000000E+00  0.00000000E+00
  0.00000000E+00  0.00000000E+00  0.00000000E+00
  0.00000000E+00  0.00000000E+00  0.00000000E+00
  0.00000000E+00  0.00000000E+00  0.00000000E+00
  0.00000000E+00  0.00000000E+00  0.00000000E+00
  0.00000000E+00  0.00000000E+00  0.00000000E+00
  0.00000000E+00  0.00000000E+00  0.00000000E+00
  0.00000000E+00  0.00000000E+00  0.00000000E+00
  0.00000000E+00  0.00000000E+00  0.00000000E+00
  0.00000000E+00  0.00000000E+00  0.00000000E+00
  0.00000000E+00  0.00000000E+00  0.00000000E+00
  0.00000000E+00  0.00000000E+00  0.00000000E+00
  0.00000000E+00  0.00000000E+00  0.00000000E+00
  0.00000000E+00  0.00000000E+00  0.00000000E+00
  0.00000000E+00  0.00000000E+00  0.00000000E+00
  0.00000000E+00  0.00000000E+00  0.00000000E+00
  0.00000000E+00  0.00000000E+00  0.00000000E+00
  0.00000000E+00  0.00000000E+00  0.00000000E+00
  0.00000000E+00  0.00000000E+00  0.00000000E+00
  0.00000000E+00  0.00000000E+00  0.00000000E+00
  0.00000000E+00  0.00000000E+00  0.00000000E+00
  0.00000000E+00  0.00000000E+00  0.00000000E+00
  0.00000000E+00  0.00000000E+00  0.00000000E+00
  0.00000000E+00  0.00000000E+00  0.00000000E+00
  0.00000000E+00  0.00000000E+00  0.00000000E+00
  0.00000000E+00  0.00000000E+00  0.00000000E+00
  0.00000000E+00  0.00000000E+00  0.00000000E+00
  0.00000000E+00  0.00000000E+00  0.00000000E+00
  0.00000000E+00  0.00000000E+00  0.00000000E+00
  0.00000000E+00  0.00000000E+00  0.00000000E+00
  0.00000000E+00  0.00000000E+00  0.00000000E+00
  0.00000000E+00  0.00000000E+00  0.00000000E+00
  0.00000000E+00  0.00000000E+00  0.00000000E+00
  0.00000000E+00  0.00000000E+00  0.00000000E+00
  0.00000000E+00  0.00000000E+00  0.00000000E+00
  0.00000000E+00  0.00000000E+00  0.00000000E+00
  0.00000000E+00  0.00000000E+00  0.00000000E+00
  0.00000000E+00  0.00000000E+00  0.00000000E+00
  0.00000000E+00  0.00000000E+00  0.00000000E+00