CuInSe2gb                               
   1.00000000000000     
     9.7266780392896699    0.0000000000000000    0.0000000000000000
     0.0000000000000000    8.4235502764570693    0.0000000000000000
     0.0000000000000000    0.0000000000000000   45.0000000000000000
   Fe   Mn
   274    14
Direct
  0.0619775142139156  0.0297474997050663  0.1240726348817304
  0.3161904884110662  0.8744642031772899  0.6549813924670191
  0.1841485358050752  0.1230740431547393  0.7888155387321610
  0.4414740624682215  0.2877579927451888  0.3891295310003918
  0.3176516392050757  0.7131393915675244  0.8332242336823710
  0.8172697456214905  0.2131067751009182  0.8334280629616414
  0.1910490416928634  0.9629048344989324  0.8335883144705520
  0.5622510243580536  0.2071645973288958  0.5655308152172311
  0.0656729103959139  0.0404250140675345  0.7442485326100676
  0.8115055247060983  0.8714202475076259  0.5214014628745234
  0.1907658002040770  0.2903769115024418  0.7444089994482846
  0.9337956184382753  0.4521849650103677  0.3448915073056589
  0.9409648971187031  0.2864897883155590  0.3888517965074236
  0.8123571291284052  0.0415246236533705  0.8757769243728585
  0.1838455436980601  0.7882153408581670  0.6109711843344067
  0.5663812631980326  0.0378971658938767  0.3890328502468793
  0.9418617874756389  0.9635270658101217  0.8335954566503506
  0.3131693651971283  0.5397057856709767  0.8758716276085483
  0.6903314640868733  0.2908518975056661  0.7443075068645261
  0.1821003980558150  0.6139718301981826  0.1664923792010305
  0.8123091150958922  0.2058385677650055  0.4787150398417117
  0.8089523659555058  0.5383793819896505  0.6110272407547190
  0.3119155032522675  0.8698174664074108  0.4344731915986690
  0.8101017691084027  0.0384383263954637  0.2558663152447480
  0.6837059415427379  0.9514525766793095  0.3448046761862111
  0.9306576622494952  0.1149554224360257  0.1668629742240092
  0.0616002433292532  0.8714793225102576  0.5214292332546794
  0.5586027584858917  0.5381271962935428  0.2555072207314125
  0.6866823097879625  0.7962613305219276  0.8758502721193787
  0.5567836773615440  0.3656874385122912  0.1664728281403284
  0.4398003261648754  0.7913750686486589  0.7445185251706031
  0.8117234470317076  0.7069247664836684  0.5655349696366517
  0.5597510902277886  0.8726255531194921  0.7886354865808909
  0.6865314696803788  0.1217591211757564  0.5213895602918674
  0.8161967970385080  0.3746465893120738  0.6550201084440735
  0.9417609410920358  0.4636066685654543  0.8335473362414620
  0.0604537604719590  0.2075655669760648  0.6997043891615249
  0.4351137628100483  0.9577212636086534  0.6997466388448067
  0.3163936514567275  0.2127181223847392  0.8335131531095405
  0.4415676894006217  0.6248352714849245  0.6549993787396370
  0.3090098469900799  0.5384174832983021  0.6109677393890991
  0.9367568101853756  0.4567321671130989  0.5655759626057429
  0.6900764640170279  0.7914206707634599  0.7443591699847510
  0.9341104673591033  0.7888810581971026  0.1243097786944531
  0.6915891142818994  0.7878231409070942  0.3889801087564806
  0.9405283171492044  0.7907458768249324  0.7444001897888964
  0.0588453003952741  0.2027639154835731  0.3449870354168766
  0.6839879552821394  0.4525185590745102  0.3450596849104117
  0.4349604807775015  0.1225792157991042  0.7888826475017606
  0.0650010398021175  0.2055029642169369  0.2111710283726523
  0.0554836319291436  0.3657734146310672  0.1666041360788622
  0.9335869709171800  0.7878285830361110  0.2557051088552615
  0.5605471013369121  0.2073559953350768  0.6997589482212885
  0.6850953520332502  0.9574557023740186  0.6997236180603936
  0.8098344147578570  0.8727114669061249  0.7885484255083658
  0.4369639333519147  0.9576966816319429  0.5653200773241553
  0.8099379272725924  0.3734460513707482  0.7885353211297199
  0.6844318976092630  0.2887740139950146  0.2561507455192224
  0.1871226625726046  0.4572813228263774  0.5655236406798738
  0.0560610530155222  0.8658127605976306  0.1665686035042050
  0.1840658339923308  0.2888195903788321  0.6110398669618040
  0.0622796980635139  0.2075983039210596  0.5653193828266763
  0.3104805986547338  0.2078586380253201  0.6997527857994580
  0.5634742589313267  0.5399050815245121  0.8757766738941648
  0.0620210462833408  0.7068748178061848  0.5655501443776036
  0.6839946438396222  0.6226568411192801  0.7885763201578230
  0.3158504862249493  0.5380289177233343  0.3890177635576748
  0.1866458649468327  0.6213584002366997  0.5214218765567096
  0.5620450570100702  0.8703529656029307  0.4344705153228159
  0.4371006337740761  0.4569016911936482  0.5655808221905294
  0.4401294643914054  0.2913382849919166  0.7442687177355704
  0.8196847716072030  0.8749954746406411  0.3003250650405262
  0.8090936838276556  0.7029142508401339  0.3450039226175985
  0.4421303594033480  0.4628089408653665  0.8334375674674668
  0.6872415097527907  0.9556458570027413  0.4786826340877155
  0.6849091501263356  0.4576386783924078  0.6997282959650214
  0.5616377546540039  0.8718762982910991  0.5214217873682255
  0.5661605332355457  0.3746425814562292  0.6549933593845364
  0.8161115478427059  0.8743876183176374  0.6550408664901461
  0.8116754872198993  0.3710921269181474  0.4342675443558850
  0.8084740784528289  0.5384001551889825  0.2558729426516990
  0.6915016773989999  0.4629333538570758  0.8331778344513077
  0.1859119067497107  0.7886835484763849  0.1239394347290921
  0.6915782612291946  0.2872389030755850  0.3890230888732864
  0.3162426952168266  0.3745329599928451  0.6549863912155504
  0.3097790359792781  0.2031619675612506  0.3447597435415998
  0.8155051965692810  0.5405571226926937  0.7444149849333722
  0.6918627193510738  0.9623205222334549  0.8334774300239001
  0.5660329385426833  0.8743831901447459  0.6549491950338373
  0.3116701472185451  0.7072538358730212  0.5654882206688587
  0.3122065829770528  0.5300752087866176  0.1238557488243694
  0.6892804235977783  0.9549158579374564  0.2116140031678648
  0.3115299775556551  0.2068272854417003  0.5655459490660228
  0.1873387191691269  0.9559682328158476  0.4787171319837611
  0.6874893058066648  0.9570828377030891  0.5655083540731896
  0.4337830403198981  0.7884206129173449  0.6108625048724443
  0.6825083076847505  0.6124673954302270  0.1661466279177300
  0.3185817328165278  0.8745416455070290  0.3002299107190949
  0.3120591859590723  0.7057015359296365  0.4786586583783922
  0.9337230706334740  0.2881307803420557  0.6109689809898449
  0.4443629476219573  0.6245127459668078  0.3002767070238917
  0.8071922689761725  0.8635459496547555  0.1667713906358181
  0.5662978474898530  0.2033323071882398  0.2114430312865323
  0.9323676573506851  0.6131597114442990  0.1667059806618900
  0.4371526748684201  0.9557966211199620  0.4785994839225547
  0.5598107459538049  0.3726291963063088  0.7888140176781568
  0.0614354063901534  0.3721132540854529  0.5213818584147775
  0.3071573580220069  0.3649640480808147  0.1665608873272920
  0.6949423149097097  0.1235319941648325  0.3003522216184795
  0.4426220623207525  0.9626009887064693  0.8333212124956830
  0.1850167316887624  0.2872163305145273  0.1240422603983655
  0.1843131379445925  0.2887422045441935  0.2560522117032148
  0.3125790527943624  0.3702766255842036  0.4344113755867521
  0.5619398059040381  0.0326739797911807  0.1242199540259983
  0.4340505458124485  0.2883408342101033  0.6109334342069136
  0.1841566331066136  0.4526660771633693  0.3450392857363203
  0.4347891049899789  0.2870986306009758  0.1240049760829671
  0.6835341893712806  0.7883801792793074  0.2557762110765282
  0.4365893171781580  0.1214315575916864  0.5214250347329176
  0.1883018916037288  0.2945598076942926  0.8759479062927525
  0.1912828082977583  0.1248573113478704  0.6550555133223405
  0.9412406530692867  0.1247743084008596  0.6550329083921181
  0.8163748788384616  0.5373800277047661  0.3890441744628600
  0.0665308708021088  0.0379724558909218  0.3891593635479556
  0.1834750553221041  0.1120366906877697  0.1665622317611595
  0.0586467258705688  0.5381809141574775  0.6110469564481693
  0.9342664016861508  0.2889053113732926  0.2559631393070277
  0.5589920025278240  0.5383642207125086  0.6109656274458420
  0.9367166440019422  0.9574127909432364  0.5654934268446814
  0.6935838499554289  0.6244373100690488  0.3001941193680159
  0.9371721587965105  0.6193163824677987  0.4346828868213506
  0.9349034812923950  0.6228238206915698  0.7885998478905231
  0.5604221299195961  0.7072689876791447  0.6996859337972348
  0.0665325863174768  0.7145792441637473  0.8337808671034043
  0.9441249836411338  0.1231039454424365  0.3000249792822335
  0.9336613984728187  0.7880450414151250  0.6110247031816765
  0.4335107228110210  0.7882522174730912  0.2557083657791933
  0.3094924052657715  0.3731280788077155  0.7887764526104910
  0.4392376455950004  0.4543517662205733  0.2112744129526225
  0.1868317182930380  0.1216934732849084  0.5214312655412291
  0.8102603106263940  0.7073950921643043  0.6997462564599954
  0.0589216515063996  0.0382724169527138  0.6108766873443096
  0.5667225664937505  0.2136536188035809  0.8333319706088086
  0.3117342519924324  0.8715841082695218  0.5214201024999467
  0.6861078471874171  0.2871787836844840  0.1238064204530301
  0.1896570808191292  0.9551627485477188  0.2117011001231258
  0.6837439613860684  0.2885058580250677  0.6110019466929509
  0.3089309679842875  0.0382294828311172  0.6110347908772957
  0.9352065217359851  0.1236371006943232  0.7886479463664602
  0.4365522265484935  0.7956467645158207  0.8759697157436561
  0.8152016202398209  0.0408896917796901  0.7442471695440529
  0.9352477678058690  0.4577622176133395  0.6997305886218094
  0.1910816052933143  0.6250645848534893  0.6550646920841564
  0.3102262703167483  0.7068546240770208  0.6997494599618976
  0.9341848923695906  0.2871126912908179  0.1238890279107320
  0.4373497160137698  0.4558317732344680  0.4785044837475170
  0.0623876751341928  0.7058321381550587  0.4785705364712218
  0.9370469117858329  0.1191532678860956  0.4346380250072654
  0.4436645189945589  0.1239056028552792  0.3004363526528191
  0.1880370844686343  0.1201628862118751  0.4343540729914873
  0.5623959698028365  0.0403340135431102  0.8760396904881026
  0.1870156147666887  0.9572804544176335  0.5654520155777034
  0.6844419228326818  0.7885404725672573  0.1242702859592796
  0.5597263260967460  0.7026416801412726  0.3450196214760999
  0.3161922659658895  0.0371228878815783  0.3889159140449306
  0.6820780022584364  0.1143471746667164  0.1668007462996686
  0.8146656143571928  0.2041019031904000  0.2111490101516676
  0.0603509091726283  0.5382980877098771  0.2558159519628183
  0.5622644859236474  0.7056001401667160  0.4786097960152426
  0.4348913650689692  0.7875516379607845  0.1239551506103167
  0.5689249210031992  0.3735652706522798  0.3002260604104708
  0.4341996464121594  0.9529406959691000  0.3450288603724814
  0.1849314406826740  0.9578732832719048  0.6997942745241372
  0.4316622605201060  0.6138342382062714  0.1660602427575772
  0.9391691281335998  0.4541515119853057  0.2116856840940344
  0.0617674846324650  0.5295698308217376  0.1239695207679787
  0.8116227739603027  0.3719728230638036  0.5213591935976224
  0.9441488341387495  0.6240597881913040  0.3000003451817186
  0.3095515491235714  0.0383226368798008  0.2555859891486089
  0.6840046810816960  0.7882667021113567  0.6109094482804921
  0.1923919228805591  0.4636992177293099  0.8333205395375577
  0.4328434769278138  0.1123635681738162  0.1665224977459195
  0.3114511371132508  0.3717085027896780  0.5214058047168948
  0.4339223140099065  0.6226659563370739  0.7888431803782697
  0.0588349998469020  0.0380204318132241  0.2557520881028092
  0.5623299400931011  0.7071207356119701  0.5655354988164548
  0.9399979444985700  0.2906798743833630  0.7444660242908918
  0.6842862975716092  0.1230490437424374  0.7887996242582377
  0.1894629685916625  0.4536085430273227  0.2111944349899875
  0.9408876516334529  0.7879705748084452  0.3889888372883664
  0.6867050168269455  0.2966789325157430  0.8761150003007057
  0.5566501948182535  0.8631369543037699  0.1662516633720439
  0.4352328838360048  0.4578324865257506  0.6997128061468798
  0.9364082693897346  0.2941561375962532  0.8759695202977538
  0.6864161066761039  0.6213928263083797  0.5212247905768619
  0.0661550544793485  0.8742733762982311  0.6549891949296266
  0.0602629138204795  0.8729845518383507  0.7886193130954479
  0.0659151606955038  0.3741554663475202  0.6550507980550447
  0.6870115112833357  0.4554216583581054  0.4785958442133398
  0.1847544124254387  0.7879883886589534  0.2554012225218513
  0.4371387939313423  0.1204748183438479  0.4343806468769880
  0.8136959503828549  0.0311192690058784  0.1240600108177143
  0.9365144839886999  0.6218575686782427  0.5214312654514193
  0.4415584694296657  0.1245436345772890  0.6549866653011153
  0.8133691832244383  0.5291536410425851  0.1238595677428223
  0.4342109141446814  0.4526458593857680  0.3450606850109889
  0.8098731742386868  0.2028826479555943  0.3449994064165195
  0.3092273787430814  0.7017039529978985  0.3449040153096323
  0.6912446611063607  0.1249060826683135  0.6549815112280775
  0.5690936414927265  0.8740984206558454  0.3004010855355191
  0.0650044811162117  0.5409797498374328  0.7444711864169565
  0.9395278497463025  0.9539676687496471  0.2111915013479309
  0.8157331914771662  0.7043510125747373  0.2114521244659416
  0.0689258119561213  0.8745914168274471  0.3004233213617211
  0.1944208388093011  0.1238261705331145  0.3002775722992755
  0.0585795813588726  0.7026375148262625  0.3448881091560590
  0.8089855359560236  0.0383717143692019  0.6108877835530164
  0.0631346202478854  0.3708641747028475  0.4344269554879472
  0.5597351963773045  0.2034993352379108  0.3447557223032578
  0.8192171950023553  0.3740920869958252  0.3000505087328085
  0.5602907610019935  0.0382704583221863  0.2554404428128587
  0.5664768429563256  0.5375034834410412  0.3890778859847385
  0.0625796527908693  0.2057086663868418  0.4786356758888879
  0.3107978562534823  0.8723032500951967  0.7884271799106821
  0.9351882657178960  0.9580518935607328  0.6997002274335218
  0.0687947590455605  0.3749192739899739  0.3001837267702594
  0.6910472108601295  0.6248242179833844  0.6551421878637549
  0.6869648864605067  0.4573344899198254  0.5654571313007071
  0.4401526423024499  0.9556817412812119  0.2120467930713390
  0.3124587753280503  0.2057011349080748  0.4786819128126580
  0.8140068448516206  0.5393476626574375  0.8758166081743098
  0.6879982924522232  0.6195506922816739  0.4344688675250936
  0.8108640130886258  0.2075106153564691  0.6997580389790634
  0.8123302604816588  0.7054954406847619  0.4786509770876547
  0.8114832736278090  0.8705024222415481  0.4343203445451804
  0.9371218941360114  0.9551731013021005  0.4787391049288860
  0.5620832174285201  0.2056033151277403  0.4786439937228390
  0.1872031648668418  0.6195211544149276  0.4344797505617900
  0.3152293431321149  0.0415099304978334  0.7441368133637389
  0.9412764113349934  0.6252396104511962  0.6549620403580702
  0.5667791022926780  0.7130090931642337  0.8334051308345521
  0.3193019255872619  0.3734518824235517  0.3002913274189725
  0.3151076543608669  0.5411905137884657  0.7444692760764323
  0.1873152663828305  0.4558406724464544  0.4786341716818792
  0.3139343891331779  0.0412074294356064  0.8758668508494245
  0.1851612963551174  0.4579379942791677  0.6996832972600997
  0.5615540716961785  0.3715987367130318  0.5213965887058166
  0.1910011511895596  0.2873191458076009  0.3889919858802244
  0.3151963890311273  0.2057075220308036  0.2111944295244798
  0.0664611320756716  0.7048052950862626  0.2112102596912764
  0.5621311260044041  0.3702932045159972  0.4344227168477057
  0.4364036627914512  0.6217904185078333  0.5213007651733961
  0.8165947367772587  0.7142369697971976  0.8334160242319780
  0.0601260278841097  0.3735825554016730  0.7884616015182172
  0.4372961842100054  0.2970228410398386  0.8761111465198563
  0.3110774237984211  0.0305847571704857  0.1240405411824575
  0.6875916941826207  0.1192349010765404  0.4342749807403717
  0.1840013863180556  0.9525052652611401  0.3449740684125427
  0.0665516260018244  0.2131222745464605  0.8336501839133562
  0.5591366460495671  0.0386357993514353  0.6110577287341717
  0.6888974259166298  0.4540812398198523  0.2117362414433338
  0.1900752309205044  0.7912186741544455  0.7443727238264677
  0.1940158979512164  0.6232600157666037  0.3003468102220742
  0.4412516551874504  0.7876620967766651  0.3892154059638415
  0.4340754883194380  0.2890556645063738  0.2559372264876634
  0.0624627677079285  0.5400375855873720  0.8758566174355472
  0.5653576441324469  0.0410555938934550  0.7442649423016197
  0.1867162266480381  0.7951579679625228  0.8759181254502367
  0.9373524676507334  0.4553566028596714  0.4786066618629587
  0.5652893899545681  0.5414374876667409  0.7443159363635696
  0.8115495726669169  0.2072954236108721  0.5654619441391526
  0.1854119310619786  0.6224364243787451  0.7884917108389926
  0.0666527875717288  0.5378549375058874  0.3890942647872933
  0.0607308929911224  0.7073047484600009  0.6997323973308054
  0.3086875750141619  0.5383809281341101  0.2555121028030966
  0.3145098787618769  0.7043626296871335  0.2121695354631391
  0.3061196694374148  0.8652665553910117  0.1656827095465756
  0.4367243688434402  0.6206375633157653  0.4344225539979305
  0.8175735888368081  0.0388226198209287  0.3894410241242502
  0.9351942091084401  0.9506699705805925  0.3447408804297447
  0.9377646196782319  0.7946361072004235  0.8754548808066714
  0.0648265405407195  0.0401338545469843  0.8756868307370903
  0.5629139145297838  0.5292085199764258  0.1243919434927377
  0.8055025285655172  0.3663416637853825  0.1659032103239627
  0.0620238695124733  0.8710465595871490  0.4344432396505394
  0.9365531863178037  0.1216635092321716  0.5214261205655016
  0.1919403458538854  0.7879546781052433  0.3889869205546126
  0.5666723131514564  0.7052062052565972  0.2119158593251428
 
  0.00000000E+00  0.00000000E+00  0.00000000E+00
  0.00000000E+00  0.00000000E+00  0.00000000E+00
  0.00000000E+00  0.00000000E+00  0.00000000E+00
  0.00000000E+00  0.00000000E+00  0.00000000E+00
  0.00000000E+00  0.00000000E+00  0.00000000E+00
  0.00000000E+00  0.00000000E+00  0.00000000E+00
  0.00000000E+00  0.00000000E+00  0.00000000E+00
  0.00000000E+00  0.00000000E+00  0.00000000E+00
  0.00000000E+00  0.00000000E+00  0.00000000E+00
  0.00000000E+00  0.00000000E+00  0.00000000E+00
  0.00000000E+00  0.00000000E+00  0.00000000E+00
  0.00000000E+00  0.00000000E+00  0.00000000E+00
  0.00000000E+00  0.00000000E+00  0.00000000E+00
  0.00000000E+00  0.00000000E+00  0.00000000E+00
  0.00000000E+00  0.00000000E+00  0.00000000E+00
  0.00000000E+00  0.00000000E+00  0.00000000E+00
  0.00000000E+00  0.00000000E+00  0.00000000E+00
  0.00000000E+00  0.00000000E+00  0.00000000E+00
  0.00000000E+00  0.00000000E+00  0.00000000E+00
  0.00000000E+00  0.00000000E+00  0.00000000E+00
  0.00000000E+00  0.00000000E+00  0.00000000E+00
  0.00000000E+00  0.00000000E+00  0.00000000E+00
  0.00000000E+00  0.00000000E+00  0.00000000E+00
  0.00000000E+00  0.00000000E+00  0.00000000E+00
  0.00000000E+00  0.00000000E+00  0.00000000E+00
  0.00000000E+00  0.00000000E+00  0.00000000E+00
  0.00000000E+00  0.00000000E+00  0.00000000E+00
  0.00000000E+00  0.00000000E+00  0.00000000E+00
  0.00000000E+00  0.00000000E+00  0.00000000E+00
  0.00000000E+00  0.00000000E+00  0.00000000E+00
  0.00000000E+00  0.00000000E+00  0.00000000E+00
  0.00000000E+00  0.00000000E+00  0.00000000E+00
  0.00000000E+00  0.00000000E+00  0.00000000E+00
  0.00000000E+00  0.00000000E+00  0.00000000E+00
  0.00000000E+00  0.00000000E+00  0.00000000E+00
  0.00000000E+00  0.00000000E+00  0.00000000E+00
  0.00000000E+00  0.00000000E+00  0.00000000E+00
  0.00000000E+00  0.00000000E+00  0.00000000E+00
  0.00000000E+00  0.00000000E+00  0.00000000E+00
  0.00000000E+00  0.00000000E+00  0.00000000E+00
  0.00000000E+00  0.00000000E+00  0.00000000E+00
  0.00000000E+00  0.00000000E+00  0.00000000E+00
  0.00000000E+00  0.00000000E+00  0.00000000E+00
  0.00000000E+00  0.00000000E+00  0.00000000E+00
  0.00000000E+00  0.00000000E+00  0.00000000E+00
  0.00000000E+00  0.00000000E+00  0.00000000E+00
  0.00000000E+00  0.00000000E+00  0.00000000E+00
  0.00000000E+00  0.00000000E+00  0.00000000E+00
  0.00000000E+00  0.00000000E+00  0.00000000E+00
  0.00000000E+00  0.00000000E+00  0.00000000E+00
  0.00000000E+00  0.00000000E+00  0.00000000E+00
  0.00000000E+00  0.00000000E+00  0.00000000E+00
  0.00000000E+00  0.00000000E+00  0.00000000E+00
  0.00000000E+00  0.00000000E+00  0.00000000E+00
  0.00000000E+00  0.00000000E+00  0.00000000E+00
  0.00000000E+00  0.00000000E+00  0.00000000E+00
  0.00000000E+00  0.00000000E+00  0.00000000E+00
  0.00000000E+00  0.00000000E+00  0.00000000E+00
  0.00000000E+00  0.00000000E+00  0.00000000E+00
  0.00000000E+00  0.00000000E+00  0.00000000E+00
  0.00000000E+00  0.00000000E+00  0.00000000E+00
  0.00000000E+00  0.00000000E+00  0.00000000E+00
  0.00000000E+00  0.00000000E+00  0.00000000E+00
  0.00000000E+00  0.00000000E+00  0.00000000E+00
  0.00000000E+00  0.00000000E+00  0.00000000E+00
  0.00000000E+00  0.00000000E+00  0.00000000E+00
  0.00000000E+00  0.00000000E+00  0.00000000E+00
  0.00000000E+00  0.00000000E+00  0.00000000E+00
  0.00000000E+00  0.00000000E+00  0.00000000E+00
  0.00000000E+00  0.00000000E+00  0.00000000E+00
  0.00000000E+00  0.00000000E+00  0.00000000E+00
  0.00000000E+00  0.00000000E+00  0.00000000E+00
  0.00000000E+00  0.00000000E+00  0.00000000E+00
  0.00000000E+00  0.00000000E+00  0.00000000E+00
  0.00000000E+00  0.00000000E+00  0.00000000E+00
  0.00000000E+00  0.00000000E+00  0.00000000E+00
  0.00000000E+00  0.00000000E+00  0.00000000E+00
  0.00000000E+00  0.00000000E+00  0.00000000E+00
  0.00000000E+00  0.00000000E+00  0.00000000E+00
  0.00000000E+00  0.00000000E+00  0.00000000E+00
  0.00000000E+00  0.00000000E+00  0.00000000E+00
  0.00000000E+00  0.00000000E+00  0.00000000E+00
  0.00000000E+00  0.00000000E+00  0.00000000E+00
  0.00000000E+00  0.00000000E+00  0.00000000E+00
  0.00000000E+00  0.00000000E+00  0.00000000E+00
  0.00000000E+00  0.00000000E+00  0.00000000E+00
  0.00000000E+00  0.00000000E+00  0.00000000E+00
  0.00000000E+00  0.00000000E+00  0.00000000E+00
  0.00000000E+00  0.00000000E+00  0.00000000E+00
  0.00000000E+00  0.00000000E+00  0.00000000E+00
  0.00000000E+00  0.00000000E+00  0.00000000E+00
  0.00000000E+00  0.00000000E+00  0.00000000E+00
  0.00000000E+00  0.00000000E+00  0.00000000E+00
  0.00000000E+00  0.00000000E+00  0.00000000E+00
  0.00000000E+00  0.00000000E+00  0.00000000E+00
  0.00000000E+00  0.00000000E+00  0.00000000E+00
  0.00000000E+00  0.00000000E+00  0.00000000E+00
  0.00000000E+00  0.00000000E+00  0.00000000E+00
  0.00000000E+00  0.00000000E+00  0.00000000E+00
  0.00000000E+00  0.00000000E+00  0.00000000E+00
  0.00000000E+00  0.00000000E+00  0.00000000E+00
  0.00000000E+00  0.00000000E+00  0.00000000E+00
  0.00000000E+00  0.00000000E+00  0.00000000E+00
  0.00000000E+00  0.00000000E+00  0.00000000E+00
  0.00000000E+00  0.00000000E+00  0.00000000E+00
  0.00000000E+00  0.00000000E+00  0.00000000E+00
  0.00000000E+00  0.00000000E+00  0.00000000E+00
  0.00000000E+00  0.00000000E+00  0.00000000E+00
  0.00000000E+00  0.00000000E+00  0.00000000E+00
  0.00000000E+00  0.00000000E+00  0.00000000E+00
  0.00000000E+00  0.00000000E+00  0.00000000E+00
  0.00000000E+00  0.00000000E+00  0.00000000E+00
  0.00000000E+00  0.00000000E+00  0.00000000E+00
  0.00000000E+00  0.00000000E+00  0.00000000E+00
  0.00000000E+00  0.00000000E+00  0.00000000E+00
  0.00000000E+00  0.00000000E+00  0.00000000E+00
  0.00000000E+00  0.00000000E+00  0.00000000E+00
  0.00000000E+00  0.00000000E+00  0.00000000E+00
  0.00000000E+00  0.00000000E+00  0.00000000E+00
  0.00000000E+00  0.00000000E+00  0.00000000E+00
  0.00000000E+00  0.00000000E+00  0.00000000E+00
  0.00000000E+00  0.00000000E+00  0.00000000E+00
  0.00000000E+00  0.00000000E+00  0.00000000E+00
  0.00000000E+00  0.00000000E+00  0.00000000E+00
  0.00000000E+00  0.00000000E+00  0.00000000E+00
  0.00000000E+00  0.00000000E+00  0.00000000E+00
  0.00000000E+00  0.00000000E+00  0.00000000E+00
  0.00000000E+00  0.00000000E+00  0.00000000E+00
  0.00000000E+00  0.00000000E+00  0.00000000E+00
  0.00000000E+00  0.00000000E+00  0.00000000E+00
  0.00000000E+00  0.00000000E+00  0.00000000E+00
  0.00000000E+00  0.00000000E+00  0.00000000E+00
  0.00000000E+00  0.00000000E+00  0.00000000E+00
  0.00000000E+00  0.00000000E+00  0.00000000E+00
  0.00000000E+00  0.00000000E+00  0.00000000E+00
  0.00000000E+00  0.00000000E+00  0.00000000E+00
  0.00000000E+00  0.00000000E+00  0.00000000E+00
  0.00000000E+00  0.00000000E+00  0.00000000E+00
  0.00000000E+00  0.00000000E+00  0.00000000E+00
  0.00000000E+00  0.00000000E+00  0.00000000E+00
  0.00000000E+00  0.00000000E+00  0.00000000E+00
  0.00000000E+00  0.00000000E+00  0.00000000E+00
  0.00000000E+00  0.00000000E+00  0.00000000E+00
  0.00000000E+00  0.00000000E+00  0.00000000E+00
  0.00000000E+00  0.00000000E+00  0.00000000E+00
  0.00000000E+00  0.00000000E+00  0.00000000E+00
  0.00000000E+00  0.00000000E+00  0.00000000E+00
  0.00000000E+00  0.00000000E+00  0.00000000E+00
  0.00000000E+00  0.00000000E+00  0.00000000E+00
  0.00000000E+00  0.00000000E+00  0.00000000E+00
  0.00000000E+00  0.00000000E+00  0.00000000E+00
  0.00000000E+00  0.00000000E+00  0.00000000E+00
  0.00000000E+00  0.00000000E+00  0.00000000E+00
  0.00000000E+00  0.00000000E+00  0.00000000E+00
  0.00000000E+00  0.00000000E+00  0.00000000E+00
  0.00000000E+00  0.00000000E+00  0.00000000E+00
  0.00000000E+00  0.00000000E+00  0.00000000E+00
  0.00000000E+00  0.00000000E+00  0.00000000E+00
  0.00000000E+00  0.00000000E+00  0.00000000E+00
  0.00000000E+00  0.00000000E+00  0.00000000E+00
  0.00000000E+00  0.00000000E+00  0.00000000E+00
  0.00000000E+00  0.00000000E+00  0.00000000E+00
  0.00000000E+00  0.00000000E+00  0.00000000E+00
  0.00000000E+00  0.00000000E+00  0.00000000E+00
  0.00000000E+00  0.00000000E+00  0.00000000E+00
  0.00000000E+00  0.00000000E+00  0.00000000E+00
  0.00000000E+00  0.00000000E+00  0.00000000E+00
  0.00000000E+00  0.00000000E+00  0.00000000E+00
  0.00000000E+00  0.00000000E+00  0.00000000E+00
  0.00000000E+00  0.00000000E+00  0.00000000E+00
  0.00000000E+00  0.00000000E+00  0.00000000E+00
  0.00000000E+00  0.00000000E+00  0.00000000E+00
  0.00000000E+00  0.00000000E+00  0.00000000E+00
  0.00000000E+00  0.00000000E+00  0.00000000E+00
  0.00000000E+00  0.00000000E+00  0.00000000E+00
  0.00000000E+00  0.00000000E+00  0.00000000E+00
  0.00000000E+00  0.00000000E+00  0.00000000E+00
  0.00000000E+00  0.00000000E+00  0.00000000E+00
  0.00000000E+00  0.00000000E+00  0.00000000E+00
  0.00000000E+00  0.00000000E+00  0.00000000E+00
  0.00000000E+00  0.00000000E+00  0.00000000E+00
  0.00000000E+00  0.00000000E+00  0.00000000E+00
  0.00000000E+00  0.00000000E+00  0.00000000E+00
  0.00000000E+00  0.00000000E+00  0.00000000E+00
  0.00000000E+00  0.00000000E+00  0.00000000E+00
  0.00000000E+00  0.00000000E+00  0.00000000E+00
  0.00000000E+00  0.00000000E+00  0.00000000E+00
  0.00000000E+00  0.00000000E+00  0.00000000E+00
  0.00000000E+00  0.00000000E+00  0.00000000E+00
  0.00000000E+00  0.00000000E+00  0.00000000E+00
  0.00000000E+00  0.00000000E+00  0.00000000E+00
  0.00000000E+00  0.00000000E+00  0.00000000E+00
  0.00000000E+00  0.00000000E+00  0.00000000E+00
  0.00000000E+00  0.00000000E+00  0.00000000E+00
  0.00000000E+00  0.00000000E+00  0.00000000E+00
  0.00000000E+00  0.00000000E+00  0.00000000E+00
  0.00000000E+00  0.00000000E+00  0.00000000E+00
  0.00000000E+00  0.00000000E+00  0.00000000E+00
  0.00000000E+00  0.00000000E+00  0.00000000E+00
  0.00000000E+00  0.00000000E+00  0.00000000E+00
  0.00000000E+00  0.00000000E+00  0.00000000E+00
  0.00000000E+00  0.00000000E+00  0.00000000E+00
  0.00000000E+00  0.00000000E+00  0.00000000E+00
  0.00000000E+00  0.00000000E+00  0.00000000E+00
  0.00000000E+00  0.00000000E+00  0.00000000E+00
  0.00000000E+00  0.00000000E+00  0.00000000E+00
  0.00000000E+00  0.00000000E+00  0.00000000E+00
  0.00000000E+00  0.00000000E+00  0.00000000E+00
  0.00000000E+00  0.00000000E+00  0.00000000E+00
  0.00000000E+00  0.00000000E+00  0.00000000E+00
  0.00000000E+00  0.00000000E+00  0.00000000E+00
  0.00000000E+00  0.00000000E+00  0.00000000E+00
  0.00000000E+00  0.00000000E+00  0.00000000E+00
  0.00000000E+00  0.00000000E+00  0.00000000E+00
  0.00000000E+00  0.00000000E+00  0.00000000E+00
  0.00000000E+00  0.00000000E+00  0.00000000E+00
  0.00000000E+00  0.00000000E+00  0.00000000E+00
  0.00000000E+00  0.00000000E+00  0.00000000E+00
  0.00000000E+00  0.00000000E+00  0.00000000E+00
  0.00000000E+00  0.00000000E+00  0.00000000E+00
  0.00000000E+00  0.00000000E+00  0.00000000E+00
  0.00000000E+00  0.00000000E+00  0.00000000E+00
  0.00000000E+00  0.00000000E+00  0.00000000E+00
  0.00000000E+00  0.00000000E+00  0.00000000E+00
  0.00000000E+00  0.00000000E+00  0.00000000E+00
  0.00000000E+00  0.00000000E+00  0.00000000E+00
  0.00000000E+00  0.00000000E+00  0.00000000E+00
  0.00000000E+00  0.00000000E+00  0.00000000E+00
  0.00000000E+00  0.00000000E+00  0.00000000E+00
  0.00000000E+00  0.00000000E+00  0.00000000E+00
  0.00000000E+00  0.00000000E+00  0.00000000E+00
  0.00000000E+00  0.00000000E+00  0.00000000E+00
  0.00000000E+00  0.00000000E+00  0.00000000E+00
  0.00000000E+00  0.00000000E+00  0.00000000E+00
  0.00000000E+00  0.00000000E+00  0.00000000E+00
  0.00000000E+00  0.00000000E+00  0.00000000E+00
  0.00000000E+00  0.00000000E+00  0.00000000E+00
  0.00000000E+00  0.00000000E+00  0.00000000E+00
  0.00000000E+00  0.00000000E+00  0.00000000E+00
  0.00000000E+00  0.00000000E+00  0.00000000E+00
  0.00000000E+00  0.00000000E+00  0.00000000E+00
  0.00000000E+00  0.00000000E+00  0.00000000E+00
  0.00000000E+00  0.00000000E+00  0.00000000E+00
  0.00000000E+00  0.00000000E+00  0.00000000E+00
  0.00000000E+00  0.00000000E+00  0.00000000E+00
  0.00000000E+00  0.00000000E+00  0.00000000E+00
  0.00000000E+00  0.00000000E+00  0.00000000E+00