CuInSe2gb                               
   1.00000000000000     
     9.7266780392896699    0.0000000000000000    0.0000000000000000
     0.0000000000000000    8.4235502764570693    0.0000000000000000
     0.0000000000000000    0.0000000000000000   45.0000000000000000
   Fe   Mn
   281     7
Direct
  0.0575892653365068  0.7011094184555811  0.2111848117821599
  0.3160013047036277  0.7205449688905016  0.8757597549953465
  0.6881487320775526  0.9577694772532594  0.6113614002865971
  0.4381789179048103  0.4579396743063368  0.6113833649588132
  0.4365153951797682  0.2870969176423948  0.2555517289764366
  0.0609754591451582  0.3866853169728811  0.8341675000555250
  0.3112055971706107  0.8868944514383228  0.8342529141011427
  0.4423194358291819  0.6264983129073869  0.7002740019286117
  0.0637750490554553  0.2132741537653421  0.7444465389300274
  0.1823898710957991  0.4509199637991498  0.2113390342057337
  0.5639159037006277  0.2086572678992930  0.4777706696041594
  0.0645167992885172  0.8745843036540931  0.5667141249545027
  0.5656443220853771  0.2199746251507572  0.8756916682931776
  0.8097767531134720  0.5304222018082233  0.1244740103928872
  0.4327098820104550  0.9512341745863677  0.2113399888050652
  0.5645828975997572  0.3743736739178659  0.5666614000178334
  0.8120893457010839  0.0420346891132965  0.3884645573771701
  0.6862448316736603  0.7903630463885728  0.5220624614899978
  0.4388662532940392  0.4589066234708093  0.4777752553114471
  0.4381541252301719  0.9628828734516761  0.7444324392973468
  0.4393663271734273  0.6244880188106551  0.5666936511702345
  0.5672558523549075  0.8765301837010319  0.7002662155583166
  0.3103345689892781  0.0305124967525752  0.1242261121029313
  0.6868459771775556  0.9582555303041977  0.3440053636442619
  0.6872410988759394  0.7796920844890970  0.1247437822962588
  0.0575054750164268  0.3735608872022050  0.2996853457565347
  0.6889065677997585  0.4714388680880116  0.8755504745097094
  0.4326023021318544  0.4511438360038333  0.2113575965954942
  0.8112916447808504  0.3751277592194893  0.4329464468320997
  0.5630680275193785  0.7079204492881576  0.6114158140774321
  0.5627880504730426  0.5413489609606046  0.6556620691677809
  0.8144368841767262  0.8636025774483045  0.1660657447843835
  0.5608351171014205  0.5370369633737571  0.2556047834103245
  0.6870289512526048  0.4582637674164168  0.3441205624159621
  0.1886761578235614  0.6130862509157837  0.1662425850272320
  0.1916310024762125  0.7992609951225890  0.7887222993645912
  0.4423815143490327  0.1265530369684199  0.7003473408903632
  0.9329536796419052  0.6231254085655560  0.2997662101566967
  0.3153965503229542  0.2200665325693583  0.8756991043586343
  0.3143379046977862  0.8743908565000412  0.5665829143180419
  0.8153361169649462  0.2201523350785953  0.8757053311192768
  0.8126027944270352  0.5413615248990831  0.6556488633191055
  0.5598363563332771  0.5298046528223787  0.1245561494359018
  0.5667656264962285  0.0494611287988174  0.7889417804510787
  0.1868236691894205  0.2873041161824263  0.2555125688932898
  0.8110629655756265  0.8751554115759864  0.4329753966900695
  0.5671706198356017  0.3767411266932403  0.7003814679579634
  0.0605372924077472  0.0301645930278727  0.1245418056560855
  0.3128625920811959  0.5413024437138465  0.6556223301416455
  0.5619692953706594  0.2085247296599808  0.3442294263117761
  0.1882231472625149  0.9578460753647320  0.6113579422457651
  0.3076398355407164  0.3736369087488804  0.2997319176380275
  0.4379197005998245  0.7915461422157958  0.6556710144282147
  0.1917425681989164  0.2984244743899657  0.7888502836210646
  0.0637418153622220  0.3632187113608978  0.1660542011857112
  0.6919930894965343  0.6266034606297659  0.7002647952376688
  0.3118373891956541  0.5415357526631253  0.3884558034799749
  0.0653048780286294  0.7201329742752265  0.8759647891104023
  0.9361875621203644  0.6368491912787628  0.8343156390748883
  0.3173370927961022  0.5499358745949389  0.7889466488963809
  0.3072714269878763  0.2008834334272588  0.2112372912991208
  0.0640969604199362  0.7089188462575331  0.4778453984805746
  0.5572823117517494  0.2012499159743803  0.2112398975908840
  0.3136369593971627  0.2135372397854969  0.7443580293280313
  0.0673388455042599  0.3769238260772880  0.7003005389541012
  0.1863235663329351  0.6369858386388182  0.8341087320558996
  0.0670020880779335  0.0493604094079759  0.7889436206370912
  0.4395026520353362  0.1244317148888962  0.5666804773328404
  0.9379876075688123  0.2916563090790578  0.6555504974587533
  0.8074949784538840  0.2012563450788856  0.2112442879189799
  0.9324905035832546  0.9513147091720514  0.2114148413730919
  0.9391954300551011  0.6246350606494072  0.5666623595361052
  0.8111074882952120  0.3866004373209699  0.8342259861552057
  0.1922152809895250  0.6269077730812963  0.7002921445153766
  0.8110762402938070  0.8866532036153216  0.8343249052368817
  0.6881702031893302  0.2917850681097465  0.6556988839700255
  0.3131137702349144  0.2078466891288891  0.6113946404876954
  0.4381974042303841  0.4627385360232799  0.7443695094044264
  0.4368110702915473  0.7918145692380018  0.3884122304496233
  0.6877090416043345  0.9627684346882777  0.7444793941643600
  0.8074756918018239  0.7014852692284970  0.2112563279478522
  0.8130727427083856  0.7077700271984312  0.6113143876200444
  0.4364656018250885  0.7794363492940335  0.1243703230578320
  0.3130586104012239  0.7129499657446048  0.7443585548372939
  0.3171565730398784  0.0494975344579727  0.7889712206840022
  0.8118699722052781  0.5418240823438391  0.3884274351238249
  0.6862870549028777  0.2902776385350269  0.5221174565979946
  0.6920105416437164  0.7994219569780583  0.7888541822284550
  0.1865468519461783  0.7880795434415768  0.2556149866948583
  0.6884379748414086  0.1139430023276822  0.1662648356629916
  0.6889468175971223  0.9590200100096822  0.4777926341801836
  0.9372937553307877  0.9585250286749615  0.3441376537545724
  0.8112091162378846  0.0398296596945430  0.5219543837328380
  0.3138137845828207  0.3633281522538960  0.1660784200782575
  0.4369178315057538  0.4583975535755561  0.3440707056261180
  0.8133623633234932  0.2135900535770831  0.7444082831573680
  0.4391200622573765  0.9715574147763396  0.8755117990495718
  0.5642390262460932  0.8742565586541753  0.5666764571450127
  0.8101985427135502  0.0300635452639714  0.1246260227006988
  0.4324129398519496  0.6234222749322296  0.2997718105535447
  0.8150187703666560  0.7206967628785765  0.8758911844907425
  0.6881254127674721  0.4578454195536212  0.6113549461297346
  0.5608704359864206  0.3869616856670060  0.8341152122428438
  0.8075620027288013  0.3731817771015883  0.2996804468169859
  0.1867119861919341  0.2917693965830632  0.3884587442797500
  0.8166480763625570  0.5497046364490105  0.7890885994653204
  0.1864496824435142  0.7900507456691184  0.5220736804860526
  0.3077238618951157  0.8734096728421339  0.2997674043419928
  0.1823193635832179  0.9513600796182186  0.2114725506048834
  0.1885800932270964  0.4630341045617576  0.7444252079558146
  0.4362919825203020  0.2902147000061113  0.5219506343617286
  0.0622239132370981  0.7087923219108624  0.3443018575091006
  0.1880965781354346  0.7911962641133452  0.6555479365590156
  0.4416982305084541  0.7995516194998856  0.7887489002557703
  0.6852134445187755  0.1252369084120435  0.4330712744756498
  0.9366671685373853  0.7900048080860437  0.5221572192162485
  0.6883850366831843  0.6126961235421180  0.1662173859392566
  0.8119750089677128  0.7085553323995962  0.3442517917379564
  0.9383077203220405  0.4628453590054781  0.7444381617776538
  0.1871146034666334  0.4583481117827233  0.3441640480670446
  0.5673535280794922  0.5494974408290277  0.7889510575708772
  0.5647020555489755  0.3635716705738075  0.1660272959143213
  0.5618021337012831  0.7085888453747978  0.3443213317323567
  0.5580277936060393  0.3735246900425631  0.2996466912000789
  0.1890104519208240  0.4711772284450909  0.8756656749609489
  0.1882562668981642  0.1127007485272989  0.1663375006915381
  0.4417483929042256  0.2989101408028257  0.7888052189001902
  0.6862243924064408  0.7874592207120190  0.2555717657731578
  0.9367278008024155  0.1368308610368829  0.8341624838350434
  0.4388062335021460  0.9591279111960329  0.4776992385772443
  0.5654217281060187  0.7204503459355106  0.8757066601329843
  0.1888499403151156  0.4590435776448821  0.4777067359246422
  0.9363134729020641  0.2792856457874648  0.1247637476270296
  0.3115685671940839  0.0415750913778862  0.3884177585206443
  0.0629418035130822  0.0413726307807372  0.6556388779355851
  0.5610664660430515  0.3745570522566768  0.4330015544953413
  0.6877294113441905  0.4625676571805680  0.7444861050522527
  0.5634861723523004  0.2136128629245111  0.7443531910432196
  0.9424400544807437  0.1268761387689138  0.7002830202292980
  0.5628619582077956  0.0410203640745182  0.6556421629725740
  0.5612675171121519  0.5406270313321825  0.5220085482620007
  0.1826052957422433  0.1234321525871120  0.2996926222712532
  0.4387447792476480  0.1124371699045528  0.1662115338141645
  0.6822776328476211  0.6234053466721202  0.2997700270482480
  0.9323070613796587  0.1228932092295388  0.2996809817801163
  0.8143176336178938  0.3744769838640155  0.5668110567479911
  0.0579292827915735  0.8733755361172455  0.2997377870590331
  0.1892621077008896  0.6244862312341486  0.5667274532504510
  0.9411746049293865  0.7988974537787489  0.7888993672759779
  0.3113563952944884  0.3867625226448286  0.8342276635808302
  0.9393296678694718  0.4714650936054012  0.8756999770523244
  0.4366189476941648  0.6371333522722943  0.8341871220466023
  0.0619977142607570  0.2086006956995067  0.3442168732242408
  0.1889340623472239  0.9712823789139620  0.8755367744970453
  0.9361798218136539  0.7794731756624416  0.1246782574863643
  0.6865755672190970  0.7920990217365704  0.3884246463722079
  0.9379292194063300  0.7915815954809030  0.6556569601813943
  0.9383906971352339  0.1140250946688486  0.1662869159664942
  0.4377209409474825  0.2918435458165069  0.6557061535962529
  0.0578403447488814  0.2009950501838961  0.2113037218051751
  0.6825392207595626  0.9512992951728566  0.2113758653375732
  0.1825862336076725  0.6235347089143086  0.2997413631285685
  0.8171246181397831  0.8766971153495527  0.7002536901404997
  0.9423199678876762  0.6268931426839466  0.7003289810437053
  0.1922498177240362  0.1269348152928114  0.7003145352172462
  0.9390526478355423  0.4586522003668468  0.4777384958122555
  0.8132057557606255  0.2078458649700179  0.6113515162716471
  0.1860975117384246  0.6250964851963039  0.4329912044179450
  0.4327056967699259  0.1234554098605518  0.2997530299580276
  0.6825432965929548  0.1227180265941513  0.2996878791349753
  0.5614776034771972  0.5417275311578057  0.3884009396184297
  0.8120285349859849  0.2086405185749508  0.3443717563616939
  0.4392754373304892  0.4714914844897224  0.8754586841573354
  0.5612410761984348  0.8866618761742634  0.8342452651529637
  0.3142409393347173  0.2090255249857311  0.4777246939508651
  0.1886633224036157  0.9590092900504822  0.4777350898208536
  0.0609367023606560  0.8869960856448781  0.8342679771751916
  0.0614183240611649  0.5402569989354506  0.5219443452293402
  0.9391277400298185  0.9585430225849647  0.4777461071808142
  0.0632707965753966  0.7077440904920275  0.6113192004364140
  0.5610982278366171  0.0404560052851746  0.5219925126791600
  0.6919990529535613  0.2988745689256084  0.7887602445300778
  0.8141466153078494  0.3634357537962571  0.1661402509650049
  0.4353866876019363  0.1249496685883868  0.4330364374350635
  0.0640904526566207  0.2089084225680094  0.4778159753062247
  0.3128781915995575  0.0412543961332782  0.6556324609982370
  0.4360229772682473  0.7902562236581032  0.5220356869461324
  0.1866763727390072  0.1369884255776898  0.8341391313718896
  0.1857867124698828  0.2793205951737695  0.1248139534930314
  0.9369517189961023  0.4585803128342478  0.3441214492090178
  0.5644737700538971  0.8640610018453263  0.1660302668973545
  0.3073739958521617  0.7007957570888440  0.2113545312774425
  0.9383110189418240  0.6130970562907906  0.1662631071228227
  0.1880754475341294  0.4578957035076178  0.6113603186067502
  0.0674138291089303  0.8768775858677187  0.7001864802301441
  0.0630499472267456  0.5414675291127810  0.6557073774589969
  0.3098343960769080  0.5306910451615160  0.1245777460415110
  0.9362971953584251  0.7922706140673815  0.3884997540827458
  0.9415370216303338  0.2987794361274026  0.7888479251325189
  0.1878577198672999  0.2917086355879077  0.6556882970200212
  0.9380745061624323  0.9576666180359227  0.6113989518625406
  0.8134254395132798  0.7129731774626316  0.7445480104228134
  0.6862661626843678  0.2877020015075983  0.2555674185079883
  0.0638286927813075  0.7129485374534626  0.7444296153051936
  0.6824556856963854  0.4512141014091418  0.2113988291710406
  0.8137992022894277  0.2085069647175103  0.4777644684242711
  0.5640931257461588  0.7093415010974676  0.4778239674376926
  0.0639252635221890  0.8640031274230582  0.1661716530976177
  0.9363257350416038  0.2899718318017871  0.5220821341490580
  0.6874601815917505  0.7915675876778661  0.6556317782103360
  0.0612859586465282  0.8752717128220947  0.4329610190635506
  0.0657977088599877  0.2195310963711742  0.8757619886541786
  0.8130995981426943  0.0414554211392056  0.6556245675428511
  0.5598640297933611  0.0302065320612556  0.1245464737738159
  0.3109099956175432  0.3747772148037233  0.4329795424558915
  0.3142785083118712  0.3744189063990575  0.5666046892039088
  0.3140433223596857  0.7090906245550058  0.4777799375758108
  0.0614664348110305  0.0404816929990088  0.5219458759215460
  0.3171123054742058  0.8766220371834064  0.7003180253352412
  0.0618112243337217  0.5366737397555115  0.2556102482359548
  0.6865505148984232  0.1373862609665066  0.8340976618711196
  0.8114388587182667  0.0368915955961737  0.2556688793133930
  0.1869138877867668  0.1249701332859767  0.4329915346579793
  0.6922741143599940  0.1266304765355878  0.7002689275448052
  0.1863781466116804  0.2902495058825717  0.5220933655666880
  0.4364831731896329  0.7875456366115998  0.2555769198539825
  0.4379733698071311  0.6129346672856300  0.1663287496594595
  0.0631294231307293  0.2080298098196261  0.6113321645904090
  0.1866472806069710  0.7917297406255204  0.3884151572418049
  0.3112989063388985  0.5407304504799543  0.5219852629948740
  0.8169583852001856  0.3767857426864278  0.7003028112879640
  0.6865058489138660  0.2920868543853111  0.3884472977762695
  0.1894385555227969  0.1244931597506501  0.5666804635919845
  0.6889135922310512  0.9717631668916688  0.8755287439214631
  0.6893657950426613  0.1247730162508940  0.5667045811272348
  0.4370822382583240  0.9586433039901304  0.3442341597160296
  0.1883855373192825  0.9629046436608460  0.7444615232490076
  0.9365937805894277  0.7875410994849287  0.2555079924725817
  0.5610201414434791  0.8757845639384920  0.4329676531108518
  0.3110181441706145  0.8755137492907706  0.4330440120979719
  0.8111896179771607  0.5399652278738347  0.5220045459851166
  0.9325682758351093  0.4513587146459527  0.2114639503011994
  0.3116482402840834  0.5367353274519254  0.2555806522003181
  0.5615469338721457  0.0418427175174225  0.3884551705730779
  0.9381359220685656  0.4574634227688654  0.6113714631695719
  0.0614726996342193  0.0418835532646401  0.3884683973987095
  0.0614827757722741  0.5417235455695945  0.3884517325594283
  0.4365904900826995  0.2919173456188868  0.3884144679157346
  0.6891196856387509  0.4588991785723326  0.4778677311898660
  0.0644304673068231  0.3744122726644394  0.5667247370805165
  0.5574304819074551  0.7010298255149617  0.2113455510192824
  0.9366339375913801  0.2875567766326680  0.2556514167781334
  0.8165923212144471  0.0495308543480047  0.7889220055709673
  0.1873170962811245  0.9583982913242325  0.3442345964045336
  0.5578863119181053  0.8736566945371755  0.2997566232478099
  0.0614154290763122  0.3745049044546743  0.4329357895525435
  0.3121548043351586  0.7081577468575861  0.3442333907048605
  0.3121033640902338  0.2080424476504252  0.3442344402562053
  0.9391629577926135  0.1248062046967866  0.5666489852408284
  0.4380595326433736  0.9578144665615685  0.6113569075727636
  0.5607637960117584  0.0370406686801207  0.2556794502817176
  0.1865938737034361  0.7788455697948715  0.1244759202032326
  0.0619119206786245  0.0370394897098275  0.2556051153146299
  0.6894661438053120  0.6243990668177369  0.5667286659915417
  0.0599181335468135  0.5297603321626905  0.1245312114600197
  0.3113201880298725  0.0407914142954712  0.5219913249397635
  0.6863105799612410  0.2792823764917907  0.1246933778733542
  0.8137684856136431  0.7089058630288324  0.4777868709903280
  0.4366923205841515  0.1368564621473449  0.8339774972308978
  0.3174884047807010  0.3763181661836887  0.7002852490922071
  0.6866414860033216  0.6373331276796125  0.8341635920517114
  0.5633112026385979  0.7127121048099062  0.7444426276518598
  0.9365191124048987  0.2920768912119326  0.3884369372636402
  0.9392269380341641  0.9713077910489425  0.8755543509846938
  0.5631155720430722  0.2078450624465589  0.6113306901528087
  0.8144485781929873  0.8745375824263439  0.5667638773587567
  0.8075369739170846  0.8735372746918120  0.2996435796968875
  0.3112828003641016  0.0369038918117783  0.2556943159333485
  0.4368920348963090  0.2797732384180283  0.1247779121344530
  0.3130446017592275  0.7078715104768513  0.6113644015826937
  0.4354937645378135  0.6249601289817348  0.4329928144632146
  0.9368673299517759  0.6252450059750662  0.4330871839944117
  0.3149511092846257  0.8633715846648276  0.1658083969943956
  0.0670218384048415  0.5493225394220673  0.7888218552717359
  0.9359912927035002  0.1249207934145879  0.4330641123904478
  0.6844938492375059  0.6250977212914607  0.4330383313180193
  0.9376493346225836  0.9631600127776027  0.7446135469367507
  0.8118984415349881  0.5366887793172621  0.2554512063741125
 
  0.00000000E+00  0.00000000E+00  0.00000000E+00
  0.00000000E+00  0.00000000E+00  0.00000000E+00
  0.00000000E+00  0.00000000E+00  0.00000000E+00
  0.00000000E+00  0.00000000E+00  0.00000000E+00
  0.00000000E+00  0.00000000E+00  0.00000000E+00
  0.00000000E+00  0.00000000E+00  0.00000000E+00
  0.00000000E+00  0.00000000E+00  0.00000000E+00
  0.00000000E+00  0.00000000E+00  0.00000000E+00
  0.00000000E+00  0.00000000E+00  0.00000000E+00
  0.00000000E+00  0.00000000E+00  0.00000000E+00
  0.00000000E+00  0.00000000E+00  0.00000000E+00
  0.00000000E+00  0.00000000E+00  0.00000000E+00
  0.00000000E+00  0.00000000E+00  0.00000000E+00
  0.00000000E+00  0.00000000E+00  0.00000000E+00
  0.00000000E+00  0.00000000E+00  0.00000000E+00
  0.00000000E+00  0.00000000E+00  0.00000000E+00
  0.00000000E+00  0.00000000E+00  0.00000000E+00
  0.00000000E+00  0.00000000E+00  0.00000000E+00
  0.00000000E+00  0.00000000E+00  0.00000000E+00
  0.00000000E+00  0.00000000E+00  0.00000000E+00
  0.00000000E+00  0.00000000E+00  0.00000000E+00
  0.00000000E+00  0.00000000E+00  0.00000000E+00
  0.00000000E+00  0.00000000E+00  0.00000000E+00
  0.00000000E+00  0.00000000E+00  0.00000000E+00
  0.00000000E+00  0.00000000E+00  0.00000000E+00
  0.00000000E+00  0.00000000E+00  0.00000000E+00
  0.00000000E+00  0.00000000E+00  0.00000000E+00
  0.00000000E+00  0.00000000E+00  0.00000000E+00
  0.00000000E+00  0.00000000E+00  0.00000000E+00
  0.00000000E+00  0.00000000E+00  0.00000000E+00
  0.00000000E+00  0.00000000E+00  0.00000000E+00
  0.00000000E+00  0.00000000E+00  0.00000000E+00
  0.00000000E+00  0.00000000E+00  0.00000000E+00
  0.00000000E+00  0.00000000E+00  0.00000000E+00
  0.00000000E+00  0.00000000E+00  0.00000000E+00
  0.00000000E+00  0.00000000E+00  0.00000000E+00
  0.00000000E+00  0.00000000E+00  0.00000000E+00
  0.00000000E+00  0.00000000E+00  0.00000000E+00
  0.00000000E+00  0.00000000E+00  0.00000000E+00
  0.00000000E+00  0.00000000E+00  0.00000000E+00
  0.00000000E+00  0.00000000E+00  0.00000000E+00
  0.00000000E+00  0.00000000E+00  0.00000000E+00
  0.00000000E+00  0.00000000E+00  0.00000000E+00
  0.00000000E+00  0.00000000E+00  0.00000000E+00
  0.00000000E+00  0.00000000E+00  0.00000000E+00
  0.00000000E+00  0.00000000E+00  0.00000000E+00
  0.00000000E+00  0.00000000E+00  0.00000000E+00
  0.00000000E+00  0.00000000E+00  0.00000000E+00
  0.00000000E+00  0.00000000E+00  0.00000000E+00
  0.00000000E+00  0.00000000E+00  0.00000000E+00
  0.00000000E+00  0.00000000E+00  0.00000000E+00
  0.00000000E+00  0.00000000E+00  0.00000000E+00
  0.00000000E+00  0.00000000E+00  0.00000000E+00
  0.00000000E+00  0.00000000E+00  0.00000000E+00
  0.00000000E+00  0.00000000E+00  0.00000000E+00
  0.00000000E+00  0.00000000E+00  0.00000000E+00
  0.00000000E+00  0.00000000E+00  0.00000000E+00
  0.00000000E+00  0.00000000E+00  0.00000000E+00
  0.00000000E+00  0.00000000E+00  0.00000000E+00
  0.00000000E+00  0.00000000E+00  0.00000000E+00
  0.00000000E+00  0.00000000E+00  0.00000000E+00
  0.00000000E+00  0.00000000E+00  0.00000000E+00
  0.00000000E+00  0.00000000E+00  0.00000000E+00
  0.00000000E+00  0.00000000E+00  0.00000000E+00
  0.00000000E+00  0.00000000E+00  0.00000000E+00
  0.00000000E+00  0.00000000E+00  0.00000000E+00
  0.00000000E+00  0.00000000E+00  0.00000000E+00
  0.00000000E+00  0.00000000E+00  0.00000000E+00
  0.00000000E+00  0.00000000E+00  0.00000000E+00
  0.00000000E+00  0.00000000E+00  0.00000000E+00
  0.00000000E+00  0.00000000E+00  0.00000000E+00
  0.00000000E+00  0.00000000E+00  0.00000000E+00
  0.00000000E+00  0.00000000E+00  0.00000000E+00
  0.00000000E+00  0.00000000E+00  0.00000000E+00
  0.00000000E+00  0.00000000E+00  0.00000000E+00
  0.00000000E+00  0.00000000E+00  0.00000000E+00
  0.00000000E+00  0.00000000E+00  0.00000000E+00
  0.00000000E+00  0.00000000E+00  0.00000000E+00
  0.00000000E+00  0.00000000E+00  0.00000000E+00
  0.00000000E+00  0.00000000E+00  0.00000000E+00
  0.00000000E+00  0.00000000E+00  0.00000000E+00
  0.00000000E+00  0.00000000E+00  0.00000000E+00
  0.00000000E+00  0.00000000E+00  0.00000000E+00
  0.00000000E+00  0.00000000E+00  0.00000000E+00
  0.00000000E+00  0.00000000E+00  0.00000000E+00
  0.00000000E+00  0.00000000E+00  0.00000000E+00
  0.00000000E+00  0.00000000E+00  0.00000000E+00
  0.00000000E+00  0.00000000E+00  0.00000000E+00
  0.00000000E+00  0.00000000E+00  0.00000000E+00
  0.00000000E+00  0.00000000E+00  0.00000000E+00
  0.00000000E+00  0.00000000E+00  0.00000000E+00
  0.00000000E+00  0.00000000E+00  0.00000000E+00
  0.00000000E+00  0.00000000E+00  0.00000000E+00
  0.00000000E+00  0.00000000E+00  0.00000000E+00
  0.00000000E+00  0.00000000E+00  0.00000000E+00
  0.00000000E+00  0.00000000E+00  0.00000000E+00
  0.00000000E+00  0.00000000E+00  0.00000000E+00
  0.00000000E+00  0.00000000E+00  0.00000000E+00
  0.00000000E+00  0.00000000E+00  0.00000000E+00
  0.00000000E+00  0.00000000E+00  0.00000000E+00
  0.00000000E+00  0.00000000E+00  0.00000000E+00
  0.00000000E+00  0.00000000E+00  0.00000000E+00
  0.00000000E+00  0.00000000E+00  0.00000000E+00
  0.00000000E+00  0.00000000E+00  0.00000000E+00
  0.00000000E+00  0.00000000E+00  0.00000000E+00
  0.00000000E+00  0.00000000E+00  0.00000000E+00
  0.00000000E+00  0.00000000E+00  0.00000000E+00
  0.00000000E+00  0.00000000E+00  0.00000000E+00
  0.00000000E+00  0.00000000E+00  0.00000000E+00
  0.00000000E+00  0.00000000E+00  0.00000000E+00
  0.00000000E+00  0.00000000E+00  0.00000000E+00
  0.00000000E+00  0.00000000E+00  0.00000000E+00
  0.00000000E+00  0.00000000E+00  0.00000000E+00
  0.00000000E+00  0.00000000E+00  0.00000000E+00
  0.00000000E+00  0.00000000E+00  0.00000000E+00
  0.00000000E+00  0.00000000E+00  0.00000000E+00
  0.00000000E+00  0.00000000E+00  0.00000000E+00
  0.00000000E+00  0.00000000E+00  0.00000000E+00
  0.00000000E+00  0.00000000E+00  0.00000000E+00
  0.00000000E+00  0.00000000E+00  0.00000000E+00
  0.00000000E+00  0.00000000E+00  0.00000000E+00
  0.00000000E+00  0.00000000E+00  0.00000000E+00
  0.00000000E+00  0.00000000E+00  0.00000000E+00
  0.00000000E+00  0.00000000E+00  0.00000000E+00
  0.00000000E+00  0.00000000E+00  0.00000000E+00
  0.00000000E+00  0.00000000E+00  0.00000000E+00
  0.00000000E+00  0.00000000E+00  0.00000000E+00
  0.00000000E+00  0.00000000E+00  0.00000000E+00
  0.00000000E+00  0.00000000E+00  0.00000000E+00
  0.00000000E+00  0.00000000E+00  0.00000000E+00
  0.00000000E+00  0.00000000E+00  0.00000000E+00
  0.00000000E+00  0.00000000E+00  0.00000000E+00
  0.00000000E+00  0.00000000E+00  0.00000000E+00
  0.00000000E+00  0.00000000E+00  0.00000000E+00
  0.00000000E+00  0.00000000E+00  0.00000000E+00
  0.00000000E+00  0.00000000E+00  0.00000000E+00
  0.00000000E+00  0.00000000E+00  0.00000000E+00
  0.00000000E+00  0.00000000E+00  0.00000000E+00
  0.00000000E+00  0.00000000E+00  0.00000000E+00
  0.00000000E+00  0.00000000E+00  0.00000000E+00
  0.00000000E+00  0.00000000E+00  0.00000000E+00
  0.00000000E+00  0.00000000E+00  0.00000000E+00
  0.00000000E+00  0.00000000E+00  0.00000000E+00
  0.00000000E+00  0.00000000E+00  0.00000000E+00
  0.00000000E+00  0.00000000E+00  0.00000000E+00
  0.00000000E+00  0.00000000E+00  0.00000000E+00
  0.00000000E+00  0.00000000E+00  0.00000000E+00
  0.00000000E+00  0.00000000E+00  0.00000000E+00
  0.00000000E+00  0.00000000E+00  0.00000000E+00
  0.00000000E+00  0.00000000E+00  0.00000000E+00
  0.00000000E+00  0.00000000E+00  0.00000000E+00
  0.00000000E+00  0.00000000E+00  0.00000000E+00
  0.00000000E+00  0.00000000E+00  0.00000000E+00
  0.00000000E+00  0.00000000E+00  0.00000000E+00
  0.00000000E+00  0.00000000E+00  0.00000000E+00
  0.00000000E+00  0.00000000E+00  0.00000000E+00
  0.00000000E+00  0.00000000E+00  0.00000000E+00
  0.00000000E+00  0.00000000E+00  0.00000000E+00
  0.00000000E+00  0.00000000E+00  0.00000000E+00
  0.00000000E+00  0.00000000E+00  0.00000000E+00
  0.00000000E+00  0.00000000E+00  0.00000000E+00
  0.00000000E+00  0.00000000E+00  0.00000000E+00
  0.00000000E+00  0.00000000E+00  0.00000000E+00
  0.00000000E+00  0.00000000E+00  0.00000000E+00
  0.00000000E+00  0.00000000E+00  0.00000000E+00
  0.00000000E+00  0.00000000E+00  0.00000000E+00
  0.00000000E+00  0.00000000E+00  0.00000000E+00
  0.00000000E+00  0.00000000E+00  0.00000000E+00
  0.00000000E+00  0.00000000E+00  0.00000000E+00
  0.00000000E+00  0.00000000E+00  0.00000000E+00
  0.00000000E+00  0.00000000E+00  0.00000000E+00
  0.00000000E+00  0.00000000E+00  0.00000000E+00
  0.00000000E+00  0.00000000E+00  0.00000000E+00
  0.00000000E+00  0.00000000E+00  0.00000000E+00
  0.00000000E+00  0.00000000E+00  0.00000000E+00
  0.00000000E+00  0.00000000E+00  0.00000000E+00
  0.00000000E+00  0.00000000E+00  0.00000000E+00
  0.00000000E+00  0.00000000E+00  0.00000000E+00
  0.00000000E+00  0.00000000E+00  0.00000000E+00
  0.00000000E+00  0.00000000E+00  0.00000000E+00
  0.00000000E+00  0.00000000E+00  0.00000000E+00
  0.00000000E+00  0.00000000E+00  0.00000000E+00
  0.00000000E+00  0.00000000E+00  0.00000000E+00
  0.00000000E+00  0.00000000E+00  0.00000000E+00
  0.00000000E+00  0.00000000E+00  0.00000000E+00
  0.00000000E+00  0.00000000E+00  0.00000000E+00
  0.00000000E+00  0.00000000E+00  0.00000000E+00
  0.00000000E+00  0.00000000E+00  0.00000000E+00
  0.00000000E+00  0.00000000E+00  0.00000000E+00
  0.00000000E+00  0.00000000E+00  0.00000000E+00
  0.00000000E+00  0.00000000E+00  0.00000000E+00
  0.00000000E+00  0.00000000E+00  0.00000000E+00
  0.00000000E+00  0.00000000E+00  0.00000000E+00
  0.00000000E+00  0.00000000E+00  0.00000000E+00
  0.00000000E+00  0.00000000E+00  0.00000000E+00
  0.00000000E+00  0.00000000E+00  0.00000000E+00
  0.00000000E+00  0.00000000E+00  0.00000000E+00
  0.00000000E+00  0.00000000E+00  0.00000000E+00
  0.00000000E+00  0.00000000E+00  0.00000000E+00
  0.00000000E+00  0.00000000E+00  0.00000000E+00
  0.00000000E+00  0.00000000E+00  0.00000000E+00
  0.00000000E+00  0.00000000E+00  0.00000000E+00
  0.00000000E+00  0.00000000E+00  0.00000000E+00
  0.00000000E+00  0.00000000E+00  0.00000000E+00
  0.00000000E+00  0.00000000E+00  0.00000000E+00
  0.00000000E+00  0.00000000E+00  0.00000000E+00
  0.00000000E+00  0.00000000E+00  0.00000000E+00
  0.00000000E+00  0.00000000E+00  0.00000000E+00
  0.00000000E+00  0.00000000E+00  0.00000000E+00
  0.00000000E+00  0.00000000E+00  0.00000000E+00
  0.00000000E+00  0.00000000E+00  0.00000000E+00
  0.00000000E+00  0.00000000E+00  0.00000000E+00
  0.00000000E+00  0.00000000E+00  0.00000000E+00
  0.00000000E+00  0.00000000E+00  0.00000000E+00
  0.00000000E+00  0.00000000E+00  0.00000000E+00
  0.00000000E+00  0.00000000E+00  0.00000000E+00
  0.00000000E+00  0.00000000E+00  0.00000000E+00
  0.00000000E+00  0.00000000E+00  0.00000000E+00
  0.00000000E+00  0.00000000E+00  0.00000000E+00
  0.00000000E+00  0.00000000E+00  0.00000000E+00
  0.00000000E+00  0.00000000E+00  0.00000000E+00
  0.00000000E+00  0.00000000E+00  0.00000000E+00
  0.00000000E+00  0.00000000E+00  0.00000000E+00
  0.00000000E+00  0.00000000E+00  0.00000000E+00
  0.00000000E+00  0.00000000E+00  0.00000000E+00
  0.00000000E+00  0.00000000E+00  0.00000000E+00
  0.00000000E+00  0.00000000E+00  0.00000000E+00
  0.00000000E+00  0.00000000E+00  0.00000000E+00
  0.00000000E+00  0.00000000E+00  0.00000000E+00
  0.00000000E+00  0.00000000E+00  0.00000000E+00
  0.00000000E+00  0.00000000E+00  0.00000000E+00
  0.00000000E+00  0.00000000E+00  0.00000000E+00
  0.00000000E+00  0.00000000E+00  0.00000000E+00
  0.00000000E+00  0.00000000E+00  0.00000000E+00
  0.00000000E+00  0.00000000E+00  0.00000000E+00
  0.00000000E+00  0.00000000E+00  0.00000000E+00
  0.00000000E+00  0.00000000E+00  0.00000000E+00
  0.00000000E+00  0.00000000E+00  0.00000000E+00
  0.00000000E+00  0.00000000E+00  0.00000000E+00
  0.00000000E+00  0.00000000E+00  0.00000000E+00
  0.00000000E+00  0.00000000E+00  0.00000000E+00
  0.00000000E+00  0.00000000E+00  0.00000000E+00
  0.00000000E+00  0.00000000E+00  0.00000000E+00
  0.00000000E+00  0.00000000E+00  0.00000000E+00
  0.00000000E+00  0.00000000E+00  0.00000000E+00
  0.00000000E+00  0.00000000E+00  0.00000000E+00
  0.00000000E+00  0.00000000E+00  0.00000000E+00