CuInSe2gb                               
   1.00000000000000     
     9.7266780392896699    0.0000000000000000    0.0000000000000000
     0.0000000000000000    8.4235502764570693    0.0000000000000000
     0.0000000000000000    0.0000000000000000   45.0000000000000000
   Fe   Mn
   281     7
Direct
  0.0538642843844121  0.7011185506192370  0.2113307111389996
  0.3180148707331619  0.7239462351143879  0.8763761630118649
  0.6878020102365499  0.9580764903628937  0.6112637921707120
  0.4376577555077537  0.4580162317872927  0.6113582229315371
  0.4412725408400068  0.2872263251717625  0.2553211183560252
  0.0586450113186461  0.3886834883017983  0.8336217499243552
  0.3086344189961832  0.8874266273760448  0.8334887339716455
  0.4466492636028754  0.6262653846389418  0.7002949371569402
  0.0597171639875413  0.2127097493692478  0.7449082962973953
  0.1791494873993592  0.4512304947603346  0.2113362070605041
  0.5678134453760059  0.2105366782677782  0.4774722102581501
  0.0670576565663200  0.8747013282988249  0.5666905548845915
  0.5681898232803481  0.2238252991441192  0.8761545876369617
  0.8076554195201573  0.5268021728746181  0.1240730239369161
  0.4291768572084348  0.9516708279619764  0.2116563469392018
  0.5669149409841182  0.3749570747731396  0.5666698016211997
  0.8111478232307132  0.0422432537037848  0.3883072145716236
  0.6822829744995779  0.7882898201453954  0.5222416906435358
  0.4428308367816159  0.4607384313538005  0.4774222654062220
  0.4339578415816319  0.9625280599087503  0.7447030542817579
  0.4423225321309400  0.6247392260046580  0.5667083989555151
  0.5717253278403364  0.8764085937297693  0.7004575014526957
  0.3089898380813472  0.0261679384179647  0.1242052157491240
  0.6904446426844075  0.9593362374069193  0.3440748821353252
  0.6872420274960359  0.7824617033923889  0.1243562103194584
  0.0527307768223219  0.3736682520719976  0.2996255056716122
  0.6898587378671671  0.4679278334712036  0.8761145527275128
  0.4282765592974209  0.4514271746201446  0.2115185098100475
  0.8087077878316106  0.3753406905935354  0.4330237321796498
  0.5627354427743059  0.7082499336178107  0.6113894231074682
  0.5597556475319256  0.5409141534187049  0.6557378542301602
  0.8172951512030345  0.8621400700283917  0.1666451901769362
  0.5659686732690685  0.5376749439410770  0.2552672439521327
  0.6900008174383969  0.4593557406094834  0.3440706702498533
  0.1922446286518509  0.6125061973259639  0.1666181808604469
  0.1943287028645853  0.7994736848886922  0.7888808514516771
  0.4472165893319978  0.1259557836037701  0.7002476323215151
  0.9277500735134068  0.6234230521359927  0.2996508041933201
  0.3177341651930152  0.2235263801009403  0.8761353429186127
  0.3172909352072660  0.8745130045735229  0.5666499528909023
  0.8175431009159401  0.2238416684749901  0.8763057001549366
  0.8098747379535246  0.5416334177893495  0.6556889473697236
  0.5581700088576119  0.5267971139411174  0.1241727033708880
  0.5694210661635207  0.0499474503617823  0.7889323180937692
  0.1902289256532914  0.2868768376741623  0.2553821781423614
  0.8085059566500692  0.8749317849445597  0.4330739448698122
  0.5723217227919667  0.3763845597913474  0.7003113881661182
  0.0575209891075824  0.0272269314445342  0.1241768859824875
  0.3097540070443235  0.5408542929600373  0.6558060670231319
  0.5652328373446655  0.2091897825331687  0.3439559834783200
  0.1875572209491382  0.9582354328942285  0.6112380959184140
  0.3027834488931905  0.3740529700225114  0.2996624467059564
  0.4345313330798485  0.7906808379850164  0.6558263446764638
  0.1949875538268692  0.2990871674465252  0.7887928151662800
  0.0667498346198206  0.3625435335974092  0.1667971357877655
  0.6969765885375591  0.6263329504819060  0.7004023272841686
  0.3114434789858290  0.5412975476775819  0.3884361127243003
  0.0675538220593355  0.7233842633948375  0.8763872583118182
  0.9336939273363337  0.6379525506885870  0.8341715353843260
  0.3194259848974896  0.5497172301921042  0.7889903639192694
  0.3042469688342182  0.2005635262016504  0.2112397040989442
  0.0681559524387287  0.7102459036154599  0.4773053652110731
  0.5540823449116739  0.2006343743164074  0.2112059242878919
  0.3097427399318626  0.2121951004862500  0.7448698638258184
  0.0719990775033352  0.3765678919905630  0.7004571061901306
  0.1828325196006025  0.6377831408721117  0.8337939548382221
  0.0692512859067531  0.0494276977709883  0.7890153509408478
  0.4419887070468405  0.1249479900773916  0.5667780653403276
  0.9348393645891266  0.2912883046147392  0.6557362310048588
  0.8039637369503781  0.2013480585060351  0.2112714419370308
  0.9290565890389441  0.9512887084588331  0.2113374153517932
  0.9424914810960312  0.6250176964514838  0.5666417462467837
  0.8083364360509042  0.3879007807083419  0.8335708234153488
  0.1968473294431725  0.6260099627906311  0.7001706067050100
  0.8085915127260082  0.8876787111972321  0.8335586752157000
  0.6847993286489439  0.2906650441203484  0.6559152098835203
  0.3127305904827187  0.2081723238505244  0.6112795272147166
  0.4347362174358460  0.4629385653213292  0.7448999818995846
  0.4363167042366928  0.7906720815279618  0.3884315326197130
  0.6847621458941886  0.9626621564831207  0.7447883517471672
  0.8033266151954251  0.7004906433702052  0.2114221156614388
  0.8126835942347628  0.7082009463110454  0.6114059402191442
  0.4363077234797647  0.7830779739994917  0.1241919631537655
  0.3098383328984045  0.7122954897066947  0.7447722535724753
  0.3201911557448515  0.0494532933534889  0.7888287411125772
  0.8115462711238162  0.5420520297258623  0.3883744296353367
  0.6824707544651102  0.2880932899063292  0.5223685167763948
  0.6946677368211157  0.7992614221870840  0.7888858977587577
  0.1909536711652037  0.7875778076763207  0.2554563035862550
  0.6916303028510272  0.1125689502284812  0.1667644332641280
  0.6925463643030545  0.9604019737581488  0.4772877551639124
  0.9403108863345390  0.9594135002556217  0.3441398570299205
  0.8075238966116602  0.0386757544052313  0.5225346507980055
  0.3166988062243846  0.3622937602911083  0.1667864167161666
  0.4400831441088556  0.4589307960550533  0.3440056688821040
  0.8103985611267401  0.2116302185979204  0.7446729187251854
  0.4397222285704365  0.9681741824244241  0.8760919296104613
  0.5674870063472841  0.8748574446336956  0.5666630995376444
  0.8084938883281441  0.0274327548145421  0.1241448981406109
  0.4280330457315633  0.6236147715269326  0.2994715997437299
  0.8165980423976579  0.7241658537900346  0.8764895443149996
  0.6875522985744797  0.4579558331308746  0.6112912972814422
  0.5587832756634526  0.3877353904846813  0.8335061633149842
  0.8029776597065909  0.3734383756357299  0.2996261893555790
  0.1861018091805937  0.2909334772273069  0.3883386995987625
  0.8196575012069364  0.5496018311189463  0.7889976166032642
  0.1824278148960245  0.7891016495774265  0.5224071398335574
  0.3029048543362439  0.8741954414596218  0.2997310626797716
  0.1783189834407855  0.9516955041686364  0.2114445294068867
  0.1846895482771052  0.4625499819582882  0.7448973586971644
  0.4325902193137259  0.2886028182036000  0.5222005776578634
  0.0654876749940678  0.7089111249024194  0.3439708443882595
  0.1849060754053148  0.7910025009653702  0.6557542794459009
  0.4445632465692652  0.7992186075043631  0.7888167211583607
  0.6838709832445071  0.1248054481476033  0.4328726922455191
  0.9323284675906264  0.7880755515676656  0.5223754547640366
  0.6916092883601049  0.6125137301272442  0.1666736380253593
  0.8151946448087471  0.7086614179188916  0.3438983914030451
  0.9345365523893930  0.4627065935497279  0.7449411325832788
  0.1902851243496428  0.4593654784242039  0.3441084004493747
  0.5696637699147181  0.5496852667593485  0.7890739616312006
  0.5668932894909233  0.3621896647891849  0.1666373216346410
  0.5654004851720977  0.7088848783093517  0.3439679458287171
  0.5529532235991611  0.3737408831168834  0.2996226453786941
  0.1898298988341966  0.4680105190631388  0.8761053212082960
  0.1912571958803493  0.1114859651759746  0.1666103079053306
  0.4446115162571193  0.2990298253655672  0.7888007588618871
  0.6911948221574853  0.7874387988965167  0.2555001402094993
  0.9337402521962506  0.1381087094002315  0.8336269545196057
  0.4426561537883330  0.9606890943880040  0.4774109026124891
  0.5674007890996196  0.7247482013598708  0.8763767695206288
  0.1926793184552731  0.4606389996390865  0.4773889510381757
  0.9353135933072024  0.2819546281220146  0.1242888465319351
  0.3118676427344607  0.0416357983948405  0.3884741532070290
  0.0598969103848140  0.0406322542121082  0.6559073789799982
  0.5587271251321322  0.3753807287216929  0.4331028998359611
  0.6841809708910147  0.4628762258678586  0.7449291095339587
  0.5600218587381679  0.2125566700184203  0.7448060190906209
  0.9469607825457842  0.1266997897322653  0.7003094295636965
  0.5599155377620283  0.0413323765664092  0.6557048401956163
  0.5576681358457332  0.5385697702557962  0.5223863744095933
  0.1777902518308238  0.1236798354219436  0.2996354160173739
  0.4413993383266455  0.1114870634747073  0.1666369118623435
  0.6777038953183872  0.6237152491486598  0.2996377113845786
  0.9281108291302209  0.1233878919278204  0.2996548738551079
  0.8172424482162461  0.3749341631455084  0.5667089225823327
  0.0528527602587218  0.8737833074876031  0.2996493349957489
  0.1923820175457353  0.6248653462274033  0.5666893282493183
  0.9443491767454132  0.7997478875362793  0.7888847154592186
  0.3085508629233191  0.3876843229202621  0.8334871862714655
  0.9399417379541400  0.4684285973417332  0.8761580524952604
  0.4335951810460787  0.6379139139486130  0.8335860549510433
  0.0649027962337917  0.2087774525143119  0.3438847965569276
  0.1898272109083612  0.9680288643568653  0.8761191235942494
  0.9355118228640839  0.7825096838089820  0.1243064252544579
  0.6864603543259764  0.7912379184527224  0.3883741782972290
  0.9347433171421310  0.7908132594861413  0.6557859039038132
  0.9416598224958317  0.1122203361642005  0.1667758123062828
  0.4349984870841972  0.2907341561603830  0.6559524470862583
  0.0538394454319847  0.2007801235802672  0.2113352961086621
  0.6787079585960167  0.9516618268920911  0.2113649228073341
  0.1780333266322660  0.6236187393228515  0.2995754448961938
  0.8221483650601281  0.8763740721493070  0.7004075478927348
  0.9467939865199015  0.6264625579512811  0.7004027953112985
  0.1969250852375045  0.1260856561438894  0.7002001171315048
  0.9422775069559550  0.4604744687484889  0.4771960355857828
  0.8127078703538735  0.2080737260512307  0.6113811940555256
  0.1831623748340979  0.6249292700511694  0.4330158029047890
  0.4278841729698799  0.1238299689691872  0.2995999753305691
  0.6778528601505931  0.1236334728517775  0.2996220401938604
  0.5616530912999781  0.5414536625632675  0.3884045511517731
  0.8150446631132576  0.2082419036358060  0.3438741357873983
  0.4399465677982207  0.4680591298658774  0.8760654276947837
  0.5584980365549330  0.8876570997768356  0.8334759562577309
  0.3176975764456992  0.2103980957890297  0.4772883814212433
  0.1925344666180005  0.9607353559703480  0.4773571568965750
  0.0585995031904702  0.8878206022502386  0.8335128987788846
  0.0575449152133528  0.5381387269532386  0.5223595845749267
  0.9426148631445895  0.9605504309572611  0.4772497888859419
  0.0625808938322494  0.7082430593693181  0.6113708759395099
  0.5573626448782990  0.0382815814124004  0.5223794872590204
  0.6949696706529058  0.2991687340394946  0.7888083812347262
  0.8164293943309338  0.3627207243451461  0.1667997171060369
  0.4337664936058627  0.1247827109852372  0.4328850001033813
  0.0677452498445551  0.2102872834856430  0.4773212861528014
  0.3099209971813668  0.0411266040704557  0.6557694984866717
  0.4323062425039471  0.7887132047263617  0.5222190567661441
  0.1836137371837364  0.1379877458374817  0.8336229430961533
  0.1853109322416707  0.2833028584019915  0.1243896763961375
  0.9406073853412684  0.4596351248756821  0.3440866873460970
  0.5665488179455280  0.8625269369803479  0.1667106652803125
  0.3036056683082524  0.7006047326892295  0.2113489510458955
  0.9411678023120262  0.6118318582687509  0.1665957091240092
  0.1876077625366362  0.4581807323430868  0.6112620364836512
  0.0720602394849480  0.8765484569195271  0.7002635083529768
  0.0597639503399805  0.5409601533076293  0.6557639690501655
  0.3071776241903011  0.5271740172203687  0.1240176756015375
  0.9362239004018436  0.7912485193437702  0.3884355697942859
  0.9450802873001491  0.2989042952129964  0.7887458674185912
  0.1845559834095086  0.2906146192871426  0.6557938121079276
  0.9377368438427027  0.9580904552009690  0.6113048825437193
  0.8102806511180434  0.7119998381923076  0.7447567199594963
  0.6910525578674209  0.2873814858038871  0.2553750453749249
  0.0594592520945869  0.7123518823646056  0.7449306509532252
  0.6787774029923672  0.4514531581026951  0.2113672996727586
  0.8177754907749212  0.2105951560270223  0.4774462826047343
  0.5676326007741840  0.7105050364905446  0.4773059467857865
  0.0668972744541630  0.8625197192292738  0.1667192480681761
  0.9324900752905484  0.2881207502678996  0.5223704001397456
  0.6847268383057881  0.7906176617575099  0.6557928465297076
  0.0588311724643629  0.8749323557343073  0.4330836053125196
  0.0679804189340586  0.2229386305008803  0.8763236897288522
  0.8096649348232384  0.0406571089265260  0.6558384772582044
  0.5587489716684758  0.0275459049866537  0.1240228676904688
  0.3090308128709282  0.3748496662132394  0.4329464494446036
  0.3170388886748148  0.3747699090559136  0.5667217595534199
  0.3174006073292853  0.7104077379299515  0.4772412446015803
  0.0572228689626567  0.0381422057335315  0.5223306955437566
  0.3220471384495230  0.8764415219891356  0.7004206702255130
  0.0654601956875600  0.5381344182327481  0.2552256804187943
  0.6836051770015852  0.1377895550324592  0.8334971095481560
  0.8150280707607840  0.0376648866718086  0.2551943006611206
  0.1834981079789819  0.1250982784592611  0.4330602603602363
  0.6971811113549898  0.1264093618720598  0.7003674614362122
  0.1828190212305569  0.2888469656483096  0.5222642826697567
  0.4408550907849664  0.7875884875990826  0.2554637567503102
  0.4412564924431494  0.6122258636357828  0.1667228496013598
  0.0628223543619398  0.2077898121679318  0.6113239734249701
  0.1861497064692922  0.7910832661214744  0.3883329529403295
  0.3075730493717163  0.5380277539142159  0.5222749376544863
  0.8220577651037085  0.3765445218857800  0.7001435065915701
  0.6868423229904604  0.2915472378219818  0.3884403101582691
  0.1923394096455883  0.1248795407957135  0.5667178171907852
  0.6897367774330152  0.9686968858017031  0.8761140908448305
  0.6921761569447392  0.1250127743640043  0.5666804600382569
  0.4403405719740247  0.9590246822806535  0.3441043399512289
  0.1841466922356325  0.9625901103329801  0.7447591947558971
  0.9408926585342996  0.7874819633903025  0.2553844792477182
  0.5591444925372455  0.8751306994540472  0.4329716579857242
  0.3088031817900746  0.8751983120772316  0.4329775137045697
  0.8076296766693025  0.5387084679001156  0.5224509473594097
  0.9287416987268061  0.4515492257259938  0.2113811678871984
  0.3151339729514832  0.5382027026709925  0.2554339593973965
  0.5617314101639650  0.0418038370120788  0.3884167695816433
  0.9375117576038362  0.4581005647122388  0.6113920316321417
  0.0618302319006368  0.0414614677179593  0.3883945402266330
  0.0618811848411844  0.5416795776438008  0.3884420219500606
  0.4364288935696262  0.2910508843422280  0.3883838355185675
  0.6927600076820162  0.4608894906238924  0.4771635507553270
  0.0671516879796969  0.3748376914278860  0.5667440724957977
  0.5536938047218556  0.7008437312406115  0.2112489486715715
  0.9407865478780943  0.2874125582883328  0.2553819230668472
  0.8193144441019083  0.0496036362648560  0.7890762880563383
  0.1904099507808766  0.9593954739434035  0.3440766119607023
  0.5528131410988248  0.8737796511088491  0.2996694743537264
  0.0586713440812363  0.3748716728624547  0.4329240114561874
  0.3152515382884978  0.7093789011131120  0.3439714752109910
  0.3151301079195288  0.2091933080174466  0.3440097128520471
  0.9425165353298010  0.1248415622969212  0.5666590428835291
  0.4381348999552317  0.9583994194416053  0.6113342460836328
  0.5651380836976312  0.0379470702693434  0.2551527122122616
  0.1868689308526962  0.7827487056317848  0.1243748876770230
  0.0653335646317114  0.0378611325019693  0.2553458488226364
  0.6920276005525411  0.6248248957182679  0.5667486340615934
  0.0570488007433318  0.5257515006511908  0.1242040343137320
  0.3074076395244533  0.0380607992967260  0.5221804980769174
  0.6859535321376539  0.2826671021327230  0.1242323334134840
  0.8179949150254069  0.7104930388058193  0.4774701165966327
  0.4335020529534541  0.1377465635365017  0.8335123885055499
  0.3223001892906529  0.3764912736363217  0.7003554844159254
  0.6835141891655142  0.6379402483989277  0.8335488166240048
  0.5599207515061582  0.7120699189434410  0.7447582122578429
  0.9368118631648334  0.2915088332493883  0.3884959622677648
  0.9398679288367631  0.9685546125643885  0.8761805369663418
  0.5626290535471975  0.2080041576572253  0.6112689240593537
  0.8170545702358675  0.8749287515369613  0.5667245583934613
  0.8031216720843850  0.8732613868398226  0.2995241015687495
  0.3150588096903445  0.0378958480954591  0.2553739813672055
  0.4366479522347169  0.2828197312884813  0.1243968265298691
  0.3127445756887233  0.7082534327893857  0.6113441663115572
  0.4341501501647798  0.6251272009048877  0.4330086840874531
  0.9332619105808491  0.6250385611229731  0.4331762118987060
  0.3177969351306944  0.8624067803313251  0.1659767176620671
  0.0706912681745619  0.5496071740469176  0.7887853407797399
  0.9337009519408380  0.1250028892188055  0.4331354089105989
  0.6818757413947490  0.6243391886108698  0.4330429464150648
  0.9336449265968209  0.9620948255786191  0.7446582422469514
  0.8157583875261134  0.5385147743116220  0.2554545292433037
 
  0.00000000E+00  0.00000000E+00  0.00000000E+00
  0.00000000E+00  0.00000000E+00  0.00000000E+00
  0.00000000E+00  0.00000000E+00  0.00000000E+00
  0.00000000E+00  0.00000000E+00  0.00000000E+00
  0.00000000E+00  0.00000000E+00  0.00000000E+00
  0.00000000E+00  0.00000000E+00  0.00000000E+00
  0.00000000E+00  0.00000000E+00  0.00000000E+00
  0.00000000E+00  0.00000000E+00  0.00000000E+00
  0.00000000E+00  0.00000000E+00  0.00000000E+00
  0.00000000E+00  0.00000000E+00  0.00000000E+00
  0.00000000E+00  0.00000000E+00  0.00000000E+00
  0.00000000E+00  0.00000000E+00  0.00000000E+00
  0.00000000E+00  0.00000000E+00  0.00000000E+00
  0.00000000E+00  0.00000000E+00  0.00000000E+00
  0.00000000E+00  0.00000000E+00  0.00000000E+00
  0.00000000E+00  0.00000000E+00  0.00000000E+00
  0.00000000E+00  0.00000000E+00  0.00000000E+00
  0.00000000E+00  0.00000000E+00  0.00000000E+00
  0.00000000E+00  0.00000000E+00  0.00000000E+00
  0.00000000E+00  0.00000000E+00  0.00000000E+00
  0.00000000E+00  0.00000000E+00  0.00000000E+00
  0.00000000E+00  0.00000000E+00  0.00000000E+00
  0.00000000E+00  0.00000000E+00  0.00000000E+00
  0.00000000E+00  0.00000000E+00  0.00000000E+00
  0.00000000E+00  0.00000000E+00  0.00000000E+00
  0.00000000E+00  0.00000000E+00  0.00000000E+00
  0.00000000E+00  0.00000000E+00  0.00000000E+00
  0.00000000E+00  0.00000000E+00  0.00000000E+00
  0.00000000E+00  0.00000000E+00  0.00000000E+00
  0.00000000E+00  0.00000000E+00  0.00000000E+00
  0.00000000E+00  0.00000000E+00  0.00000000E+00
  0.00000000E+00  0.00000000E+00  0.00000000E+00
  0.00000000E+00  0.00000000E+00  0.00000000E+00
  0.00000000E+00  0.00000000E+00  0.00000000E+00
  0.00000000E+00  0.00000000E+00  0.00000000E+00
  0.00000000E+00  0.00000000E+00  0.00000000E+00
  0.00000000E+00  0.00000000E+00  0.00000000E+00
  0.00000000E+00  0.00000000E+00  0.00000000E+00
  0.00000000E+00  0.00000000E+00  0.00000000E+00
  0.00000000E+00  0.00000000E+00  0.00000000E+00
  0.00000000E+00  0.00000000E+00  0.00000000E+00
  0.00000000E+00  0.00000000E+00  0.00000000E+00
  0.00000000E+00  0.00000000E+00  0.00000000E+00
  0.00000000E+00  0.00000000E+00  0.00000000E+00
  0.00000000E+00  0.00000000E+00  0.00000000E+00
  0.00000000E+00  0.00000000E+00  0.00000000E+00
  0.00000000E+00  0.00000000E+00  0.00000000E+00
  0.00000000E+00  0.00000000E+00  0.00000000E+00
  0.00000000E+00  0.00000000E+00  0.00000000E+00
  0.00000000E+00  0.00000000E+00  0.00000000E+00
  0.00000000E+00  0.00000000E+00  0.00000000E+00
  0.00000000E+00  0.00000000E+00  0.00000000E+00
  0.00000000E+00  0.00000000E+00  0.00000000E+00
  0.00000000E+00  0.00000000E+00  0.00000000E+00
  0.00000000E+00  0.00000000E+00  0.00000000E+00
  0.00000000E+00  0.00000000E+00  0.00000000E+00
  0.00000000E+00  0.00000000E+00  0.00000000E+00
  0.00000000E+00  0.00000000E+00  0.00000000E+00
  0.00000000E+00  0.00000000E+00  0.00000000E+00
  0.00000000E+00  0.00000000E+00  0.00000000E+00
  0.00000000E+00  0.00000000E+00  0.00000000E+00
  0.00000000E+00  0.00000000E+00  0.00000000E+00
  0.00000000E+00  0.00000000E+00  0.00000000E+00
  0.00000000E+00  0.00000000E+00  0.00000000E+00
  0.00000000E+00  0.00000000E+00  0.00000000E+00
  0.00000000E+00  0.00000000E+00  0.00000000E+00
  0.00000000E+00  0.00000000E+00  0.00000000E+00
  0.00000000E+00  0.00000000E+00  0.00000000E+00
  0.00000000E+00  0.00000000E+00  0.00000000E+00
  0.00000000E+00  0.00000000E+00  0.00000000E+00
  0.00000000E+00  0.00000000E+00  0.00000000E+00
  0.00000000E+00  0.00000000E+00  0.00000000E+00
  0.00000000E+00  0.00000000E+00  0.00000000E+00
  0.00000000E+00  0.00000000E+00  0.00000000E+00
  0.00000000E+00  0.00000000E+00  0.00000000E+00
  0.00000000E+00  0.00000000E+00  0.00000000E+00
  0.00000000E+00  0.00000000E+00  0.00000000E+00
  0.00000000E+00  0.00000000E+00  0.00000000E+00
  0.00000000E+00  0.00000000E+00  0.00000000E+00
  0.00000000E+00  0.00000000E+00  0.00000000E+00
  0.00000000E+00  0.00000000E+00  0.00000000E+00
  0.00000000E+00  0.00000000E+00  0.00000000E+00
  0.00000000E+00  0.00000000E+00  0.00000000E+00
  0.00000000E+00  0.00000000E+00  0.00000000E+00
  0.00000000E+00  0.00000000E+00  0.00000000E+00
  0.00000000E+00  0.00000000E+00  0.00000000E+00
  0.00000000E+00  0.00000000E+00  0.00000000E+00
  0.00000000E+00  0.00000000E+00  0.00000000E+00
  0.00000000E+00  0.00000000E+00  0.00000000E+00
  0.00000000E+00  0.00000000E+00  0.00000000E+00
  0.00000000E+00  0.00000000E+00  0.00000000E+00
  0.00000000E+00  0.00000000E+00  0.00000000E+00
  0.00000000E+00  0.00000000E+00  0.00000000E+00
  0.00000000E+00  0.00000000E+00  0.00000000E+00
  0.00000000E+00  0.00000000E+00  0.00000000E+00
  0.00000000E+00  0.00000000E+00  0.00000000E+00
  0.00000000E+00  0.00000000E+00  0.00000000E+00
  0.00000000E+00  0.00000000E+00  0.00000000E+00
  0.00000000E+00  0.00000000E+00  0.00000000E+00
  0.00000000E+00  0.00000000E+00  0.00000000E+00
  0.00000000E+00  0.00000000E+00  0.00000000E+00
  0.00000000E+00  0.00000000E+00  0.00000000E+00
  0.00000000E+00  0.00000000E+00  0.00000000E+00
  0.00000000E+00  0.00000000E+00  0.00000000E+00
  0.00000000E+00  0.00000000E+00  0.00000000E+00
  0.00000000E+00  0.00000000E+00  0.00000000E+00
  0.00000000E+00  0.00000000E+00  0.00000000E+00
  0.00000000E+00  0.00000000E+00  0.00000000E+00
  0.00000000E+00  0.00000000E+00  0.00000000E+00
  0.00000000E+00  0.00000000E+00  0.00000000E+00
  0.00000000E+00  0.00000000E+00  0.00000000E+00
  0.00000000E+00  0.00000000E+00  0.00000000E+00
  0.00000000E+00  0.00000000E+00  0.00000000E+00
  0.00000000E+00  0.00000000E+00  0.00000000E+00
  0.00000000E+00  0.00000000E+00  0.00000000E+00
  0.00000000E+00  0.00000000E+00  0.00000000E+00
  0.00000000E+00  0.00000000E+00  0.00000000E+00
  0.00000000E+00  0.00000000E+00  0.00000000E+00
  0.00000000E+00  0.00000000E+00  0.00000000E+00
  0.00000000E+00  0.00000000E+00  0.00000000E+00
  0.00000000E+00  0.00000000E+00  0.00000000E+00
  0.00000000E+00  0.00000000E+00  0.00000000E+00
  0.00000000E+00  0.00000000E+00  0.00000000E+00
  0.00000000E+00  0.00000000E+00  0.00000000E+00
  0.00000000E+00  0.00000000E+00  0.00000000E+00
  0.00000000E+00  0.00000000E+00  0.00000000E+00
  0.00000000E+00  0.00000000E+00  0.00000000E+00
  0.00000000E+00  0.00000000E+00  0.00000000E+00
  0.00000000E+00  0.00000000E+00  0.00000000E+00
  0.00000000E+00  0.00000000E+00  0.00000000E+00
  0.00000000E+00  0.00000000E+00  0.00000000E+00
  0.00000000E+00  0.00000000E+00  0.00000000E+00
  0.00000000E+00  0.00000000E+00  0.00000000E+00
  0.00000000E+00  0.00000000E+00  0.00000000E+00
  0.00000000E+00  0.00000000E+00  0.00000000E+00
  0.00000000E+00  0.00000000E+00  0.00000000E+00
  0.00000000E+00  0.00000000E+00  0.00000000E+00
  0.00000000E+00  0.00000000E+00  0.00000000E+00
  0.00000000E+00  0.00000000E+00  0.00000000E+00
  0.00000000E+00  0.00000000E+00  0.00000000E+00
  0.00000000E+00  0.00000000E+00  0.00000000E+00
  0.00000000E+00  0.00000000E+00  0.00000000E+00
  0.00000000E+00  0.00000000E+00  0.00000000E+00
  0.00000000E+00  0.00000000E+00  0.00000000E+00
  0.00000000E+00  0.00000000E+00  0.00000000E+00
  0.00000000E+00  0.00000000E+00  0.00000000E+00
  0.00000000E+00  0.00000000E+00  0.00000000E+00
  0.00000000E+00  0.00000000E+00  0.00000000E+00
  0.00000000E+00  0.00000000E+00  0.00000000E+00
  0.00000000E+00  0.00000000E+00  0.00000000E+00
  0.00000000E+00  0.00000000E+00  0.00000000E+00
  0.00000000E+00  0.00000000E+00  0.00000000E+00
  0.00000000E+00  0.00000000E+00  0.00000000E+00
  0.00000000E+00  0.00000000E+00  0.00000000E+00
  0.00000000E+00  0.00000000E+00  0.00000000E+00
  0.00000000E+00  0.00000000E+00  0.00000000E+00
  0.00000000E+00  0.00000000E+00  0.00000000E+00
  0.00000000E+00  0.00000000E+00  0.00000000E+00
  0.00000000E+00  0.00000000E+00  0.00000000E+00
  0.00000000E+00  0.00000000E+00  0.00000000E+00
  0.00000000E+00  0.00000000E+00  0.00000000E+00
  0.00000000E+00  0.00000000E+00  0.00000000E+00
  0.00000000E+00  0.00000000E+00  0.00000000E+00
  0.00000000E+00  0.00000000E+00  0.00000000E+00
  0.00000000E+00  0.00000000E+00  0.00000000E+00
  0.00000000E+00  0.00000000E+00  0.00000000E+00
  0.00000000E+00  0.00000000E+00  0.00000000E+00
  0.00000000E+00  0.00000000E+00  0.00000000E+00
  0.00000000E+00  0.00000000E+00  0.00000000E+00
  0.00000000E+00  0.00000000E+00  0.00000000E+00
  0.00000000E+00  0.00000000E+00  0.00000000E+00
  0.00000000E+00  0.00000000E+00  0.00000000E+00
  0.00000000E+00  0.00000000E+00  0.00000000E+00
  0.00000000E+00  0.00000000E+00  0.00000000E+00
  0.00000000E+00  0.00000000E+00  0.00000000E+00
  0.00000000E+00  0.00000000E+00  0.00000000E+00
  0.00000000E+00  0.00000000E+00  0.00000000E+00
  0.00000000E+00  0.00000000E+00  0.00000000E+00
  0.00000000E+00  0.00000000E+00  0.00000000E+00
  0.00000000E+00  0.00000000E+00  0.00000000E+00
  0.00000000E+00  0.00000000E+00  0.00000000E+00
  0.00000000E+00  0.00000000E+00  0.00000000E+00
  0.00000000E+00  0.00000000E+00  0.00000000E+00
  0.00000000E+00  0.00000000E+00  0.00000000E+00
  0.00000000E+00  0.00000000E+00  0.00000000E+00
  0.00000000E+00  0.00000000E+00  0.00000000E+00
  0.00000000E+00  0.00000000E+00  0.00000000E+00
  0.00000000E+00  0.00000000E+00  0.00000000E+00
  0.00000000E+00  0.00000000E+00  0.00000000E+00
  0.00000000E+00  0.00000000E+00  0.00000000E+00
  0.00000000E+00  0.00000000E+00  0.00000000E+00
  0.00000000E+00  0.00000000E+00  0.00000000E+00
  0.00000000E+00  0.00000000E+00  0.00000000E+00
  0.00000000E+00  0.00000000E+00  0.00000000E+00
  0.00000000E+00  0.00000000E+00  0.00000000E+00
  0.00000000E+00  0.00000000E+00  0.00000000E+00
  0.00000000E+00  0.00000000E+00  0.00000000E+00
  0.00000000E+00  0.00000000E+00  0.00000000E+00
  0.00000000E+00  0.00000000E+00  0.00000000E+00
  0.00000000E+00  0.00000000E+00  0.00000000E+00
  0.00000000E+00  0.00000000E+00  0.00000000E+00
  0.00000000E+00  0.00000000E+00  0.00000000E+00
  0.00000000E+00  0.00000000E+00  0.00000000E+00
  0.00000000E+00  0.00000000E+00  0.00000000E+00
  0.00000000E+00  0.00000000E+00  0.00000000E+00
  0.00000000E+00  0.00000000E+00  0.00000000E+00
  0.00000000E+00  0.00000000E+00  0.00000000E+00
  0.00000000E+00  0.00000000E+00  0.00000000E+00
  0.00000000E+00  0.00000000E+00  0.00000000E+00
  0.00000000E+00  0.00000000E+00  0.00000000E+00
  0.00000000E+00  0.00000000E+00  0.00000000E+00
  0.00000000E+00  0.00000000E+00  0.00000000E+00
  0.00000000E+00  0.00000000E+00  0.00000000E+00
  0.00000000E+00  0.00000000E+00  0.00000000E+00
  0.00000000E+00  0.00000000E+00  0.00000000E+00
  0.00000000E+00  0.00000000E+00  0.00000000E+00
  0.00000000E+00  0.00000000E+00  0.00000000E+00
  0.00000000E+00  0.00000000E+00  0.00000000E+00
  0.00000000E+00  0.00000000E+00  0.00000000E+00
  0.00000000E+00  0.00000000E+00  0.00000000E+00
  0.00000000E+00  0.00000000E+00  0.00000000E+00
  0.00000000E+00  0.00000000E+00  0.00000000E+00
  0.00000000E+00  0.00000000E+00  0.00000000E+00
  0.00000000E+00  0.00000000E+00  0.00000000E+00
  0.00000000E+00  0.00000000E+00  0.00000000E+00
  0.00000000E+00  0.00000000E+00  0.00000000E+00
  0.00000000E+00  0.00000000E+00  0.00000000E+00
  0.00000000E+00  0.00000000E+00  0.00000000E+00
  0.00000000E+00  0.00000000E+00  0.00000000E+00
  0.00000000E+00  0.00000000E+00  0.00000000E+00
  0.00000000E+00  0.00000000E+00  0.00000000E+00
  0.00000000E+00  0.00000000E+00  0.00000000E+00
  0.00000000E+00  0.00000000E+00  0.00000000E+00
  0.00000000E+00  0.00000000E+00  0.00000000E+00
  0.00000000E+00  0.00000000E+00  0.00000000E+00
  0.00000000E+00  0.00000000E+00  0.00000000E+00
  0.00000000E+00  0.00000000E+00  0.00000000E+00
  0.00000000E+00  0.00000000E+00  0.00000000E+00
  0.00000000E+00  0.00000000E+00  0.00000000E+00
  0.00000000E+00  0.00000000E+00  0.00000000E+00
  0.00000000E+00  0.00000000E+00  0.00000000E+00
  0.00000000E+00  0.00000000E+00  0.00000000E+00
  0.00000000E+00  0.00000000E+00  0.00000000E+00
  0.00000000E+00  0.00000000E+00  0.00000000E+00
  0.00000000E+00  0.00000000E+00  0.00000000E+00
  0.00000000E+00  0.00000000E+00  0.00000000E+00
  0.00000000E+00  0.00000000E+00  0.00000000E+00