CuInSe2gb                               
   1.00000000000000     
     9.7266780392896699    0.0000000000000000    0.0000000000000000
     0.0000000000000000    8.4235502764570693    0.0000000000000000
     0.0000000000000000    0.0000000000000000   45.0000000000000000
   Fe   Mn
   281     7
Direct
  0.0576894553907916  0.7009659729030043  0.2111188042648864
  0.3161031122031415  0.7205278290190457  0.8757409331699412
  0.6884735783565782  0.9578993054873984  0.6114575313792789
  0.4384425587312255  0.4579176686030413  0.6114838026509274
  0.4366617952607041  0.2869800062231955  0.2555565939615774
  0.0608961962186344  0.3867491398384636  0.8341565203074005
  0.3112278012932890  0.8867490884821793  0.8342407480945803
  0.4423930683151308  0.6265007410666937  0.7003867733668964
  0.0637609226911813  0.2132613366502562  0.7445056439201398
  0.1824977476286706  0.4513210167170912  0.2113027369552201
  0.5638660466977993  0.2088839158982778  0.4778400871823633
  0.0641920850839270  0.8747702162311890  0.5668475408189686
  0.5657223810537368  0.2199113990845265  0.8756892985491712
  0.8101200493968972  0.5302467360491694  0.1245302732360039
  0.4329023054360927  0.9510973618140046  0.2111762642503554
  0.5641269617793271  0.3746813569919370  0.5667819892320738
  0.8118335245934190  0.0422806668806096  0.3884053285009604
  0.6859836037273012  0.7909025376683512  0.5221620388650368
  0.4387658753321117  0.4590210788750346  0.4778534073641886
  0.4379685611093283  0.9628326619045190  0.7444936244879858
  0.4391219516960084  0.6245695359295960  0.5668370451820747
  0.5674918684540885  0.8763660766381421  0.7003260917924272
  0.3099881508536961  0.0307751041948304  0.1244957826521303
  0.6865622802335173  0.9580341239077890  0.3439636019348462
  0.6867795331991736  0.7792076791330170  0.1245554233190461
  0.0575308999885212  0.3733522879363445  0.2996427893169344
  0.6889953268501018  0.4713162545830247  0.8754718377462971
  0.4329272865149243  0.4513340298107382  0.2111585753009092
  0.8111372058807840  0.3752314144523299  0.4329826165147627
  0.5633378239302983  0.7080933091379946  0.6114974546139402
  0.5629022915595527  0.5412802648727391  0.6557762353588510
  0.8142206861936073  0.8637805992608305  0.1659989417432565
  0.5610698766332066  0.5369331233662937  0.2555427163103851
  0.6865067895911616  0.4582063542163269  0.3440643817112807
  0.1884166418707046  0.6126302111947484  0.1662175051756201
  0.1918290044961770  0.7992919478817132  0.7887412840548655
  0.4425054189549594  0.1264949422624616  0.7004074370064161
  0.9328519866373737  0.6231961339246596  0.2996464532374953
  0.3154137799691912  0.2200365981733659  0.8757021677005019
  0.3140730613806919  0.8745649577814628  0.5667482025037800
  0.8153765425533842  0.2200114678450192  0.8757088052871945
  0.8128986779571497  0.5416079001352025  0.6557740411111208
  0.5598708414795323  0.5301627551620051  0.1244112637745748
  0.5669081799932780  0.0495897276326099  0.7889544365925186
  0.1866526947058127  0.2870154520035028  0.2555110960051386
  0.8108134210859924  0.8752400276642075  0.4330292926784730
  0.5672836626322929  0.3765777308370868  0.7004646065137204
  0.0603373420409124  0.0296284165107543  0.1244243814583555
  0.3129831893354497  0.5411563936146291  0.6557605167476684
  0.5617516253530009  0.2082108098182059  0.3441889739293133
  0.1883511034273229  0.9579695893703762  0.6114663077119608
  0.3077397867289040  0.3735753602739321  0.2996520534894740
  0.4379149787776145  0.7916329753202496  0.6558023418665402
  0.1918010328362699  0.2984339975235413  0.7888716935666883
  0.0643466598233797  0.3636379975145224  0.1660241393230928
  0.6922700736998779  0.6265438172759672  0.7003598508401244
  0.3114054122702161  0.5415897496681829  0.3883826817648479
  0.0654592302153752  0.7200009751078903  0.8758736284817150
  0.9362665789532441  0.6368610301366961  0.8342647806637700
  0.3174286649767628  0.5497836113439567  0.7889476302434061
  0.3074330092573328  0.2007133978207542  0.2111508426578437
  0.0640047647488833  0.7091411569023960  0.4779100948363427
  0.5575035383832060  0.2009963148255738  0.2110744900825574
  0.3137518415499909  0.2134044542819963  0.7444118508021230
  0.0673751456478500  0.3769005898061684  0.7003794714583664
  0.1862183417863664  0.6368277189431339  0.8340617820563752
  0.0669305039542043  0.0492239125819785  0.7889303234078086
  0.4390307622059557  0.1247069421523329  0.5668368750835758
  0.9381068948922295  0.2917423098442932  0.6556908788118567
  0.8075475312051016  0.2015034098170623  0.2110760489859445
  0.9327329779616417  0.9515192931425082  0.2112401469781865
  0.9391386747844668  0.6248168088874914  0.5667916954261871
  0.8108911430840614  0.3867738553272389  0.8341816952498514
  0.1921213077430747  0.6266851427022316  0.7003760015529789
  0.8111284812197639  0.8865249718591062  0.8342635099797235
  0.6880641624937468  0.2913226930922534  0.6558052087284104
  0.3135722668434974  0.2079786946579815  0.6115020797801791
  0.4382055426538020  0.4626037913797033  0.7444171081748000
  0.4365993524553727  0.7917766751101013  0.3883945343007059
  0.6877321927130196  0.9628301537415510  0.7445267721421396
  0.8075369755439449  0.7010162430453739  0.2111372922077475
  0.8132354941042422  0.7080962919271933  0.6114342658700345
  0.4370479849313908  0.7792401812783992  0.1247005351687661
  0.3130398165281946  0.7129966770165742  0.7444248542766281
  0.3172725196021230  0.0494985295023765  0.7889860309939475
  0.8115784090744544  0.5417469633263631  0.3884120739018702
  0.6859887821285324  0.2908739747430029  0.5222193379833464
  0.6920780073962638  0.7994409670055389  0.7889027235200721
  0.1865590980103673  0.7877354353963079  0.2554899189598585
  0.6888379534069350  0.1126873178096381  0.1661532381425847
  0.6889533390021287  0.9590970922174158  0.4778535564917716
  0.9369390798766640  0.9582545175336399  0.3440745111289934
  0.8110059718617434  0.0401728875848849  0.5220511898770684
  0.3143051248834952  0.8632796694606047  0.1659436275114693
  0.4365928239345562  0.4582886433986083  0.3440398998546716
  0.8131533911752413  0.2134217878518806  0.7444886859250741
  0.4390452778216420  0.9715089345621534  0.8755241088872403
  0.5641502614558872  0.8743570052811894  0.5667801848758398
  0.8100702433695458  0.0298664314999959  0.1243857322464012
  0.4323484149070467  0.6233447278638586  0.2996944976427008
  0.8151977132435516  0.7204576933041530  0.8758494831054289
  0.6882692733278216  0.4578334398365077  0.6114357330201002
  0.5612353528516373  0.3869357921934531  0.8340646515883160
  0.8074347890501279  0.3731075985476070  0.2995965100195245
  0.1864735521372414  0.2917345081662465  0.3883807007044596
  0.8165777235110824  0.5496146009267299  0.7890777468054175
  0.1861308793176623  0.7906413947264810  0.5221748581235321
  0.3076405360817189  0.8734682377808414  0.2997002029413792
  0.1824966895461129  0.9512802281846405  0.2112251151065768
  0.1885994981558473  0.4629174497192247  0.7444440363520487
  0.4360343338773125  0.2907604174048874  0.5220549893160589
  0.0621487108321751  0.7085383769340752  0.3442023254372464
  0.1881570109278724  0.7911204054258980  0.6557145493307573
  0.4418282306458194  0.7995877470431896  0.7887874910953862
  0.6850307474264448  0.1251733599582655  0.4330725937686082
  0.9361822981793771  0.7903762618337642  0.5222550766283630
  0.6887873285834812  0.6136745063429674  0.1661339215772151
  0.8116837627819599  0.7088229249613920  0.3442507582432393
  0.9383179789738677  0.4626762100411277  0.7444291628579587
  0.1868267469041063  0.4584001279392044  0.3441282612729871
  0.5674130415708463  0.5492152736164122  0.7889863359231170
  0.5646642514818825  0.3638017489335683  0.1658068437719794
  0.5616372921151149  0.7084047199543140  0.3442445076518824
  0.5578314342706356  0.3733924029448167  0.2995632875475704
  0.1889458554900534  0.4712166872025595  0.8755776884286740
  0.1890376743428402  0.1130395244135856  0.1660397724563415
  0.4418984867121696  0.2988078100203193  0.7888227304738504
  0.6862568955219283  0.7873445157842484  0.2555025968461364
  0.9367345081027679  0.1366255616953540  0.8341090508582082
  0.4388044320453395  0.9592137412656089  0.4778109870413324
  0.5655810322217606  0.7201615062197642  0.8757255429292704
  0.1887509310577412  0.4590349050669933  0.4777904971298553
  0.9362095964778070  0.2796550130007640  0.1245507348856196
  0.3114620864734647  0.0416889092474249  0.3884305529429120
  0.0629206204190732  0.0410168206250298  0.6557610363959230
  0.5610076883189060  0.3746801953409287  0.4330549503308054
  0.6876272507819992  0.4624414929538275  0.7444968371850047
  0.5635226461606685  0.2135113777748464  0.7444490038868850
  0.9426439203490077  0.1268973108855311  0.7003821412304001
  0.5630573759315828  0.0411432373754606  0.6558085024205090
  0.5610078142142536  0.5407485033483871  0.5221093653602905
  0.1825745663272345  0.1234188059782713  0.2995692467540282
  0.4382408586214807  0.1125910553640429  0.1661532985168741
  0.6822646138837665  0.6233366798131852  0.2996663328176530
  0.9324499354932853  0.1229664399144106  0.2996131464197956
  0.8140758641514371  0.3748543410297611  0.5669049170988110
  0.0578830482958527  0.8733226823439996  0.2996246215096926
  0.1890138111236504  0.6248086785716648  0.5668709414020124
  0.9410960265540618  0.7991132518919449  0.7889284382095871
  0.3112917152397499  0.3868178673081369  0.8341967766383149
  0.9393307509660535  0.4715012124580989  0.8755854277170266
  0.4366437947401151  0.6371453621741291  0.8341102342487561
  0.0617345295380594  0.2083403147322561  0.3441672949912299
  0.1889158526885828  0.9710634035906633  0.8755061176718766
  0.9365878652736875  0.7793917633917855  0.1245584654811952
  0.6863606522418898  0.7918759017267195  0.3883661761716425
  0.9380121855814602  0.7915405920205582  0.6557809504890989
  0.9389456474308809  0.1128247111099741  0.1661116263382728
  0.4377833407240185  0.2914731937251301  0.6558498278518244
  0.0580818678881838  0.2011636956436191  0.2110603726801154
  0.6827642831978985  0.9515435099650039  0.2112855603246598
  0.1824256732890331  0.6236374120874166  0.2997165519073834
  0.8171395534442869  0.8765264092262358  0.7003468576021679
  0.9425198070976852  0.6267428945688106  0.7004047193758424
  0.1923233213862948  0.1269257628781436  0.7003819825055549
  0.9389381697684170  0.4587570417760585  0.4778000654687873
  0.8132569013824134  0.2079988044872227  0.6114359291184269
  0.1857875624703539  0.6252739539902583  0.4329974954878015
  0.4326054525770190  0.1234245619439313  0.2996847196798761
  0.6824891210192604  0.1229021372998766  0.2996604699607875
  0.5614145651215143  0.5413392415570373  0.3883396021901853
  0.8119164471828590  0.2082146755943369  0.3442598787049538
  0.4391926747386948  0.4714258823555431  0.8754799409136527
  0.5611750136571713  0.8866222082379491  0.8342027914434108
  0.3140228715573187  0.2092962630676136  0.4778172541463755
  0.1884970856946151  0.9592258345351765  0.4778326386729616
  0.0609247650443039  0.8867962770999349  0.8342139694138332
  0.0610403098492036  0.5405504800643485  0.5220253724961506
  0.9390752137484740  0.9588495919815998  0.4778447504789813
  0.0633427352004090  0.7080195031217610  0.6114009494571425
  0.5608695644124422  0.0405751431415361  0.5220801100411523
  0.6920374562352164  0.2987349757169783  0.7887625219265286
  0.8145610782461298  0.3634317802746954  0.1659890767432096
  0.4354799139115918  0.1247445934341182  0.4330496852045232
  0.0639756473639881  0.2091293209481951  0.4778936378206630
  0.3131107598783285  0.0413005569397569  0.6557865562503811
  0.4361241387406840  0.7906212484127624  0.5221291481461587
  0.1867262636638224  0.1367866646819788  0.8341125860583585
  0.1867075952103672  0.2789095048754132  0.1244333080764554
  0.9369428182430354  0.4582937510529286  0.3440571928580252
  0.5650369045226157  0.8635912805395154  0.1659898995860897
  0.3075211368055402  0.7006804847217422  0.2111389864748974
  0.9383575093880707  0.6136895884461224  0.1662088390664847
  0.1883551468211025  0.4580468787401119  0.6114443339618956
  0.0673137861332660  0.8766153321738397  0.7002592292900924
  0.0629924474303072  0.5413749538945699  0.6558773636580824
  0.3104708223115092  0.5302805114712317  0.1241407321195768
  0.9361854375772261  0.7919671136854495  0.3884354457219757
  0.9416020613620121  0.2986820060910856  0.7888335638604591
  0.1879385121552804  0.2914966173125172  0.6558516748015647
  0.9384788827556552  0.9580065588387884  0.6114871013839681
  0.8135676622252308  0.7129870411193446  0.7445586715976392
  0.6864118028644955  0.2874233423203020  0.2554650223015524
  0.0639268710166244  0.7129198715657390  0.7444391293905815
  0.6825845208722494  0.4511877396663691  0.2112334158320560
  0.8138059947377652  0.2087097423985117  0.4778407753214867
  0.5638716924517019  0.7093524840435586  0.4778846651617394
  0.0638686753075685  0.8635136622388142  0.1659782007672939
  0.9361251936910822  0.2904246776080294  0.5221713630369050
  0.6875802080409054  0.7914471864289290  0.6557969724239866
  0.0611997333982196  0.8751173868421771  0.4330001758144599
  0.0657312843231423  0.2195226821364332  0.8758232291568834
  0.8130116840120826  0.0411360747222883  0.6557489669372012
  0.5600130131552251  0.0297393122562036  0.1244254540431886
  0.3107081804760947  0.3747256313322305  0.4330856578309392
  0.3141374772902644  0.3745986796275512  0.5667490684078013
  0.3139459145607197  0.7092096619304834  0.4778539841093205
  0.0613149881135133  0.0407179318613406  0.5220209642294779
  0.3173217270366656  0.8766287054783294  0.7004017459366367
  0.0617872392107726  0.5369199656093715  0.2554955662730302
  0.6865832416749250  0.1372581012038258  0.8340726503046718
  0.8114704185076941  0.0368403636837624  0.2555598424319838
  0.1867750602980389  0.1250680522829384  0.4330366675375954
  0.6923332881554612  0.1264950364072807  0.7003545577394999
  0.1862757462871321  0.2906225812156091  0.5221945472136890
  0.4367199910592192  0.7874773121428593  0.2554604054344802
  0.4388636716612517  0.6125760800752166  0.1660739824791579
  0.0632181705183818  0.2078304809755467  0.6113944193115917
  0.1863299142822105  0.7915647484610062  0.3883982558141315
  0.3112737405606592  0.5409795071333221  0.5220809766950005
  0.8172591460951628  0.3768080317323946  0.7003610059178983
  0.6862720249172040  0.2921078382647473  0.3884522409135628
  0.1891782185011711  0.1247527072462037  0.5668103811024917
  0.6890037104718052  0.9716893367977927  0.8755202853521170
  0.6890616446142196  0.1249958389301960  0.5668411565257996
  0.4369829090394204  0.9584635142283410  0.3441532275179259
  0.1883540206204553  0.9628830121774611  0.7445154658323659
  0.9368974469203475  0.7876522648517345  0.2554889075839085
  0.5608839192688297  0.8758236532758206  0.4330223078971780
  0.3109383538097016  0.8753574708167300  0.4330620761666307
  0.8109827098140066  0.5404772837474865  0.5221194080976961
  0.9327556388105102  0.4512398791764304  0.2113521367843390
  0.3116526360825445  0.5365905636999055  0.2556386973299825
  0.5612453455849581  0.0420173431501087  0.3884379623450316
  0.9383294706377845  0.4577253459764451  0.6114833281973621
  0.0615819222942388  0.0417783559599620  0.3883981337126475
  0.0614146612546183  0.5417122698470547  0.3884179785551592
  0.4365977343386096  0.2916549155183374  0.3883863162663730
  0.6888981226593063  0.4590021213015487  0.4779202387497608
  0.0642726743628326  0.3747754151782735  0.5668831320630290
  0.5576556148632781  0.7010235996584528  0.2111685924926101
  0.9366306574598389  0.2869827206872123  0.2555328755847454
  0.8165939093249355  0.0494186901428335  0.7889120542470430
  0.1869686495069841  0.9583664790770843  0.3441233211215231
  0.5577851800301181  0.8734916297342692  0.2996830503714164
  0.0612637676061651  0.3746918819148319  0.4329990809308501
  0.3118213681797327  0.7078194730237738  0.3441669617849542
  0.3117986461131688  0.2079014901047710  0.3441360995393969
  0.9390799674189334  0.1250152082972762  0.5668090912708043
  0.4381525118040229  0.9579521115061534  0.6114568475791231
  0.5608610941553436  0.0369877483792558  0.2555818242209703
  0.1860265471803631  0.7791479700542367  0.1246283012419171
  0.0620130739115281  0.0370112041838811  0.2555254144029900
  0.6890210114158899  0.6247168225046548  0.5668450782208895
  0.0605378181939372  0.5299072051305199  0.1244243270957507
  0.3109089197485443  0.0413726300950679  0.5220915322162742
  0.6873311105939319  0.2799488210886458  0.1245846126919348
  0.8138320594872883  0.7091789836199321  0.4778946113669468
  0.4366989259547724  0.1367245389561388  0.8339707860970185
  0.3175386621823512  0.3762601738598482  0.7003772334950208
  0.6869503938592277  0.6370741403522220  0.8340786667076603
  0.5632719445424418  0.7128192770359097  0.7444735575017573
  0.9362381596767331  0.2921975923288654  0.3884175025799382
  0.9393454684722043  0.9711735340707859  0.8755027040865280
  0.5634954872462904  0.2081637317462859  0.6114470419696416
  0.8140964938594820  0.8747487323906539  0.5669037902487696
  0.8074208522203049  0.8733741598975798  0.2995932564140935
  0.3113138278763125  0.0369683904459636  0.2555399731864689
  0.4366797046323148  0.2795881507975298  0.1242169989817014
  0.3133068110983732  0.7081819655540390  0.6114646213707829
  0.4354379309710382  0.6251476817986267  0.4330728936813542
  0.9367530673077559  0.6252237482850200  0.4330860100324173
  0.6842983464819755  0.6252289400838353  0.4331190204519538
  0.0672450854034761  0.5493241592843865  0.7887793466005166
  0.9357540410236842  0.1250454724076397  0.4331185439559221
  0.3150564723691086  0.3633779747868720  0.1655890150090889
  0.9375803641886715  0.9630788248170324  0.7446309127309764
  0.8119457113477730  0.5368017993075109  0.2553762079288374
 
  0.00000000E+00  0.00000000E+00  0.00000000E+00
  0.00000000E+00  0.00000000E+00  0.00000000E+00
  0.00000000E+00  0.00000000E+00  0.00000000E+00
  0.00000000E+00  0.00000000E+00  0.00000000E+00
  0.00000000E+00  0.00000000E+00  0.00000000E+00
  0.00000000E+00  0.00000000E+00  0.00000000E+00
  0.00000000E+00  0.00000000E+00  0.00000000E+00
  0.00000000E+00  0.00000000E+00  0.00000000E+00
  0.00000000E+00  0.00000000E+00  0.00000000E+00
  0.00000000E+00  0.00000000E+00  0.00000000E+00
  0.00000000E+00  0.00000000E+00  0.00000000E+00
  0.00000000E+00  0.00000000E+00  0.00000000E+00
  0.00000000E+00  0.00000000E+00  0.00000000E+00
  0.00000000E+00  0.00000000E+00  0.00000000E+00
  0.00000000E+00  0.00000000E+00  0.00000000E+00
  0.00000000E+00  0.00000000E+00  0.00000000E+00
  0.00000000E+00  0.00000000E+00  0.00000000E+00
  0.00000000E+00  0.00000000E+00  0.00000000E+00
  0.00000000E+00  0.00000000E+00  0.00000000E+00
  0.00000000E+00  0.00000000E+00  0.00000000E+00
  0.00000000E+00  0.00000000E+00  0.00000000E+00
  0.00000000E+00  0.00000000E+00  0.00000000E+00
  0.00000000E+00  0.00000000E+00  0.00000000E+00
  0.00000000E+00  0.00000000E+00  0.00000000E+00
  0.00000000E+00  0.00000000E+00  0.00000000E+00
  0.00000000E+00  0.00000000E+00  0.00000000E+00
  0.00000000E+00  0.00000000E+00  0.00000000E+00
  0.00000000E+00  0.00000000E+00  0.00000000E+00
  0.00000000E+00  0.00000000E+00  0.00000000E+00
  0.00000000E+00  0.00000000E+00  0.00000000E+00
  0.00000000E+00  0.00000000E+00  0.00000000E+00
  0.00000000E+00  0.00000000E+00  0.00000000E+00
  0.00000000E+00  0.00000000E+00  0.00000000E+00
  0.00000000E+00  0.00000000E+00  0.00000000E+00
  0.00000000E+00  0.00000000E+00  0.00000000E+00
  0.00000000E+00  0.00000000E+00  0.00000000E+00
  0.00000000E+00  0.00000000E+00  0.00000000E+00
  0.00000000E+00  0.00000000E+00  0.00000000E+00
  0.00000000E+00  0.00000000E+00  0.00000000E+00
  0.00000000E+00  0.00000000E+00  0.00000000E+00
  0.00000000E+00  0.00000000E+00  0.00000000E+00
  0.00000000E+00  0.00000000E+00  0.00000000E+00
  0.00000000E+00  0.00000000E+00  0.00000000E+00
  0.00000000E+00  0.00000000E+00  0.00000000E+00
  0.00000000E+00  0.00000000E+00  0.00000000E+00
  0.00000000E+00  0.00000000E+00  0.00000000E+00
  0.00000000E+00  0.00000000E+00  0.00000000E+00
  0.00000000E+00  0.00000000E+00  0.00000000E+00
  0.00000000E+00  0.00000000E+00  0.00000000E+00
  0.00000000E+00  0.00000000E+00  0.00000000E+00
  0.00000000E+00  0.00000000E+00  0.00000000E+00
  0.00000000E+00  0.00000000E+00  0.00000000E+00
  0.00000000E+00  0.00000000E+00  0.00000000E+00
  0.00000000E+00  0.00000000E+00  0.00000000E+00
  0.00000000E+00  0.00000000E+00  0.00000000E+00
  0.00000000E+00  0.00000000E+00  0.00000000E+00
  0.00000000E+00  0.00000000E+00  0.00000000E+00
  0.00000000E+00  0.00000000E+00  0.00000000E+00
  0.00000000E+00  0.00000000E+00  0.00000000E+00
  0.00000000E+00  0.00000000E+00  0.00000000E+00
  0.00000000E+00  0.00000000E+00  0.00000000E+00
  0.00000000E+00  0.00000000E+00  0.00000000E+00
  0.00000000E+00  0.00000000E+00  0.00000000E+00
  0.00000000E+00  0.00000000E+00  0.00000000E+00
  0.00000000E+00  0.00000000E+00  0.00000000E+00
  0.00000000E+00  0.00000000E+00  0.00000000E+00
  0.00000000E+00  0.00000000E+00  0.00000000E+00
  0.00000000E+00  0.00000000E+00  0.00000000E+00
  0.00000000E+00  0.00000000E+00  0.00000000E+00
  0.00000000E+00  0.00000000E+00  0.00000000E+00
  0.00000000E+00  0.00000000E+00  0.00000000E+00
  0.00000000E+00  0.00000000E+00  0.00000000E+00
  0.00000000E+00  0.00000000E+00  0.00000000E+00
  0.00000000E+00  0.00000000E+00  0.00000000E+00
  0.00000000E+00  0.00000000E+00  0.00000000E+00
  0.00000000E+00  0.00000000E+00  0.00000000E+00
  0.00000000E+00  0.00000000E+00  0.00000000E+00
  0.00000000E+00  0.00000000E+00  0.00000000E+00
  0.00000000E+00  0.00000000E+00  0.00000000E+00
  0.00000000E+00  0.00000000E+00  0.00000000E+00
  0.00000000E+00  0.00000000E+00  0.00000000E+00
  0.00000000E+00  0.00000000E+00  0.00000000E+00
  0.00000000E+00  0.00000000E+00  0.00000000E+00
  0.00000000E+00  0.00000000E+00  0.00000000E+00
  0.00000000E+00  0.00000000E+00  0.00000000E+00
  0.00000000E+00  0.00000000E+00  0.00000000E+00
  0.00000000E+00  0.00000000E+00  0.00000000E+00
  0.00000000E+00  0.00000000E+00  0.00000000E+00
  0.00000000E+00  0.00000000E+00  0.00000000E+00
  0.00000000E+00  0.00000000E+00  0.00000000E+00
  0.00000000E+00  0.00000000E+00  0.00000000E+00
  0.00000000E+00  0.00000000E+00  0.00000000E+00
  0.00000000E+00  0.00000000E+00  0.00000000E+00
  0.00000000E+00  0.00000000E+00  0.00000000E+00
  0.00000000E+00  0.00000000E+00  0.00000000E+00
  0.00000000E+00  0.00000000E+00  0.00000000E+00
  0.00000000E+00  0.00000000E+00  0.00000000E+00
  0.00000000E+00  0.00000000E+00  0.00000000E+00
  0.00000000E+00  0.00000000E+00  0.00000000E+00
  0.00000000E+00  0.00000000E+00  0.00000000E+00
  0.00000000E+00  0.00000000E+00  0.00000000E+00
  0.00000000E+00  0.00000000E+00  0.00000000E+00
  0.00000000E+00  0.00000000E+00  0.00000000E+00
  0.00000000E+00  0.00000000E+00  0.00000000E+00
  0.00000000E+00  0.00000000E+00  0.00000000E+00
  0.00000000E+00  0.00000000E+00  0.00000000E+00
  0.00000000E+00  0.00000000E+00  0.00000000E+00
  0.00000000E+00  0.00000000E+00  0.00000000E+00
  0.00000000E+00  0.00000000E+00  0.00000000E+00
  0.00000000E+00  0.00000000E+00  0.00000000E+00
  0.00000000E+00  0.00000000E+00  0.00000000E+00
  0.00000000E+00  0.00000000E+00  0.00000000E+00
  0.00000000E+00  0.00000000E+00  0.00000000E+00
  0.00000000E+00  0.00000000E+00  0.00000000E+00
  0.00000000E+00  0.00000000E+00  0.00000000E+00
  0.00000000E+00  0.00000000E+00  0.00000000E+00
  0.00000000E+00  0.00000000E+00  0.00000000E+00
  0.00000000E+00  0.00000000E+00  0.00000000E+00
  0.00000000E+00  0.00000000E+00  0.00000000E+00
  0.00000000E+00  0.00000000E+00  0.00000000E+00
  0.00000000E+00  0.00000000E+00  0.00000000E+00
  0.00000000E+00  0.00000000E+00  0.00000000E+00
  0.00000000E+00  0.00000000E+00  0.00000000E+00
  0.00000000E+00  0.00000000E+00  0.00000000E+00
  0.00000000E+00  0.00000000E+00  0.00000000E+00
  0.00000000E+00  0.00000000E+00  0.00000000E+00
  0.00000000E+00  0.00000000E+00  0.00000000E+00
  0.00000000E+00  0.00000000E+00  0.00000000E+00
  0.00000000E+00  0.00000000E+00  0.00000000E+00
  0.00000000E+00  0.00000000E+00  0.00000000E+00
  0.00000000E+00  0.00000000E+00  0.00000000E+00
  0.00000000E+00  0.00000000E+00  0.00000000E+00
  0.00000000E+00  0.00000000E+00  0.00000000E+00
  0.00000000E+00  0.00000000E+00  0.00000000E+00
  0.00000000E+00  0.00000000E+00  0.00000000E+00
  0.00000000E+00  0.00000000E+00  0.00000000E+00
  0.00000000E+00  0.00000000E+00  0.00000000E+00
  0.00000000E+00  0.00000000E+00  0.00000000E+00
  0.00000000E+00  0.00000000E+00  0.00000000E+00
  0.00000000E+00  0.00000000E+00  0.00000000E+00
  0.00000000E+00  0.00000000E+00  0.00000000E+00
  0.00000000E+00  0.00000000E+00  0.00000000E+00
  0.00000000E+00  0.00000000E+00  0.00000000E+00
  0.00000000E+00  0.00000000E+00  0.00000000E+00
  0.00000000E+00  0.00000000E+00  0.00000000E+00
  0.00000000E+00  0.00000000E+00  0.00000000E+00
  0.00000000E+00  0.00000000E+00  0.00000000E+00
  0.00000000E+00  0.00000000E+00  0.00000000E+00
  0.00000000E+00  0.00000000E+00  0.00000000E+00
  0.00000000E+00  0.00000000E+00  0.00000000E+00
  0.00000000E+00  0.00000000E+00  0.00000000E+00
  0.00000000E+00  0.00000000E+00  0.00000000E+00
  0.00000000E+00  0.00000000E+00  0.00000000E+00
  0.00000000E+00  0.00000000E+00  0.00000000E+00
  0.00000000E+00  0.00000000E+00  0.00000000E+00
  0.00000000E+00  0.00000000E+00  0.00000000E+00
  0.00000000E+00  0.00000000E+00  0.00000000E+00
  0.00000000E+00  0.00000000E+00  0.00000000E+00
  0.00000000E+00  0.00000000E+00  0.00000000E+00
  0.00000000E+00  0.00000000E+00  0.00000000E+00
  0.00000000E+00  0.00000000E+00  0.00000000E+00
  0.00000000E+00  0.00000000E+00  0.00000000E+00
  0.00000000E+00  0.00000000E+00  0.00000000E+00
  0.00000000E+00  0.00000000E+00  0.00000000E+00
  0.00000000E+00  0.00000000E+00  0.00000000E+00
  0.00000000E+00  0.00000000E+00  0.00000000E+00
  0.00000000E+00  0.00000000E+00  0.00000000E+00
  0.00000000E+00  0.00000000E+00  0.00000000E+00
  0.00000000E+00  0.00000000E+00  0.00000000E+00
  0.00000000E+00  0.00000000E+00  0.00000000E+00
  0.00000000E+00  0.00000000E+00  0.00000000E+00
  0.00000000E+00  0.00000000E+00  0.00000000E+00
  0.00000000E+00  0.00000000E+00  0.00000000E+00
  0.00000000E+00  0.00000000E+00  0.00000000E+00
  0.00000000E+00  0.00000000E+00  0.00000000E+00
  0.00000000E+00  0.00000000E+00  0.00000000E+00
  0.00000000E+00  0.00000000E+00  0.00000000E+00
  0.00000000E+00  0.00000000E+00  0.00000000E+00
  0.00000000E+00  0.00000000E+00  0.00000000E+00
  0.00000000E+00  0.00000000E+00  0.00000000E+00
  0.00000000E+00  0.00000000E+00  0.00000000E+00
  0.00000000E+00  0.00000000E+00  0.00000000E+00
  0.00000000E+00  0.00000000E+00  0.00000000E+00
  0.00000000E+00  0.00000000E+00  0.00000000E+00
  0.00000000E+00  0.00000000E+00  0.00000000E+00
  0.00000000E+00  0.00000000E+00  0.00000000E+00
  0.00000000E+00  0.00000000E+00  0.00000000E+00
  0.00000000E+00  0.00000000E+00  0.00000000E+00
  0.00000000E+00  0.00000000E+00  0.00000000E+00
  0.00000000E+00  0.00000000E+00  0.00000000E+00
  0.00000000E+00  0.00000000E+00  0.00000000E+00
  0.00000000E+00  0.00000000E+00  0.00000000E+00
  0.00000000E+00  0.00000000E+00  0.00000000E+00
  0.00000000E+00  0.00000000E+00  0.00000000E+00
  0.00000000E+00  0.00000000E+00  0.00000000E+00
  0.00000000E+00  0.00000000E+00  0.00000000E+00
  0.00000000E+00  0.00000000E+00  0.00000000E+00
  0.00000000E+00  0.00000000E+00  0.00000000E+00
  0.00000000E+00  0.00000000E+00  0.00000000E+00
  0.00000000E+00  0.00000000E+00  0.00000000E+00
  0.00000000E+00  0.00000000E+00  0.00000000E+00
  0.00000000E+00  0.00000000E+00  0.00000000E+00
  0.00000000E+00  0.00000000E+00  0.00000000E+00
  0.00000000E+00  0.00000000E+00  0.00000000E+00
  0.00000000E+00  0.00000000E+00  0.00000000E+00
  0.00000000E+00  0.00000000E+00  0.00000000E+00
  0.00000000E+00  0.00000000E+00  0.00000000E+00
  0.00000000E+00  0.00000000E+00  0.00000000E+00
  0.00000000E+00  0.00000000E+00  0.00000000E+00
  0.00000000E+00  0.00000000E+00  0.00000000E+00
  0.00000000E+00  0.00000000E+00  0.00000000E+00
  0.00000000E+00  0.00000000E+00  0.00000000E+00
  0.00000000E+00  0.00000000E+00  0.00000000E+00
  0.00000000E+00  0.00000000E+00  0.00000000E+00
  0.00000000E+00  0.00000000E+00  0.00000000E+00
  0.00000000E+00  0.00000000E+00  0.00000000E+00
  0.00000000E+00  0.00000000E+00  0.00000000E+00
  0.00000000E+00  0.00000000E+00  0.00000000E+00
  0.00000000E+00  0.00000000E+00  0.00000000E+00
  0.00000000E+00  0.00000000E+00  0.00000000E+00
  0.00000000E+00  0.00000000E+00  0.00000000E+00
  0.00000000E+00  0.00000000E+00  0.00000000E+00
  0.00000000E+00  0.00000000E+00  0.00000000E+00
  0.00000000E+00  0.00000000E+00  0.00000000E+00
  0.00000000E+00  0.00000000E+00  0.00000000E+00
  0.00000000E+00  0.00000000E+00  0.00000000E+00
  0.00000000E+00  0.00000000E+00  0.00000000E+00
  0.00000000E+00  0.00000000E+00  0.00000000E+00
  0.00000000E+00  0.00000000E+00  0.00000000E+00
  0.00000000E+00  0.00000000E+00  0.00000000E+00
  0.00000000E+00  0.00000000E+00  0.00000000E+00
  0.00000000E+00  0.00000000E+00  0.00000000E+00
  0.00000000E+00  0.00000000E+00  0.00000000E+00
  0.00000000E+00  0.00000000E+00  0.00000000E+00
  0.00000000E+00  0.00000000E+00  0.00000000E+00
  0.00000000E+00  0.00000000E+00  0.00000000E+00
  0.00000000E+00  0.00000000E+00  0.00000000E+00
  0.00000000E+00  0.00000000E+00  0.00000000E+00
  0.00000000E+00  0.00000000E+00  0.00000000E+00
  0.00000000E+00  0.00000000E+00  0.00000000E+00
  0.00000000E+00  0.00000000E+00  0.00000000E+00
  0.00000000E+00  0.00000000E+00  0.00000000E+00
  0.00000000E+00  0.00000000E+00  0.00000000E+00
  0.00000000E+00  0.00000000E+00  0.00000000E+00
  0.00000000E+00  0.00000000E+00  0.00000000E+00
  0.00000000E+00  0.00000000E+00  0.00000000E+00
  0.00000000E+00  0.00000000E+00  0.00000000E+00