CuInSe2gb                               
   1.00000000000000     
     9.7266780392896699    0.0000000000000000    0.0000000000000000
     0.0000000000000000    8.4235502764570693    0.0000000000000000
     0.0000000000000000    0.0000000000000000   45.0000000000000000
   Fe   Mn
   281     7
Direct
  0.0539465896996519  0.7009624479180742  0.2112465289398388
  0.3183870496780275  0.7236787146031605  0.8762821363175286
  0.6882962932772949  0.9585364280666350  0.6114979212604899
  0.4384734256649545  0.4585577572416154  0.6115722749533061
  0.4407231405140566  0.2870305841372710  0.2550775038697072
  0.0587816280473383  0.3886099679897713  0.8335723758847010
  0.3085693765974872  0.8876558490193218  0.8335138989485349
  0.4469275484360555  0.6263167404244218  0.7003956350014874
  0.0597646175351601  0.2126931027874840  0.7449100217067043
  0.1787367447956181  0.4516741617022839  0.2113795842781421
  0.5677640974785719  0.2105112046718909  0.4775027211050996
  0.0666086218461825  0.8749723233764597  0.5668577987369274
  0.5682734396310108  0.2239371806187458  0.8761168209037081
  0.8087429977591342  0.5278610871805413  0.1239826949012094
  0.4286725207013783  0.9514642943147151  0.2113811826687756
  0.5667155456408837  0.3749677698726818  0.5668564310010198
  0.8110140234157798  0.0416213564821283  0.3882278848315049
  0.6820138758197235  0.7887323515080015  0.5223164359862886
  0.4427808385287429  0.4607962432080207  0.4774641349255170
  0.4339733888539198  0.9626072701423652  0.7447746692861685
  0.4415416897872588  0.6249995995219372  0.5668695724391205
  0.5715358746364158  0.8764109478088499  0.7005503193029362
  0.3075834095196126  0.0263532671172366  0.1238856349237136
  0.6901315362060851  0.9591341018841809  0.3440047983552674
  0.6861473920397558  0.7827554465982968  0.1241694239250029
  0.0527313538929446  0.3737930615971001  0.2995637017590690
  0.6898586680391701  0.4678386985562144  0.8760879269238762
  0.4291257956235324  0.4515569473651476  0.2115440560948142
  0.8085738061157395  0.3753815016061653  0.4330491964087710
  0.5634001973799042  0.7084067416759409  0.6115817943777248
  0.5597560139780033  0.5406676226679482  0.6559095677244864
  0.8171491928610612  0.8624664269599434  0.1665866413434829
  0.5656510753433271  0.5375217087677885  0.2551378349394322
  0.6896767630951458  0.4588106580356986  0.3439806598033892
  0.1913205181461289  0.6114330799274942  0.1665274444078323
  0.1945482952434775  0.7994468273765230  0.7888383383260708
  0.4473291886507929  0.1260930580124138  0.7004194235289161
  0.9278368273565782  0.6236463674340957  0.2996138134515390
  0.3175171865401853  0.2236524018267163  0.8761409866620525
  0.3165889405804093  0.8747112856199427  0.5668256132568987
  0.8175854551184717  0.2238566227679354  0.8761921174164443
  0.8096605267036741  0.5407242981379595  0.6558201228624635
  0.5584408263684495  0.5276633810476834  0.1238412256309931
  0.5693406885597764  0.0498093728047656  0.7889627103693865
  0.1906886778602633  0.2872050605427963  0.2551844315663914
  0.8086680658587433  0.8749699833270973  0.4330349745864074
  0.5722352016688378  0.3762305987822174  0.7003977642446748
  0.0575544745630043  0.0263545736534846  0.1239653619367011
  0.3097253198532003  0.5406427732765665  0.6559766276908470
  0.5649051620530822  0.2090759049689922  0.3439154630460792
  0.1882583550841700  0.9586337281116543  0.6114976514805380
  0.3027545810058428  0.3740617347129519  0.2996539178359840
  0.4346918444859409  0.7905272085809711  0.6559905486997932
  0.1949360533611983  0.2989996680019335  0.7887948513715097
  0.0676809608317792  0.3623609687087873  0.1665957209920355
  0.6970050705297518  0.6263068766606267  0.7004322245514818
  0.3112724954364579  0.5415084768712987  0.3884586417067802
  0.0677117596772578  0.7232943204187139  0.8762187006435895
  0.9337911931874550  0.6375212364654659  0.8339605651336003
  0.3197253898991057  0.5497200545460639  0.7889429529298907
  0.3045476726707924  0.2006097039172471  0.2111968619583476
  0.0679435000814586  0.7103507702721219  0.4773463312343165
  0.5542563599817805  0.2009835758961496  0.2111170741038299
  0.3097162823612173  0.2123714606507945  0.7449317248536459
  0.0720198189074341  0.3764096593321504  0.7005282112490847
  0.1833147274088624  0.6376564543202417  0.8335739052503037
  0.0694691067338343  0.0495889799557408  0.7890078030008930
  0.4415884446862635  0.1249833853035024  0.5669260487380967
  0.9348163240601468  0.2905525628642057  0.6558470751679696
  0.8041748963140068  0.2010751237087342  0.2112136489424856
  0.9287310528328170  0.9514773787477210  0.2112708363808437
  0.9414443750283112  0.6252242943344768  0.5668247526735081
  0.8084162949485808  0.3875266777104475  0.8335256237919423
  0.1972457847259328  0.6260460281294643  0.7003015171620219
  0.8086098366880722  0.8877770561367241  0.8335488779643383
  0.6849524803742981  0.2907467739957451  0.6560481327688947
  0.3131379431065930  0.2083645725638191  0.6115078641754828
  0.4346392324132788  0.4628224086194272  0.7448884353283797
  0.4362350159461487  0.7908979106154267  0.3884173619957330
  0.6844859916573034  0.9625775454310218  0.7448502360940976
  0.8038861304699096  0.7009359840946622  0.2113088202614648
  0.8134895337026740  0.7083038361144839  0.6115825506793167
  0.4368097235167385  0.7831682281414495  0.1242206590580607
  0.3098412596298615  0.7121049274235037  0.7448071868336386
  0.3201065486260201  0.0495298167500570  0.7888524600731219
  0.8113647685378745  0.5420758608927950  0.3882880769671369
  0.6823878609350950  0.2883637417645096  0.5224934349626533
  0.6949392268341155  0.7992869243083293  0.7888876721937765
  0.1907658351183639  0.7874054696857349  0.2553191003227605
  0.6916202676298938  0.1122678461582908  0.1664296878779959
  0.6924155796030794  0.9605697517996763  0.4773045785419058
  0.9402416394839659  0.9592158269580514  0.3440707074133045
  0.8073740235247081  0.0394074724405642  0.5226839099453436
  0.3168096731532906  0.8619874996116484  0.1666286309310587
  0.4394150004230757  0.4584724366761935  0.3439585386441424
  0.8107134452025587  0.2115240784304824  0.7446349167634370
  0.4396611718900754  0.9678450873432289  0.8760854015594833
  0.5667667198127526  0.8748837501598787  0.5668385891881862
  0.8080377989227776  0.0269674248620647  0.1239165411576192
  0.4281901056463739  0.6236666813868030  0.2993738440620614
  0.8171023515432384  0.7238222624165931  0.8763212003238514
  0.6882563621243608  0.4586066681324174  0.6114976781822750
  0.5584448459992505  0.3875537670074540  0.8334313323845807
  0.8029626794024560  0.3735836550152236  0.2994925493112423
  0.1860045162083147  0.2909976791479821  0.3883677196704195
  0.8200344374876096  0.5494759587053094  0.7889151309523874
  0.1822649204666530  0.7894520080910625  0.5225276005090436
  0.3029628373342809  0.8739567652478724  0.2995448027338588
  0.1789564000413013  0.9512043675845335  0.2112162298613575
  0.1845330993849505  0.4625831070825229  0.7449475495302611
  0.4323057152704029  0.2888389899415905  0.5223313888142298
  0.0649607729272752  0.7086379123010801  0.3438304409754496
  0.1848275145354855  0.7905776446791286  0.6558837424715989
  0.4447268443606691  0.7992628011092477  0.7888335005603726
  0.6839146651177727  0.1249429265020890  0.4328993046925517
  0.9323225162575107  0.7889597026777252  0.5225136558071880
  0.6917362071566803  0.6125261107177989  0.1667157051507223
  0.8145096661397967  0.7078761991459372  0.3437502765084078
  0.9343438698846670  0.4626917651743780  0.7449303351414377
  0.1898314287531450  0.4588128307634535  0.3440251534168881
  0.5698574121936093  0.5499067346393381  0.7889919216405563
  0.5664336464822590  0.3623519317254309  0.1664579385159831
  0.5646800629756452  0.7086866622517711  0.3439298659271603
  0.5530153585021877  0.3736937750005157  0.2995961622929763
  0.1897410405899145  0.4680297817900684  0.8761095465244492
  0.1925459042754102  0.1119014273455128  0.1665892698693833
  0.4446202919974723  0.2991353428791815  0.7888124480930662
  0.6909622793114568  0.7873448593686282  0.2554197008252405
  0.9337270905286960  0.1377889420065060  0.8335479466811204
  0.4425690181440092  0.9606494409962545  0.4774718964220259
  0.5675375501002908  0.7247138653640158  0.8762232020877276
  0.1926257245357321  0.4608921098255094  0.4774645910133945
  0.9355705801216001  0.2824085991914898  0.1242368744704663
  0.3115508462603570  0.0413982715660827  0.3884173635285331
  0.0601558764322753  0.0404431590649201  0.6560383697206428
  0.5585430640859743  0.3749606284031662  0.4330811953249832
  0.6842455796671211  0.4627611080033193  0.7449569623236094
  0.5600958802187813  0.2124999483875112  0.7448336819056619
  0.9470787171931079  0.1262945077756475  0.7003611266088950
  0.5596684376794751  0.0406825540148237  0.6558372231817110
  0.5571816707179347  0.5393084241774069  0.5225209338033125
  0.1780168431631984  0.1234696688596769  0.2995551855456463
  0.4416768591185805  0.1120371957320906  0.1665161379214467
  0.6776530686625749  0.6236201537541760  0.2996212058551310
  0.9282331429616736  0.1233734454860318  0.2996412951587931
  0.8166203327157725  0.3750213881717503  0.5669127218202927
  0.0529573987116161  0.8738101377316253  0.2994981177557817
  0.1916660943794887  0.6249588857565096  0.5669147352925467
  0.9448516475617381  0.7995739503315358  0.7888157537138705
  0.3084735723190529  0.3873862528924947  0.8335049669330667
  0.9397714809245616  0.4684464654067710  0.8761101657997603
  0.4336150429816637  0.6378452203813264  0.8335276658126307
  0.0646458992780669  0.2085251547670534  0.3438248034673020
  0.1896883365331639  0.9680357812022466  0.8761137544582862
  0.9356377331424327  0.7822929087681926  0.1241430510483621
  0.6864670406645841  0.7914111636573175  0.3884405875306584
  0.9347459172083000  0.7905700668449033  0.6558834079739051
  0.9416847416875014  0.1119525238497397  0.1664163924601347
  0.4350701164626996  0.2907874020308660  0.6560586803074777
  0.0545887643348170  0.2009170893583857  0.2112064349219962
  0.6788936745635609  0.9515414969246772  0.2113398924996365
  0.1784057706074044  0.6235524701215281  0.2994186093898139
  0.8220604198305386  0.8761556090201573  0.7004048519115050
  0.9468242141027106  0.6264170714760285  0.7005031255096931
  0.1971763377607408  0.1262361954563549  0.7003477778523749
  0.9423124308900097  0.4607696529111016  0.4772350111017322
  0.8134639317887323  0.2083207290244740  0.6115751705625183
  0.1834392821234804  0.6249554815717817  0.4331273100566029
  0.4279727360193760  0.1235164060617025  0.2994957457065601
  0.6779890421573471  0.1236578586257748  0.2995248346906559
  0.5613066105241707  0.5417940830927050  0.3884498106174983
  0.8146300267863356  0.2082620809427259  0.3438722093621697
  0.4399324334207358  0.4679749924216353  0.8759158848993622
  0.5584906621603116  0.8875704838155253  0.8334992273666411
  0.3176658438955480  0.2103508805938548  0.4773263874424811
  0.1925339664088519  0.9606703382627310  0.4773945808988821
  0.0586566837880560  0.8877647904539812  0.8334867656309185
  0.0572976147786559  0.5390649731446725  0.5225184385122832
  0.9426792696179893  0.9605903374148542  0.4773002578042071
  0.0635470973999135  0.7082499217619804  0.6115974882211281
  0.5572287297283883  0.0391196730364255  0.5225558661489701
  0.6951005136156768  0.2991929629837788  0.7887846439910839
  0.8176651935230371  0.3616862622570404  0.1666342031854029
  0.4333828028568354  0.1248740434859916  0.4329430840666364
  0.0678801886909549  0.2105179533180770  0.4774055628311463
  0.3097913247009432  0.0406284383070162  0.6559034958851367
  0.4316933931381515  0.7892173246763644  0.5224496079860185
  0.1835580905927916  0.1378692213109267  0.8336085774716564
  0.1860816798870992  0.2827633384467328  0.1242598327538579
  0.9398653010866285  0.4595074178522852  0.3440089426047857
  0.5674313962765085  0.8620081357341902  0.1665899243273919
  0.3040412214226925  0.7010420452052957  0.2111720725220664
  0.9414405705503449  0.6122341451075636  0.1665952575990952
  0.1883793209243245  0.4585818047528576  0.6115037296817577
  0.0722643702588906  0.8764752986094344  0.7003601192472185
  0.0597604756776795  0.5406512155472031  0.6558941366513961
  0.3084226730547158  0.5260890931066818  0.1239552011680648
  0.9361251010402483  0.7912961145008850  0.3884374744879535
  0.9450257041615912  0.2987896634016443  0.7887767877050391
  0.1846757156323988  0.2905995808849536  0.6558873715803640
  0.9382145592099327  0.9583322329945050  0.6114886547059465
  0.8099319145386273  0.7120935028561058  0.7448194334709622
  0.6911752943560026  0.2874289449810568  0.2552604993961528
  0.0593054512815125  0.7123356318851608  0.7449916712496701
  0.6789561397353931  0.4513399614528252  0.2112384151177686
  0.8176861944497775  0.2105920247171566  0.4774541149289461
  0.5675911240263820  0.7105659640019427  0.4774182798433707
  0.0668979274363782  0.8623173390003511  0.1666137765739702
  0.9322366757439418  0.2889313037867126  0.5225059759336248
  0.6846779991679846  0.7903980057549954  0.6558742693501231
  0.0585653799053093  0.8751575532518103  0.4330354021313769
  0.0681267081933900  0.2231480964386803  0.8761607991611986
  0.8097839505037027  0.0405977930567684  0.6559368686804209
  0.5586387872467161  0.0264938733714818  0.1239921957297175
  0.3088558811282313  0.3749172546310437  0.4328824019679129
  0.3165427400389674  0.3749541721467901  0.5668599728601345
  0.3175112023827057  0.7104671631127485  0.4772469034746569
  0.0569912794885513  0.0391973085482546  0.5225139582613504
  0.3218864580858838  0.8763362689327419  0.7005395967883817
  0.0654093164075435  0.5377862649920195  0.2552543658758318
  0.6834262656279723  0.1376573923473082  0.8335361466682175
  0.8149779309270927  0.0377881405144245  0.2551362758387986
  0.1833597597322462  0.1249932986349477  0.4330858505434839
  0.6973135769941375  0.1262930172708947  0.7004287727508904
  0.1825615596154013  0.2895187463124330  0.5225085004502725
  0.4409713240137504  0.7875167943785047  0.2553991010713501
  0.4416582562228799  0.6110010229457999  0.1665280255573159
  0.0636046157874299  0.2085344097921559  0.6115618107445104
  0.1861279844855490  0.7912385325409352  0.3882908546268811
  0.3069590835299381  0.5387656772299285  0.5224425692553614
  0.8218948788131133  0.3761424691868727  0.7002144309424573
  0.6866961093281122  0.2914704523125274  0.3884025780977658
  0.1916653805593860  0.1250411696733197  0.5669476427283791
  0.6898450043300043  0.9683772947512594  0.8760847777893760
  0.6914875320489866  0.1249524135569260  0.5668710599691715
  0.4400078343184584  0.9589678902734298  0.3440562504962396
  0.1839644097922629  0.9626384062461180  0.7447486050641704
  0.9405844316859313  0.7877720512526341  0.2552032641450580
  0.5591144434699054  0.8750156276143992  0.4329848090240168
  0.3087030745951296  0.8753158472804906  0.4330140831742166
  0.8072121738869213  0.5394594546166844  0.5225195731027541
  0.9292328930473037  0.4515190091264308  0.2112394356379522
  0.3153662361191735  0.5377706113873110  0.2551292711164005
  0.5615332871179799  0.0415904381114134  0.3883933942967436
  0.9384084760913882  0.4583164172980443  0.6115867106885999
  0.0612520365004504  0.0415476860393121  0.3884133440483213
  0.0613934982036322  0.5415947184148451  0.3884163677669922
  0.4360666136119015  0.2912731590164842  0.3883808766986738
  0.6927880179550961  0.4607383974878079  0.4772904682795324
  0.0665413765775207  0.3749888001143915  0.5668807870676038
  0.5543005230650029  0.7007146925726867  0.2111800009672332
  0.9406052266382211  0.2874325497249310  0.2552133640325616
  0.8193148857420210  0.0496245353896178  0.7890525698484633
  0.1899877867471193  0.9587977629782191  0.3440115021380064
  0.5528885257005662  0.8738514913717965  0.2995815846552340
  0.0586451930751076  0.3748211457144223  0.4328767165918385
  0.3149221211665729  0.7093345482478242  0.3439903354383956
  0.3147691494559713  0.2089789054427815  0.3439520884391655
  0.9416961752073417  0.1251412437716957  0.5667529160903489
  0.4387360580724740  0.9588257549962128  0.6115541812285290
  0.5651765402710238  0.0377785386092731  0.2550859104017245
  0.1860409405464080  0.7829969320707826  0.1242361075752444
  0.0654536034400923  0.0376876892452519  0.2551321816256873
  0.6915856240905224  0.6249941407388991  0.5669045401981665
  0.0572234270338354  0.5269625470908437  0.1240849913995737
  0.3073232794556369  0.0383985592778672  0.5222861661498958
  0.6873080248487263  0.2821463356813766  0.1242427966420000
  0.8178314756127860  0.7107269242538315  0.4774778038363812
  0.4334635674659978  0.1376913282175338  0.8335321676004341
  0.3223429321948169  0.3764019232232523  0.7004082346942796
  0.6836160059476845  0.6377335499157849  0.8335136539783250
  0.5599053048966537  0.7119527917305694  0.7448548908196391
  0.9367076382677776  0.2914567235815260  0.3884724409677924
  0.9396635944311970  0.9683954883364748  0.8761570627508130
  0.5630013696445636  0.2080618544064263  0.6114219802264226
  0.8167515080895003  0.8751254653159046  0.5669098201633246
  0.8033530419953794  0.8734276215663920  0.2994222994921297
  0.3152967892464834  0.0378515673648672  0.2552425067431808
  0.4362945792627142  0.2831663293724664  0.1240085566421425
  0.3134359599039663  0.7083441332382757  0.6115582558921088
  0.4339012734727129  0.6247908685558051  0.4328872148391869
  0.9329800152395297  0.6250966053236053  0.4331767053497005
  0.6820817590812729  0.6241245571966320  0.4330413308853299
  0.0706435815547084  0.5493451451813867  0.7887970278142311
  0.9338479378379629  0.1254061628791873  0.4331232768471653
  0.3186632863353686  0.3627321046971271  0.1658413447530454
  0.9334257495191991  0.9621160329199496  0.7446903667933885
  0.8161659218088211  0.5378314128098467  0.2552944504505031
 
  0.00000000E+00  0.00000000E+00  0.00000000E+00
  0.00000000E+00  0.00000000E+00  0.00000000E+00
  0.00000000E+00  0.00000000E+00  0.00000000E+00
  0.00000000E+00  0.00000000E+00  0.00000000E+00
  0.00000000E+00  0.00000000E+00  0.00000000E+00
  0.00000000E+00  0.00000000E+00  0.00000000E+00
  0.00000000E+00  0.00000000E+00  0.00000000E+00
  0.00000000E+00  0.00000000E+00  0.00000000E+00
  0.00000000E+00  0.00000000E+00  0.00000000E+00
  0.00000000E+00  0.00000000E+00  0.00000000E+00
  0.00000000E+00  0.00000000E+00  0.00000000E+00
  0.00000000E+00  0.00000000E+00  0.00000000E+00
  0.00000000E+00  0.00000000E+00  0.00000000E+00
  0.00000000E+00  0.00000000E+00  0.00000000E+00
  0.00000000E+00  0.00000000E+00  0.00000000E+00
  0.00000000E+00  0.00000000E+00  0.00000000E+00
  0.00000000E+00  0.00000000E+00  0.00000000E+00
  0.00000000E+00  0.00000000E+00  0.00000000E+00
  0.00000000E+00  0.00000000E+00  0.00000000E+00
  0.00000000E+00  0.00000000E+00  0.00000000E+00
  0.00000000E+00  0.00000000E+00  0.00000000E+00
  0.00000000E+00  0.00000000E+00  0.00000000E+00
  0.00000000E+00  0.00000000E+00  0.00000000E+00
  0.00000000E+00  0.00000000E+00  0.00000000E+00
  0.00000000E+00  0.00000000E+00  0.00000000E+00
  0.00000000E+00  0.00000000E+00  0.00000000E+00
  0.00000000E+00  0.00000000E+00  0.00000000E+00
  0.00000000E+00  0.00000000E+00  0.00000000E+00
  0.00000000E+00  0.00000000E+00  0.00000000E+00
  0.00000000E+00  0.00000000E+00  0.00000000E+00
  0.00000000E+00  0.00000000E+00  0.00000000E+00
  0.00000000E+00  0.00000000E+00  0.00000000E+00
  0.00000000E+00  0.00000000E+00  0.00000000E+00
  0.00000000E+00  0.00000000E+00  0.00000000E+00
  0.00000000E+00  0.00000000E+00  0.00000000E+00
  0.00000000E+00  0.00000000E+00  0.00000000E+00
  0.00000000E+00  0.00000000E+00  0.00000000E+00
  0.00000000E+00  0.00000000E+00  0.00000000E+00
  0.00000000E+00  0.00000000E+00  0.00000000E+00
  0.00000000E+00  0.00000000E+00  0.00000000E+00
  0.00000000E+00  0.00000000E+00  0.00000000E+00
  0.00000000E+00  0.00000000E+00  0.00000000E+00
  0.00000000E+00  0.00000000E+00  0.00000000E+00
  0.00000000E+00  0.00000000E+00  0.00000000E+00
  0.00000000E+00  0.00000000E+00  0.00000000E+00
  0.00000000E+00  0.00000000E+00  0.00000000E+00
  0.00000000E+00  0.00000000E+00  0.00000000E+00
  0.00000000E+00  0.00000000E+00  0.00000000E+00
  0.00000000E+00  0.00000000E+00  0.00000000E+00
  0.00000000E+00  0.00000000E+00  0.00000000E+00
  0.00000000E+00  0.00000000E+00  0.00000000E+00
  0.00000000E+00  0.00000000E+00  0.00000000E+00
  0.00000000E+00  0.00000000E+00  0.00000000E+00
  0.00000000E+00  0.00000000E+00  0.00000000E+00
  0.00000000E+00  0.00000000E+00  0.00000000E+00
  0.00000000E+00  0.00000000E+00  0.00000000E+00
  0.00000000E+00  0.00000000E+00  0.00000000E+00
  0.00000000E+00  0.00000000E+00  0.00000000E+00
  0.00000000E+00  0.00000000E+00  0.00000000E+00
  0.00000000E+00  0.00000000E+00  0.00000000E+00
  0.00000000E+00  0.00000000E+00  0.00000000E+00
  0.00000000E+00  0.00000000E+00  0.00000000E+00
  0.00000000E+00  0.00000000E+00  0.00000000E+00
  0.00000000E+00  0.00000000E+00  0.00000000E+00
  0.00000000E+00  0.00000000E+00  0.00000000E+00
  0.00000000E+00  0.00000000E+00  0.00000000E+00
  0.00000000E+00  0.00000000E+00  0.00000000E+00
  0.00000000E+00  0.00000000E+00  0.00000000E+00
  0.00000000E+00  0.00000000E+00  0.00000000E+00
  0.00000000E+00  0.00000000E+00  0.00000000E+00
  0.00000000E+00  0.00000000E+00  0.00000000E+00
  0.00000000E+00  0.00000000E+00  0.00000000E+00
  0.00000000E+00  0.00000000E+00  0.00000000E+00
  0.00000000E+00  0.00000000E+00  0.00000000E+00
  0.00000000E+00  0.00000000E+00  0.00000000E+00
  0.00000000E+00  0.00000000E+00  0.00000000E+00
  0.00000000E+00  0.00000000E+00  0.00000000E+00
  0.00000000E+00  0.00000000E+00  0.00000000E+00
  0.00000000E+00  0.00000000E+00  0.00000000E+00
  0.00000000E+00  0.00000000E+00  0.00000000E+00
  0.00000000E+00  0.00000000E+00  0.00000000E+00
  0.00000000E+00  0.00000000E+00  0.00000000E+00
  0.00000000E+00  0.00000000E+00  0.00000000E+00
  0.00000000E+00  0.00000000E+00  0.00000000E+00
  0.00000000E+00  0.00000000E+00  0.00000000E+00
  0.00000000E+00  0.00000000E+00  0.00000000E+00
  0.00000000E+00  0.00000000E+00  0.00000000E+00
  0.00000000E+00  0.00000000E+00  0.00000000E+00
  0.00000000E+00  0.00000000E+00  0.00000000E+00
  0.00000000E+00  0.00000000E+00  0.00000000E+00
  0.00000000E+00  0.00000000E+00  0.00000000E+00
  0.00000000E+00  0.00000000E+00  0.00000000E+00
  0.00000000E+00  0.00000000E+00  0.00000000E+00
  0.00000000E+00  0.00000000E+00  0.00000000E+00
  0.00000000E+00  0.00000000E+00  0.00000000E+00
  0.00000000E+00  0.00000000E+00  0.00000000E+00
  0.00000000E+00  0.00000000E+00  0.00000000E+00
  0.00000000E+00  0.00000000E+00  0.00000000E+00
  0.00000000E+00  0.00000000E+00  0.00000000E+00
  0.00000000E+00  0.00000000E+00  0.00000000E+00
  0.00000000E+00  0.00000000E+00  0.00000000E+00
  0.00000000E+00  0.00000000E+00  0.00000000E+00
  0.00000000E+00  0.00000000E+00  0.00000000E+00
  0.00000000E+00  0.00000000E+00  0.00000000E+00
  0.00000000E+00  0.00000000E+00  0.00000000E+00
  0.00000000E+00  0.00000000E+00  0.00000000E+00
  0.00000000E+00  0.00000000E+00  0.00000000E+00
  0.00000000E+00  0.00000000E+00  0.00000000E+00
  0.00000000E+00  0.00000000E+00  0.00000000E+00
  0.00000000E+00  0.00000000E+00  0.00000000E+00
  0.00000000E+00  0.00000000E+00  0.00000000E+00
  0.00000000E+00  0.00000000E+00  0.00000000E+00
  0.00000000E+00  0.00000000E+00  0.00000000E+00
  0.00000000E+00  0.00000000E+00  0.00000000E+00
  0.00000000E+00  0.00000000E+00  0.00000000E+00
  0.00000000E+00  0.00000000E+00  0.00000000E+00
  0.00000000E+00  0.00000000E+00  0.00000000E+00
  0.00000000E+00  0.00000000E+00  0.00000000E+00
  0.00000000E+00  0.00000000E+00  0.00000000E+00
  0.00000000E+00  0.00000000E+00  0.00000000E+00
  0.00000000E+00  0.00000000E+00  0.00000000E+00
  0.00000000E+00  0.00000000E+00  0.00000000E+00
  0.00000000E+00  0.00000000E+00  0.00000000E+00
  0.00000000E+00  0.00000000E+00  0.00000000E+00
  0.00000000E+00  0.00000000E+00  0.00000000E+00
  0.00000000E+00  0.00000000E+00  0.00000000E+00
  0.00000000E+00  0.00000000E+00  0.00000000E+00
  0.00000000E+00  0.00000000E+00  0.00000000E+00
  0.00000000E+00  0.00000000E+00  0.00000000E+00
  0.00000000E+00  0.00000000E+00  0.00000000E+00
  0.00000000E+00  0.00000000E+00  0.00000000E+00
  0.00000000E+00  0.00000000E+00  0.00000000E+00
  0.00000000E+00  0.00000000E+00  0.00000000E+00
  0.00000000E+00  0.00000000E+00  0.00000000E+00
  0.00000000E+00  0.00000000E+00  0.00000000E+00
  0.00000000E+00  0.00000000E+00  0.00000000E+00
  0.00000000E+00  0.00000000E+00  0.00000000E+00
  0.00000000E+00  0.00000000E+00  0.00000000E+00
  0.00000000E+00  0.00000000E+00  0.00000000E+00
  0.00000000E+00  0.00000000E+00  0.00000000E+00
  0.00000000E+00  0.00000000E+00  0.00000000E+00
  0.00000000E+00  0.00000000E+00  0.00000000E+00
  0.00000000E+00  0.00000000E+00  0.00000000E+00
  0.00000000E+00  0.00000000E+00  0.00000000E+00
  0.00000000E+00  0.00000000E+00  0.00000000E+00
  0.00000000E+00  0.00000000E+00  0.00000000E+00
  0.00000000E+00  0.00000000E+00  0.00000000E+00
  0.00000000E+00  0.00000000E+00  0.00000000E+00
  0.00000000E+00  0.00000000E+00  0.00000000E+00
  0.00000000E+00  0.00000000E+00  0.00000000E+00
  0.00000000E+00  0.00000000E+00  0.00000000E+00
  0.00000000E+00  0.00000000E+00  0.00000000E+00
  0.00000000E+00  0.00000000E+00  0.00000000E+00
  0.00000000E+00  0.00000000E+00  0.00000000E+00
  0.00000000E+00  0.00000000E+00  0.00000000E+00
  0.00000000E+00  0.00000000E+00  0.00000000E+00
  0.00000000E+00  0.00000000E+00  0.00000000E+00
  0.00000000E+00  0.00000000E+00  0.00000000E+00
  0.00000000E+00  0.00000000E+00  0.00000000E+00
  0.00000000E+00  0.00000000E+00  0.00000000E+00
  0.00000000E+00  0.00000000E+00  0.00000000E+00
  0.00000000E+00  0.00000000E+00  0.00000000E+00
  0.00000000E+00  0.00000000E+00  0.00000000E+00
  0.00000000E+00  0.00000000E+00  0.00000000E+00
  0.00000000E+00  0.00000000E+00  0.00000000E+00
  0.00000000E+00  0.00000000E+00  0.00000000E+00
  0.00000000E+00  0.00000000E+00  0.00000000E+00
  0.00000000E+00  0.00000000E+00  0.00000000E+00
  0.00000000E+00  0.00000000E+00  0.00000000E+00
  0.00000000E+00  0.00000000E+00  0.00000000E+00
  0.00000000E+00  0.00000000E+00  0.00000000E+00
  0.00000000E+00  0.00000000E+00  0.00000000E+00
  0.00000000E+00  0.00000000E+00  0.00000000E+00
  0.00000000E+00  0.00000000E+00  0.00000000E+00
  0.00000000E+00  0.00000000E+00  0.00000000E+00
  0.00000000E+00  0.00000000E+00  0.00000000E+00
  0.00000000E+00  0.00000000E+00  0.00000000E+00
  0.00000000E+00  0.00000000E+00  0.00000000E+00
  0.00000000E+00  0.00000000E+00  0.00000000E+00
  0.00000000E+00  0.00000000E+00  0.00000000E+00
  0.00000000E+00  0.00000000E+00  0.00000000E+00
  0.00000000E+00  0.00000000E+00  0.00000000E+00
  0.00000000E+00  0.00000000E+00  0.00000000E+00
  0.00000000E+00  0.00000000E+00  0.00000000E+00
  0.00000000E+00  0.00000000E+00  0.00000000E+00
  0.00000000E+00  0.00000000E+00  0.00000000E+00
  0.00000000E+00  0.00000000E+00  0.00000000E+00
  0.00000000E+00  0.00000000E+00  0.00000000E+00
  0.00000000E+00  0.00000000E+00  0.00000000E+00
  0.00000000E+00  0.00000000E+00  0.00000000E+00
  0.00000000E+00  0.00000000E+00  0.00000000E+00
  0.00000000E+00  0.00000000E+00  0.00000000E+00
  0.00000000E+00  0.00000000E+00  0.00000000E+00
  0.00000000E+00  0.00000000E+00  0.00000000E+00
  0.00000000E+00  0.00000000E+00  0.00000000E+00
  0.00000000E+00  0.00000000E+00  0.00000000E+00
  0.00000000E+00  0.00000000E+00  0.00000000E+00
  0.00000000E+00  0.00000000E+00  0.00000000E+00
  0.00000000E+00  0.00000000E+00  0.00000000E+00
  0.00000000E+00  0.00000000E+00  0.00000000E+00
  0.00000000E+00  0.00000000E+00  0.00000000E+00
  0.00000000E+00  0.00000000E+00  0.00000000E+00
  0.00000000E+00  0.00000000E+00  0.00000000E+00
  0.00000000E+00  0.00000000E+00  0.00000000E+00
  0.00000000E+00  0.00000000E+00  0.00000000E+00
  0.00000000E+00  0.00000000E+00  0.00000000E+00
  0.00000000E+00  0.00000000E+00  0.00000000E+00
  0.00000000E+00  0.00000000E+00  0.00000000E+00
  0.00000000E+00  0.00000000E+00  0.00000000E+00
  0.00000000E+00  0.00000000E+00  0.00000000E+00
  0.00000000E+00  0.00000000E+00  0.00000000E+00
  0.00000000E+00  0.00000000E+00  0.00000000E+00
  0.00000000E+00  0.00000000E+00  0.00000000E+00
  0.00000000E+00  0.00000000E+00  0.00000000E+00
  0.00000000E+00  0.00000000E+00  0.00000000E+00
  0.00000000E+00  0.00000000E+00  0.00000000E+00
  0.00000000E+00  0.00000000E+00  0.00000000E+00
  0.00000000E+00  0.00000000E+00  0.00000000E+00
  0.00000000E+00  0.00000000E+00  0.00000000E+00
  0.00000000E+00  0.00000000E+00  0.00000000E+00
  0.00000000E+00  0.00000000E+00  0.00000000E+00
  0.00000000E+00  0.00000000E+00  0.00000000E+00
  0.00000000E+00  0.00000000E+00  0.00000000E+00
  0.00000000E+00  0.00000000E+00  0.00000000E+00
  0.00000000E+00  0.00000000E+00  0.00000000E+00
  0.00000000E+00  0.00000000E+00  0.00000000E+00
  0.00000000E+00  0.00000000E+00  0.00000000E+00
  0.00000000E+00  0.00000000E+00  0.00000000E+00
  0.00000000E+00  0.00000000E+00  0.00000000E+00
  0.00000000E+00  0.00000000E+00  0.00000000E+00
  0.00000000E+00  0.00000000E+00  0.00000000E+00
  0.00000000E+00  0.00000000E+00  0.00000000E+00
  0.00000000E+00  0.00000000E+00  0.00000000E+00
  0.00000000E+00  0.00000000E+00  0.00000000E+00
  0.00000000E+00  0.00000000E+00  0.00000000E+00
  0.00000000E+00  0.00000000E+00  0.00000000E+00
  0.00000000E+00  0.00000000E+00  0.00000000E+00
  0.00000000E+00  0.00000000E+00  0.00000000E+00
  0.00000000E+00  0.00000000E+00  0.00000000E+00
  0.00000000E+00  0.00000000E+00  0.00000000E+00
  0.00000000E+00  0.00000000E+00  0.00000000E+00
  0.00000000E+00  0.00000000E+00  0.00000000E+00
  0.00000000E+00  0.00000000E+00  0.00000000E+00
  0.00000000E+00  0.00000000E+00  0.00000000E+00
  0.00000000E+00  0.00000000E+00  0.00000000E+00
  0.00000000E+00  0.00000000E+00  0.00000000E+00
  0.00000000E+00  0.00000000E+00  0.00000000E+00