FeMn_288_15                             
    1.000000000000000     
     9.7266779999999997    0.0000000000000000    0.0000000000000000
     0.0000000000000000    8.4235500000000005    0.0000000000000000
     0.0000000000000000    0.0000000000000000   45.0000000000000000
   Fe   Mn
   273    15
Direct
  0.9375370907429141  0.6223811457878533  0.5212427160769850
  0.0625736907205032  0.2056330001305698  0.4785885850509354
  0.8125740330088252  0.3723519076818039  0.4348176768735788
  0.4373426303752005  0.6221620796055836  0.5213385326573706
  0.5624250114998605  0.3725966153927004  0.7864828081372494
  0.3123469724339454  0.7057139958857755  0.4785564511468418
  0.9372087562934247  0.9554519086407610  0.6981643970042114
  0.8124635143102903  0.0394078819881117  0.7423154299187382
  0.1875522274664033  0.2887860618953276  0.3902648859027003
  0.8123826546305993  0.8721577160383783  0.5213730456049182
  0.0624878994557628  0.5388613971489556  0.6096732910254934
  0.1875357179185808  0.7887011081540954  0.2576987796842382
  0.4376153993524880  0.6216545604959682  0.1688296332159202
  0.9375124497777946  0.4555254893840393  0.3463587633545188
  0.0627006538385319  0.8722522581087869  0.5212958979725851
  0.0624698102763741  0.8722555946957654  0.3019449939366733
  0.8121129366442627  0.3722210309701812  0.6536488700926258
  0.4376249478536282  0.2887893325098734  0.6096951817771107
  0.3122958037399067  0.8721316620308422  0.5213570397759073
  0.8125168479713686  0.8718256512106602  0.3019444235479136
  0.1874818413069360  0.6221004707905942  0.3019421726342367
  0.8126704978687264  0.5393563352656675  0.8733913714633872
  0.1875521882469189  0.4555147320340092  0.4785777794733987
  0.4374513699419465  0.7884739212596240  0.8733670669578435
  0.0625253955545380  0.7057639004806785  0.4785743574906227
  0.4374330075387539  0.9553550201332042  0.5650633894709761
  0.0627550973786298  0.2054031194411619  0.8314034049351519
  0.3136102675364245  0.0387464959565462  0.1267404232810644
  0.5624034565947661  0.2057844217898993  0.2137139070553841
  0.0624059858228633  0.8721993001740918  0.4348209600343730
  0.4373623439941698  0.4552062171427796  0.5651099269996167
  0.5622273467470973  0.0391356917728491  0.7422947622318310
  0.9377569268345374  0.6223031551864937  0.4348072648791990
  0.5625901350565071  0.0388009557348512  0.6096067328093219
  0.1874943081046934  0.6223551803986642  0.4348563069544807
  0.1874745848732532  0.6219860413228712  0.6536632728031295
  0.9376691113323332  0.1223086603398980  0.3019955876700784
  0.3126407838912699  0.0388129355915657  0.3901409907031649
  0.3125289842751409  0.5386817780521785  0.3901825225920026
  0.6877956618947846  0.4556423794499191  0.5650303549910040
  0.1877358111421579  0.6229967971558869  0.7864640105790031
  0.3122908019894231  0.8724008515787139  0.7864560929273998
  0.4374226442432594  0.4561694307922070  0.8312289173252001
  0.9382792415935313  0.1213712976036764  0.1686099309396991
  0.9377548684066652  0.9552652816238337  0.3463160743705738
  0.8127163507829737  0.0391639978741564  0.8734605499318959
  0.3125094521488385  0.2053582383508240  0.2136092482702613
  0.0623541994324310  0.2052300104449955  0.2136411914159992
  0.8129291172226758  0.7059104461978482  0.6980809341540889
  0.3125758681939536  0.0393588949517464  0.7422696220798737
  0.5623907835912695  0.3717795781748426  0.3019325348470233
  0.5626827534197729  0.8726259030955684  0.1687773865537233
  0.1876391709409198  0.1228720788861158  0.1688424808134708
  0.4374280213717048  0.9552659141670790  0.4785960798401092
  0.8127422234958905  0.0380405571658186  0.1263676815556243
  0.1880212450350928  0.9558877307896022  0.5651694431532926
  0.0623705278743642  0.0391729892054318  0.6097866516771133
  0.4375245327636648  0.1227311456888518  0.6536435417511696
  0.3127388663778972  0.3724690070001425  0.6536886663143278
  0.4375411059568675  0.6226795300666496  0.7864613860074000
  0.8130565196749140  0.2056259342649291  0.6980808105481228
  0.4372133517691617  0.1223348142936635  0.4350504163374913
  0.0622072331726622  0.5392544146357929  0.8734355379719894
  0.0624940294043382  0.2061042071188887  0.6981032015145463
  0.0623378095002452  0.2054278971047745  0.3462794968322572
  0.6872723977167288  0.9556236639439230  0.6981014655237748
  0.4371748793111961  0.6223142748849463  0.4348502081354360
  0.1882334251267181  0.7886163264576785  0.1266772757760127
  0.0624446690590115  0.0387061146863384  0.2578185173204304
  0.0617141632819921  0.0399049975915307  0.8734348136827595
  0.3124080596960626  0.5386724387215394  0.2578525001424951
  0.6874064629437944  0.2889573727735527  0.3901998640129879
  0.6874187164520575  0.4552615941498150  0.4784947280808367
  0.4372332772584027  0.4558087155735496  0.6982002101637417
  0.8126912773637621  0.7053902373815277  0.2136710360014152
  0.0626393031359924  0.8716614610542357  0.1688643008856070
  0.0625713995757059  0.3722354425090800  0.3019158539704510
  0.8129272066064859  0.7057490172904729  0.5650709356091729
  0.1874563637557796  0.2886414614339445  0.2577979098199926
  0.0621136362701369  0.8721294060008487  0.7862573980712392
  0.6878489911856206  0.7886827898179117  0.1264697420589019
  0.9372979266116693  0.9558201719705099  0.5651470513718004
  0.9374144994546879  0.6219326362324419  0.3018979802491071
  0.1872368841092664  0.6222651399336302  0.5213219082739229
  0.4369184837874005  0.1223397624795587  0.1686786508482034
  0.8126705081612693  0.7058140361137258  0.4785735380723959
  0.9375654655000892  0.2893495572147377  0.7422812291773623
  0.4375833756546478  0.4557587298611508  0.2137923775429778
  0.6874327239276258  0.4559937648493554  0.2136650798165312
  0.1871514380678255  0.1218628615387080  0.5213354415741485
  0.1874592587440134  0.4555136416542294  0.3463167083872770
  0.1875613177677355  0.7882824002120978  0.8733216744540521
  0.1875004495830663  0.7887914182978631  0.3901893766066571
  0.5624994194511939  0.0383939575508743  0.1265486315273009
  0.6872829200405953  0.7888172765289284  0.8733127451619731
  0.3120534381547959  0.3713903483336699  0.1688576237459356
  0.1873834853433442  0.1222342434487710  0.4347547517490242
  0.4375444973785358  0.6223985327232706  0.6536616196739610
  0.4374559060196125  0.4555268197588375  0.3463609252095836
  0.6874623942225825  0.6213606767403846  0.3020155671466875
  0.1876724364298811  0.2887984783007844  0.6097165310531073
  0.3124428527434339  0.7065076710308604  0.8312867697701035
  0.5624583201539800  0.7055535921644789  0.4786570351540170
  0.5621272403469072  0.5382238713128784  0.2577531596506968
  0.3126592835407961  0.3724927713760134  0.5213438621700693
  0.1872052860410780  0.2893551925391289  0.7422695154885761
  0.0626332474923714  0.7056430846629302  0.5650447293244018
  0.8124450536780902  0.2053371744203506  0.3463374468755357
  0.9371259874241487  0.7889257639895231  0.1264325086582281
  0.1876047029697178  0.6211365555706860  0.1686828735104236
  0.9377067611664406  0.2891156895511993  0.8735123460674792
  0.9380731150644817  0.2884189250005952  0.2578337700927017
  0.8126482511470671  0.2057181800832836  0.4785511529185933
  0.9374845356081594  0.6222879303949862  0.7864908096600339
  0.8125485102358677  0.0389571238442375  0.3902366954890253
  0.8124432126921264  0.5390107435661388  0.3902371374771306
  0.8125091774711700  0.2055594924646072  0.2136837590781283
  0.0624702693406719  0.7054839048048799  0.3463194276002548
  0.9376050253896032  0.6219707910988379  0.6536164196072991
  0.4375301294823440  0.2890145271989341  0.7422400202977634
  0.4373662250452753  0.7890086299993837  0.3902303923075622
  0.4375402216025632  0.2886999477744000  0.3901942749664779
  0.4373007381231493  0.7885336125331581  0.6097904380003437
  0.5624375985880810  0.7054621130986134  0.3463288247037515
  0.6874180542259399  0.7891722707686468  0.3902200033338260
  0.3124074704806867  0.8720006112992641  0.4347286556250305
  0.8126095529285353  0.5392110266208213  0.6097016963786469
  0.0626462895672766  0.5387541577981736  0.1267445841200852
  0.0625743379138645  0.2058200719571740  0.5650466271534238
  0.8128556724231208  0.5382702841047690  0.2577514758824592
  0.3121528511052006  0.2057693236978075  0.4786687552632985
  0.6875740580143340  0.2889732867729536  0.7422363173810701
  0.8127274996214142  0.2054824563970077  0.8313643505770225
  0.5625092207343489  0.5389955972910788  0.7422371071187298
  0.0627946158498197  0.8723045130336098  0.6536757201726577
  0.6873395238207698  0.4556129978970668  0.8312694170518009
  0.6875246362343438  0.6221888914084105  0.4348635605707482
  0.5627417489042275  0.8723327109233325  0.5213207457385158
  0.6876820372035918  0.6224879558621601  0.6537354989595326
  0.9376260154212257  0.1222038763970083  0.5213058575813416
  0.0625503243280990  0.5386793253585735  0.2578407710136658
  0.1875897197593161  0.4552774110894025  0.5650472006720160
  0.6872860252635188  0.1224845272722466  0.7864393358597611
  0.5619720736895399  0.2060048979949977  0.8312798227174149
  0.3125378233659501  0.8722395241000124  0.3019199496375668
  0.8123292910095549  0.3720422664744538  0.1689235557820741
  0.4369360288830374  0.9565464303005525  0.8312683376884982
  0.0624401403758076  0.0387658007582184  0.3901631507119190
  0.5622618063225336  0.3725330563036749  0.4347326263127620
  0.3123330788439700  0.3736953870158708  0.7863788956400615
  0.3125146940624137  0.5392428719492748  0.7422598811365470
  0.3119401536297292  0.2056492004017253  0.6981274538727938
  0.5623708215559743  0.8727257769642996  0.6537644790194367
  0.6874216350664903  0.1216407839962044  0.3018936678325101
  0.3124521711851939  0.0384026079070088  0.6096951003084322
  0.8125622666554709  0.5392599218053895  0.1266913968611681
  0.4372288754161675  0.1222584971324066  0.3019876194390857
  0.3125575517512865  0.5395915501612434  0.1266768459701291
  0.0621703146428749  0.7057607273893831  0.8311364585795813
  0.9370208321360183  0.6219653080615277  0.1688279649864556
  0.9376963984016899  0.7896572868679463  0.7422564255559264
  0.1882056408468182  0.9564182581319222  0.8312570370194272
  0.5625331584250846  0.3728295005174008  0.5213925831051067
  0.6874744613791353  0.4554888129352240  0.3462927054185992
  0.3125559152334428  0.2054360957868975  0.3463070898785499
  0.3124689669142274  0.7054509264552996  0.3463020057305536
  0.3119404787424431  0.7061733321802185  0.6980911222116802
  0.5625036590326105  0.7058873622884296  0.2136447798896056
  0.3123384379624826  0.3722518651623181  0.3019249488068454
  0.3119488718343296  0.2055141157910781  0.5651343501989543
  0.0631772913341353  0.3722553470320372  0.6536275188645587
  0.4373856409233201  0.7890969111333183  0.7422406079579982
  0.8126107269519145  0.7057124109665307  0.8312413647417084
  0.1874923117568446  0.4551574621171532  0.2136562918885302
  0.6872142695201426  0.9556681996504759  0.5650684104481994
  0.1878888402049096  0.4560652016922214  0.6982116431700084
  0.4384245524245235  0.2893545734226523  0.8734404603076558
  0.0624813963280769  0.5394529835693602  0.7423120165945599
  0.1875989444615507  0.7894754602201344  0.7422004007157585
  0.5623727464584996  0.8718252213359232  0.3019347137320749
  0.6873430788955669  0.2891272762557778  0.6097137471380499
  0.6871947980396267  0.4561075917121610  0.6982158598254804
  0.8125698914740735  0.8723879917146528  0.7864935105717006
  0.3125599238764006  0.7048647076165174  0.2136444754008157
  0.1877101905722297  0.4561042501026217  0.8311691996960293
  0.0635336308442498  0.3712220036672219  0.1687942453507437
  0.1879727424025352  0.7888338119061197  0.6097856450881163
  0.9374025639396212  0.4557242294880535  0.2137437990561387
  0.9372701641528411  0.9560857033795962  0.8311209190411918
  0.9372103398331347  0.2886156482575520  0.1267458328094070
  0.5626222100737303  0.2057085928835633  0.4786456295173381
  0.9378133775625750  0.1223072029842134  0.4348251181652095
  0.5630082767534154  0.8717471423571572  0.7863511455800190
  0.3122023451018128  0.7054253979317525  0.5650556526260235
  0.8124466997052902  0.5391549011194893  0.7423206854808316
  0.9374641460155846  0.4555693648155856  0.4785747799971882
  0.8126106146154756  0.0390856264441073  0.6096340086573373
  0.9373751404568000  0.2889116455986425  0.3902085722142614
  0.5627552205393322  0.7061101183545407  0.8310315345226529
  0.8124754755040748  0.3724732479677803  0.7865523186598908
  0.0622281786103530  0.7049435227984009  0.2136557355392503
  0.6877294244335515  0.1224575259441298  0.6535910171062298
  0.1876694973071164  0.1227305409246208  0.7864042415070286
  0.3126734206705353  0.8710726477324890  0.1688854705009802
  0.9373338223387148  0.4556377296106989  0.5650797946944972
  0.4372445626932251  0.9560808962730851  0.6981270784628619
  0.8125089831148748  0.3718823427832987  0.3019204042675190
  0.6874849646012565  0.9554869857884996  0.4785601561903169
  0.5625135344181067  0.5393098974888242  0.6097030646852819
  0.5624005216296892  0.5382336636091613  0.1267359415008602
  0.9377661968863157  0.7886478002337826  0.2577514614616524
  0.6871730568558783  0.7891300601645301  0.7423218816629772
  0.6871311565717130  0.6223853167481168  0.7865375935412457
  0.6880416045475505  0.6226322489896575  0.1687724123107160
  0.8125543253722537  0.8722210282217429  0.4348609028212619
  0.0624235779077880  0.5387249460047586  0.3901690205914168
  0.5625000147840740  0.5388751924336355  0.3902629124748184
  0.0624563785499833  0.7056791031642671  0.6981117430275106
  0.3121827501777112  0.8725370895776541  0.6537962739986586
  0.6871843113279074  0.2895295653379770  0.1266998202508939
  0.6874651534252283  0.1215047062542501  0.1687612499462768
  0.3125511317460694  0.5394239270652744  0.8734223986715026
  0.5622721118478780  0.0388964771169384  0.3902377352301044
  0.4369313174300785  0.2884798460891356  0.2578569612853893
  0.9379096061494786  0.9552276614733266  0.2137142037360724
  0.5627512013534932  0.2054582187043588  0.5651243345736937
  0.4369526108449424  0.7885073858669829  0.2577364695373608
  0.4372545151603820  0.9551468123292333  0.2136621505588339
  0.5625506785959520  0.5392031996075904  0.8734528308087021
  0.3125333969500750  0.0386546294128459  0.2578475212831493
  0.5623797943253663  0.3723580393941157  0.1688949093744724
  0.0626397995934406  0.3723697470424950  0.5212597148093330
  0.3124638708732958  0.2054088586535671  0.8313778195419528
  0.4375221175630107  0.1225166803809347  0.7864253580597392
  0.4366537393984277  0.7887943517039395  0.1266391281798617
  0.0624547037250920  0.3725371540616026  0.4348434805112797
  0.8122466383570383  0.3724887912750277  0.5212857860154168
  0.6874665452798066  0.9552082600872817  0.3463825607065033
  0.9375233290622520  0.7895421385906218  0.6096416289542971
  0.1874161892610067  0.1222084604290552  0.3019050589963741
  0.9375770698556886  0.7889771652278883  0.3902074456207252
  0.1875009442239970  0.9553726264248342  0.3463006173395572
  0.5625457535791452  0.2054034862257227  0.3463269184950548
  0.1868856840166838  0.2894766159330835  0.8734204705283131
  0.4381169219966169  0.2882481639496446  0.1266809405986724
  0.8125434494206146  0.7054666698039187  0.3463348032879290
  0.1873495235816211  0.1227586148526117  0.6536279338810351
  0.9374254266334321  0.9557246595905805  0.4786136862995677
  0.6878508414448353  0.1219479191660258  0.5212036210320276
  0.0626912782114847  0.3727019160950625  0.7864268261926252
  0.1881155619158604  0.9558358741620067  0.6980196024775396
  0.5625594377722455  0.8720909787958933  0.4347235539933054
  0.6868774948851624  0.2896247832825229  0.8735025048542333
  0.9374631753000114  0.4558766790048323  0.8311033883645494
  0.0615722993259913  0.0389041605766016  0.1266963055720024
  0.4371886111677409  0.9553374765028845  0.3463245296490150
  0.3125860620701009  0.3726296569296267  0.4347355229780035
  0.4375005244412701  0.6219776123088447  0.3018975609790640
  0.8127986007276565  0.2059644797690167  0.5649588754817811
  0.1876961777698289  0.9556988391085890  0.4786015099717653
  0.9376523494497712  0.7881420273494749  0.8733618500574873
  0.3125076836644821  0.5389450434029359  0.6097270215076207
  0.6879242755509722  0.6222612147140906  0.5212874754244784
  0.0625843112133683  0.0395841099502945  0.7423399650041985
  0.5621974326521358  0.3722641175057590  0.6538199312854726
  0.5631448698003864  0.0395521466777216  0.8733852320366734
  0.6876308127486326  0.9557308038823669  0.8312024038701067
  0.9377755533318205  0.1224783129253040  0.6537323401552572
  0.1872780712877781  0.9546557265998618  0.2137567059654178
  0.6872888916974208  0.7892776421108540  0.6097431939277078
  0.4375828406816400  0.4552100365904112  0.4786070231667195
  0.5624144764157127  0.0384083568126215  0.2577537420772660
  0.8126795719442474  0.0381967014777291  0.2578176408475468
  0.9375365050909560  0.2893621555036492  0.6098351936578121
  0.9374099701846000  0.1223957820962878  0.7862610040294137
  0.6877403793688301  0.1221216758065284  0.4347183586615366
  0.6875976610170578  0.7882695662169701  0.2577856318824437
  0.9373838552054540  0.4562072897136146  0.6981455748302101
  0.5624028345873764  0.2056489474040842  0.6981161337653206
  0.6867321538559740  0.9567248880845742  0.2139739771064637
  0.8124478974162950  0.8721385746342563  0.6536805760702682
  0.4373833586903638  0.1220946212715881  0.5212180176351402
  0.6875381304332936  0.2878781003961136  0.2575440396425654
  0.3126182426922228  0.0389622230183921  0.8731432777540210
  0.5622788073286665  0.7051566807292277  0.5650834656082611
  0.1877182967634525  0.2885428114266183  0.1269164776632146
  0.5628157375219329  0.7064095670301135  0.6981226060931484
  0.8131020303315970  0.8719022483109510  0.1679898670519860
 
  0.00000000E+00  0.00000000E+00  0.00000000E+00
  0.00000000E+00  0.00000000E+00  0.00000000E+00
  0.00000000E+00  0.00000000E+00  0.00000000E+00
  0.00000000E+00  0.00000000E+00  0.00000000E+00
  0.00000000E+00  0.00000000E+00  0.00000000E+00
  0.00000000E+00  0.00000000E+00  0.00000000E+00
  0.00000000E+00  0.00000000E+00  0.00000000E+00
  0.00000000E+00  0.00000000E+00  0.00000000E+00
  0.00000000E+00  0.00000000E+00  0.00000000E+00
  0.00000000E+00  0.00000000E+00  0.00000000E+00
  0.00000000E+00  0.00000000E+00  0.00000000E+00
  0.00000000E+00  0.00000000E+00  0.00000000E+00
  0.00000000E+00  0.00000000E+00  0.00000000E+00
  0.00000000E+00  0.00000000E+00  0.00000000E+00
  0.00000000E+00  0.00000000E+00  0.00000000E+00
  0.00000000E+00  0.00000000E+00  0.00000000E+00
  0.00000000E+00  0.00000000E+00  0.00000000E+00
  0.00000000E+00  0.00000000E+00  0.00000000E+00
  0.00000000E+00  0.00000000E+00  0.00000000E+00
  0.00000000E+00  0.00000000E+00  0.00000000E+00
  0.00000000E+00  0.00000000E+00  0.00000000E+00
  0.00000000E+00  0.00000000E+00  0.00000000E+00
  0.00000000E+00  0.00000000E+00  0.00000000E+00
  0.00000000E+00  0.00000000E+00  0.00000000E+00
  0.00000000E+00  0.00000000E+00  0.00000000E+00
  0.00000000E+00  0.00000000E+00  0.00000000E+00
  0.00000000E+00  0.00000000E+00  0.00000000E+00
  0.00000000E+00  0.00000000E+00  0.00000000E+00
  0.00000000E+00  0.00000000E+00  0.00000000E+00
  0.00000000E+00  0.00000000E+00  0.00000000E+00
  0.00000000E+00  0.00000000E+00  0.00000000E+00
  0.00000000E+00  0.00000000E+00  0.00000000E+00
  0.00000000E+00  0.00000000E+00  0.00000000E+00
  0.00000000E+00  0.00000000E+00  0.00000000E+00
  0.00000000E+00  0.00000000E+00  0.00000000E+00
  0.00000000E+00  0.00000000E+00  0.00000000E+00
  0.00000000E+00  0.00000000E+00  0.00000000E+00
  0.00000000E+00  0.00000000E+00  0.00000000E+00
  0.00000000E+00  0.00000000E+00  0.00000000E+00
  0.00000000E+00  0.00000000E+00  0.00000000E+00
  0.00000000E+00  0.00000000E+00  0.00000000E+00
  0.00000000E+00  0.00000000E+00  0.00000000E+00
  0.00000000E+00  0.00000000E+00  0.00000000E+00
  0.00000000E+00  0.00000000E+00  0.00000000E+00
  0.00000000E+00  0.00000000E+00  0.00000000E+00
  0.00000000E+00  0.00000000E+00  0.00000000E+00
  0.00000000E+00  0.00000000E+00  0.00000000E+00
  0.00000000E+00  0.00000000E+00  0.00000000E+00
  0.00000000E+00  0.00000000E+00  0.00000000E+00
  0.00000000E+00  0.00000000E+00  0.00000000E+00
  0.00000000E+00  0.00000000E+00  0.00000000E+00
  0.00000000E+00  0.00000000E+00  0.00000000E+00
  0.00000000E+00  0.00000000E+00  0.00000000E+00
  0.00000000E+00  0.00000000E+00  0.00000000E+00
  0.00000000E+00  0.00000000E+00  0.00000000E+00
  0.00000000E+00  0.00000000E+00  0.00000000E+00
  0.00000000E+00  0.00000000E+00  0.00000000E+00
  0.00000000E+00  0.00000000E+00  0.00000000E+00
  0.00000000E+00  0.00000000E+00  0.00000000E+00
  0.00000000E+00  0.00000000E+00  0.00000000E+00
  0.00000000E+00  0.00000000E+00  0.00000000E+00
  0.00000000E+00  0.00000000E+00  0.00000000E+00
  0.00000000E+00  0.00000000E+00  0.00000000E+00
  0.00000000E+00  0.00000000E+00  0.00000000E+00
  0.00000000E+00  0.00000000E+00  0.00000000E+00
  0.00000000E+00  0.00000000E+00  0.00000000E+00
  0.00000000E+00  0.00000000E+00  0.00000000E+00
  0.00000000E+00  0.00000000E+00  0.00000000E+00
  0.00000000E+00  0.00000000E+00  0.00000000E+00
  0.00000000E+00  0.00000000E+00  0.00000000E+00
  0.00000000E+00  0.00000000E+00  0.00000000E+00
  0.00000000E+00  0.00000000E+00  0.00000000E+00
  0.00000000E+00  0.00000000E+00  0.00000000E+00
  0.00000000E+00  0.00000000E+00  0.00000000E+00
  0.00000000E+00  0.00000000E+00  0.00000000E+00
  0.00000000E+00  0.00000000E+00  0.00000000E+00
  0.00000000E+00  0.00000000E+00  0.00000000E+00
  0.00000000E+00  0.00000000E+00  0.00000000E+00
  0.00000000E+00  0.00000000E+00  0.00000000E+00
  0.00000000E+00  0.00000000E+00  0.00000000E+00
  0.00000000E+00  0.00000000E+00  0.00000000E+00
  0.00000000E+00  0.00000000E+00  0.00000000E+00
  0.00000000E+00  0.00000000E+00  0.00000000E+00
  0.00000000E+00  0.00000000E+00  0.00000000E+00
  0.00000000E+00  0.00000000E+00  0.00000000E+00
  0.00000000E+00  0.00000000E+00  0.00000000E+00
  0.00000000E+00  0.00000000E+00  0.00000000E+00
  0.00000000E+00  0.00000000E+00  0.00000000E+00
  0.00000000E+00  0.00000000E+00  0.00000000E+00
  0.00000000E+00  0.00000000E+00  0.00000000E+00
  0.00000000E+00  0.00000000E+00  0.00000000E+00
  0.00000000E+00  0.00000000E+00  0.00000000E+00
  0.00000000E+00  0.00000000E+00  0.00000000E+00
  0.00000000E+00  0.00000000E+00  0.00000000E+00
  0.00000000E+00  0.00000000E+00  0.00000000E+00
  0.00000000E+00  0.00000000E+00  0.00000000E+00
  0.00000000E+00  0.00000000E+00  0.00000000E+00
  0.00000000E+00  0.00000000E+00  0.00000000E+00
  0.00000000E+00  0.00000000E+00  0.00000000E+00
  0.00000000E+00  0.00000000E+00  0.00000000E+00
  0.00000000E+00  0.00000000E+00  0.00000000E+00
  0.00000000E+00  0.00000000E+00  0.00000000E+00
  0.00000000E+00  0.00000000E+00  0.00000000E+00
  0.00000000E+00  0.00000000E+00  0.00000000E+00
  0.00000000E+00  0.00000000E+00  0.00000000E+00
  0.00000000E+00  0.00000000E+00  0.00000000E+00
  0.00000000E+00  0.00000000E+00  0.00000000E+00
  0.00000000E+00  0.00000000E+00  0.00000000E+00
  0.00000000E+00  0.00000000E+00  0.00000000E+00
  0.00000000E+00  0.00000000E+00  0.00000000E+00
  0.00000000E+00  0.00000000E+00  0.00000000E+00
  0.00000000E+00  0.00000000E+00  0.00000000E+00
  0.00000000E+00  0.00000000E+00  0.00000000E+00
  0.00000000E+00  0.00000000E+00  0.00000000E+00
  0.00000000E+00  0.00000000E+00  0.00000000E+00
  0.00000000E+00  0.00000000E+00  0.00000000E+00
  0.00000000E+00  0.00000000E+00  0.00000000E+00
  0.00000000E+00  0.00000000E+00  0.00000000E+00
  0.00000000E+00  0.00000000E+00  0.00000000E+00
  0.00000000E+00  0.00000000E+00  0.00000000E+00
  0.00000000E+00  0.00000000E+00  0.00000000E+00
  0.00000000E+00  0.00000000E+00  0.00000000E+00
  0.00000000E+00  0.00000000E+00  0.00000000E+00
  0.00000000E+00  0.00000000E+00  0.00000000E+00
  0.00000000E+00  0.00000000E+00  0.00000000E+00
  0.00000000E+00  0.00000000E+00  0.00000000E+00
  0.00000000E+00  0.00000000E+00  0.00000000E+00
  0.00000000E+00  0.00000000E+00  0.00000000E+00
  0.00000000E+00  0.00000000E+00  0.00000000E+00
  0.00000000E+00  0.00000000E+00  0.00000000E+00
  0.00000000E+00  0.00000000E+00  0.00000000E+00
  0.00000000E+00  0.00000000E+00  0.00000000E+00
  0.00000000E+00  0.00000000E+00  0.00000000E+00
  0.00000000E+00  0.00000000E+00  0.00000000E+00
  0.00000000E+00  0.00000000E+00  0.00000000E+00
  0.00000000E+00  0.00000000E+00  0.00000000E+00
  0.00000000E+00  0.00000000E+00  0.00000000E+00
  0.00000000E+00  0.00000000E+00  0.00000000E+00
  0.00000000E+00  0.00000000E+00  0.00000000E+00
  0.00000000E+00  0.00000000E+00  0.00000000E+00
  0.00000000E+00  0.00000000E+00  0.00000000E+00
  0.00000000E+00  0.00000000E+00  0.00000000E+00
  0.00000000E+00  0.00000000E+00  0.00000000E+00
  0.00000000E+00  0.00000000E+00  0.00000000E+00
  0.00000000E+00  0.00000000E+00  0.00000000E+00
  0.00000000E+00  0.00000000E+00  0.00000000E+00
  0.00000000E+00  0.00000000E+00  0.00000000E+00
  0.00000000E+00  0.00000000E+00  0.00000000E+00
  0.00000000E+00  0.00000000E+00  0.00000000E+00
  0.00000000E+00  0.00000000E+00  0.00000000E+00
  0.00000000E+00  0.00000000E+00  0.00000000E+00
  0.00000000E+00  0.00000000E+00  0.00000000E+00
  0.00000000E+00  0.00000000E+00  0.00000000E+00
  0.00000000E+00  0.00000000E+00  0.00000000E+00
  0.00000000E+00  0.00000000E+00  0.00000000E+00
  0.00000000E+00  0.00000000E+00  0.00000000E+00
  0.00000000E+00  0.00000000E+00  0.00000000E+00
  0.00000000E+00  0.00000000E+00  0.00000000E+00
  0.00000000E+00  0.00000000E+00  0.00000000E+00
  0.00000000E+00  0.00000000E+00  0.00000000E+00
  0.00000000E+00  0.00000000E+00  0.00000000E+00
  0.00000000E+00  0.00000000E+00  0.00000000E+00
  0.00000000E+00  0.00000000E+00  0.00000000E+00
  0.00000000E+00  0.00000000E+00  0.00000000E+00
  0.00000000E+00  0.00000000E+00  0.00000000E+00
  0.00000000E+00  0.00000000E+00  0.00000000E+00
  0.00000000E+00  0.00000000E+00  0.00000000E+00
  0.00000000E+00  0.00000000E+00  0.00000000E+00
  0.00000000E+00  0.00000000E+00  0.00000000E+00
  0.00000000E+00  0.00000000E+00  0.00000000E+00
  0.00000000E+00  0.00000000E+00  0.00000000E+00
  0.00000000E+00  0.00000000E+00  0.00000000E+00
  0.00000000E+00  0.00000000E+00  0.00000000E+00
  0.00000000E+00  0.00000000E+00  0.00000000E+00
  0.00000000E+00  0.00000000E+00  0.00000000E+00
  0.00000000E+00  0.00000000E+00  0.00000000E+00
  0.00000000E+00  0.00000000E+00  0.00000000E+00
  0.00000000E+00  0.00000000E+00  0.00000000E+00
  0.00000000E+00  0.00000000E+00  0.00000000E+00
  0.00000000E+00  0.00000000E+00  0.00000000E+00
  0.00000000E+00  0.00000000E+00  0.00000000E+00
  0.00000000E+00  0.00000000E+00  0.00000000E+00
  0.00000000E+00  0.00000000E+00  0.00000000E+00
  0.00000000E+00  0.00000000E+00  0.00000000E+00
  0.00000000E+00  0.00000000E+00  0.00000000E+00
  0.00000000E+00  0.00000000E+00  0.00000000E+00
  0.00000000E+00  0.00000000E+00  0.00000000E+00
  0.00000000E+00  0.00000000E+00  0.00000000E+00
  0.00000000E+00  0.00000000E+00  0.00000000E+00
  0.00000000E+00  0.00000000E+00  0.00000000E+00
  0.00000000E+00  0.00000000E+00  0.00000000E+00
  0.00000000E+00  0.00000000E+00  0.00000000E+00
  0.00000000E+00  0.00000000E+00  0.00000000E+00
  0.00000000E+00  0.00000000E+00  0.00000000E+00
  0.00000000E+00  0.00000000E+00  0.00000000E+00
  0.00000000E+00  0.00000000E+00  0.00000000E+00
  0.00000000E+00  0.00000000E+00  0.00000000E+00
  0.00000000E+00  0.00000000E+00  0.00000000E+00
  0.00000000E+00  0.00000000E+00  0.00000000E+00
  0.00000000E+00  0.00000000E+00  0.00000000E+00
  0.00000000E+00  0.00000000E+00  0.00000000E+00
  0.00000000E+00  0.00000000E+00  0.00000000E+00
  0.00000000E+00  0.00000000E+00  0.00000000E+00
  0.00000000E+00  0.00000000E+00  0.00000000E+00
  0.00000000E+00  0.00000000E+00  0.00000000E+00
  0.00000000E+00  0.00000000E+00  0.00000000E+00
  0.00000000E+00  0.00000000E+00  0.00000000E+00
  0.00000000E+00  0.00000000E+00  0.00000000E+00
  0.00000000E+00  0.00000000E+00  0.00000000E+00
  0.00000000E+00  0.00000000E+00  0.00000000E+00
  0.00000000E+00  0.00000000E+00  0.00000000E+00
  0.00000000E+00  0.00000000E+00  0.00000000E+00
  0.00000000E+00  0.00000000E+00  0.00000000E+00
  0.00000000E+00  0.00000000E+00  0.00000000E+00
  0.00000000E+00  0.00000000E+00  0.00000000E+00
  0.00000000E+00  0.00000000E+00  0.00000000E+00
  0.00000000E+00  0.00000000E+00  0.00000000E+00
  0.00000000E+00  0.00000000E+00  0.00000000E+00
  0.00000000E+00  0.00000000E+00  0.00000000E+00
  0.00000000E+00  0.00000000E+00  0.00000000E+00
  0.00000000E+00  0.00000000E+00  0.00000000E+00
  0.00000000E+00  0.00000000E+00  0.00000000E+00
  0.00000000E+00  0.00000000E+00  0.00000000E+00
  0.00000000E+00  0.00000000E+00  0.00000000E+00
  0.00000000E+00  0.00000000E+00  0.00000000E+00
  0.00000000E+00  0.00000000E+00  0.00000000E+00
  0.00000000E+00  0.00000000E+00  0.00000000E+00
  0.00000000E+00  0.00000000E+00  0.00000000E+00
  0.00000000E+00  0.00000000E+00  0.00000000E+00
  0.00000000E+00  0.00000000E+00  0.00000000E+00
  0.00000000E+00  0.00000000E+00  0.00000000E+00
  0.00000000E+00  0.00000000E+00  0.00000000E+00
  0.00000000E+00  0.00000000E+00  0.00000000E+00
  0.00000000E+00  0.00000000E+00  0.00000000E+00
  0.00000000E+00  0.00000000E+00  0.00000000E+00
  0.00000000E+00  0.00000000E+00  0.00000000E+00
  0.00000000E+00  0.00000000E+00  0.00000000E+00
  0.00000000E+00  0.00000000E+00  0.00000000E+00
  0.00000000E+00  0.00000000E+00  0.00000000E+00
  0.00000000E+00  0.00000000E+00  0.00000000E+00
  0.00000000E+00  0.00000000E+00  0.00000000E+00
  0.00000000E+00  0.00000000E+00  0.00000000E+00
  0.00000000E+00  0.00000000E+00  0.00000000E+00
  0.00000000E+00  0.00000000E+00  0.00000000E+00
  0.00000000E+00  0.00000000E+00  0.00000000E+00
  0.00000000E+00  0.00000000E+00  0.00000000E+00
  0.00000000E+00  0.00000000E+00  0.00000000E+00