FeMn_288_15                             
    1.000000000000000     
     9.7266779999999997    0.0000000000000000    0.0000000000000000
     0.0000000000000000    8.4235500000000005    0.0000000000000000
     0.0000000000000000    0.0000000000000000   45.0000000000000000
   Fe   Mn
   273    15
Direct
  0.9375347060441001  0.6223780863896853  0.5212417165126608
  0.0625699773171206  0.2056295848544298  0.4785883585866123
  0.8125736379440895  0.3723501220564097  0.4348166059380548
  0.4373407098825280  0.6221561598243068  0.5213377050523514
  0.5624278644768084  0.3725928472525553  0.7864839749102822
  0.3123440963352928  0.7057173483463198  0.4785556426465959
  0.9372120001144464  0.9554496458948616  0.6981626784662524
  0.8124605616276894  0.0394120540184505  0.7423143790556851
  0.1875451052561283  0.2887837467859216  0.3902657003293921
  0.8123854457756809  0.8721561980574436  0.5213718498918202
  0.0624899921129210  0.5388631138948105  0.6096733475970887
  0.1875327080612528  0.7886972459819206  0.2577009996680574
  0.4376201737257899  0.6216596437490132  0.1688300673065120
  0.9375081452805933  0.4555203025860239  0.3463585995473809
  0.0626966823792238  0.8722469815258773  0.5212942336550698
  0.0624670147129303  0.8722548575826807  0.3019466210961574
  0.8121152862985791  0.3722236440846446  0.6536489493184958
  0.4376226559049607  0.2887895896613017  0.6096944419892056
  0.3122953203355542  0.8721350952234140  0.5213558317076720
  0.8125165226481051  0.8718252964356247  0.3019466191448209
  0.1874799054370039  0.6221018554285083  0.3019435255131886
  0.8126727138186284  0.5393459881102382  0.8733893111113542
  0.1875534335227904  0.4555163575804422  0.4785775507030893
  0.4374468730830195  0.7884679440953432  0.8733652394486286
  0.0625211267984477  0.7057722186692371  0.4785740717248970
  0.4374325063717244  0.9553612733578635  0.5650624494668930
  0.0627548463285777  0.2054073363986995  0.8314052193307537
  0.3136105697760339  0.0387478679515771  0.1267422021840670
  0.5624064933119135  0.2057896932547377  0.2137133508107069
  0.0624021278842161  0.8722032562095630  0.4348203092902260
  0.4373630216857810  0.4551951099012277  0.5651091645575872
  0.5622298144023328  0.0391383209864295  0.7422928013772182
  0.9377558153953032  0.6223077864936546  0.4348057484357598
  0.5625914619156991  0.0387987452608300  0.6096055904875712
  0.1874909836813246  0.6223592610639105  0.4348550452491873
  0.1874729957114016  0.6219817130884657  0.6536629731297585
  0.9376666518773329  0.1223072877864539  0.3019984727912267
  0.3126358419537736  0.0388105116830709  0.3901415637579718
  0.3125241901896277  0.5386829152939561  0.3901824293107637
  0.6877961482428845  0.4556344062808245  0.5650287335597095
  0.1877299885148482  0.6229896161049737  0.7864652874122097
  0.3122878026859463  0.8724005903966768  0.7864573400657469
  0.4374187004602464  0.4561655381890723  0.8312316103135134
  0.9382714272388730  0.1213707848023483  0.1686103922822151
  0.9377493323277719  0.9552635854104120  0.3463160529314184
  0.8127206097907105  0.0391727320168474  0.8734590201446601
  0.3125093772091245  0.2053600257661403  0.2136101365305172
  0.0623498439689378  0.2052315469388619  0.2136415445342625
  0.8129279984427755  0.7059068157512822  0.6980801903065248
  0.3125781813743359  0.0393583696626795  0.7422676961008282
  0.5623929855831871  0.3717832366978469  0.3019346661427350
  0.5626899219087754  0.8726231836694874  0.1687768186729260
  0.1876375854692841  0.1228712899633909  0.1688436588236630
  0.4374260767039120  0.9552719274245323  0.4785952830976472
  0.8127396717198764  0.0380288269069147  0.1263692989581578
  0.1880188240813798  0.9558865154301748  0.5651691071207294
  0.0623727308812447  0.0391701455889243  0.6097864369548905
  0.4375208304736452  0.1227335229331252  0.6536427745721510
  0.3127366195194332  0.3724679817093626  0.6536880594420977
  0.4375394626715188  0.6226740218218124  0.7864620108687419
  0.8130566887801477  0.2056292966652598  0.6980799944876073
  0.4372164047171865  0.1223342141347420  0.4350500259133584
  0.0622080990294130  0.5392475907200911  0.8734331658916705
  0.0624954067395205  0.2061078732936084  0.6981004334954118
  0.0623289086071872  0.2054250913390313  0.3462798703983096
  0.6872715677048400  0.9556228037353525  0.6981008924743292
  0.4371755044936118  0.6223175070726922  0.4348497138881848
  0.1882305902536421  0.7886159200356350  0.1266786837873420
  0.0624406138616651  0.0387016958602526  0.2578213545765398
  0.0617107315806089  0.0399179710135300  0.8734325694753743
  0.3124080484167012  0.5386738182219635  0.2578551163190532
  0.6874142607721752  0.2889556965083139  0.3901999767546128
  0.6874223466922245  0.4552602090340924  0.4784943591239321
  0.4372337527450106  0.4558069976835074  0.6981987876915096
  0.8126907144330813  0.7053929968646938  0.2136710835778146
  0.0626333520332660  0.8716596685923508  0.1688650188847048
  0.0625683480495826  0.3722359989597213  0.3019170668466687
  0.8129306948556760  0.7057473248306417  0.5650700393426777
  0.1874533321231628  0.2886393810076667  0.2578000910168915
  0.0621104986518492  0.8721274348688722  0.7862584953509890
  0.6878535614988724  0.7886816393074998  0.1264710277689231
  0.9372952382469291  0.9558201652384959  0.5651463288221498
  0.9374126019586709  0.6219342092896517  0.3018996186969333
  0.1872334025529748  0.6222631959350581  0.5213208612022701
  0.4369236979471622  0.1223397523179583  0.1686789937487259
  0.8126767439488598  0.7058190840792914  0.4785731989672415
  0.9375624347085465  0.2893555658057326  0.7422801394408801
  0.4375875217778034  0.4557654734953824  0.2137932929500541
  0.6874357735365629  0.4560019562873826  0.2136650605468702
  0.1871548543791362  0.1218622961164139  0.5213346159157770
  0.1874536709994428  0.4555111442127702  0.3463164243086387
  0.1875587384574687  0.7882766469828992  0.8733193785308915
  0.1874948058462060  0.7887969287444900  0.3901900633109735
  0.5625056858670054  0.0383864495113245  0.1265505452676561
  0.6872854784658390  0.7888130544797712  0.8733103783528350
  0.3120548194498942  0.3713946246174842  0.1688578182095326
  0.1873826449437527  0.1222352398552183  0.4347536645903188
  0.4375400977848932  0.6223939594670536  0.6536614415100209
  0.4374592534507217  0.4555249083059668  0.3463591668342152
  0.6874648345971427  0.6213604190336257  0.3020172829394619
  0.1876755424582357  0.2887985817519546  0.6097169001424826
  0.3124392645671755  0.7065039174852197  0.8312893430337687
  0.5624598349295660  0.7055573395370932  0.4786558527358494
  0.5621309183329602  0.5382265995859558  0.2577559035199672
  0.3126648833642794  0.3724882737810438  0.5213432447250809
  0.1872023033636529  0.2893575002295196  0.7422679244290982
  0.0626300965860518  0.7056411356554785  0.5650439293962811
  0.8124446807137669  0.2053334795907194  0.3463371969060998
  0.9371168051769715  0.7889224428521852  0.1264341316514103
  0.1876037941663956  0.6211418374839137  0.1686839313812956
  0.9377093780970150  0.2891178106632865  0.8735111226937097
  0.9380722114785787  0.2884194513671420  0.2578362067889802
  0.8126517992299467  0.2057151198367448  0.4785506705711676
  0.9374861095187994  0.6222778845513500  0.7864915881159080
  0.8125516599322357  0.0389571986822811  0.3902362177450687
  0.8124486155710826  0.5390123318380762  0.3902366769551843
  0.8125088617460828  0.2055638117527874  0.2136832511685237
  0.0624640458805257  0.7054836225526220  0.3463196955739730
  0.9376084040286169  0.6219707259734643  0.6536157662122908
  0.4375336312302595  0.2890190253698265  0.7422374667024588
  0.4373659014533512  0.7890148202080153  0.3902307025642304
  0.4375408517417152  0.2886987969273958  0.3901949076585852
  0.4373003948838645  0.7885316172027013  0.6097904938972085
  0.5624447744878687  0.7054633927978174  0.3463276296326835
  0.6874242093923275  0.7891801843950144  0.3902196819722437
  0.3124072521681833  0.8720074858786796  0.4347281909603610
  0.8126087812938835  0.5392155684540469  0.6097006967490090
  0.0626415026787180  0.5387541476453720  0.1267456783533869
  0.0625732736761555  0.2058123526820706  0.5650453022407343
  0.8128568174067081  0.5382751610170349  0.2577542352718017
  0.3121558609595094  0.2057661878701344  0.4786688268283855
  0.6875744034797737  0.2889766251146608  0.7422348280460895
  0.8127318413929263  0.2054855870737942  0.8313667976686162
  0.5625122189886576  0.5389975636541613  0.7422341261327244
  0.0627952115923115  0.8723066794081532  0.6536750371888198
  0.6873441591068469  0.4556088868491810  0.8312714724637978
  0.6875272662924695  0.6221926905099839  0.4348626395725483
  0.5627455081991147  0.8723378022594265  0.5213192257053918
  0.6876814216851787  0.6224887035183410  0.6537347186505343
  0.9376198613146464  0.1222049159509429  0.5213049693009719
  0.0625453444068977  0.5386789848099681  0.2578434678566141
  0.1875902575134312  0.4552726468784088  0.5650465832408327
  0.6872905192856056  0.1224873947823864  0.7864403048959409
  0.5619730874354201  0.2060090265894149  0.8312820086674316
  0.3125358417648115  0.8722375430942960  0.3019214839191472
  0.8123271574563795  0.3720481067282594  0.1689254623078129
  0.4369361766018257  0.9565506204110511  0.8312693561784580
  0.0624364803137834  0.0387651327434240  0.3901634636585418
  0.5622648530373439  0.3725324442429803  0.4347324660969413
  0.3123277484142751  0.3736916517140212  0.7863809298011489
  0.3125159581370828  0.5392439308394030  0.7422569388800307
  0.3119413227936196  0.2056518335753907  0.6981253276119115
  0.5623705086736456  0.8727229442117436  0.6537634812529685
  0.6874260086261497  0.1216394640793225  0.3018972915427061
  0.3124490410986274  0.0384042196783074  0.6096947676771020
  0.8125597396778389  0.5392713484897693  0.1266937116700503
  0.4372319871331102  0.1222586614824026  0.3019899233153347
  0.3125577724022220  0.5395902293957126  0.1266780948449554
  0.0621709398850222  0.7057550407786338  0.8311377500730251
  0.9370135114902676  0.6219720543213209  0.1688292089810978
  0.9376928682673501  0.7896571668798049  0.7422550765436823
  0.1881998787587680  0.9564217582895818  0.8312578371966669
  0.5625333385141766  0.3728222841557547  0.5213925744137854
  0.6874788511932528  0.4554850908179994  0.3462910639671201
  0.3125550768354590  0.2054324307761638  0.3463071353618503
  0.3124690892129554  0.7054517055323348  0.3463011854992328
  0.3119431536506669  0.7061702933554329  0.6980896065720960
  0.5625073357484154  0.7058901537142046  0.2136445616926563
  0.3123377109471189  0.3722534192271683  0.3019261791586617
  0.3119510406115195  0.2055114792503672  0.5651333251918924
  0.0631832895157095  0.3722569254123345  0.6536278212905555
  0.4373893078440614  0.7890999963664249  0.7422377115605628
  0.8126155933855976  0.7057066769420438  0.8312426743409215
  0.1874888795834937  0.4551625142508296  0.2136575397281788
  0.6872203041013237  0.9556704878482523  0.5650677452474071
  0.1878879425222149  0.4560637384253102  0.6982096390239589
  0.4384235597258224  0.2893601630563366  0.8734390861327349
  0.0624796872836317  0.5394533021182261  0.7423102388971150
  0.1875995378131002  0.7894759437821881  0.7421981809504723
  0.5623782858653320  0.8718243178158300  0.3019367438024196
  0.6873392630085633  0.2891264253541965  0.6097123249730627
  0.6871950055007988  0.4561087722855627  0.6982156575157712
  0.8125746294544143  0.8723878109320844  0.7864937479034479
  0.3125600509234469  0.7048689688385381  0.2136443339355960
  0.1877068929875741  0.4560999354767247  0.8311715619097896
  0.0635278053380340  0.3712285972541122  0.1687955550718105
  0.1879693650045972  0.7888333932379276  0.6097857498730208
  0.9373977903971734  0.4557292100419561  0.2137445967680622
  0.9372735106942938  0.9560934767168295  0.8311225918908298
  0.9372091344574001  0.2886196896682395  0.1267475457598299
  0.5626191712939775  0.2057059771984764  0.4786453644955101
  0.9378087277366461  0.1223086101731739  0.4348234656592823
  0.5630114863809715  0.8717487771671455  0.7863506901416742
  0.3121960396093847  0.7054219260183533  0.5650552092512715
  0.8124441301049985  0.5391553413295169  0.7423186536297134
  0.9374604318513492  0.4555697117383732  0.4785748328143575
  0.8126106006555300  0.0390791395880194  0.6096323827835388
  0.9373755080684264  0.2889112695084277  0.3902084399577571
  0.5627543687273469  0.7061058713957206  0.8310337479813805
  0.8124798045568922  0.3724678960623155  0.7865534086467696
  0.0622244864775525  0.7049454348354539  0.2136562068479805
  0.6877284167055056  0.1224558631277688  0.6535896646470860
  0.1876639984845276  0.1227328624041990  0.7864064831600410
  0.3126738116350974  0.8710713887928448  0.1688871230895879
  0.9373311108171158  0.4556365617867622  0.5650774046041094
  0.4372440935140411  0.9560793864330637  0.6981260972575452
  0.8125095579995697  0.3718841236657849  0.3019229016111469
  0.6874890929175831  0.9554886446937590  0.4785586150901156
  0.5625131706775292  0.5393067490501378  0.6097026141051989
  0.5624065846449060  0.5382408662918224  0.1267379139134516
  0.9377617858654783  0.7886454486678324  0.2577539484468677
  0.6871712176063945  0.7891304122672270  0.7423195338876009
  0.6871364019523953  0.6223780708897684  0.7865370274245463
  0.6880452223291280  0.6226402914879557  0.1687730243832918
  0.8125533256515092  0.8722274694438057  0.4348598868644508
  0.0624186242330668  0.5387258149000986  0.3901690643642895
  0.5625044437048475  0.5388786312029693  0.3902627553493306
  0.0624562770007877  0.7056746873948284  0.6981103261447698
  0.3121782778467790  0.8725393996422734  0.6537960388543951
  0.6871873628775608  0.2895325714395332  0.1267022425908818
  0.6874683512925840  0.1215009547747081  0.1687614296965367
  0.3125494383218236  0.5394119049035885  0.8734210805659238
  0.5622789524223488  0.0388939908755134  0.3902378159453095
  0.4369321177356171  0.2884810067873575  0.2578589379580183
  0.9379064976650167  0.9552273856768572  0.2137144041993102
  0.5627507714277217  0.2054565181850721  0.5651224611290606
  0.4369576750400501  0.7885038611015764  0.2577387240554876
  0.4372559613551885  0.9551464961701089  0.2136623264673663
  0.5625478852577991  0.5391925502765214  0.8734511038232590
  0.3125309766199109  0.0386500535743772  0.2578499098089256
  0.5623840867695435  0.3723654958136997  0.1688961299354115
  0.0626337549041337  0.3723655304950968  0.5212583986084681
  0.3124600021862909  0.2054178041803711  0.8313791273338565
  0.4375215881059986  0.1225193656982301  0.7864264921918330
  0.4366594444697516  0.7887925887265810  0.1266409679005568
  0.0624505886841689  0.3725371200964693  0.4348418979507404
  0.8122480745897185  0.3724830642388838  0.5212847071987545
  0.6874707475398002  0.9552082257693191  0.3463820577008947
  0.9375244738494157  0.7895423949105083  0.6096410626264105
  0.1874118439757593  0.1222077018136019  0.3019065791208975
  0.9375773564421981  0.7889813064408741  0.3902077713219861
  0.1874965380687553  0.9553710717353283  0.3463009106685304
  0.5625544131854471  0.2053997359331637  0.3463259601680084
  0.1868825776276507  0.2894842750965315  0.8734186509038558
  0.4381166069063746  0.2882517636058330  0.1266827062065868
  0.8125411520682798  0.7054665910275238  0.3463344957585673
  0.1873473063200570  0.1227614334431382  0.6536267450501912
  0.9374261906891920  0.9557240135021826  0.4786131663097292
  0.6878539595952414  0.1219492452921147  0.5212033470656304
  0.0626893106472905  0.3726950490867840  0.7864294411138056
  0.1881162831411688  0.9558353833665199  0.6980174558432463
  0.5625628989648555  0.8720996255192941  0.4347231777975020
  0.6868806576536355  0.2896271159915875  0.8735009157746207
  0.9374670765967634  0.4558699057596493  0.8311058233681279
  0.0615701454941989  0.0389028073337634  0.1266977458028692
  0.4371930067485058  0.9553354005344196  0.3463242161365719
  0.3125854111001264  0.3726298144221176  0.4347353959135832
  0.4375030822035088  0.6219787093154385  0.3018992314979029
  0.8127969745443282  0.2059567968512638  0.5649567426764831
  0.1876937201295613  0.9556984117837830  0.4786004093018293
  0.9376548328030747  0.7881416516300377  0.8733594370376772
  0.3125064816295235  0.5389391627218677  0.6097272275145713
  0.6879324716524335  0.6222565056382811  0.5212864989917056
  0.0625838109418036  0.0395883559180724  0.7423386148003275
  0.5621923838958561  0.3722645191562703  0.6538194735521007
  0.5631469313395538  0.0395647446319519  0.8733839614301984
  0.6876350059723646  0.9557376088150696  0.8312042493781273
  0.9377801144867315  0.1224761801119611  0.6537314844770084
  0.1872753238823501  0.9546540069347625  0.2137570655951345
  0.6872921450856814  0.7892779762157103  0.6097422156037919
  0.4375812411437929  0.4552050370808430  0.4786062832894317
  0.5624185634915880  0.0384014345147372  0.2577567685228382
  0.8126803994857155  0.0381876610933883  0.2578207517089574
  0.9375400785988621  0.2893597963439165  0.6098344411561416
  0.9374122447685586  0.1223973887663199  0.7862634558851669
  0.6877428353557579  0.1221210416820880  0.4347171762916610
  0.6876024076497818  0.7882652760634326  0.2577886255473818
  0.9373896397280344  0.4562074866879567  0.6981444514779787
  0.5624015211537525  0.2056514929486918  0.6981152961965416
  0.6867350651478488  0.9567219181808581  0.2139742647271148
  0.8124528125244829  0.8721410943669500  0.6536793453286897
  0.4373843617822925  0.1220976694457156  0.5212164539572370
  0.6875412303397717  0.2878786828069739  0.2575468746105645
  0.3126143733043958  0.0389753477301175  0.8731410397499826
  0.5622864540137077  0.7051517960233473  0.5650831505966809
  0.1877179130137420  0.2885489244035083  0.1269166403454909
  0.5628147008617553  0.7064040979441745  0.6981227905823988
  0.8130976122141765  0.8718989329982213  0.1679876736507871
 
  0.00000000E+00  0.00000000E+00  0.00000000E+00
  0.00000000E+00  0.00000000E+00  0.00000000E+00
  0.00000000E+00  0.00000000E+00  0.00000000E+00
  0.00000000E+00  0.00000000E+00  0.00000000E+00
  0.00000000E+00  0.00000000E+00  0.00000000E+00
  0.00000000E+00  0.00000000E+00  0.00000000E+00
  0.00000000E+00  0.00000000E+00  0.00000000E+00
  0.00000000E+00  0.00000000E+00  0.00000000E+00
  0.00000000E+00  0.00000000E+00  0.00000000E+00
  0.00000000E+00  0.00000000E+00  0.00000000E+00
  0.00000000E+00  0.00000000E+00  0.00000000E+00
  0.00000000E+00  0.00000000E+00  0.00000000E+00
  0.00000000E+00  0.00000000E+00  0.00000000E+00
  0.00000000E+00  0.00000000E+00  0.00000000E+00
  0.00000000E+00  0.00000000E+00  0.00000000E+00
  0.00000000E+00  0.00000000E+00  0.00000000E+00
  0.00000000E+00  0.00000000E+00  0.00000000E+00
  0.00000000E+00  0.00000000E+00  0.00000000E+00
  0.00000000E+00  0.00000000E+00  0.00000000E+00
  0.00000000E+00  0.00000000E+00  0.00000000E+00
  0.00000000E+00  0.00000000E+00  0.00000000E+00
  0.00000000E+00  0.00000000E+00  0.00000000E+00
  0.00000000E+00  0.00000000E+00  0.00000000E+00
  0.00000000E+00  0.00000000E+00  0.00000000E+00
  0.00000000E+00  0.00000000E+00  0.00000000E+00
  0.00000000E+00  0.00000000E+00  0.00000000E+00
  0.00000000E+00  0.00000000E+00  0.00000000E+00
  0.00000000E+00  0.00000000E+00  0.00000000E+00
  0.00000000E+00  0.00000000E+00  0.00000000E+00
  0.00000000E+00  0.00000000E+00  0.00000000E+00
  0.00000000E+00  0.00000000E+00  0.00000000E+00
  0.00000000E+00  0.00000000E+00  0.00000000E+00
  0.00000000E+00  0.00000000E+00  0.00000000E+00
  0.00000000E+00  0.00000000E+00  0.00000000E+00
  0.00000000E+00  0.00000000E+00  0.00000000E+00
  0.00000000E+00  0.00000000E+00  0.00000000E+00
  0.00000000E+00  0.00000000E+00  0.00000000E+00
  0.00000000E+00  0.00000000E+00  0.00000000E+00
  0.00000000E+00  0.00000000E+00  0.00000000E+00
  0.00000000E+00  0.00000000E+00  0.00000000E+00
  0.00000000E+00  0.00000000E+00  0.00000000E+00
  0.00000000E+00  0.00000000E+00  0.00000000E+00
  0.00000000E+00  0.00000000E+00  0.00000000E+00
  0.00000000E+00  0.00000000E+00  0.00000000E+00
  0.00000000E+00  0.00000000E+00  0.00000000E+00
  0.00000000E+00  0.00000000E+00  0.00000000E+00
  0.00000000E+00  0.00000000E+00  0.00000000E+00
  0.00000000E+00  0.00000000E+00  0.00000000E+00
  0.00000000E+00  0.00000000E+00  0.00000000E+00
  0.00000000E+00  0.00000000E+00  0.00000000E+00
  0.00000000E+00  0.00000000E+00  0.00000000E+00
  0.00000000E+00  0.00000000E+00  0.00000000E+00
  0.00000000E+00  0.00000000E+00  0.00000000E+00
  0.00000000E+00  0.00000000E+00  0.00000000E+00
  0.00000000E+00  0.00000000E+00  0.00000000E+00
  0.00000000E+00  0.00000000E+00  0.00000000E+00
  0.00000000E+00  0.00000000E+00  0.00000000E+00
  0.00000000E+00  0.00000000E+00  0.00000000E+00
  0.00000000E+00  0.00000000E+00  0.00000000E+00
  0.00000000E+00  0.00000000E+00  0.00000000E+00
  0.00000000E+00  0.00000000E+00  0.00000000E+00
  0.00000000E+00  0.00000000E+00  0.00000000E+00
  0.00000000E+00  0.00000000E+00  0.00000000E+00
  0.00000000E+00  0.00000000E+00  0.00000000E+00
  0.00000000E+00  0.00000000E+00  0.00000000E+00
  0.00000000E+00  0.00000000E+00  0.00000000E+00
  0.00000000E+00  0.00000000E+00  0.00000000E+00
  0.00000000E+00  0.00000000E+00  0.00000000E+00
  0.00000000E+00  0.00000000E+00  0.00000000E+00
  0.00000000E+00  0.00000000E+00  0.00000000E+00
  0.00000000E+00  0.00000000E+00  0.00000000E+00
  0.00000000E+00  0.00000000E+00  0.00000000E+00
  0.00000000E+00  0.00000000E+00  0.00000000E+00
  0.00000000E+00  0.00000000E+00  0.00000000E+00
  0.00000000E+00  0.00000000E+00  0.00000000E+00
  0.00000000E+00  0.00000000E+00  0.00000000E+00
  0.00000000E+00  0.00000000E+00  0.00000000E+00
  0.00000000E+00  0.00000000E+00  0.00000000E+00
  0.00000000E+00  0.00000000E+00  0.00000000E+00
  0.00000000E+00  0.00000000E+00  0.00000000E+00
  0.00000000E+00  0.00000000E+00  0.00000000E+00
  0.00000000E+00  0.00000000E+00  0.00000000E+00
  0.00000000E+00  0.00000000E+00  0.00000000E+00
  0.00000000E+00  0.00000000E+00  0.00000000E+00
  0.00000000E+00  0.00000000E+00  0.00000000E+00
  0.00000000E+00  0.00000000E+00  0.00000000E+00
  0.00000000E+00  0.00000000E+00  0.00000000E+00
  0.00000000E+00  0.00000000E+00  0.00000000E+00
  0.00000000E+00  0.00000000E+00  0.00000000E+00
  0.00000000E+00  0.00000000E+00  0.00000000E+00
  0.00000000E+00  0.00000000E+00  0.00000000E+00
  0.00000000E+00  0.00000000E+00  0.00000000E+00
  0.00000000E+00  0.00000000E+00  0.00000000E+00
  0.00000000E+00  0.00000000E+00  0.00000000E+00
  0.00000000E+00  0.00000000E+00  0.00000000E+00
  0.00000000E+00  0.00000000E+00  0.00000000E+00
  0.00000000E+00  0.00000000E+00  0.00000000E+00
  0.00000000E+00  0.00000000E+00  0.00000000E+00
  0.00000000E+00  0.00000000E+00  0.00000000E+00
  0.00000000E+00  0.00000000E+00  0.00000000E+00
  0.00000000E+00  0.00000000E+00  0.00000000E+00
  0.00000000E+00  0.00000000E+00  0.00000000E+00
  0.00000000E+00  0.00000000E+00  0.00000000E+00
  0.00000000E+00  0.00000000E+00  0.00000000E+00
  0.00000000E+00  0.00000000E+00  0.00000000E+00
  0.00000000E+00  0.00000000E+00  0.00000000E+00
  0.00000000E+00  0.00000000E+00  0.00000000E+00
  0.00000000E+00  0.00000000E+00  0.00000000E+00
  0.00000000E+00  0.00000000E+00  0.00000000E+00
  0.00000000E+00  0.00000000E+00  0.00000000E+00
  0.00000000E+00  0.00000000E+00  0.00000000E+00
  0.00000000E+00  0.00000000E+00  0.00000000E+00
  0.00000000E+00  0.00000000E+00  0.00000000E+00
  0.00000000E+00  0.00000000E+00  0.00000000E+00
  0.00000000E+00  0.00000000E+00  0.00000000E+00
  0.00000000E+00  0.00000000E+00  0.00000000E+00
  0.00000000E+00  0.00000000E+00  0.00000000E+00
  0.00000000E+00  0.00000000E+00  0.00000000E+00
  0.00000000E+00  0.00000000E+00  0.00000000E+00
  0.00000000E+00  0.00000000E+00  0.00000000E+00
  0.00000000E+00  0.00000000E+00  0.00000000E+00
  0.00000000E+00  0.00000000E+00  0.00000000E+00
  0.00000000E+00  0.00000000E+00  0.00000000E+00
  0.00000000E+00  0.00000000E+00  0.00000000E+00
  0.00000000E+00  0.00000000E+00  0.00000000E+00
  0.00000000E+00  0.00000000E+00  0.00000000E+00
  0.00000000E+00  0.00000000E+00  0.00000000E+00
  0.00000000E+00  0.00000000E+00  0.00000000E+00
  0.00000000E+00  0.00000000E+00  0.00000000E+00
  0.00000000E+00  0.00000000E+00  0.00000000E+00
  0.00000000E+00  0.00000000E+00  0.00000000E+00
  0.00000000E+00  0.00000000E+00  0.00000000E+00
  0.00000000E+00  0.00000000E+00  0.00000000E+00
  0.00000000E+00  0.00000000E+00  0.00000000E+00
  0.00000000E+00  0.00000000E+00  0.00000000E+00
  0.00000000E+00  0.00000000E+00  0.00000000E+00
  0.00000000E+00  0.00000000E+00  0.00000000E+00
  0.00000000E+00  0.00000000E+00  0.00000000E+00
  0.00000000E+00  0.00000000E+00  0.00000000E+00
  0.00000000E+00  0.00000000E+00  0.00000000E+00
  0.00000000E+00  0.00000000E+00  0.00000000E+00
  0.00000000E+00  0.00000000E+00  0.00000000E+00
  0.00000000E+00  0.00000000E+00  0.00000000E+00
  0.00000000E+00  0.00000000E+00  0.00000000E+00
  0.00000000E+00  0.00000000E+00  0.00000000E+00
  0.00000000E+00  0.00000000E+00  0.00000000E+00
  0.00000000E+00  0.00000000E+00  0.00000000E+00
  0.00000000E+00  0.00000000E+00  0.00000000E+00
  0.00000000E+00  0.00000000E+00  0.00000000E+00
  0.00000000E+00  0.00000000E+00  0.00000000E+00
  0.00000000E+00  0.00000000E+00  0.00000000E+00
  0.00000000E+00  0.00000000E+00  0.00000000E+00
  0.00000000E+00  0.00000000E+00  0.00000000E+00
  0.00000000E+00  0.00000000E+00  0.00000000E+00
  0.00000000E+00  0.00000000E+00  0.00000000E+00
  0.00000000E+00  0.00000000E+00  0.00000000E+00
  0.00000000E+00  0.00000000E+00  0.00000000E+00
  0.00000000E+00  0.00000000E+00  0.00000000E+00
  0.00000000E+00  0.00000000E+00  0.00000000E+00
  0.00000000E+00  0.00000000E+00  0.00000000E+00
  0.00000000E+00  0.00000000E+00  0.00000000E+00
  0.00000000E+00  0.00000000E+00  0.00000000E+00
  0.00000000E+00  0.00000000E+00  0.00000000E+00
  0.00000000E+00  0.00000000E+00  0.00000000E+00
  0.00000000E+00  0.00000000E+00  0.00000000E+00
  0.00000000E+00  0.00000000E+00  0.00000000E+00
  0.00000000E+00  0.00000000E+00  0.00000000E+00
  0.00000000E+00  0.00000000E+00  0.00000000E+00
  0.00000000E+00  0.00000000E+00  0.00000000E+00
  0.00000000E+00  0.00000000E+00  0.00000000E+00
  0.00000000E+00  0.00000000E+00  0.00000000E+00
  0.00000000E+00  0.00000000E+00  0.00000000E+00
  0.00000000E+00  0.00000000E+00  0.00000000E+00
  0.00000000E+00  0.00000000E+00  0.00000000E+00
  0.00000000E+00  0.00000000E+00  0.00000000E+00
  0.00000000E+00  0.00000000E+00  0.00000000E+00
  0.00000000E+00  0.00000000E+00  0.00000000E+00
  0.00000000E+00  0.00000000E+00  0.00000000E+00
  0.00000000E+00  0.00000000E+00  0.00000000E+00
  0.00000000E+00  0.00000000E+00  0.00000000E+00
  0.00000000E+00  0.00000000E+00  0.00000000E+00
  0.00000000E+00  0.00000000E+00  0.00000000E+00
  0.00000000E+00  0.00000000E+00  0.00000000E+00
  0.00000000E+00  0.00000000E+00  0.00000000E+00
  0.00000000E+00  0.00000000E+00  0.00000000E+00
  0.00000000E+00  0.00000000E+00  0.00000000E+00
  0.00000000E+00  0.00000000E+00  0.00000000E+00
  0.00000000E+00  0.00000000E+00  0.00000000E+00
  0.00000000E+00  0.00000000E+00  0.00000000E+00
  0.00000000E+00  0.00000000E+00  0.00000000E+00
  0.00000000E+00  0.00000000E+00  0.00000000E+00
  0.00000000E+00  0.00000000E+00  0.00000000E+00
  0.00000000E+00  0.00000000E+00  0.00000000E+00
  0.00000000E+00  0.00000000E+00  0.00000000E+00
  0.00000000E+00  0.00000000E+00  0.00000000E+00
  0.00000000E+00  0.00000000E+00  0.00000000E+00
  0.00000000E+00  0.00000000E+00  0.00000000E+00
  0.00000000E+00  0.00000000E+00  0.00000000E+00
  0.00000000E+00  0.00000000E+00  0.00000000E+00
  0.00000000E+00  0.00000000E+00  0.00000000E+00
  0.00000000E+00  0.00000000E+00  0.00000000E+00
  0.00000000E+00  0.00000000E+00  0.00000000E+00
  0.00000000E+00  0.00000000E+00  0.00000000E+00
  0.00000000E+00  0.00000000E+00  0.00000000E+00
  0.00000000E+00  0.00000000E+00  0.00000000E+00
  0.00000000E+00  0.00000000E+00  0.00000000E+00
  0.00000000E+00  0.00000000E+00  0.00000000E+00
  0.00000000E+00  0.00000000E+00  0.00000000E+00
  0.00000000E+00  0.00000000E+00  0.00000000E+00
  0.00000000E+00  0.00000000E+00  0.00000000E+00
  0.00000000E+00  0.00000000E+00  0.00000000E+00
  0.00000000E+00  0.00000000E+00  0.00000000E+00
  0.00000000E+00  0.00000000E+00  0.00000000E+00
  0.00000000E+00  0.00000000E+00  0.00000000E+00
  0.00000000E+00  0.00000000E+00  0.00000000E+00
  0.00000000E+00  0.00000000E+00  0.00000000E+00
  0.00000000E+00  0.00000000E+00  0.00000000E+00
  0.00000000E+00  0.00000000E+00  0.00000000E+00
  0.00000000E+00  0.00000000E+00  0.00000000E+00
  0.00000000E+00  0.00000000E+00  0.00000000E+00
  0.00000000E+00  0.00000000E+00  0.00000000E+00
  0.00000000E+00  0.00000000E+00  0.00000000E+00
  0.00000000E+00  0.00000000E+00  0.00000000E+00
  0.00000000E+00  0.00000000E+00  0.00000000E+00
  0.00000000E+00  0.00000000E+00  0.00000000E+00
  0.00000000E+00  0.00000000E+00  0.00000000E+00
  0.00000000E+00  0.00000000E+00  0.00000000E+00
  0.00000000E+00  0.00000000E+00  0.00000000E+00
  0.00000000E+00  0.00000000E+00  0.00000000E+00
  0.00000000E+00  0.00000000E+00  0.00000000E+00
  0.00000000E+00  0.00000000E+00  0.00000000E+00
  0.00000000E+00  0.00000000E+00  0.00000000E+00
  0.00000000E+00  0.00000000E+00  0.00000000E+00
  0.00000000E+00  0.00000000E+00  0.00000000E+00
  0.00000000E+00  0.00000000E+00  0.00000000E+00
  0.00000000E+00  0.00000000E+00  0.00000000E+00
  0.00000000E+00  0.00000000E+00  0.00000000E+00
  0.00000000E+00  0.00000000E+00  0.00000000E+00
  0.00000000E+00  0.00000000E+00  0.00000000E+00
  0.00000000E+00  0.00000000E+00  0.00000000E+00
  0.00000000E+00  0.00000000E+00  0.00000000E+00
  0.00000000E+00  0.00000000E+00  0.00000000E+00
  0.00000000E+00  0.00000000E+00  0.00000000E+00
  0.00000000E+00  0.00000000E+00  0.00000000E+00
  0.00000000E+00  0.00000000E+00  0.00000000E+00
  0.00000000E+00  0.00000000E+00  0.00000000E+00
  0.00000000E+00  0.00000000E+00  0.00000000E+00