CuInSe2gb                               
   1.00000000000000     
     9.7266780392896699    0.0000000000000000    0.0000000000000000
     0.0000000000000000    8.4235502764570693    0.0000000000000000
     0.0000000000000000    0.0000000000000000   45.0000000000000000
   Fe   Mn
   281     7
Direct
  0.0629433870355649  0.0327937338087055  0.1248210561014603
  0.0631280487561991  0.8727026811329108  0.5216541804571779
  0.1911517447588638  0.1245659272106674  0.7882471246772457
  0.4350866408057019  0.2874989354158036  0.3894578191953804
  0.3107343310111064  0.7114050245348372  0.8334598310959154
  0.8107191507455099  0.2113600773884058  0.8334369157889285
  0.1854747623196060  0.7876002228544909  0.3895034154414826
  0.5630604676110866  0.2067746078724747  0.5655068824329315
  0.0620039448304428  0.0413027817663543  0.7438541807671070
  0.8131919334355280  0.8731052952031810  0.5217024055132076
  0.1871403386599251  0.2913889313973239  0.7438672322014038
  0.9379785464009333  0.4532488709719850  0.3450664970129590
  0.9353556455422737  0.2872251341430446  0.3894563651810852
  0.8130128210797022  0.0435314149169947  0.8752514168588454
  0.1872778262920521  0.7912899801630301  0.6105504991137737
  0.5604026426055709  0.0374859765851098  0.3894758614202619
  0.9356313715159549  0.9614140501365019  0.8334534831626996
  0.3129758734844683  0.5435694149391680  0.8752436246589667
  0.6871753722198882  0.2913479687735743  0.7438958723472830
  0.1909716594225402  0.6144368680991699  0.1666460588762879
  0.8129002266511840  0.2050847934832601  0.4780958015791692
  0.8125903106305751  0.5410801770854190  0.6104093226916135
  0.3124282547070643  0.8710127802747774  0.4340892005606680
  0.8128223480070824  0.0364322720557566  0.2561026934497170
  0.6881299054690314  0.9534507156786775  0.3451049032786582
  0.9408629482280336  0.1146365397410175  0.1667984604750729
  0.9384400426354284  0.1230345240137204  0.5216727249203946
  0.5628714353317256  0.5364276889340119  0.2560550193636145
  0.6882528615547716  0.7935159508077932  0.8753099576840598
  0.5667489952929683  0.3651343460795961  0.1665546232393635
  0.4371059251599541  0.7915143120275389  0.7438949300457539
  0.8131896429721347  0.7074185094333898  0.5655972599104366
  0.5661746718119209  0.8744137934132743  0.7882220433763634
  0.6885675338923188  0.1232721676212642  0.5216752999755423
  0.1880005396082267  0.2866259636882397  0.2561581940183220
  0.9356651760045103  0.4614013740286370  0.8334473419566124
  0.0631724148224439  0.2079634411686910  0.6996424216848457
  0.4384870397801672  0.9578142241821013  0.6996907478270197
  0.3107131936145219  0.2114502811575393  0.8334291338800054
  0.4354710415915355  0.6251321840074373  0.6548584591241976
  0.3127042759740343  0.5410878983774170  0.6104784344547077
  0.9379285712198583  0.4569606039191899  0.5656956589804111
  0.6870892917648592  0.7912753480156965  0.7439019818492042
  0.3106965852166789  0.8750757712999268  0.6548749128185578
  0.6852299294977303  0.7874511985469929  0.3894507523224867
  0.9370511299234188  0.7913593855240393  0.7438550513332151
  0.0629416650425051  0.2032773308086275  0.3451275488519259
  0.8104759899590204  0.0375041268469671  0.3894367843530196
  0.4410825107335200  0.1245608487655826  0.7882508487416836
  0.0604012527305456  0.2031557301148322  0.2118367185460188
  0.0661584790672568  0.3657517682224980  0.1666799310229058
  0.9381605061846187  0.7861947479843383  0.2561407981747109
  0.5636585672991904  0.2079148990157075  0.6996805485591037
  0.6884164568087985  0.9577642475596890  0.6996536722146108
  0.6854335417031531  0.2872723112246736  0.3894411540934051
  0.4382486196503206  0.9567355818295060  0.5658174939923736
  0.8160950292858894  0.3743721348437919  0.7882204789768158
  0.6880065875705433  0.2866601480610096  0.2560980195567482
  0.1882338756736220  0.4568541643630527  0.5657366267972400
  0.0654724584445531  0.8651820419042981  0.1664889038730726
  0.1876502046484735  0.2910003113429761  0.6104534439509193
  0.5629752004070505  0.7034871967579741  0.3450256533810199
  0.3134884509122720  0.2079392607169606  0.6996372314521075
  0.5629607683114618  0.5435603455006880  0.8752487668806597
  0.0628757258060508  0.7069182916135559  0.5657661277582096
  0.6910817520117940  0.6245653758232363  0.7882435669092207
  0.3107415594690434  0.5375206658283040  0.3893864049636732
  0.1877244960711371  0.6229842958320103  0.5217219089001934
  0.5625527128158582  0.8709458262305817  0.4341459971525517
  0.4383007977314498  0.4563043815978943  0.5657208853271397
  0.4370732380591226  0.2914025341095355  0.7438798902058776
  0.8083900607573116  0.8713941244673534  0.3003913622011701
  0.8130353025712176  0.7032753514492182  0.3452163585592453
  0.4355532149571560  0.4614154129142279  0.8334364952980661
  0.6878567104268166  0.9545225914047770  0.4781718215029978
  0.6885417777862057  0.4578898851076558  0.6996766891436667
  0.5631826185888632  0.8734571395404114  0.5216700916246657
  0.5602298453906601  0.3749487449464868  0.6548581869831356
  0.8104448775882672  0.8749559413856282  0.6548503836063707
  0.8129092790573773  0.3710870565476204  0.4342518684938332
  0.8128264322486688  0.5361892823253663  0.2560983499232835
  0.6855818165561106  0.4613553579293208  0.8334534956993321
  0.1885350663063056  0.7819151094841826  0.1249423345394814
  0.0630260372663936  0.0435404841248586  0.8752537083863183
  0.3105485446591251  0.3750839670931530  0.6548751721257261
  0.3126941528181224  0.2030588416881104  0.3449478493360450
  0.8121236337870078  0.5411927532426184  0.7439047559383224
  0.6856681996254337  0.9613403669227502  0.8334561500879643
  0.5602532937495582  0.8751228522104679  0.6548989584183105
  0.3127752570695321  0.7070955596800994  0.5658562142035010
  0.3128543128366942  0.5334102295075441  0.1244604117298653
  0.6846827492525637  0.9536738012459480  0.2120388040617038
  0.3131674691277622  0.2070837739326889  0.5657463347438982
  0.3121093904558909  0.5411763302905044  0.7438854876679454
  0.6880065114647866  0.9571397490896046  0.5656928865464261
  0.4374168448203232  0.7909068995190839  0.6104348931961711
  0.6904777309393397  0.6155418252843814  0.1665410328976854
  0.3081781442590988  0.8718227589161250  0.3002965855114773
  0.3128725765409181  0.7045868772094414  0.4781517776633112
  0.9378071320041769  0.2912444115039028  0.6103712049846484
  0.4333196950190711  0.6212902029179610  0.3003902522243060
  0.8166845876146438  0.8654789375919479  0.1666498861232267
  0.5600546731403766  0.2026595481126788  0.2118580119745269
  0.9404964909911494  0.6156674216894468  0.1667537240135065
  0.9382996010801085  0.7934735319777737  0.8753074323792444
  0.5661099942576504  0.3745253908553254  0.7882354620890623
  0.0633384378902967  0.3725377103527481  0.5217157646386129
  0.5637567940070930  0.3728721556259480  0.5216366257269645
  0.6829477921476755  0.1218145965489267  0.3004406575496991
  0.4356231744259724  0.9613306990883785  0.8334585577592616
  0.1898675359310077  0.2829974476463891  0.1247427920992036
  0.8160917037760603  0.8745291550667038  0.7881967241706538
  0.3121602877899513  0.3708926596523915  0.4341598409936380
  0.9378041809634201  0.7913871182326488  0.6104528428137971
  0.4375258458677332  0.2908382226171235  0.6105102395457195
  0.1880196254704692  0.4530915181380533  0.3451427522174701
  0.4393373287968946  0.2831923515388661  0.1246028490807028
  0.6880428599116818  0.7864302154805448  0.2561175776834347
  0.1885737250803547  0.9579409141741013  0.6996832942088281
  0.1882413011603322  0.2934907137400432  0.8753029406741236
  0.1855714724876240  0.1246880865066021  0.6548325215122797
  0.9356222664083905  0.1248438487942973  0.6548389456568205
  0.3094947045878406  0.2023265059659240  0.2118905111489083
  0.0606091817648007  0.0374100842155599  0.3895187831427473
  0.1905966004594997  0.1152312434186543  0.1669643284502250
  0.0622719211241626  0.5411569002381842  0.6104656980239738
  0.9380290277211573  0.2862588344937840  0.2561911358423072
  0.5623894074749897  0.5410589933851280  0.6104149686371608
  0.9381464190530925  0.9571536626345847  0.5657894951509905
  0.6832844814193610  0.6214864034830897  0.3003568955760899
  0.9373298968651571  0.6212944361415784  0.4342519711436283
  0.9412230283248438  0.6245444434926898  0.7882694007628683
  0.5633235342262249  0.7079028166705791  0.6997011999644426
  0.0607563488100949  0.7113883096527152  0.8334113826091755
  0.9332527638873021  0.1217760319322479  0.3004505674447637
  0.9386778908725432  0.4578016350511489  0.6996934714165107
  0.4380634302224340  0.7866667760893176  0.2559970504887976
  0.3161331341910447  0.3744084085734613  0.7882104591633773
  0.4352371131593200  0.4530645517215737  0.2119805514821196
  0.1875694200708075  0.1236121540762520  0.5216683364975380
  0.8135334614436632  0.7079653609184648  0.6996779589168935
  0.0626814234818386  0.0411803688655308  0.6104575570429550
  0.5607689058899873  0.2113956453524309  0.8334422086011208
  0.3133626301839479  0.8731695691951519  0.5217104832266810
  0.6903100999308299  0.2833254451655808  0.1249897829932200
  0.1854772940406302  0.9538851976389896  0.2118671594299389
  0.6875361632193446  0.2911915594301211  0.6104167342878976
  0.3123444353089282  0.0407836800860822  0.6105044114967068
  0.9412272400421909  0.1245941027067267  0.7882761376173715
  0.4382842923966226  0.7934884710031929  0.8753020337042078
  0.8120911328337388  0.0410643137630497  0.7439147560826852
  0.4380488305164674  0.1230172505605942  0.5216752816998397
  0.1855210976711108  0.6251883884254398  0.6549222732713609
  0.3134768499767217  0.7079040838311137  0.6996899792841924
  0.9390714160121830  0.2830237992494457  0.1250848750994859
  0.4382184108693179  0.4548207337023115  0.4781911799981880
  0.0623746391714836  0.7045069019681335  0.4781416753333346
  0.9377770090474943  0.1206074093976007  0.4341668303994412
  0.4332697762930851  0.1214293061257305  0.3003246530006691
  0.1877853334366529  0.1212207079330917  0.4341582200653502
  0.5630436026209231  0.0435371072077337  0.8752528472861404
  0.1879372963580509  0.9568588871241207  0.5654413508019601
  0.6901951261221820  0.7811998641078028  0.1248885236294600
  0.5644141570880723  0.5336670609602622  0.1247213047909203
  0.3100922112532475  0.0373322090517146  0.3894859415703204
  0.6907741989193469  0.1145764017781836  0.1668336741666856
  0.8099662664789038  0.2032750895207336  0.2118331359739757
  0.0629189430599675  0.5362294527429196  0.2560949198792026
  0.5627207746566374  0.7048242260977271  0.4781650364793275
  0.0631020237306923  0.2069362314285964  0.5656862957295734
  0.5582144745065324  0.3717028141677795  0.3003902415281874
  0.4380541714573770  0.9532895617652830  0.3450549070561176
  0.1856279337869697  0.9613390304058257  0.8334566429374480
  0.4409689502220915  0.6152215977436074  0.1667018294767021
  0.9349410044323244  0.4532854542434374  0.2119351124948044
  0.0636416403219178  0.5330633799084082  0.1248319470469654
  0.8131011164220688  0.3726263806835864  0.5217958998128270
  0.9332603922660997  0.6212125633287207  0.3004970217680438
  0.3131919873232914  0.0363974897834552  0.2560923245590828
  0.6876165354188756  0.7914976785575807  0.6105371373106653
  0.1856952134879936  0.4613301695779564  0.8334342446630056
  0.4404977797398689  0.1138394844055976  0.1667993304408272
  0.3123158935489975  0.3725879640212613  0.5217666197012946
  0.4412934193932993  0.6244071363512900  0.7882115732112553
  0.0630339512066646  0.0364295563220983  0.2560822991507357
  0.5634874231674024  0.7069500815095812  0.5656366730754997
  0.9371023414269843  0.2913549016268272  0.7438830321540298
  0.6912314517632665  0.1245746438398465  0.7882657435648424
  0.1852198722699781  0.4536193632006643  0.2120366512068337
  0.9351813206864262  0.7871992605614213  0.3894073505073359
  0.6882270893423255  0.2934745107238778  0.8753118247409537
  0.3169340776322990  0.8645134814403486  0.1666087165799723
  0.4385360068623553  0.4580887034620115  0.6996928606486480
  0.9378879279330046  0.9530279874386454  0.3450568238011342
  0.6884579396748486  0.6227962598484940  0.5217662796599141
  0.0609980680877312  0.8748166160244686  0.6548321737785682
  0.0662237039163678  0.8745926234963012  0.7882265113605741
  0.0609478646083250  0.3750081613667862  0.6548880722638394
  0.6876059528956106  0.4553191359989154  0.4781631524523924
  0.1879671352033273  0.7863990984335383  0.2560267230607233
  0.4370385762211589  0.1211963432244757  0.4341945380042448
  0.8134375343203736  0.0338754329664917  0.1248310380320816
  0.9382171664964605  0.6234839746253880  0.5217298247515411
  0.0623770355472186  0.8709034184205831  0.4341994549239239
  0.8131311258021421  0.5332491965529488  0.1247990654546542
  0.4380124687974070  0.4531293316003959  0.3450926008557783
  0.8130879966759085  0.2031138464621650  0.3450386482274836
  0.3130847324542171  0.7030484327325198  0.3450956138712968
  0.6856314598598069  0.1248098920288242  0.6548592450773424
  0.5584574837645419  0.8718948902049463  0.3003821894601378
  0.0621951185975399  0.5413229762935040  0.7439091353503292
  0.9396056009273274  0.7832279074555076  0.1247885888927386
  0.8094864120284958  0.7028438158964779  0.2118575498886578
  0.0582724034138367  0.8717208710300473  0.3003518278378748
  0.1836394901052341  0.1217517242497283  0.3004811554144466
  0.0629070535219960  0.7031340895943924  0.3450836870416217
  0.8125917036975814  0.0414947917748188  0.6104882545803281
  0.0626114123251226  0.3710657137217706  0.4342566004264102
  0.5630905562487787  0.2032090613709140  0.3450051212951705
  0.8081350061672498  0.3713924032229160  0.3003777676076783
  0.4381640827649354  0.9549206665815687  0.4781781633231831
  0.5601755087036731  0.5376675837065125  0.3894175630367346
  0.0622047375234539  0.2052115571814028  0.4781002285466261
  0.3161464522629632  0.8744442295323320  0.7882212425034889
  0.9385015598470491  0.9577796908946261  0.6997166579052557
  0.0582464376513105  0.3716590589801912  0.3003413334567505
  0.6854414423084464  0.6250923027590075  0.6548963739660351
  0.6879777866409877  0.4571566882212148  0.5657003423011031
  0.4350944636038455  0.9535266342763584  0.2118865484168639
  0.3137656590904339  0.2051945324528170  0.4780461321274674
  0.4356291485564585  0.1247591326682076  0.6547918735887006
  0.6879684183063607  0.6210247746619979  0.4341121306611895
  0.8136153333369224  0.2078841977930559  0.6996919823168347
  0.8130323916887517  0.7048346388253379  0.4781364859222031
  0.8131259487495844  0.8708754877238768  0.4342666626027122
  0.9371466391148959  0.9550825734027468  0.4781090812045991
  0.5624634752979050  0.2050157798777998  0.4782229837004809
  0.1875749505736173  0.6214864042456412  0.4341404554710572
  0.3121038079715762  0.0412666721414486  0.7438752733443227
  0.9359100864330322  0.6249049641729625  0.6549084388163664
  0.5607120616360223  0.7113505640820313  0.8334117153574410
  0.3084932354796669  0.3717249539941832  0.3003635981591417
  0.5601452850403009  0.7027987074151898  0.2117909164138513
  0.1882197769326218  0.4550983479741376  0.4781991901516173
  0.3130375120645350  0.0435573913426400  0.8752610995714533
  0.1884651308250814  0.4581129252617643  0.6996522815277726
  0.8129725399168172  0.5435580615248522  0.8752549131054910
  0.1853790793407155  0.2874823714679616  0.3893581427100477
  0.4375769746497026  0.6211578555911612  0.4344988988570136
  0.0605698491956924  0.7028069093814348  0.2118958324497816
  0.5634242474662068  0.0335245748581502  0.1248658784845747
  0.8166417598642643  0.3651212651109712  0.1666367803595401
  0.8107352320797623  0.7113472984329720  0.8334480473618763
  0.0661897866672677  0.3744608420148318  0.7882307009287910
  0.4382614193952669  0.2935548813598067  0.8753044484859575
  0.3132000930176885  0.0351367936642841  0.1248370812326244
  0.6878853754565473  0.1209261424764096  0.4341989351931959
  0.1879095850449624  0.9532760928837740  0.3451436144103024
  0.0606611465392652  0.2114099592778057  0.8334174250595869
  0.5624517797627890  0.0409705618484164  0.6104673100499226
  0.6847959709635368  0.4536866390298437  0.2119863252597950
  0.1871348720214423  0.7914781869913458  0.7438723326627155
  0.1830710257026589  0.6216739735685866  0.3004152514356670
  0.4356536965125333  0.7871281850902629  0.3893267366720080
  0.4377670641889735  0.2865834914825089  0.2561503428568855
  0.0630125404665834  0.5435750284002483  0.8752543640386513
  0.5621108275877580  0.0412454462801127  0.7438741615390226
  0.1882296255943963  0.7934646489736544  0.8752996976552518
  0.9372939486570886  0.4546956694653972  0.4781709145578775
  0.8101687428438746  0.5373701822815667  0.3894718638209135
  0.8131840968468065  0.2072155639494319  0.5656156983798690
  0.1912483751274060  0.6243788044904262  0.7882231764818031
  0.0602564301912378  0.5375686449277183  0.3894563026581739
  0.0634980633128927  0.7078741131454630  0.6996673764491089
  0.3127269188885512  0.5365375482072547  0.2561508715963057
  0.3099462264493172  0.7024091657730932  0.2117977496668847
  0.5665575123741846  0.8648278350214950  0.1666244677134980
  0.5620112379262256  0.5413267741773246  0.7439283537027398
  0.6877942933187212  0.4533668052636211  0.3450619819059466
  0.9382670319213073  0.2934568891402687  0.8752973574592448
  0.5626331834657733  0.0364806238595676  0.2561213067710875
  0.4396240524634945  0.7840519269203297  0.1250472010289390
  0.3166429691842463  0.3642104259524761  0.1662790637783087
  0.4384242541404705  0.6235091024365653  0.5215578656925544
  0.5627799336774314  0.3707016911745113  0.4340528063531952
  0.9345116784479057  0.9542046936935610  0.2121702060575647
  0.8103618298078306  0.3747947358919648  0.6547830119106417
  0.1877274714283107  0.9546382800184071  0.4782765750522238
 
  0.00000000E+00  0.00000000E+00  0.00000000E+00
  0.00000000E+00  0.00000000E+00  0.00000000E+00
  0.00000000E+00  0.00000000E+00  0.00000000E+00
  0.00000000E+00  0.00000000E+00  0.00000000E+00
  0.00000000E+00  0.00000000E+00  0.00000000E+00
  0.00000000E+00  0.00000000E+00  0.00000000E+00
  0.00000000E+00  0.00000000E+00  0.00000000E+00
  0.00000000E+00  0.00000000E+00  0.00000000E+00
  0.00000000E+00  0.00000000E+00  0.00000000E+00
  0.00000000E+00  0.00000000E+00  0.00000000E+00
  0.00000000E+00  0.00000000E+00  0.00000000E+00
  0.00000000E+00  0.00000000E+00  0.00000000E+00
  0.00000000E+00  0.00000000E+00  0.00000000E+00
  0.00000000E+00  0.00000000E+00  0.00000000E+00
  0.00000000E+00  0.00000000E+00  0.00000000E+00
  0.00000000E+00  0.00000000E+00  0.00000000E+00
  0.00000000E+00  0.00000000E+00  0.00000000E+00
  0.00000000E+00  0.00000000E+00  0.00000000E+00
  0.00000000E+00  0.00000000E+00  0.00000000E+00
  0.00000000E+00  0.00000000E+00  0.00000000E+00
  0.00000000E+00  0.00000000E+00  0.00000000E+00
  0.00000000E+00  0.00000000E+00  0.00000000E+00
  0.00000000E+00  0.00000000E+00  0.00000000E+00
  0.00000000E+00  0.00000000E+00  0.00000000E+00
  0.00000000E+00  0.00000000E+00  0.00000000E+00
  0.00000000E+00  0.00000000E+00  0.00000000E+00
  0.00000000E+00  0.00000000E+00  0.00000000E+00
  0.00000000E+00  0.00000000E+00  0.00000000E+00
  0.00000000E+00  0.00000000E+00  0.00000000E+00
  0.00000000E+00  0.00000000E+00  0.00000000E+00
  0.00000000E+00  0.00000000E+00  0.00000000E+00
  0.00000000E+00  0.00000000E+00  0.00000000E+00
  0.00000000E+00  0.00000000E+00  0.00000000E+00
  0.00000000E+00  0.00000000E+00  0.00000000E+00
  0.00000000E+00  0.00000000E+00  0.00000000E+00
  0.00000000E+00  0.00000000E+00  0.00000000E+00
  0.00000000E+00  0.00000000E+00  0.00000000E+00
  0.00000000E+00  0.00000000E+00  0.00000000E+00
  0.00000000E+00  0.00000000E+00  0.00000000E+00
  0.00000000E+00  0.00000000E+00  0.00000000E+00
  0.00000000E+00  0.00000000E+00  0.00000000E+00
  0.00000000E+00  0.00000000E+00  0.00000000E+00
  0.00000000E+00  0.00000000E+00  0.00000000E+00
  0.00000000E+00  0.00000000E+00  0.00000000E+00
  0.00000000E+00  0.00000000E+00  0.00000000E+00
  0.00000000E+00  0.00000000E+00  0.00000000E+00
  0.00000000E+00  0.00000000E+00  0.00000000E+00
  0.00000000E+00  0.00000000E+00  0.00000000E+00
  0.00000000E+00  0.00000000E+00  0.00000000E+00
  0.00000000E+00  0.00000000E+00  0.00000000E+00
  0.00000000E+00  0.00000000E+00  0.00000000E+00
  0.00000000E+00  0.00000000E+00  0.00000000E+00
  0.00000000E+00  0.00000000E+00  0.00000000E+00
  0.00000000E+00  0.00000000E+00  0.00000000E+00
  0.00000000E+00  0.00000000E+00  0.00000000E+00
  0.00000000E+00  0.00000000E+00  0.00000000E+00
  0.00000000E+00  0.00000000E+00  0.00000000E+00
  0.00000000E+00  0.00000000E+00  0.00000000E+00
  0.00000000E+00  0.00000000E+00  0.00000000E+00
  0.00000000E+00  0.00000000E+00  0.00000000E+00
  0.00000000E+00  0.00000000E+00  0.00000000E+00
  0.00000000E+00  0.00000000E+00  0.00000000E+00
  0.00000000E+00  0.00000000E+00  0.00000000E+00
  0.00000000E+00  0.00000000E+00  0.00000000E+00
  0.00000000E+00  0.00000000E+00  0.00000000E+00
  0.00000000E+00  0.00000000E+00  0.00000000E+00
  0.00000000E+00  0.00000000E+00  0.00000000E+00
  0.00000000E+00  0.00000000E+00  0.00000000E+00
  0.00000000E+00  0.00000000E+00  0.00000000E+00
  0.00000000E+00  0.00000000E+00  0.00000000E+00
  0.00000000E+00  0.00000000E+00  0.00000000E+00
  0.00000000E+00  0.00000000E+00  0.00000000E+00
  0.00000000E+00  0.00000000E+00  0.00000000E+00
  0.00000000E+00  0.00000000E+00  0.00000000E+00
  0.00000000E+00  0.00000000E+00  0.00000000E+00
  0.00000000E+00  0.00000000E+00  0.00000000E+00
  0.00000000E+00  0.00000000E+00  0.00000000E+00
  0.00000000E+00  0.00000000E+00  0.00000000E+00
  0.00000000E+00  0.00000000E+00  0.00000000E+00
  0.00000000E+00  0.00000000E+00  0.00000000E+00
  0.00000000E+00  0.00000000E+00  0.00000000E+00
  0.00000000E+00  0.00000000E+00  0.00000000E+00
  0.00000000E+00  0.00000000E+00  0.00000000E+00
  0.00000000E+00  0.00000000E+00  0.00000000E+00
  0.00000000E+00  0.00000000E+00  0.00000000E+00
  0.00000000E+00  0.00000000E+00  0.00000000E+00
  0.00000000E+00  0.00000000E+00  0.00000000E+00
  0.00000000E+00  0.00000000E+00  0.00000000E+00
  0.00000000E+00  0.00000000E+00  0.00000000E+00
  0.00000000E+00  0.00000000E+00  0.00000000E+00
  0.00000000E+00  0.00000000E+00  0.00000000E+00
  0.00000000E+00  0.00000000E+00  0.00000000E+00
  0.00000000E+00  0.00000000E+00  0.00000000E+00
  0.00000000E+00  0.00000000E+00  0.00000000E+00
  0.00000000E+00  0.00000000E+00  0.00000000E+00
  0.00000000E+00  0.00000000E+00  0.00000000E+00
  0.00000000E+00  0.00000000E+00  0.00000000E+00
  0.00000000E+00  0.00000000E+00  0.00000000E+00
  0.00000000E+00  0.00000000E+00  0.00000000E+00
  0.00000000E+00  0.00000000E+00  0.00000000E+00
  0.00000000E+00  0.00000000E+00  0.00000000E+00
  0.00000000E+00  0.00000000E+00  0.00000000E+00
  0.00000000E+00  0.00000000E+00  0.00000000E+00
  0.00000000E+00  0.00000000E+00  0.00000000E+00
  0.00000000E+00  0.00000000E+00  0.00000000E+00
  0.00000000E+00  0.00000000E+00  0.00000000E+00
  0.00000000E+00  0.00000000E+00  0.00000000E+00
  0.00000000E+00  0.00000000E+00  0.00000000E+00
  0.00000000E+00  0.00000000E+00  0.00000000E+00
  0.00000000E+00  0.00000000E+00  0.00000000E+00
  0.00000000E+00  0.00000000E+00  0.00000000E+00
  0.00000000E+00  0.00000000E+00  0.00000000E+00
  0.00000000E+00  0.00000000E+00  0.00000000E+00
  0.00000000E+00  0.00000000E+00  0.00000000E+00
  0.00000000E+00  0.00000000E+00  0.00000000E+00
  0.00000000E+00  0.00000000E+00  0.00000000E+00
  0.00000000E+00  0.00000000E+00  0.00000000E+00
  0.00000000E+00  0.00000000E+00  0.00000000E+00
  0.00000000E+00  0.00000000E+00  0.00000000E+00
  0.00000000E+00  0.00000000E+00  0.00000000E+00
  0.00000000E+00  0.00000000E+00  0.00000000E+00
  0.00000000E+00  0.00000000E+00  0.00000000E+00
  0.00000000E+00  0.00000000E+00  0.00000000E+00
  0.00000000E+00  0.00000000E+00  0.00000000E+00
  0.00000000E+00  0.00000000E+00  0.00000000E+00
  0.00000000E+00  0.00000000E+00  0.00000000E+00
  0.00000000E+00  0.00000000E+00  0.00000000E+00
  0.00000000E+00  0.00000000E+00  0.00000000E+00
  0.00000000E+00  0.00000000E+00  0.00000000E+00
  0.00000000E+00  0.00000000E+00  0.00000000E+00
  0.00000000E+00  0.00000000E+00  0.00000000E+00
  0.00000000E+00  0.00000000E+00  0.00000000E+00
  0.00000000E+00  0.00000000E+00  0.00000000E+00
  0.00000000E+00  0.00000000E+00  0.00000000E+00
  0.00000000E+00  0.00000000E+00  0.00000000E+00
  0.00000000E+00  0.00000000E+00  0.00000000E+00
  0.00000000E+00  0.00000000E+00  0.00000000E+00
  0.00000000E+00  0.00000000E+00  0.00000000E+00
  0.00000000E+00  0.00000000E+00  0.00000000E+00
  0.00000000E+00  0.00000000E+00  0.00000000E+00
  0.00000000E+00  0.00000000E+00  0.00000000E+00
  0.00000000E+00  0.00000000E+00  0.00000000E+00
  0.00000000E+00  0.00000000E+00  0.00000000E+00
  0.00000000E+00  0.00000000E+00  0.00000000E+00
  0.00000000E+00  0.00000000E+00  0.00000000E+00
  0.00000000E+00  0.00000000E+00  0.00000000E+00
  0.00000000E+00  0.00000000E+00  0.00000000E+00
  0.00000000E+00  0.00000000E+00  0.00000000E+00
  0.00000000E+00  0.00000000E+00  0.00000000E+00
  0.00000000E+00  0.00000000E+00  0.00000000E+00
  0.00000000E+00  0.00000000E+00  0.00000000E+00
  0.00000000E+00  0.00000000E+00  0.00000000E+00
  0.00000000E+00  0.00000000E+00  0.00000000E+00
  0.00000000E+00  0.00000000E+00  0.00000000E+00
  0.00000000E+00  0.00000000E+00  0.00000000E+00
  0.00000000E+00  0.00000000E+00  0.00000000E+00
  0.00000000E+00  0.00000000E+00  0.00000000E+00
  0.00000000E+00  0.00000000E+00  0.00000000E+00
  0.00000000E+00  0.00000000E+00  0.00000000E+00
  0.00000000E+00  0.00000000E+00  0.00000000E+00
  0.00000000E+00  0.00000000E+00  0.00000000E+00
  0.00000000E+00  0.00000000E+00  0.00000000E+00
  0.00000000E+00  0.00000000E+00  0.00000000E+00
  0.00000000E+00  0.00000000E+00  0.00000000E+00
  0.00000000E+00  0.00000000E+00  0.00000000E+00
  0.00000000E+00  0.00000000E+00  0.00000000E+00
  0.00000000E+00  0.00000000E+00  0.00000000E+00
  0.00000000E+00  0.00000000E+00  0.00000000E+00
  0.00000000E+00  0.00000000E+00  0.00000000E+00
  0.00000000E+00  0.00000000E+00  0.00000000E+00
  0.00000000E+00  0.00000000E+00  0.00000000E+00
  0.00000000E+00  0.00000000E+00  0.00000000E+00
  0.00000000E+00  0.00000000E+00  0.00000000E+00
  0.00000000E+00  0.00000000E+00  0.00000000E+00
  0.00000000E+00  0.00000000E+00  0.00000000E+00
  0.00000000E+00  0.00000000E+00  0.00000000E+00
  0.00000000E+00  0.00000000E+00  0.00000000E+00
  0.00000000E+00  0.00000000E+00  0.00000000E+00
  0.00000000E+00  0.00000000E+00  0.00000000E+00
  0.00000000E+00  0.00000000E+00  0.00000000E+00
  0.00000000E+00  0.00000000E+00  0.00000000E+00
  0.00000000E+00  0.00000000E+00  0.00000000E+00
  0.00000000E+00  0.00000000E+00  0.00000000E+00
  0.00000000E+00  0.00000000E+00  0.00000000E+00
  0.00000000E+00  0.00000000E+00  0.00000000E+00
  0.00000000E+00  0.00000000E+00  0.00000000E+00
  0.00000000E+00  0.00000000E+00  0.00000000E+00
  0.00000000E+00  0.00000000E+00  0.00000000E+00
  0.00000000E+00  0.00000000E+00  0.00000000E+00
  0.00000000E+00  0.00000000E+00  0.00000000E+00
  0.00000000E+00  0.00000000E+00  0.00000000E+00
  0.00000000E+00  0.00000000E+00  0.00000000E+00
  0.00000000E+00  0.00000000E+00  0.00000000E+00
  0.00000000E+00  0.00000000E+00  0.00000000E+00
  0.00000000E+00  0.00000000E+00  0.00000000E+00
  0.00000000E+00  0.00000000E+00  0.00000000E+00
  0.00000000E+00  0.00000000E+00  0.00000000E+00
  0.00000000E+00  0.00000000E+00  0.00000000E+00
  0.00000000E+00  0.00000000E+00  0.00000000E+00
  0.00000000E+00  0.00000000E+00  0.00000000E+00
  0.00000000E+00  0.00000000E+00  0.00000000E+00
  0.00000000E+00  0.00000000E+00  0.00000000E+00
  0.00000000E+00  0.00000000E+00  0.00000000E+00
  0.00000000E+00  0.00000000E+00  0.00000000E+00
  0.00000000E+00  0.00000000E+00  0.00000000E+00
  0.00000000E+00  0.00000000E+00  0.00000000E+00
  0.00000000E+00  0.00000000E+00  0.00000000E+00
  0.00000000E+00  0.00000000E+00  0.00000000E+00
  0.00000000E+00  0.00000000E+00  0.00000000E+00
  0.00000000E+00  0.00000000E+00  0.00000000E+00
  0.00000000E+00  0.00000000E+00  0.00000000E+00
  0.00000000E+00  0.00000000E+00  0.00000000E+00
  0.00000000E+00  0.00000000E+00  0.00000000E+00
  0.00000000E+00  0.00000000E+00  0.00000000E+00
  0.00000000E+00  0.00000000E+00  0.00000000E+00
  0.00000000E+00  0.00000000E+00  0.00000000E+00
  0.00000000E+00  0.00000000E+00  0.00000000E+00
  0.00000000E+00  0.00000000E+00  0.00000000E+00
  0.00000000E+00  0.00000000E+00  0.00000000E+00
  0.00000000E+00  0.00000000E+00  0.00000000E+00
  0.00000000E+00  0.00000000E+00  0.00000000E+00
  0.00000000E+00  0.00000000E+00  0.00000000E+00
  0.00000000E+00  0.00000000E+00  0.00000000E+00
  0.00000000E+00  0.00000000E+00  0.00000000E+00
  0.00000000E+00  0.00000000E+00  0.00000000E+00
  0.00000000E+00  0.00000000E+00  0.00000000E+00
  0.00000000E+00  0.00000000E+00  0.00000000E+00
  0.00000000E+00  0.00000000E+00  0.00000000E+00
  0.00000000E+00  0.00000000E+00  0.00000000E+00
  0.00000000E+00  0.00000000E+00  0.00000000E+00
  0.00000000E+00  0.00000000E+00  0.00000000E+00
  0.00000000E+00  0.00000000E+00  0.00000000E+00
  0.00000000E+00  0.00000000E+00  0.00000000E+00
  0.00000000E+00  0.00000000E+00  0.00000000E+00
  0.00000000E+00  0.00000000E+00  0.00000000E+00
  0.00000000E+00  0.00000000E+00  0.00000000E+00
  0.00000000E+00  0.00000000E+00  0.00000000E+00
  0.00000000E+00  0.00000000E+00  0.00000000E+00
  0.00000000E+00  0.00000000E+00  0.00000000E+00
  0.00000000E+00  0.00000000E+00  0.00000000E+00
  0.00000000E+00  0.00000000E+00  0.00000000E+00
  0.00000000E+00  0.00000000E+00  0.00000000E+00
  0.00000000E+00  0.00000000E+00  0.00000000E+00
  0.00000000E+00  0.00000000E+00  0.00000000E+00
  0.00000000E+00  0.00000000E+00  0.00000000E+00
  0.00000000E+00  0.00000000E+00  0.00000000E+00
  0.00000000E+00  0.00000000E+00  0.00000000E+00