CuInSe2gb                               
   1.00000000000000     
     9.7266780392896699    0.0000000000000000    0.0000000000000000
     0.0000000000000000    8.4235502764570693    0.0000000000000000
     0.0000000000000000    0.0000000000000000   45.0000000000000000
   Fe   Mn
   281     7
Direct
  0.0615273292605064  0.0308763346338034  0.1245309131511265
  0.0632448863946009  0.8718339577733468  0.5212485581828694
  0.1941704193074612  0.1236584526043291  0.7884264871825704
  0.4334404364571804  0.2876783424381389  0.3890820251423117
  0.3084755375012941  0.7128163053173274  0.8331673075636179
  0.8084771753395830  0.2126876099418792  0.8331642201751105
  0.1835013372472404  0.7875615170577233  0.3890704786451866
  0.5629345678308063  0.2073823771844014  0.5653707678979060
  0.0601307627909630  0.0411727338604925  0.7440616811058984
  0.8133163498639974  0.8719507076588235  0.5213833562676213
  0.1850412885693800  0.2909411640711989  0.7440748161402698
  0.9412777924661474  0.4520863620753243  0.3448989587456041
  0.9336094179889388  0.2874997474570425  0.3890666896373450
  0.8138381007408613  0.0422052001827241  0.8756209969156965
  0.1881512039902039  0.7914143746971894  0.6107592988199142
  0.5585329359684701  0.0374792927218814  0.3890639673613180
  0.9335153715158137  0.9626541503331393  0.8331581257817828
  0.3137588699892139  0.5421354160654061  0.8756135162087648
  0.6852686157563199  0.2912960039951997  0.7441330714049944
  0.1930052506931770  0.6128207343410770  0.1667058052553860
  0.8128094543348506  0.2058738201921954  0.4786216838643700
  0.8126308335139875  0.5417140327130013  0.6109371558932587
  0.3130390600199267  0.8707099214965265  0.4343511756983831
  0.8154047833911874  0.0355509863593901  0.2560320576218400
  0.6914060574031021  0.9519494502266928  0.3449818970081499
  0.9419094800776785  0.1120281270394864  0.1669717402827616
  0.9385395908548525  0.1219804265653968  0.5212561011210060
  0.5658932183680786  0.5365006538634737  0.2560964013593099
  0.6890718019283800  0.7939647813722263  0.8756313738674012
  0.5681457026412817  0.3634883260470495  0.1668751684820045
  0.4351889077820900  0.7909702402176459  0.7440553697428588
  0.8133748957977390  0.7079392336465336  0.5653366702587405
  0.5691406212988026  0.8735153645158439  0.7884163535254783
  0.6885617847553122  0.1219675681760521  0.5213251792528661
  0.1910151506569037  0.2870007728233468  0.2560322567905708
  0.9334308641044295  0.4626069574756180  0.8331573969690306
  0.0646553645440436  0.2079608602094227  0.6996498635033479
  0.4398953511638525  0.9579639500892739  0.6996848100934175
  0.3085027372047959  0.2126934411801291  0.8331728804650357
  0.4338586230073724  0.6256898882470645  0.6549053445260941
  0.3132981370612835  0.5411186202047278  0.6106896066519644
  0.9387521047030690  0.4574632766631056  0.5654199019318690
  0.6851889955457761  0.7910806403115791  0.7441041791574246
  0.3086159583712028  0.8753087576495552  0.6549300340421561
  0.6836054018058199  0.7874253673587195  0.3890405453202650
  0.9352979646852877  0.7911179115844769  0.7441229428109064
  0.0662007737845884  0.2017404147196291  0.3449141053005665
  0.8088350693380260  0.0374141267619293  0.3890385776418022
  0.4443201314501888  0.1233514923401788  0.7884595647643440
  0.0580469520712234  0.2053152183981569  0.2119199524418147
  0.0678788370711333  0.3640181058483468  0.1669826724958252
  0.9410860777634650  0.7866307927686168  0.2559506591955479
  0.5647448390161669  0.2079558502815868  0.6996288692573222
  0.6897597081993216  0.9580407896609372  0.6996564721178877
  0.6836249394658730  0.2876170226841574  0.3890839483704165
  0.4386036086550697  0.9574620596929369  0.5654837901641850
  0.8191143946053699  0.3735800493780432  0.7884091286877648
  0.6908826401744033  0.2866649937282912  0.2560120752045875
  0.1889282626042030  0.4576854167726545  0.5654305352976550
  0.0670195676902242  0.8637460621909484  0.1669197757666341
  0.1886577735072096  0.2908404209085008  0.6107399017184122
  0.5663451032035334  0.7024565651818621  0.3449615939232697
  0.3147753129644675  0.2081007108383920  0.6996632539134283
  0.5637523415030294  0.5421768031402758  0.8756080404043678
  0.0635931895345968  0.7069452222973819  0.5655368334465818
  0.6945745917645409  0.6234716206732220  0.7884602414717738
  0.3087695559150556  0.5374915419998970  0.3890294720733510
  0.1882006616468032  0.6219051080746512  0.5213673074313053
  0.5625119044455784  0.8711230752749984  0.4343868427587858
  0.4381486912163551  0.4578936544929595  0.5653332640048131
  0.4352868789493400  0.2909278986698675  0.7441077655793111
  0.8044516317034182  0.8730429210313807  0.3003372686661059
  0.8165001664731493  0.7021315643233138  0.3450321895527613
  0.4334090820747517  0.4627046178093162  0.8331491421875459
  0.6878185629569959  0.9558413738868062  0.4786170659563606
  0.6899493709466533  0.4579549158236276  0.6996394366162398
  0.5630461575449909  0.8724137071167390  0.5213768711614929
  0.5588242340876226  0.3753530470761715  0.6549183781236595
  0.8085519224891567  0.8750549753449676  0.6548406866334731
  0.8125458309501847  0.3704511294837287  0.4344604681769027
  0.8154191942804023  0.5362640458480011  0.2560887691992046
  0.6834893615430369  0.4627475170360135  0.8331498101655455
  0.1888728058775476  0.7859533491739698  0.1246560072305639
  0.0637949934819320  0.0420403574298261  0.8756222942701877
  0.3085912960095218  0.3751247297305353  0.6549290711720883
  0.3161988390850518  0.2016346833461050  0.3448759646883413
  0.8102108416285831  0.5412001621060143  0.7440742301194953
  0.6834290235011002  0.9627153453575074  0.8331475798237675
  0.5585600593884097  0.8751822874554842  0.6548964543382543
  0.3131661253598030  0.7073475145097807  0.5655123024572657
  0.3114916445432901  0.5311116389818287  0.1244114172007720
  0.6838457795930668  0.9543952547529535  0.2119575316145417
  0.3139480247129987  0.2071146958814985  0.5654584890222082
  0.3101475392099041  0.5411887637373592  0.7440824062061689
  0.6887053715986985  0.9576698981519265  0.5653868467664572
  0.4382164649685390  0.7909206734511001  0.6106725026986541
  0.6921312258522483  0.6138487600080683  0.1669208969101122
  0.3043879710701112  0.8725666628405112  0.3003476104855086
  0.3123057854868379  0.7055641070359954  0.4786638809645563
  0.9382915264281777  0.2912802553846545  0.6106765361043712
  0.4294008010087739  0.6231524110607108  0.3003024535173523
  0.8189627637482115  0.8643887358377198  0.1668724672547288
  0.5585415163805488  0.2046273610108327  0.2118693545562500
  0.9426466264130904  0.6133381960835206  0.1672409638494209
  0.9391766406707444  0.7939432230538838  0.8756342092056243
  0.5692009726072573  0.3732411183771930  0.7884199258636055
  0.0634653075341126  0.3722635973018393  0.5213434621270642
  0.5635376136947999  0.3719782288289204  0.5212553393028354
  0.6792113810373762  0.1229170670683684  0.3003753085310216
  0.4334357715900318  0.9626814905919306  0.8331497116811231
  0.1897890843724288  0.2873869401952667  0.1245724812634970
  0.8192245705115856  0.8735236762577279  0.7883913699236373
  0.3120415638835576  0.3709040852471324  0.4342950290801779
  0.9377162854789876  0.7917901914284380  0.6108501452536832
  0.4381242512080387  0.2905270801455675  0.6107459007881408
  0.1914319273861063  0.4518965351156453  0.3449712063493283
  0.4391991844034348  0.2864333848928567  0.1245501371444017
  0.6906821706609856  0.7862987825274296  0.2560704270044475
  0.1897342618183746  0.9579528381027251  0.6996365326219404
  0.1890681621247738  0.2939884589613032  0.8756403534625337
  0.1836157795338581  0.1250765590454239  0.6548496976231188
  0.9333940756486750  0.1253042251498453  0.6548667905744557
  0.3071979383681502  0.2046268016663346  0.2119782931706122
  0.0586075503527035  0.0374422070121030  0.3890865748298499
  0.1929337339628688  0.1136795995306986  0.1670292435596767
  0.0626085134783751  0.5417274707044871  0.6108878976722805
  0.9407056718557421  0.2857732749677953  0.2559827075223729
  0.5631307838759728  0.5412415072604173  0.6107687162275691
  0.9382583734961645  0.9578682991008938  0.5653861231241620
  0.6795825638024882  0.6226803108276892  0.3001444670968347
  0.9377152235219103  0.6203371551751206  0.4344266446067168
  0.9443588256410228  0.6236885175737492  0.7884207514646335
  0.5646180893870226  0.7081396973908979  0.6996838759026925
  0.0584637368707487  0.7127515462649827  0.8331567681021413
  0.9292843633305152  0.1230769195832564  0.3003772323807005
  0.9397974834088971  0.4579813769060044  0.6996357907467577
  0.4409660278095363  0.7868495201462133  0.2561641570956968
  0.3191527902535840  0.3733983974763269  0.7883885780641584
  0.4330035206837874  0.4535554956688684  0.2120667372555171
  0.1883825708175080  0.1219830479070949  0.5212523401945990
  0.8145543138286601  0.7075783356151839  0.6996533134937196
  0.0633304002953936  0.0411140849483087  0.6107296943169942
  0.5584496842439106  0.2127032795863917  0.8331624639481042
  0.3136335118134401  0.8722852721613686  0.5213145758909102
  0.6906425246598360  0.2872085909104912  0.1245981653165936
  0.1808188715311134  0.9535754445566544  0.2118760113229320
  0.6884846835143069  0.2913258902942525  0.6106712319512546
  0.3131220039221737  0.0412543263815328  0.6107893076812368
  0.9441143196119236  0.1235494992975802  0.7884282549813884
  0.4390806368578613  0.7939573611009008  0.8756352975815367
  0.8102517750713194  0.0410881189157791  0.7441154175620136
  0.4381589285449190  0.1219656544085897  0.5213788497235574
  0.1837614513363971  0.6255300213257450  0.6549564807906734
  0.3147689182305684  0.7080768123562848  0.6996515104943657
  0.9393727447528019  0.2869484672035876  0.1245921369523467
  0.4377752787089261  0.4556376478860439  0.4786689947040113
  0.0634227231819888  0.7052253172766531  0.4785721679392663
  0.9380345066791705  0.1203636278375613  0.4344299283900000
  0.4292303985263655  0.1228562483562723  0.3003499953587049
  0.1880489044154437  0.1201840214941930  0.4344959142541692
  0.5638626015299990  0.0422009851696461  0.8756248522347752
  0.1885174445325276  0.9570726960276040  0.5652416654599040
  0.6906548867084178  0.7858362937265990  0.1246255303493070
  0.5637761112912676  0.5318498240036323  0.1244105725919949
  0.3086043924220312  0.0375665571546420  0.3890501339328334
  0.6930696249575865  0.1133149476333731  0.1672042754157905
  0.8074473520696406  0.2053466075187941  0.2117760672599779
  0.0658746078707491  0.5361205664606115  0.2561418426024993
  0.5628958738929513  0.7058087455424792  0.4786349431599266
  0.0636096133302869  0.2075855749515947  0.5654629727211939
  0.5544089012671507  0.3726829162682103  0.3003611069187757
  0.4413299370425284  0.9521142859585792  0.3449197789213112
  0.1835112978185885  0.9626711486250926  0.8331491904995443
  0.4425452573373249  0.6125828103718679  0.1666716889111206
  0.9331730358320883  0.4553053976833471  0.2117327912583208
  0.0619757159308942  0.5296797431953020  0.1243527670317536
  0.8132976825270720  0.3718833991361095  0.5213060199343950
  0.9293157897255624  0.6225325604687977  0.3003815209344695
  0.3159549121385833  0.0363584392371551  0.2558948827421457
  0.6882602120440463  0.7913649810670270  0.6108139211508524
  0.1834607631190926  0.4627488782724854  0.8331483935320522
  0.4418084690326181  0.1123963310102452  0.1668101883694015
  0.3132315050870387  0.3719594104423566  0.5213728849460136
  0.4443229545057344  0.6235677555462472  0.7884072763477199
  0.0660779483987075  0.0361646022518729  0.2558697687311725
  0.5635227597388772  0.7077136359362910  0.5653170242192591
  0.9352766183598255  0.2913337791358200  0.7441248123722058
  0.6940120978682772  0.1235867387859764  0.7884487622197022
  0.1823685888772854  0.4541915622798594  0.2120129033225511
  0.9336705637927777  0.7874606782409587  0.3890462949145992
  0.6890569743610111  0.2939640508662246  0.8756440059276771
  0.3180647876666615  0.8621157279868074  0.1668733743968122
  0.4397136960602362  0.4577243375476439  0.6996035639681899
  0.9414505842510436  0.9524082539941594  0.3450447476950694
  0.6885630593365982  0.6220945917250800  0.5213518861081901
  0.0588946721879493  0.8753238912524444  0.6549164177522013
  0.0691781861914379  0.8735244788672580  0.7884052350890707
  0.0586897940670641  0.3752811947938193  0.6548795749731475
  0.6877307676456694  0.4557243745314219  0.4786503288574019
  0.1908918569721672  0.7865709799506719  0.2561515055969451
  0.4378814660137798  0.1204078804923144  0.4344362106159179
  0.8122983723883725  0.0304537187135401  0.1244303653454357
  0.9383237007736038  0.6217929432108968  0.5212963385625599
  0.0625661394947029  0.8703789174310324  0.4344695203367205
  0.8127489293194372  0.5303794343372298  0.1242084451939117
  0.4413783531252625  0.4518732895683099  0.3449636636756064
  0.8166697310477253  0.2018841424853341  0.3449128947090737
  0.3163125457774409  0.7016527308766803  0.3449520002732333
  0.6838776306481275  0.1255368485361108  0.6549707648466983
  0.5543145406071283  0.8720746583588470  0.3004270368007144
  0.0602512202397223  0.5412672061419551  0.7441100477240867
  0.9380553681320167  0.7862480348734305  0.1243265582259754
  0.8086236969315432  0.7044288093579947  0.2117932814478229
  0.0543611394113652  0.8729063638678375  0.3003349777373492
  0.1799835744945530  0.1231569456868333  0.3004699250180929
  0.0664167552299254  0.7019810874761605  0.3449868413352150
  0.8132008819097486  0.0414785846424932  0.6107608771574712
  0.0630785407216825  0.3704234817174754  0.4344426484647683
  0.5663664811854364  0.2017024715109626  0.3449402685303471
  0.8042663475677815  0.3728174805390286  0.3003856999061040
  0.4379067502929946  0.9558360127916746  0.4786191243213961
  0.5586213052640144  0.5374285982758358  0.3890750887326726
  0.0627497587627810  0.2057293182128558  0.4786164218935937
  0.3191009107981235  0.8734438816239597  0.7884133746496552
  0.9398356175072834  0.9581557726709786  0.6996648395459737
  0.0542751476554504  0.3724699791025308  0.3004424030465258
  0.6836299480201339  0.6249840673053841  0.6549381355572188
  0.6882921538335942  0.4578984127629440  0.5654207311406653
  0.4328610790606736  0.9532791630785390  0.2118159557942860
  0.3128938263139088  0.2059308896580168  0.4786206165751362
  0.4336759636182942  0.1252457338730750  0.6548651623622926
  0.6880991414331940  0.6203574930891245  0.4343860158114014
  0.8145924047930995  0.2080262145125721  0.6995876297490325
  0.8128036765067497  0.7057107061958661  0.4786358850122235
  0.8129923373051510  0.8706556853763995  0.4344926550117804
  0.9377664167972936  0.9557990891193240  0.4785850182634743
  0.5627164775744137  0.2056468284284738  0.4784641589590998
  0.1880770524626482  0.6206862421114059  0.4343515442993374
  0.3102231590365971  0.0411804726521194  0.7440712721772003
  0.9335469292184420  0.6249006873486371  0.6549095218709092
  0.5585204987909299  0.7126914277665634  0.8331616738402752
  0.3041341380319796  0.3727530122632756  0.3003683489880655
  0.5572747684625935  0.7039224694871805  0.2116803708168503
  0.1878954651698724  0.4558795197393559  0.4786241491994718
  0.3138262202144306  0.0422164615607487  0.8756179981675852
  0.1901686701104988  0.4578793560275395  0.6995698439374299
  0.8136784871328925  0.5420606565938761  0.8755906883915305
  0.1836174701557290  0.2879641702940871  0.3890695112275134
  0.4378032907561173  0.6206569238558739  0.4345422260067648
  0.0568342325228458  0.7042326767408056  0.2116629877873869
  0.5611770158437286  0.0312512662553077  0.1244979029071798
  0.8184281947328186  0.3632921833983237  0.1671600667563774
  0.8084216922750065  0.7127231607011217  0.8331660826193200
  0.0691407527877690  0.3734416494068845  0.7884059187419974
  0.4390783291987131  0.2940158624229234  0.8756379470644211
  0.3130200469916665  0.0322980198435237  0.1246220048321766
  0.6874930710382697  0.1203139963208770  0.4344557748496704
  0.1913533331900542  0.9518105989383101  0.3449993102654183
  0.0585483847197481  0.2126851322887221  0.8331590684286301
  0.5630837853366479  0.0410641216805621  0.6107070806428995
  0.6820678956380037  0.4536809645681041  0.2116900097057166
  0.1851203340386110  0.7909506154522438  0.7440728891366792
  0.1794228606762054  0.6233315093238748  0.3002707410091239
  0.4337496457587121  0.7874379552498555  0.3890373474193168
  0.4410191144525625  0.2871462401170065  0.2558607368238445
  0.0636579554234696  0.5419035256820879  0.8755790215519627
  0.5601914734696460  0.0411872235112154  0.7440708345428539
  0.1891086109475651  0.7940062768026215  0.8756417202035999
  0.9377451504615701  0.4558060630775602  0.4786339614618655
  0.8084791346739740  0.5375938360992105  0.3890804909081181
  0.8136690221404298  0.2075570542295954  0.5653970395645388
  0.1942884605353961  0.6236267650569961  0.7884013745733672
  0.0585360683045970  0.5375348304467201  0.3890695085103621
  0.0647370837568761  0.7081545527069181  0.6996579158379965
  0.3153343868733577  0.5365022766939074  0.2560087538853781
  0.3080845616258358  0.7036350034982466  0.2115410208384808
  0.5676511292056504  0.8620368407501394  0.1668293138527405
  0.5600076936020750  0.5411039880237357  0.7440964360571477
  0.6913307088772884  0.4519278291401447  0.3449681824509407
  0.9390943192177889  0.2939876716987404  0.8756413812840946
  0.5656109074096963  0.0367728788720535  0.2558714938755804
  0.4399956022068987  0.7886210294593542  0.1248243366005839
  0.3192979195948314  0.3624483879599970  0.1663212450094327
  0.4382807395933076  0.6219490483911129  0.5213752865308839
  0.5634571177255029  0.3704951572738541  0.4341876943476388
  0.9329253523725042  0.9537860871955142  0.2122993500217940
  0.8082525929367327  0.3753983541924291  0.6546637734855992
  0.1878407555168511  0.9558658724156561  0.4785840285686233
 
  0.00000000E+00  0.00000000E+00  0.00000000E+00
  0.00000000E+00  0.00000000E+00  0.00000000E+00
  0.00000000E+00  0.00000000E+00  0.00000000E+00
  0.00000000E+00  0.00000000E+00  0.00000000E+00
  0.00000000E+00  0.00000000E+00  0.00000000E+00
  0.00000000E+00  0.00000000E+00  0.00000000E+00
  0.00000000E+00  0.00000000E+00  0.00000000E+00
  0.00000000E+00  0.00000000E+00  0.00000000E+00
  0.00000000E+00  0.00000000E+00  0.00000000E+00
  0.00000000E+00  0.00000000E+00  0.00000000E+00
  0.00000000E+00  0.00000000E+00  0.00000000E+00
  0.00000000E+00  0.00000000E+00  0.00000000E+00
  0.00000000E+00  0.00000000E+00  0.00000000E+00
  0.00000000E+00  0.00000000E+00  0.00000000E+00
  0.00000000E+00  0.00000000E+00  0.00000000E+00
  0.00000000E+00  0.00000000E+00  0.00000000E+00
  0.00000000E+00  0.00000000E+00  0.00000000E+00
  0.00000000E+00  0.00000000E+00  0.00000000E+00
  0.00000000E+00  0.00000000E+00  0.00000000E+00
  0.00000000E+00  0.00000000E+00  0.00000000E+00
  0.00000000E+00  0.00000000E+00  0.00000000E+00
  0.00000000E+00  0.00000000E+00  0.00000000E+00
  0.00000000E+00  0.00000000E+00  0.00000000E+00
  0.00000000E+00  0.00000000E+00  0.00000000E+00
  0.00000000E+00  0.00000000E+00  0.00000000E+00
  0.00000000E+00  0.00000000E+00  0.00000000E+00
  0.00000000E+00  0.00000000E+00  0.00000000E+00
  0.00000000E+00  0.00000000E+00  0.00000000E+00
  0.00000000E+00  0.00000000E+00  0.00000000E+00
  0.00000000E+00  0.00000000E+00  0.00000000E+00
  0.00000000E+00  0.00000000E+00  0.00000000E+00
  0.00000000E+00  0.00000000E+00  0.00000000E+00
  0.00000000E+00  0.00000000E+00  0.00000000E+00
  0.00000000E+00  0.00000000E+00  0.00000000E+00
  0.00000000E+00  0.00000000E+00  0.00000000E+00
  0.00000000E+00  0.00000000E+00  0.00000000E+00
  0.00000000E+00  0.00000000E+00  0.00000000E+00
  0.00000000E+00  0.00000000E+00  0.00000000E+00
  0.00000000E+00  0.00000000E+00  0.00000000E+00
  0.00000000E+00  0.00000000E+00  0.00000000E+00
  0.00000000E+00  0.00000000E+00  0.00000000E+00
  0.00000000E+00  0.00000000E+00  0.00000000E+00
  0.00000000E+00  0.00000000E+00  0.00000000E+00
  0.00000000E+00  0.00000000E+00  0.00000000E+00
  0.00000000E+00  0.00000000E+00  0.00000000E+00
  0.00000000E+00  0.00000000E+00  0.00000000E+00
  0.00000000E+00  0.00000000E+00  0.00000000E+00
  0.00000000E+00  0.00000000E+00  0.00000000E+00
  0.00000000E+00  0.00000000E+00  0.00000000E+00
  0.00000000E+00  0.00000000E+00  0.00000000E+00
  0.00000000E+00  0.00000000E+00  0.00000000E+00
  0.00000000E+00  0.00000000E+00  0.00000000E+00
  0.00000000E+00  0.00000000E+00  0.00000000E+00
  0.00000000E+00  0.00000000E+00  0.00000000E+00
  0.00000000E+00  0.00000000E+00  0.00000000E+00
  0.00000000E+00  0.00000000E+00  0.00000000E+00
  0.00000000E+00  0.00000000E+00  0.00000000E+00
  0.00000000E+00  0.00000000E+00  0.00000000E+00
  0.00000000E+00  0.00000000E+00  0.00000000E+00
  0.00000000E+00  0.00000000E+00  0.00000000E+00
  0.00000000E+00  0.00000000E+00  0.00000000E+00
  0.00000000E+00  0.00000000E+00  0.00000000E+00
  0.00000000E+00  0.00000000E+00  0.00000000E+00
  0.00000000E+00  0.00000000E+00  0.00000000E+00
  0.00000000E+00  0.00000000E+00  0.00000000E+00
  0.00000000E+00  0.00000000E+00  0.00000000E+00
  0.00000000E+00  0.00000000E+00  0.00000000E+00
  0.00000000E+00  0.00000000E+00  0.00000000E+00
  0.00000000E+00  0.00000000E+00  0.00000000E+00
  0.00000000E+00  0.00000000E+00  0.00000000E+00
  0.00000000E+00  0.00000000E+00  0.00000000E+00
  0.00000000E+00  0.00000000E+00  0.00000000E+00
  0.00000000E+00  0.00000000E+00  0.00000000E+00
  0.00000000E+00  0.00000000E+00  0.00000000E+00
  0.00000000E+00  0.00000000E+00  0.00000000E+00
  0.00000000E+00  0.00000000E+00  0.00000000E+00
  0.00000000E+00  0.00000000E+00  0.00000000E+00
  0.00000000E+00  0.00000000E+00  0.00000000E+00
  0.00000000E+00  0.00000000E+00  0.00000000E+00
  0.00000000E+00  0.00000000E+00  0.00000000E+00
  0.00000000E+00  0.00000000E+00  0.00000000E+00
  0.00000000E+00  0.00000000E+00  0.00000000E+00
  0.00000000E+00  0.00000000E+00  0.00000000E+00
  0.00000000E+00  0.00000000E+00  0.00000000E+00
  0.00000000E+00  0.00000000E+00  0.00000000E+00
  0.00000000E+00  0.00000000E+00  0.00000000E+00
  0.00000000E+00  0.00000000E+00  0.00000000E+00
  0.00000000E+00  0.00000000E+00  0.00000000E+00
  0.00000000E+00  0.00000000E+00  0.00000000E+00
  0.00000000E+00  0.00000000E+00  0.00000000E+00
  0.00000000E+00  0.00000000E+00  0.00000000E+00
  0.00000000E+00  0.00000000E+00  0.00000000E+00
  0.00000000E+00  0.00000000E+00  0.00000000E+00
  0.00000000E+00  0.00000000E+00  0.00000000E+00
  0.00000000E+00  0.00000000E+00  0.00000000E+00
  0.00000000E+00  0.00000000E+00  0.00000000E+00
  0.00000000E+00  0.00000000E+00  0.00000000E+00
  0.00000000E+00  0.00000000E+00  0.00000000E+00
  0.00000000E+00  0.00000000E+00  0.00000000E+00
  0.00000000E+00  0.00000000E+00  0.00000000E+00
  0.00000000E+00  0.00000000E+00  0.00000000E+00
  0.00000000E+00  0.00000000E+00  0.00000000E+00
  0.00000000E+00  0.00000000E+00  0.00000000E+00
  0.00000000E+00  0.00000000E+00  0.00000000E+00
  0.00000000E+00  0.00000000E+00  0.00000000E+00
  0.00000000E+00  0.00000000E+00  0.00000000E+00
  0.00000000E+00  0.00000000E+00  0.00000000E+00
  0.00000000E+00  0.00000000E+00  0.00000000E+00
  0.00000000E+00  0.00000000E+00  0.00000000E+00
  0.00000000E+00  0.00000000E+00  0.00000000E+00
  0.00000000E+00  0.00000000E+00  0.00000000E+00
  0.00000000E+00  0.00000000E+00  0.00000000E+00
  0.00000000E+00  0.00000000E+00  0.00000000E+00
  0.00000000E+00  0.00000000E+00  0.00000000E+00
  0.00000000E+00  0.00000000E+00  0.00000000E+00
  0.00000000E+00  0.00000000E+00  0.00000000E+00
  0.00000000E+00  0.00000000E+00  0.00000000E+00
  0.00000000E+00  0.00000000E+00  0.00000000E+00
  0.00000000E+00  0.00000000E+00  0.00000000E+00
  0.00000000E+00  0.00000000E+00  0.00000000E+00
  0.00000000E+00  0.00000000E+00  0.00000000E+00
  0.00000000E+00  0.00000000E+00  0.00000000E+00
  0.00000000E+00  0.00000000E+00  0.00000000E+00
  0.00000000E+00  0.00000000E+00  0.00000000E+00
  0.00000000E+00  0.00000000E+00  0.00000000E+00
  0.00000000E+00  0.00000000E+00  0.00000000E+00
  0.00000000E+00  0.00000000E+00  0.00000000E+00
  0.00000000E+00  0.00000000E+00  0.00000000E+00
  0.00000000E+00  0.00000000E+00  0.00000000E+00
  0.00000000E+00  0.00000000E+00  0.00000000E+00
  0.00000000E+00  0.00000000E+00  0.00000000E+00
  0.00000000E+00  0.00000000E+00  0.00000000E+00
  0.00000000E+00  0.00000000E+00  0.00000000E+00
  0.00000000E+00  0.00000000E+00  0.00000000E+00
  0.00000000E+00  0.00000000E+00  0.00000000E+00
  0.00000000E+00  0.00000000E+00  0.00000000E+00
  0.00000000E+00  0.00000000E+00  0.00000000E+00
  0.00000000E+00  0.00000000E+00  0.00000000E+00
  0.00000000E+00  0.00000000E+00  0.00000000E+00
  0.00000000E+00  0.00000000E+00  0.00000000E+00
  0.00000000E+00  0.00000000E+00  0.00000000E+00
  0.00000000E+00  0.00000000E+00  0.00000000E+00
  0.00000000E+00  0.00000000E+00  0.00000000E+00
  0.00000000E+00  0.00000000E+00  0.00000000E+00
  0.00000000E+00  0.00000000E+00  0.00000000E+00
  0.00000000E+00  0.00000000E+00  0.00000000E+00
  0.00000000E+00  0.00000000E+00  0.00000000E+00
  0.00000000E+00  0.00000000E+00  0.00000000E+00
  0.00000000E+00  0.00000000E+00  0.00000000E+00
  0.00000000E+00  0.00000000E+00  0.00000000E+00
  0.00000000E+00  0.00000000E+00  0.00000000E+00
  0.00000000E+00  0.00000000E+00  0.00000000E+00
  0.00000000E+00  0.00000000E+00  0.00000000E+00
  0.00000000E+00  0.00000000E+00  0.00000000E+00
  0.00000000E+00  0.00000000E+00  0.00000000E+00
  0.00000000E+00  0.00000000E+00  0.00000000E+00
  0.00000000E+00  0.00000000E+00  0.00000000E+00
  0.00000000E+00  0.00000000E+00  0.00000000E+00
  0.00000000E+00  0.00000000E+00  0.00000000E+00
  0.00000000E+00  0.00000000E+00  0.00000000E+00
  0.00000000E+00  0.00000000E+00  0.00000000E+00
  0.00000000E+00  0.00000000E+00  0.00000000E+00
  0.00000000E+00  0.00000000E+00  0.00000000E+00
  0.00000000E+00  0.00000000E+00  0.00000000E+00
  0.00000000E+00  0.00000000E+00  0.00000000E+00
  0.00000000E+00  0.00000000E+00  0.00000000E+00
  0.00000000E+00  0.00000000E+00  0.00000000E+00
  0.00000000E+00  0.00000000E+00  0.00000000E+00
  0.00000000E+00  0.00000000E+00  0.00000000E+00
  0.00000000E+00  0.00000000E+00  0.00000000E+00
  0.00000000E+00  0.00000000E+00  0.00000000E+00
  0.00000000E+00  0.00000000E+00  0.00000000E+00
  0.00000000E+00  0.00000000E+00  0.00000000E+00
  0.00000000E+00  0.00000000E+00  0.00000000E+00
  0.00000000E+00  0.00000000E+00  0.00000000E+00
  0.00000000E+00  0.00000000E+00  0.00000000E+00
  0.00000000E+00  0.00000000E+00  0.00000000E+00
  0.00000000E+00  0.00000000E+00  0.00000000E+00
  0.00000000E+00  0.00000000E+00  0.00000000E+00
  0.00000000E+00  0.00000000E+00  0.00000000E+00
  0.00000000E+00  0.00000000E+00  0.00000000E+00
  0.00000000E+00  0.00000000E+00  0.00000000E+00
  0.00000000E+00  0.00000000E+00  0.00000000E+00
  0.00000000E+00  0.00000000E+00  0.00000000E+00
  0.00000000E+00  0.00000000E+00  0.00000000E+00
  0.00000000E+00  0.00000000E+00  0.00000000E+00
  0.00000000E+00  0.00000000E+00  0.00000000E+00
  0.00000000E+00  0.00000000E+00  0.00000000E+00
  0.00000000E+00  0.00000000E+00  0.00000000E+00
  0.00000000E+00  0.00000000E+00  0.00000000E+00
  0.00000000E+00  0.00000000E+00  0.00000000E+00
  0.00000000E+00  0.00000000E+00  0.00000000E+00
  0.00000000E+00  0.00000000E+00  0.00000000E+00
  0.00000000E+00  0.00000000E+00  0.00000000E+00
  0.00000000E+00  0.00000000E+00  0.00000000E+00
  0.00000000E+00  0.00000000E+00  0.00000000E+00
  0.00000000E+00  0.00000000E+00  0.00000000E+00
  0.00000000E+00  0.00000000E+00  0.00000000E+00
  0.00000000E+00  0.00000000E+00  0.00000000E+00
  0.00000000E+00  0.00000000E+00  0.00000000E+00
  0.00000000E+00  0.00000000E+00  0.00000000E+00
  0.00000000E+00  0.00000000E+00  0.00000000E+00
  0.00000000E+00  0.00000000E+00  0.00000000E+00
  0.00000000E+00  0.00000000E+00  0.00000000E+00
  0.00000000E+00  0.00000000E+00  0.00000000E+00
  0.00000000E+00  0.00000000E+00  0.00000000E+00
  0.00000000E+00  0.00000000E+00  0.00000000E+00
  0.00000000E+00  0.00000000E+00  0.00000000E+00
  0.00000000E+00  0.00000000E+00  0.00000000E+00
  0.00000000E+00  0.00000000E+00  0.00000000E+00
  0.00000000E+00  0.00000000E+00  0.00000000E+00
  0.00000000E+00  0.00000000E+00  0.00000000E+00
  0.00000000E+00  0.00000000E+00  0.00000000E+00
  0.00000000E+00  0.00000000E+00  0.00000000E+00
  0.00000000E+00  0.00000000E+00  0.00000000E+00
  0.00000000E+00  0.00000000E+00  0.00000000E+00
  0.00000000E+00  0.00000000E+00  0.00000000E+00
  0.00000000E+00  0.00000000E+00  0.00000000E+00
  0.00000000E+00  0.00000000E+00  0.00000000E+00
  0.00000000E+00  0.00000000E+00  0.00000000E+00
  0.00000000E+00  0.00000000E+00  0.00000000E+00
  0.00000000E+00  0.00000000E+00  0.00000000E+00
  0.00000000E+00  0.00000000E+00  0.00000000E+00
  0.00000000E+00  0.00000000E+00  0.00000000E+00
  0.00000000E+00  0.00000000E+00  0.00000000E+00
  0.00000000E+00  0.00000000E+00  0.00000000E+00
  0.00000000E+00  0.00000000E+00  0.00000000E+00
  0.00000000E+00  0.00000000E+00  0.00000000E+00
  0.00000000E+00  0.00000000E+00  0.00000000E+00
  0.00000000E+00  0.00000000E+00  0.00000000E+00
  0.00000000E+00  0.00000000E+00  0.00000000E+00
  0.00000000E+00  0.00000000E+00  0.00000000E+00
  0.00000000E+00  0.00000000E+00  0.00000000E+00
  0.00000000E+00  0.00000000E+00  0.00000000E+00
  0.00000000E+00  0.00000000E+00  0.00000000E+00
  0.00000000E+00  0.00000000E+00  0.00000000E+00
  0.00000000E+00  0.00000000E+00  0.00000000E+00
  0.00000000E+00  0.00000000E+00  0.00000000E+00
  0.00000000E+00  0.00000000E+00  0.00000000E+00
  0.00000000E+00  0.00000000E+00  0.00000000E+00
  0.00000000E+00  0.00000000E+00  0.00000000E+00
  0.00000000E+00  0.00000000E+00  0.00000000E+00
  0.00000000E+00  0.00000000E+00  0.00000000E+00
  0.00000000E+00  0.00000000E+00  0.00000000E+00
  0.00000000E+00  0.00000000E+00  0.00000000E+00
  0.00000000E+00  0.00000000E+00  0.00000000E+00
  0.00000000E+00  0.00000000E+00  0.00000000E+00