FeMn_288_15                             
    1.000000000000000     
     9.7266779999999997    0.0000000000000000    0.0000000000000000
     0.0000000000000000    8.4235500000000005    0.0000000000000000
     0.0000000000000000    0.0000000000000000   45.0000000000000000
   Fe   Mn
   273    15
Direct
  0.8123775424121950  0.2051751592496958  0.4784878969617209
  0.6876118545726614  0.1269331990908839  0.7878316469009290
  0.3130593091417462  0.2049029229645271  0.3452841493344552
  0.4374835159695027  0.2943436402662692  0.8747987583930165
  0.8123899576213697  0.8698359238570381  0.3007007630551564
  0.8127929459706370  0.0426068525022612  0.7435827961644347
  0.1875345478651673  0.7855627342019170  0.2562996965877594
  0.3120345221216582  0.5333775560535242  0.1251462313882991
  0.5628452944064847  0.0352605186846788  0.2563765409213335
  0.1875704510772872  0.2850769329453830  0.2563810000875016
  0.5623225426118744  0.0333603279135296  0.1249305530785700
  0.6874407343370353  0.4507379836057194  0.2120765186259692
  0.5625016928946588  0.2059263350671371  0.5657570020427197
  0.5617762298684300  0.7004938759025019  0.2123154476860740
  0.1875142304190537  0.7901313930708075  0.6105910518614894
  0.0624799591379036  0.8712920054734014  0.4346061964376380
  0.9375327145531606  0.9593796266938325  0.8326372547662995
  0.4375713781109953  0.2925118921029831  0.7435649327922372
  0.9377056560463700  0.1269442442237925  0.7877955614968383
  0.3130163421531367  0.7065576051118178  0.5657372307666046
  0.6881702200324414  0.4558042815094605  0.4785131291817762
  0.3123154586556948  0.3693151422467136  0.3007111871048216
  0.9374165686834007  0.6224074485529540  0.5214926734946512
  0.0628487935995242  0.0434351139493664  0.8750176057964788
  0.0624433467002684  0.8731127444836410  0.6548079104870453
  0.4377708588030259  0.4546414465621311  0.3452587402607199
  0.3125887167451680  0.3735965997552845  0.6548308322399891
  0.6861131271906844  0.2842999400247603  0.1252422704925723
  0.8123570575531928  0.3699365323157885  0.3007559515148661
  0.9373023854784428  0.4564582129353112  0.5655366723132044
  0.9371531447411549  0.4597290429269470  0.8326853622926639
  0.3125519299450611  0.3717646826151965  0.4345043716560072
  0.9373193459985246  0.6234462511730435  0.6547410350663817
  0.6876006768310925  0.2876215610855343  0.3894043279360098
  0.0622142032809213  0.8765738190776724  0.7878280933655163
  0.0626337736231106  0.0423654449237084  0.7435740660897475
  0.6875847851980520  0.1219191576542413  0.4343737529635996
  0.8124646634880914  0.3712392927510181  0.4346242812597569
  0.4379571544087907  0.7843955919366258  0.1249658124797640
  0.5626323708147750  0.7063226943124765  0.5656709775838165
  0.4375550475916143  0.7885166324186401  0.3893713713861999
  0.4377777282279659  0.7851347247281663  0.2563457719427553
  0.6874972592415981  0.7935440587063619  0.8748278901062240
  0.5624736015635030  0.7085870407893623  0.6993855404029424
  0.8122509928367045  0.7092195508336401  0.8325739604202024
  0.4375344726534708  0.1198999364894755  0.3006769727377158
  0.3121389485061390  0.0423590425737766  0.7435480134896505
  0.1874216553195835  0.4513828220039878  0.2122881981610600
  0.6874639486925721  0.9598231471560253  0.8326845521583779
  0.9374875096288026  0.9564650892778518  0.5656071177429194
  0.6876149886689787  0.6235840078964873  0.6546775740022619
  0.9374454312412351  0.7921027060330826  0.7436137400436305
  0.3127713787527355  0.8768991572570654  0.7877766874882014
  0.5627180202569823  0.3722714402113177  0.5215750845067002
  0.0625524270185690  0.5422462660508817  0.7435792995781888
  0.5625479556555369  0.2045035114837216  0.4785283943489195
  0.5622155604816095  0.3698764166749578  0.3006658340027625
  0.6876573609922985  0.4592295048772057  0.8325302437335422
  0.9376099674616472  0.4580533557195565  0.6993147406376535
  0.4373066731704471  0.4509450841917869  0.2121268077246151
  0.5626354301297141  0.5381557445706860  0.3894553216642864
  0.0625315987594651  0.0342590417031827  0.1250965832727750
  0.8125333866091492  0.3733030911920815  0.6547923439143208
  0.8119738295841601  0.7056922969315137  0.4784711647268301
  0.3122711308257704  0.5425286693197248  0.7436244294474016
  0.6875833399306268  0.7925542351779244  0.7435714429696147
  0.3127214009324977  0.5382039126334627  0.3894814937120086
  0.3118497589830041  0.3687905755934519  0.1672762247237987
  0.6875612145764157  0.9579837949548423  0.6992735054128382
  0.9376614691561006  0.9554362768355094  0.4785111726648837
  0.9374587358584603  0.6197768771502125  0.3006489499398437
  0.1869747200841981  0.4558481650574155  0.4784787593695607
  0.6877605096333982  0.7852945512100181  0.2563902213304320
  0.6877742585051473  0.4546921302503125  0.3452512806502332
  0.8122612106399889  0.7083824864599988  0.6993387720566188
  0.8128607543275805  0.5424387219925225  0.7435791912821008
  0.1874340317720919  0.4568887626742396  0.5657115967427547
  0.4373906695574425  0.1234485246264634  0.5215510696458078
  0.6875329202150685  0.6211974598449564  0.4343030601385687
  0.4374385268092139  0.9579234586836937  0.6992674600932703
  0.3130371947640930  0.5351616749508271  0.2562963461457303
  0.3126980144654599  0.7080758136652715  0.6993227356028052
  0.3127348015345252  0.7100799975307968  0.8326165807716925
  0.4374262042593868  0.2883549463114415  0.3894899862411355
  0.4375402874454211  0.7898578272866198  0.6105099379068767
  0.0625305888067925  0.0401688079633884  0.6105770435233892
  0.9368376974922209  0.6174635677423899  0.1672395356789627
  0.0623961529785859  0.8724805384173018  0.5216188174398374
  0.9374082561339532  0.9580937785102766  0.6993294626040157
  0.5622344349785260  0.2010347539992724  0.2122794970544482
  0.6873132370511434  0.7898859499640027  0.6105539107622047
  0.9378676051660713  0.4543316544120491  0.3452858032783588
  0.0633691136097178  0.5330151774997366  0.1249842299018193
  0.0623727667321908  0.7079917698290903  0.6993022654150840
  0.3127710650570930  0.2079967213289603  0.6993440348634400
  0.8126279470034131  0.0376349419513692  0.3894707452471485
  0.1876969722945092  0.1232455187238937  0.6546618926057817
  0.5614984960504282  0.5333004184348358  0.1251932513801669
  0.9376250939973260  0.4554998669834482  0.4785065453585687
  0.4378109039735459  0.2853710510438419  0.2564219122868477
  0.8129659933105965  0.3692232907994694  0.1671829475246701
  0.6873086194244790  0.7878815157386763  0.3894443867012573
  0.3121264585271227  0.8697749829121313  0.3007164891275598
  0.9377646223274722  0.1215080282117868  0.4345056130956300
  0.6869158679111326  0.7848178095333507  0.1248592635560374
  0.4378204463399114  0.1222428730850049  0.4343096785993084
  0.1875169108771544  0.2923352892576073  0.7436879446867073
  0.4378544262343789  0.1233970547584912  0.6546991720811263
  0.4375030247138640  0.9510166073730292  0.2122739667677812
  0.5626110254370641  0.5394330033884750  0.6107266976397290
  0.3126451487595248  0.7010733248743621  0.2122340987607402
  0.9377263729523629  0.7856222082853084  0.2563804225074541
  0.0622903526657981  0.3713282344801805  0.4345359879184855
  0.0623536133217874  0.3691817549170139  0.3006469096404629
  0.8118175237676395  0.0435085162718279  0.8748402761484545
  0.5630816626863461  0.7055929098060841  0.4784442762702274
  0.6879063660864094  0.9562755576202482  0.5656330204254176
  0.5625211314989655  0.5425710936805137  0.7436008751340769
  0.8121370651459883  0.7007108942768022  0.2121876388060872
  0.4376547954589131  0.7926655067572450  0.7436377992654628
  0.9377643740365587  0.9544191413538469  0.3452774221558164
  0.6874666510030243  0.2938284116081747  0.8748742838190048
  0.9374816168588946  0.2875786010839007  0.3894985192185192
  0.4375137931451514  0.2900858186368122  0.6105913182872974
  0.9367328873877684  0.4512966564710192  0.2121898610676710
  0.5629506897732085  0.3678206233327062  0.1673059394013650
  0.5624508400971223  0.3769078215087804  0.7877912951044326
  0.6877749272505665  0.6222721170387336  0.5215289131696407
  0.3125828174548389  0.3771077597955647  0.7879783838877844
  0.3125478296006634  0.2046710977130836  0.4783969303827718
  0.4374833273419249  0.9592792108220299  0.8326330169059127
  0.9368295621377479  0.9507367291108759  0.2121015698286632
  0.3119180897262647  0.8721712052824061  0.5214661712111084
  0.9375266086217141  0.2925516495293005  0.7436198069791904
  0.1874608488552995  0.6270144198264944  0.7878231923429372
  0.6877272894072798  0.6178185554645615  0.1672886138869162
  0.1878171669526865  0.6213508053394254  0.4344024529449612
  0.3121943737291223  0.3726278185178656  0.5215250972047809
  0.1875845358446724  0.2903671783660809  0.6106312389202420
  0.9372904357980082  0.2941437016596877  0.8747842325636873
  0.5625830052621542  0.5350714346896963  0.2564084503357791
  0.8125374289761581  0.8769769629117323  0.7878190550453824
  0.9377386783639788  0.6211107816287779  0.4344604023966392
  0.1869360695791255  0.7849118252016725  0.1252119273688497
  0.6872305257877087  0.1199123856419965  0.3006790280193441
  0.9370379542008577  0.1196573047674927  0.3006164778550353
  0.5627166587370579  0.7043434288563528  0.3452201515052714
  0.3128995796908051  0.2063012624162548  0.5656825308338996
  0.0624838564039555  0.7062719826827479  0.5655519342408221
  0.3124461906828842  0.0331990267963400  0.1251302288694520
  0.5626414877300295  0.7088538791658074  0.8326542163814251
  0.0620929408774251  0.5434112439299107  0.8748217144091519
  0.6878606338904556  0.4565802667144855  0.5657003615141478
  0.9378066108224172  0.2857934690522482  0.2564366642394017
  0.1878465385009182  0.6223129902617019  0.5215718203034263
  0.3128476520942460  0.5432884063163664  0.8747976342497247
  0.4376968811232707  0.9542719097744904  0.3452867125375486
  0.6876020579298351  0.2859265419398824  0.2564552544908105
  0.3129816653160023  0.7046601368370385  0.3452626484392280
  0.1873927093838323  0.1274530152297470  0.7877259440648614
  0.1874269311541898  0.9577848317498153  0.6992627420759505
  0.1874688272301001  0.6192278315337433  0.3006887647452472
  0.3123887313948618  0.7054015896668462  0.4785014889379044
  0.5624940125168275  0.0396726906828540  0.6104671147655588
  0.9370699620674068  0.7847593546701755  0.1251480305373771
  0.8128717957901820  0.8712768644085228  0.4343535209439644
  0.4381292520158395  0.6190120735790229  0.1674162526758969
  0.4371474537210508  0.6194572220979593  0.3006016406224640
  0.1879124236704993  0.6176283430263138  0.1673882655533225
  0.1869243587853153  0.1188403649404756  0.1672966723432729
  0.4373277037301004  0.7935482330846970  0.8748323863129092
  0.1864478899693267  0.2849495982562413  0.1248239190786682
  0.1875118915498944  0.4580617397233424  0.6993692791945966
  0.5631992866716519  0.3716815315571235  0.4345026322522105
  0.5623272024472400  0.0380682766866751  0.3894010804360361
  0.0621491629484827  0.2005733872746631  0.2122939752001613
  0.8126372804872120  0.8735659021928479  0.6546734736554725
  0.8124008471618387  0.2044814064130269  0.3453710703934745
  0.6878397284761161  0.9555202897046730  0.4785549602582150
  0.3120797359027943  0.0434376340461768  0.8750253420288324
  0.1879494803995786  0.1225954745422258  0.5215742832520770
  0.5625221319326936  0.3736965404477844  0.6546449335231291
  0.0623594349878767  0.3769727187868194  0.7879049216846555
  0.3122742388719230  0.0403560036471032  0.6105474391586913
  0.1872608749987962  0.2879666602491034  0.3894954865161448
  0.5624221751396747  0.2043489331022501  0.3452798233533445
  0.6878432950247966  0.1168669746575044  0.1674103726592159
  0.5628066018348344  0.8719384172482850  0.4347765854332316
  0.8124286139750494  0.3771430640538010  0.7879236648776042
  0.4375727308089787  0.4563785122531254  0.5652771467614941
  0.0624761419210068  0.3729959018501107  0.5215544429596055
  0.8126438198317423  0.3724532260689866  0.5216240200479558
  0.4371782960179106  0.1268722182378598  0.7877913817896585
  0.0628513607237670  0.7039261226616230  0.3452732425111255
  0.3127018208808854  0.5399513289324993  0.6105759933368238
  0.3119529784101379  0.2010574918796000  0.2121709631999901
  0.9373266803119062  0.2900181582453644  0.6105636771490942
  0.4374752919435166  0.6268714963912880  0.7878048380995660
  0.1876146844906126  0.2932591600202457  0.8748005402171929
  0.9374876144950811  0.6269406100646255  0.7878281721794222
  0.4377440953201751  0.4593131944156037  0.8326094487241219
  0.9381586225726326  0.1185014288546046  0.1673749905233452
  0.5625515919200331  0.2096412925642616  0.8326434732565170
  0.6872289641513499  0.6196872111935531  0.3006042959277314
  0.8117906295283384  0.0334082022300178  0.1251311273460472
  0.6875147331599636  0.1234540774165796  0.6547012876308136
  0.5624896687738219  0.5439720795952373  0.8748711458069196
  0.0627249695563365  0.0377987447244422  0.3895161525778809
  0.9371333122542534  0.1224388856856461  0.5215560307402825
  0.0622458934697484  0.8699059892267403  0.3006967439317842
  0.4371868040460051  0.4585371436148471  0.6993269692028606
  0.0628286880692722  0.5351670400389200  0.2563106434746484
  0.1877904991776549  0.9546854463322679  0.3452618744006775
  0.1874930198550724  0.4599626497399000  0.8326193610154273
  0.1877359139634962  0.4543837269830669  0.3451817166325246
  0.1870739408372150  0.9557090446200444  0.4784541384871828
  0.1875257197157694  0.7879426418622112  0.3894575266110851
  0.0624458799054207  0.3732164038817963  0.6547184698796985
  0.0627201750371095  0.7055806564063506  0.4784631969236154
  0.6873335766698334  0.9508148994052441  0.2122118371121762
  0.4376376239634139  0.2842192997853294  0.1252012060643449
  0.3127667718492751  0.8688296344313956  0.1672186240868731
  0.4376383090528021  0.1172757228574609  0.1673972652542407
  0.8123668006532782  0.0359761253719954  0.2561968256317940
  0.5625620082085927  0.8738765053043782  0.6546914663159885
  0.6875400851967054  0.1230553538750162  0.5215955910497286
  0.5631096741710971  0.0436067724647467  0.8748088136314228
  0.4368952815720696  0.6225122610573013  0.5215991280567542
  0.8123682065848012  0.5377394393381494  0.3894758186311393
  0.5624182329724626  0.2081020285468214  0.6993392404442255
  0.4375619038248323  0.6218015569033590  0.4342467295525473
  0.8120672611838848  0.2080768612956320  0.6993577795793278
  0.1874172724577364  0.1216722149944126  0.4344805255124703
  0.6874814163170563  0.2898966002364546  0.6105734828825333
  0.8122311874987206  0.2061823352893646  0.5655907264706840
  0.4372276192892585  0.9563663362828060  0.5655525521462484
  0.0626932490227093  0.2051726023991880  0.4785499746847880
  0.3118589360521766  0.2094763843249696  0.8327226027107852
  0.6876321701548627  0.4585923157033560  0.6993044096830819
  0.6874664833803672  0.2926587818095603  0.7435578344314221
  0.0622579819425873  0.5378334813393556  0.3893409008935654
  0.9381771403714921  0.2841056913265639  0.1249169980539801
  0.8119802864705716  0.7063216151301756  0.5656666241110966
  0.9370740262333352  0.1233096134324182  0.6546603782559995
  0.6877831994771171  0.9540806889494701  0.3452580952436841
  0.5624121485669639  0.8697939642331163  0.3006247515816619
  0.1876274732715516  0.9568471302374327  0.5655111872255557
  0.3122321575074341  0.0382945047386707  0.3894880933153313
  0.8115855144078317  0.8675333225772868  0.1670356666830439
  0.1874917864052086  0.7921339338371566  0.7435374578170386
  0.0623826234269113  0.7101867796404109  0.8325893510941351
  0.8125371319756931  0.2003771203922622  0.2124079161898764
  0.0625099950632618  0.5401456711063359  0.6104489312395935
  0.6874721610026715  0.6267764158151516  0.7878114814014460
  0.4376480441509568  0.9557579744957559  0.4785036966838124
  0.8126490662510272  0.2099012783167999  0.8327459115003035
  0.9375729143185948  0.7900435325530257  0.6106197203358034
  0.1874471308526108  0.7941176794343725  0.8749661300392473
  0.8122596754166737  0.5397137419488973  0.6105922713247465
  0.8131049062928282  0.8721804488824163  0.5215706226234853
  0.1876637406636519  0.1194110618977840  0.3006637325967067
  0.8124070684841292  0.5436552582538100  0.8748849332511272
  0.9375855767107929  0.7936343315831474  0.8748266939217912
  0.0629647117495464  0.8681170036581203  0.1673281209983019
  0.4377649037897364  0.6236727228967766  0.6547316005890413
  0.8126883995337050  0.0399682031399646  0.6105534145362227
  0.0629728075110065  0.2093339200980560  0.8326153852303823
  0.3124639303328047  0.8732435290472403  0.6546517801786577
  0.8124161458935216  0.5356215881847353  0.2563173402842978
  0.3129640147335097  0.0349934597628323  0.2563223296793883
  0.5623504385836765  0.8769410865322733  0.7878092669188820
  0.0624604988638195  0.7013535648448710  0.2123835118396385
  0.9375198616141747  0.7874208707012418  0.3894935833062226
  0.0631595284050662  0.2045597923050545  0.3454990659527115
  0.0624117057310412  0.2082566797641173  0.6994427393115461
  0.1875405310415796  0.9595373390695656  0.8333190044548602
  0.5623897132939156  0.8684837481213672  0.1666780893618394
  0.8126675092270864  0.7046229987944699  0.3453377847398899
  0.4374375033026609  0.4554794734444964  0.4786509964716136
  0.0625464845601679  0.2065276800141322  0.5657097199928348
  0.1877190387949569  0.9509414097719391  0.2121932176654597
  0.3122926878894144  0.8716775034058223  0.4343495834020843
  0.0625117491143225  0.0357149617182591  0.2563210322854702
  0.5626211403884496  0.0426909231825660  0.7436375385609734
  0.5626925581197390  0.8723227152529053  0.5214375999166563
  0.1876104938581663  0.6231810020633650  0.6546046865107185
  0.0620413862569939  0.3687207304976999  0.1665773945389623
  0.8123196925345354  0.5333549720462870  0.1254395637341412
 
  0.00000000E+00  0.00000000E+00  0.00000000E+00
  0.00000000E+00  0.00000000E+00  0.00000000E+00
  0.00000000E+00  0.00000000E+00  0.00000000E+00
  0.00000000E+00  0.00000000E+00  0.00000000E+00
  0.00000000E+00  0.00000000E+00  0.00000000E+00
  0.00000000E+00  0.00000000E+00  0.00000000E+00
  0.00000000E+00  0.00000000E+00  0.00000000E+00
  0.00000000E+00  0.00000000E+00  0.00000000E+00
  0.00000000E+00  0.00000000E+00  0.00000000E+00
  0.00000000E+00  0.00000000E+00  0.00000000E+00
  0.00000000E+00  0.00000000E+00  0.00000000E+00
  0.00000000E+00  0.00000000E+00  0.00000000E+00
  0.00000000E+00  0.00000000E+00  0.00000000E+00
  0.00000000E+00  0.00000000E+00  0.00000000E+00
  0.00000000E+00  0.00000000E+00  0.00000000E+00
  0.00000000E+00  0.00000000E+00  0.00000000E+00
  0.00000000E+00  0.00000000E+00  0.00000000E+00
  0.00000000E+00  0.00000000E+00  0.00000000E+00
  0.00000000E+00  0.00000000E+00  0.00000000E+00
  0.00000000E+00  0.00000000E+00  0.00000000E+00
  0.00000000E+00  0.00000000E+00  0.00000000E+00
  0.00000000E+00  0.00000000E+00  0.00000000E+00
  0.00000000E+00  0.00000000E+00  0.00000000E+00
  0.00000000E+00  0.00000000E+00  0.00000000E+00
  0.00000000E+00  0.00000000E+00  0.00000000E+00
  0.00000000E+00  0.00000000E+00  0.00000000E+00
  0.00000000E+00  0.00000000E+00  0.00000000E+00
  0.00000000E+00  0.00000000E+00  0.00000000E+00
  0.00000000E+00  0.00000000E+00  0.00000000E+00
  0.00000000E+00  0.00000000E+00  0.00000000E+00
  0.00000000E+00  0.00000000E+00  0.00000000E+00
  0.00000000E+00  0.00000000E+00  0.00000000E+00
  0.00000000E+00  0.00000000E+00  0.00000000E+00
  0.00000000E+00  0.00000000E+00  0.00000000E+00
  0.00000000E+00  0.00000000E+00  0.00000000E+00
  0.00000000E+00  0.00000000E+00  0.00000000E+00
  0.00000000E+00  0.00000000E+00  0.00000000E+00
  0.00000000E+00  0.00000000E+00  0.00000000E+00
  0.00000000E+00  0.00000000E+00  0.00000000E+00
  0.00000000E+00  0.00000000E+00  0.00000000E+00
  0.00000000E+00  0.00000000E+00  0.00000000E+00
  0.00000000E+00  0.00000000E+00  0.00000000E+00
  0.00000000E+00  0.00000000E+00  0.00000000E+00
  0.00000000E+00  0.00000000E+00  0.00000000E+00
  0.00000000E+00  0.00000000E+00  0.00000000E+00
  0.00000000E+00  0.00000000E+00  0.00000000E+00
  0.00000000E+00  0.00000000E+00  0.00000000E+00
  0.00000000E+00  0.00000000E+00  0.00000000E+00
  0.00000000E+00  0.00000000E+00  0.00000000E+00
  0.00000000E+00  0.00000000E+00  0.00000000E+00
  0.00000000E+00  0.00000000E+00  0.00000000E+00
  0.00000000E+00  0.00000000E+00  0.00000000E+00
  0.00000000E+00  0.00000000E+00  0.00000000E+00
  0.00000000E+00  0.00000000E+00  0.00000000E+00
  0.00000000E+00  0.00000000E+00  0.00000000E+00
  0.00000000E+00  0.00000000E+00  0.00000000E+00
  0.00000000E+00  0.00000000E+00  0.00000000E+00
  0.00000000E+00  0.00000000E+00  0.00000000E+00
  0.00000000E+00  0.00000000E+00  0.00000000E+00
  0.00000000E+00  0.00000000E+00  0.00000000E+00
  0.00000000E+00  0.00000000E+00  0.00000000E+00
  0.00000000E+00  0.00000000E+00  0.00000000E+00
  0.00000000E+00  0.00000000E+00  0.00000000E+00
  0.00000000E+00  0.00000000E+00  0.00000000E+00
  0.00000000E+00  0.00000000E+00  0.00000000E+00
  0.00000000E+00  0.00000000E+00  0.00000000E+00
  0.00000000E+00  0.00000000E+00  0.00000000E+00
  0.00000000E+00  0.00000000E+00  0.00000000E+00
  0.00000000E+00  0.00000000E+00  0.00000000E+00
  0.00000000E+00  0.00000000E+00  0.00000000E+00
  0.00000000E+00  0.00000000E+00  0.00000000E+00
  0.00000000E+00  0.00000000E+00  0.00000000E+00
  0.00000000E+00  0.00000000E+00  0.00000000E+00
  0.00000000E+00  0.00000000E+00  0.00000000E+00
  0.00000000E+00  0.00000000E+00  0.00000000E+00
  0.00000000E+00  0.00000000E+00  0.00000000E+00
  0.00000000E+00  0.00000000E+00  0.00000000E+00
  0.00000000E+00  0.00000000E+00  0.00000000E+00
  0.00000000E+00  0.00000000E+00  0.00000000E+00
  0.00000000E+00  0.00000000E+00  0.00000000E+00
  0.00000000E+00  0.00000000E+00  0.00000000E+00
  0.00000000E+00  0.00000000E+00  0.00000000E+00
  0.00000000E+00  0.00000000E+00  0.00000000E+00
  0.00000000E+00  0.00000000E+00  0.00000000E+00
  0.00000000E+00  0.00000000E+00  0.00000000E+00
  0.00000000E+00  0.00000000E+00  0.00000000E+00
  0.00000000E+00  0.00000000E+00  0.00000000E+00
  0.00000000E+00  0.00000000E+00  0.00000000E+00
  0.00000000E+00  0.00000000E+00  0.00000000E+00
  0.00000000E+00  0.00000000E+00  0.00000000E+00
  0.00000000E+00  0.00000000E+00  0.00000000E+00
  0.00000000E+00  0.00000000E+00  0.00000000E+00
  0.00000000E+00  0.00000000E+00  0.00000000E+00
  0.00000000E+00  0.00000000E+00  0.00000000E+00
  0.00000000E+00  0.00000000E+00  0.00000000E+00
  0.00000000E+00  0.00000000E+00  0.00000000E+00
  0.00000000E+00  0.00000000E+00  0.00000000E+00
  0.00000000E+00  0.00000000E+00  0.00000000E+00
  0.00000000E+00  0.00000000E+00  0.00000000E+00
  0.00000000E+00  0.00000000E+00  0.00000000E+00
  0.00000000E+00  0.00000000E+00  0.00000000E+00
  0.00000000E+00  0.00000000E+00  0.00000000E+00
  0.00000000E+00  0.00000000E+00  0.00000000E+00
  0.00000000E+00  0.00000000E+00  0.00000000E+00
  0.00000000E+00  0.00000000E+00  0.00000000E+00
  0.00000000E+00  0.00000000E+00  0.00000000E+00
  0.00000000E+00  0.00000000E+00  0.00000000E+00
  0.00000000E+00  0.00000000E+00  0.00000000E+00
  0.00000000E+00  0.00000000E+00  0.00000000E+00
  0.00000000E+00  0.00000000E+00  0.00000000E+00
  0.00000000E+00  0.00000000E+00  0.00000000E+00
  0.00000000E+00  0.00000000E+00  0.00000000E+00
  0.00000000E+00  0.00000000E+00  0.00000000E+00
  0.00000000E+00  0.00000000E+00  0.00000000E+00
  0.00000000E+00  0.00000000E+00  0.00000000E+00
  0.00000000E+00  0.00000000E+00  0.00000000E+00
  0.00000000E+00  0.00000000E+00  0.00000000E+00
  0.00000000E+00  0.00000000E+00  0.00000000E+00
  0.00000000E+00  0.00000000E+00  0.00000000E+00
  0.00000000E+00  0.00000000E+00  0.00000000E+00
  0.00000000E+00  0.00000000E+00  0.00000000E+00
  0.00000000E+00  0.00000000E+00  0.00000000E+00
  0.00000000E+00  0.00000000E+00  0.00000000E+00
  0.00000000E+00  0.00000000E+00  0.00000000E+00
  0.00000000E+00  0.00000000E+00  0.00000000E+00
  0.00000000E+00  0.00000000E+00  0.00000000E+00
  0.00000000E+00  0.00000000E+00  0.00000000E+00
  0.00000000E+00  0.00000000E+00  0.00000000E+00
  0.00000000E+00  0.00000000E+00  0.00000000E+00
  0.00000000E+00  0.00000000E+00  0.00000000E+00
  0.00000000E+00  0.00000000E+00  0.00000000E+00
  0.00000000E+00  0.00000000E+00  0.00000000E+00
  0.00000000E+00  0.00000000E+00  0.00000000E+00
  0.00000000E+00  0.00000000E+00  0.00000000E+00
  0.00000000E+00  0.00000000E+00  0.00000000E+00
  0.00000000E+00  0.00000000E+00  0.00000000E+00
  0.00000000E+00  0.00000000E+00  0.00000000E+00
  0.00000000E+00  0.00000000E+00  0.00000000E+00
  0.00000000E+00  0.00000000E+00  0.00000000E+00
  0.00000000E+00  0.00000000E+00  0.00000000E+00
  0.00000000E+00  0.00000000E+00  0.00000000E+00
  0.00000000E+00  0.00000000E+00  0.00000000E+00
  0.00000000E+00  0.00000000E+00  0.00000000E+00
  0.00000000E+00  0.00000000E+00  0.00000000E+00
  0.00000000E+00  0.00000000E+00  0.00000000E+00
  0.00000000E+00  0.00000000E+00  0.00000000E+00
  0.00000000E+00  0.00000000E+00  0.00000000E+00
  0.00000000E+00  0.00000000E+00  0.00000000E+00
  0.00000000E+00  0.00000000E+00  0.00000000E+00
  0.00000000E+00  0.00000000E+00  0.00000000E+00
  0.00000000E+00  0.00000000E+00  0.00000000E+00
  0.00000000E+00  0.00000000E+00  0.00000000E+00
  0.00000000E+00  0.00000000E+00  0.00000000E+00
  0.00000000E+00  0.00000000E+00  0.00000000E+00
  0.00000000E+00  0.00000000E+00  0.00000000E+00
  0.00000000E+00  0.00000000E+00  0.00000000E+00
  0.00000000E+00  0.00000000E+00  0.00000000E+00
  0.00000000E+00  0.00000000E+00  0.00000000E+00
  0.00000000E+00  0.00000000E+00  0.00000000E+00
  0.00000000E+00  0.00000000E+00  0.00000000E+00
  0.00000000E+00  0.00000000E+00  0.00000000E+00
  0.00000000E+00  0.00000000E+00  0.00000000E+00
  0.00000000E+00  0.00000000E+00  0.00000000E+00
  0.00000000E+00  0.00000000E+00  0.00000000E+00
  0.00000000E+00  0.00000000E+00  0.00000000E+00
  0.00000000E+00  0.00000000E+00  0.00000000E+00
  0.00000000E+00  0.00000000E+00  0.00000000E+00
  0.00000000E+00  0.00000000E+00  0.00000000E+00
  0.00000000E+00  0.00000000E+00  0.00000000E+00
  0.00000000E+00  0.00000000E+00  0.00000000E+00
  0.00000000E+00  0.00000000E+00  0.00000000E+00
  0.00000000E+00  0.00000000E+00  0.00000000E+00
  0.00000000E+00  0.00000000E+00  0.00000000E+00
  0.00000000E+00  0.00000000E+00  0.00000000E+00
  0.00000000E+00  0.00000000E+00  0.00000000E+00
  0.00000000E+00  0.00000000E+00  0.00000000E+00
  0.00000000E+00  0.00000000E+00  0.00000000E+00
  0.00000000E+00  0.00000000E+00  0.00000000E+00
  0.00000000E+00  0.00000000E+00  0.00000000E+00
  0.00000000E+00  0.00000000E+00  0.00000000E+00
  0.00000000E+00  0.00000000E+00  0.00000000E+00
  0.00000000E+00  0.00000000E+00  0.00000000E+00
  0.00000000E+00  0.00000000E+00  0.00000000E+00
  0.00000000E+00  0.00000000E+00  0.00000000E+00
  0.00000000E+00  0.00000000E+00  0.00000000E+00
  0.00000000E+00  0.00000000E+00  0.00000000E+00
  0.00000000E+00  0.00000000E+00  0.00000000E+00
  0.00000000E+00  0.00000000E+00  0.00000000E+00
  0.00000000E+00  0.00000000E+00  0.00000000E+00
  0.00000000E+00  0.00000000E+00  0.00000000E+00
  0.00000000E+00  0.00000000E+00  0.00000000E+00
  0.00000000E+00  0.00000000E+00  0.00000000E+00
  0.00000000E+00  0.00000000E+00  0.00000000E+00
  0.00000000E+00  0.00000000E+00  0.00000000E+00
  0.00000000E+00  0.00000000E+00  0.00000000E+00
  0.00000000E+00  0.00000000E+00  0.00000000E+00
  0.00000000E+00  0.00000000E+00  0.00000000E+00
  0.00000000E+00  0.00000000E+00  0.00000000E+00
  0.00000000E+00  0.00000000E+00  0.00000000E+00
  0.00000000E+00  0.00000000E+00  0.00000000E+00
  0.00000000E+00  0.00000000E+00  0.00000000E+00
  0.00000000E+00  0.00000000E+00  0.00000000E+00
  0.00000000E+00  0.00000000E+00  0.00000000E+00
  0.00000000E+00  0.00000000E+00  0.00000000E+00
  0.00000000E+00  0.00000000E+00  0.00000000E+00
  0.00000000E+00  0.00000000E+00  0.00000000E+00
  0.00000000E+00  0.00000000E+00  0.00000000E+00
  0.00000000E+00  0.00000000E+00  0.00000000E+00
  0.00000000E+00  0.00000000E+00  0.00000000E+00
  0.00000000E+00  0.00000000E+00  0.00000000E+00
  0.00000000E+00  0.00000000E+00  0.00000000E+00
  0.00000000E+00  0.00000000E+00  0.00000000E+00
  0.00000000E+00  0.00000000E+00  0.00000000E+00
  0.00000000E+00  0.00000000E+00  0.00000000E+00
  0.00000000E+00  0.00000000E+00  0.00000000E+00
  0.00000000E+00  0.00000000E+00  0.00000000E+00
  0.00000000E+00  0.00000000E+00  0.00000000E+00
  0.00000000E+00  0.00000000E+00  0.00000000E+00
  0.00000000E+00  0.00000000E+00  0.00000000E+00
  0.00000000E+00  0.00000000E+00  0.00000000E+00
  0.00000000E+00  0.00000000E+00  0.00000000E+00
  0.00000000E+00  0.00000000E+00  0.00000000E+00
  0.00000000E+00  0.00000000E+00  0.00000000E+00
  0.00000000E+00  0.00000000E+00  0.00000000E+00
  0.00000000E+00  0.00000000E+00  0.00000000E+00
  0.00000000E+00  0.00000000E+00  0.00000000E+00
  0.00000000E+00  0.00000000E+00  0.00000000E+00
  0.00000000E+00  0.00000000E+00  0.00000000E+00
  0.00000000E+00  0.00000000E+00  0.00000000E+00
  0.00000000E+00  0.00000000E+00  0.00000000E+00
  0.00000000E+00  0.00000000E+00  0.00000000E+00
  0.00000000E+00  0.00000000E+00  0.00000000E+00
  0.00000000E+00  0.00000000E+00  0.00000000E+00
  0.00000000E+00  0.00000000E+00  0.00000000E+00
  0.00000000E+00  0.00000000E+00  0.00000000E+00
  0.00000000E+00  0.00000000E+00  0.00000000E+00
  0.00000000E+00  0.00000000E+00  0.00000000E+00
  0.00000000E+00  0.00000000E+00  0.00000000E+00
  0.00000000E+00  0.00000000E+00  0.00000000E+00
  0.00000000E+00  0.00000000E+00  0.00000000E+00
  0.00000000E+00  0.00000000E+00  0.00000000E+00
  0.00000000E+00  0.00000000E+00  0.00000000E+00
  0.00000000E+00  0.00000000E+00  0.00000000E+00
  0.00000000E+00  0.00000000E+00  0.00000000E+00
  0.00000000E+00  0.00000000E+00  0.00000000E+00
  0.00000000E+00  0.00000000E+00  0.00000000E+00
  0.00000000E+00  0.00000000E+00  0.00000000E+00