FeMn_288_15                             
    1.000000000000000     
     9.7266779999999997    0.0000000000000000    0.0000000000000000
     0.0000000000000000    8.4235500000000005    0.0000000000000000
     0.0000000000000000    0.0000000000000000   45.0000000000000000
   Fe   Mn
   273    15
Direct
  0.8123783466310898  0.2056551196222791  0.4784947267683978
  0.6876678552668095  0.1271801093645239  0.7878359067123493
  0.3131006842985748  0.2051011834785274  0.3452465581186790
  0.4374971809011348  0.2945016414338244  0.8747455064230814
  0.8122725839451266  0.8698797448262972  0.3006638046198855
  0.8127457438129286  0.0427587619730544  0.7435989020883732
  0.1875317880655348  0.7854158310201066  0.2562955209925483
  0.3120048413059547  0.5331344157356743  0.1251969585539865
  0.5629918792081890  0.0351896737720339  0.2563971790849858
  0.1876242558969475  0.2850662070905034  0.2563791326330825
  0.5622642487533022  0.0329876713037339  0.1249766059030900
  0.6873604747494403  0.4503859458205042  0.2120245852583739
  0.5624018154523180  0.2060244621995206  0.5657837622373397
  0.5617330800310354  0.7003537858983275  0.2123324053822687
  0.1875389852197197  0.7901330622739828  0.6106304255519480
  0.0625681030467294  0.8711012779670150  0.4345833714843489
  0.9375211451667750  0.9591494013937334  0.8326919830360333
  0.4377440570625809  0.2925146989893265  0.7435518659204724
  0.9377059060943939  0.1271333906996241  0.7877713864202007
  0.3129983927142467  0.7068014066764384  0.5657792797834665
  0.6877295702281185  0.4558339873210445  0.4785232016917996
  0.3122039188934493  0.3692827511554542  0.3006427430469473
  0.9373019253992111  0.6225966865283624  0.5214568067777503
  0.0627940161247816  0.0435564993794224  0.8750315086260950
  0.0625274133799805  0.8728555768660246  0.6548681613042150
  0.4379165309162757  0.4549052718172046  0.3452188978625627
  0.3125989017757224  0.3733519177564194  0.6548770958214759
  0.6860707041616798  0.2842601138215132  0.1252456833781454
  0.8122280680459371  0.3699346216005415  0.3006967905783083
  0.9373943031442660  0.4565934218761492  0.5655588168343716
  0.9372143370513299  0.4595391138212271  0.8327599491511134
  0.3126610060375855  0.3716965670874613  0.4345278496013611
  0.9373933568159404  0.6232651131406165  0.6547918996913392
  0.6875034092226108  0.2875970560429766  0.3893661569468218
  0.0622233967728168  0.8769269696364347  0.7878466661646305
  0.0626644744934088  0.0424415319934677  0.7435683534621813
  0.6875785771764257  0.1217619164138691  0.4343330551524130
  0.8124563491361174  0.3710508173108418  0.4346300566837198
  0.4376792195132431  0.7842625676338530  0.1249271363146018
  0.5625911020151375  0.7064180736757716  0.5656224621929397
  0.4374524628004951  0.7885372845326155  0.3893396194331792
  0.4379589699508116  0.7850221208902565  0.2563413482859630
  0.6874972779472075  0.7937174571084760  0.8747864712914736
  0.5625019067717197  0.7086372068304073  0.6994654018915520
  0.8122236783665131  0.7089212972340095  0.8326702410482211
  0.4375197948109981  0.1198871138003290  0.3006127400663994
  0.3122340927520784  0.0424678653169321  0.7435632865765900
  0.1873669569758052  0.4509105914632641  0.2122603189217063
  0.6874539396860727  0.9596846739167242  0.8327809616201169
  0.9375945861261430  0.9566091141054947  0.5656246838843387
  0.6876653055970939  0.6232700988009536  0.6547392594494053
  0.9375253852799076  0.7921893827631604  0.7436165374972648
  0.3127477111495285  0.8772051086977936  0.7877844343338892
  0.5630133308399639  0.3720642424701676  0.5214678416903060
  0.0625981524728304  0.5423196354070866  0.7435684163482411
  0.5624604430103121  0.2054898242420940  0.4785364510234817
  0.5620838427762733  0.3699018940787536  0.3006113105315469
  0.6876828906749811  0.4590449027986142  0.8326182790032540
  0.9376212272049798  0.4580903548315060  0.6993973221349435
  0.4371814614872875  0.4506069565479656  0.2120694560484788
  0.5625655348195384  0.5381694367340411  0.3894047094628709
  0.0624840530260573  0.0339541991554582  0.1251447623260602
  0.8125012808181630  0.3730797120044949  0.6548385087561273
  0.8125605639785779  0.7057542890037840  0.4785109050961294
  0.3123475143990885  0.5426630770099508  0.7436350611604151
  0.6874710598369950  0.7926160150847257  0.7435747936246642
  0.3126859740646775  0.5381432893705494  0.3894307019313471
  0.3119884861453731  0.3689296629517071  0.1672375642353390
  0.6875595835114895  0.9580156451757675  0.6993293668134377
  0.9374037905432824  0.9552975925233572  0.4785397106948816
  0.9374503338623675  0.6199033854803543  0.3005566258106315
  0.1874487804357339  0.4558989219299764  0.4785142137367389
  0.6879333206638103  0.7851834282744221  0.2563699177386703
  0.6879101743089152  0.4549360300412841  0.3452086782993229
  0.8121922660740281  0.7084132571673551  0.6994135518190508
  0.8128726427732647  0.5424829171348491  0.7435935111708828
  0.1874056031816935  0.4570401094442217  0.5657348833783648
  0.4375348425416554  0.1227109496385726  0.5215648065562827
  0.6875123270569788  0.6209100176703626  0.4342364753672328
  0.4373740359495789  0.9579589652432813  0.6993328980879714
  0.3130986134827279  0.5349421214144587  0.2562977708365372
  0.3126992873905776  0.7080353016959252  0.6994102072021423
  0.3127719102929546  0.7096639176503492  0.8326955367370729
  0.4373635307784434  0.2883457351268144  0.3894627083065942
  0.4374447289613899  0.7898307923517375  0.6105425756535648
  0.0625618293900499  0.0402391184327389  0.6106278576714523
  0.9370016000400992  0.6179199135299654  0.1671638094352801
  0.0624865570485189  0.8725246396717153  0.5215895395197451
  0.9374713748943928  0.9580622786145649  0.6994107002930480
  0.5621650303429123  0.2009119734844107  0.2123001416570310
  0.6873039873129447  0.7898900553177961  0.6105882504533130
  0.9380216231868748  0.4544821273451695  0.3452360357785426
  0.0633454571772739  0.5326139846345569  0.1250445583128615
  0.0623055047516748  0.7078751024591737  0.6993794466479805
  0.3126684016431176  0.2078815911403301  0.6994255486619526
  0.8125757474796748  0.0375939988026883  0.3893947602033597
  0.1878253519596366  0.1230105383903322  0.6547066224256815
  0.5614480725468008  0.5327387722016034  0.1252566731186147
  0.9372472470628033  0.4555985894789042  0.4785294937951879
  0.4379342640770693  0.2853363313632323  0.2564332938163273
  0.8130537223398250  0.3694177878558417  0.1671310803985405
  0.6873214241949935  0.7878223745886567  0.3894004926273236
  0.3120832016632834  0.8697592760147997  0.3006685892206428
  0.9376863860034860  0.1213457258543990  0.4344526114819637
  0.6870243824757947  0.7846120184231813  0.1247839111813523
  0.4378330165762654  0.1221527971959456  0.4342537162252006
  0.1876004525979624  0.2923412046190033  0.7437024589273783
  0.4378417494322191  0.1231992446904853  0.6547582481843989
  0.4374403688511893  0.9506061996987852  0.2122394998427453
  0.5626443444775895  0.5394314747127356  0.6107773014869485
  0.3125367698252787  0.7009603644433878  0.2122477824932863
  0.9378671302094054  0.7855425056402876  0.2564011140142443
  0.0623685264848490  0.3711404076260132  0.4345143801659747
  0.0622461480715354  0.3691791725139090  0.3005887410338046
  0.8117358744993295  0.0436751184785020  0.8748277015161361
  0.5624892715345309  0.7047133046195697  0.4785294574832926
  0.6878498527410902  0.9563754426579646  0.5656044891463238
  0.5624818227816182  0.5426829277421557  0.7436206212964156
  0.8119837593234770  0.7006231743637882  0.2122371495278497
  0.4377114952397745  0.7927841237332662  0.7436421208557515
  0.9378386876092580  0.9545786251471821  0.3452158144518917
  0.6874278023128527  0.2940762329114568  0.8748285275448345
  0.9374127753641828  0.2875292683425761  0.3894329099268238
  0.4375056863483297  0.2901300027644129  0.6106400295018650
  0.9366141280173653  0.4509492820055773  0.2121821799584974
  0.5629731950253352  0.3679543974214501  0.1672495908644456
  0.5624210134000424  0.3773411808295998  0.7878140197763043
  0.6874133257716547  0.6224373794972290  0.5215432432052329
  0.3125548337807756  0.3774505947007673  0.7879951522755870
  0.3127260004610539  0.2056564957014224  0.4784263406370392
  0.4374975222235748  0.9591068286304232  0.8326921703217381
  0.9367196771922898  0.9504386206942341  0.2120634452657623
  0.3123282805889869  0.8721540209354777  0.5213825346343532
  0.9374369156138269  0.2925923560990756  0.7436044513937982
  0.1874477238475792  0.6271658531527787  0.7878037995423346
  0.6876422047727925  0.6180477934993033  0.1672146302372152
  0.1879905706190683  0.6212499851265370  0.4343669940491758
  0.3113307737124071  0.3716300636419506  0.5214319693835830
  0.1876234180718325  0.2904187655049972  0.6106801542546967
  0.9372484013108519  0.2943342925977177  0.8747287418271695
  0.5627562561369506  0.5350034182822547  0.2564408061218511
  0.8125052127203649  0.8773030145472202  0.7878599962972667
  0.9377073699149112  0.6210038994932918  0.4344418348709609
  0.1868766073581325  0.7849949327496576  0.1252286260116995
  0.6869815522375605  0.1199822433638293  0.3006310993663553
  0.9368447607183119  0.1196662145738092  0.3005437007157969
  0.5628490366458535  0.7046589963203974  0.3451588533091260
  0.3128747346755554  0.2065305782947410  0.5656993357333179
  0.0625540911365097  0.7063604715796871  0.5655687219981016
  0.3122236522161155  0.0329885047372987  0.1252132064102258
  0.5626572337230488  0.7085630206318883  0.8327430256912597
  0.0620503667517988  0.5435726935355324  0.8748117270472415
  0.6878647444712257  0.4567934994630591  0.5657137164179890
  0.9379574321328535  0.2858838115021224  0.2564389355631095
  0.1874695238069889  0.6223988957094735  0.5215485337997171
  0.3128783531608870  0.5434592689810432  0.8747812847433933
  0.4377998479896240  0.9544334991303284  0.3452302263150919
  0.6877521733056490  0.2859977403229825  0.2564876023575905
  0.3131304431417917  0.7049806840237239  0.3452020830134863
  0.1873634839774688  0.1276625770534222  0.7877102548011742
  0.1873346136104209  0.9577154171906368  0.6993263659467863
  0.1873934254522714  0.6192127993589350  0.3006272388342001
  0.3123274485174687  0.7055592200097855  0.4784789768545372
  0.5624655123226207  0.0397324054922549  0.6104932423487596
  0.9370462040292327  0.7846725278421869  0.1251298857883164
  0.8129358452428720  0.8711537024983120  0.4343256896783843
  0.4382409835105400  0.6193082774542595  0.1673166051774682
  0.4369862001023460  0.6194591633621396  0.3005439882397120
  0.1881074227603249  0.6180597097511401  0.1673040121033920
  0.1869243669112171  0.1192696993952214  0.1671769042891646
  0.4373743949054099  0.7936491486721139  0.8747882647477918
  0.1863601679914442  0.2847478854552638  0.1247577685580175
  0.1874350051426537  0.4580073144590714  0.6994535428032088
  0.5631594785189346  0.3716877983834816  0.4345398152988898
  0.5622762104959392  0.0381070408361705  0.3893359365006067
  0.0620637159036766  0.2005779915373141  0.2123065472757336
  0.8126117716331051  0.8733833121720461  0.6547476564920722
  0.8125580332640167  0.2046112640906853  0.3453229752279282
  0.6885871873315356  0.9560503297015343  0.4786248994701355
  0.3121183320082596  0.0435722406124594  0.8750413112385080
  0.1876151087683047  0.1228102795603273  0.5215928684881428
  0.5625526533834992  0.3734711816543076  0.6547091524312483
  0.0623624509983343  0.3773296018689480  0.7879227254525111
  0.3122437856015310  0.0403891667766541  0.6105822829099321
  0.1872236366971879  0.2879439577194557  0.3894582671013256
  0.5625692546580424  0.2045555744573325  0.3452428231675010
  0.6879402485960492  0.1172463488376573  0.1673131376982448
  0.5627716822418011  0.8717706816605049  0.4346759331618040
  0.8124273652759152  0.3775084581325617  0.7879646045720887
  0.4375553096072300  0.4565350793981121  0.5653452278177855
  0.0626938680057857  0.3722223276290992  0.5215402979152286
  0.8130042390875640  0.3721709152745058  0.5215672142699441
  0.4371181939807692  0.1270457049665049  0.7877793312600961
  0.0629755592141018  0.7041482304329645  0.3452133644481165
  0.3126881321153690  0.5400225736754151  0.6106193298235574
  0.3118214675058674  0.2010463001119264  0.2121673687730117
  0.9372485762408336  0.2899813699633871  0.6106090386441184
  0.4374558289427383  0.6270384297745248  0.7877984899510662
  0.1876235860897799  0.2934837582096170  0.8747515676872817
  0.9374871999935646  0.6271068643892506  0.7878389203285150
  0.4377086091561065  0.4590468292639502  0.8326875068913803
  0.9383580342257517  0.1188122772985132  0.1672848796371688
  0.5625268617276645  0.2093470702920746  0.8327300848432773
  0.6870190984546202  0.6197573078365497  0.3005261715176073
  0.8118419516591991  0.0329825033099302  0.1251871843649533
  0.6875132537385868  0.1232032555531619  0.6547677966197242
  0.5625062567582428  0.5441890766454832  0.8748661360574583
  0.0626775446338555  0.0378246608555847  0.3894302671172908
  0.9376184722509417  0.1225287890584976  0.5215592314324933
  0.0621434159577333  0.8699324889443893  0.3006442312211134
  0.4371492927569509  0.4585783574539025  0.6994197409461566
  0.0628613545341105  0.5350694544323827  0.2563284199322343
  0.1878692174541348  0.9548992461483715  0.3452154114907668
  0.1874949533352308  0.4597706689696531  0.8326622062445729
  0.1877960450797588  0.4546141069865515  0.3451232208688485
  0.1871435569308613  0.9553356471735418  0.4784874031734458
  0.1875086799078496  0.7879775971206773  0.3894060716339396
  0.0625232901608190  0.3729219416797518  0.6547636000356296
  0.0627492248612937  0.7056950750343824  0.4785033098446653
  0.6872690337085413  0.9503317884925019  0.2121941941204071
  0.4375532059804634  0.2842001238991525  0.1252087748445195
  0.3127879566243654  0.8690341257423926  0.1671470460639756
  0.4376716279900929  0.1176859707595204  0.1672984629384454
  0.8124424125861529  0.0358875833827120  0.2561948621191045
  0.5625583610817420  0.8737436863873197  0.6547680521117428
  0.6872263912333457  0.1223731249185504  0.5215930499281187
  0.5631830533463087  0.0437713044113315  0.8747973308741499
  0.4377069794686187  0.6232561016516881  0.5215347814209530
  0.8122962692172994  0.5376687225077816  0.3893938959715081
  0.5623508423940934  0.2080469064404449  0.6994360342554939
  0.4375312336941560  0.6216322635024858  0.4342396346812427
  0.8120815328312490  0.2080081445431662  0.6994427159570523
  0.1875594136324274  0.1215177943275746  0.4344105213786010
  0.6874425587288511  0.2899127136548628  0.6106169464692617
  0.8122926239487399  0.2063410203091306  0.5656346489219564
  0.4372202295151614  0.9564671142529038  0.5655169673746809
  0.0625367538986385  0.2057904983062702  0.4786515935467519
  0.3118370754437563  0.2091943693505636  0.8327893377136774
  0.6876491130130268  0.4586603256583047  0.6993907133410430
  0.6873659960096983  0.2926802191950363  0.7435466003646316
  0.0622143886243379  0.5377551915386602  0.3892791053491183
  0.9381114312255694  0.2838656556863943  0.1248692170888590
  0.8120183903166677  0.7064112656487278  0.5656698250484263
  0.9370323350580447  0.1231008137362330  0.6546957791267577
  0.6879487279889253  0.9542407757849160  0.3452055842492763
  0.5622311812331724  0.8697686844694482  0.3005848155097030
  0.1875742221819825  0.9570345949488969  0.5655276832263516
  0.3121893078358489  0.0382922753273809  0.3894372834382048
  0.8116028308874574  0.8676682212215603  0.1669401077022298
  0.1875409500660533  0.7921504890161533  0.7435320743069866
  0.0623745332053216  0.7097875014545827  0.8326684148078302
  0.8124397518549006  0.2002946908510411  0.2124365772855107
  0.0625576633143234  0.5402459401262421  0.6104856233884374
  0.6874625464972426  0.6269729797796534  0.7878179607064445
  0.4370622383232804  0.9556419729561250  0.4785855190183748
  0.8126692027159601  0.2096291188221947  0.8328276110939058
  0.9375959113087418  0.7900771192977416  0.6106516254086862
  0.1874636250465584  0.7943087792052164  0.8749246722870822
  0.8121941835851016  0.5396848569756961  0.6106337788210445
  0.8127304828836175  0.8719518618434187  0.5215188848371339
  0.1875986974998547  0.1194313724953628  0.3006057620872384
  0.8123770369058455  0.5438718279356444  0.8748789352346019
  0.9374929939280823  0.7937056951044602  0.8747981283573540
  0.0630834265982991  0.8684023922601481  0.1672534301880696
  0.4377347574944825  0.6234522429437684  0.6547942807469945
  0.8126719130824480  0.0400243723555912  0.6105976377272535
  0.0630268359945509  0.2090794720735633  0.8326900937550037
  0.3124747034570108  0.8730348539872412  0.6547209646965597
  0.8126520319167266  0.5355145540368943  0.2563400475606037
  0.3131996788138675  0.0348620112579782  0.2563416665829248
  0.5623586241348915  0.8772901564815136  0.7878368575187923
  0.0623782792400064  0.7012610092617987  0.2124140913300838
  0.9373786675745682  0.7873812303615146  0.3894392395096407
  0.0632745293219538  0.2048137200870613  0.3454651281603394
  0.0623974516903076  0.2081964233999089  0.6995312568419599
  0.1875591206028947  0.9593478587400541  0.8333831058438820
  0.5625029781015328  0.8686117936557977  0.1666024807229748
  0.8127428177919090  0.7048715727208653  0.3453000189759871
  0.4376661125711400  0.4556293085681877  0.4785777595699540
  0.0626713065631107  0.2066360490251686  0.5657075971766272
  0.1875701719556912  0.9505851777984261  0.2121432132175861
  0.3123009822446973  0.8714965631544598  0.4343463265188685
  0.0626169518434430  0.0357010706212177  0.2563280274213667
  0.5626335442874802  0.0427851639093085  0.7436544694944733
  0.5625702398535315  0.8721020866341055  0.5214861422142217
  0.1876281623298989  0.6228790033496532  0.6546280076583509
  0.0621042203577380  0.3687410587051297  0.1665260276686875
  0.8123014510936936  0.5332389364939449  0.1254650967985399
 
  0.00000000E+00  0.00000000E+00  0.00000000E+00
  0.00000000E+00  0.00000000E+00  0.00000000E+00
  0.00000000E+00  0.00000000E+00  0.00000000E+00
  0.00000000E+00  0.00000000E+00  0.00000000E+00
  0.00000000E+00  0.00000000E+00  0.00000000E+00
  0.00000000E+00  0.00000000E+00  0.00000000E+00
  0.00000000E+00  0.00000000E+00  0.00000000E+00
  0.00000000E+00  0.00000000E+00  0.00000000E+00
  0.00000000E+00  0.00000000E+00  0.00000000E+00
  0.00000000E+00  0.00000000E+00  0.00000000E+00
  0.00000000E+00  0.00000000E+00  0.00000000E+00
  0.00000000E+00  0.00000000E+00  0.00000000E+00
  0.00000000E+00  0.00000000E+00  0.00000000E+00
  0.00000000E+00  0.00000000E+00  0.00000000E+00
  0.00000000E+00  0.00000000E+00  0.00000000E+00
  0.00000000E+00  0.00000000E+00  0.00000000E+00
  0.00000000E+00  0.00000000E+00  0.00000000E+00
  0.00000000E+00  0.00000000E+00  0.00000000E+00
  0.00000000E+00  0.00000000E+00  0.00000000E+00
  0.00000000E+00  0.00000000E+00  0.00000000E+00
  0.00000000E+00  0.00000000E+00  0.00000000E+00
  0.00000000E+00  0.00000000E+00  0.00000000E+00
  0.00000000E+00  0.00000000E+00  0.00000000E+00
  0.00000000E+00  0.00000000E+00  0.00000000E+00
  0.00000000E+00  0.00000000E+00  0.00000000E+00
  0.00000000E+00  0.00000000E+00  0.00000000E+00
  0.00000000E+00  0.00000000E+00  0.00000000E+00
  0.00000000E+00  0.00000000E+00  0.00000000E+00
  0.00000000E+00  0.00000000E+00  0.00000000E+00
  0.00000000E+00  0.00000000E+00  0.00000000E+00
  0.00000000E+00  0.00000000E+00  0.00000000E+00
  0.00000000E+00  0.00000000E+00  0.00000000E+00
  0.00000000E+00  0.00000000E+00  0.00000000E+00
  0.00000000E+00  0.00000000E+00  0.00000000E+00
  0.00000000E+00  0.00000000E+00  0.00000000E+00
  0.00000000E+00  0.00000000E+00  0.00000000E+00
  0.00000000E+00  0.00000000E+00  0.00000000E+00
  0.00000000E+00  0.00000000E+00  0.00000000E+00
  0.00000000E+00  0.00000000E+00  0.00000000E+00
  0.00000000E+00  0.00000000E+00  0.00000000E+00
  0.00000000E+00  0.00000000E+00  0.00000000E+00
  0.00000000E+00  0.00000000E+00  0.00000000E+00
  0.00000000E+00  0.00000000E+00  0.00000000E+00
  0.00000000E+00  0.00000000E+00  0.00000000E+00
  0.00000000E+00  0.00000000E+00  0.00000000E+00
  0.00000000E+00  0.00000000E+00  0.00000000E+00
  0.00000000E+00  0.00000000E+00  0.00000000E+00
  0.00000000E+00  0.00000000E+00  0.00000000E+00
  0.00000000E+00  0.00000000E+00  0.00000000E+00
  0.00000000E+00  0.00000000E+00  0.00000000E+00
  0.00000000E+00  0.00000000E+00  0.00000000E+00
  0.00000000E+00  0.00000000E+00  0.00000000E+00
  0.00000000E+00  0.00000000E+00  0.00000000E+00
  0.00000000E+00  0.00000000E+00  0.00000000E+00
  0.00000000E+00  0.00000000E+00  0.00000000E+00
  0.00000000E+00  0.00000000E+00  0.00000000E+00
  0.00000000E+00  0.00000000E+00  0.00000000E+00
  0.00000000E+00  0.00000000E+00  0.00000000E+00
  0.00000000E+00  0.00000000E+00  0.00000000E+00
  0.00000000E+00  0.00000000E+00  0.00000000E+00
  0.00000000E+00  0.00000000E+00  0.00000000E+00
  0.00000000E+00  0.00000000E+00  0.00000000E+00
  0.00000000E+00  0.00000000E+00  0.00000000E+00
  0.00000000E+00  0.00000000E+00  0.00000000E+00
  0.00000000E+00  0.00000000E+00  0.00000000E+00
  0.00000000E+00  0.00000000E+00  0.00000000E+00
  0.00000000E+00  0.00000000E+00  0.00000000E+00
  0.00000000E+00  0.00000000E+00  0.00000000E+00
  0.00000000E+00  0.00000000E+00  0.00000000E+00
  0.00000000E+00  0.00000000E+00  0.00000000E+00
  0.00000000E+00  0.00000000E+00  0.00000000E+00
  0.00000000E+00  0.00000000E+00  0.00000000E+00
  0.00000000E+00  0.00000000E+00  0.00000000E+00
  0.00000000E+00  0.00000000E+00  0.00000000E+00
  0.00000000E+00  0.00000000E+00  0.00000000E+00
  0.00000000E+00  0.00000000E+00  0.00000000E+00
  0.00000000E+00  0.00000000E+00  0.00000000E+00
  0.00000000E+00  0.00000000E+00  0.00000000E+00
  0.00000000E+00  0.00000000E+00  0.00000000E+00
  0.00000000E+00  0.00000000E+00  0.00000000E+00
  0.00000000E+00  0.00000000E+00  0.00000000E+00
  0.00000000E+00  0.00000000E+00  0.00000000E+00
  0.00000000E+00  0.00000000E+00  0.00000000E+00
  0.00000000E+00  0.00000000E+00  0.00000000E+00
  0.00000000E+00  0.00000000E+00  0.00000000E+00
  0.00000000E+00  0.00000000E+00  0.00000000E+00
  0.00000000E+00  0.00000000E+00  0.00000000E+00
  0.00000000E+00  0.00000000E+00  0.00000000E+00
  0.00000000E+00  0.00000000E+00  0.00000000E+00
  0.00000000E+00  0.00000000E+00  0.00000000E+00
  0.00000000E+00  0.00000000E+00  0.00000000E+00
  0.00000000E+00  0.00000000E+00  0.00000000E+00
  0.00000000E+00  0.00000000E+00  0.00000000E+00
  0.00000000E+00  0.00000000E+00  0.00000000E+00
  0.00000000E+00  0.00000000E+00  0.00000000E+00
  0.00000000E+00  0.00000000E+00  0.00000000E+00
  0.00000000E+00  0.00000000E+00  0.00000000E+00
  0.00000000E+00  0.00000000E+00  0.00000000E+00
  0.00000000E+00  0.00000000E+00  0.00000000E+00
  0.00000000E+00  0.00000000E+00  0.00000000E+00
  0.00000000E+00  0.00000000E+00  0.00000000E+00
  0.00000000E+00  0.00000000E+00  0.00000000E+00
  0.00000000E+00  0.00000000E+00  0.00000000E+00
  0.00000000E+00  0.00000000E+00  0.00000000E+00
  0.00000000E+00  0.00000000E+00  0.00000000E+00
  0.00000000E+00  0.00000000E+00  0.00000000E+00
  0.00000000E+00  0.00000000E+00  0.00000000E+00
  0.00000000E+00  0.00000000E+00  0.00000000E+00
  0.00000000E+00  0.00000000E+00  0.00000000E+00
  0.00000000E+00  0.00000000E+00  0.00000000E+00
  0.00000000E+00  0.00000000E+00  0.00000000E+00
  0.00000000E+00  0.00000000E+00  0.00000000E+00
  0.00000000E+00  0.00000000E+00  0.00000000E+00
  0.00000000E+00  0.00000000E+00  0.00000000E+00
  0.00000000E+00  0.00000000E+00  0.00000000E+00
  0.00000000E+00  0.00000000E+00  0.00000000E+00
  0.00000000E+00  0.00000000E+00  0.00000000E+00
  0.00000000E+00  0.00000000E+00  0.00000000E+00
  0.00000000E+00  0.00000000E+00  0.00000000E+00
  0.00000000E+00  0.00000000E+00  0.00000000E+00
  0.00000000E+00  0.00000000E+00  0.00000000E+00
  0.00000000E+00  0.00000000E+00  0.00000000E+00
  0.00000000E+00  0.00000000E+00  0.00000000E+00
  0.00000000E+00  0.00000000E+00  0.00000000E+00
  0.00000000E+00  0.00000000E+00  0.00000000E+00
  0.00000000E+00  0.00000000E+00  0.00000000E+00
  0.00000000E+00  0.00000000E+00  0.00000000E+00
  0.00000000E+00  0.00000000E+00  0.00000000E+00
  0.00000000E+00  0.00000000E+00  0.00000000E+00
  0.00000000E+00  0.00000000E+00  0.00000000E+00
  0.00000000E+00  0.00000000E+00  0.00000000E+00
  0.00000000E+00  0.00000000E+00  0.00000000E+00
  0.00000000E+00  0.00000000E+00  0.00000000E+00
  0.00000000E+00  0.00000000E+00  0.00000000E+00
  0.00000000E+00  0.00000000E+00  0.00000000E+00
  0.00000000E+00  0.00000000E+00  0.00000000E+00
  0.00000000E+00  0.00000000E+00  0.00000000E+00
  0.00000000E+00  0.00000000E+00  0.00000000E+00
  0.00000000E+00  0.00000000E+00  0.00000000E+00
  0.00000000E+00  0.00000000E+00  0.00000000E+00
  0.00000000E+00  0.00000000E+00  0.00000000E+00
  0.00000000E+00  0.00000000E+00  0.00000000E+00
  0.00000000E+00  0.00000000E+00  0.00000000E+00
  0.00000000E+00  0.00000000E+00  0.00000000E+00
  0.00000000E+00  0.00000000E+00  0.00000000E+00
  0.00000000E+00  0.00000000E+00  0.00000000E+00
  0.00000000E+00  0.00000000E+00  0.00000000E+00
  0.00000000E+00  0.00000000E+00  0.00000000E+00
  0.00000000E+00  0.00000000E+00  0.00000000E+00
  0.00000000E+00  0.00000000E+00  0.00000000E+00
  0.00000000E+00  0.00000000E+00  0.00000000E+00
  0.00000000E+00  0.00000000E+00  0.00000000E+00
  0.00000000E+00  0.00000000E+00  0.00000000E+00
  0.00000000E+00  0.00000000E+00  0.00000000E+00
  0.00000000E+00  0.00000000E+00  0.00000000E+00
  0.00000000E+00  0.00000000E+00  0.00000000E+00
  0.00000000E+00  0.00000000E+00  0.00000000E+00
  0.00000000E+00  0.00000000E+00  0.00000000E+00
  0.00000000E+00  0.00000000E+00  0.00000000E+00
  0.00000000E+00  0.00000000E+00  0.00000000E+00
  0.00000000E+00  0.00000000E+00  0.00000000E+00
  0.00000000E+00  0.00000000E+00  0.00000000E+00
  0.00000000E+00  0.00000000E+00  0.00000000E+00
  0.00000000E+00  0.00000000E+00  0.00000000E+00
  0.00000000E+00  0.00000000E+00  0.00000000E+00
  0.00000000E+00  0.00000000E+00  0.00000000E+00
  0.00000000E+00  0.00000000E+00  0.00000000E+00
  0.00000000E+00  0.00000000E+00  0.00000000E+00
  0.00000000E+00  0.00000000E+00  0.00000000E+00
  0.00000000E+00  0.00000000E+00  0.00000000E+00
  0.00000000E+00  0.00000000E+00  0.00000000E+00
  0.00000000E+00  0.00000000E+00  0.00000000E+00
  0.00000000E+00  0.00000000E+00  0.00000000E+00
  0.00000000E+00  0.00000000E+00  0.00000000E+00
  0.00000000E+00  0.00000000E+00  0.00000000E+00
  0.00000000E+00  0.00000000E+00  0.00000000E+00
  0.00000000E+00  0.00000000E+00  0.00000000E+00
  0.00000000E+00  0.00000000E+00  0.00000000E+00
  0.00000000E+00  0.00000000E+00  0.00000000E+00
  0.00000000E+00  0.00000000E+00  0.00000000E+00
  0.00000000E+00  0.00000000E+00  0.00000000E+00
  0.00000000E+00  0.00000000E+00  0.00000000E+00
  0.00000000E+00  0.00000000E+00  0.00000000E+00
  0.00000000E+00  0.00000000E+00  0.00000000E+00
  0.00000000E+00  0.00000000E+00  0.00000000E+00
  0.00000000E+00  0.00000000E+00  0.00000000E+00
  0.00000000E+00  0.00000000E+00  0.00000000E+00
  0.00000000E+00  0.00000000E+00  0.00000000E+00
  0.00000000E+00  0.00000000E+00  0.00000000E+00
  0.00000000E+00  0.00000000E+00  0.00000000E+00
  0.00000000E+00  0.00000000E+00  0.00000000E+00
  0.00000000E+00  0.00000000E+00  0.00000000E+00
  0.00000000E+00  0.00000000E+00  0.00000000E+00
  0.00000000E+00  0.00000000E+00  0.00000000E+00
  0.00000000E+00  0.00000000E+00  0.00000000E+00
  0.00000000E+00  0.00000000E+00  0.00000000E+00
  0.00000000E+00  0.00000000E+00  0.00000000E+00
  0.00000000E+00  0.00000000E+00  0.00000000E+00
  0.00000000E+00  0.00000000E+00  0.00000000E+00
  0.00000000E+00  0.00000000E+00  0.00000000E+00
  0.00000000E+00  0.00000000E+00  0.00000000E+00
  0.00000000E+00  0.00000000E+00  0.00000000E+00
  0.00000000E+00  0.00000000E+00  0.00000000E+00
  0.00000000E+00  0.00000000E+00  0.00000000E+00
  0.00000000E+00  0.00000000E+00  0.00000000E+00
  0.00000000E+00  0.00000000E+00  0.00000000E+00
  0.00000000E+00  0.00000000E+00  0.00000000E+00
  0.00000000E+00  0.00000000E+00  0.00000000E+00
  0.00000000E+00  0.00000000E+00  0.00000000E+00
  0.00000000E+00  0.00000000E+00  0.00000000E+00
  0.00000000E+00  0.00000000E+00  0.00000000E+00
  0.00000000E+00  0.00000000E+00  0.00000000E+00
  0.00000000E+00  0.00000000E+00  0.00000000E+00
  0.00000000E+00  0.00000000E+00  0.00000000E+00
  0.00000000E+00  0.00000000E+00  0.00000000E+00
  0.00000000E+00  0.00000000E+00  0.00000000E+00
  0.00000000E+00  0.00000000E+00  0.00000000E+00
  0.00000000E+00  0.00000000E+00  0.00000000E+00
  0.00000000E+00  0.00000000E+00  0.00000000E+00
  0.00000000E+00  0.00000000E+00  0.00000000E+00
  0.00000000E+00  0.00000000E+00  0.00000000E+00
  0.00000000E+00  0.00000000E+00  0.00000000E+00
  0.00000000E+00  0.00000000E+00  0.00000000E+00
  0.00000000E+00  0.00000000E+00  0.00000000E+00
  0.00000000E+00  0.00000000E+00  0.00000000E+00
  0.00000000E+00  0.00000000E+00  0.00000000E+00
  0.00000000E+00  0.00000000E+00  0.00000000E+00
  0.00000000E+00  0.00000000E+00  0.00000000E+00
  0.00000000E+00  0.00000000E+00  0.00000000E+00
  0.00000000E+00  0.00000000E+00  0.00000000E+00
  0.00000000E+00  0.00000000E+00  0.00000000E+00
  0.00000000E+00  0.00000000E+00  0.00000000E+00
  0.00000000E+00  0.00000000E+00  0.00000000E+00
  0.00000000E+00  0.00000000E+00  0.00000000E+00
  0.00000000E+00  0.00000000E+00  0.00000000E+00
  0.00000000E+00  0.00000000E+00  0.00000000E+00
  0.00000000E+00  0.00000000E+00  0.00000000E+00
  0.00000000E+00  0.00000000E+00  0.00000000E+00
  0.00000000E+00  0.00000000E+00  0.00000000E+00
  0.00000000E+00  0.00000000E+00  0.00000000E+00
  0.00000000E+00  0.00000000E+00  0.00000000E+00
  0.00000000E+00  0.00000000E+00  0.00000000E+00
  0.00000000E+00  0.00000000E+00  0.00000000E+00
  0.00000000E+00  0.00000000E+00  0.00000000E+00
  0.00000000E+00  0.00000000E+00  0.00000000E+00
  0.00000000E+00  0.00000000E+00  0.00000000E+00
  0.00000000E+00  0.00000000E+00  0.00000000E+00