CuInSe2gb                               
   1.00000000000000     
     9.7266780392896699    0.0000000000000000    0.0000000000000000
     0.0000000000000000    8.4235502764570693    0.0000000000000000
     0.0000000000000000    0.0000000000000000   45.0000000000000000
   Fe   Mn
   274    14
Direct
  0.0634350867223084  0.0292675275389234  0.1240807661401132
  0.3162812171535905  0.8741951708944996  0.6551166955963461
  0.1846695978250183  0.1227316099185777  0.7886536031563898
  0.4415191927528773  0.2875817527611412  0.3891284317766102
  0.3174933878497546  0.7131960355885778  0.8331970427022132
  0.8178309143820210  0.2145601347972854  0.8335697378324858
  0.1913092836662394  0.9630484101299164  0.8335860247625287
  0.5623426864238561  0.2069842094629995  0.5655525677894699
  0.0656167583948219  0.0405807527006315  0.7443806553265849
  0.8114138403318805  0.8713239260553598  0.5213332844427128
  0.1905397821296387  0.2909151435786538  0.7444249281499119
  0.9336710559071854  0.4523165010433046  0.3448250577990637
  0.9409323929665679  0.2864630348704328  0.3888130777769930
  0.8130372820327559  0.0402222608419325  0.8757535544509994
  0.1837052047458261  0.7888169108475996  0.6110195353597345
  0.5664268199349430  0.0379791686374613  0.3889724986976560
  0.9421251311259249  0.9638570885517592  0.8337624266305338
  0.3136874675730799  0.5393961926904642  0.8760219863094101
  0.6902689589455658  0.2911648136409084  0.7444086875972660
  0.1819175292665197  0.6138193731103126  0.1665929024669427
  0.8122378419937282  0.2058698778745086  0.4786210739270423
  0.8090269454752207  0.5386462967373032  0.6110536378991647
  0.3117927393128335  0.8705020450774165  0.4344387911120823
  0.8099888809116529  0.0386541448724939  0.2558914084237479
  0.6833317825545979  0.9516707127199020  0.3447484626107035
  0.9311036702124783  0.1142788741824450  0.1668432223010426
  0.0617615231802009  0.8711955678833148  0.5213135029752868
  0.5583702595092171  0.5387543170421915  0.2557227612580478
  0.6858771282005010  0.7963173855404488  0.8759300243673630
  0.5567727202182952  0.3642776132805938  0.1664936841442962
  0.4397601954473817  0.7917967551017440  0.7445544738165775
  0.8116151193198858  0.7071537182042700  0.5654979179111647
  0.5593309702546744  0.8732154117656039  0.7887333174124705
  0.6867348639779105  0.1216008045786425  0.5213642427336784
  0.8163393343446529  0.3741166574229082  0.6551657038275314
  0.9418772147003737  0.4633663538789105  0.8336701594467767
  0.0599698948109763  0.2070559986180308  0.6998207251198493
  0.4347011587280628  0.9569293094419675  0.6998465393793547
  0.3168259833466865  0.2127352701552455  0.8335454578546925
  0.4413104349651414  0.6248278199415965  0.6550934875985354
  0.3091880693347481  0.5389202572522943  0.6110249096601916
  0.9369734303552412  0.4567927416489838  0.5655681198504201
  0.6898730614667994  0.7914176520746617  0.7445274496126306
  0.9354753293057885  0.7890224864452468  0.1243400003162934
  0.6913534435312233  0.7878466943693948  0.3890932889337860
  0.9406528690753567  0.7907353936534257  0.7446543765578847
  0.0593237288606241  0.2033434635145017  0.3449525011105185
  0.6840591335994719  0.4526056660856930  0.3450295330298357
  0.4348559727630420  0.1222246483939695  0.7889459959399469
  0.0651132442629595  0.2059923096758464  0.2112481418507511
  0.0556624910521719  0.3655732978615553  0.1666261064122531
  0.9338697568092736  0.7874509351653289  0.2556781899875720
  0.5598656815731722  0.2067653403904864  0.6998688935563199
  0.6845202137663819  0.9567447789191786  0.6998167395882161
  0.8097713822800621  0.8733714796832623  0.7885240021102352
  0.4371579878812409  0.9575271024709485  0.5653163248439520
  0.8096903739707371  0.3740732007781776  0.7885739876964237
  0.6842442506664353  0.2884730139031377  0.2559283263140399
  0.1875127226022209  0.4571913889587521  0.5654411753423295
  0.0559502735974682  0.8656774037843560  0.1666361085513496
  0.1841059759692119  0.2890342220260915  0.6110793039102811
  0.0622830962031962  0.2076052331850768  0.5653286569603474
  0.3100235081022997  0.2067265323640261  0.6999002398074563
  0.5631632180237414  0.5395120916086110  0.8759126976536173
  0.0622523558617398  0.7071377416462626  0.5655736930630559
  0.6840034985059180  0.6228902023939007  0.7887635427095072
  0.3158778093759081  0.5384027203262680  0.3888558744748298
  0.1866842965265892  0.6213396816279674  0.5213517647270635
  0.5620516522151339  0.8708497778507821  0.4343236554104966
  0.4369743787863787  0.4571382366898275  0.5655616365159255
  0.4398664251338155  0.2916755724339667  0.7445258674468578
  0.8197882070332637  0.8743167906261546  0.3001801877303233
  0.8086080850941584  0.7027525306423914  0.3448551870277711
  0.4422264489436324  0.4626014662152144  0.8333015737676728
  0.6874330178950430  0.9557994890305507  0.4786714539009049
  0.6843578610052726  0.4570794800865695  0.6998190856490721
  0.5616422884067930  0.8716340836453805  0.5213750546349141
  0.5659804516787679  0.3742085200471588  0.6551473912512477
  0.8165212996561492  0.8746513913668240  0.6551777357672272
  0.8115667999698682  0.3716207647296985  0.4341022656556519
  0.8089050756972852  0.5381818953068290  0.2558321426590099
  0.6920898153093372  0.4621886934069966  0.8333482302569983
  0.1857917159311109  0.7880859087041242  0.1241668390202763
  0.6913786770990406  0.2875839881872245  0.3890681869488541
  0.3159782168977341  0.3737636825213178  0.6550676369808307
  0.3092309301400301  0.2027537257995329  0.3446856716670140
  0.8157030826756556  0.5405115928210975  0.7444103930709566
  0.6916630949493057  0.9619767045544650  0.8334684344359554
  0.5661079176052420  0.8743175747126732  0.6551234562819366
  0.3116410220311242  0.7071006473411958  0.5655132328442645
  0.3118341807176342  0.5301448997716536  0.1239862493139672
  0.6895845109278489  0.9543276565627178  0.2116450092824997
  0.3115755196355438  0.2069145579898886  0.5655588246234768
  0.1874544111124586  0.9560554896537264  0.4786944931511511
  0.6875240161444555  0.9566478034413018  0.5654692646448778
  0.4339361767344571  0.7886356992987978  0.6110215432991750
  0.6818989067205804  0.6122926713416443  0.1661242346939319
  0.3187279236495708  0.8745049387841973  0.3000222776908292
  0.3120883204607219  0.7056310559300111  0.4785355050386266
  0.9339230503794068  0.2885420980976487  0.6109971933677969
  0.4454446499655019  0.6247681375302179  0.3002443828039699
  0.8075094380632478  0.8636999753514216  0.1666991126920729
  0.5658648867863761  0.2037069151562307  0.2112265567709337
  0.9322890254313319  0.6131049671956892  0.1667377791421030
  0.4371876911250837  0.9555797356988270  0.4785289687819098
  0.5597396039109150  0.3726049407201146  0.7887804769887165
  0.0613233418435123  0.3719248339566419  0.5213766069294897
  0.3067816942712446  0.3644336291712330  0.1666402346266702
  0.6937967404258785  0.1231972762341355  0.3001341871124513
  0.4429340337867105  0.9625592301143447  0.8333752306484491
  0.1859194356998780  0.2870466428147636  0.1240283707558192
  0.1845414082147966  0.2886595874871788  0.2559801282932211
  0.3122440416720412  0.3705216417306347  0.4344087407547473
  0.5619718283091406  0.0325727010021386  0.1242815997909223
  0.4340289711008978  0.2886933700630407  0.6109855370679902
  0.1838576115405706  0.4526088532280915  0.3449327750275172
  0.4337885559555721  0.2863919943738567  0.1239610398330285
  0.6834770783671598  0.7886306865962233  0.2557932913959461
  0.4368737916452278  0.1212528434263325  0.5213787248844651
  0.1884513086669257  0.2950655688153442  0.8759613393294590
  0.1913874253719381  0.1249887271192681  0.6552081813495799
  0.9411373080622852  0.1248229613238039  0.6551941574247537
  0.8163856878704504  0.5375696352587408  0.3889055469042451
  0.0664666778286364  0.0379879755023382  0.3890873141850578
  0.1827801132093814  0.1132078292806983  0.1665682688370354
  0.0589410893018392  0.5385527048701284  0.6110721462989969
  0.9336383842616208  0.2880809659412060  0.2558548968060157
  0.5588381825531348  0.5385339072827149  0.6110717221919841
  0.9368733308824427  0.9575565866783297  0.5655046523542628
  0.6935029641471769  0.6245027399376438  0.3001202144605195
  0.9371052528609859  0.6202150929463299  0.4344175060794789
  0.9342858129118204  0.6241063356210547  0.7885091520329712
  0.5601065381376044  0.7066537441177052  0.6998246896574932
  0.0661799000111515  0.7156943493585063  0.8338260211634486
  0.9438073190335516  0.1233028644073085  0.2999900626003582
  0.9339221100217793  0.7882113873178013  0.6110284983934814
  0.4331744246668007  0.7878754180597537  0.2555520741912733
  0.3099078208663298  0.3731499822271346  0.7887761781070871
  0.4403563300953529  0.4542030889234434  0.2112777764782686
  0.1866586499026337  0.1216234222326983  0.5213990644889540
  0.8099160094317266  0.7070997019710725  0.6998727660031295
  0.0589127728402841  0.0383297923804433  0.6109109548116025
  0.5662336533286891  0.2129916950060482  0.8332646767456160
  0.3118092221938153  0.8713378137713872  0.5213750070183888
  0.6858431930427983  0.2874465772358348  0.1238568746009772
  0.1910151962651169  0.9557006931668930  0.2115822283255436
  0.6839791299680692  0.2886992744545014  0.6110399445426776
  0.3088019158357256  0.0385337148030467  0.6110664602018541
  0.9347818301050623  0.1238154962139247  0.7887159087922457
  0.4366070123783741  0.7963397128371738  0.8760242721034351
  0.8156646064655915  0.0407398224686280  0.7444109373486155
  0.9347068688556526  0.4572937296567642  0.6998053368616292
  0.1913156131545438  0.6248980912571103  0.6552120109996613
  0.3098833526820180  0.7063686539571521  0.6998598590294709
  0.9353777599686880  0.2872844390630580  0.1240015731651173
  0.4373399129438121  0.4558340971594867  0.4784000551418313
  0.0622317306144769  0.7056370679650100  0.4783510007513931
  0.9368140641159833  0.1194701728228629  0.4344665119900831
  0.4441061313360679  0.1235647457135501  0.3004195565513463
  0.1872405946173111  0.1200080109788347  0.4341284766379565
  0.5632302897752274  0.0397836326550879  0.8760265948623319
  0.1871467208447954  0.9571906156422728  0.5655051569858885
  0.6834332067607812  0.7885423561767214  0.1242188680774224
  0.5593449644162186  0.7024108485361903  0.3450156079686508
  0.3159562125506508  0.0372929252330520  0.3888848575507937
  0.6820387918851476  0.1135157987255665  0.1666225142148522
  0.8154624682775506  0.2037273200373333  0.2112532668168207
  0.0597630487824408  0.5376247033565267  0.2557585824675956
  0.5622883798589519  0.7054644712585177  0.4784299822652749
  0.4355427660417805  0.7874432362226822  0.1240404280566938
  0.5685582344050057  0.3736493177702850  0.3001811776269115
  0.4337614680924385  0.9527003492506509  0.3450405621664139
  0.1847640553208798  0.9570061517513128  0.7000058271121293
  0.4321439498103986  0.6130226542543525  0.1661521543430202
  0.9401641125327982  0.4544496538313477  0.2116924724806191
  0.0622245850484314  0.5293502045457344  0.1238721308725782
  0.8116661402162108  0.3716595667124598  0.5213533601520703
  0.9438438316371646  0.6234385956057407  0.2999032976160075
  0.3099416280790060  0.0378888827280520  0.2554931181267443
  0.6839083460016362  0.7884492804609978  0.6110098354046970
  0.1917357048281899  0.4631510120788690  0.8334936638880578
  0.4323677093659548  0.1131111525924302  0.1665739440893970
  0.3114930711815069  0.3712910274682882  0.5213691278788406
  0.4336555211028854  0.6227617442851587  0.7890712009214061
  0.0594805086143004  0.0380343625032780  0.2556178930304556
  0.5624266524799720  0.7069023994678432  0.5655222852166465
  0.9396438907850860  0.2907189013245318  0.7445159159682404
  0.6833266913388465  0.1226714691111726  0.7886656864437801
  0.1897619557002462  0.4544157326884848  0.2112299713987111
  0.9412455802590370  0.7876448328988802  0.3888983149365275
  0.6861067115822869  0.2981314590424158  0.8760700927473525
  0.5572193885038971  0.8620544861741047  0.1664086411818389
  0.4348777041065043  0.4569239846461560  0.6998436668550405
  0.9341396953245064  0.9514013303268507  0.3446857976009717
  0.6864822757357902  0.6211995964535296  0.5212090295776199
  0.0661720850722960  0.8742426210072811  0.6551360039335913
  0.0598858010896921  0.8735946939402177  0.7885893334055497
  0.0661784713519101  0.3742452704253574  0.6551203035009405
  0.6870676195984243  0.4552988292210093  0.4784997112943269
  0.1842935307987458  0.7879917954144311  0.2554398074793059
  0.4368060303801814  0.1205933655677470  0.4342988732403167
  0.8139904973394219  0.0308510644440559  0.1240511378563527
  0.9366043441761058  0.6217812866095012  0.5213593229745535
  0.4411750701843323  0.1243958887799219  0.6550526364930181
  0.8132570366012687  0.5289287699830598  0.1239785649413472
  0.4339895966054313  0.4525066367426553  0.3449708662031266
  0.8092737865522309  0.2028507338514396  0.3450266265244634
  0.3092404488500496  0.7024022262220075  0.3447383690646753
  0.6912839113860216  0.1248626169994441  0.6551198186048133
  0.3065697023165235  0.8637809524634377  0.1666807392915873
  0.0650416101062964  0.5407334014490381  0.7445024783391934
  0.9396629142372986  0.9542548508095087  0.2112380359489876
  0.8159819193422208  0.7041882991036463  0.2113768531574567
  0.0691860069010300  0.8743489828898229  0.3002042720692766
  0.1939459690808523  0.1241435103109697  0.3001859733325500
  0.0585874068470773  0.7023854239900508  0.3448813479169568
  0.8091262716865387  0.0386428394865076  0.6110242162086246
  0.0629267365785162  0.3718844749129903  0.4342899941670840
  0.5593294020217489  0.2030126689689825  0.3446568164920209
  0.8192354778281866  0.3737343087656730  0.3000846770767625
  0.5601543579352530  0.0382344593555833  0.2554628446781126
  0.5665616633666041  0.5375378706892123  0.3890695335757814
  0.0627315247501411  0.2059564816132252  0.4785918781601047
  0.3105453921520839  0.8725125167056847  0.7885207763579789
  0.9346086137373490  0.9575727617060950  0.6997894074534198
  0.0684502935524077  0.3748073055338863  0.3001322281217131
  0.6911261111716852  0.6248476960930853  0.6552577187028387
  0.6871144994342560  0.4574439143856421  0.5654268740661276
  0.4397843298508216  0.9552435085870149  0.2118427959993624
  0.3123922002929880  0.2056486688032962  0.4786011706849092
  0.8126634200199419  0.5389973936995691  0.8758874808399257
  0.6882512487955582  0.6203638337074636  0.4344007042727430
  0.8102695878563158  0.2071150990427769  0.6999135805657405
  0.8122852584206126  0.7055954315787093  0.4784851133837020
  0.8110926221858790  0.8710515900555003  0.4341845308759397
  0.9372815437707047  0.9552004817256519  0.4785780003372223
  0.5622306528853656  0.2057739572199683  0.4785963052218671
  0.1869484787006196  0.6197951197970359  0.4343272576123263
  0.3151558297757459  0.0413893528856509  0.7443438987002350
  0.9414273468346148  0.6250422339292023  0.6550695589535428
  0.5666299445486020  0.7133095740749024  0.8333274839533068
  0.3191446232116922  0.3735321147454746  0.2999979584353322
  0.3150278366214946  0.5412198604428874  0.7444817760343455
  0.1873895714591310  0.4555110217179530  0.4785642505419142
  0.3143970562397547  0.0403562472292131  0.8758064021560226
  0.1849583626165351  0.4577995472702920  0.6998798835625357
  0.5615591787541284  0.3714346394087480  0.5213597396978337
  0.1908845987705597  0.2874252758888102  0.3889018340589699
  0.3158777560586380  0.2062782072648387  0.2111843422982740
  0.0667947696271257  0.7044100865446880  0.2112416562710123
  0.5617497931544794  0.3712383580579179  0.4341920529088084
  0.4364328570528529  0.6215318752698581  0.5212747611736203
  0.8167506390904659  0.7149198423402264  0.8334476955262921
  0.0599005683480948  0.3738578368175972  0.7885402622542224
  0.4368630472354574  0.2971812378707608  0.8762240156259901
  0.3117461929467750  0.0313377813254856  0.1240872288562306
  0.6877240171316034  0.1201973152422894  0.4342328156703867
  0.1836153194019722  0.9522137752235911  0.3448688103881952
  0.0668460108697177  0.2140252996991512  0.8338916449007672
  0.5591288813045240  0.0390986958056014  0.6111242971463750
  0.6890772156315093  0.4540245504641509  0.2116318869805433
  0.1898180766023855  0.7915056601219376  0.7445357446147250
  0.1937379766209377  0.6238736441494137  0.3002068235505377
  0.4415814031809728  0.7879997729904084  0.3890689259256195
  0.4338373586712879  0.2887428013781978  0.2558830310938548
  0.0637349966438590  0.5394640061028629  0.8758351383286008
  0.5655681644626703  0.0412276609791520  0.7444155744063194
  0.1875709538506610  0.7958873447383517  0.8759283343155625
  0.9375455088281693  0.4552850254468814  0.4785243288951245
  0.5653368754066335  0.5412749264254124  0.7443455492627071
  0.8114486169085724  0.2074955250228585  0.5654488686390695
  0.1852179096569619  0.6226397531088679  0.7885873907510804
  0.0675566947212895  0.5386327288337441  0.3890732944763938
  0.0601010874457561  0.7068274512482312  0.6998732082352769
  0.3090167420991469  0.5376728468349911  0.2556809804829533
  0.3151706988838066  0.7064517569580409  0.2116124350498539
  0.5695414987538892  0.8740939181098686  0.3002009616565304
  0.4365431068876295  0.6210291397733178  0.4342445742079002
  0.8182684833141635  0.0395620951652150  0.3891659832881046
  0.9354431256210000  0.2966457355567088  0.8755694764353328
  0.9378030153178601  0.7945319638933107  0.8755371930620095
  0.0657069848285070  0.0382626649770017  0.8756621983910553
  0.5627609359468099  0.5301796890963124  0.1242825610727818
  0.8053450510134207  0.3662153183325602  0.1658639330320213
  0.0618193859465762  0.8713569964238559  0.4342942527382198
  0.9366533922485711  0.1215364029225320  0.5213855092237536
  0.1931883421541132  0.7871121526308734  0.3888484191287023
  0.5675785537638482  0.7047480590499696  0.2117515095694564
 
  0.00000000E+00  0.00000000E+00  0.00000000E+00
  0.00000000E+00  0.00000000E+00  0.00000000E+00
  0.00000000E+00  0.00000000E+00  0.00000000E+00
  0.00000000E+00  0.00000000E+00  0.00000000E+00
  0.00000000E+00  0.00000000E+00  0.00000000E+00
  0.00000000E+00  0.00000000E+00  0.00000000E+00
  0.00000000E+00  0.00000000E+00  0.00000000E+00
  0.00000000E+00  0.00000000E+00  0.00000000E+00
  0.00000000E+00  0.00000000E+00  0.00000000E+00
  0.00000000E+00  0.00000000E+00  0.00000000E+00
  0.00000000E+00  0.00000000E+00  0.00000000E+00
  0.00000000E+00  0.00000000E+00  0.00000000E+00
  0.00000000E+00  0.00000000E+00  0.00000000E+00
  0.00000000E+00  0.00000000E+00  0.00000000E+00
  0.00000000E+00  0.00000000E+00  0.00000000E+00
  0.00000000E+00  0.00000000E+00  0.00000000E+00
  0.00000000E+00  0.00000000E+00  0.00000000E+00
  0.00000000E+00  0.00000000E+00  0.00000000E+00
  0.00000000E+00  0.00000000E+00  0.00000000E+00
  0.00000000E+00  0.00000000E+00  0.00000000E+00
  0.00000000E+00  0.00000000E+00  0.00000000E+00
  0.00000000E+00  0.00000000E+00  0.00000000E+00
  0.00000000E+00  0.00000000E+00  0.00000000E+00
  0.00000000E+00  0.00000000E+00  0.00000000E+00
  0.00000000E+00  0.00000000E+00  0.00000000E+00
  0.00000000E+00  0.00000000E+00  0.00000000E+00
  0.00000000E+00  0.00000000E+00  0.00000000E+00
  0.00000000E+00  0.00000000E+00  0.00000000E+00
  0.00000000E+00  0.00000000E+00  0.00000000E+00
  0.00000000E+00  0.00000000E+00  0.00000000E+00
  0.00000000E+00  0.00000000E+00  0.00000000E+00
  0.00000000E+00  0.00000000E+00  0.00000000E+00
  0.00000000E+00  0.00000000E+00  0.00000000E+00
  0.00000000E+00  0.00000000E+00  0.00000000E+00
  0.00000000E+00  0.00000000E+00  0.00000000E+00
  0.00000000E+00  0.00000000E+00  0.00000000E+00
  0.00000000E+00  0.00000000E+00  0.00000000E+00
  0.00000000E+00  0.00000000E+00  0.00000000E+00
  0.00000000E+00  0.00000000E+00  0.00000000E+00
  0.00000000E+00  0.00000000E+00  0.00000000E+00
  0.00000000E+00  0.00000000E+00  0.00000000E+00
  0.00000000E+00  0.00000000E+00  0.00000000E+00
  0.00000000E+00  0.00000000E+00  0.00000000E+00
  0.00000000E+00  0.00000000E+00  0.00000000E+00
  0.00000000E+00  0.00000000E+00  0.00000000E+00
  0.00000000E+00  0.00000000E+00  0.00000000E+00
  0.00000000E+00  0.00000000E+00  0.00000000E+00
  0.00000000E+00  0.00000000E+00  0.00000000E+00
  0.00000000E+00  0.00000000E+00  0.00000000E+00
  0.00000000E+00  0.00000000E+00  0.00000000E+00
  0.00000000E+00  0.00000000E+00  0.00000000E+00
  0.00000000E+00  0.00000000E+00  0.00000000E+00
  0.00000000E+00  0.00000000E+00  0.00000000E+00
  0.00000000E+00  0.00000000E+00  0.00000000E+00
  0.00000000E+00  0.00000000E+00  0.00000000E+00
  0.00000000E+00  0.00000000E+00  0.00000000E+00
  0.00000000E+00  0.00000000E+00  0.00000000E+00
  0.00000000E+00  0.00000000E+00  0.00000000E+00
  0.00000000E+00  0.00000000E+00  0.00000000E+00
  0.00000000E+00  0.00000000E+00  0.00000000E+00
  0.00000000E+00  0.00000000E+00  0.00000000E+00
  0.00000000E+00  0.00000000E+00  0.00000000E+00
  0.00000000E+00  0.00000000E+00  0.00000000E+00
  0.00000000E+00  0.00000000E+00  0.00000000E+00
  0.00000000E+00  0.00000000E+00  0.00000000E+00
  0.00000000E+00  0.00000000E+00  0.00000000E+00
  0.00000000E+00  0.00000000E+00  0.00000000E+00
  0.00000000E+00  0.00000000E+00  0.00000000E+00
  0.00000000E+00  0.00000000E+00  0.00000000E+00
  0.00000000E+00  0.00000000E+00  0.00000000E+00
  0.00000000E+00  0.00000000E+00  0.00000000E+00
  0.00000000E+00  0.00000000E+00  0.00000000E+00
  0.00000000E+00  0.00000000E+00  0.00000000E+00
  0.00000000E+00  0.00000000E+00  0.00000000E+00
  0.00000000E+00  0.00000000E+00  0.00000000E+00
  0.00000000E+00  0.00000000E+00  0.00000000E+00
  0.00000000E+00  0.00000000E+00  0.00000000E+00
  0.00000000E+00  0.00000000E+00  0.00000000E+00
  0.00000000E+00  0.00000000E+00  0.00000000E+00
  0.00000000E+00  0.00000000E+00  0.00000000E+00
  0.00000000E+00  0.00000000E+00  0.00000000E+00
  0.00000000E+00  0.00000000E+00  0.00000000E+00
  0.00000000E+00  0.00000000E+00  0.00000000E+00
  0.00000000E+00  0.00000000E+00  0.00000000E+00
  0.00000000E+00  0.00000000E+00  0.00000000E+00
  0.00000000E+00  0.00000000E+00  0.00000000E+00
  0.00000000E+00  0.00000000E+00  0.00000000E+00
  0.00000000E+00  0.00000000E+00  0.00000000E+00
  0.00000000E+00  0.00000000E+00  0.00000000E+00
  0.00000000E+00  0.00000000E+00  0.00000000E+00
  0.00000000E+00  0.00000000E+00  0.00000000E+00
  0.00000000E+00  0.00000000E+00  0.00000000E+00
  0.00000000E+00  0.00000000E+00  0.00000000E+00
  0.00000000E+00  0.00000000E+00  0.00000000E+00
  0.00000000E+00  0.00000000E+00  0.00000000E+00
  0.00000000E+00  0.00000000E+00  0.00000000E+00
  0.00000000E+00  0.00000000E+00  0.00000000E+00
  0.00000000E+00  0.00000000E+00  0.00000000E+00
  0.00000000E+00  0.00000000E+00  0.00000000E+00
  0.00000000E+00  0.00000000E+00  0.00000000E+00
  0.00000000E+00  0.00000000E+00  0.00000000E+00
  0.00000000E+00  0.00000000E+00  0.00000000E+00
  0.00000000E+00  0.00000000E+00  0.00000000E+00
  0.00000000E+00  0.00000000E+00  0.00000000E+00
  0.00000000E+00  0.00000000E+00  0.00000000E+00
  0.00000000E+00  0.00000000E+00  0.00000000E+00
  0.00000000E+00  0.00000000E+00  0.00000000E+00
  0.00000000E+00  0.00000000E+00  0.00000000E+00
  0.00000000E+00  0.00000000E+00  0.00000000E+00
  0.00000000E+00  0.00000000E+00  0.00000000E+00
  0.00000000E+00  0.00000000E+00  0.00000000E+00
  0.00000000E+00  0.00000000E+00  0.00000000E+00
  0.00000000E+00  0.00000000E+00  0.00000000E+00
  0.00000000E+00  0.00000000E+00  0.00000000E+00
  0.00000000E+00  0.00000000E+00  0.00000000E+00
  0.00000000E+00  0.00000000E+00  0.00000000E+00
  0.00000000E+00  0.00000000E+00  0.00000000E+00
  0.00000000E+00  0.00000000E+00  0.00000000E+00
  0.00000000E+00  0.00000000E+00  0.00000000E+00
  0.00000000E+00  0.00000000E+00  0.00000000E+00
  0.00000000E+00  0.00000000E+00  0.00000000E+00
  0.00000000E+00  0.00000000E+00  0.00000000E+00
  0.00000000E+00  0.00000000E+00  0.00000000E+00
  0.00000000E+00  0.00000000E+00  0.00000000E+00
  0.00000000E+00  0.00000000E+00  0.00000000E+00
  0.00000000E+00  0.00000000E+00  0.00000000E+00
  0.00000000E+00  0.00000000E+00  0.00000000E+00
  0.00000000E+00  0.00000000E+00  0.00000000E+00
  0.00000000E+00  0.00000000E+00  0.00000000E+00
  0.00000000E+00  0.00000000E+00  0.00000000E+00
  0.00000000E+00  0.00000000E+00  0.00000000E+00
  0.00000000E+00  0.00000000E+00  0.00000000E+00
  0.00000000E+00  0.00000000E+00  0.00000000E+00
  0.00000000E+00  0.00000000E+00  0.00000000E+00
  0.00000000E+00  0.00000000E+00  0.00000000E+00
  0.00000000E+00  0.00000000E+00  0.00000000E+00
  0.00000000E+00  0.00000000E+00  0.00000000E+00
  0.00000000E+00  0.00000000E+00  0.00000000E+00
  0.00000000E+00  0.00000000E+00  0.00000000E+00
  0.00000000E+00  0.00000000E+00  0.00000000E+00
  0.00000000E+00  0.00000000E+00  0.00000000E+00
  0.00000000E+00  0.00000000E+00  0.00000000E+00
  0.00000000E+00  0.00000000E+00  0.00000000E+00
  0.00000000E+00  0.00000000E+00  0.00000000E+00
  0.00000000E+00  0.00000000E+00  0.00000000E+00
  0.00000000E+00  0.00000000E+00  0.00000000E+00
  0.00000000E+00  0.00000000E+00  0.00000000E+00
  0.00000000E+00  0.00000000E+00  0.00000000E+00
  0.00000000E+00  0.00000000E+00  0.00000000E+00
  0.00000000E+00  0.00000000E+00  0.00000000E+00
  0.00000000E+00  0.00000000E+00  0.00000000E+00
  0.00000000E+00  0.00000000E+00  0.00000000E+00
  0.00000000E+00  0.00000000E+00  0.00000000E+00
  0.00000000E+00  0.00000000E+00  0.00000000E+00
  0.00000000E+00  0.00000000E+00  0.00000000E+00
  0.00000000E+00  0.00000000E+00  0.00000000E+00
  0.00000000E+00  0.00000000E+00  0.00000000E+00
  0.00000000E+00  0.00000000E+00  0.00000000E+00
  0.00000000E+00  0.00000000E+00  0.00000000E+00
  0.00000000E+00  0.00000000E+00  0.00000000E+00
  0.00000000E+00  0.00000000E+00  0.00000000E+00
  0.00000000E+00  0.00000000E+00  0.00000000E+00
  0.00000000E+00  0.00000000E+00  0.00000000E+00
  0.00000000E+00  0.00000000E+00  0.00000000E+00
  0.00000000E+00  0.00000000E+00  0.00000000E+00
  0.00000000E+00  0.00000000E+00  0.00000000E+00
  0.00000000E+00  0.00000000E+00  0.00000000E+00
  0.00000000E+00  0.00000000E+00  0.00000000E+00
  0.00000000E+00  0.00000000E+00  0.00000000E+00
  0.00000000E+00  0.00000000E+00  0.00000000E+00
  0.00000000E+00  0.00000000E+00  0.00000000E+00
  0.00000000E+00  0.00000000E+00  0.00000000E+00
  0.00000000E+00  0.00000000E+00  0.00000000E+00
  0.00000000E+00  0.00000000E+00  0.00000000E+00
  0.00000000E+00  0.00000000E+00  0.00000000E+00
  0.00000000E+00  0.00000000E+00  0.00000000E+00
  0.00000000E+00  0.00000000E+00  0.00000000E+00
  0.00000000E+00  0.00000000E+00  0.00000000E+00
  0.00000000E+00  0.00000000E+00  0.00000000E+00
  0.00000000E+00  0.00000000E+00  0.00000000E+00
  0.00000000E+00  0.00000000E+00  0.00000000E+00
  0.00000000E+00  0.00000000E+00  0.00000000E+00
  0.00000000E+00  0.00000000E+00  0.00000000E+00
  0.00000000E+00  0.00000000E+00  0.00000000E+00
  0.00000000E+00  0.00000000E+00  0.00000000E+00
  0.00000000E+00  0.00000000E+00  0.00000000E+00
  0.00000000E+00  0.00000000E+00  0.00000000E+00
  0.00000000E+00  0.00000000E+00  0.00000000E+00
  0.00000000E+00  0.00000000E+00  0.00000000E+00
  0.00000000E+00  0.00000000E+00  0.00000000E+00
  0.00000000E+00  0.00000000E+00  0.00000000E+00
  0.00000000E+00  0.00000000E+00  0.00000000E+00
  0.00000000E+00  0.00000000E+00  0.00000000E+00
  0.00000000E+00  0.00000000E+00  0.00000000E+00
  0.00000000E+00  0.00000000E+00  0.00000000E+00
  0.00000000E+00  0.00000000E+00  0.00000000E+00
  0.00000000E+00  0.00000000E+00  0.00000000E+00
  0.00000000E+00  0.00000000E+00  0.00000000E+00
  0.00000000E+00  0.00000000E+00  0.00000000E+00
  0.00000000E+00  0.00000000E+00  0.00000000E+00
  0.00000000E+00  0.00000000E+00  0.00000000E+00
  0.00000000E+00  0.00000000E+00  0.00000000E+00
  0.00000000E+00  0.00000000E+00  0.00000000E+00
  0.00000000E+00  0.00000000E+00  0.00000000E+00
  0.00000000E+00  0.00000000E+00  0.00000000E+00
  0.00000000E+00  0.00000000E+00  0.00000000E+00
  0.00000000E+00  0.00000000E+00  0.00000000E+00
  0.00000000E+00  0.00000000E+00  0.00000000E+00
  0.00000000E+00  0.00000000E+00  0.00000000E+00
  0.00000000E+00  0.00000000E+00  0.00000000E+00
  0.00000000E+00  0.00000000E+00  0.00000000E+00
  0.00000000E+00  0.00000000E+00  0.00000000E+00
  0.00000000E+00  0.00000000E+00  0.00000000E+00
  0.00000000E+00  0.00000000E+00  0.00000000E+00
  0.00000000E+00  0.00000000E+00  0.00000000E+00
  0.00000000E+00  0.00000000E+00  0.00000000E+00
  0.00000000E+00  0.00000000E+00  0.00000000E+00
  0.00000000E+00  0.00000000E+00  0.00000000E+00
  0.00000000E+00  0.00000000E+00  0.00000000E+00
  0.00000000E+00  0.00000000E+00  0.00000000E+00
  0.00000000E+00  0.00000000E+00  0.00000000E+00
  0.00000000E+00  0.00000000E+00  0.00000000E+00
  0.00000000E+00  0.00000000E+00  0.00000000E+00
  0.00000000E+00  0.00000000E+00  0.00000000E+00
  0.00000000E+00  0.00000000E+00  0.00000000E+00
  0.00000000E+00  0.00000000E+00  0.00000000E+00
  0.00000000E+00  0.00000000E+00  0.00000000E+00
  0.00000000E+00  0.00000000E+00  0.00000000E+00
  0.00000000E+00  0.00000000E+00  0.00000000E+00
  0.00000000E+00  0.00000000E+00  0.00000000E+00
  0.00000000E+00  0.00000000E+00  0.00000000E+00
  0.00000000E+00  0.00000000E+00  0.00000000E+00
  0.00000000E+00  0.00000000E+00  0.00000000E+00
  0.00000000E+00  0.00000000E+00  0.00000000E+00
  0.00000000E+00  0.00000000E+00  0.00000000E+00
  0.00000000E+00  0.00000000E+00  0.00000000E+00
  0.00000000E+00  0.00000000E+00  0.00000000E+00
  0.00000000E+00  0.00000000E+00  0.00000000E+00
  0.00000000E+00  0.00000000E+00  0.00000000E+00
  0.00000000E+00  0.00000000E+00  0.00000000E+00
  0.00000000E+00  0.00000000E+00  0.00000000E+00
  0.00000000E+00  0.00000000E+00  0.00000000E+00
  0.00000000E+00  0.00000000E+00  0.00000000E+00
  0.00000000E+00  0.00000000E+00  0.00000000E+00
  0.00000000E+00  0.00000000E+00  0.00000000E+00
  0.00000000E+00  0.00000000E+00  0.00000000E+00
  0.00000000E+00  0.00000000E+00  0.00000000E+00