CuInSe2gb                               
   1.00000000000000     
     9.7266780392896699    0.0000000000000000    0.0000000000000000
     0.0000000000000000    8.4235502764570693    0.0000000000000000
     0.0000000000000000    0.0000000000000000   45.0000000000000000
   Fe   Mn
   274    14
Direct
  0.0620823846409284  0.0353733961348900  0.1252807701056252
  0.3130771493039233  0.8723561986408123  0.6543299481869504
  0.1878867940361874  0.1194802307760713  0.7874680362760044
  0.4382772092946102  0.2904501665912171  0.3897743277481399
  0.3137387713247994  0.7073941492293117  0.8322178168644199
  0.8144036901935894  0.2080223941217270  0.8327411720383369
  0.1878304596301970  0.9582769789721521  0.8324943350609627
  0.5627624688508212  0.2057695267906146  0.5655209067740962
  0.0624617537239891  0.0379838955556892  0.7432997267209575
  0.8120840173355798  0.8720683244242629  0.5214983233811353
  0.1876709334423990  0.2883487656019291  0.7432809962410893
  0.9372865638375097  0.4557838301905250  0.3456220184177538
  0.9371292210690346  0.2898578762997701  0.3898178039902889
  0.8127984418322468  0.0390048863688453  0.8745603113936770
  0.1868848097046274  0.7877137381845629  0.6101821406513760
  0.5624632512459804  0.0401230877026751  0.3898754521700877
  0.9392852113441937  0.9585268364074089  0.8326755544386016
  0.3138343847046964  0.5389599260404313  0.8746953566857099
  0.6880789643730840  0.2880683083164053  0.7432746592763815
  0.1874123293467879  0.6192126779486523  0.1673518703603195
  0.8115983919745930  0.2061204932285789  0.4784902365656883
  0.8119753144471944  0.5376039816151966  0.6103606635470645
  0.3125884167319581  0.8725239571577994  0.4346167595463439
  0.8113162681615801  0.0411634362770601  0.2568036227595548
  0.6869662540346464  0.9560959092298177  0.3456246987590254
  0.9360887106058673  0.1192194434099521  0.1676006860027421
  0.0627527362670951  0.8722374339596634  0.5215742866188998
  0.5614885349994605  0.5411821935865219  0.2567779370203107
  0.6878646176395353  0.7887846437641951  0.8745556456547764
  0.5621887661186885  0.3696085528209268  0.1672495743770992
  0.4378163820437646  0.7883036606582106  0.7432845104376390
  0.8122601582561972  0.7055821114738924  0.5653688620459794
  0.5627536066785829  0.8692561272167133  0.7874636805552693
  0.6871261634505437  0.1215451732912509  0.5215190977703373
  0.8130479923315926  0.3724342085608616  0.6544629495837727
  0.9388090526734458  0.4580416006947010  0.8326750809519046
  0.0623588373346769  0.2061506211328408  0.6990071011273280
  0.4374398204403339  0.9561053164893435  0.6989184964167979
  0.3133321000168928  0.2069963335418935  0.8327438588332619
  0.4380728358435326  0.6223038654290032  0.6543621964873534
  0.3117857396021796  0.5379642011551257  0.6103030726507298
  0.9373723438713342  0.4557359388109674  0.5654535726277405
  0.6878373371607143  0.7883555939373799  0.7433588972993669
  0.9365383483114857  0.7872878863572758  0.1255252914170485
  0.6880456120875934  0.7895371087098286  0.3896977516297086
  0.9379677116771616  0.7880948495748918  0.7432921426880923
  0.0624124518245455  0.2060475654535832  0.3456610212615947
  0.8126980094609824  0.0401136038390316  0.3898935076730647
  0.4376507876182042  0.1195308256435618  0.7875577118289282
  0.0618479187458395  0.2067118466470235  0.2124884904678416
  0.0609515270764443  0.3694951237611067  0.1672463459092831
  0.9360399836639862  0.7914701194981605  0.2567643206509353
  0.5623786460188269  0.2059417787765971  0.6989793476908747
  0.6873028337297892  0.9558990502989045  0.6989958870129116
  0.8120587666718212  0.8695110621330068  0.7874005482580431
  0.4372304286139652  0.9556762990781111  0.5651725674888204
  0.8127226884498885  0.3696432685555409  0.7874540473587553
  0.6860040097315011  0.2912867871983905  0.2568094388196100
  0.1876287263070969  0.4560234494577790  0.5653957375781258
  0.0620527170595439  0.8694833381357499  0.1673292908661899
  0.1868758995515655  0.2878315495362478  0.6102292637546405
  0.5626224155681789  0.7059839594371025  0.3457283103389128
  0.3124706875741939  0.2060629589941451  0.6990345618239497
  0.5637010536882544  0.5394626272920714  0.8746024583629596
  0.0624429287569785  0.7057516699274484  0.5653509208540535
  0.6878827034886105  0.6196278544469699  0.7875443843583402
  0.3125391094938265  0.5401749402332513  0.3898277639712832
  0.1876671772570335  0.6223074796030083  0.5214696397781138
  0.5625964914684680  0.8724415865424711  0.4346558578025687
  0.4370977124945379  0.4563165120702292  0.5654098745410072
  0.4380112708849785  0.2885425901868368  0.7433267600258842
  0.8127769835667987  0.8750904624437210  0.3010725334649074
  0.8123636281678108  0.7057698090772919  0.3457399159113758
  0.4386345776638659  0.4574871595583989  0.8325920605614965
  0.6880387364543188  0.9559399496078888  0.4784508530344227
  0.6874377960382356  0.4558765335155974  0.6989240494820028
  0.5625400404248615  0.8718591813787255  0.5214375382030113
  0.5634255110706038  0.3720461826955354  0.6542583783878956
  0.8133049516042851  0.8722484935820650  0.6543901890994387
  0.8129974787345859  0.3726265037011746  0.4344871824500803
  0.8114512954490228  0.5409210481853228  0.2567835368381662
  0.6892216359763085  0.4572987726978862  0.8326537273660226
  0.1879478391925716  0.7866435782250865  0.1250217454777772
  0.6876384279558844  0.2899257154177743  0.3897758787870360
  0.3132791943833950  0.3723654328419930  0.6544201628064767
  0.3124312845526606  0.2059055307412822  0.3456370436924135
  0.8130167760559983  0.5376125451911211  0.7432541948338015
  0.6882975938727118  0.9578661120280793  0.8324791431057252
  0.5631371665361936  0.8724618298033052  0.6542907330578781
  0.3128195273005962  0.7055854987443664  0.5654865133189997
  0.3124656486502907  0.5370437609535242  0.1251441046643979
  0.6868921021051083  0.9569715116481945  0.2125603777074437
  0.3129310743298884  0.2062148652516387  0.5654643936786041
  0.1867752544513432  0.9558005609697873  0.4783689443167044
  0.6881985074315642  0.9559035928914241  0.5654862538471034
  0.4367156305078828  0.7878955096500545  0.6101804625768275
  0.6863461151989877  0.6178917346044881  0.1675212682259643
  0.3125735872090907  0.8742594789826208  0.3010527778357039
  0.3124679902874793  0.7049260044084625  0.4784126828854467
  0.9366076173814611  0.2876651463222776  0.6102524048213035
  0.4384594430237189  0.6246267933883625  0.3010803155872091
  0.8115277853911480  0.8688582482665117  0.1674964550426090
  0.5629468202963438  0.2066646621676929  0.2124681508708446
  0.9368350527617900  0.6179210246376442  0.1674980362982927
  0.9385338811542734  0.7874930370736849  0.8746649993770226
  0.5625664909744121  0.3694427253129081  0.7875138893735419
  0.0621497524723040  0.3724621451176434  0.5215131780726430
  0.3114542333872468  0.3677300673958278  0.1674731018111910
  0.6879149867627128  0.1251089885553756  0.3011405564253888
  0.4389714372844113  0.9571638978313771  0.8324474165321700
  0.1875739273385031  0.2869890874311320  0.1254402388112519
  0.1859826173528521  0.2908156794741898  0.2568079355636232
  0.3125960679319835  0.3726068874551571  0.4345099402831984
  0.5627813057426966  0.0355665747086652  0.1253437957850894
  0.4368569909283302  0.2878960349453371  0.6101494419184582
  0.1869062850749785  0.4562709277109673  0.3457375959777523
  0.4367043925315358  0.2868940089657098  0.1254637499890191
  0.6862531323894813  0.7916695804695857  0.2567498032439285
  0.4369374142328822  0.1225458141213236  0.5214563772910290
  0.1894642739025496  0.2893415428780096  0.8748268170341912
  0.1880514544154297  0.1223420823050300  0.6544549651410838
  0.9382533047959922  0.1222368858490163  0.6544354925864488
  0.8125955012219173  0.5394438701096607  0.3898520077270042
  0.0621448057603917  0.0399628990977222  0.3897987835756642
  0.1863516124937886  0.1179491429339499  0.1672522224624068
  0.0618134387863600  0.5376434587788552  0.6102316308842246
  0.9362503370379054  0.2911440536019643  0.2567469815313222
  0.5619161076552084  0.5378460670361012  0.6101534409073445
  0.9373538824474910  0.9556736377719370  0.5654738358563890
  0.6878494781180061  0.6251787657755531  0.3010867971403037
  0.9376513927763741  0.6227401221054527  0.4346420747011853
  0.9374072523131759  0.6206050516766327  0.7873508930002450
  0.5622358312337798  0.7057644958783880  0.6989743189704996
  0.0635174385374691  0.7089427273547083  0.8326006089809309
  0.9379115026475191  0.1249656966986356  0.3011058674790151
  0.9367870466012430  0.7875108843143164  0.6102643357278085
  0.4360595386653372  0.7911375420744224  0.2568539404025391
  0.3127577393574095  0.3693780333921146  0.7874915245580996
  0.4380634975016308  0.4572911758313892  0.2124527258064063
  0.1879219201200921  0.1214894143288038  0.5214703034799553
  0.8123246797206849  0.7060674748733257  0.6990095649879158
  0.0616136507766401  0.0376808907089611  0.6102003301827607
  0.5630132954080469  0.2072556005525260  0.8323577760679735
  0.3117261913131084  0.8717394472259782  0.5214354375193259
  0.6875740131709940  0.2871013773628222  0.1252887769130631
  0.1867212945290815  0.9575943045858361  0.2125913879913695
  0.6866763449517982  0.2880283170229325  0.6102546656048400
  0.3119323798024047  0.0375971471402640  0.6102984826106268
  0.9376702367540324  0.1198116656461283  0.7876490390174898
  0.4384134337813228  0.7887695093000299  0.8745498380673088
  0.8129728337775751  0.0382662408404530  0.7432171582985990
  0.9374988616338596  0.4557917732356577  0.6990598394221297
  0.1883692862749602  0.6219997982013735  0.6543387111018958
  0.3125144718334785  0.7061588101777954  0.6989491981609205
  0.9368350524467230  0.2869377681086814  0.1252865931142128
  0.4370622093799598  0.4555843240525120  0.4785213108848786
  0.0624599122481139  0.7051815253892342  0.4784756946774715
  0.9372333585050606  0.1223099595151875  0.4348628254139232
  0.4378029896085226  0.1247624750977123  0.3011097520669723
  0.1880404587841222  0.1223576109249165  0.4344414352878824
  0.5637090003706513  0.0380416588105477  0.8746018870928716
  0.1872423917231723  0.9560481986503673  0.5655658012546860
  0.6878857273099819  0.7872473435382246  0.1255393323058438
  0.5631534042856502  0.5354599075261668  0.1252848553405840
  0.3129192092351474  0.0399297836505070  0.3898353508208949
  0.6869008665172003  0.1193171340464500  0.1676383693884531
  0.8125442119485778  0.2066146646933761  0.2124788575374650
  0.0613636338620140  0.5410344343866581  0.2567783430406978
  0.5623685111316337  0.7048981334770498  0.4784782667224735
  0.4367010125080125  0.7867126756389777  0.1250333437437300
  0.5627874087641730  0.3750801835241087  0.3011415059512408
  0.4368161963190229  0.9560358705977762  0.3457107952411410
  0.1873818769536758  0.9561498769384602  0.6990234530038598
  0.4357320869878580  0.6194422498065228  0.1673435784050691
  0.9380128346726367  0.4573516356757125  0.2126385671349922
  0.0616774384634210  0.5352385268454243  0.1252522906358621
  0.8127787282352720  0.3722071400821240  0.5215815742972332
  0.9378718044841018  0.6249206227646006  0.3009989026557170
  0.3113081715570396  0.0406083832617598  0.2567040640613192
  0.6868605983269793  0.7877334082839740  0.6102042673946054
  0.1884632605413978  0.4577800617101451  0.8327494079406310
  0.4366757379912518  0.1180125485908478  0.1673536332141694
  0.3117578768279115  0.3717371210972024  0.5215400567277070
  0.4377633879134750  0.6192525070888355  0.7875330652358791
  0.0610853072958407  0.0409356582190866  0.2567361006079519
  0.5623586246277748  0.7054783405673551  0.5655485591109932
  0.9379632680677986  0.2878218999198134  0.7433174709976240
  0.6872717556754514  0.1195385296125867  0.7873789999041270
  0.1866288570686114  0.4573012500973003  0.2124395008718069
  0.9375850168897596  0.7900281872746896  0.3898236557615790
  0.6873706270048801  0.2894371840163817  0.8747881972825061
  0.5608444833163381  0.8696071098777084  0.1673290709612019
  0.4375189953617731  0.4558714710050241  0.6989903959851427
  0.9375665299461539  0.9560312017220577  0.3456485756403629
  0.6869511599139193  0.6225303472870045  0.5215059214808262
  0.0631551371543252  0.8718237439609112  0.6544622185115369
  0.0627035682244400  0.8696715466731105  0.7874608200932156
  0.0630673631592759  0.3721496182390061  0.6543478717953188
  0.6879660745679856  0.4555146787606770  0.4785107998807955
  0.1860818957924545  0.7913165471856954  0.2568261564905142
  0.4376384065245866  0.1229613242759092  0.4344537287725190
  0.8123335787004501  0.0365487139532303  0.1254765704644284
  0.9371959065748913  0.6220605163385551  0.5214684469767831
  0.0627905160472947  0.8725837978105879  0.4345644391601197
  0.8123921416215106  0.5358804863132781  0.1250595387009580
  0.4367524297797858  0.4560770652687128  0.3457358062504504
  0.8124928403723686  0.2058992424050234  0.3456960400282492
  0.3125365372084680  0.7067214794789153  0.3456425629402137
  0.6880903498947573  0.1223302785232894  0.6543974113147788
  0.5628495181804587  0.8750913831781878  0.3011740407265434
  0.0626974774190529  0.5374882563792520  0.7432638363056485
  0.9380591698969023  0.9568879498642233  0.2124718820697484
  0.8124354876371945  0.7066426498280149  0.2124352867516432
  0.0624575971256547  0.8748674668763181  0.3011484348346482
  0.1878037660041772  0.1250208033411143  0.3010605399196454
  0.0622664314352793  0.7064099541138726  0.3457262140054039
  0.8120133623706076  0.0379696676977661  0.6102065874558266
  0.0627320988430679  0.3727508437402827  0.4344386403024556
  0.5620309655339809  0.2058813869869034  0.3456732610673072
  0.8126256354742588  0.3749492514497449  0.3010515445734048
  0.5615041974591438  0.0413115203664827  0.2567989932795373
  0.5624785727614122  0.5396237332297091  0.3898375707893134
  0.0628251934056503  0.2056811130607885  0.4785694915692962
  0.3130167306443337  0.8689391492295631  0.7872983507899364
  0.9374410082467679  0.9561754192156054  0.6989575847420746
  0.0627365704100989  0.3751533699342581  0.3011575787377630
  0.6882322260085999  0.6224220973879862  0.6544187634612507
  0.6878551550841778  0.4561504486799571  0.5654425777677734
  0.4380180835874667  0.9576448143537921  0.2126551820268688
  0.3122076976936264  0.2056358480292154  0.4783682377379664
  0.4382741425293333  0.1224959591114065  0.6543502112480144
  0.6875183372963459  0.6229207837533963  0.4344474135528240
  0.8124945091150789  0.2059431057472401  0.6990239126346856
  0.8121250355982664  0.7051580001262528  0.4784374005133267
  0.8127371581947240  0.8724694404735306  0.4345305009166922
  0.9375176669870311  0.9546775069851380  0.4785410235797164
  0.5628217577019022  0.2052432115172516  0.4784551105405598
  0.1874103971430640  0.6224581295423914  0.4345958770262038
  0.3126488762104200  0.0383590603739278  0.7432164083664856
  0.9380787527733645  0.6222294665137283  0.6543149642043882
  0.5638485056347622  0.7076123861058360  0.8325143248855044
  0.3125348804213923  0.3745989314752083  0.3011355318268301
  0.5627049007694569  0.7068470287600831  0.2124031209097980
  0.1872840723403286  0.4551267165186582  0.4784029533805409
  0.3144382429241683  0.0399126807704788  0.8744824881511634
  0.1872551231736133  0.4561168132110618  0.6989589351648324
  0.8130335668605781  0.5386529422990189  0.8747146343825920
  0.1875745930239195  0.2899758090150470  0.3898515553122487
  0.4373967126246373  0.6232575064918098  0.4345370386335086
  0.0622912104468470  0.7067604867676471  0.2123857473802065
  0.5624451942531562  0.3726153723636152  0.4348527878370392
  0.4372748219756709  0.6227655568186843  0.5214721963009463
  0.8134851662156204  0.7079136511000339  0.8322459528330443
  0.0629145308312915  0.3702412529519664  0.7874695668876097
  0.4376754253531027  0.2895902041777957  0.8748030662382047
  0.3123344179393515  0.0360164656811373  0.1249282386274675
  0.6873089247822177  0.1219374511955363  0.4344209869317069
  0.1870045451925918  0.9559052204018996  0.3457151906688455
  0.0632500182219388  0.2077615187967438  0.8326493538352102
  0.5617805847573334  0.0376393776698557  0.6102623856508758
  0.6870617700761046  0.4573449467121696  0.2126217092548762
  0.1876837698339639  0.7878248641419211  0.7432641140092503
  0.1879103006089365  0.6247457013544370  0.3011569693001036
  0.4379542695714372  0.7901661088759175  0.3898693788699090
  0.4358000437400948  0.2909290128678889  0.2567108637383505
  0.0648682649026720  0.5396743411672998  0.8746560128590736
  0.5634332079668999  0.0381481701509564  0.7433502317728148
  0.1882205453615002  0.7887112608082072  0.8746118298687704
  0.9374064017339028  0.4550169027609138  0.4784178658317801
  0.5632401948004592  0.5384683440573588  0.7431808159870055
  0.8115494992205275  0.2060120266783684  0.5653679555772930
  0.1878129803969831  0.6196552150294649  0.7875270162276868
  0.0625355928852177  0.5397328440322350  0.3898164309801560
  0.0625913417152659  0.7060481654843007  0.6990105835796703
  0.3111971207358450  0.5406112326698936  0.2564971917363673
  0.3124344958358647  0.7068857775504437  0.2126513965562357
  0.3113241757937765  0.8690449044632512  0.1666664475903280
  0.3127299297251603  0.2072841191398619  0.2127081291904867
  0.6869988035181315  0.4555547628042936  0.3456719982034072
  0.9368060665503721  0.2903633978867623  0.8746180400444380
  0.4374515499681598  0.9554325395793618  0.4786155839443899
  0.0639180139689011  0.0365678742263825  0.8744886948330766
  0.1877784669560104  0.7901157404429251  0.3897654701315007
  0.8114401608874171  0.3693931868852165  0.1668869580088108
  0.5624038033631914  0.3721857035884699  0.5214112208677405
  0.9372323106832383  0.1219250507230876  0.5212597105276886
  0.0632881158976653  0.2062235719066950  0.5655988600560907
  0.3129369311978043  0.5377968378495737  0.7433549413168286
 
  0.00000000E+00  0.00000000E+00  0.00000000E+00
  0.00000000E+00  0.00000000E+00  0.00000000E+00
  0.00000000E+00  0.00000000E+00  0.00000000E+00
  0.00000000E+00  0.00000000E+00  0.00000000E+00
  0.00000000E+00  0.00000000E+00  0.00000000E+00
  0.00000000E+00  0.00000000E+00  0.00000000E+00
  0.00000000E+00  0.00000000E+00  0.00000000E+00
  0.00000000E+00  0.00000000E+00  0.00000000E+00
  0.00000000E+00  0.00000000E+00  0.00000000E+00
  0.00000000E+00  0.00000000E+00  0.00000000E+00
  0.00000000E+00  0.00000000E+00  0.00000000E+00
  0.00000000E+00  0.00000000E+00  0.00000000E+00
  0.00000000E+00  0.00000000E+00  0.00000000E+00
  0.00000000E+00  0.00000000E+00  0.00000000E+00
  0.00000000E+00  0.00000000E+00  0.00000000E+00
  0.00000000E+00  0.00000000E+00  0.00000000E+00
  0.00000000E+00  0.00000000E+00  0.00000000E+00
  0.00000000E+00  0.00000000E+00  0.00000000E+00
  0.00000000E+00  0.00000000E+00  0.00000000E+00
  0.00000000E+00  0.00000000E+00  0.00000000E+00
  0.00000000E+00  0.00000000E+00  0.00000000E+00
  0.00000000E+00  0.00000000E+00  0.00000000E+00
  0.00000000E+00  0.00000000E+00  0.00000000E+00
  0.00000000E+00  0.00000000E+00  0.00000000E+00
  0.00000000E+00  0.00000000E+00  0.00000000E+00
  0.00000000E+00  0.00000000E+00  0.00000000E+00
  0.00000000E+00  0.00000000E+00  0.00000000E+00
  0.00000000E+00  0.00000000E+00  0.00000000E+00
  0.00000000E+00  0.00000000E+00  0.00000000E+00
  0.00000000E+00  0.00000000E+00  0.00000000E+00
  0.00000000E+00  0.00000000E+00  0.00000000E+00
  0.00000000E+00  0.00000000E+00  0.00000000E+00
  0.00000000E+00  0.00000000E+00  0.00000000E+00
  0.00000000E+00  0.00000000E+00  0.00000000E+00
  0.00000000E+00  0.00000000E+00  0.00000000E+00
  0.00000000E+00  0.00000000E+00  0.00000000E+00
  0.00000000E+00  0.00000000E+00  0.00000000E+00
  0.00000000E+00  0.00000000E+00  0.00000000E+00
  0.00000000E+00  0.00000000E+00  0.00000000E+00
  0.00000000E+00  0.00000000E+00  0.00000000E+00
  0.00000000E+00  0.00000000E+00  0.00000000E+00
  0.00000000E+00  0.00000000E+00  0.00000000E+00
  0.00000000E+00  0.00000000E+00  0.00000000E+00
  0.00000000E+00  0.00000000E+00  0.00000000E+00
  0.00000000E+00  0.00000000E+00  0.00000000E+00
  0.00000000E+00  0.00000000E+00  0.00000000E+00
  0.00000000E+00  0.00000000E+00  0.00000000E+00
  0.00000000E+00  0.00000000E+00  0.00000000E+00
  0.00000000E+00  0.00000000E+00  0.00000000E+00
  0.00000000E+00  0.00000000E+00  0.00000000E+00
  0.00000000E+00  0.00000000E+00  0.00000000E+00
  0.00000000E+00  0.00000000E+00  0.00000000E+00
  0.00000000E+00  0.00000000E+00  0.00000000E+00
  0.00000000E+00  0.00000000E+00  0.00000000E+00
  0.00000000E+00  0.00000000E+00  0.00000000E+00
  0.00000000E+00  0.00000000E+00  0.00000000E+00
  0.00000000E+00  0.00000000E+00  0.00000000E+00
  0.00000000E+00  0.00000000E+00  0.00000000E+00
  0.00000000E+00  0.00000000E+00  0.00000000E+00
  0.00000000E+00  0.00000000E+00  0.00000000E+00
  0.00000000E+00  0.00000000E+00  0.00000000E+00
  0.00000000E+00  0.00000000E+00  0.00000000E+00
  0.00000000E+00  0.00000000E+00  0.00000000E+00
  0.00000000E+00  0.00000000E+00  0.00000000E+00
  0.00000000E+00  0.00000000E+00  0.00000000E+00
  0.00000000E+00  0.00000000E+00  0.00000000E+00
  0.00000000E+00  0.00000000E+00  0.00000000E+00
  0.00000000E+00  0.00000000E+00  0.00000000E+00
  0.00000000E+00  0.00000000E+00  0.00000000E+00
  0.00000000E+00  0.00000000E+00  0.00000000E+00
  0.00000000E+00  0.00000000E+00  0.00000000E+00
  0.00000000E+00  0.00000000E+00  0.00000000E+00
  0.00000000E+00  0.00000000E+00  0.00000000E+00
  0.00000000E+00  0.00000000E+00  0.00000000E+00
  0.00000000E+00  0.00000000E+00  0.00000000E+00
  0.00000000E+00  0.00000000E+00  0.00000000E+00
  0.00000000E+00  0.00000000E+00  0.00000000E+00
  0.00000000E+00  0.00000000E+00  0.00000000E+00
  0.00000000E+00  0.00000000E+00  0.00000000E+00
  0.00000000E+00  0.00000000E+00  0.00000000E+00
  0.00000000E+00  0.00000000E+00  0.00000000E+00
  0.00000000E+00  0.00000000E+00  0.00000000E+00
  0.00000000E+00  0.00000000E+00  0.00000000E+00
  0.00000000E+00  0.00000000E+00  0.00000000E+00
  0.00000000E+00  0.00000000E+00  0.00000000E+00
  0.00000000E+00  0.00000000E+00  0.00000000E+00
  0.00000000E+00  0.00000000E+00  0.00000000E+00
  0.00000000E+00  0.00000000E+00  0.00000000E+00
  0.00000000E+00  0.00000000E+00  0.00000000E+00
  0.00000000E+00  0.00000000E+00  0.00000000E+00
  0.00000000E+00  0.00000000E+00  0.00000000E+00
  0.00000000E+00  0.00000000E+00  0.00000000E+00
  0.00000000E+00  0.00000000E+00  0.00000000E+00
  0.00000000E+00  0.00000000E+00  0.00000000E+00
  0.00000000E+00  0.00000000E+00  0.00000000E+00
  0.00000000E+00  0.00000000E+00  0.00000000E+00
  0.00000000E+00  0.00000000E+00  0.00000000E+00
  0.00000000E+00  0.00000000E+00  0.00000000E+00
  0.00000000E+00  0.00000000E+00  0.00000000E+00
  0.00000000E+00  0.00000000E+00  0.00000000E+00
  0.00000000E+00  0.00000000E+00  0.00000000E+00
  0.00000000E+00  0.00000000E+00  0.00000000E+00
  0.00000000E+00  0.00000000E+00  0.00000000E+00
  0.00000000E+00  0.00000000E+00  0.00000000E+00
  0.00000000E+00  0.00000000E+00  0.00000000E+00
  0.00000000E+00  0.00000000E+00  0.00000000E+00
  0.00000000E+00  0.00000000E+00  0.00000000E+00
  0.00000000E+00  0.00000000E+00  0.00000000E+00
  0.00000000E+00  0.00000000E+00  0.00000000E+00
  0.00000000E+00  0.00000000E+00  0.00000000E+00
  0.00000000E+00  0.00000000E+00  0.00000000E+00
  0.00000000E+00  0.00000000E+00  0.00000000E+00
  0.00000000E+00  0.00000000E+00  0.00000000E+00
  0.00000000E+00  0.00000000E+00  0.00000000E+00
  0.00000000E+00  0.00000000E+00  0.00000000E+00
  0.00000000E+00  0.00000000E+00  0.00000000E+00
  0.00000000E+00  0.00000000E+00  0.00000000E+00
  0.00000000E+00  0.00000000E+00  0.00000000E+00
  0.00000000E+00  0.00000000E+00  0.00000000E+00
  0.00000000E+00  0.00000000E+00  0.00000000E+00
  0.00000000E+00  0.00000000E+00  0.00000000E+00
  0.00000000E+00  0.00000000E+00  0.00000000E+00
  0.00000000E+00  0.00000000E+00  0.00000000E+00
  0.00000000E+00  0.00000000E+00  0.00000000E+00
  0.00000000E+00  0.00000000E+00  0.00000000E+00
  0.00000000E+00  0.00000000E+00  0.00000000E+00
  0.00000000E+00  0.00000000E+00  0.00000000E+00
  0.00000000E+00  0.00000000E+00  0.00000000E+00
  0.00000000E+00  0.00000000E+00  0.00000000E+00
  0.00000000E+00  0.00000000E+00  0.00000000E+00
  0.00000000E+00  0.00000000E+00  0.00000000E+00
  0.00000000E+00  0.00000000E+00  0.00000000E+00
  0.00000000E+00  0.00000000E+00  0.00000000E+00
  0.00000000E+00  0.00000000E+00  0.00000000E+00
  0.00000000E+00  0.00000000E+00  0.00000000E+00
  0.00000000E+00  0.00000000E+00  0.00000000E+00
  0.00000000E+00  0.00000000E+00  0.00000000E+00
  0.00000000E+00  0.00000000E+00  0.00000000E+00
  0.00000000E+00  0.00000000E+00  0.00000000E+00
  0.00000000E+00  0.00000000E+00  0.00000000E+00
  0.00000000E+00  0.00000000E+00  0.00000000E+00
  0.00000000E+00  0.00000000E+00  0.00000000E+00
  0.00000000E+00  0.00000000E+00  0.00000000E+00
  0.00000000E+00  0.00000000E+00  0.00000000E+00
  0.00000000E+00  0.00000000E+00  0.00000000E+00
  0.00000000E+00  0.00000000E+00  0.00000000E+00
  0.00000000E+00  0.00000000E+00  0.00000000E+00
  0.00000000E+00  0.00000000E+00  0.00000000E+00
  0.00000000E+00  0.00000000E+00  0.00000000E+00
  0.00000000E+00  0.00000000E+00  0.00000000E+00
  0.00000000E+00  0.00000000E+00  0.00000000E+00
  0.00000000E+00  0.00000000E+00  0.00000000E+00
  0.00000000E+00  0.00000000E+00  0.00000000E+00
  0.00000000E+00  0.00000000E+00  0.00000000E+00
  0.00000000E+00  0.00000000E+00  0.00000000E+00
  0.00000000E+00  0.00000000E+00  0.00000000E+00
  0.00000000E+00  0.00000000E+00  0.00000000E+00
  0.00000000E+00  0.00000000E+00  0.00000000E+00
  0.00000000E+00  0.00000000E+00  0.00000000E+00
  0.00000000E+00  0.00000000E+00  0.00000000E+00
  0.00000000E+00  0.00000000E+00  0.00000000E+00
  0.00000000E+00  0.00000000E+00  0.00000000E+00
  0.00000000E+00  0.00000000E+00  0.00000000E+00
  0.00000000E+00  0.00000000E+00  0.00000000E+00
  0.00000000E+00  0.00000000E+00  0.00000000E+00
  0.00000000E+00  0.00000000E+00  0.00000000E+00
  0.00000000E+00  0.00000000E+00  0.00000000E+00
  0.00000000E+00  0.00000000E+00  0.00000000E+00
  0.00000000E+00  0.00000000E+00  0.00000000E+00
  0.00000000E+00  0.00000000E+00  0.00000000E+00
  0.00000000E+00  0.00000000E+00  0.00000000E+00
  0.00000000E+00  0.00000000E+00  0.00000000E+00
  0.00000000E+00  0.00000000E+00  0.00000000E+00
  0.00000000E+00  0.00000000E+00  0.00000000E+00
  0.00000000E+00  0.00000000E+00  0.00000000E+00
  0.00000000E+00  0.00000000E+00  0.00000000E+00
  0.00000000E+00  0.00000000E+00  0.00000000E+00
  0.00000000E+00  0.00000000E+00  0.00000000E+00
  0.00000000E+00  0.00000000E+00  0.00000000E+00
  0.00000000E+00  0.00000000E+00  0.00000000E+00
  0.00000000E+00  0.00000000E+00  0.00000000E+00
  0.00000000E+00  0.00000000E+00  0.00000000E+00
  0.00000000E+00  0.00000000E+00  0.00000000E+00
  0.00000000E+00  0.00000000E+00  0.00000000E+00
  0.00000000E+00  0.00000000E+00  0.00000000E+00
  0.00000000E+00  0.00000000E+00  0.00000000E+00
  0.00000000E+00  0.00000000E+00  0.00000000E+00
  0.00000000E+00  0.00000000E+00  0.00000000E+00
  0.00000000E+00  0.00000000E+00  0.00000000E+00
  0.00000000E+00  0.00000000E+00  0.00000000E+00
  0.00000000E+00  0.00000000E+00  0.00000000E+00
  0.00000000E+00  0.00000000E+00  0.00000000E+00
  0.00000000E+00  0.00000000E+00  0.00000000E+00
  0.00000000E+00  0.00000000E+00  0.00000000E+00
  0.00000000E+00  0.00000000E+00  0.00000000E+00
  0.00000000E+00  0.00000000E+00  0.00000000E+00
  0.00000000E+00  0.00000000E+00  0.00000000E+00
  0.00000000E+00  0.00000000E+00  0.00000000E+00
  0.00000000E+00  0.00000000E+00  0.00000000E+00
  0.00000000E+00  0.00000000E+00  0.00000000E+00
  0.00000000E+00  0.00000000E+00  0.00000000E+00
  0.00000000E+00  0.00000000E+00  0.00000000E+00
  0.00000000E+00  0.00000000E+00  0.00000000E+00
  0.00000000E+00  0.00000000E+00  0.00000000E+00
  0.00000000E+00  0.00000000E+00  0.00000000E+00
  0.00000000E+00  0.00000000E+00  0.00000000E+00
  0.00000000E+00  0.00000000E+00  0.00000000E+00
  0.00000000E+00  0.00000000E+00  0.00000000E+00
  0.00000000E+00  0.00000000E+00  0.00000000E+00
  0.00000000E+00  0.00000000E+00  0.00000000E+00
  0.00000000E+00  0.00000000E+00  0.00000000E+00
  0.00000000E+00  0.00000000E+00  0.00000000E+00
  0.00000000E+00  0.00000000E+00  0.00000000E+00
  0.00000000E+00  0.00000000E+00  0.00000000E+00
  0.00000000E+00  0.00000000E+00  0.00000000E+00
  0.00000000E+00  0.00000000E+00  0.00000000E+00
  0.00000000E+00  0.00000000E+00  0.00000000E+00
  0.00000000E+00  0.00000000E+00  0.00000000E+00
  0.00000000E+00  0.00000000E+00  0.00000000E+00
  0.00000000E+00  0.00000000E+00  0.00000000E+00
  0.00000000E+00  0.00000000E+00  0.00000000E+00
  0.00000000E+00  0.00000000E+00  0.00000000E+00
  0.00000000E+00  0.00000000E+00  0.00000000E+00
  0.00000000E+00  0.00000000E+00  0.00000000E+00
  0.00000000E+00  0.00000000E+00  0.00000000E+00
  0.00000000E+00  0.00000000E+00  0.00000000E+00
  0.00000000E+00  0.00000000E+00  0.00000000E+00
  0.00000000E+00  0.00000000E+00  0.00000000E+00
  0.00000000E+00  0.00000000E+00  0.00000000E+00
  0.00000000E+00  0.00000000E+00  0.00000000E+00
  0.00000000E+00  0.00000000E+00  0.00000000E+00
  0.00000000E+00  0.00000000E+00  0.00000000E+00
  0.00000000E+00  0.00000000E+00  0.00000000E+00
  0.00000000E+00  0.00000000E+00  0.00000000E+00
  0.00000000E+00  0.00000000E+00  0.00000000E+00
  0.00000000E+00  0.00000000E+00  0.00000000E+00
  0.00000000E+00  0.00000000E+00  0.00000000E+00
  0.00000000E+00  0.00000000E+00  0.00000000E+00
  0.00000000E+00  0.00000000E+00  0.00000000E+00
  0.00000000E+00  0.00000000E+00  0.00000000E+00
  0.00000000E+00  0.00000000E+00  0.00000000E+00
  0.00000000E+00  0.00000000E+00  0.00000000E+00
  0.00000000E+00  0.00000000E+00  0.00000000E+00
  0.00000000E+00  0.00000000E+00  0.00000000E+00
  0.00000000E+00  0.00000000E+00  0.00000000E+00
  0.00000000E+00  0.00000000E+00  0.00000000E+00
  0.00000000E+00  0.00000000E+00  0.00000000E+00