CuInSe2gb                               
   1.00000000000000     
     9.7266780392896699    0.0000000000000000    0.0000000000000000
     0.0000000000000000    8.4235502764570693    0.0000000000000000
     0.0000000000000000    0.0000000000000000   45.0000000000000000
   Fe   Mn
   274    14
Direct
  0.0625426012333102  0.0330472985115698  0.1249393871215869
  0.3144101794233796  0.8728852695384562  0.6544306154158810
  0.1874948057557480  0.1172426176925048  0.7875057516490601
  0.4381856837788304  0.2909558218200077  0.3893582390496358
  0.3151959359198540  0.7100163390375265  0.8318931058210508
  0.8153082707984110  0.2119637510277295  0.8329497484383447
  0.1878974284844191  0.9606167550204877  0.8325213674706915
  0.5636625300717087  0.2073297248171058  0.5653508829708386
  0.0626077739784396  0.0371228849032519  0.7434205494243045
  0.8124954141616816  0.8706070834160440  0.5212147429262796
  0.1903630245022202  0.2884649425348731  0.7434326922782746
  0.9363599236390234  0.4541650729466141  0.3456078931043521
  0.9369242856887616  0.2905186759283063  0.3896902633738052
  0.8135559906003511  0.0352110608199699  0.8745778324402009
  0.1850894899997959  0.7866122471309931  0.6103453203677081
  0.5627867572773100  0.0405920965473252  0.3898230459962722
  0.9390647187015956  0.9610346090819003  0.8327230455470001
  0.3157694934415762  0.5364097636727216  0.8750822840839725
  0.6878705346224514  0.2873699436161432  0.7432326964998287
  0.1877469741518411  0.6171592437838812  0.1672298760271982
  0.8118825163303884  0.2058815916989326  0.4787683487816080
  0.8115139957529363  0.5363911300025921  0.6104924328818383
  0.3126261235381279  0.8721660205285132  0.4345459575402184
  0.8104652604787210  0.0419639199133042  0.2570283679505143
  0.6863236411136777  0.9541836363901822  0.3454777657786142
  0.9351196043194124  0.1181391860762971  0.1680299067622253
  0.0626244420875425  0.8713080059779719  0.5212464001548041
  0.5600258423210509  0.5422619921130529  0.2566480646289168
  0.6867489255892214  0.7911023405990714  0.8746677116307577
  0.5626302538032385  0.3677400134649751  0.1673078196981977
  0.4375022273613797  0.7878828603721773  0.7434444323823690
  0.8124099680325865  0.7068396833136191  0.5650555773141772
  0.5624356060299631  0.8676414085995691  0.7876040080229073
  0.6866530902397427  0.1208504248041496  0.5212000900264804
  0.8141787158568848  0.3726482452692390  0.6545741000905447
  0.9387679475545665  0.4595947010939516  0.8326171471459672
  0.0620431054673442  0.2074351715202016  0.6990393667827206
  0.4367703264465457  0.9573302446868521  0.6988850728047651
  0.3135353647529235  0.2085324743808320  0.8327084562363214
  0.4391392630725722  0.6224087217079449  0.6544295952396201
  0.3114199710368564  0.5367745821357921  0.6105236019226120
  0.9377825587122129  0.4572628331320830  0.5654235257446710
  0.6874851008116413  0.7879381841401583  0.7434028458959439
  0.9364619081415217  0.7907615205735901  0.1252685156396941
  0.6887659876411872  0.7894341533260535  0.3893660424069798
  0.9381771461880536  0.7877755313903421  0.7434461875726498
  0.0624948643745731  0.2039074602908359  0.3455818363344002
  0.8122719564211237  0.0403223087108125  0.3898685711353455
  0.4379039333258906  0.1171336314398251  0.7876194799244068
  0.0627561495632573  0.2078028375997799  0.2123764657114383
  0.0605789676815368  0.3673999002357382  0.1672977411698189
  0.9347803652694820  0.7919191361536498  0.2568814993324814
  0.5622221229468227  0.2073719806671166  0.6990696840740234
  0.6870921906635888  0.9573236188808246  0.6990635210877858
  0.8122202906703684  0.8671303581853349  0.7873875972638867
  0.4374927578617701  0.9567780761433471  0.5649511421984577
  0.8127922396361921  0.3679418696518735  0.7876525346001212
  0.6842899167511201  0.2919621247617895  0.2569027341661331
  0.1874708576991817  0.4574198666325458  0.5651437584267155
  0.0612678724772309  0.8679533811731771  0.1674314524460697
  0.1861465025879815  0.2868053622242515  0.6103269420976075
  0.5635828288780103  0.7050623349465350  0.3458439047579057
  0.3119443078633084  0.2072509295918029  0.6991010697169400
  0.5634365740949024  0.5352614171938407  0.8749031596538129
  0.0628854506881842  0.7064599424800639  0.5651235714897174
  0.6882278292793375  0.6171882737026000  0.7876755515804958
  0.3117330261144224  0.5407404223994324  0.3893455455220609
  0.1873969687274194  0.6204694188988031  0.5212200616738412
  0.5633538026325936  0.8739386933238432  0.4349400905581334
  0.4372322950189341  0.4573037327877171  0.5650882465095532
  0.4373180963302006  0.2881505859263120  0.7434316487255151
  0.8129215771043417  0.8759361745634100  0.3011042182569558
  0.8115773486094028  0.7054172687732116  0.3460477382800694
  0.4388256639456589  0.4596422144922414  0.8323227792972858
  0.6878220479142150  0.9555991888726254  0.4786907229299874
  0.6872366823239869  0.4574701625641153  0.6990151933453899
  0.5627482804274947  0.8713045038324506  0.5212962647037264
  0.5643555414777731  0.3718106104627837  0.6542232021699552
  0.8142432661543172  0.8729078053029246  0.6544207927634969
  0.8135718538521802  0.3731519912447606  0.4345525417523656
  0.8104647611015190  0.5426480524607297  0.2568630953041030
  0.6893890138728894  0.4578904101675965  0.8324762434608627
  0.1894544297457531  0.7884815775273184  0.1246521082057101
  0.6871008085417584  0.2902285823122097  0.3893129156191946
  0.3139647937971898  0.3723921992664791  0.6544996559759900
  0.3125037715423251  0.2046294484412148  0.3456500001036474
  0.8126273712067682  0.5372221516837985  0.7433393071469008
  0.6875331706470855  0.9596321918635676  0.8323627233382755
  0.5635903056987712  0.8721360319283250  0.6540709018111029
  0.3124682183414557  0.7069409948741289  0.5651970344401178
  0.3129010598575197  0.5343272901161429  0.1247368916301585
  0.6871016466145995  0.9583200919699590  0.2123958047445712
  0.3123012164475403  0.2069661043166737  0.5653914119140387
  0.1871752772485674  0.9559358356631580  0.4786179245604078
  0.6885140760519906  0.9567794795022998  0.5653086363141605
  0.4364840335504778  0.7862614245026252  0.6104310870124700
  0.6865510884952776  0.6158097928130247  0.1676266803740583
  0.3138541549385853  0.8748559338252767  0.3010111187532129
  0.3126159218761099  0.7052999240577289  0.4786884470854731
  0.9362160016872968  0.2866069411538889  0.6104331830183395
  0.4395831341884068  0.6254614310654518  0.3013744939867611
  0.8104709796552920  0.8679308008547146  0.1678010973358346
  0.5636012157489770  0.2078324908895030  0.2123218096592193
  0.9362984194488206  0.6159347366329843  0.1673675148591343
  0.9406047038074890  0.7888289248854459  0.8748986452467398
  0.5623411560341827  0.3671752331084549  0.7876458111276099
  0.0619289280068139  0.3712191501231114  0.5212466366860531
  0.3110948451106834  0.3653149002598678  0.1678519000809691
  0.6888935633355396  0.1248719813907504  0.3009165084758155
  0.4397261139234942  0.9588904601018289  0.8321975652878174
  0.1873016816891755  0.2894836736169278  0.1249806007406395
  0.1848152808781462  0.2917858987549500  0.2568768416193427
  0.3125895756463672  0.3724849405548624  0.4346200414298552
  0.5624559455511292  0.0329404632661532  0.1249676135746313
  0.4358633419926914  0.2870643330442113  0.6102360982861113
  0.1865744789022578  0.4570479480667740  0.3461717003165771
  0.4373106123218373  0.2900491791246426  0.1251336520875315
  0.6850839455080800  0.7921272491184045  0.2568183171749913
  0.4367616233492153  0.1210874377968262  0.5211957727319741
  0.1888756464903701  0.2911991227846820  0.8749483361818413
  0.1890284963635378  0.1227857612003742  0.6544376579733757
  0.9392016717002349  0.1230915926855278  0.6544638356968019
  0.8125904602217205  0.5397604472187525  0.3897742341574839
  0.0633317942304372  0.0389938618951163  0.3894461746712955
  0.1861709862500046  0.1154898782399500  0.1670923578815874
  0.0612957549458704  0.5365267377821029  0.6103897552320235
  0.9349862595073418  0.2923212590614152  0.2568764017842773
  0.5612948222507100  0.5364967375387366  0.6103491772555808
  0.9375237849562416  0.9577040897247702  0.5652417406582624
  0.6890532902870499  0.6248412387771127  0.3009602778869586
  0.9373013478613161  0.6235925274912545  0.4348089080042764
  0.9369644890982012  0.6178971280777392  0.7871867880838812
  0.5623316587003890  0.7073230178226168  0.6989469324540425
  0.0635932054371449  0.7113140403129924  0.8326001924200365
  0.9387864676123957  0.1247876704915199  0.3010124307391353
  0.9364750312615351  0.7862752024392017  0.6104782166942457
  0.4347717717742919  0.7918159391282732  0.2568517504854426
  0.3123433199210598  0.3675811343952279  0.7875676150286743
  0.4380481418317966  0.4580680223351546  0.2124352201237921
  0.1877972670359345  0.1202135201531702  0.5211974694608376
  0.8122621308365295  0.7076763146811552  0.6990131413031534
  0.0610124095900259  0.0362908577342053  0.6103589888227035
  0.5628798261641703  0.2097807863263808  0.8323101987967573
  0.3112215843551511  0.8711310391361198  0.5211214846302995
  0.6873406323158523  0.2916806695097720  0.1249843321437464
  0.1874231518749776  0.9582590926363236  0.2125794372201304
  0.6853746538228139  0.2873591061055668  0.6103222580295191
  0.3103277785069570  0.0371238385683286  0.6106874878330036
  0.9381041273622052  0.1173732536143781  0.7877004342751882
  0.4377525509354757  0.7916633599572001  0.8748025330415281
  0.8127549312659291  0.0382875842724581  0.7430400395107511
  0.9369937788176527  0.4573012869996471  0.6990141682132419
  0.1889305527511879  0.6226214895650437  0.6544679431807091
  0.3123373781721428  0.7072813689636969  0.6989856437119379
  0.9370156836121106  0.2907012020647701  0.1249903390457322
  0.4373906869615973  0.4557486555699064  0.4787446434858827
  0.0623162967818962  0.7055241548034149  0.4786288296395531
  0.9365833738920070  0.1236514846483383  0.4350919438454127
  0.4380415323555897  0.1255356888583100  0.3011815790244625
  0.1883205692075126  0.1231602542299611  0.4345672261272142
  0.5628863646936837  0.0336549826560085  0.8748827099861843
  0.1875865969322950  0.9576227195326282  0.5653414016433039
  0.6884882732792684  0.7909038112742067  0.1252866800086148
  0.5631738938131071  0.5326421241522716  0.1250470766763157
  0.3125446669613102  0.0393669477774022  0.3896655089980036
  0.6869318557393289  0.1182804081829008  0.1682558376378430
  0.8133992123408776  0.2079285279008066  0.2122630839427603
  0.0610259026479564  0.5421659732088148  0.2568055625241301
  0.5620239329498854  0.7055325462731435  0.4786656546153193
  0.4363047148932381  0.7891872116728695  0.1247049428447743
  0.5633345389133501  0.3759528119436124  0.3011986647496619
  0.4361814148433539  0.9546786141187407  0.3455520968971083
  0.1872282285807136  0.9568750049708993  0.6990618090008395
  0.4346413446451537  0.6176027161703569  0.1672210441312040
  0.9380083840319148  0.4581053811714070  0.2126546801676987
  0.0622708233790635  0.5329148834901547  0.1251092902822728
  0.8134116597191611  0.3711529454335445  0.5212074080743009
  0.9389888718540018  0.6250966761548553  0.3008519901015406
  0.3108368840468178  0.0407305598962183  0.2564662988803472
  0.6858979699150859  0.7866701346224341  0.6104114714655674
  0.1887226157889099  0.4595308197263576  0.8326598720849318
  0.4359798752729838  0.1156201638944035  0.1671551555096022
  0.3114570352971411  0.3707683218897914  0.5211666809396902
  0.4370314081110951  0.6172556923281175  0.7876804054199644
  0.0598071943231270  0.0418888530108375  0.2568324207325701
  0.5627558703141613  0.7072396440765262  0.5654502117806374
  0.9374227367533700  0.2872046603425309  0.7433230328204574
  0.6862024973667359  0.1170637588826362  0.7875814981725996
  0.1880965984409612  0.4579966079678372  0.2123850295920195
  0.9380493983981654  0.7905793981075642  0.3896540001828809
  0.6871252053359231  0.2929739247151845  0.8749119118059338
  0.5610084814245455  0.8680277307933130  0.1674012382365944
  0.4372060689950879  0.4576502558118122  0.6990535539395460
  0.9374781576421098  0.9545633872514676  0.3456744388859197
  0.6865694152219921  0.6215834268070184  0.5211724309266135
  0.0641115490363491  0.8713307482213468  0.6542690235058244
  0.0623024191168834  0.8677601660158123  0.7873571156437813
  0.0637951118318065  0.3716165942550850  0.6542972467605713
  0.6878167932415071  0.4555820949374159  0.4787819900679278
  0.1851455435436647  0.7917545541140324  0.2567473199389003
  0.4374521721506491  0.1221284525759464  0.4345992184426044
  0.8126933285970822  0.0329631397703136  0.1250407452753546
  0.9368518977013146  0.6210923174950426  0.5212818543406201
  0.0630860762947797  0.8710552000976437  0.4345247691251080
  0.8126422757271580  0.5331353124549386  0.1248053372161129
  0.4363237930492417  0.4545318866257141  0.3457597406219549
  0.8126529001518423  0.2053709094694394  0.3459331604819976
  0.3130837357754566  0.7045217232756282  0.3454136738719863
  0.6886409586382514  0.1226027056586491  0.6545732705872092
  0.5637079797769528  0.8758722042297917  0.3012801168716219
  0.0632021753483314  0.5380457651149206  0.7434270677773410
  0.9386266881256429  0.9581417842469239  0.2123416669883774
  0.8130793171580071  0.7081297893385544  0.2123302396571620
  0.0624531965496487  0.8753176531882422  0.3011473461568026
  0.1887555109875122  0.1261008501492936  0.3013695367950797
  0.0624125945698898  0.7047396524200599  0.3456403895995215
  0.8112956935207800  0.0364257330831006  0.6104188455318798
  0.0626248350731120  0.3714274520327255  0.4344613757989460
  0.5624607196394505  0.2065743321250122  0.3459801128722534
  0.8137145844565398  0.3757158906463357  0.3010316865566187
  0.5607048276362840  0.0420727216184875  0.2568145628681277
  0.5626609860903633  0.5406645541400084  0.3897309490928501
  0.0627200246110265  0.2056061166923601  0.4787416120869569
  0.3127226542760686  0.8671141570893043  0.7873103943619688
  0.9370025540782527  0.9573807105929216  0.6989921423396936
  0.0627616488516942  0.3752665954228862  0.3010651862364654
  0.6885677593255884  0.6231109801608187  0.6545068295973326
  0.6878242051861985  0.4572401770074483  0.5651740580078948
  0.4380147456288884  0.9585577369695695  0.2127754258998704
  0.3124760381256981  0.2059118690153274  0.4786603246821342
  0.4390486153721532  0.1224148364597819  0.6541895877306932
  0.6877225122324155  0.6215074580612423  0.4344545282192157
  0.8120925665378157  0.2069785808797505  0.6991352113651834
  0.8121839950197368  0.7057920152678294  0.4786445828086501
  0.8125066016860401  0.8727929465605898  0.4346246971855527
  0.9374326744822254  0.9555374548974513  0.4787580056754345
  0.5625492483879271  0.2055306923339043  0.4787277411607209
  0.1875866887181715  0.6233313207526696  0.4346608075845717
  0.3127866286728280  0.0384324929488035  0.7431894146883774
  0.9387861399291456  0.6230912143901541  0.6544737640364193
  0.5637847490748383  0.7098773752154307  0.8322561865734865
  0.3136776876114532  0.3746998674696312  0.3010581533505918
  0.5627596878708024  0.7076122528221815  0.2123653760925888
  0.1872516224306653  0.4559173480858753  0.4786082833950752
  0.3142425563785241  0.0356570706056354  0.8746119986453479
  0.1872073249530347  0.4576446152999314  0.6990143895408356
  0.8125915650712762  0.5340764131049502  0.8750280620864493
  0.1876673318587423  0.2906992613382030  0.3897790791694601
  0.4373684024535647  0.6229739651189540  0.4346251055206936
  0.0633626113789661  0.7079261878966246  0.2123118989124751
  0.5633006575477330  0.3743556409104643  0.4350795025306876
  0.4373448031698529  0.6216030762763969  0.5212964345746040
  0.8140166216803111  0.7108122201677362  0.8321114755722172
  0.0623816387681989  0.3679968907794977  0.7876356135448693
  0.4375375213444310  0.2922002315036929  0.8750962814840013
  0.3126636898943592  0.0331540687533062  0.1249937270265271
  0.6878753448557199  0.1204971646470320  0.4344823394134780
  0.1857406641141465  0.9561338430297314  0.3460685349801219
  0.0636563677422925  0.2106340883594230  0.8328918774125341
  0.5613808406470984  0.0364393844106596  0.6105899968101425
  0.6874992485287388  0.4579854575236849  0.2126217601961380
  0.1877944045115784  0.7874841997334600  0.7434268589853434
  0.1884054887950178  0.6266526434561532  0.3015705144868999
  0.4375516338129496  0.7907174529858645  0.3897441069318283
  0.4337983595726622  0.2925852567839423  0.2568820214095034
  0.0652594035880274  0.5368941718848647  0.8748528793374372
  0.5631459626077887  0.0376008086574943  0.7434619088094135
  0.1877395633608637  0.7917833008796687  0.8748027845386739
  0.9372237617116902  0.4557358121141339  0.4786381874621317
  0.5630379850928676  0.5382719898725979  0.7430205688951224
  0.8119251352073128  0.2069206393363323  0.5649352092480656
  0.1875227541414743  0.6171499003541824  0.7875522877786757
  0.0632632344670796  0.5401197477503485  0.3893680417929787
  0.0621733003664247  0.7071381367007147  0.6989947364258051
  0.3111191280872233  0.5411424982745986  0.2560613283505689
  0.3128178078881980  0.7060693567450640  0.2129271999551062
  0.3112957341604493  0.8679370602748842  0.1665534739880866
  0.3133518755231036  0.2083043849394552  0.2127844209257026
  0.6860653041242059  0.4536654413291944  0.3457843939184202
  0.9359835376543728  0.2932208089046899  0.8744896371525686
  0.4373278508120915  0.9560034390319910  0.4786660794931930
  0.0642270912166337  0.0321481291864564  0.8745909267975019
  0.1877510251742996  0.7917354033756774  0.3899524876291111
  0.8111557055488557  0.3687550275830082  0.1671269728172662
  0.5621182060340046  0.3707012637060101  0.5212971661304657
  0.9368770568694336  0.1208881833057775  0.5212288686684337
  0.0637861888630028  0.2059333896298978  0.5654712595351858
  0.3135354036980928  0.5368204888007828  0.7433139709594103
 
  0.00000000E+00  0.00000000E+00  0.00000000E+00
  0.00000000E+00  0.00000000E+00  0.00000000E+00
  0.00000000E+00  0.00000000E+00  0.00000000E+00
  0.00000000E+00  0.00000000E+00  0.00000000E+00
  0.00000000E+00  0.00000000E+00  0.00000000E+00
  0.00000000E+00  0.00000000E+00  0.00000000E+00
  0.00000000E+00  0.00000000E+00  0.00000000E+00
  0.00000000E+00  0.00000000E+00  0.00000000E+00
  0.00000000E+00  0.00000000E+00  0.00000000E+00
  0.00000000E+00  0.00000000E+00  0.00000000E+00
  0.00000000E+00  0.00000000E+00  0.00000000E+00
  0.00000000E+00  0.00000000E+00  0.00000000E+00
  0.00000000E+00  0.00000000E+00  0.00000000E+00
  0.00000000E+00  0.00000000E+00  0.00000000E+00
  0.00000000E+00  0.00000000E+00  0.00000000E+00
  0.00000000E+00  0.00000000E+00  0.00000000E+00
  0.00000000E+00  0.00000000E+00  0.00000000E+00
  0.00000000E+00  0.00000000E+00  0.00000000E+00
  0.00000000E+00  0.00000000E+00  0.00000000E+00
  0.00000000E+00  0.00000000E+00  0.00000000E+00
  0.00000000E+00  0.00000000E+00  0.00000000E+00
  0.00000000E+00  0.00000000E+00  0.00000000E+00
  0.00000000E+00  0.00000000E+00  0.00000000E+00
  0.00000000E+00  0.00000000E+00  0.00000000E+00
  0.00000000E+00  0.00000000E+00  0.00000000E+00
  0.00000000E+00  0.00000000E+00  0.00000000E+00
  0.00000000E+00  0.00000000E+00  0.00000000E+00
  0.00000000E+00  0.00000000E+00  0.00000000E+00
  0.00000000E+00  0.00000000E+00  0.00000000E+00
  0.00000000E+00  0.00000000E+00  0.00000000E+00
  0.00000000E+00  0.00000000E+00  0.00000000E+00
  0.00000000E+00  0.00000000E+00  0.00000000E+00
  0.00000000E+00  0.00000000E+00  0.00000000E+00
  0.00000000E+00  0.00000000E+00  0.00000000E+00
  0.00000000E+00  0.00000000E+00  0.00000000E+00
  0.00000000E+00  0.00000000E+00  0.00000000E+00
  0.00000000E+00  0.00000000E+00  0.00000000E+00
  0.00000000E+00  0.00000000E+00  0.00000000E+00
  0.00000000E+00  0.00000000E+00  0.00000000E+00
  0.00000000E+00  0.00000000E+00  0.00000000E+00
  0.00000000E+00  0.00000000E+00  0.00000000E+00
  0.00000000E+00  0.00000000E+00  0.00000000E+00
  0.00000000E+00  0.00000000E+00  0.00000000E+00
  0.00000000E+00  0.00000000E+00  0.00000000E+00
  0.00000000E+00  0.00000000E+00  0.00000000E+00
  0.00000000E+00  0.00000000E+00  0.00000000E+00
  0.00000000E+00  0.00000000E+00  0.00000000E+00
  0.00000000E+00  0.00000000E+00  0.00000000E+00
  0.00000000E+00  0.00000000E+00  0.00000000E+00
  0.00000000E+00  0.00000000E+00  0.00000000E+00
  0.00000000E+00  0.00000000E+00  0.00000000E+00
  0.00000000E+00  0.00000000E+00  0.00000000E+00
  0.00000000E+00  0.00000000E+00  0.00000000E+00
  0.00000000E+00  0.00000000E+00  0.00000000E+00
  0.00000000E+00  0.00000000E+00  0.00000000E+00
  0.00000000E+00  0.00000000E+00  0.00000000E+00
  0.00000000E+00  0.00000000E+00  0.00000000E+00
  0.00000000E+00  0.00000000E+00  0.00000000E+00
  0.00000000E+00  0.00000000E+00  0.00000000E+00
  0.00000000E+00  0.00000000E+00  0.00000000E+00
  0.00000000E+00  0.00000000E+00  0.00000000E+00
  0.00000000E+00  0.00000000E+00  0.00000000E+00
  0.00000000E+00  0.00000000E+00  0.00000000E+00
  0.00000000E+00  0.00000000E+00  0.00000000E+00
  0.00000000E+00  0.00000000E+00  0.00000000E+00
  0.00000000E+00  0.00000000E+00  0.00000000E+00
  0.00000000E+00  0.00000000E+00  0.00000000E+00
  0.00000000E+00  0.00000000E+00  0.00000000E+00
  0.00000000E+00  0.00000000E+00  0.00000000E+00
  0.00000000E+00  0.00000000E+00  0.00000000E+00
  0.00000000E+00  0.00000000E+00  0.00000000E+00
  0.00000000E+00  0.00000000E+00  0.00000000E+00
  0.00000000E+00  0.00000000E+00  0.00000000E+00
  0.00000000E+00  0.00000000E+00  0.00000000E+00
  0.00000000E+00  0.00000000E+00  0.00000000E+00
  0.00000000E+00  0.00000000E+00  0.00000000E+00
  0.00000000E+00  0.00000000E+00  0.00000000E+00
  0.00000000E+00  0.00000000E+00  0.00000000E+00
  0.00000000E+00  0.00000000E+00  0.00000000E+00
  0.00000000E+00  0.00000000E+00  0.00000000E+00
  0.00000000E+00  0.00000000E+00  0.00000000E+00
  0.00000000E+00  0.00000000E+00  0.00000000E+00
  0.00000000E+00  0.00000000E+00  0.00000000E+00
  0.00000000E+00  0.00000000E+00  0.00000000E+00
  0.00000000E+00  0.00000000E+00  0.00000000E+00
  0.00000000E+00  0.00000000E+00  0.00000000E+00
  0.00000000E+00  0.00000000E+00  0.00000000E+00
  0.00000000E+00  0.00000000E+00  0.00000000E+00
  0.00000000E+00  0.00000000E+00  0.00000000E+00
  0.00000000E+00  0.00000000E+00  0.00000000E+00
  0.00000000E+00  0.00000000E+00  0.00000000E+00
  0.00000000E+00  0.00000000E+00  0.00000000E+00
  0.00000000E+00  0.00000000E+00  0.00000000E+00
  0.00000000E+00  0.00000000E+00  0.00000000E+00
  0.00000000E+00  0.00000000E+00  0.00000000E+00
  0.00000000E+00  0.00000000E+00  0.00000000E+00
  0.00000000E+00  0.00000000E+00  0.00000000E+00
  0.00000000E+00  0.00000000E+00  0.00000000E+00
  0.00000000E+00  0.00000000E+00  0.00000000E+00
  0.00000000E+00  0.00000000E+00  0.00000000E+00
  0.00000000E+00  0.00000000E+00  0.00000000E+00
  0.00000000E+00  0.00000000E+00  0.00000000E+00
  0.00000000E+00  0.00000000E+00  0.00000000E+00
  0.00000000E+00  0.00000000E+00  0.00000000E+00
  0.00000000E+00  0.00000000E+00  0.00000000E+00
  0.00000000E+00  0.00000000E+00  0.00000000E+00
  0.00000000E+00  0.00000000E+00  0.00000000E+00
  0.00000000E+00  0.00000000E+00  0.00000000E+00
  0.00000000E+00  0.00000000E+00  0.00000000E+00
  0.00000000E+00  0.00000000E+00  0.00000000E+00
  0.00000000E+00  0.00000000E+00  0.00000000E+00
  0.00000000E+00  0.00000000E+00  0.00000000E+00
  0.00000000E+00  0.00000000E+00  0.00000000E+00
  0.00000000E+00  0.00000000E+00  0.00000000E+00
  0.00000000E+00  0.00000000E+00  0.00000000E+00
  0.00000000E+00  0.00000000E+00  0.00000000E+00
  0.00000000E+00  0.00000000E+00  0.00000000E+00
  0.00000000E+00  0.00000000E+00  0.00000000E+00
  0.00000000E+00  0.00000000E+00  0.00000000E+00
  0.00000000E+00  0.00000000E+00  0.00000000E+00
  0.00000000E+00  0.00000000E+00  0.00000000E+00
  0.00000000E+00  0.00000000E+00  0.00000000E+00
  0.00000000E+00  0.00000000E+00  0.00000000E+00
  0.00000000E+00  0.00000000E+00  0.00000000E+00
  0.00000000E+00  0.00000000E+00  0.00000000E+00
  0.00000000E+00  0.00000000E+00  0.00000000E+00
  0.00000000E+00  0.00000000E+00  0.00000000E+00
  0.00000000E+00  0.00000000E+00  0.00000000E+00
  0.00000000E+00  0.00000000E+00  0.00000000E+00
  0.00000000E+00  0.00000000E+00  0.00000000E+00
  0.00000000E+00  0.00000000E+00  0.00000000E+00
  0.00000000E+00  0.00000000E+00  0.00000000E+00
  0.00000000E+00  0.00000000E+00  0.00000000E+00
  0.00000000E+00  0.00000000E+00  0.00000000E+00
  0.00000000E+00  0.00000000E+00  0.00000000E+00
  0.00000000E+00  0.00000000E+00  0.00000000E+00
  0.00000000E+00  0.00000000E+00  0.00000000E+00
  0.00000000E+00  0.00000000E+00  0.00000000E+00
  0.00000000E+00  0.00000000E+00  0.00000000E+00
  0.00000000E+00  0.00000000E+00  0.00000000E+00
  0.00000000E+00  0.00000000E+00  0.00000000E+00
  0.00000000E+00  0.00000000E+00  0.00000000E+00
  0.00000000E+00  0.00000000E+00  0.00000000E+00
  0.00000000E+00  0.00000000E+00  0.00000000E+00
  0.00000000E+00  0.00000000E+00  0.00000000E+00
  0.00000000E+00  0.00000000E+00  0.00000000E+00
  0.00000000E+00  0.00000000E+00  0.00000000E+00
  0.00000000E+00  0.00000000E+00  0.00000000E+00
  0.00000000E+00  0.00000000E+00  0.00000000E+00
  0.00000000E+00  0.00000000E+00  0.00000000E+00
  0.00000000E+00  0.00000000E+00  0.00000000E+00
  0.00000000E+00  0.00000000E+00  0.00000000E+00
  0.00000000E+00  0.00000000E+00  0.00000000E+00
  0.00000000E+00  0.00000000E+00  0.00000000E+00
  0.00000000E+00  0.00000000E+00  0.00000000E+00
  0.00000000E+00  0.00000000E+00  0.00000000E+00
  0.00000000E+00  0.00000000E+00  0.00000000E+00
  0.00000000E+00  0.00000000E+00  0.00000000E+00
  0.00000000E+00  0.00000000E+00  0.00000000E+00
  0.00000000E+00  0.00000000E+00  0.00000000E+00
  0.00000000E+00  0.00000000E+00  0.00000000E+00
  0.00000000E+00  0.00000000E+00  0.00000000E+00
  0.00000000E+00  0.00000000E+00  0.00000000E+00
  0.00000000E+00  0.00000000E+00  0.00000000E+00
  0.00000000E+00  0.00000000E+00  0.00000000E+00
  0.00000000E+00  0.00000000E+00  0.00000000E+00
  0.00000000E+00  0.00000000E+00  0.00000000E+00
  0.00000000E+00  0.00000000E+00  0.00000000E+00
  0.00000000E+00  0.00000000E+00  0.00000000E+00
  0.00000000E+00  0.00000000E+00  0.00000000E+00
  0.00000000E+00  0.00000000E+00  0.00000000E+00
  0.00000000E+00  0.00000000E+00  0.00000000E+00
  0.00000000E+00  0.00000000E+00  0.00000000E+00
  0.00000000E+00  0.00000000E+00  0.00000000E+00
  0.00000000E+00  0.00000000E+00  0.00000000E+00
  0.00000000E+00  0.00000000E+00  0.00000000E+00
  0.00000000E+00  0.00000000E+00  0.00000000E+00
  0.00000000E+00  0.00000000E+00  0.00000000E+00
  0.00000000E+00  0.00000000E+00  0.00000000E+00
  0.00000000E+00  0.00000000E+00  0.00000000E+00
  0.00000000E+00  0.00000000E+00  0.00000000E+00
  0.00000000E+00  0.00000000E+00  0.00000000E+00
  0.00000000E+00  0.00000000E+00  0.00000000E+00
  0.00000000E+00  0.00000000E+00  0.00000000E+00
  0.00000000E+00  0.00000000E+00  0.00000000E+00
  0.00000000E+00  0.00000000E+00  0.00000000E+00
  0.00000000E+00  0.00000000E+00  0.00000000E+00
  0.00000000E+00  0.00000000E+00  0.00000000E+00
  0.00000000E+00  0.00000000E+00  0.00000000E+00
  0.00000000E+00  0.00000000E+00  0.00000000E+00
  0.00000000E+00  0.00000000E+00  0.00000000E+00
  0.00000000E+00  0.00000000E+00  0.00000000E+00
  0.00000000E+00  0.00000000E+00  0.00000000E+00
  0.00000000E+00  0.00000000E+00  0.00000000E+00
  0.00000000E+00  0.00000000E+00  0.00000000E+00
  0.00000000E+00  0.00000000E+00  0.00000000E+00
  0.00000000E+00  0.00000000E+00  0.00000000E+00
  0.00000000E+00  0.00000000E+00  0.00000000E+00
  0.00000000E+00  0.00000000E+00  0.00000000E+00
  0.00000000E+00  0.00000000E+00  0.00000000E+00
  0.00000000E+00  0.00000000E+00  0.00000000E+00
  0.00000000E+00  0.00000000E+00  0.00000000E+00
  0.00000000E+00  0.00000000E+00  0.00000000E+00
  0.00000000E+00  0.00000000E+00  0.00000000E+00
  0.00000000E+00  0.00000000E+00  0.00000000E+00
  0.00000000E+00  0.00000000E+00  0.00000000E+00
  0.00000000E+00  0.00000000E+00  0.00000000E+00
  0.00000000E+00  0.00000000E+00  0.00000000E+00
  0.00000000E+00  0.00000000E+00  0.00000000E+00
  0.00000000E+00  0.00000000E+00  0.00000000E+00
  0.00000000E+00  0.00000000E+00  0.00000000E+00
  0.00000000E+00  0.00000000E+00  0.00000000E+00
  0.00000000E+00  0.00000000E+00  0.00000000E+00
  0.00000000E+00  0.00000000E+00  0.00000000E+00
  0.00000000E+00  0.00000000E+00  0.00000000E+00
  0.00000000E+00  0.00000000E+00  0.00000000E+00
  0.00000000E+00  0.00000000E+00  0.00000000E+00
  0.00000000E+00  0.00000000E+00  0.00000000E+00
  0.00000000E+00  0.00000000E+00  0.00000000E+00
  0.00000000E+00  0.00000000E+00  0.00000000E+00
  0.00000000E+00  0.00000000E+00  0.00000000E+00
  0.00000000E+00  0.00000000E+00  0.00000000E+00
  0.00000000E+00  0.00000000E+00  0.00000000E+00
  0.00000000E+00  0.00000000E+00  0.00000000E+00
  0.00000000E+00  0.00000000E+00  0.00000000E+00
  0.00000000E+00  0.00000000E+00  0.00000000E+00
  0.00000000E+00  0.00000000E+00  0.00000000E+00
  0.00000000E+00  0.00000000E+00  0.00000000E+00
  0.00000000E+00  0.00000000E+00  0.00000000E+00
  0.00000000E+00  0.00000000E+00  0.00000000E+00
  0.00000000E+00  0.00000000E+00  0.00000000E+00
  0.00000000E+00  0.00000000E+00  0.00000000E+00
  0.00000000E+00  0.00000000E+00  0.00000000E+00
  0.00000000E+00  0.00000000E+00  0.00000000E+00
  0.00000000E+00  0.00000000E+00  0.00000000E+00
  0.00000000E+00  0.00000000E+00  0.00000000E+00
  0.00000000E+00  0.00000000E+00  0.00000000E+00
  0.00000000E+00  0.00000000E+00  0.00000000E+00
  0.00000000E+00  0.00000000E+00  0.00000000E+00
  0.00000000E+00  0.00000000E+00  0.00000000E+00
  0.00000000E+00  0.00000000E+00  0.00000000E+00
  0.00000000E+00  0.00000000E+00  0.00000000E+00
  0.00000000E+00  0.00000000E+00  0.00000000E+00
  0.00000000E+00  0.00000000E+00  0.00000000E+00
  0.00000000E+00  0.00000000E+00  0.00000000E+00
  0.00000000E+00  0.00000000E+00  0.00000000E+00
  0.00000000E+00  0.00000000E+00  0.00000000E+00