CuInSe2gb                               
   1.00000000000000     
     9.7266780392896699    0.0000000000000000    0.0000000000000000
     0.0000000000000000    8.4235502764570693    0.0000000000000000
     0.0000000000000000    0.0000000000000000   45.0000000000000000
   Fe   Mn
   281     7
Direct
  0.0637218764836111  0.0332263649512208  0.1248880501869076
  0.0630818114267852  0.8728647020751951  0.5216365191871277
  0.1911009307675204  0.1241679122042082  0.7883059770608802
  0.4351664324166674  0.2874201328887844  0.3894098088863434
  0.3106575100180728  0.7114320459873977  0.8334922626905081
  0.8107103433745817  0.2113363697813312  0.8334227480040944
  0.1855927406615602  0.7876307952242116  0.3894850435866732
  0.5629372250009947  0.2068249701352055  0.5655398186628331
  0.0619658202292168  0.0410375461947161  0.7438363701543159
  0.8131083895740667  0.8731638541102534  0.5217067592642263
  0.1870901263316853  0.2912554826548542  0.7439393756180529
  0.9379048020059886  0.4530787725247727  0.3451016915975235
  0.9353723805757291  0.2873302464465450  0.3894287642956828
  0.8129833430795982  0.0434453485638423  0.8752530996093784
  0.1873148586230410  0.7914560847861124  0.6104909259434689
  0.5604176438275442  0.0375161812756452  0.3894877408183991
  0.9356478378569425  0.9613424970253375  0.8334665177424071
  0.3128602820938020  0.5434839844273089  0.8752377000353679
  0.6871124238664160  0.2913265380543171  0.7438574773290995
  0.1902183275551723  0.6147149746278565  0.1666003228163986
  0.8129325073708643  0.2050064139756235  0.4780688814104415
  0.8126132835532656  0.5410823349783702  0.6103965622396536
  0.3123821923054487  0.8710528454080102  0.4340669201213664
  0.8129971028632654  0.0364550360589643  0.2561353997769697
  0.6879912683886464  0.9534468387094779  0.3450996613076895
  0.9410541945267609  0.1139933582876308  0.1667044571374706
  0.9385538414673451  0.1230517272370323  0.5216628677698040
  0.5628718591267231  0.5363730678664936  0.2560787692865252
  0.6882496033819763  0.7934271703214778  0.8753401405480880
  0.5666228633388714  0.3655635249974216  0.1666203068853161
  0.4372082788684161  0.7914233888602075  0.7439092209675380
  0.8130609788140719  0.7074308277061422  0.5655940377005571
  0.5661306260750042  0.8744466304715651  0.7882254563994288
  0.6884822633162720  0.1233492256545726  0.5216694714590797
  0.1880275023119336  0.2867147359276380  0.2561272655848699
  0.9356476936064583  0.4613800362526479  0.8334957131835934
  0.0627239892178259  0.2078301218805824  0.6996184677188315
  0.4386560026205181  0.9575354102350117  0.6996968007978500
  0.3107275062730750  0.2114099985492141  0.8334709728079366
  0.4354436804875431  0.6251690645018656  0.6548447271980687
  0.3126729226821264  0.5409879719083407  0.6104254199046872
  0.9378971328945005  0.4569594191587913  0.5656611718452192
  0.6870931281191388  0.7911638689334358  0.7439070348092903
  0.3106094323705587  0.8752468971446296  0.6548673129235562
  0.6853229399452700  0.7874370607043918  0.3894478753117140
  0.9370553390984780  0.7912354132432953  0.7438648405308963
  0.0629686246914165  0.2033564477899312  0.3450794379805859
  0.8105894075955058  0.0374649272308870  0.3894322785029269
  0.4409827264417425  0.1245133613894472  0.7882440946569057
  0.0604481171647962  0.2026818439515413  0.2118300125236007
  0.0662321797140604  0.3650600239165869  0.1666686898539373
  0.9380252276210488  0.7867951013902554  0.2560888561699208
  0.5637035876445115  0.2075610407652199  0.6996577752442728
  0.6883469272951722  0.9577016706912342  0.6996370995172592
  0.6854319859530282  0.2872986305974563  0.3894576067278475
  0.4382242073105743  0.9566920835246360  0.5658000208131138
  0.8159219210075452  0.3744039960307588  0.7882123781817153
  0.6880247962946653  0.2866644856678227  0.2560816852489592
  0.1882935189804810  0.4568149627204494  0.5657459797196804
  0.0653252261861161  0.8650092056123792  0.1666539967510992
  0.1876983740538646  0.2909659022576411  0.6104276612365934
  0.5629377135228413  0.7035089244630217  0.3450488134051841
  0.3136212965976237  0.2074670672557352  0.6996432476693044
  0.5629022238851490  0.5435415233455029  0.8752553258192048
  0.0628383434536116  0.7069063258331426  0.5657464094722603
  0.6910857073469104  0.6245120517169537  0.7882331433743424
  0.3107377117373652  0.5376055903714805  0.3893933596988909
  0.1876452147178816  0.6229800044911932  0.5216817320691605
  0.5625577108822368  0.8710324226261906  0.4341389203983586
  0.4381823436804881  0.4562671612929383  0.5656969222354666
  0.4370145515617713  0.2914373602061828  0.7439017477771797
  0.8083237999630721  0.8715771351721892  0.3003479916957277
  0.8129485787805936  0.7032172202291302  0.3451967827979303
  0.4355494498796126  0.4612668373135765  0.8334734893794361
  0.6879294185576942  0.9546457252173023  0.4781376749438478
  0.6886672794107866  0.4577577983616251  0.6996549477209344
  0.5631635033903772  0.8734036527946054  0.5216781369799465
  0.5602731441855574  0.3747827276447843  0.6548293366859456
  0.8105119737278951  0.8749432831192897  0.6548270307573932
  0.8129290094700365  0.3711175337320740  0.4342504949894638
  0.8128437089129267  0.5364471747290399  0.2561445939226569
  0.6856548496740853  0.4612409536132942  0.8334582249135791
  0.1900378566024632  0.7818769339463130  0.1249907588092432
  0.0630026978159245  0.0434658069230906  0.8752404493330923
  0.3104353446548609  0.3750950799556344  0.6548518337312076
  0.3127155118978130  0.2030203705668373  0.3449851518731081
  0.8120172152090759  0.5413664090916840  0.7439221333980112
  0.6856383698981724  0.9612788351822618  0.8334696556976181
  0.5602763667553450  0.8751195435922423  0.6548775495280074
  0.3127771941758998  0.7070484872664002  0.5658390176342308
  0.3132655212159341  0.5332062279164052  0.1245565368854242
  0.6850990173936247  0.9537303848851759  0.2120005994327863
  0.3131923244464042  0.2071046731075182  0.5657286463419932
  0.3119844372347116  0.5411725939057357  0.7439226185992897
  0.6879745764524188  0.9572036745605310  0.5656820650433977
  0.4374537411448236  0.7908441757351654  0.6104309639222473
  0.6912691302715401  0.6155325996946979  0.1666661847171938
  0.3083231755951291  0.8717488030371414  0.3003056689662143
  0.3127611130597419  0.7044618252208698  0.4781291640016663
  0.9377672655978868  0.2910945226781526  0.6103097866440891
  0.4333464481332028  0.6214810438146535  0.3003711622071995
  0.8170369635690985  0.8649392494130291  0.1667063006065974
  0.5599280764851710  0.2034466749094867  0.2118823447019991
  0.9405358279520175  0.6160144332679692  0.1667022819310282
  0.9382736408540456  0.7934542067890346  0.8752944527880898
  0.5659806061558948  0.3745188652809065  0.7882252564120137
  0.0634184275392384  0.3724980367037947  0.5217184705845680
  0.5638068679639267  0.3728218425617784  0.5216209201384707
  0.6832747289483632  0.1216494697900935  0.3003597592332141
  0.4356640374247633  0.9613152757136405  0.8334840728713683
  0.1896768807167765  0.2828176915715258  0.1247891420443528
  0.8160488215741337  0.8744575464813352  0.7881842047834309
  0.3121304815829979  0.3709406380492773  0.4341411248649528
  0.9377625567073369  0.7913899458111805  0.6104470568903785
  0.4376224096272036  0.2906485964396683  0.6104183421275513
  0.1878702182022406  0.4530531957035449  0.3451480315929301
  0.4393874308953033  0.2826229644912076  0.1247317179935522
  0.6881167411016647  0.7865598988018093  0.2560897298260202
  0.1884484373639889  0.9578686222384369  0.6996790273367852
  0.1881707835209676  0.2933996900605103  0.8752974793639898
  0.1855362398019114  0.1248000505985059  0.6548183783620255
  0.9355912808108501  0.1248894309714775  0.6548121456564656
  0.3102234175859981  0.2029552481824706  0.2118865380683000
  0.0606171488776570  0.0373814288429218  0.3894980641705544
  0.1908472160949069  0.1149964240224396  0.1668831323959336
  0.0623538151535475  0.5410209302846823  0.6104308794112709
  0.9378615322225585  0.2866465171336373  0.2561391280328268
  0.5623425930403111  0.5410025445709642  0.6104084000610149
  0.9380563459035872  0.9571762423933190  0.5657847590592764
  0.6833337723043865  0.6214024705576647  0.3003403903931718
  0.9373289681946337  0.6213206009741826  0.4342632345742971
  0.9410943311769256  0.6246929759214670  0.7883225849737623
  0.5633532208975909  0.7081835150419356  0.6997075128212370
  0.0607663403027168  0.7113509449746908  0.8334416875722706
  0.9332503238738100  0.1216528467833926  0.3004220770658121
  0.9381572910490337  0.4577293188082395  0.6997018257714192
  0.4379749897539207  0.7865168989280952  0.2560589211035624
  0.3160282976106207  0.3742474483355708  0.7882354392065644
  0.4354531073666179  0.4534640076765596  0.2119179449404889
  0.1875902576227856  0.1234801758615093  0.5216779158579409
  0.8134957595252269  0.7082287670361757  0.6996828799718330
  0.0626980250119268  0.0412970076641824  0.6104835115189999
  0.5607851195079662  0.2112659158288484  0.8334247406607999
  0.3134426237136919  0.8733028649739517  0.5217207937551319
  0.6905884169392535  0.2834909278325887  0.1249818954002504
  0.1852549075675716  0.9536753153509618  0.2119727140014074
  0.6875744683089193  0.2911297254830689  0.6104315163317712
  0.3123607480350380  0.0409998410177064  0.6105077108516657
  0.9411227024839385  0.1244142776370842  0.7882744363004145
  0.4382132585174054  0.7934220276474280  0.8752916918290324
  0.8120457860866346  0.0411054711685920  0.7439252665311086
  0.4378403187875093  0.1229919751203439  0.5216801510228659
  0.1854859507808337  0.6253359246660013  0.6548855375960950
  0.3134415384848706  0.7080681179915299  0.6996856718918114
  0.9391783578144267  0.2834420635355106  0.1250227032216700
  0.4381590134157106  0.4546922466622945  0.4781838085920645
  0.0625603499394045  0.7043949843737805  0.4781219222758508
  0.9377184685766106  0.1205998827510550  0.4341696583778609
  0.4333489028883360  0.1218060338380202  0.3003858852361561
  0.1877468046488474  0.1212333163680101  0.4341395509341189
  0.5629549924248567  0.0434453032055197  0.8752462113493064
  0.1878453370764418  0.9568567721206432  0.5654446442338897
  0.6889790568832167  0.7819957465745299  0.1249368777853385
  0.5637140938618461  0.5333704052126077  0.1248008076641055
  0.3101084034878789  0.0373497656764920  0.3894893478449731
  0.6907831343195726  0.1147064470376243  0.1669425727513261
  0.8097293555338622  0.2028408550055039  0.2118772322455124
  0.0628635225484797  0.5365880150261646  0.2561505712836512
  0.5625763435911588  0.7049215486139655  0.4781349590431346
  0.0630217065206819  0.2069342246489297  0.5656747399117151
  0.5583275500808638  0.3716575181730998  0.3003652576097443
  0.4379452205630378  0.9534492709795481  0.3450641721891002
  0.1857077010244616  0.9613871113653207  0.8334401096897149
  0.4409249201045181  0.6149706061747484  0.1667139262793812
  0.9350054214928265  0.4530551363100551  0.2120337566377216
  0.0648174089099377  0.5333390442133696  0.1248000306569080
  0.8130073283192200  0.3726783535806615  0.5218085955864674
  0.9333146351234949  0.6215115728334139  0.3004377750922915
  0.3128601978460899  0.0363744153354998  0.2560883341802030
  0.6876355542559179  0.7914620521134837  0.6105224965145568
  0.1856884672892963  0.4612828668494515  0.8334503948312111
  0.4403478245134377  0.1149294231566357  0.1667865358948376
  0.3122003378762054  0.3726817222500431  0.5217519328176397
  0.4412773218583703  0.6245441377367615  0.7882588892474256
  0.0628091726293568  0.0364750537991975  0.2561045535542800
  0.5634453968290214  0.7069771711056192  0.5656294583894962
  0.9372289422388204  0.2913442580312640  0.7438491973567668
  0.6910982304716065  0.1244665182457346  0.7882445532664845
  0.1850848910129889  0.4540044809148488  0.2120601404324777
  0.9352503402718548  0.7871463757608528  0.3894012503636843
  0.6881642279319569  0.2934150536098159  0.8752916413474602
  0.3165952059279673  0.8647063821389207  0.1666281940593362
  0.4389110332697274  0.4579808829150109  0.6997029596119660
  0.9378269377068091  0.9530978130964760  0.3450640831254189
  0.6885915626584698  0.6228532991901009  0.5217927615997734
  0.0610122351987485  0.8749269643005785  0.6548294438939691
  0.0660963841597551  0.8743243325835057  0.7882118669438939
  0.0608992953327742  0.3748638682891565  0.6548025254457255
  0.6875602435696138  0.4551971649793984  0.4781503777620433
  0.1879797773713447  0.7864134468778466  0.2561000895728904
  0.4371105872652022  0.1211707066444688  0.4341840206137917
  0.8134193896579706  0.0348095014532709  0.1248741483449730
  0.9380454191927384  0.6235063076728741  0.5216965311389641
  0.0623246375307935  0.8708734413402855  0.4341991112594238
  0.8127939716627709  0.5334479549124557  0.1248450942614819
  0.4379717778244369  0.4532349444278569  0.3451015630563333
  0.8130378115851530  0.2032226395841246  0.3450123885167634
  0.3129513234312028  0.7031172911119055  0.3450961942216065
  0.6856272310528119  0.1247743037082518  0.6548542255285666
  0.5583904743291549  0.8717670719319566  0.3003367075741252
  0.0622442228060737  0.5414015253041961  0.7439589693110950
  0.9351636556042587  0.9536754435616325  0.2119717950885201
  0.8098908390533573  0.7029631960182670  0.2118088645090969
  0.0584263918660263  0.8717806148319636  0.3003757896400197
  0.1834377842979528  0.1216209280132341  0.3003903192179658
  0.0628927087647655  0.7031452711884210  0.3450650807453605
  0.8125968134090330  0.0414657133955029  0.6104912088295992
  0.0626045032926859  0.3711131832918685  0.4342509003550790
  0.5628006189841825  0.2034015380150841  0.3450552861907072
  0.8082869966413685  0.3716829160093275  0.3003326283781597
  0.4382245206830039  0.9548766951720817  0.4781639737186456
  0.5602520388857870  0.5376535584637370  0.3894235809946516
  0.0620274628345678  0.2050082565768906  0.4780840707554386
  0.3161098551464315  0.8742175743019215  0.7882278466603586
  0.9381684026870445  0.9575806042747773  0.6997041799883456
  0.0582717817745689  0.3718337881245551  0.3003723541533050
  0.6854471424956735  0.6251340711473294  0.6549149578705198
  0.6878985230917858  0.4572624676146171  0.5656798894008214
  0.4350924080001863  0.9532422723530266  0.2119052091405454
  0.3138991399342941  0.2052567616292821  0.4780433059561568
  0.4357384871139123  0.1247269069263757  0.6547601255236052
  0.6880210659679081  0.6210599850436760  0.4341003691870565
  0.8135948270362130  0.2076410869256212  0.6996622445469581
  0.8130995914860798  0.7045340630150320  0.4781352455393347
  0.8131834744705404  0.8709900455314449  0.4342590335210161
  0.9372133584858868  0.9551865335982369  0.4780823440287745
  0.5624107119681960  0.2050854931088051  0.4782221052306698
  0.1874933166391012  0.6215560005792602  0.4341458238874864
  0.3120740761823742  0.0409224326850463  0.7438983730816374
  0.9360791156145273  0.6248050283143431  0.6549181524573585
  0.5607050426138998  0.7112950050667812  0.8333623176625661
  0.3084598754621176  0.3715972693850986  0.3003448734952997
  0.5599998996794593  0.7032662223444066  0.2118301217858781
  0.1882391782030604  0.4552434209655790  0.4781850815289977
  0.3129964652879758  0.0435105709537829  0.8752447301677899
  0.4397990024889003  0.7834482259451937  0.1249919922253486
  0.8128828860642349  0.5435500384059382  0.8752441310141139
  0.1854812803421471  0.2875077776724992  0.3893771178323404
  0.4374954367040110  0.6211781701141322  0.4344860021568835
  0.0602662180530126  0.7032026108883624  0.2118524528082908
  0.5635212452553264  0.0331208593994821  0.1248531112922310
  0.8165661654281309  0.3645957139000946  0.1667010982171119
  0.8108601493284601  0.7112928697326293  0.8334261365439971
  0.0661795339447341  0.3744564744401223  0.7882394526867386
  0.4382103492698113  0.2934430777269155  0.8753051178986537
  0.3134496076623530  0.0343117125211617  0.1249088386099428
  0.6878772401292104  0.1208866137205128  0.4341836487988561
  0.1879296584689991  0.9534082847850589  0.3450969314292981
  0.0606807002479659  0.2113828550794040  0.8334498171598074
  0.5625518200457531  0.0409179296489704  0.6104529184594529
  0.6851525485928525  0.4534848067211912  0.2119765465427440
  0.1871311567519687  0.7912280553730175  0.7438542648445127
  0.1832131640963213  0.6216978039127337  0.3004336201935593
  0.4356062992300045  0.7871625313356466  0.3893366781753505
  0.4378864445543706  0.2863106100397503  0.2561734341915388
  0.0629420046025094  0.5434831224647856  0.8752478471065231
  0.5620742056759116  0.0412665423649181  0.7438855906033466
  0.1882058317044527  0.7933174450820919  0.8753110118864181
  0.9372559573548068  0.4548825288782459  0.4781329944863077
  0.8102413751817376  0.5373701661038607  0.3894569374827661
  0.8131395512479458  0.2072005938545433  0.5656374669625787
  0.1910960240085391  0.6243402906635039  0.7882233708864506
  0.0602574859979219  0.5375514278431371  0.3894556476389787
  0.0632450569886940  0.7077522907636541  0.6996717379365105
  0.3128551862366081  0.5362929504800945  0.2561289157885631
  0.3101165817595132  0.7029417004034993  0.2118604506324075
  0.5663075799502206  0.8650866393298232  0.1666806752307902
  0.5620574670283294  0.5415249691589310  0.7439620051299068
  0.6878418952010971  0.4534235225058098  0.3450545396182833
  0.9382112254858108  0.2934548432122350  0.8753010698751313
  0.5627740292489869  0.0363970697627453  0.2560900025820068
  0.1887737195986830  0.4581201746392012  0.6996621626159478
  0.3167578066014914  0.3649033395268699  0.1662563912453216
  0.4383795367133873  0.6234815352028502  0.5215555503364586
  0.5628444173256477  0.3707267531118595  0.4340664697934740
  0.9392023955313031  0.7839362609665838  0.1250502113638572
  0.8103808032045748  0.3747160639427297  0.6547695303342235
  0.1875514681055609  0.9546078688773442  0.4782764066449402
 
  0.00000000E+00  0.00000000E+00  0.00000000E+00
  0.00000000E+00  0.00000000E+00  0.00000000E+00
  0.00000000E+00  0.00000000E+00  0.00000000E+00
  0.00000000E+00  0.00000000E+00  0.00000000E+00
  0.00000000E+00  0.00000000E+00  0.00000000E+00
  0.00000000E+00  0.00000000E+00  0.00000000E+00
  0.00000000E+00  0.00000000E+00  0.00000000E+00
  0.00000000E+00  0.00000000E+00  0.00000000E+00
  0.00000000E+00  0.00000000E+00  0.00000000E+00
  0.00000000E+00  0.00000000E+00  0.00000000E+00
  0.00000000E+00  0.00000000E+00  0.00000000E+00
  0.00000000E+00  0.00000000E+00  0.00000000E+00
  0.00000000E+00  0.00000000E+00  0.00000000E+00
  0.00000000E+00  0.00000000E+00  0.00000000E+00
  0.00000000E+00  0.00000000E+00  0.00000000E+00
  0.00000000E+00  0.00000000E+00  0.00000000E+00
  0.00000000E+00  0.00000000E+00  0.00000000E+00
  0.00000000E+00  0.00000000E+00  0.00000000E+00
  0.00000000E+00  0.00000000E+00  0.00000000E+00
  0.00000000E+00  0.00000000E+00  0.00000000E+00
  0.00000000E+00  0.00000000E+00  0.00000000E+00
  0.00000000E+00  0.00000000E+00  0.00000000E+00
  0.00000000E+00  0.00000000E+00  0.00000000E+00
  0.00000000E+00  0.00000000E+00  0.00000000E+00
  0.00000000E+00  0.00000000E+00  0.00000000E+00
  0.00000000E+00  0.00000000E+00  0.00000000E+00
  0.00000000E+00  0.00000000E+00  0.00000000E+00
  0.00000000E+00  0.00000000E+00  0.00000000E+00
  0.00000000E+00  0.00000000E+00  0.00000000E+00
  0.00000000E+00  0.00000000E+00  0.00000000E+00
  0.00000000E+00  0.00000000E+00  0.00000000E+00
  0.00000000E+00  0.00000000E+00  0.00000000E+00
  0.00000000E+00  0.00000000E+00  0.00000000E+00
  0.00000000E+00  0.00000000E+00  0.00000000E+00
  0.00000000E+00  0.00000000E+00  0.00000000E+00
  0.00000000E+00  0.00000000E+00  0.00000000E+00
  0.00000000E+00  0.00000000E+00  0.00000000E+00
  0.00000000E+00  0.00000000E+00  0.00000000E+00
  0.00000000E+00  0.00000000E+00  0.00000000E+00
  0.00000000E+00  0.00000000E+00  0.00000000E+00
  0.00000000E+00  0.00000000E+00  0.00000000E+00
  0.00000000E+00  0.00000000E+00  0.00000000E+00
  0.00000000E+00  0.00000000E+00  0.00000000E+00
  0.00000000E+00  0.00000000E+00  0.00000000E+00
  0.00000000E+00  0.00000000E+00  0.00000000E+00
  0.00000000E+00  0.00000000E+00  0.00000000E+00
  0.00000000E+00  0.00000000E+00  0.00000000E+00
  0.00000000E+00  0.00000000E+00  0.00000000E+00
  0.00000000E+00  0.00000000E+00  0.00000000E+00
  0.00000000E+00  0.00000000E+00  0.00000000E+00
  0.00000000E+00  0.00000000E+00  0.00000000E+00
  0.00000000E+00  0.00000000E+00  0.00000000E+00
  0.00000000E+00  0.00000000E+00  0.00000000E+00
  0.00000000E+00  0.00000000E+00  0.00000000E+00
  0.00000000E+00  0.00000000E+00  0.00000000E+00
  0.00000000E+00  0.00000000E+00  0.00000000E+00
  0.00000000E+00  0.00000000E+00  0.00000000E+00
  0.00000000E+00  0.00000000E+00  0.00000000E+00
  0.00000000E+00  0.00000000E+00  0.00000000E+00
  0.00000000E+00  0.00000000E+00  0.00000000E+00
  0.00000000E+00  0.00000000E+00  0.00000000E+00
  0.00000000E+00  0.00000000E+00  0.00000000E+00
  0.00000000E+00  0.00000000E+00  0.00000000E+00
  0.00000000E+00  0.00000000E+00  0.00000000E+00
  0.00000000E+00  0.00000000E+00  0.00000000E+00
  0.00000000E+00  0.00000000E+00  0.00000000E+00
  0.00000000E+00  0.00000000E+00  0.00000000E+00
  0.00000000E+00  0.00000000E+00  0.00000000E+00
  0.00000000E+00  0.00000000E+00  0.00000000E+00
  0.00000000E+00  0.00000000E+00  0.00000000E+00
  0.00000000E+00  0.00000000E+00  0.00000000E+00
  0.00000000E+00  0.00000000E+00  0.00000000E+00
  0.00000000E+00  0.00000000E+00  0.00000000E+00
  0.00000000E+00  0.00000000E+00  0.00000000E+00
  0.00000000E+00  0.00000000E+00  0.00000000E+00
  0.00000000E+00  0.00000000E+00  0.00000000E+00
  0.00000000E+00  0.00000000E+00  0.00000000E+00
  0.00000000E+00  0.00000000E+00  0.00000000E+00
  0.00000000E+00  0.00000000E+00  0.00000000E+00
  0.00000000E+00  0.00000000E+00  0.00000000E+00
  0.00000000E+00  0.00000000E+00  0.00000000E+00
  0.00000000E+00  0.00000000E+00  0.00000000E+00
  0.00000000E+00  0.00000000E+00  0.00000000E+00
  0.00000000E+00  0.00000000E+00  0.00000000E+00
  0.00000000E+00  0.00000000E+00  0.00000000E+00
  0.00000000E+00  0.00000000E+00  0.00000000E+00
  0.00000000E+00  0.00000000E+00  0.00000000E+00
  0.00000000E+00  0.00000000E+00  0.00000000E+00
  0.00000000E+00  0.00000000E+00  0.00000000E+00
  0.00000000E+00  0.00000000E+00  0.00000000E+00
  0.00000000E+00  0.00000000E+00  0.00000000E+00
  0.00000000E+00  0.00000000E+00  0.00000000E+00
  0.00000000E+00  0.00000000E+00  0.00000000E+00
  0.00000000E+00  0.00000000E+00  0.00000000E+00
  0.00000000E+00  0.00000000E+00  0.00000000E+00
  0.00000000E+00  0.00000000E+00  0.00000000E+00
  0.00000000E+00  0.00000000E+00  0.00000000E+00
  0.00000000E+00  0.00000000E+00  0.00000000E+00
  0.00000000E+00  0.00000000E+00  0.00000000E+00
  0.00000000E+00  0.00000000E+00  0.00000000E+00
  0.00000000E+00  0.00000000E+00  0.00000000E+00
  0.00000000E+00  0.00000000E+00  0.00000000E+00
  0.00000000E+00  0.00000000E+00  0.00000000E+00
  0.00000000E+00  0.00000000E+00  0.00000000E+00
  0.00000000E+00  0.00000000E+00  0.00000000E+00
  0.00000000E+00  0.00000000E+00  0.00000000E+00
  0.00000000E+00  0.00000000E+00  0.00000000E+00
  0.00000000E+00  0.00000000E+00  0.00000000E+00
  0.00000000E+00  0.00000000E+00  0.00000000E+00
  0.00000000E+00  0.00000000E+00  0.00000000E+00
  0.00000000E+00  0.00000000E+00  0.00000000E+00
  0.00000000E+00  0.00000000E+00  0.00000000E+00
  0.00000000E+00  0.00000000E+00  0.00000000E+00
  0.00000000E+00  0.00000000E+00  0.00000000E+00
  0.00000000E+00  0.00000000E+00  0.00000000E+00
  0.00000000E+00  0.00000000E+00  0.00000000E+00
  0.00000000E+00  0.00000000E+00  0.00000000E+00
  0.00000000E+00  0.00000000E+00  0.00000000E+00
  0.00000000E+00  0.00000000E+00  0.00000000E+00
  0.00000000E+00  0.00000000E+00  0.00000000E+00
  0.00000000E+00  0.00000000E+00  0.00000000E+00
  0.00000000E+00  0.00000000E+00  0.00000000E+00
  0.00000000E+00  0.00000000E+00  0.00000000E+00
  0.00000000E+00  0.00000000E+00  0.00000000E+00
  0.00000000E+00  0.00000000E+00  0.00000000E+00
  0.00000000E+00  0.00000000E+00  0.00000000E+00
  0.00000000E+00  0.00000000E+00  0.00000000E+00
  0.00000000E+00  0.00000000E+00  0.00000000E+00
  0.00000000E+00  0.00000000E+00  0.00000000E+00
  0.00000000E+00  0.00000000E+00  0.00000000E+00
  0.00000000E+00  0.00000000E+00  0.00000000E+00
  0.00000000E+00  0.00000000E+00  0.00000000E+00
  0.00000000E+00  0.00000000E+00  0.00000000E+00
  0.00000000E+00  0.00000000E+00  0.00000000E+00
  0.00000000E+00  0.00000000E+00  0.00000000E+00
  0.00000000E+00  0.00000000E+00  0.00000000E+00
  0.00000000E+00  0.00000000E+00  0.00000000E+00
  0.00000000E+00  0.00000000E+00  0.00000000E+00
  0.00000000E+00  0.00000000E+00  0.00000000E+00
  0.00000000E+00  0.00000000E+00  0.00000000E+00
  0.00000000E+00  0.00000000E+00  0.00000000E+00
  0.00000000E+00  0.00000000E+00  0.00000000E+00
  0.00000000E+00  0.00000000E+00  0.00000000E+00
  0.00000000E+00  0.00000000E+00  0.00000000E+00
  0.00000000E+00  0.00000000E+00  0.00000000E+00
  0.00000000E+00  0.00000000E+00  0.00000000E+00
  0.00000000E+00  0.00000000E+00  0.00000000E+00
  0.00000000E+00  0.00000000E+00  0.00000000E+00
  0.00000000E+00  0.00000000E+00  0.00000000E+00
  0.00000000E+00  0.00000000E+00  0.00000000E+00
  0.00000000E+00  0.00000000E+00  0.00000000E+00
  0.00000000E+00  0.00000000E+00  0.00000000E+00
  0.00000000E+00  0.00000000E+00  0.00000000E+00
  0.00000000E+00  0.00000000E+00  0.00000000E+00
  0.00000000E+00  0.00000000E+00  0.00000000E+00
  0.00000000E+00  0.00000000E+00  0.00000000E+00
  0.00000000E+00  0.00000000E+00  0.00000000E+00
  0.00000000E+00  0.00000000E+00  0.00000000E+00
  0.00000000E+00  0.00000000E+00  0.00000000E+00
  0.00000000E+00  0.00000000E+00  0.00000000E+00
  0.00000000E+00  0.00000000E+00  0.00000000E+00
  0.00000000E+00  0.00000000E+00  0.00000000E+00
  0.00000000E+00  0.00000000E+00  0.00000000E+00
  0.00000000E+00  0.00000000E+00  0.00000000E+00
  0.00000000E+00  0.00000000E+00  0.00000000E+00
  0.00000000E+00  0.00000000E+00  0.00000000E+00
  0.00000000E+00  0.00000000E+00  0.00000000E+00
  0.00000000E+00  0.00000000E+00  0.00000000E+00
  0.00000000E+00  0.00000000E+00  0.00000000E+00
  0.00000000E+00  0.00000000E+00  0.00000000E+00
  0.00000000E+00  0.00000000E+00  0.00000000E+00
  0.00000000E+00  0.00000000E+00  0.00000000E+00
  0.00000000E+00  0.00000000E+00  0.00000000E+00
  0.00000000E+00  0.00000000E+00  0.00000000E+00
  0.00000000E+00  0.00000000E+00  0.00000000E+00
  0.00000000E+00  0.00000000E+00  0.00000000E+00
  0.00000000E+00  0.00000000E+00  0.00000000E+00
  0.00000000E+00  0.00000000E+00  0.00000000E+00
  0.00000000E+00  0.00000000E+00  0.00000000E+00
  0.00000000E+00  0.00000000E+00  0.00000000E+00
  0.00000000E+00  0.00000000E+00  0.00000000E+00
  0.00000000E+00  0.00000000E+00  0.00000000E+00
  0.00000000E+00  0.00000000E+00  0.00000000E+00
  0.00000000E+00  0.00000000E+00  0.00000000E+00
  0.00000000E+00  0.00000000E+00  0.00000000E+00
  0.00000000E+00  0.00000000E+00  0.00000000E+00
  0.00000000E+00  0.00000000E+00  0.00000000E+00
  0.00000000E+00  0.00000000E+00  0.00000000E+00
  0.00000000E+00  0.00000000E+00  0.00000000E+00
  0.00000000E+00  0.00000000E+00  0.00000000E+00
  0.00000000E+00  0.00000000E+00  0.00000000E+00
  0.00000000E+00  0.00000000E+00  0.00000000E+00
  0.00000000E+00  0.00000000E+00  0.00000000E+00
  0.00000000E+00  0.00000000E+00  0.00000000E+00
  0.00000000E+00  0.00000000E+00  0.00000000E+00
  0.00000000E+00  0.00000000E+00  0.00000000E+00
  0.00000000E+00  0.00000000E+00  0.00000000E+00
  0.00000000E+00  0.00000000E+00  0.00000000E+00
  0.00000000E+00  0.00000000E+00  0.00000000E+00
  0.00000000E+00  0.00000000E+00  0.00000000E+00
  0.00000000E+00  0.00000000E+00  0.00000000E+00
  0.00000000E+00  0.00000000E+00  0.00000000E+00
  0.00000000E+00  0.00000000E+00  0.00000000E+00
  0.00000000E+00  0.00000000E+00  0.00000000E+00
  0.00000000E+00  0.00000000E+00  0.00000000E+00
  0.00000000E+00  0.00000000E+00  0.00000000E+00
  0.00000000E+00  0.00000000E+00  0.00000000E+00
  0.00000000E+00  0.00000000E+00  0.00000000E+00
  0.00000000E+00  0.00000000E+00  0.00000000E+00
  0.00000000E+00  0.00000000E+00  0.00000000E+00
  0.00000000E+00  0.00000000E+00  0.00000000E+00
  0.00000000E+00  0.00000000E+00  0.00000000E+00
  0.00000000E+00  0.00000000E+00  0.00000000E+00
  0.00000000E+00  0.00000000E+00  0.00000000E+00
  0.00000000E+00  0.00000000E+00  0.00000000E+00
  0.00000000E+00  0.00000000E+00  0.00000000E+00
  0.00000000E+00  0.00000000E+00  0.00000000E+00
  0.00000000E+00  0.00000000E+00  0.00000000E+00
  0.00000000E+00  0.00000000E+00  0.00000000E+00
  0.00000000E+00  0.00000000E+00  0.00000000E+00
  0.00000000E+00  0.00000000E+00  0.00000000E+00
  0.00000000E+00  0.00000000E+00  0.00000000E+00
  0.00000000E+00  0.00000000E+00  0.00000000E+00
  0.00000000E+00  0.00000000E+00  0.00000000E+00
  0.00000000E+00  0.00000000E+00  0.00000000E+00
  0.00000000E+00  0.00000000E+00  0.00000000E+00
  0.00000000E+00  0.00000000E+00  0.00000000E+00
  0.00000000E+00  0.00000000E+00  0.00000000E+00
  0.00000000E+00  0.00000000E+00  0.00000000E+00
  0.00000000E+00  0.00000000E+00  0.00000000E+00
  0.00000000E+00  0.00000000E+00  0.00000000E+00
  0.00000000E+00  0.00000000E+00  0.00000000E+00
  0.00000000E+00  0.00000000E+00  0.00000000E+00
  0.00000000E+00  0.00000000E+00  0.00000000E+00
  0.00000000E+00  0.00000000E+00  0.00000000E+00
  0.00000000E+00  0.00000000E+00  0.00000000E+00
  0.00000000E+00  0.00000000E+00  0.00000000E+00
  0.00000000E+00  0.00000000E+00  0.00000000E+00
  0.00000000E+00  0.00000000E+00  0.00000000E+00
  0.00000000E+00  0.00000000E+00  0.00000000E+00
  0.00000000E+00  0.00000000E+00  0.00000000E+00
  0.00000000E+00  0.00000000E+00  0.00000000E+00
  0.00000000E+00  0.00000000E+00  0.00000000E+00
  0.00000000E+00  0.00000000E+00  0.00000000E+00
  0.00000000E+00  0.00000000E+00  0.00000000E+00
  0.00000000E+00  0.00000000E+00  0.00000000E+00
  0.00000000E+00  0.00000000E+00  0.00000000E+00