CuInSe2gb                               
   1.00000000000000     
     9.7266780392896699    0.0000000000000000    0.0000000000000000
     0.0000000000000000    8.4235502764570693    0.0000000000000000
     0.0000000000000000    0.0000000000000000   45.0000000000000000
   Fe   Mn
   274    14
Direct
  0.0622579201612551  0.0369366276788673  0.1256960167821913
  0.3125989885421589  0.8716811748073680  0.6539937046424970
  0.1875244940545452  0.1189482700771997  0.7870667362027691
  0.4379082537209871  0.2909164822709456  0.3900164698312141
  0.3134416306140853  0.7062651506610123  0.8316551489445240
  0.8141124199243205  0.2072245450620832  0.8322922448564429
  0.1873804670794980  0.9570684461853688  0.8321378271673424
  0.5628087210317312  0.2060889027997035  0.5654212378435265
  0.0621496257587485  0.0365551008467965  0.7428379050613729
  0.8121420577195977  0.8717476697331257  0.5214568516044731
  0.1876866529143306  0.2869676914255653  0.7427323762436877
  0.9371668824167674  0.4569621157746023  0.3460101193187746
  0.9368176985102536  0.2905415810046257  0.3900880641190245
  0.8120931901745042  0.0377585080808345  0.8742749745225554
  0.1870209959389140  0.7875417065369786  0.6099870246242136
  0.5618023857242410  0.0406111955606812  0.3901297004936868
  0.9390659163037244  0.9576620392449865  0.8324627019429577
  0.3130912323433934  0.5377614332097649  0.8741673432025121
  0.6881818760496957  0.2872113987712268  0.7427003834817740
  0.1879272365431038  0.6199906224129984  0.1677662659764110
  0.8116255054618940  0.2062671932744278  0.4786140504697491
  0.8123607817364484  0.5371988228438768  0.6100962174728188
  0.3122608958028725  0.8732288402027004  0.4347844033906579
  0.8125808452593141  0.0408219089138517  0.2573046285320306
  0.6874998997998686  0.9569402865498662  0.3459525216693337
  0.9371904187657215  0.1203460192532868  0.1681046745052135
  0.0629254883592953  0.8719347167367684  0.5214690023677601
  0.5624969992381491  0.5412542481052199  0.2571642922488139
  0.6873329299663503  0.7887286349244395  0.8742305518655136
  0.5632838613342891  0.3703710260611925  0.1677586526721005
  0.4374563951965550  0.7873313092111949  0.7428068665079733
  0.8123430277683426  0.7056537006755456  0.5652606267875725
  0.5624828320279053  0.8688561772160267  0.7870219035579552
  0.6873628166472742  0.1215572638492973  0.5215279455543669
  0.8127073967099110  0.3712860627026215  0.6541170989169911
  0.9381403004831602  0.4566937477692826  0.8322441060850037
  0.0621721194159568  0.2049197990080504  0.6985159054731352
  0.4373168413266285  0.9549732861988920  0.6984662525873859
  0.3126807092703495  0.2055565827218964  0.8322087604469807
  0.4375187573693403  0.6216729616768739  0.6540281477220206
  0.3120246529605429  0.5375633580676017  0.6099710883954149
  0.9374743364710260  0.4559091118608935  0.5653029405957700
  0.6879151326301395  0.7873938493252353  0.7428441095316907
  0.9363361165358401  0.7882123438183777  0.1259450920664967
  0.6875083673069741  0.7896940556248540  0.3899634889341477
  0.9378727397972855  0.7867760559131134  0.7429167678522758
  0.0624044192448373  0.2070690469861834  0.3459287064318415
  0.8123576859572565  0.0406006202183446  0.3901809954554178
  0.4375178829346705  0.1191253827656715  0.7870847701581944
  0.0620750832415135  0.2067284162796748  0.2129524316305882
  0.0618263820736267  0.3703195737565571  0.1678211335010225
  0.9368345970365173  0.7911806302724772  0.2571999724349196
  0.5625509102478011  0.2047638860487947  0.6984358702556066
  0.6874880536059329  0.9548791315195049  0.6985186399164952
  0.4377750566383328  0.7882061235068976  0.1255094584113412
  0.4372329186591605  0.9559973189438113  0.5650795981573472
  0.8128410106981454  0.3688145906796655  0.7869965544395672
  0.6866526578707169  0.2909894014827530  0.2572045741929673
  0.1878485869209202  0.4559875988618141  0.5652778830656578
  0.0624675893392957  0.8706368661771725  0.1678744949980561
  0.1871291439777225  0.2872720819530972  0.6101076307560764
  0.5629980127378498  0.7069347482796798  0.3461262097951546
  0.3124611936606351  0.2047842689390253  0.6984751079399332
  0.5625104277973021  0.5382237091913125  0.8740306911350864
  0.0627118664066497  0.7057174452364197  0.5652512695460896
  0.6878896511913598  0.6189155023661203  0.7870384412261038
  0.3122325315360220  0.5407063053551063  0.3901238908785999
  0.1877873740019504  0.6222292041234900  0.5214264695750995
  0.5623579455404082  0.8731435623797159  0.4348236943968311
  0.4371887081961097  0.4563259605144233  0.5652876533634615
  0.4377875884303475  0.2874505802767967  0.7428149317422723
  0.8125746829057811  0.8759276688039339  0.3013990294936874
  0.8123072015550605  0.7066180178755485  0.3460391152128442
  0.4382715468713391  0.4557626260395948  0.8319610199061408
  0.6878282962573995  0.9562981802337246  0.4784751561427608
  0.6872233780741289  0.4551892762613168  0.6984487267290288
  0.5626601998938540  0.8718617230782154  0.5213785645634551
  0.5627897742548537  0.3714049934707934  0.6539056313133367
  0.8127615921527048  0.8714242036113306  0.6540614695522042
  0.8125593560855949  0.3734650084653440  0.4346310185321444
  0.8126088791064068  0.5409254239447093  0.2571999948180839
  0.6888584649748931  0.4558734629433558  0.8320986116883807
  0.1876609244913865  0.7882863877554436  0.1255127908146991
  0.6873725769036847  0.2906853313611872  0.3900098939246166
  0.3125765309023054  0.3715585357063273  0.6539609756733589
  0.3125304654710958  0.2067622564576143  0.3459475943139255
  0.8129783846238950  0.5366368463769081  0.7428472712163572
  0.6880569119742905  0.9562544213662127  0.8321598902796611
  0.5625758871607930  0.8715704544941241  0.6539664152074550
  0.3122851586207182  0.7056589759471663  0.5653633412336223
  0.3126500464549319  0.5374710421970940  0.1255518410228575
  0.6874060067399340  0.9576366552624366  0.2130788196629537
  0.3122918574062866  0.2065568262273565  0.5654138094469825
  0.1869409502226960  0.9563777325744195  0.4784395027902750
  0.6876511591999890  0.9560759474374823  0.5653571016704455
  0.4369281785181187  0.7873635728818161  0.6099897873560237
  0.6876031916728577  0.6198406907402283  0.1679308083613964
  0.3122987275630220  0.8752664407712755  0.3013436261678404
  0.3124582687146077  0.7054558031811458  0.4785025913385337
  0.9369457136074784  0.2871382779355494  0.6099729628021473
  0.4378940321204917  0.6254702973240625  0.3014838108985525
  0.8126003169055722  0.8702012061655189  0.1680059972484722
  0.5629516419170996  0.2068310077344572  0.2128798688686466
  0.9373467490517451  0.6199214590381876  0.1679688300182524
  0.9380924743835746  0.7876165892949970  0.8744424762595313
  0.5623021514559354  0.3687538027720435  0.7869776888367237
  0.0624153529502849  0.3725320456418874  0.5214326374805215
  0.3125151643914839  0.3698712140617803  0.1679108708962535
  0.6878454348017249  0.1255781806824960  0.3014638029482086
  0.4389899973014951  0.9558067664078783  0.8319673028987744
  0.1868075041104292  0.2885345725551303  0.1258806839893681
  0.1865277609546807  0.2910074730315279  0.2572623427429417
  0.3122455783198569  0.3732491189683011  0.4346566879579486
  0.5636327690642802  0.0372328828049725  0.1257039622575619
  0.4370014939588029  0.2873552633662689  0.6099098407102944
  0.1870095952909546  0.4575512829507131  0.3461553110761893
  0.4382906403280025  0.2886675775091350  0.1258484330144285
  0.6872965045930001  0.7915041257272208  0.2571520203826677
  0.4369574917669029  0.1224606172063854  0.5214710345975689
  0.1889646289362341  0.2891065303277348  0.8743819079841175
  0.1877510184859309  0.1217576119540760  0.6541214532804577
  0.9376962469072041  0.1213112943726726  0.6539827885851011
  0.3125044652988687  0.2072540635259572  0.2128655043170452
  0.0623340434380499  0.0404913129784978  0.3900584243360574
  0.1871120573428788  0.1194700048681525  0.1677714865936981
  0.0621130784861130  0.5370823457719842  0.6100544617411274
  0.9373587042154599  0.2905938989986233  0.2571314642747302
  0.5620763456249929  0.5374193227262488  0.6099426300397918
  0.8125675211182772  0.3709907887157746  0.1680608807946151
  0.6876214697441757  0.6256379349250994  0.3014077274999954
  0.9372422416376494  0.6234206019861035  0.4348157842695550
  0.9374055090550476  0.6196236058707246  0.7868829890830652
  0.5619212520524579  0.7044779170531529  0.6983727106339525
  0.0630150030940637  0.7080516386462883  0.8323181579199552
  0.9376733271458306  0.1255844695807214  0.3014007994395552
  0.9371440631617269  0.7871376841935439  0.6099774804175947
  0.4370128048100347  0.7915744176124307  0.2572197923901841
  0.3123546939405802  0.3685070305901717  0.7869004672163457
  0.4378810014726002  0.4572362325281543  0.2128877865287407
  0.1877493747381657  0.1216585716327023  0.5214879619573123
  0.8123938359905291  0.7051763828615643  0.6985436345920216
  0.0619261411803007  0.0374122745722511  0.6099406159996201
  0.5626666186273285  0.2059538172350439  0.8318281431832095
  0.3117686641560783  0.8717934631685383  0.5214049283125904
  0.6878539856641271  0.2879203022966135  0.1259245399978824
  0.1871811180661941  0.9578476335980366  0.2130594832834333
  0.6866517942540094  0.2874347785093307  0.6100656634632581
  0.3119161105103511  0.0371533312972733  0.6100774244329997
  0.9377966009112358  0.1192349885283623  0.7872024539084536
  0.4378792572745699  0.7884609555779992  0.8740657444516753
  0.8130538351644074  0.0370398665562512  0.7427777892977783
  0.9373352141833194  0.4553212390348454  0.6985245951027831
  0.1875856637975135  0.6215958215074668  0.6539881559317523
  0.3123076232949055  0.7048385755201859  0.6984988216555893
  0.9370799889742079  0.2879001065610873  0.1259429644508580
  0.4370410303874283  0.4560138870423713  0.4785971473773567
  0.0624941094823552  0.7053782576222183  0.4785368670219782
  0.9371228799973621  0.1232074234833380  0.4350543985301331
  0.4376243397244254  0.1249473254721083  0.3014238244902019
  0.1876024590746591  0.1231470393183992  0.4346682580329535
  0.5627615311701101  0.0373357126919232  0.8742023396365249
  0.1874149383713386  0.9564039693642826  0.5654256368646364
  0.6891218575434592  0.7883052900143941  0.1259116896952787
  0.5637278978127860  0.5362135684525178  0.1256715048061343
  0.3125752254142638  0.0404707080270611  0.3901129380042339
  0.6879126105682239  0.1203931094152833  0.1680708279545924
  0.8125707077971437  0.2073016692744666  0.2128415550000894
  0.0624787032591726  0.5412757428196239  0.2571742880705014
  0.5623479044474894  0.7053321676052491  0.4785583411558866
  0.0627205880203536  0.2062690711294144  0.5653172946175268
  0.5622598400980379  0.3755387454412178  0.3013780324171795
  0.4370577377083488  0.9566834066083929  0.3460637298240085
  0.1872983393853848  0.9550539728142603  0.6986052472096091
  0.4371041078234367  0.6199673793837446  0.1676647467829087
  0.9374704943217762  0.4574168097945649  0.2130261377229869
  0.0614837213128094  0.5363432663607458  0.1257496456152045
  0.8127563090904796  0.3724061363319288  0.5214779138820679
  0.9373519328639909  0.6252204482745600  0.3013498046987583
  0.3124286056291203  0.0407410443261238  0.2571311681626220
  0.6872565184557371  0.7872212092455726  0.6100080361218007
  0.1877825187523123  0.4568508147651810  0.8322296041758899
  0.4379116699796202  0.1196441472330395  0.1678670890422994
  0.3120152138079905  0.3718663376843472  0.5214737560970738
  0.4378770929701491  0.6185954760496338  0.7870477767796883
  0.0619737271760979  0.0407805598362570  0.2572131532415954
  0.5625375766392543  0.7055175650615206  0.5654376755188140
  0.9379747320120611  0.2866049786048170  0.7428185848777977
  0.6869214107348315  0.1189569168656104  0.7868902907356036
  0.1870379045354529  0.4573253395169050  0.2129171872919380
  0.9370562975606230  0.7906387075699477  0.3900695367128041
  0.6868872874438779  0.2897281860501086  0.8743172013004270
  0.5627785202649968  0.8706604562065787  0.1678423999271116
  0.4373267492522657  0.4549049106303333  0.6985360651219219
  0.9377972759351710  0.9569469167532079  0.3459832246586130
  0.6872076789973715  0.6225565238790629  0.5214425968295701
  0.0625050172617333  0.8713218135385762  0.6540685130526664
  0.0628172403001763  0.8693561782591678  0.7870643574749765
  0.0625775089496080  0.3711522572627499  0.6540239792272087
  0.6878115919782422  0.4558680893541072  0.4785790532073768
  0.1869744940239391  0.7916870274280314  0.2572248080195918
  0.4373798521900835  0.1236219714239269  0.4346287716619252
  0.8129867477093630  0.0365625743629876  0.1258746514063879
  0.9373840586716248  0.6224274596708427  0.5214596666152463
  0.0626462449924748  0.8729763570841295  0.4346680569010361
  0.8126768950117187  0.5368968343229005  0.1256634120625971
  0.4368586178739834  0.4569750843639370  0.3461185885286856
  0.8128891854884674  0.2073368362459765  0.3460836779433638
  0.3124644883796686  0.7072779881637150  0.3460078405337375
  0.6873445186862609  0.1215687609253421  0.6540795982085220
  0.5628330916846312  0.8755062521294609  0.3015486889494410
  0.0627063363897311  0.5362188633666938  0.7427539995421774
  0.9379880813599075  0.9575295557117433  0.2130412060035169
  0.8125110944930234  0.7071623753056845  0.2129334436157951
  0.0619195562675496  0.8751450357564610  0.3015408171306440
  0.1873531703086685  0.1251378328075654  0.3013952317302318
  0.0619844765545239  0.7071991607032180  0.3461224509090456
  0.8120047197181011  0.0374318766059475  0.6099311219108806
  0.0624104632837737  0.3734392740334257  0.4345907182953018
  0.5622553451287706  0.2068489990989431  0.3460100858034744
  0.8127306862423834  0.3752675818917964  0.3014224711426591
  0.5627787034848318  0.0412647783347247  0.2572288118313913
  0.5623433513034436  0.5403799954383137  0.3901217066419371
  0.0628029639900562  0.2060536777732232  0.4785170674921668
  0.3127343088539952  0.8684632485939074  0.7868424173894234
  0.9373579536624067  0.9551232441535543  0.6984843268825759
  0.0624546259471094  0.3755457014935215  0.3013401535104113
  0.6877510053425041  0.6216327061643993  0.6540240647592814
  0.6872194652030865  0.4560246616944272  0.5653039415204106
  0.4379794337479121  0.9579173897308374  0.2130739902235598
  0.3121092975581364  0.2058328386348758  0.4785231471251687
  0.4377145109912802  0.1216167452185215  0.6539395230900215
  0.6872930703237800  0.6234856606481478  0.4346658095243055
  0.8125790870360924  0.2051357744875267  0.6984667330097338
  0.8122281552729769  0.7054080412792374  0.4785042317177452
  0.8123277914930750  0.8729849173333376  0.4347393138708884
  0.9374895785837468  0.9551500475177206  0.4787038711961106
  0.5628431542749956  0.2054335170632416  0.4785598903607844
  0.1872375126167672  0.6235304185063730  0.4347519503950513
  0.3123755864112990  0.0371461903827912  0.7427780605251253
  0.9374750204157897  0.6212144031868992  0.6540442251684792
  0.5634126141540591  0.7062558724252332  0.8320579804697519
  0.3124455076682969  0.3748613101296621  0.3014924859425479
  0.5623921571978181  0.7073153396436314  0.2128317240310607
  0.1872437690841293  0.4557012561065069  0.4784907691821956
  0.3139678654369304  0.0389480067772434  0.8740457649724178
  0.1871936901777087  0.4551204858867934  0.6984696852271706
  0.8118190447432583  0.5373522373503192  0.8742981833981662
  0.1873714640342886  0.2904344852679705  0.3900749557676665
  0.4370887040200704  0.6239979229054370  0.4347126000928584
  0.0624710471976037  0.7073674816443712  0.2128796424179193
  0.5624190072134896  0.3735630978159413  0.4350431507911842
  0.4372814883476318  0.6228926632729551  0.5214365137217237
  0.8131163761276538  0.7076978147472039  0.8317156702296309
  0.0628402216908456  0.3693325246424460  0.7870045237414168
  0.4371661530883439  0.2892699752275059  0.8742956808262063
  0.3130496587793974  0.0369459302558510  0.1254404725881341
  0.6871074859986411  0.1224159856199928  0.4346572126303541
  0.1870162799215680  0.9570465098885339  0.3460173382610536
  0.0627846170366162  0.2067480982308661  0.8323086957985081
  0.5620787371843040  0.0369193658005944  0.6100693417681445
  0.6877394228628118  0.4573165448241326  0.2129708057172001
  0.1875407853927917  0.7867196162865410  0.7428050318734717
  0.1872374633145715  0.6256713159913413  0.3015804769401123
  0.4373785628653754  0.7908880017423340  0.3902149805368763
  0.4367214888724437  0.2911145244895584  0.2571125149829585
  0.0638855170462510  0.5386035244732887  0.8742722782720510
  0.5633968546878884  0.0371430960832452  0.7428479108048085
  0.1877350967770922  0.7880238699178619  0.8742778845282005
  0.9374287828463603  0.4554007560688115  0.4785536077836161
  0.5630405148056388  0.5372869273921573  0.7425625857993768
  0.8119287389526457  0.2063783782413334  0.5652947277666253
  0.1871817827057825  0.6188737453135410  0.7869964513160478
  0.0627777236239475  0.5404022335372400  0.3901090061653333
  0.0626323096229493  0.7048665731115221  0.6985078424652024
  0.3122925037240882  0.5414201472128419  0.2570198392587206
  0.3123621646722767  0.7065350662706193  0.2132258935145394
  0.3125245507693006  0.8701395666435523  0.1671598653290566
  0.8126332322468938  0.5401003905726987  0.3901364541783017
  0.6872313343141662  0.4565067200473500  0.3459152231387350
  0.9355702786021154  0.2901482891970278  0.8742313178569573
  0.4374637364678334  0.9557858659748995  0.4786369997901790
  0.0637403178789080  0.0352895926612076  0.8741895438226605
  0.1870886119121583  0.7913198726256394  0.3901237315018730
  0.9374004133963035  0.9552780192976649  0.5655750783198565
  0.5624639656870547  0.3721389088130531  0.5213994450784815
  0.9372323871056526  0.1217660922073486  0.5212880280777776
  0.8120476981919187  0.8688669511344990  0.7867442499041463
  0.3126314063543468  0.5363527886636165  0.7428570231415530
 
  0.00000000E+00  0.00000000E+00  0.00000000E+00
  0.00000000E+00  0.00000000E+00  0.00000000E+00
  0.00000000E+00  0.00000000E+00  0.00000000E+00
  0.00000000E+00  0.00000000E+00  0.00000000E+00
  0.00000000E+00  0.00000000E+00  0.00000000E+00
  0.00000000E+00  0.00000000E+00  0.00000000E+00
  0.00000000E+00  0.00000000E+00  0.00000000E+00
  0.00000000E+00  0.00000000E+00  0.00000000E+00
  0.00000000E+00  0.00000000E+00  0.00000000E+00
  0.00000000E+00  0.00000000E+00  0.00000000E+00
  0.00000000E+00  0.00000000E+00  0.00000000E+00
  0.00000000E+00  0.00000000E+00  0.00000000E+00
  0.00000000E+00  0.00000000E+00  0.00000000E+00
  0.00000000E+00  0.00000000E+00  0.00000000E+00
  0.00000000E+00  0.00000000E+00  0.00000000E+00
  0.00000000E+00  0.00000000E+00  0.00000000E+00
  0.00000000E+00  0.00000000E+00  0.00000000E+00
  0.00000000E+00  0.00000000E+00  0.00000000E+00
  0.00000000E+00  0.00000000E+00  0.00000000E+00
  0.00000000E+00  0.00000000E+00  0.00000000E+00
  0.00000000E+00  0.00000000E+00  0.00000000E+00
  0.00000000E+00  0.00000000E+00  0.00000000E+00
  0.00000000E+00  0.00000000E+00  0.00000000E+00
  0.00000000E+00  0.00000000E+00  0.00000000E+00
  0.00000000E+00  0.00000000E+00  0.00000000E+00
  0.00000000E+00  0.00000000E+00  0.00000000E+00
  0.00000000E+00  0.00000000E+00  0.00000000E+00
  0.00000000E+00  0.00000000E+00  0.00000000E+00
  0.00000000E+00  0.00000000E+00  0.00000000E+00
  0.00000000E+00  0.00000000E+00  0.00000000E+00
  0.00000000E+00  0.00000000E+00  0.00000000E+00
  0.00000000E+00  0.00000000E+00  0.00000000E+00
  0.00000000E+00  0.00000000E+00  0.00000000E+00
  0.00000000E+00  0.00000000E+00  0.00000000E+00
  0.00000000E+00  0.00000000E+00  0.00000000E+00
  0.00000000E+00  0.00000000E+00  0.00000000E+00
  0.00000000E+00  0.00000000E+00  0.00000000E+00
  0.00000000E+00  0.00000000E+00  0.00000000E+00
  0.00000000E+00  0.00000000E+00  0.00000000E+00
  0.00000000E+00  0.00000000E+00  0.00000000E+00
  0.00000000E+00  0.00000000E+00  0.00000000E+00
  0.00000000E+00  0.00000000E+00  0.00000000E+00
  0.00000000E+00  0.00000000E+00  0.00000000E+00
  0.00000000E+00  0.00000000E+00  0.00000000E+00
  0.00000000E+00  0.00000000E+00  0.00000000E+00
  0.00000000E+00  0.00000000E+00  0.00000000E+00
  0.00000000E+00  0.00000000E+00  0.00000000E+00
  0.00000000E+00  0.00000000E+00  0.00000000E+00
  0.00000000E+00  0.00000000E+00  0.00000000E+00
  0.00000000E+00  0.00000000E+00  0.00000000E+00
  0.00000000E+00  0.00000000E+00  0.00000000E+00
  0.00000000E+00  0.00000000E+00  0.00000000E+00
  0.00000000E+00  0.00000000E+00  0.00000000E+00
  0.00000000E+00  0.00000000E+00  0.00000000E+00
  0.00000000E+00  0.00000000E+00  0.00000000E+00
  0.00000000E+00  0.00000000E+00  0.00000000E+00
  0.00000000E+00  0.00000000E+00  0.00000000E+00
  0.00000000E+00  0.00000000E+00  0.00000000E+00
  0.00000000E+00  0.00000000E+00  0.00000000E+00
  0.00000000E+00  0.00000000E+00  0.00000000E+00
  0.00000000E+00  0.00000000E+00  0.00000000E+00
  0.00000000E+00  0.00000000E+00  0.00000000E+00
  0.00000000E+00  0.00000000E+00  0.00000000E+00
  0.00000000E+00  0.00000000E+00  0.00000000E+00
  0.00000000E+00  0.00000000E+00  0.00000000E+00
  0.00000000E+00  0.00000000E+00  0.00000000E+00
  0.00000000E+00  0.00000000E+00  0.00000000E+00
  0.00000000E+00  0.00000000E+00  0.00000000E+00
  0.00000000E+00  0.00000000E+00  0.00000000E+00
  0.00000000E+00  0.00000000E+00  0.00000000E+00
  0.00000000E+00  0.00000000E+00  0.00000000E+00
  0.00000000E+00  0.00000000E+00  0.00000000E+00
  0.00000000E+00  0.00000000E+00  0.00000000E+00
  0.00000000E+00  0.00000000E+00  0.00000000E+00
  0.00000000E+00  0.00000000E+00  0.00000000E+00
  0.00000000E+00  0.00000000E+00  0.00000000E+00
  0.00000000E+00  0.00000000E+00  0.00000000E+00
  0.00000000E+00  0.00000000E+00  0.00000000E+00
  0.00000000E+00  0.00000000E+00  0.00000000E+00
  0.00000000E+00  0.00000000E+00  0.00000000E+00
  0.00000000E+00  0.00000000E+00  0.00000000E+00
  0.00000000E+00  0.00000000E+00  0.00000000E+00
  0.00000000E+00  0.00000000E+00  0.00000000E+00
  0.00000000E+00  0.00000000E+00  0.00000000E+00
  0.00000000E+00  0.00000000E+00  0.00000000E+00
  0.00000000E+00  0.00000000E+00  0.00000000E+00
  0.00000000E+00  0.00000000E+00  0.00000000E+00
  0.00000000E+00  0.00000000E+00  0.00000000E+00
  0.00000000E+00  0.00000000E+00  0.00000000E+00
  0.00000000E+00  0.00000000E+00  0.00000000E+00
  0.00000000E+00  0.00000000E+00  0.00000000E+00
  0.00000000E+00  0.00000000E+00  0.00000000E+00
  0.00000000E+00  0.00000000E+00  0.00000000E+00
  0.00000000E+00  0.00000000E+00  0.00000000E+00
  0.00000000E+00  0.00000000E+00  0.00000000E+00
  0.00000000E+00  0.00000000E+00  0.00000000E+00
  0.00000000E+00  0.00000000E+00  0.00000000E+00
  0.00000000E+00  0.00000000E+00  0.00000000E+00
  0.00000000E+00  0.00000000E+00  0.00000000E+00
  0.00000000E+00  0.00000000E+00  0.00000000E+00
  0.00000000E+00  0.00000000E+00  0.00000000E+00
  0.00000000E+00  0.00000000E+00  0.00000000E+00
  0.00000000E+00  0.00000000E+00  0.00000000E+00
  0.00000000E+00  0.00000000E+00  0.00000000E+00
  0.00000000E+00  0.00000000E+00  0.00000000E+00
  0.00000000E+00  0.00000000E+00  0.00000000E+00
  0.00000000E+00  0.00000000E+00  0.00000000E+00
  0.00000000E+00  0.00000000E+00  0.00000000E+00
  0.00000000E+00  0.00000000E+00  0.00000000E+00
  0.00000000E+00  0.00000000E+00  0.00000000E+00
  0.00000000E+00  0.00000000E+00  0.00000000E+00
  0.00000000E+00  0.00000000E+00  0.00000000E+00
  0.00000000E+00  0.00000000E+00  0.00000000E+00
  0.00000000E+00  0.00000000E+00  0.00000000E+00
  0.00000000E+00  0.00000000E+00  0.00000000E+00
  0.00000000E+00  0.00000000E+00  0.00000000E+00
  0.00000000E+00  0.00000000E+00  0.00000000E+00
  0.00000000E+00  0.00000000E+00  0.00000000E+00
  0.00000000E+00  0.00000000E+00  0.00000000E+00
  0.00000000E+00  0.00000000E+00  0.00000000E+00
  0.00000000E+00  0.00000000E+00  0.00000000E+00
  0.00000000E+00  0.00000000E+00  0.00000000E+00
  0.00000000E+00  0.00000000E+00  0.00000000E+00
  0.00000000E+00  0.00000000E+00  0.00000000E+00
  0.00000000E+00  0.00000000E+00  0.00000000E+00
  0.00000000E+00  0.00000000E+00  0.00000000E+00
  0.00000000E+00  0.00000000E+00  0.00000000E+00
  0.00000000E+00  0.00000000E+00  0.00000000E+00
  0.00000000E+00  0.00000000E+00  0.00000000E+00
  0.00000000E+00  0.00000000E+00  0.00000000E+00
  0.00000000E+00  0.00000000E+00  0.00000000E+00
  0.00000000E+00  0.00000000E+00  0.00000000E+00
  0.00000000E+00  0.00000000E+00  0.00000000E+00
  0.00000000E+00  0.00000000E+00  0.00000000E+00
  0.00000000E+00  0.00000000E+00  0.00000000E+00
  0.00000000E+00  0.00000000E+00  0.00000000E+00
  0.00000000E+00  0.00000000E+00  0.00000000E+00
  0.00000000E+00  0.00000000E+00  0.00000000E+00
  0.00000000E+00  0.00000000E+00  0.00000000E+00
  0.00000000E+00  0.00000000E+00  0.00000000E+00
  0.00000000E+00  0.00000000E+00  0.00000000E+00
  0.00000000E+00  0.00000000E+00  0.00000000E+00
  0.00000000E+00  0.00000000E+00  0.00000000E+00
  0.00000000E+00  0.00000000E+00  0.00000000E+00
  0.00000000E+00  0.00000000E+00  0.00000000E+00
  0.00000000E+00  0.00000000E+00  0.00000000E+00
  0.00000000E+00  0.00000000E+00  0.00000000E+00
  0.00000000E+00  0.00000000E+00  0.00000000E+00
  0.00000000E+00  0.00000000E+00  0.00000000E+00
  0.00000000E+00  0.00000000E+00  0.00000000E+00
  0.00000000E+00  0.00000000E+00  0.00000000E+00
  0.00000000E+00  0.00000000E+00  0.00000000E+00
  0.00000000E+00  0.00000000E+00  0.00000000E+00
  0.00000000E+00  0.00000000E+00  0.00000000E+00
  0.00000000E+00  0.00000000E+00  0.00000000E+00
  0.00000000E+00  0.00000000E+00  0.00000000E+00
  0.00000000E+00  0.00000000E+00  0.00000000E+00
  0.00000000E+00  0.00000000E+00  0.00000000E+00
  0.00000000E+00  0.00000000E+00  0.00000000E+00
  0.00000000E+00  0.00000000E+00  0.00000000E+00
  0.00000000E+00  0.00000000E+00  0.00000000E+00
  0.00000000E+00  0.00000000E+00  0.00000000E+00
  0.00000000E+00  0.00000000E+00  0.00000000E+00
  0.00000000E+00  0.00000000E+00  0.00000000E+00
  0.00000000E+00  0.00000000E+00  0.00000000E+00
  0.00000000E+00  0.00000000E+00  0.00000000E+00
  0.00000000E+00  0.00000000E+00  0.00000000E+00
  0.00000000E+00  0.00000000E+00  0.00000000E+00
  0.00000000E+00  0.00000000E+00  0.00000000E+00
  0.00000000E+00  0.00000000E+00  0.00000000E+00
  0.00000000E+00  0.00000000E+00  0.00000000E+00
  0.00000000E+00  0.00000000E+00  0.00000000E+00
  0.00000000E+00  0.00000000E+00  0.00000000E+00
  0.00000000E+00  0.00000000E+00  0.00000000E+00
  0.00000000E+00  0.00000000E+00  0.00000000E+00
  0.00000000E+00  0.00000000E+00  0.00000000E+00
  0.00000000E+00  0.00000000E+00  0.00000000E+00
  0.00000000E+00  0.00000000E+00  0.00000000E+00
  0.00000000E+00  0.00000000E+00  0.00000000E+00
  0.00000000E+00  0.00000000E+00  0.00000000E+00
  0.00000000E+00  0.00000000E+00  0.00000000E+00
  0.00000000E+00  0.00000000E+00  0.00000000E+00
  0.00000000E+00  0.00000000E+00  0.00000000E+00
  0.00000000E+00  0.00000000E+00  0.00000000E+00
  0.00000000E+00  0.00000000E+00  0.00000000E+00
  0.00000000E+00  0.00000000E+00  0.00000000E+00
  0.00000000E+00  0.00000000E+00  0.00000000E+00
  0.00000000E+00  0.00000000E+00  0.00000000E+00
  0.00000000E+00  0.00000000E+00  0.00000000E+00
  0.00000000E+00  0.00000000E+00  0.00000000E+00
  0.00000000E+00  0.00000000E+00  0.00000000E+00
  0.00000000E+00  0.00000000E+00  0.00000000E+00
  0.00000000E+00  0.00000000E+00  0.00000000E+00
  0.00000000E+00  0.00000000E+00  0.00000000E+00
  0.00000000E+00  0.00000000E+00  0.00000000E+00
  0.00000000E+00  0.00000000E+00  0.00000000E+00
  0.00000000E+00  0.00000000E+00  0.00000000E+00
  0.00000000E+00  0.00000000E+00  0.00000000E+00
  0.00000000E+00  0.00000000E+00  0.00000000E+00
  0.00000000E+00  0.00000000E+00  0.00000000E+00
  0.00000000E+00  0.00000000E+00  0.00000000E+00
  0.00000000E+00  0.00000000E+00  0.00000000E+00
  0.00000000E+00  0.00000000E+00  0.00000000E+00
  0.00000000E+00  0.00000000E+00  0.00000000E+00
  0.00000000E+00  0.00000000E+00  0.00000000E+00
  0.00000000E+00  0.00000000E+00  0.00000000E+00
  0.00000000E+00  0.00000000E+00  0.00000000E+00
  0.00000000E+00  0.00000000E+00  0.00000000E+00
  0.00000000E+00  0.00000000E+00  0.00000000E+00
  0.00000000E+00  0.00000000E+00  0.00000000E+00
  0.00000000E+00  0.00000000E+00  0.00000000E+00
  0.00000000E+00  0.00000000E+00  0.00000000E+00
  0.00000000E+00  0.00000000E+00  0.00000000E+00
  0.00000000E+00  0.00000000E+00  0.00000000E+00
  0.00000000E+00  0.00000000E+00  0.00000000E+00
  0.00000000E+00  0.00000000E+00  0.00000000E+00
  0.00000000E+00  0.00000000E+00  0.00000000E+00
  0.00000000E+00  0.00000000E+00  0.00000000E+00
  0.00000000E+00  0.00000000E+00  0.00000000E+00
  0.00000000E+00  0.00000000E+00  0.00000000E+00
  0.00000000E+00  0.00000000E+00  0.00000000E+00
  0.00000000E+00  0.00000000E+00  0.00000000E+00
  0.00000000E+00  0.00000000E+00  0.00000000E+00
  0.00000000E+00  0.00000000E+00  0.00000000E+00
  0.00000000E+00  0.00000000E+00  0.00000000E+00
  0.00000000E+00  0.00000000E+00  0.00000000E+00
  0.00000000E+00  0.00000000E+00  0.00000000E+00
  0.00000000E+00  0.00000000E+00  0.00000000E+00
  0.00000000E+00  0.00000000E+00  0.00000000E+00
  0.00000000E+00  0.00000000E+00  0.00000000E+00
  0.00000000E+00  0.00000000E+00  0.00000000E+00
  0.00000000E+00  0.00000000E+00  0.00000000E+00
  0.00000000E+00  0.00000000E+00  0.00000000E+00
  0.00000000E+00  0.00000000E+00  0.00000000E+00
  0.00000000E+00  0.00000000E+00  0.00000000E+00
  0.00000000E+00  0.00000000E+00  0.00000000E+00
  0.00000000E+00  0.00000000E+00  0.00000000E+00
  0.00000000E+00  0.00000000E+00  0.00000000E+00
  0.00000000E+00  0.00000000E+00  0.00000000E+00
  0.00000000E+00  0.00000000E+00  0.00000000E+00
  0.00000000E+00  0.00000000E+00  0.00000000E+00
  0.00000000E+00  0.00000000E+00  0.00000000E+00
  0.00000000E+00  0.00000000E+00  0.00000000E+00
  0.00000000E+00  0.00000000E+00  0.00000000E+00
  0.00000000E+00  0.00000000E+00  0.00000000E+00
  0.00000000E+00  0.00000000E+00  0.00000000E+00
  0.00000000E+00  0.00000000E+00  0.00000000E+00