FeMn_288_15                             
    1.000000000000000     
     9.7266779999999997    0.0000000000000000    0.0000000000000000
     0.0000000000000000    8.4235500000000005    0.0000000000000000
     0.0000000000000000    0.0000000000000000   45.0000000000000000
   Fe   Mn
   273    15
Direct
  0.5623270480011231  0.8762506566177730  0.6549192330101435
  0.3127753446233530  0.1971823059210285  0.2119708224394674
  0.4374830864951436  0.4610984149735059  0.6997356579790994
  0.1876322093662548  0.1165663525787276  0.3004818932782523
  0.6876333270831623  0.6259981721260657  0.6549015692547970
  0.0630210022775599  0.7150185110982716  0.8332645117471953
  0.9376318502869971  0.1127368339199455  0.1668856525832789
  0.8118456662341099  0.0278754212760105  0.1248456531313295
  0.6878172101814990  0.1229032568931029  0.5212553069309205
  0.9383419379822999  0.7995282469563568  0.8755133322304295
  0.1873023824343326  0.1309067902574381  0.7882836964799129
  0.0624353577535415  0.5418610381548837  0.6106848425732339
  0.9378025266491090  0.7864775546583646  0.3892169658060787
  0.1876178365978762  0.6127609435534581  0.1671172873550453
  0.9375806612120431  0.9515056412970281  0.3451336527863101
  0.5626993395272657  0.8807052835005791  0.7883897359826677
  0.0625420262312501  0.5291442076075317  0.1248179921524939
  0.3126898385328292  0.7069821829092144  0.5654726774255193
  0.9375894623202836  0.2815422434207197  0.2561705881136401
  0.9373477825506138  0.2962991069254911  0.7440866562872902
  0.3126700770542750  0.6970291043308853  0.2119103325903979
  0.6873589801623035  0.4572266733572682  0.5656088504278115
  0.4371359183596587  0.2985070979751286  0.8753429168566330
  0.4372375969425956  0.6169172337963805  0.3005392142468838
  0.3122790811776514  0.5414948524675973  0.6106022102075653
  0.8124819295654145  0.0460791840089731  0.7439955431252556
  0.9374604796031818  0.9568713534513403  0.5655810172394908
  0.0627825149235426  0.0418126472797786  0.6106287251600697
  0.5627421050453998  0.7158792243068683  0.8333118040006235
  0.0625670369983743  0.1969643564037482  0.2119740213524067
  0.9374766040177676  0.1307473307398615  0.7883746119619860
  0.9375534375442184  0.4574785629460456  0.5656201294499734
  0.0624350999034987  0.8807392672008018  0.7882434152982679
  0.0621760406145985  0.3766010748295639  0.6549538310695646
  0.9375950857241080  0.9610325888775778  0.6997056709054154
  0.4374778425468137  0.2962607527416390  0.7441006816116565
  0.6872434625242123  0.4611739785140792  0.6996244183018417
  0.8124846303953522  0.7014273993544227  0.3450916742677523
  0.8124221911396036  0.2153220177389108  0.8332010029795244
  0.8126531840281047  0.8665889876837768  0.3004212094838538
  0.3125319741677951  0.7019211321157695  0.3451933715702208
  0.9372484209506358  0.1206377520665182  0.4340696639350339
  0.4376920212550911  0.8001617658324292  0.8754253473226116
  0.6871773100081684  0.9614532469698073  0.6996746660605798
  0.6874436521046308  0.6117882981770495  0.1669889828922185
  0.4368474755607049  0.4657648212273254  0.8331696873706755
  0.3126283423217346  0.8726306635514690  0.5213382947342428
  0.4374607852187865  0.6121986415235746  0.1668577307115983
  0.6873010747159333  0.6306736433566524  0.7882888625371648
  0.9375580236350822  0.4652081892876728  0.8329347495446949
  0.1878194928167364  0.2987352833854462  0.8753355173613115
  0.4378562252314547  0.1309534010241157  0.7882355344265813
  0.0627169828224441  0.2109196876518268  0.6996911616318816
  0.3126498278117993  0.0460963873957354  0.7441626897464421
  0.9373149700407039  0.2863073129156102  0.3892526300113177
  0.9378130110460273  0.2992587126425238  0.8753461163365897
  0.9374344821326563  0.7961493928346056  0.7439553185277884
  0.8132626095747757  0.0495412528792859  0.8754409826859306
  0.3123219858474491  0.7050048210836085  0.4783106037424691
  0.8127948717691482  0.2112037506808705  0.6996751125001974
  0.3125975047707965  0.8705601271567767  0.4341484620827148
  0.1871481093371855  0.1208609298644334  0.4342438405853282
  0.6877449367720849  0.1266992085743368  0.6549606874147154
  0.1875661800467481  0.7960935034851653  0.7441804690327342
  0.3125050321502463  0.5463460810804885  0.7441558622224358
  0.8124017504257063  0.8805767643790302  0.7883324728420134
  0.3124106988877107  0.3708246644087653  0.4341542344764687
  0.0624977753859697  0.6966789875902830  0.2119951926090679
  0.9376659685166144  0.1167392240985214  0.3005612790278114
  0.4377268533012459  0.9654790991563433  0.8333906117751660
  0.6876745483746800  0.9471974073112757  0.2118239165466244
  0.9373482603494980  0.4516370583406633  0.3450885551284339
  0.6873756102686579  0.4473942511786939  0.2120959764267067
  0.8127244825649054  0.5415990644313126  0.6105441173872183
  0.4374662235174646  0.7961886478346578  0.7440233106237073
  0.4375295992798817  0.2860713546102814  0.3892312902977558
  0.3125560081371019  0.8761673062746246  0.6549479257804570
  0.4377095449646209  0.6257302432026843  0.6549145268670308
  0.3123985484722677  0.5359864340272521  0.3892376209132217
  0.4376117560217321  0.9571155706986684  0.5655632746722549
  0.9372402914796401  0.1223262791026389  0.5212589935109154
  0.6875571901457329  0.4515241198386312  0.3451192068463389
  0.3124179070682750  0.8667470786239240  0.3004474957275151
  0.0625749422144550  0.0314318832189243  0.2561858482162401
  0.8127309081893989  0.2053426519447714  0.4782433199615869
  0.0619469507858125  0.3805349791883871  0.7881595452812759
  0.0634203893100582  0.0284371669070966  0.1246978663730880
  0.4378086062344258  0.1225716879534490  0.5212505955498666
  0.5626417414896350  0.8622057423086731  0.1669545812347933
  0.4380763561464446  0.1125438446928588  0.1668636782954323
  0.0624933470762945  0.0457159966973240  0.7440477442370422
  0.3124612000311942  0.0313872866599542  0.2561385595062613
  0.4375736462055789  0.2912515168996614  0.6106560134354116
  0.8123802932379731  0.3710683929157222  0.4341869277864867
  0.6869396458526840  0.2784335284256190  0.1246082485695204
  0.4375616452845374  0.7916767220546070  0.6106690789704406
  0.6874467326336785  0.2960605212133422  0.7440487971546818
  0.6877420139176285  0.2989015912247595  0.8753190507399170
  0.8126774074190650  0.8728576662436297  0.5212483469280428
  0.5623364932709380  0.8722033447236859  0.5212715876239644
  0.5623538111684575  0.1970861125646546  0.2119801892678051
  0.3126243426340192  0.3752092827299336  0.6550198966699509
  0.4373502306258234  0.1166344987727665  0.3005469275038264
  0.3125914724940874  0.3663874709355163  0.3004286595282976
  0.5625257544860465  0.3759771418344540  0.6550035079497259
  0.4378295179618715  0.2792045615674720  0.1245793651849939
  0.8124424218683215  0.3727954760828719  0.5213168068090586
  0.8128284743227085  0.3810405133258317  0.7882860424379111
  0.1873675089060094  0.4518395778502531  0.3450313981417296
  0.9375453765800015  0.2922929401028703  0.6106823521617696
  0.9375469280601358  0.6124756886963832  0.1667874624079236
  0.1870055390788142  0.2789613358308757  0.1247927238082907
  0.1873068587836652  0.4551048856148109  0.4782228146816455
  0.5620779458065185  0.3729790447029172  0.5213266741339148
  0.8124122276025553  0.5463413516598687  0.7440820360430898
  0.0621856534664812  0.2074909684856757  0.5654815741418611
  0.3121074205723828  0.5288269320751177  0.1247561492541526
  0.1874591512838284  0.9553071956229925  0.4782749599774789
  0.4376987973839364  0.1205745125885966  0.4341490823966062
  0.0622629005967899  0.7051948580320164  0.4782408439679999
  0.6876581764273900  0.4549990713269121  0.4783367484581909
  0.8131476585876452  0.3622806287378980  0.1669689477130192
  0.6875359052967841  0.7960521349579477  0.7440516553616130
  0.5628662809048307  0.7112205655685564  0.6996099332780125
  0.8123718046968443  0.6964195075552516  0.2119376604188369
  0.4376130635113762  0.1263030052030043  0.6549242233402789
  0.1873860075740853  0.7816424141566901  0.2560710588338356
  0.4375629925513567  0.4516950435176754  0.3451091396509797
  0.1873553546388929  0.6161117018642706  0.3004279206537100
  0.9375134937731253  0.4550952188633873  0.4782722461078457
  0.1871977084376114  0.9517030558179993  0.3450959286300059
  0.1874438367373505  0.4577687118641314  0.5655141298251791
  0.9373374390294730  0.9652856493440111  0.8332840124346418
  0.1876695662747458  0.9610872291033650  0.6997126033406679
  0.9381735834067177  0.6302118797478943  0.7881002255862647
  0.6876923999335817  0.7816032271476804  0.2560341297670387
  0.5626906731182630  0.0318775331435944  0.2561219319676774
  0.9371198535966334  0.7917949385730836  0.6105061803002205
  0.0625664773205085  0.3709465268274434  0.4341531242744978
  0.4374688989707399  0.6233481816919385  0.5214281834979740
  0.3125508668925414  0.2017907350411700  0.3451285906399508
  0.5625711633907048  0.5315211712087831  0.2561505645963458
  0.0621297135706810  0.7073056991025940  0.5655168175605421
  0.8121977119986709  0.8764839229005342  0.6548234342643219
  0.5625823064528298  0.0360162836461038  0.3893349437360091
  0.5631058856046118  0.0289698449524736  0.1246904100507917
  0.1874389482930973  0.2812348642821805  0.2561493014690627
  0.6877291559334249  0.1213188346782183  0.4341918447855391
  0.6881599082931898  0.7788042580242394  0.1246931303297061
  0.6873603783795527  0.9647879826012384  0.8332651587876426
  0.0622702547683494  0.2053717697052239  0.4781959357609524
  0.5623028862941127  0.0461312903111934  0.7440807881193483
  0.8124206568614712  0.1972798991926509  0.2119867651315138
  0.1873803931114829  0.6259905684628785  0.6549255822854472
  0.3118706254271793  0.7114802056212400  0.6996253550005247
  0.3128150676847808  0.2051280744404361  0.4783204840554350
  0.5620636504197445  0.2054353317961497  0.4782117138047846
  0.4376507653022976  0.2818332262972149  0.2560681573980124
  0.3121466795500903  0.2117429395980155  0.6996606463645614
  0.0618722556499337  0.0492484279381037  0.8755391092200621
  0.6875991130216137  0.9512459282447868  0.3451103668504851
  0.3125415825063673  0.0490888487737426  0.8755178256502456
  0.5630037116541969  0.3805003955743355  0.7880948932854973
  0.0622891697463567  0.8728175163784810  0.5212701542163815
  0.0626056995370090  0.5311571227894955  0.2562573057134090
  0.4373213274909260  0.6205240825761622  0.4341789259436804
  0.4371330702594962  0.6305591434265064  0.7881571025553348
  0.9375422895493003  0.7816251761001130  0.2561552033981848
  0.8126036820043608  0.5316446849255361  0.2561848705196794
  0.1876428278566384  0.7916735407817432  0.6106451598156185
  0.5624733857904951  0.5416073275874888  0.6106249513027374
  0.4374934295577880  0.4570609821329209  0.5655891717289060
  0.3124069041457439  0.0360246742074656  0.3893151178960470
  0.5624607633376533  0.3667969705239777  0.3004775262882287
  0.5627128590799573  0.7047686861636003  0.4783127676659185
  0.8126151358127270  0.2071091679773396  0.5656534948602554
  0.0625154577617752  0.8667538722396835  0.3004653586122288
  0.0624205901240151  0.5363186491843380  0.3892387078711728
  0.6876160287347136  0.1314316436649883  0.7881643531323503
  0.3124652173564993  0.2160915850059573  0.8333025073782708
  0.3122643695185670  0.5314840451958387  0.2561466844829736
  0.8125325310142435  0.3666604048522382  0.3004266363372231
  0.5628128621213717  0.7067527331827070  0.5657341337253907
  0.8125606340243866  0.7045666971258587  0.4782779659476745
  0.4371525709207308  0.7862149302111261  0.3892500216982796
  0.3120567046872940  0.0410838006563606  0.6105403381348484
  0.1875608424900207  0.2921238279444878  0.6106458750108738
  0.0627304931998282  0.3725639897628755  0.5214034995300064
  0.3116778895328922  0.0277428790703201  0.1246778694690704
  0.1876077193304350  0.6208290621919453  0.4340868194038641
  0.9375438520446522  0.6209627711535058  0.4341132235280440
  0.0624453793483693  0.5462400960454726  0.7441011668145190
  0.9378256091811991  0.6165072912280045  0.3004422257861629
  0.1876986247510784  0.9654124413924988  0.8332686849217299
  0.3118282987610932  0.8625586561295436  0.1668719057729404
  0.8123810768703642  0.7067587982841713  0.5655877826764005
  0.3124209454493008  0.3810963696282015  0.7883460109062254
  0.9374664901642359  0.6232611673605003  0.5213455859553411
  0.1870157884085508  0.1223414038148447  0.5213141904225324
  0.1876769535913166  0.6309734379677174  0.7883140632520420
  0.1876312073370605  0.4613778186524183  0.6996150455945008
  0.1878914906774929  0.4473026446510303  0.2121049833318862
  0.1875399137907787  0.9572119649976333  0.5656097330364238
  0.0624641929711364  0.7111837120220287  0.6995973191774618
  0.5625107786062874  0.6965728752714802  0.2118053761576655
  0.5624794052718440  0.8668160476241537  0.3003727276417543
  0.5629138549904681  0.2156460105936129  0.8330786110142997
  0.4373620115635432  0.4547702732920085  0.4782533199125699
  0.8124685382999863  0.5482165741624214  0.8753424295800045
  0.8125495741167021  0.0415464983611302  0.6106049396089643
  0.8123786284778531  0.0319603474753623  0.2562009677197635
  0.9374525367860598  0.1267537602314795  0.6549053388962037
  0.1877230046622256  0.6231673019484151  0.5213511105771353
  0.9373933975690208  0.6266977610310032  0.6549344291781605
  0.6874292055766514  0.6211048685238479  0.4341205972715636
  0.0623933580026085  0.0363025535039409  0.3892733614473606
  0.8126838583653950  0.8708636618153821  0.4341393359192658
  0.6874971785151189  0.4658325239177542  0.8332804524861763
  0.6871066760801798  0.2913785439339330  0.6105904341312212
  0.0624016066414579  0.3661223408756857  0.3004189395659336
  0.8124705795500915  0.2016552596116200  0.3450896359656357
  0.8123883097160104  0.0362371239765191  0.3892744148431074
  0.5624249154723773  0.5362334945080879  0.3892097320144468
  0.5624683543290104  0.5462611945296207  0.7438300814618430
  0.1881395468269716  0.4656843590147028  0.8332088460096554
  0.1875875620534782  0.7863049794057276  0.3892401738601811
  0.8129155460611438  0.7112075173727815  0.6996944079155635
  0.8131613895526573  0.8617937410292825  0.1669528035514887
  0.6875571982320532  0.7918809062265053  0.6106529082635336
  0.6873564520777458  0.1166729151171577  0.3004635228787153
  0.5623612363372207  0.2016023317358522  0.3450819828080299
  0.8124830868338119  0.5365254661343376  0.3892628793577455
  0.1868432323563740  0.7989892100737233  0.8754834873616181
  0.5622834749188612  0.0493970468173072  0.8754401273203865
  0.3125706503456951  0.3732511119751458  0.5213516024233297
  0.6873627402738840  0.1125314238654752  0.1668947490365549
  0.4377193736257144  0.9470588697409368  0.2118087462927989
  0.4368464965715433  0.9558168245688555  0.4781698633523518
  0.0623376644759566  0.8707305593510288  0.4340923104775982
  0.8127898897899476  0.5289211030492313  0.1247316799902279
  0.8120517015941469  0.3764354730914664  0.6549568903268760
  0.6872575736582401  0.6234526992234207  0.5213559204371629
  0.5622719876432818  0.8707159866095892  0.4341348399044395
  0.0627000908944202  0.8623555253110358  0.1670016428095465
  0.1873361220817651  0.2862294095118169  0.3893346152692031
  0.9372090810583908  0.9461574369612773  0.2121662163751579
  0.8122027967173493  0.7157698963009872  0.8331813743275948
  0.5626504589415516  0.2070929134341520  0.5657368090635260
  0.4373703871963723  0.9616667890964884  0.6996634451485370
  0.1871268299945476  0.1120138590229102  0.1667924200272913
  0.1871693994556191  0.7787918881635810  0.1246456872498571
  0.0621191587164081  0.2149930815111899  0.8331556868608109
  0.9373877854563876  0.7781039873785593  0.1246388744081005
  0.5636004934085922  0.5490705388072289  0.8753093587074560
  0.0626040572245964  0.2019470810657916  0.3451658115635814
  0.5625343641987186  0.3707982542255898  0.4342342433925772
  0.3122876892705204  0.7146915954387639  0.8332777303271131
  0.4375160798551117  0.7787490953328673  0.1247619737453716
  0.9373904002653014  0.4468105518021744  0.2118763405830278
  0.0619872114990172  0.3618696921005427  0.1669912651909628
  0.5628025653650169  0.5282933869329175  0.1245821816692581
  0.4374444703068812  0.4471766291419746  0.2119254908602916
  0.5624836113835179  0.7014790995850844  0.3451750108310433
  0.1875063940111363  0.2962579568921497  0.7439273401832865
  0.6872992899042228  0.7864348688049738  0.3892690523192249
  0.4375243317844287  0.7817164776133689  0.2561459378169679
  0.0624382034505083  0.7017829446639736  0.3451821273922162
  0.3129894534311779  0.3631787452474598  0.1670196881622136
  0.9380389067094144  0.9557815836815401  0.4782339487015160
  0.6873986775740386  0.2819115568102921  0.2562545926141070
  0.6873990630092908  0.9567855590008049  0.5652063613972196
  0.6875434658206045  0.2863810621952025  0.3893166227550168
  0.0617320927016778  0.5495367170826221  0.8753354878666484
  0.9382224654133935  0.2786362144271499  0.1251538942032589
  0.5626577064482667  0.2110281212178618  0.6997697988087557
  0.1877407484761505  0.1266802676137305  0.6548308407169847
  0.3122997951438691  0.8813955239255883  0.7879342602331673
  0.5624207881005472  0.0417299721147836  0.6107422768141182
  0.3124532050352274  0.5483415065174965  0.8751128352086261
  0.9373110188322007  0.4614700516892006  0.6996920533332576
  0.6877725049913183  0.7992209590206002  0.8752006875399987
  0.6876989307159928  0.6168413956915030  0.3003409318679229
  0.3127472879523097  0.2069367539527306  0.5656395835646547
  0.4373538228858112  0.9516217624581739  0.3452641887424068
  0.5623368814428313  0.3623208125470997  0.1663126731499874
  0.6874279910729482  0.9555268431410808  0.4783970309619932
  0.0622861590644853  0.8756665894671708  0.6547858558781401
  0.1874088858715620  0.9467757200453090  0.2122279171321235
 
  0.00000000E+00  0.00000000E+00  0.00000000E+00
  0.00000000E+00  0.00000000E+00  0.00000000E+00
  0.00000000E+00  0.00000000E+00  0.00000000E+00
  0.00000000E+00  0.00000000E+00  0.00000000E+00
  0.00000000E+00  0.00000000E+00  0.00000000E+00
  0.00000000E+00  0.00000000E+00  0.00000000E+00
  0.00000000E+00  0.00000000E+00  0.00000000E+00
  0.00000000E+00  0.00000000E+00  0.00000000E+00
  0.00000000E+00  0.00000000E+00  0.00000000E+00
  0.00000000E+00  0.00000000E+00  0.00000000E+00
  0.00000000E+00  0.00000000E+00  0.00000000E+00
  0.00000000E+00  0.00000000E+00  0.00000000E+00
  0.00000000E+00  0.00000000E+00  0.00000000E+00
  0.00000000E+00  0.00000000E+00  0.00000000E+00
  0.00000000E+00  0.00000000E+00  0.00000000E+00
  0.00000000E+00  0.00000000E+00  0.00000000E+00
  0.00000000E+00  0.00000000E+00  0.00000000E+00
  0.00000000E+00  0.00000000E+00  0.00000000E+00
  0.00000000E+00  0.00000000E+00  0.00000000E+00
  0.00000000E+00  0.00000000E+00  0.00000000E+00
  0.00000000E+00  0.00000000E+00  0.00000000E+00
  0.00000000E+00  0.00000000E+00  0.00000000E+00
  0.00000000E+00  0.00000000E+00  0.00000000E+00
  0.00000000E+00  0.00000000E+00  0.00000000E+00
  0.00000000E+00  0.00000000E+00  0.00000000E+00
  0.00000000E+00  0.00000000E+00  0.00000000E+00
  0.00000000E+00  0.00000000E+00  0.00000000E+00
  0.00000000E+00  0.00000000E+00  0.00000000E+00
  0.00000000E+00  0.00000000E+00  0.00000000E+00
  0.00000000E+00  0.00000000E+00  0.00000000E+00
  0.00000000E+00  0.00000000E+00  0.00000000E+00
  0.00000000E+00  0.00000000E+00  0.00000000E+00
  0.00000000E+00  0.00000000E+00  0.00000000E+00
  0.00000000E+00  0.00000000E+00  0.00000000E+00
  0.00000000E+00  0.00000000E+00  0.00000000E+00
  0.00000000E+00  0.00000000E+00  0.00000000E+00
  0.00000000E+00  0.00000000E+00  0.00000000E+00
  0.00000000E+00  0.00000000E+00  0.00000000E+00
  0.00000000E+00  0.00000000E+00  0.00000000E+00
  0.00000000E+00  0.00000000E+00  0.00000000E+00
  0.00000000E+00  0.00000000E+00  0.00000000E+00
  0.00000000E+00  0.00000000E+00  0.00000000E+00
  0.00000000E+00  0.00000000E+00  0.00000000E+00
  0.00000000E+00  0.00000000E+00  0.00000000E+00
  0.00000000E+00  0.00000000E+00  0.00000000E+00
  0.00000000E+00  0.00000000E+00  0.00000000E+00
  0.00000000E+00  0.00000000E+00  0.00000000E+00
  0.00000000E+00  0.00000000E+00  0.00000000E+00
  0.00000000E+00  0.00000000E+00  0.00000000E+00
  0.00000000E+00  0.00000000E+00  0.00000000E+00
  0.00000000E+00  0.00000000E+00  0.00000000E+00
  0.00000000E+00  0.00000000E+00  0.00000000E+00
  0.00000000E+00  0.00000000E+00  0.00000000E+00
  0.00000000E+00  0.00000000E+00  0.00000000E+00
  0.00000000E+00  0.00000000E+00  0.00000000E+00
  0.00000000E+00  0.00000000E+00  0.00000000E+00
  0.00000000E+00  0.00000000E+00  0.00000000E+00
  0.00000000E+00  0.00000000E+00  0.00000000E+00
  0.00000000E+00  0.00000000E+00  0.00000000E+00
  0.00000000E+00  0.00000000E+00  0.00000000E+00
  0.00000000E+00  0.00000000E+00  0.00000000E+00
  0.00000000E+00  0.00000000E+00  0.00000000E+00
  0.00000000E+00  0.00000000E+00  0.00000000E+00
  0.00000000E+00  0.00000000E+00  0.00000000E+00
  0.00000000E+00  0.00000000E+00  0.00000000E+00
  0.00000000E+00  0.00000000E+00  0.00000000E+00
  0.00000000E+00  0.00000000E+00  0.00000000E+00
  0.00000000E+00  0.00000000E+00  0.00000000E+00
  0.00000000E+00  0.00000000E+00  0.00000000E+00
  0.00000000E+00  0.00000000E+00  0.00000000E+00
  0.00000000E+00  0.00000000E+00  0.00000000E+00
  0.00000000E+00  0.00000000E+00  0.00000000E+00
  0.00000000E+00  0.00000000E+00  0.00000000E+00
  0.00000000E+00  0.00000000E+00  0.00000000E+00
  0.00000000E+00  0.00000000E+00  0.00000000E+00
  0.00000000E+00  0.00000000E+00  0.00000000E+00
  0.00000000E+00  0.00000000E+00  0.00000000E+00
  0.00000000E+00  0.00000000E+00  0.00000000E+00
  0.00000000E+00  0.00000000E+00  0.00000000E+00
  0.00000000E+00  0.00000000E+00  0.00000000E+00
  0.00000000E+00  0.00000000E+00  0.00000000E+00
  0.00000000E+00  0.00000000E+00  0.00000000E+00
  0.00000000E+00  0.00000000E+00  0.00000000E+00
  0.00000000E+00  0.00000000E+00  0.00000000E+00
  0.00000000E+00  0.00000000E+00  0.00000000E+00
  0.00000000E+00  0.00000000E+00  0.00000000E+00
  0.00000000E+00  0.00000000E+00  0.00000000E+00
  0.00000000E+00  0.00000000E+00  0.00000000E+00
  0.00000000E+00  0.00000000E+00  0.00000000E+00
  0.00000000E+00  0.00000000E+00  0.00000000E+00
  0.00000000E+00  0.00000000E+00  0.00000000E+00
  0.00000000E+00  0.00000000E+00  0.00000000E+00
  0.00000000E+00  0.00000000E+00  0.00000000E+00
  0.00000000E+00  0.00000000E+00  0.00000000E+00
  0.00000000E+00  0.00000000E+00  0.00000000E+00
  0.00000000E+00  0.00000000E+00  0.00000000E+00
  0.00000000E+00  0.00000000E+00  0.00000000E+00
  0.00000000E+00  0.00000000E+00  0.00000000E+00
  0.00000000E+00  0.00000000E+00  0.00000000E+00
  0.00000000E+00  0.00000000E+00  0.00000000E+00
  0.00000000E+00  0.00000000E+00  0.00000000E+00
  0.00000000E+00  0.00000000E+00  0.00000000E+00
  0.00000000E+00  0.00000000E+00  0.00000000E+00
  0.00000000E+00  0.00000000E+00  0.00000000E+00
  0.00000000E+00  0.00000000E+00  0.00000000E+00
  0.00000000E+00  0.00000000E+00  0.00000000E+00
  0.00000000E+00  0.00000000E+00  0.00000000E+00
  0.00000000E+00  0.00000000E+00  0.00000000E+00
  0.00000000E+00  0.00000000E+00  0.00000000E+00
  0.00000000E+00  0.00000000E+00  0.00000000E+00
  0.00000000E+00  0.00000000E+00  0.00000000E+00
  0.00000000E+00  0.00000000E+00  0.00000000E+00
  0.00000000E+00  0.00000000E+00  0.00000000E+00
  0.00000000E+00  0.00000000E+00  0.00000000E+00
  0.00000000E+00  0.00000000E+00  0.00000000E+00
  0.00000000E+00  0.00000000E+00  0.00000000E+00
  0.00000000E+00  0.00000000E+00  0.00000000E+00
  0.00000000E+00  0.00000000E+00  0.00000000E+00
  0.00000000E+00  0.00000000E+00  0.00000000E+00
  0.00000000E+00  0.00000000E+00  0.00000000E+00
  0.00000000E+00  0.00000000E+00  0.00000000E+00
  0.00000000E+00  0.00000000E+00  0.00000000E+00
  0.00000000E+00  0.00000000E+00  0.00000000E+00
  0.00000000E+00  0.00000000E+00  0.00000000E+00
  0.00000000E+00  0.00000000E+00  0.00000000E+00
  0.00000000E+00  0.00000000E+00  0.00000000E+00
  0.00000000E+00  0.00000000E+00  0.00000000E+00
  0.00000000E+00  0.00000000E+00  0.00000000E+00
  0.00000000E+00  0.00000000E+00  0.00000000E+00
  0.00000000E+00  0.00000000E+00  0.00000000E+00
  0.00000000E+00  0.00000000E+00  0.00000000E+00
  0.00000000E+00  0.00000000E+00  0.00000000E+00
  0.00000000E+00  0.00000000E+00  0.00000000E+00
  0.00000000E+00  0.00000000E+00  0.00000000E+00
  0.00000000E+00  0.00000000E+00  0.00000000E+00
  0.00000000E+00  0.00000000E+00  0.00000000E+00
  0.00000000E+00  0.00000000E+00  0.00000000E+00
  0.00000000E+00  0.00000000E+00  0.00000000E+00
  0.00000000E+00  0.00000000E+00  0.00000000E+00
  0.00000000E+00  0.00000000E+00  0.00000000E+00
  0.00000000E+00  0.00000000E+00  0.00000000E+00
  0.00000000E+00  0.00000000E+00  0.00000000E+00
  0.00000000E+00  0.00000000E+00  0.00000000E+00
  0.00000000E+00  0.00000000E+00  0.00000000E+00
  0.00000000E+00  0.00000000E+00  0.00000000E+00
  0.00000000E+00  0.00000000E+00  0.00000000E+00
  0.00000000E+00  0.00000000E+00  0.00000000E+00
  0.00000000E+00  0.00000000E+00  0.00000000E+00
  0.00000000E+00  0.00000000E+00  0.00000000E+00
  0.00000000E+00  0.00000000E+00  0.00000000E+00
  0.00000000E+00  0.00000000E+00  0.00000000E+00
  0.00000000E+00  0.00000000E+00  0.00000000E+00
  0.00000000E+00  0.00000000E+00  0.00000000E+00
  0.00000000E+00  0.00000000E+00  0.00000000E+00
  0.00000000E+00  0.00000000E+00  0.00000000E+00
  0.00000000E+00  0.00000000E+00  0.00000000E+00
  0.00000000E+00  0.00000000E+00  0.00000000E+00
  0.00000000E+00  0.00000000E+00  0.00000000E+00
  0.00000000E+00  0.00000000E+00  0.00000000E+00
  0.00000000E+00  0.00000000E+00  0.00000000E+00
  0.00000000E+00  0.00000000E+00  0.00000000E+00
  0.00000000E+00  0.00000000E+00  0.00000000E+00
  0.00000000E+00  0.00000000E+00  0.00000000E+00
  0.00000000E+00  0.00000000E+00  0.00000000E+00
  0.00000000E+00  0.00000000E+00  0.00000000E+00
  0.00000000E+00  0.00000000E+00  0.00000000E+00
  0.00000000E+00  0.00000000E+00  0.00000000E+00
  0.00000000E+00  0.00000000E+00  0.00000000E+00
  0.00000000E+00  0.00000000E+00  0.00000000E+00
  0.00000000E+00  0.00000000E+00  0.00000000E+00
  0.00000000E+00  0.00000000E+00  0.00000000E+00
  0.00000000E+00  0.00000000E+00  0.00000000E+00
  0.00000000E+00  0.00000000E+00  0.00000000E+00
  0.00000000E+00  0.00000000E+00  0.00000000E+00
  0.00000000E+00  0.00000000E+00  0.00000000E+00
  0.00000000E+00  0.00000000E+00  0.00000000E+00
  0.00000000E+00  0.00000000E+00  0.00000000E+00
  0.00000000E+00  0.00000000E+00  0.00000000E+00
  0.00000000E+00  0.00000000E+00  0.00000000E+00
  0.00000000E+00  0.00000000E+00  0.00000000E+00
  0.00000000E+00  0.00000000E+00  0.00000000E+00
  0.00000000E+00  0.00000000E+00  0.00000000E+00
  0.00000000E+00  0.00000000E+00  0.00000000E+00
  0.00000000E+00  0.00000000E+00  0.00000000E+00
  0.00000000E+00  0.00000000E+00  0.00000000E+00
  0.00000000E+00  0.00000000E+00  0.00000000E+00
  0.00000000E+00  0.00000000E+00  0.00000000E+00
  0.00000000E+00  0.00000000E+00  0.00000000E+00
  0.00000000E+00  0.00000000E+00  0.00000000E+00
  0.00000000E+00  0.00000000E+00  0.00000000E+00
  0.00000000E+00  0.00000000E+00  0.00000000E+00
  0.00000000E+00  0.00000000E+00  0.00000000E+00
  0.00000000E+00  0.00000000E+00  0.00000000E+00
  0.00000000E+00  0.00000000E+00  0.00000000E+00
  0.00000000E+00  0.00000000E+00  0.00000000E+00
  0.00000000E+00  0.00000000E+00  0.00000000E+00
  0.00000000E+00  0.00000000E+00  0.00000000E+00
  0.00000000E+00  0.00000000E+00  0.00000000E+00
  0.00000000E+00  0.00000000E+00  0.00000000E+00
  0.00000000E+00  0.00000000E+00  0.00000000E+00
  0.00000000E+00  0.00000000E+00  0.00000000E+00
  0.00000000E+00  0.00000000E+00  0.00000000E+00
  0.00000000E+00  0.00000000E+00  0.00000000E+00
  0.00000000E+00  0.00000000E+00  0.00000000E+00
  0.00000000E+00  0.00000000E+00  0.00000000E+00
  0.00000000E+00  0.00000000E+00  0.00000000E+00
  0.00000000E+00  0.00000000E+00  0.00000000E+00
  0.00000000E+00  0.00000000E+00  0.00000000E+00
  0.00000000E+00  0.00000000E+00  0.00000000E+00
  0.00000000E+00  0.00000000E+00  0.00000000E+00
  0.00000000E+00  0.00000000E+00  0.00000000E+00
  0.00000000E+00  0.00000000E+00  0.00000000E+00
  0.00000000E+00  0.00000000E+00  0.00000000E+00
  0.00000000E+00  0.00000000E+00  0.00000000E+00
  0.00000000E+00  0.00000000E+00  0.00000000E+00
  0.00000000E+00  0.00000000E+00  0.00000000E+00
  0.00000000E+00  0.00000000E+00  0.00000000E+00
  0.00000000E+00  0.00000000E+00  0.00000000E+00
  0.00000000E+00  0.00000000E+00  0.00000000E+00
  0.00000000E+00  0.00000000E+00  0.00000000E+00
  0.00000000E+00  0.00000000E+00  0.00000000E+00
  0.00000000E+00  0.00000000E+00  0.00000000E+00
  0.00000000E+00  0.00000000E+00  0.00000000E+00
  0.00000000E+00  0.00000000E+00  0.00000000E+00
  0.00000000E+00  0.00000000E+00  0.00000000E+00
  0.00000000E+00  0.00000000E+00  0.00000000E+00
  0.00000000E+00  0.00000000E+00  0.00000000E+00
  0.00000000E+00  0.00000000E+00  0.00000000E+00
  0.00000000E+00  0.00000000E+00  0.00000000E+00
  0.00000000E+00  0.00000000E+00  0.00000000E+00
  0.00000000E+00  0.00000000E+00  0.00000000E+00
  0.00000000E+00  0.00000000E+00  0.00000000E+00
  0.00000000E+00  0.00000000E+00  0.00000000E+00
  0.00000000E+00  0.00000000E+00  0.00000000E+00
  0.00000000E+00  0.00000000E+00  0.00000000E+00
  0.00000000E+00  0.00000000E+00  0.00000000E+00
  0.00000000E+00  0.00000000E+00  0.00000000E+00
  0.00000000E+00  0.00000000E+00  0.00000000E+00
  0.00000000E+00  0.00000000E+00  0.00000000E+00
  0.00000000E+00  0.00000000E+00  0.00000000E+00
  0.00000000E+00  0.00000000E+00  0.00000000E+00
  0.00000000E+00  0.00000000E+00  0.00000000E+00
  0.00000000E+00  0.00000000E+00  0.00000000E+00
  0.00000000E+00  0.00000000E+00  0.00000000E+00
  0.00000000E+00  0.00000000E+00  0.00000000E+00
  0.00000000E+00  0.00000000E+00  0.00000000E+00
  0.00000000E+00  0.00000000E+00  0.00000000E+00