FeMn_288_15                             
    1.000000000000000     
     9.7266779999999997    0.0000000000000000    0.0000000000000000
     0.0000000000000000    8.4235500000000005    0.0000000000000000
     0.0000000000000000    0.0000000000000000   45.0000000000000000
   Fe   Mn
   273    15
Direct
  0.5627112750815201  0.8761771610763450  0.6545236500576083
  0.3123179752165133  0.1973427620201484  0.2111363396169473
  0.4376820826713592  0.4621376756172903  0.6989575138841583
  0.1879483686510860  0.1176209968505491  0.3003792786571071
  0.6876468428289567  0.6264245104164197  0.6545276405094517
  0.0609371238950982  0.7182852505327878  0.8350228362221233
  0.9382393372595879  0.1116072578096214  0.1653380791333320
  0.8125283522708328  0.0258781918618086  0.1234969935499822
  0.6872794727985554  0.1225417234641917  0.5213997317020671
  0.9395362194666754  0.8007392584717613  0.8775496640665488
  0.1876985693770637  0.1310208801590919  0.7888160569991994
  0.0624626429917924  0.5411337715097766  0.6102283140195799
  0.9378915567161885  0.7865416560188495  0.3885226963890411
  0.1879091592333459  0.6095836498550908  0.1662791710693762
  0.9376532030214328  0.9521510772192260  0.3446251801104889
  0.5619527243919642  0.8823127817836839  0.7887598884673072
  0.0622079781046232  0.5284307327147717  0.1231094303142770
  0.3125236286778747  0.7059715869328343  0.5654509318515765
  0.9375210725522387  0.2831508479185383  0.2562806907695007
  0.9379399755465816  0.2959766621367234  0.7435512766791084
  0.3120705976370631  0.6959106331059167  0.2111907820688560
  0.6873111381308599  0.4574777671324058  0.5655468469620428
  0.4337399204908116  0.2983340789999013  0.8776087199603667
  0.4368274690660849  0.6172485143749595  0.3005042206387601
  0.3125696291795691  0.5414128131217329  0.6102958394672746
  0.8123134083335500  0.0458161139665585  0.7435798283581887
  0.9375467723845389  0.9564590607001134  0.5659112415657788
  0.0625314808059830  0.0402757890591741  0.6105504986021789
  0.5646770986648223  0.7163076278476120  0.8354193311875751
  0.0630077411762573  0.1980224658808782  0.2104720663196701
  0.9374852842157445  0.1312893344550482  0.7890380044437650
  0.9381357576825342  0.4568793720012735  0.5657101038824741
  0.0630558037927218  0.8819244896003491  0.7886634840260608
  0.0619984489859674  0.3753152673124563  0.6546290144130453
  0.9364908249075009  0.9592312742417616  0.6988101098710976
  0.4373852736170429  0.2953746858145609  0.7436351144424165
  0.6868123938269025  0.4607984347712121  0.6989185283616414
  0.8127258801228516  0.7012875273124045  0.3447112733527813
  0.8118284314153326  0.2168972144601662  0.8352724874375627
  0.8120904886198369  0.8674731196330312  0.3003573284596170
  0.3124106550167592  0.7020132673180062  0.3449061275335789
  0.9375448362713098  0.1213237064210808  0.4343183827745583
  0.4363919625693771  0.8009193862181662  0.8774328602503518
  0.6867716068448969  0.9603469256779157  0.6987992410843262
  0.6886355258642556  0.6088880679322580  0.1665722126545121
  0.4377649719973649  0.4631773571483582  0.8349770935905558
  0.3126742353907568  0.8727439267425088  0.5216501298765254
  0.4366223036323256  0.6088396301738416  0.1662438064403942
  0.6869925077206016  0.6306511908157806  0.7890975690190752
  0.9371192158829172  0.4671293916342882  0.8348301875726676
  0.1881311000590705  0.3010243230535794  0.8774591206315322
  0.4369234483303490  0.1304819547692005  0.7890826399798815
  0.0617185242676327  0.2100918734416745  0.6989595452922069
  0.3132294958777876  0.0459788999547988  0.7436673088669098
  0.9378646504492093  0.2876293213580391  0.3888603212834438
  0.9378060387612547  0.3052557186938703  0.8772345932049793
  0.9355828368902229  0.7953098615231980  0.7436119495790212
  0.8113813879847912  0.0528687668332174  0.8769906894994005
  0.3123421022169898  0.7051108644999334  0.4788450062962750
  0.8129075701927104  0.2101797208868681  0.6989575722279419
  0.3127344175403431  0.8718081867721931  0.4344268148935750
  0.1869482981310792  0.1216847285313944  0.4343216139556360
  0.6879804157159662  0.1255895167168471  0.6546850385041447
  0.1910350543732792  0.7963685958541491  0.7437546938542843
  0.3139045294088699  0.5483586313763964  0.7437210071814578
  0.8107296655747775  0.8808603944679302  0.7891362775533782
  0.3117269558082435  0.3707593773496416  0.4341997939150115
  0.0622492516198469  0.6970928006208127  0.2105993843241761
  0.9373332905660656  0.1181400080061367  0.3006772232366881
  0.4382338714935756  0.9696992440992023  0.8352875384893133
  0.6878928157548528  0.9477038366478631  0.2110219318161783
  0.9377986846889580  0.4521088183689545  0.3451782047630688
  0.6885657665927719  0.4461866643178830  0.2110382504547414
  0.8129627027759957  0.5415007609188978  0.6102986636393930
  0.4376384765668191  0.7968457107856048  0.7437182112642462
  0.4372022598855034  0.2864813149197151  0.3888778391345794
  0.3129031810834424  0.8756874532995574  0.6545656822699638
  0.4381590628040373  0.6267471897174819  0.6545709777613440
  0.3120930460525242  0.5356090754244162  0.3888144328965923
  0.4371149026938886  0.9565375143459548  0.5655743796209471
  0.9377549474720407  0.1226021906313991  0.5215552331591730
  0.6883280050425616  0.4516731764646553  0.3447499983983134
  0.3127526651685417  0.8662946143231146  0.3002949828644185
  0.0622186559380067  0.0327409292364879  0.2552565627046475
  0.8132414184910559  0.2058643200356614  0.4787764601060907
  0.0609321079734218  0.3798567584220033  0.7888464831772865
  0.0636088385413961  0.0267173389161810  0.1232652599202209
  0.4376967589873506  0.1224594877840973  0.5213803053440994
  0.5630482626570339  0.8605668150112693  0.1664723280113166
  0.4382087324165274  0.1101971249206612  0.1662607314933247
  0.0632288162971388  0.0452624208577341  0.7436399138034404
  0.3128668710950416  0.0316108878000465  0.2555625357606303
  0.4370063527111854  0.2919480251393239  0.6102442799710998
  0.8125964118049228  0.3725179936210574  0.4342518431239987
  0.6877266843118525  0.2750602804583783  0.1236374525330555
  0.4373507845960390  0.7907079874380735  0.6103670146845541
  0.6884572158554018  0.2949999861622986  0.7436375171880119
  0.6915904996046244  0.3007518914092272  0.8775818862609407
  0.8119667640809681  0.8734621350767856  0.5214376651086360
  0.5631323024467528  0.8734007749658758  0.5215211141761270
  0.5626953155075242  0.1963746786373511  0.2112104001517925
  0.3128088307964959  0.3761773191828689  0.6546106378813972
  0.4369830948785997  0.1159610730015275  0.3003314516504964
  0.3123029230718211  0.3668196920264963  0.3003850993259638
  0.5623274550263393  0.3773134969147581  0.6546513977083015
  0.4384059269004203  0.2792544828797013  0.1242150295246663
  0.8129195059380411  0.3725868052390438  0.5215690174560534
  0.8122396358029051  0.3808090328184771  0.7889913456010613
  0.1869165093909704  0.4521460199572491  0.3448255111875169
  0.9381007780229086  0.2911342587731592  0.6104793112672208
  0.9371589966733087  0.6082030529547984  0.1659627710948038
  0.1860203729729953  0.2766203671912907  0.1236013295443584
  0.1864521758908518  0.4549229206484759  0.4787979291730638
  0.5622095399604111  0.3720799280707970  0.5215286983111226
  0.8121807039627765  0.5457300058000013  0.7439629590370834
  0.0620252977334260  0.2062758502817561  0.5655658070360280
  0.3113833534254858  0.5262987854348482  0.1236857655568899
  0.1870984188721461  0.9561140083462920  0.4788573735948183
  0.4371261408064851  0.1215139787060798  0.4341843589379591
  0.0619718136049520  0.7048404518560695  0.4788712727433239
  0.6882748571961266  0.4554851632048817  0.4790167892305847
  0.8154664756607483  0.3587845439337307  0.1655471075838520
  0.6867399565331549  0.7955565723287497  0.7435586218986141
  0.5628858309890099  0.7117642569173965  0.6987972224887431
  0.8131997305174162  0.6973234911564818  0.2108837663785572
  0.4373157461078380  0.1260038747713509  0.6547271172667392
  0.1880498015233112  0.7823402852044582  0.2554013108879685
  0.4368680242092129  0.4515456455671211  0.3448604775054019
  0.1875391213478272  0.6160116230884772  0.3006365879007789
  0.9382594256576011  0.4554916238885868  0.4787911952066201
  0.1872534467658162  0.9520969750801003  0.3446633182985673
  0.1875054782067758  0.4568464105950955  0.5654169463017126
  0.9388246342162119  0.9687671809538158  0.8345637781751772
  0.1880682646922234  0.9595562929631251  0.6988229252703111
  0.9370414090546756  0.6295328297657686  0.7887959070949596
  0.6870999519821495  0.7822904903641176  0.2557390201974629
  0.5621217403409965  0.0311729044438862  0.2556128034886395
  0.9371476326204965  0.7911901625121086  0.6102061246760403
  0.0630413755883271  0.3713733570650813  0.4343063907702584
  0.4375443725816545  0.6226784304247552  0.5215819208195563
  0.3120495660634030  0.2014881422467152  0.3446134274973279
  0.5622576573806468  0.5315879699325782  0.2560632400618980
  0.0623257958411322  0.7067165316951584  0.5656446765915008
  0.8126297685124668  0.8757527265447952  0.6544332182840430
  0.5624118969635981  0.0372627741360499  0.3888986982515202
  0.5636196763643717  0.0245185484233166  0.1244205025700284
  0.1875722312667461  0.2814787803870785  0.2554856328281793
  0.6875481465939951  0.1225354464955566  0.4341961980228373
  0.6888430224478435  0.7770379130919971  0.1240901293883641
  0.6890314410709625  0.9691845099400758  0.8351138484072029
  0.0626103348660414  0.2061070168835065  0.4787523147860229
  0.5618591034924683  0.0449623468964915  0.7436048657072474
  0.8135336135678882  0.1977325934593769  0.2101846697598793
  0.1880289115692635  0.6259709691261190  0.6545752167400204
  0.3130891792143005  0.7117325203117025  0.6988329099228417
  0.3114304984347011  0.2053007436252830  0.4788905639912290
  0.5625074909184348  0.2057498310097423  0.4787679306977546
  0.4373210021708450  0.2819148397873966  0.2556397991367695
  0.3116543525176679  0.2107696879826588  0.6988560888493645
  0.0634348329207070  0.0521138612645889  0.8775670158279636
  0.6869975162815988  0.9509240712888675  0.3448370911165717
  0.3111793671053460  0.0488436893029531  0.8774156029025778
  0.5630048534638105  0.3786949334526915  0.7892480430270222
  0.0622581063010698  0.8727121534079554  0.5216967485464244
  0.0619596246386304  0.5315674803855811  0.2558187559463323
  0.4373971892057117  0.6211955521093535  0.4342710791817946
  0.4375636336524661  0.6316225546492109  0.7885442891925342
  0.9366283132479316  0.7827157033197845  0.2557946940922879
  0.8120644912026638  0.5326379653478447  0.2562788199010782
  0.1871944420924467  0.7905585370157313  0.6102973033067470
  0.5624831775137606  0.5421740860795139  0.6104819557580843
  0.4368430236927708  0.4565113382445571  0.5655646042739366
  0.3122515649228364  0.0376564488278722  0.3888788433910965
  0.5616423673814962  0.3668616814475756  0.3004956693592971
  0.5631186598371015  0.7054839290755054  0.4789048041116349
  0.8134578633700766  0.2070360421660934  0.5659089531631293
  0.0625833967280489  0.8670396604046220  0.3004676488266510
  0.0622984717497251  0.5368157909043608  0.3889565140722231
  0.6870411268674349  0.1314677005925148  0.7891578532062341
  0.3131225059885730  0.2184419053492435  0.8355541039424059
  0.3126393055456717  0.5314702458299649  0.2558603059957844
  0.8134699696884273  0.3675892551972579  0.3007642523816429
  0.5626407337589537  0.7059754304058368  0.5658769859901035
  0.8129685354337867  0.7058072300787159  0.4790052322436799
  0.4373390801724395  0.7859541818829853  0.3885785602601890
  0.3114098058248597  0.0401631225428177  0.6102313712719817
  0.1872858022214552  0.2909054456601480  0.6101405116451093
  0.0627085788613404  0.3719993632619016  0.5215679532506478
  0.3107730507912494  0.0243947557740169  0.1244427333767586
  0.1875365554494677  0.6210780086184655  0.4343236413899087
  0.9374598810129078  0.6215405994438640  0.4341296857383977
  0.0618686772694156  0.5462842678524180  0.7438406291793823
  0.9382697687955184  0.6174418348330769  0.3006597788306238
  0.1861595720631133  0.9701182772606639  0.8351494108170430
  0.3112129686425165  0.8605460301462367  0.1660900955532200
  0.8122812976444352  0.7063143263872094  0.5657638408081975
  0.3125848630445190  0.3794474326550349  0.7893064177941784
  0.9378155694755572  0.6230458968453455  0.5215017872595846
  0.1873631172567550  0.1220756937742144  0.5216108291943479
  0.1874920590871047  0.6312113255162576  0.7888201124234286
  0.1872550883335656  0.4609143337409954  0.6987411118455444
  0.1870294950680756  0.4461488143961777  0.2107250285675281
  0.1872559045793336  0.9559264680512572  0.5658317486431446
  0.0622799963580325  0.7104775965094213  0.6987714211145477
  0.5629187414018042  0.6953271161731347  0.2110404910038827
  0.5619462480142338  0.8671998810927704  0.3002781895884282
  0.5629293864278997  0.2168989017855214  0.8351020991121242
  0.4370710857721858  0.4553451480563349  0.4787332477240445
  0.8116801048066906  0.5529556489927595  0.8779456592692477
  0.8132093885291700  0.0405849015018902  0.6105519873758456
  0.8124803235460181  0.0320129653306946  0.2556728744778110
  0.9378380143737325  0.1250817688016453  0.6546645826088480
  0.1870456060212905  0.6221523282858652  0.5215960259202875
  0.9370025502301770  0.6262325716889489  0.6545524314133817
  0.6878706060598038  0.6215693293751992  0.4345117481699041
  0.0627131233537965  0.0379034528228358  0.3887644367417342
  0.8121158497874734  0.8717377160749807  0.4344695492770282
  0.6878237098848314  0.4665526499081147  0.8356696707790409
  0.6871170798573456  0.2918377750466810  0.6102775196308192
  0.0623348744886616  0.3673332229762111  0.3008767682516605
  0.8132436147950942  0.2024809096389675  0.3447992877035019
  0.8125347251148106  0.0372908858120112  0.3887168783570285
  0.5626333650518417  0.5365440293800693  0.3888091819852188
  0.5622886916853981  0.5479211067513515  0.7433947481092767
  0.1892030940431452  0.4659634358454021  0.8351990649848436
  0.1874349151935832  0.7864206712121872  0.3888288772463162
  0.8120659031954858  0.7100755734530910  0.6989863255850568
  0.8137247594532149  0.8612395273948322  0.1661226458291721
  0.6878142193417323  0.7915022768317366  0.6105063970893281
  0.6870525575559029  0.1165697483972530  0.3004503520602680
  0.5620916540546401  0.2008903999002981  0.3446786022649241
  0.8131100790682509  0.5369674826311303  0.3888823811617152
  0.1857390600898466  0.8006534293707648  0.8776425512063982
  0.5639806943743597  0.0470199597903445  0.8778072430097221
  0.3121920921913470  0.3716154001718471  0.5216414212106173
  0.6887674458500598  0.1105677322586200  0.1661000807352724
  0.4375122930194307  0.9463918859671274  0.2111570621255495
  0.4373032388291306  0.9555959737831091  0.4787635755554833
  0.0623264169630707  0.8710670181918873  0.4343189354145600
  0.8133552133536402  0.5272364240167735  0.1231833086387706
  0.8124194635129908  0.3764680911398688  0.6545881435766220
  0.6878362099206449  0.6232151889058761  0.5216280724928883
  0.5627631499819790  0.8720131757849284  0.4344335785180745
  0.0625009174581239  0.8617950624153835  0.1659178232477889
  0.1873075067619173  0.2870343883121249  0.3888929245925372
  0.9373048851995458  0.9489182349138792  0.2107569567431980
  0.8131608745782722  0.7193767857017824  0.8355976650983233
  0.5618054659778684  0.2074676141416053  0.5656677393553098
  0.4379523296903302  0.9608744297610873  0.6988486944904643
  0.1859582960566463  0.1097931767927478  0.1658744900299811
  0.1859698729067121  0.7776947767738848  0.1236127166643930
  0.0623250005437100  0.2166647511292070  0.8355142357761156
  0.9369884182860999  0.7769532459434613  0.1234610231115767
  0.5646684838719580  0.5518179954621478  0.8777299272785505
  0.0627890308025408  0.2031487762401514  0.3450631186362035
  0.5623023901430558  0.3717222738560497  0.4342409933965803
  0.3124255588677897  0.7168720402287302  0.8352399303961552
  0.4369102982417092  0.7765187945361588  0.1245129953596705
  0.9379683499708112  0.4457378928641620  0.2103566365234265
  0.0611309752735915  0.3580953504227861  0.1655976787101727
  0.5635904844347819  0.5251468343619308  0.1239796530712613
  0.4371335553096896  0.4460871838794691  0.2111076775621419
  0.5622573663679362  0.7018230408051777  0.3449339997333228
  0.1862990030468194  0.2946804536063520  0.7433013111011838
  0.6880966739115673  0.7862431692190467  0.3888800650706524
  0.4376756747762330  0.7812107859540556  0.2560393871498255
  0.0626483468319310  0.7015804723706742  0.3449898618705004
  0.3124750989566812  0.3602708636113026  0.1660429687616931
  0.9373935151289203  0.9555433824629652  0.4789135096768650
  0.6873751988800235  0.2834949424671231  0.2561655507166638
  0.6878887518000220  0.9565766523005086  0.5654565186570125
  0.6874252934193312  0.2880066779570173  0.3886304147776931
  0.0622682706094763  0.5531065603913680  0.8774647135574134
  0.9383209307815340  0.2793501639874653  0.1225823827549650
  0.5626313530821276  0.2100530986748407  0.6988983889306873
  0.1872195256411978  0.1262645493210909  0.6544393543292391
  0.3126795710375647  0.8824763556553812  0.7885395171442533
  0.5623705074950599  0.0417128038974829  0.6104973578441896
  0.3113377860468226  0.5499168042376604  0.8775832399196574
  0.9375501194917358  0.4599852432513966  0.6988902506298669
  0.6869056980977206  0.8003968035198038  0.8773486839894983
  0.6867255775361777  0.6177800472323088  0.3003311652864421
  0.3122331160887828  0.2059664147000065  0.5656794817545102
  0.4371169679241018  0.9514869806062544  0.3449615257298871
  0.5620354937332264  0.3592061061768561  0.1659746648728145
  0.6882507089745648  0.9557385092341636  0.4789766165836413
  0.0617439697717399  0.8745079874922129  0.6543490698046380
  0.1869401535163422  0.9480374478882181  0.2111794817985880
 
  0.00000000E+00  0.00000000E+00  0.00000000E+00
  0.00000000E+00  0.00000000E+00  0.00000000E+00
  0.00000000E+00  0.00000000E+00  0.00000000E+00
  0.00000000E+00  0.00000000E+00  0.00000000E+00
  0.00000000E+00  0.00000000E+00  0.00000000E+00
  0.00000000E+00  0.00000000E+00  0.00000000E+00
  0.00000000E+00  0.00000000E+00  0.00000000E+00
  0.00000000E+00  0.00000000E+00  0.00000000E+00
  0.00000000E+00  0.00000000E+00  0.00000000E+00
  0.00000000E+00  0.00000000E+00  0.00000000E+00
  0.00000000E+00  0.00000000E+00  0.00000000E+00
  0.00000000E+00  0.00000000E+00  0.00000000E+00
  0.00000000E+00  0.00000000E+00  0.00000000E+00
  0.00000000E+00  0.00000000E+00  0.00000000E+00
  0.00000000E+00  0.00000000E+00  0.00000000E+00
  0.00000000E+00  0.00000000E+00  0.00000000E+00
  0.00000000E+00  0.00000000E+00  0.00000000E+00
  0.00000000E+00  0.00000000E+00  0.00000000E+00
  0.00000000E+00  0.00000000E+00  0.00000000E+00
  0.00000000E+00  0.00000000E+00  0.00000000E+00
  0.00000000E+00  0.00000000E+00  0.00000000E+00
  0.00000000E+00  0.00000000E+00  0.00000000E+00
  0.00000000E+00  0.00000000E+00  0.00000000E+00
  0.00000000E+00  0.00000000E+00  0.00000000E+00
  0.00000000E+00  0.00000000E+00  0.00000000E+00
  0.00000000E+00  0.00000000E+00  0.00000000E+00
  0.00000000E+00  0.00000000E+00  0.00000000E+00
  0.00000000E+00  0.00000000E+00  0.00000000E+00
  0.00000000E+00  0.00000000E+00  0.00000000E+00
  0.00000000E+00  0.00000000E+00  0.00000000E+00
  0.00000000E+00  0.00000000E+00  0.00000000E+00
  0.00000000E+00  0.00000000E+00  0.00000000E+00
  0.00000000E+00  0.00000000E+00  0.00000000E+00
  0.00000000E+00  0.00000000E+00  0.00000000E+00
  0.00000000E+00  0.00000000E+00  0.00000000E+00
  0.00000000E+00  0.00000000E+00  0.00000000E+00
  0.00000000E+00  0.00000000E+00  0.00000000E+00
  0.00000000E+00  0.00000000E+00  0.00000000E+00
  0.00000000E+00  0.00000000E+00  0.00000000E+00
  0.00000000E+00  0.00000000E+00  0.00000000E+00
  0.00000000E+00  0.00000000E+00  0.00000000E+00
  0.00000000E+00  0.00000000E+00  0.00000000E+00
  0.00000000E+00  0.00000000E+00  0.00000000E+00
  0.00000000E+00  0.00000000E+00  0.00000000E+00
  0.00000000E+00  0.00000000E+00  0.00000000E+00
  0.00000000E+00  0.00000000E+00  0.00000000E+00
  0.00000000E+00  0.00000000E+00  0.00000000E+00
  0.00000000E+00  0.00000000E+00  0.00000000E+00
  0.00000000E+00  0.00000000E+00  0.00000000E+00
  0.00000000E+00  0.00000000E+00  0.00000000E+00
  0.00000000E+00  0.00000000E+00  0.00000000E+00
  0.00000000E+00  0.00000000E+00  0.00000000E+00
  0.00000000E+00  0.00000000E+00  0.00000000E+00
  0.00000000E+00  0.00000000E+00  0.00000000E+00
  0.00000000E+00  0.00000000E+00  0.00000000E+00
  0.00000000E+00  0.00000000E+00  0.00000000E+00
  0.00000000E+00  0.00000000E+00  0.00000000E+00
  0.00000000E+00  0.00000000E+00  0.00000000E+00
  0.00000000E+00  0.00000000E+00  0.00000000E+00
  0.00000000E+00  0.00000000E+00  0.00000000E+00
  0.00000000E+00  0.00000000E+00  0.00000000E+00
  0.00000000E+00  0.00000000E+00  0.00000000E+00
  0.00000000E+00  0.00000000E+00  0.00000000E+00
  0.00000000E+00  0.00000000E+00  0.00000000E+00
  0.00000000E+00  0.00000000E+00  0.00000000E+00
  0.00000000E+00  0.00000000E+00  0.00000000E+00
  0.00000000E+00  0.00000000E+00  0.00000000E+00
  0.00000000E+00  0.00000000E+00  0.00000000E+00
  0.00000000E+00  0.00000000E+00  0.00000000E+00
  0.00000000E+00  0.00000000E+00  0.00000000E+00
  0.00000000E+00  0.00000000E+00  0.00000000E+00
  0.00000000E+00  0.00000000E+00  0.00000000E+00
  0.00000000E+00  0.00000000E+00  0.00000000E+00
  0.00000000E+00  0.00000000E+00  0.00000000E+00
  0.00000000E+00  0.00000000E+00  0.00000000E+00
  0.00000000E+00  0.00000000E+00  0.00000000E+00
  0.00000000E+00  0.00000000E+00  0.00000000E+00
  0.00000000E+00  0.00000000E+00  0.00000000E+00
  0.00000000E+00  0.00000000E+00  0.00000000E+00
  0.00000000E+00  0.00000000E+00  0.00000000E+00
  0.00000000E+00  0.00000000E+00  0.00000000E+00
  0.00000000E+00  0.00000000E+00  0.00000000E+00
  0.00000000E+00  0.00000000E+00  0.00000000E+00
  0.00000000E+00  0.00000000E+00  0.00000000E+00
  0.00000000E+00  0.00000000E+00  0.00000000E+00
  0.00000000E+00  0.00000000E+00  0.00000000E+00
  0.00000000E+00  0.00000000E+00  0.00000000E+00
  0.00000000E+00  0.00000000E+00  0.00000000E+00
  0.00000000E+00  0.00000000E+00  0.00000000E+00
  0.00000000E+00  0.00000000E+00  0.00000000E+00
  0.00000000E+00  0.00000000E+00  0.00000000E+00
  0.00000000E+00  0.00000000E+00  0.00000000E+00
  0.00000000E+00  0.00000000E+00  0.00000000E+00
  0.00000000E+00  0.00000000E+00  0.00000000E+00
  0.00000000E+00  0.00000000E+00  0.00000000E+00
  0.00000000E+00  0.00000000E+00  0.00000000E+00
  0.00000000E+00  0.00000000E+00  0.00000000E+00
  0.00000000E+00  0.00000000E+00  0.00000000E+00
  0.00000000E+00  0.00000000E+00  0.00000000E+00
  0.00000000E+00  0.00000000E+00  0.00000000E+00
  0.00000000E+00  0.00000000E+00  0.00000000E+00
  0.00000000E+00  0.00000000E+00  0.00000000E+00
  0.00000000E+00  0.00000000E+00  0.00000000E+00
  0.00000000E+00  0.00000000E+00  0.00000000E+00
  0.00000000E+00  0.00000000E+00  0.00000000E+00
  0.00000000E+00  0.00000000E+00  0.00000000E+00
  0.00000000E+00  0.00000000E+00  0.00000000E+00
  0.00000000E+00  0.00000000E+00  0.00000000E+00
  0.00000000E+00  0.00000000E+00  0.00000000E+00
  0.00000000E+00  0.00000000E+00  0.00000000E+00
  0.00000000E+00  0.00000000E+00  0.00000000E+00
  0.00000000E+00  0.00000000E+00  0.00000000E+00
  0.00000000E+00  0.00000000E+00  0.00000000E+00
  0.00000000E+00  0.00000000E+00  0.00000000E+00
  0.00000000E+00  0.00000000E+00  0.00000000E+00
  0.00000000E+00  0.00000000E+00  0.00000000E+00
  0.00000000E+00  0.00000000E+00  0.00000000E+00
  0.00000000E+00  0.00000000E+00  0.00000000E+00
  0.00000000E+00  0.00000000E+00  0.00000000E+00
  0.00000000E+00  0.00000000E+00  0.00000000E+00
  0.00000000E+00  0.00000000E+00  0.00000000E+00
  0.00000000E+00  0.00000000E+00  0.00000000E+00
  0.00000000E+00  0.00000000E+00  0.00000000E+00
  0.00000000E+00  0.00000000E+00  0.00000000E+00
  0.00000000E+00  0.00000000E+00  0.00000000E+00
  0.00000000E+00  0.00000000E+00  0.00000000E+00
  0.00000000E+00  0.00000000E+00  0.00000000E+00
  0.00000000E+00  0.00000000E+00  0.00000000E+00
  0.00000000E+00  0.00000000E+00  0.00000000E+00
  0.00000000E+00  0.00000000E+00  0.00000000E+00
  0.00000000E+00  0.00000000E+00  0.00000000E+00
  0.00000000E+00  0.00000000E+00  0.00000000E+00
  0.00000000E+00  0.00000000E+00  0.00000000E+00
  0.00000000E+00  0.00000000E+00  0.00000000E+00
  0.00000000E+00  0.00000000E+00  0.00000000E+00
  0.00000000E+00  0.00000000E+00  0.00000000E+00
  0.00000000E+00  0.00000000E+00  0.00000000E+00
  0.00000000E+00  0.00000000E+00  0.00000000E+00
  0.00000000E+00  0.00000000E+00  0.00000000E+00
  0.00000000E+00  0.00000000E+00  0.00000000E+00
  0.00000000E+00  0.00000000E+00  0.00000000E+00
  0.00000000E+00  0.00000000E+00  0.00000000E+00
  0.00000000E+00  0.00000000E+00  0.00000000E+00
  0.00000000E+00  0.00000000E+00  0.00000000E+00
  0.00000000E+00  0.00000000E+00  0.00000000E+00
  0.00000000E+00  0.00000000E+00  0.00000000E+00
  0.00000000E+00  0.00000000E+00  0.00000000E+00
  0.00000000E+00  0.00000000E+00  0.00000000E+00
  0.00000000E+00  0.00000000E+00  0.00000000E+00
  0.00000000E+00  0.00000000E+00  0.00000000E+00
  0.00000000E+00  0.00000000E+00  0.00000000E+00
  0.00000000E+00  0.00000000E+00  0.00000000E+00
  0.00000000E+00  0.00000000E+00  0.00000000E+00
  0.00000000E+00  0.00000000E+00  0.00000000E+00
  0.00000000E+00  0.00000000E+00  0.00000000E+00
  0.00000000E+00  0.00000000E+00  0.00000000E+00
  0.00000000E+00  0.00000000E+00  0.00000000E+00
  0.00000000E+00  0.00000000E+00  0.00000000E+00
  0.00000000E+00  0.00000000E+00  0.00000000E+00
  0.00000000E+00  0.00000000E+00  0.00000000E+00
  0.00000000E+00  0.00000000E+00  0.00000000E+00
  0.00000000E+00  0.00000000E+00  0.00000000E+00
  0.00000000E+00  0.00000000E+00  0.00000000E+00
  0.00000000E+00  0.00000000E+00  0.00000000E+00
  0.00000000E+00  0.00000000E+00  0.00000000E+00
  0.00000000E+00  0.00000000E+00  0.00000000E+00
  0.00000000E+00  0.00000000E+00  0.00000000E+00
  0.00000000E+00  0.00000000E+00  0.00000000E+00
  0.00000000E+00  0.00000000E+00  0.00000000E+00
  0.00000000E+00  0.00000000E+00  0.00000000E+00
  0.00000000E+00  0.00000000E+00  0.00000000E+00
  0.00000000E+00  0.00000000E+00  0.00000000E+00
  0.00000000E+00  0.00000000E+00  0.00000000E+00
  0.00000000E+00  0.00000000E+00  0.00000000E+00
  0.00000000E+00  0.00000000E+00  0.00000000E+00
  0.00000000E+00  0.00000000E+00  0.00000000E+00
  0.00000000E+00  0.00000000E+00  0.00000000E+00
  0.00000000E+00  0.00000000E+00  0.00000000E+00
  0.00000000E+00  0.00000000E+00  0.00000000E+00
  0.00000000E+00  0.00000000E+00  0.00000000E+00
  0.00000000E+00  0.00000000E+00  0.00000000E+00
  0.00000000E+00  0.00000000E+00  0.00000000E+00
  0.00000000E+00  0.00000000E+00  0.00000000E+00
  0.00000000E+00  0.00000000E+00  0.00000000E+00
  0.00000000E+00  0.00000000E+00  0.00000000E+00
  0.00000000E+00  0.00000000E+00  0.00000000E+00
  0.00000000E+00  0.00000000E+00  0.00000000E+00
  0.00000000E+00  0.00000000E+00  0.00000000E+00
  0.00000000E+00  0.00000000E+00  0.00000000E+00
  0.00000000E+00  0.00000000E+00  0.00000000E+00
  0.00000000E+00  0.00000000E+00  0.00000000E+00
  0.00000000E+00  0.00000000E+00  0.00000000E+00
  0.00000000E+00  0.00000000E+00  0.00000000E+00
  0.00000000E+00  0.00000000E+00  0.00000000E+00
  0.00000000E+00  0.00000000E+00  0.00000000E+00
  0.00000000E+00  0.00000000E+00  0.00000000E+00
  0.00000000E+00  0.00000000E+00  0.00000000E+00
  0.00000000E+00  0.00000000E+00  0.00000000E+00
  0.00000000E+00  0.00000000E+00  0.00000000E+00
  0.00000000E+00  0.00000000E+00  0.00000000E+00
  0.00000000E+00  0.00000000E+00  0.00000000E+00
  0.00000000E+00  0.00000000E+00  0.00000000E+00
  0.00000000E+00  0.00000000E+00  0.00000000E+00
  0.00000000E+00  0.00000000E+00  0.00000000E+00
  0.00000000E+00  0.00000000E+00  0.00000000E+00
  0.00000000E+00  0.00000000E+00  0.00000000E+00
  0.00000000E+00  0.00000000E+00  0.00000000E+00
  0.00000000E+00  0.00000000E+00  0.00000000E+00
  0.00000000E+00  0.00000000E+00  0.00000000E+00
  0.00000000E+00  0.00000000E+00  0.00000000E+00
  0.00000000E+00  0.00000000E+00  0.00000000E+00
  0.00000000E+00  0.00000000E+00  0.00000000E+00
  0.00000000E+00  0.00000000E+00  0.00000000E+00
  0.00000000E+00  0.00000000E+00  0.00000000E+00
  0.00000000E+00  0.00000000E+00  0.00000000E+00
  0.00000000E+00  0.00000000E+00  0.00000000E+00
  0.00000000E+00  0.00000000E+00  0.00000000E+00
  0.00000000E+00  0.00000000E+00  0.00000000E+00
  0.00000000E+00  0.00000000E+00  0.00000000E+00
  0.00000000E+00  0.00000000E+00  0.00000000E+00
  0.00000000E+00  0.00000000E+00  0.00000000E+00
  0.00000000E+00  0.00000000E+00  0.00000000E+00
  0.00000000E+00  0.00000000E+00  0.00000000E+00
  0.00000000E+00  0.00000000E+00  0.00000000E+00
  0.00000000E+00  0.00000000E+00  0.00000000E+00
  0.00000000E+00  0.00000000E+00  0.00000000E+00
  0.00000000E+00  0.00000000E+00  0.00000000E+00
  0.00000000E+00  0.00000000E+00  0.00000000E+00
  0.00000000E+00  0.00000000E+00  0.00000000E+00
  0.00000000E+00  0.00000000E+00  0.00000000E+00
  0.00000000E+00  0.00000000E+00  0.00000000E+00
  0.00000000E+00  0.00000000E+00  0.00000000E+00
  0.00000000E+00  0.00000000E+00  0.00000000E+00
  0.00000000E+00  0.00000000E+00  0.00000000E+00
  0.00000000E+00  0.00000000E+00  0.00000000E+00
  0.00000000E+00  0.00000000E+00  0.00000000E+00
  0.00000000E+00  0.00000000E+00  0.00000000E+00
  0.00000000E+00  0.00000000E+00  0.00000000E+00
  0.00000000E+00  0.00000000E+00  0.00000000E+00
  0.00000000E+00  0.00000000E+00  0.00000000E+00
  0.00000000E+00  0.00000000E+00  0.00000000E+00
  0.00000000E+00  0.00000000E+00  0.00000000E+00
  0.00000000E+00  0.00000000E+00  0.00000000E+00
  0.00000000E+00  0.00000000E+00  0.00000000E+00
  0.00000000E+00  0.00000000E+00  0.00000000E+00
  0.00000000E+00  0.00000000E+00  0.00000000E+00
  0.00000000E+00  0.00000000E+00  0.00000000E+00