CuInSe2gb                               
   1.00000000000000     
     9.7266780392896699    0.0000000000000000    0.0000000000000000
     0.0000000000000000    8.4235502764570693    0.0000000000000000
     0.0000000000000000    0.0000000000000000   45.0000000000000000
   Fe   Mn
   281     7
Direct
  0.0581162988194589  0.7009329410423469  0.2111491618088718
  0.3160257211678630  0.7200728381382274  0.8757753834377241
  0.6882870297316009  0.9578809804700851  0.6114271839140624
  0.4383876124350456  0.4580864231090960  0.6114671868629663
  0.4365242759880706  0.2870997500861259  0.2555193832011040
  0.0603250344252352  0.3870962067404582  0.8342233109638796
  0.3111004049343067  0.8866941277341909  0.8342340323834371
  0.4422620299806480  0.6264697974684840  0.7004054618857125
  0.0636829923637271  0.2131500462177663  0.7445222722997027
  0.1825064044787771  0.4516926662886315  0.2113263948531855
  0.5637999184985922  0.2090907137284522  0.4778469811990179
  0.0640950465605821  0.8747708547251561  0.5668637236582708
  0.5647208704524415  0.2195339963445825  0.8758103679743694
  0.8099206621232161  0.5303879359245319  0.1245126553531824
  0.4331966148624636  0.9514039506635831  0.2112085047963474
  0.5642659693207147  0.3745619041837077  0.5667658500745494
  0.8116644316822849  0.0420202906413729  0.3884095172118656
  0.6861149762164013  0.7910186988403010  0.5221287015317535
  0.4387874247232386  0.4590750940778216  0.4778154120554824
  0.4381741499020951  0.9629041099426291  0.7444689424377895
  0.4390562496425541  0.6245981402684426  0.5668500206542304
  0.5674852475222892  0.8764583478753012  0.7003232392134038
  0.3106098973954612  0.0310561436986302  0.1241439783343047
  0.6864800635030585  0.9579786555194663  0.3440360929531600
  0.6877188591546470  0.7797164772743388  0.1246599757990178
  0.0577782631698978  0.3733594228676882  0.2996291811521685
  0.6875760066723312  0.4722524529241863  0.8755083845848332
  0.4330828948668632  0.4513718560737179  0.2111807671008210
  0.8108024851527260  0.3754585813495143  0.4330076197990030
  0.5632332254219532  0.7080357578276898  0.6114800112235785
  0.5630203171411428  0.5412983450831582  0.6557634221745176
  0.8144710902656558  0.8636685651558849  0.1661004925891328
  0.5613212154090754  0.5371197833044821  0.2555056700951793
  0.6865070662532804  0.4579385952994903  0.3440530779058623
  0.1882842255432168  0.6127425897491032  0.1662217049099954
  0.1919535564536710  0.7988455677582570  0.7886757971080922
  0.4425222698537952  0.1263902096843781  0.7004063427894792
  0.9324987972698221  0.6232009982997092  0.2996481483900225
  0.3151578046071016  0.2194916652221908  0.8757052294318901
  0.3139739958470263  0.8746993761419276  0.5667862552215315
  0.8115503823479709  0.5368064239902156  0.2555156377929442
  0.8128553704450039  0.5416499221843972  0.6557704261350052
  0.5600674166685515  0.5294594629574773  0.1244435156756248
  0.5667085453039648  0.0494508419681833  0.7888136595105336
  0.1867022978351027  0.2874277267665664  0.2554859006029007
  0.8107703284286063  0.8754010599952495  0.4330040965909381
  0.5672358719450674  0.3764347993573300  0.7004742973950505
  0.0610527603011854  0.0293170405311081  0.1245001964364429
  0.3130132245802672  0.5412354546904108  0.6557651818239033
  0.5616601340986856  0.2081768886176265  0.3441748130422486
  0.1884935149173356  0.9579396166166843  0.6114339881630012
  0.3076429944418979  0.3735973615775436  0.2996724456966474
  0.4380564078788227  0.7915927595393965  0.6557652337626515
  0.1919287674332692  0.2984207842701271  0.7888222997045365
  0.0637552264754384  0.3638341009991475  0.1660795460442518
  0.6922042369623709  0.6265549006130787  0.7003840955753402
  0.3114700155606243  0.5417819837409370  0.3883923099725731
  0.0652542062224744  0.7196356338079059  0.8759209754728767
  0.9361985917636100  0.6367152730663077  0.8341625077128687
  0.3175741659058163  0.5496740918077034  0.7889102175238232
  0.3075736244438719  0.2003665187628877  0.2111522216020225
  0.0639291173157177  0.7089033234641144  0.4778902068809223
  0.5573768008597638  0.2009407327764180  0.2111400126641953
  0.3138967407150698  0.2135154807202816  0.7444624393681337
  0.0673407843959890  0.3769568748382741  0.7003147864551325
  0.1860831162617771  0.6369365136332581  0.8340269126675901
  0.0671602783908825  0.0492677283632104  0.7888289431698107
  0.4390931321317375  0.1245911291334634  0.5668200547791379
  0.9382174284363407  0.2916857609516501  0.6557004228039862
  0.8074629296272254  0.2011687660626864  0.2111088675702291
  0.9328321289634549  0.9513609290778640  0.2113601971298781
  0.9390559056096307  0.6249068511498999  0.5667741209798429
  0.8108491353099653  0.3866053795024949  0.8341510088072626
  0.1922560296668110  0.6265511084429882  0.7003596891302557
  0.8109798112389668  0.8870790224318190  0.8343616183150607
  0.6881094413780855  0.2913709486452029  0.6558055511921462
  0.3135238021160259  0.2078826922653555  0.6114959868660419
  0.4382987426704401  0.4628674908025492  0.7444581219789331
  0.4365089146752075  0.7916463525115489  0.3884257926838459
  0.6880844168712602  0.9628947431753075  0.7444954263429810
  0.8074746602515080  0.7011144150719553  0.2111398579844748
  0.8131522112541465  0.7080708749822072  0.6114021651251242
  0.4371058064844084  0.7792776136620980  0.1243136151798699
  0.3131556696912461  0.7129391601674213  0.7444585981807141
  0.3172625980885435  0.0498658423442959  0.7890313551327963
  0.8114796653864564  0.5419038947201579  0.3884298805593159
  0.6861752892808736  0.2910042904163171  0.5221441327277733
  0.6917770440690502  0.7994980409688992  0.7888809098276413
  0.1868183610321703  0.7873165598721863  0.2555050189775595
  0.6889287517671456  0.1134487499991516  0.1661506551120706
  0.6887582911936647  0.9591797760634420  0.4778925633330039
  0.9366070268713558  0.9586809742745788  0.3440966674229186
  0.8110706413274801  0.0405191002349428  0.5221171203921717
  0.6850861189341240  0.6251875800659296  0.4330720533272018
  0.4368026911578902  0.4584327000029610  0.3441663169540037
  0.8132817381420031  0.2134653378706335  0.7445242862225945
  0.4391018350583119  0.9718037652164107  0.8754682684384625
  0.5642642385673492  0.8745375916172259  0.5667577439026054
  0.8102713150635724  0.0303923686298859  0.1245388416185637
  0.4326296591730639  0.6233735065190854  0.2996884723287833
  0.8150760914562891  0.7198616100713390  0.8759238090754601
  0.6881480019920418  0.4578937285530473  0.6114225162079233
  0.5616065959916645  0.3869474221296495  0.8343530016431204
  0.8075023275543428  0.3735072240386761  0.2996063014801136
  0.1863502138657719  0.2916416417736019  0.3884071794346479
  0.8164668495471975  0.5502595639907568  0.7888962888878214
  0.1862572099728779  0.7907286323390932  0.5221873257035666
  0.3076889564952164  0.8735522929348754  0.2996769382146180
  0.1824609359111526  0.9515223429620518  0.2113279537800073
  0.1887123455290661  0.4630361928790533  0.7444686678717132
  0.4359753461639136  0.2907691149875837  0.5220661522081933
  0.0617153092870496  0.7083333859807242  0.3441672398452706
  0.1882587005388220  0.7911870614544544  0.6556834346268571
  0.4418946554096687  0.7988682948054040  0.7888215169678912
  0.6849928992592951  0.1251603529229804  0.4330533063002334
  0.9361637053552034  0.7903031028985554  0.5221897906074136
  0.6887273677385961  0.6132453132668273  0.1661618731421610
  0.8116743462837372  0.7084364583947399  0.3441944370919619
  0.9383653813877233  0.4627203207553199  0.7443896222126328
  0.1867425551201891  0.4581830585457469  0.3441327767684189
  0.5674503127291914  0.5494226937042634  0.7889128447038602
  0.5653152201463356  0.3638533841973107  0.1658868838016020
  0.5616738081461045  0.7081224100355785  0.3441770397491766
  0.5577412861368983  0.3733963073005886  0.2996708696307419
  0.1886069757893588  0.4717878693438092  0.8755736760963285
  0.1884054463383036  0.1127603434748761  0.1662035702639568
  0.4418157364975385  0.2987509904809918  0.7887544225091480
  0.6865539202657216  0.7872619802018308  0.2554544109902804
  0.9360834217220094  0.1369496554593854  0.8340331039992084
  0.4388216493350062  0.9590812786559759  0.4777882176217648
  0.5653038823914522  0.7199920896960220  0.8757855081219045
  0.1885919217866953  0.4589808610600501  0.4778014329312214
  0.9362583018197190  0.2795949474292023  0.1246205657270130
  0.3113904893270776  0.0416705784087483  0.3884172663557006
  0.0629726825177671  0.0410730073809726  0.6557308126301680
  0.5610646750451220  0.3752691584381862  0.4330293676813186
  0.6878207680937392  0.4624725827407597  0.7444866340102392
  0.5637506010842224  0.2136384678480581  0.7444244447698752
  0.9426136695285919  0.1269449623766101  0.7003950649969429
  0.5630466335557589  0.0412008272591291  0.6557993166351327
  0.5610636661052969  0.5407275837820887  0.5220684076383820
  0.1827658708360045  0.1232643222325090  0.2996192654934378
  0.4386750751714065  0.1124078156646704  0.1660727379010705
  0.6823237110907429  0.6232764016306681  0.2996545882016765
  0.9325899738399993  0.1231300501171237  0.2996359870803385
  0.8139733498766820  0.3748057228318572  0.5668513700876662
  0.0577316100881525  0.8732991858273682  0.2996235488062490
  0.1890202060565005  0.6248347765977005  0.5668913061302777
  0.9412083378465671  0.7990634626879485  0.7889005511005668
  0.3111631168746794  0.3863741556523488  0.8343222855674396
  0.9400491640550208  0.4719437048742718  0.8754860465873081
  0.4367331991393705  0.6369021615785433  0.8341286569031368
  0.0616997532442733  0.2084028252572566  0.3441894701405239
  0.1883582479132570  0.9712569203523173  0.8754738740281122
  0.9363742436177703  0.7796122234305360  0.1246156086498107
  0.6863291746797714  0.7918210972875841  0.3883723043069497
  0.9381949676163311  0.7915258847234111  0.6557617734555764
  0.9384852809956189  0.1133755762269387  0.1662257868442431
  0.4378196736218850  0.2913923290825559  0.6558349280030021
  0.0581885628349890  0.2010868097364425  0.2111559896858052
  0.6827948554132267  0.9513744079623574  0.2113063188818531
  0.1827442430967555  0.6232674318664485  0.2995953747424159
  0.8172450392251277  0.8766922525311109  0.7002882769426225
  0.9424846079213444  0.6268440518771277  0.7004229894811157
  0.1924286397072236  0.1267573877051701  0.7003999636499950
  0.9390610537173777  0.4588971319091800  0.4778343658662771
  0.8132567140954859  0.2078505129585505  0.6114370427650017
  0.1866749002747206  0.6251560085588309  0.4330216783602468
  0.4326178289013486  0.1232475317011842  0.2997116136243324
  0.6823509072995668  0.1232058139334859  0.2996516798437723
  0.5612218077927652  0.5416664246552533  0.3883822077512500
  0.8118029062530099  0.2085245787476283  0.3442406393122971
  0.4390626779924535  0.4718159666799850  0.8754984070465636
  0.5610825042269306  0.8868968022396043  0.8342139505615520
  0.3139911001744495  0.2092079474926179  0.4778014407934170
  0.1886127354149333  0.9591176416279285  0.4777840185296783
  0.0612423323323416  0.8870511821790168  0.8341195788765033
  0.0611377230052236  0.5405328359550121  0.5220375918925738
  0.9390765441768414  0.9588666215466201  0.4778264329338593
  0.0634658310467007  0.7080495877128434  0.6114291949574837
  0.5610372571551185  0.0407921394174106  0.5220990519038937
  0.6919262326876280  0.2988718682805382  0.7887920946839849
  0.8142761890236867  0.3634734946316264  0.1660829179730318
  0.4357278153879358  0.1249738404117472  0.4330651513415253
  0.0640321413488931  0.2089833038465547  0.4778702478802220
  0.3132888333315877  0.0413503586997791  0.6557584036168298
  0.4360855421319003  0.7907589520820703  0.5220712273853434
  0.1872234435820855  0.1365245570045373  0.8339706195479372
  0.1859869107989152  0.2785313233437563  0.1244148031006554
  0.9367147330093291  0.4585377524402581  0.3440743685414396
  0.5653485542162838  0.8639818613936654  0.1658814918657651
  0.3073993396635318  0.7001212234190860  0.2111411706959281
  0.9384391544279242  0.6132298761555155  0.1662286927747872
  0.1883013273857698  0.4578914435702967  0.6114274610649045
  0.0673205181731049  0.8768871091463287  0.7002999862640943
  0.0630881880595699  0.5414079431492644  0.6558610012314593
  0.3104556867783457  0.5309767025188497  0.1241270800209829
  0.9361434836440097  0.7922061340756102  0.3884173511139084
  0.9415889261506689  0.2986907225629215  0.7887673718814665
  0.1879115260995917  0.2915284215814478  0.6558205554482239
  0.9385343583748491  0.9580225011741673  0.6115096969671090
  0.8135672659270345  0.7124656156389330  0.7445897193934850
  0.6866927956619606  0.2872951378307206  0.2554677406178440
  0.0640235593111828  0.7129626460171204  0.7444488759079282
  0.6826711634248415  0.4513348059525513  0.2112846030039606
  0.8138245193365796  0.2090403468896527  0.4778656034357501
  0.5638474854072509  0.7091010690977650  0.4778392228371767
  0.0638061036360131  0.8638160662149202  0.1660916537376800
  0.9361484066749085  0.2904068292261267  0.5221713081168793
  0.6877393623746410  0.7913388504259816  0.6558031904120450
  0.0613923290372340  0.8749486316089840  0.4329901130173538
  0.0664180799682734  0.2192557084265258  0.8758521803430210
  0.8130640731354374  0.0411944301681113  0.6557569104642970
  0.5600658423132262  0.0294133363200820  0.1244723162011102
  0.3106056883917248  0.3749908324210438  0.4331029786737070
  0.3140488086515582  0.3745658395269403  0.5667627469028022
  0.3140072250292174  0.7092789223549951  0.4778022214910391
  0.0612000792011226  0.0405698376743977  0.5220232942508353
  0.3172556986608835  0.8766335915577368  0.7003863241409730
  0.0614749166583160  0.5370565893730779  0.2555099068235349
  0.6868359756072897  0.1374424963103990  0.8341097187354997
  0.8114929604543000  0.0367569282891599  0.2555310887709790
  0.1868091109144638  0.1251502567619145  0.4330355007666464
  0.6922619095165445  0.1265002382141325  0.7003204075713265
  0.1863027873969797  0.2907350850624145  0.5221908519435667
  0.4364890901809775  0.7871295068511427  0.2555457923118273
  0.4384054271261496  0.6122985662189604  0.1661223848138913
  0.0632500096231650  0.2078769588339835  0.6113996437668678
  0.1863824863419280  0.7916438446995860  0.3884210714713016
  0.3113154816839350  0.5409041094721071  0.5220786912681850
  0.8171378760308609  0.3766937567476591  0.7003443263048403
  0.6862912996296128  0.2919144216810172  0.3883663915940380
  0.1892904413198976  0.1247200768583270  0.5668319901685742
  0.6885138139773673  0.9711762573136939  0.8755365353336598
  0.6889317358249044  0.1248058789334553  0.5668325796302297
  0.4368879758678947  0.9583561363511077  0.3441665407301975
  0.1882843527880429  0.9629912007144554  0.7445025678229891
  0.9364068643141510  0.7871704595082565  0.2555299990896470
  0.5609974272102038  0.8752812895161957  0.4330346168151008
  0.3106696042160215  0.8750525765902577  0.4330901559693505
  0.8110408754871186  0.5404615468872792  0.5221015769661344
  0.9328115919470390  0.4513087020220566  0.2113560014912075
  0.3112949891029789  0.5366465985341270  0.2555832680624875
  0.5611886147318146  0.0416659143376252  0.3883966784761639
  0.9384416559450500  0.4577557737087513  0.6114787833436972
  0.0614556759781608  0.0419375175391183  0.3883943479094328
  0.0614264985635482  0.5418593230318453  0.3884110093930033
  0.4366157577843965  0.2917405376094633  0.3884449563831276
  0.6888550474402757  0.4592198252100804  0.4778871131253472
  0.0641265789388263  0.3747695058021518  0.5668772119260616
  0.5574214464827548  0.7007759246214537  0.2111323923333761
  0.9364792420685277  0.2872729432105128  0.2555102625467850
  0.8165477864402798  0.0496152039678262  0.7889560432598641
  0.1868459549016201  0.9581986837856379  0.3441434625076551
  0.5577488890315592  0.8733099649698893  0.2996640694141617
  0.0613215890082733  0.3749547271161954  0.4329952402500289
  0.3116866671851829  0.7080640887361812  0.3441776768871733
  0.3115704848207987  0.2080555478345515  0.3441560916637904
  0.9389648916197971  0.1248951289101444  0.5667975915652679
  0.4381594963884902  0.9580651713764378  0.6114763703854540
  0.5612307875113217  0.0370253633292976  0.2554929928452381
  0.1861122697000818  0.7787260241926732  0.1244566629559146
  0.0614742932871223  0.0370798904592084  0.2554985217035397
  0.6890803650366254  0.6247182252665692  0.5668789600417450
  0.0607153161793393  0.5293497274651148  0.1245190842346837
  0.3111761651089743  0.0411220707134042  0.5220870620383411
  0.6875945984021427  0.2797051968780077  0.1246881714178555
  0.8137399818655463  0.7088680247636606  0.4778547938427808
  0.4363561280436875  0.1367100113057652  0.8340084617085958
  0.3174973058977469  0.3762747670109821  0.7003520240614254
  0.6870662779460286  0.6376849031988622  0.8340566814546104
  0.5633417871562343  0.7124246825341416  0.7445692771376495
  0.9360945457025772  0.2920994506750608  0.3884084387223780
  0.9392037955162702  0.9708297229219923  0.8755304920658824
  0.5634196168636224  0.2080155722295750  0.6114542487289184
  0.8141018597561328  0.8747981747133128  0.5668754707819366
  0.8075159909244473  0.8733924606755852  0.2996395853961472
  0.3114095540930497  0.0366246122110011  0.2556028240964033
  0.4369523434808493  0.2792676236928309  0.1243097791385318
  0.3133521581897452  0.7080506691902172  0.6114730292660859
  0.4357126150437631  0.6250432322586285  0.4330631824796463
  0.9356824972155052  0.6251657478228232  0.4331055804521013
  0.3150886309896643  0.8631199286290823  0.1656545395361875
  0.0673055303369646  0.5494819668187582  0.7886689141057907
  0.9357590655308472  0.1251606056755560  0.4330933354363694
  0.3151104857223737  0.3631045967755152  0.1656488512263349
  0.9378048301025004  0.9635170865188363  0.7445732103059962
  0.8157721883839701  0.2199322574584786  0.8756722401520985
 
  0.00000000E+00  0.00000000E+00  0.00000000E+00
  0.00000000E+00  0.00000000E+00  0.00000000E+00
  0.00000000E+00  0.00000000E+00  0.00000000E+00
  0.00000000E+00  0.00000000E+00  0.00000000E+00
  0.00000000E+00  0.00000000E+00  0.00000000E+00
  0.00000000E+00  0.00000000E+00  0.00000000E+00
  0.00000000E+00  0.00000000E+00  0.00000000E+00
  0.00000000E+00  0.00000000E+00  0.00000000E+00
  0.00000000E+00  0.00000000E+00  0.00000000E+00
  0.00000000E+00  0.00000000E+00  0.00000000E+00
  0.00000000E+00  0.00000000E+00  0.00000000E+00
  0.00000000E+00  0.00000000E+00  0.00000000E+00
  0.00000000E+00  0.00000000E+00  0.00000000E+00
  0.00000000E+00  0.00000000E+00  0.00000000E+00
  0.00000000E+00  0.00000000E+00  0.00000000E+00
  0.00000000E+00  0.00000000E+00  0.00000000E+00
  0.00000000E+00  0.00000000E+00  0.00000000E+00
  0.00000000E+00  0.00000000E+00  0.00000000E+00
  0.00000000E+00  0.00000000E+00  0.00000000E+00
  0.00000000E+00  0.00000000E+00  0.00000000E+00
  0.00000000E+00  0.00000000E+00  0.00000000E+00
  0.00000000E+00  0.00000000E+00  0.00000000E+00
  0.00000000E+00  0.00000000E+00  0.00000000E+00
  0.00000000E+00  0.00000000E+00  0.00000000E+00
  0.00000000E+00  0.00000000E+00  0.00000000E+00
  0.00000000E+00  0.00000000E+00  0.00000000E+00
  0.00000000E+00  0.00000000E+00  0.00000000E+00
  0.00000000E+00  0.00000000E+00  0.00000000E+00
  0.00000000E+00  0.00000000E+00  0.00000000E+00
  0.00000000E+00  0.00000000E+00  0.00000000E+00
  0.00000000E+00  0.00000000E+00  0.00000000E+00
  0.00000000E+00  0.00000000E+00  0.00000000E+00
  0.00000000E+00  0.00000000E+00  0.00000000E+00
  0.00000000E+00  0.00000000E+00  0.00000000E+00
  0.00000000E+00  0.00000000E+00  0.00000000E+00
  0.00000000E+00  0.00000000E+00  0.00000000E+00
  0.00000000E+00  0.00000000E+00  0.00000000E+00
  0.00000000E+00  0.00000000E+00  0.00000000E+00
  0.00000000E+00  0.00000000E+00  0.00000000E+00
  0.00000000E+00  0.00000000E+00  0.00000000E+00
  0.00000000E+00  0.00000000E+00  0.00000000E+00
  0.00000000E+00  0.00000000E+00  0.00000000E+00
  0.00000000E+00  0.00000000E+00  0.00000000E+00
  0.00000000E+00  0.00000000E+00  0.00000000E+00
  0.00000000E+00  0.00000000E+00  0.00000000E+00
  0.00000000E+00  0.00000000E+00  0.00000000E+00
  0.00000000E+00  0.00000000E+00  0.00000000E+00
  0.00000000E+00  0.00000000E+00  0.00000000E+00
  0.00000000E+00  0.00000000E+00  0.00000000E+00
  0.00000000E+00  0.00000000E+00  0.00000000E+00
  0.00000000E+00  0.00000000E+00  0.00000000E+00
  0.00000000E+00  0.00000000E+00  0.00000000E+00
  0.00000000E+00  0.00000000E+00  0.00000000E+00
  0.00000000E+00  0.00000000E+00  0.00000000E+00
  0.00000000E+00  0.00000000E+00  0.00000000E+00
  0.00000000E+00  0.00000000E+00  0.00000000E+00
  0.00000000E+00  0.00000000E+00  0.00000000E+00
  0.00000000E+00  0.00000000E+00  0.00000000E+00
  0.00000000E+00  0.00000000E+00  0.00000000E+00
  0.00000000E+00  0.00000000E+00  0.00000000E+00
  0.00000000E+00  0.00000000E+00  0.00000000E+00
  0.00000000E+00  0.00000000E+00  0.00000000E+00
  0.00000000E+00  0.00000000E+00  0.00000000E+00
  0.00000000E+00  0.00000000E+00  0.00000000E+00
  0.00000000E+00  0.00000000E+00  0.00000000E+00
  0.00000000E+00  0.00000000E+00  0.00000000E+00
  0.00000000E+00  0.00000000E+00  0.00000000E+00
  0.00000000E+00  0.00000000E+00  0.00000000E+00
  0.00000000E+00  0.00000000E+00  0.00000000E+00
  0.00000000E+00  0.00000000E+00  0.00000000E+00
  0.00000000E+00  0.00000000E+00  0.00000000E+00
  0.00000000E+00  0.00000000E+00  0.00000000E+00
  0.00000000E+00  0.00000000E+00  0.00000000E+00
  0.00000000E+00  0.00000000E+00  0.00000000E+00
  0.00000000E+00  0.00000000E+00  0.00000000E+00
  0.00000000E+00  0.00000000E+00  0.00000000E+00
  0.00000000E+00  0.00000000E+00  0.00000000E+00
  0.00000000E+00  0.00000000E+00  0.00000000E+00
  0.00000000E+00  0.00000000E+00  0.00000000E+00
  0.00000000E+00  0.00000000E+00  0.00000000E+00
  0.00000000E+00  0.00000000E+00  0.00000000E+00
  0.00000000E+00  0.00000000E+00  0.00000000E+00
  0.00000000E+00  0.00000000E+00  0.00000000E+00
  0.00000000E+00  0.00000000E+00  0.00000000E+00
  0.00000000E+00  0.00000000E+00  0.00000000E+00
  0.00000000E+00  0.00000000E+00  0.00000000E+00
  0.00000000E+00  0.00000000E+00  0.00000000E+00
  0.00000000E+00  0.00000000E+00  0.00000000E+00
  0.00000000E+00  0.00000000E+00  0.00000000E+00
  0.00000000E+00  0.00000000E+00  0.00000000E+00
  0.00000000E+00  0.00000000E+00  0.00000000E+00
  0.00000000E+00  0.00000000E+00  0.00000000E+00
  0.00000000E+00  0.00000000E+00  0.00000000E+00
  0.00000000E+00  0.00000000E+00  0.00000000E+00
  0.00000000E+00  0.00000000E+00  0.00000000E+00
  0.00000000E+00  0.00000000E+00  0.00000000E+00
  0.00000000E+00  0.00000000E+00  0.00000000E+00
  0.00000000E+00  0.00000000E+00  0.00000000E+00
  0.00000000E+00  0.00000000E+00  0.00000000E+00
  0.00000000E+00  0.00000000E+00  0.00000000E+00
  0.00000000E+00  0.00000000E+00  0.00000000E+00
  0.00000000E+00  0.00000000E+00  0.00000000E+00
  0.00000000E+00  0.00000000E+00  0.00000000E+00
  0.00000000E+00  0.00000000E+00  0.00000000E+00
  0.00000000E+00  0.00000000E+00  0.00000000E+00
  0.00000000E+00  0.00000000E+00  0.00000000E+00
  0.00000000E+00  0.00000000E+00  0.00000000E+00
  0.00000000E+00  0.00000000E+00  0.00000000E+00
  0.00000000E+00  0.00000000E+00  0.00000000E+00
  0.00000000E+00  0.00000000E+00  0.00000000E+00
  0.00000000E+00  0.00000000E+00  0.00000000E+00
  0.00000000E+00  0.00000000E+00  0.00000000E+00
  0.00000000E+00  0.00000000E+00  0.00000000E+00
  0.00000000E+00  0.00000000E+00  0.00000000E+00
  0.00000000E+00  0.00000000E+00  0.00000000E+00
  0.00000000E+00  0.00000000E+00  0.00000000E+00
  0.00000000E+00  0.00000000E+00  0.00000000E+00
  0.00000000E+00  0.00000000E+00  0.00000000E+00
  0.00000000E+00  0.00000000E+00  0.00000000E+00
  0.00000000E+00  0.00000000E+00  0.00000000E+00
  0.00000000E+00  0.00000000E+00  0.00000000E+00
  0.00000000E+00  0.00000000E+00  0.00000000E+00
  0.00000000E+00  0.00000000E+00  0.00000000E+00
  0.00000000E+00  0.00000000E+00  0.00000000E+00
  0.00000000E+00  0.00000000E+00  0.00000000E+00
  0.00000000E+00  0.00000000E+00  0.00000000E+00
  0.00000000E+00  0.00000000E+00  0.00000000E+00
  0.00000000E+00  0.00000000E+00  0.00000000E+00
  0.00000000E+00  0.00000000E+00  0.00000000E+00
  0.00000000E+00  0.00000000E+00  0.00000000E+00
  0.00000000E+00  0.00000000E+00  0.00000000E+00
  0.00000000E+00  0.00000000E+00  0.00000000E+00
  0.00000000E+00  0.00000000E+00  0.00000000E+00
  0.00000000E+00  0.00000000E+00  0.00000000E+00
  0.00000000E+00  0.00000000E+00  0.00000000E+00
  0.00000000E+00  0.00000000E+00  0.00000000E+00
  0.00000000E+00  0.00000000E+00  0.00000000E+00
  0.00000000E+00  0.00000000E+00  0.00000000E+00
  0.00000000E+00  0.00000000E+00  0.00000000E+00
  0.00000000E+00  0.00000000E+00  0.00000000E+00
  0.00000000E+00  0.00000000E+00  0.00000000E+00
  0.00000000E+00  0.00000000E+00  0.00000000E+00
  0.00000000E+00  0.00000000E+00  0.00000000E+00
  0.00000000E+00  0.00000000E+00  0.00000000E+00
  0.00000000E+00  0.00000000E+00  0.00000000E+00
  0.00000000E+00  0.00000000E+00  0.00000000E+00
  0.00000000E+00  0.00000000E+00  0.00000000E+00
  0.00000000E+00  0.00000000E+00  0.00000000E+00
  0.00000000E+00  0.00000000E+00  0.00000000E+00
  0.00000000E+00  0.00000000E+00  0.00000000E+00
  0.00000000E+00  0.00000000E+00  0.00000000E+00
  0.00000000E+00  0.00000000E+00  0.00000000E+00
  0.00000000E+00  0.00000000E+00  0.00000000E+00
  0.00000000E+00  0.00000000E+00  0.00000000E+00
  0.00000000E+00  0.00000000E+00  0.00000000E+00
  0.00000000E+00  0.00000000E+00  0.00000000E+00
  0.00000000E+00  0.00000000E+00  0.00000000E+00
  0.00000000E+00  0.00000000E+00  0.00000000E+00
  0.00000000E+00  0.00000000E+00  0.00000000E+00
  0.00000000E+00  0.00000000E+00  0.00000000E+00
  0.00000000E+00  0.00000000E+00  0.00000000E+00
  0.00000000E+00  0.00000000E+00  0.00000000E+00
  0.00000000E+00  0.00000000E+00  0.00000000E+00
  0.00000000E+00  0.00000000E+00  0.00000000E+00
  0.00000000E+00  0.00000000E+00  0.00000000E+00
  0.00000000E+00  0.00000000E+00  0.00000000E+00
  0.00000000E+00  0.00000000E+00  0.00000000E+00
  0.00000000E+00  0.00000000E+00  0.00000000E+00
  0.00000000E+00  0.00000000E+00  0.00000000E+00
  0.00000000E+00  0.00000000E+00  0.00000000E+00
  0.00000000E+00  0.00000000E+00  0.00000000E+00
  0.00000000E+00  0.00000000E+00  0.00000000E+00
  0.00000000E+00  0.00000000E+00  0.00000000E+00
  0.00000000E+00  0.00000000E+00  0.00000000E+00
  0.00000000E+00  0.00000000E+00  0.00000000E+00
  0.00000000E+00  0.00000000E+00  0.00000000E+00
  0.00000000E+00  0.00000000E+00  0.00000000E+00
  0.00000000E+00  0.00000000E+00  0.00000000E+00
  0.00000000E+00  0.00000000E+00  0.00000000E+00
  0.00000000E+00  0.00000000E+00  0.00000000E+00
  0.00000000E+00  0.00000000E+00  0.00000000E+00
  0.00000000E+00  0.00000000E+00  0.00000000E+00
  0.00000000E+00  0.00000000E+00  0.00000000E+00
  0.00000000E+00  0.00000000E+00  0.00000000E+00
  0.00000000E+00  0.00000000E+00  0.00000000E+00
  0.00000000E+00  0.00000000E+00  0.00000000E+00
  0.00000000E+00  0.00000000E+00  0.00000000E+00
  0.00000000E+00  0.00000000E+00  0.00000000E+00
  0.00000000E+00  0.00000000E+00  0.00000000E+00
  0.00000000E+00  0.00000000E+00  0.00000000E+00
  0.00000000E+00  0.00000000E+00  0.00000000E+00
  0.00000000E+00  0.00000000E+00  0.00000000E+00
  0.00000000E+00  0.00000000E+00  0.00000000E+00
  0.00000000E+00  0.00000000E+00  0.00000000E+00
  0.00000000E+00  0.00000000E+00  0.00000000E+00
  0.00000000E+00  0.00000000E+00  0.00000000E+00
  0.00000000E+00  0.00000000E+00  0.00000000E+00
  0.00000000E+00  0.00000000E+00  0.00000000E+00
  0.00000000E+00  0.00000000E+00  0.00000000E+00
  0.00000000E+00  0.00000000E+00  0.00000000E+00
  0.00000000E+00  0.00000000E+00  0.00000000E+00
  0.00000000E+00  0.00000000E+00  0.00000000E+00
  0.00000000E+00  0.00000000E+00  0.00000000E+00
  0.00000000E+00  0.00000000E+00  0.00000000E+00
  0.00000000E+00  0.00000000E+00  0.00000000E+00
  0.00000000E+00  0.00000000E+00  0.00000000E+00
  0.00000000E+00  0.00000000E+00  0.00000000E+00
  0.00000000E+00  0.00000000E+00  0.00000000E+00
  0.00000000E+00  0.00000000E+00  0.00000000E+00
  0.00000000E+00  0.00000000E+00  0.00000000E+00
  0.00000000E+00  0.00000000E+00  0.00000000E+00
  0.00000000E+00  0.00000000E+00  0.00000000E+00
  0.00000000E+00  0.00000000E+00  0.00000000E+00
  0.00000000E+00  0.00000000E+00  0.00000000E+00
  0.00000000E+00  0.00000000E+00  0.00000000E+00
  0.00000000E+00  0.00000000E+00  0.00000000E+00
  0.00000000E+00  0.00000000E+00  0.00000000E+00
  0.00000000E+00  0.00000000E+00  0.00000000E+00
  0.00000000E+00  0.00000000E+00  0.00000000E+00
  0.00000000E+00  0.00000000E+00  0.00000000E+00
  0.00000000E+00  0.00000000E+00  0.00000000E+00
  0.00000000E+00  0.00000000E+00  0.00000000E+00
  0.00000000E+00  0.00000000E+00  0.00000000E+00
  0.00000000E+00  0.00000000E+00  0.00000000E+00
  0.00000000E+00  0.00000000E+00  0.00000000E+00
  0.00000000E+00  0.00000000E+00  0.00000000E+00
  0.00000000E+00  0.00000000E+00  0.00000000E+00
  0.00000000E+00  0.00000000E+00  0.00000000E+00
  0.00000000E+00  0.00000000E+00  0.00000000E+00
  0.00000000E+00  0.00000000E+00  0.00000000E+00
  0.00000000E+00  0.00000000E+00  0.00000000E+00
  0.00000000E+00  0.00000000E+00  0.00000000E+00
  0.00000000E+00  0.00000000E+00  0.00000000E+00
  0.00000000E+00  0.00000000E+00  0.00000000E+00
  0.00000000E+00  0.00000000E+00  0.00000000E+00
  0.00000000E+00  0.00000000E+00  0.00000000E+00
  0.00000000E+00  0.00000000E+00  0.00000000E+00
  0.00000000E+00  0.00000000E+00  0.00000000E+00
  0.00000000E+00  0.00000000E+00  0.00000000E+00
  0.00000000E+00  0.00000000E+00  0.00000000E+00
  0.00000000E+00  0.00000000E+00  0.00000000E+00
  0.00000000E+00  0.00000000E+00  0.00000000E+00
  0.00000000E+00  0.00000000E+00  0.00000000E+00
  0.00000000E+00  0.00000000E+00  0.00000000E+00
  0.00000000E+00  0.00000000E+00  0.00000000E+00
  0.00000000E+00  0.00000000E+00  0.00000000E+00
  0.00000000E+00  0.00000000E+00  0.00000000E+00