CuInSe2gb                               
   1.00000000000000     
     9.7266780392896699    0.0000000000000000    0.0000000000000000
     0.0000000000000000    8.4235502764570693    0.0000000000000000
     0.0000000000000000    0.0000000000000000   45.0000000000000000
   Fe   Mn
   281     7
Direct
  0.0538833081921233  0.7012467802023482  0.2113010897869263
  0.3182797453967726  0.7242767256011974  0.8762180844769778
  0.6882970144360891  0.9586954413740069  0.6115100546795847
  0.4382542061102137  0.4582933407617261  0.6115791093690920
  0.4407974430168431  0.2873437588461162  0.2552407846966971
  0.0583560016179795  0.3876251532018424  0.8335537527736598
  0.3084683606158936  0.8874543766121936  0.8335086919301503
  0.4470058619379240  0.6263308663660574  0.7004136710455072
  0.0599461493761939  0.2129981124416848  0.7449080354849700
  0.1785116384972146  0.4509615271662094  0.2113205604602361
  0.5677949703167461  0.2106981272616588  0.4774464585203314
  0.0666905904525733  0.8749882172966449  0.5668945165880809
  0.5674506011087139  0.2246547316664869  0.8762287099800663
  0.8084510881742724  0.5280837572358367  0.1239705281472306
  0.4291481535092075  0.9512668592297516  0.2114171101465967
  0.5665645515948771  0.3750134041275250  0.5668297778381913
  0.8111229082471556  0.0418280873014015  0.3883179186983284
  0.6819181182832478  0.7888434642032964  0.5224134648228783
  0.4428080077359719  0.4607446027353294  0.4774670519881127
  0.4342129089047410  0.9627481657066682  0.7448964738749994
  0.4416272064392163  0.6250445317013061  0.5668527961623181
  0.5717192202415182  0.8760762323957240  0.7005694560122967
  0.3088799903197728  0.0256482788778823  0.1240214804286701
  0.6897230514254492  0.9588786106431730  0.3439799221421509
  0.6879967172476910  0.7824116328525325  0.1242726755323485
  0.0526211996906258  0.3738297651059312  0.2995334030706098
  0.6892299553473317  0.4677932972649584  0.8760982099922325
  0.4292568670284078  0.4512728334112220  0.2114183762712885
  0.8086475588876049  0.3753600626388038  0.4330609773645228
  0.5635535916773368  0.7084246570016272  0.6115852360523070
  0.5597506011299459  0.5406749892844924  0.6558909323170294
  0.8177431315613484  0.8616052949275529  0.1667209103574903
  0.5654728950841876  0.5374313933446830  0.2551125432586381
  0.6895204609912540  0.4588992378475637  0.3439525322281386
  0.1918493225080481  0.6115317007549230  0.1664788976637795
  0.1942108177602843  0.7998680419170215  0.7888915475113414
  0.4472400297377829  0.1259967219944326  0.7004310917549106
  0.9279381220896050  0.6235070840928686  0.2995887226990347
  0.3174878768440390  0.2237492759889333  0.8762870644400362
  0.3166591281354290  0.8748473619201683  0.5668542407305995
  0.8152521236494038  0.5374893029097370  0.2551800863707910
  0.8098169829613361  0.5407583528870104  0.6558459971878072
  0.5588242052530439  0.5264462035093127  0.1239712850158558
  0.5693757785482411  0.0492097485725368  0.7888460986414130
  0.1910236267946518  0.2872847915160074  0.2552872372421348
  0.8086618450912292  0.8753899902883808  0.4330232721819228
  0.5721584989825841  0.3764008282451285  0.7004010549333766
  0.0572572682537622  0.0264047384335343  0.1241919221674577
  0.3098083177022952  0.5406593739012339  0.6559127958677881
  0.5647480205773335  0.2088236446462048  0.3439509432220140
  0.1879778418497608  0.9583934460688449  0.6114666902511512
  0.3029839697243977  0.3739177465612300  0.2995877834589310
  0.4347052787938201  0.7905034924464986  0.6560028278504442
  0.1951920467028852  0.2991101171262413  0.7887828857301027
  0.0674278987856221  0.3629938158483713  0.1666272605412085
  0.6971306463480561  0.6262004653615527  0.7004261651249835
  0.3112178839153336  0.5412882946744019  0.3884554778947663
  0.0684242857758548  0.7233390115421009  0.8762025059164001
  0.9334845555536083  0.6389258059583158  0.8338011549176040
  0.3195691321653644  0.5493505283987326  0.7891014884683845
  0.3043538858463508  0.2005962064307752  0.2112547939343272
  0.0679278140563637  0.7106009610027113  0.4774478483647928
  0.5541627632202084  0.2008457594000368  0.2111900538151765
  0.3098774930726836  0.2126550862535782  0.7449115020922679
  0.0718983464158885  0.3761576293601245  0.7005201565000638
  0.1833700349688035  0.6377246003520904  0.8335173502391977
  0.0703367069196952  0.0489743039359147  0.7888159287267987
  0.4416199957534326  0.1250390291830490  0.5669333686210823
  0.9347683066345150  0.2907667794456551  0.6558097396302766
  0.8040204722106900  0.2011407408540354  0.2112101336171421
  0.9290831640449940  0.9514666023808737  0.2112892998456043
  0.9416450465809810  0.6252465985764816  0.5668163714583052
  0.8079912813213601  0.3874316568241468  0.8336366583663296
  0.1971387812629283  0.6263296090745950  0.7003312210637437
  0.8086236342197490  0.8885390491738772  0.8337447291966005
  0.6849351640370130  0.2906480428803925  0.6560413043243905
  0.3131205559015024  0.2083341597225440  0.6115192095423421
  0.4346753656023278  0.4627139845590363  0.7448461271819168
  0.4361238786569787  0.7913059624933729  0.3884079018004622
  0.6847575202902695  0.9624053872562099  0.7447723682028811
  0.8037086883135132  0.7012111403081412  0.2111894413364324
  0.8135369889725574  0.7083448217723921  0.6116244205059038
  0.4366538675816578  0.7834850792286651  0.1240870999039058
  0.3098523971662288  0.7124014107090455  0.7447668714244642
  0.3206993697678209  0.0491843562266433  0.7888253703318310
  0.8111402260981000  0.5418373705031676  0.3883138588544535
  0.6819852911684183  0.2888239112327550  0.5224383040161306
  0.6946633220260192  0.7995429374625448  0.7888249591410456
  0.1907935541413921  0.7873586181575249  0.2552358226625140
  0.6917629204710533  0.1123114685870208  0.1667319066203235
  0.6927741654837910  0.9607317435695171  0.4773876558291260
  0.9401077776982862  0.9590507424383033  0.3439941413336722
  0.8072375248669849  0.0391792448828919  0.5225412119698715
  0.6836849495600885  0.6248719631523864  0.4329002518243789
  0.4396534296532355  0.4587514415235849  0.3439852999606539
  0.8107284315021943  0.2114440770030709  0.7446207187433100
  0.4395256573163903  0.9674710050479786  0.8760268944111274
  0.5664892599082715  0.8748041468919594  0.5668294841410331
  0.8091960044319196  0.0280237627134505  0.1239583856716980
  0.4280211260655965  0.6236418583670801  0.2994929436996842
  0.8168456864707531  0.7230055690778350  0.8763028723875234
  0.6882813243439768  0.4584014043897237  0.6115057293622620
  0.5585948893755296  0.3874137179094391  0.8335355331029312
  0.8030588614015564  0.3734581013394422  0.2994366175662008
  0.1858274114079074  0.2913085099129227  0.3883394303814371
  0.8203488751748377  0.5502939214406944  0.7887319894059669
  0.1822945518830437  0.7893510494116928  0.5225453778636232
  0.3029167552659039  0.8739254204574517  0.2995770123530967
  0.1786195893888056  0.9515259348180835  0.2113338860991178
  0.1844707950286203  0.4624527339040203  0.7448054652396928
  0.4322883413557748  0.2888677129726237  0.5223136912906952
  0.0645872767966281  0.7086017719671802  0.3437853710094421
  0.1850039024077992  0.7907348115965539  0.6559628075389432
  0.4447297396815543  0.7993070908316823  0.7888430598387492
  0.6838444939456345  0.1250359390857817  0.4329221383054120
  0.9321333526296309  0.7887847283896015  0.5224819067739183
  0.6918405393091255  0.6125566336188474  0.1667098068284356
  0.8145298462405393  0.7088212363835118  0.3438677893227386
  0.9345589104127969  0.4624009628109656  0.7449226749642416
  0.1897871575676678  0.4587841841604324  0.3439953861289227
  0.5699603130858856  0.5496302159358359  0.7890901103965569
  0.5667357964245016  0.3626969794049965  0.1664350413268634
  0.5646604614867496  0.7088856582345444  0.3439140454797739
  0.5528816289923698  0.3737919239766144  0.2995717851672660
  0.1896979167921997  0.4679920786075263  0.8761537489013962
  0.1918932487870807  0.1116353714890239  0.1664765916413131
  0.4446342429248273  0.2991341786483363  0.7888053574347067
  0.6909488785075512  0.7874985528401441  0.2553870125080255
  0.9334004193266517  0.1392206037345535  0.8337892133174767
  0.4427869465811521  0.9607733421574776  0.4774797511551331
  0.5672792647570031  0.7249047309672603  0.8762768028661594
  0.1926822472011349  0.4608313898524010  0.4774793799654033
  0.9343642791019541  0.2821337488016523  0.1241981180122512
  0.3114485849187675  0.0414254025259944  0.3884193193602809
  0.0602630241741104  0.0405713520129077  0.6560835566229799
  0.5584939491110904  0.3749544213370115  0.4330700693251198
  0.6837952930018621  0.4624897423314858  0.7450085312210669
  0.5601463192196743  0.2127224796010732  0.7448183053712997
  0.9471766142195625  0.1263542731817942  0.7003621913388006
  0.5598842017491732  0.0406391253335722  0.6558751836850886
  0.5572335110411317  0.5392382537590835  0.5225376507395567
  0.1779586977323476  0.1237576443207780  0.2995402318418671
  0.4412995358002216  0.1104050520896639  0.1664646054200068
  0.6781618224406962  0.6234961987988755  0.2994371429509093
  0.9278619227843801  0.1235287961056285  0.2996019295625016
  0.8166751946090204  0.3749773864751481  0.5669069422616678
  0.0527980993473622  0.8738611892820838  0.2995493122330524
  0.1917458511790817  0.6249677026923193  0.5669012438155685
  0.9448825783093622  0.8003016053422776  0.7887515153607592
  0.3084447767276324  0.3873628024640504  0.8335054326837745
  0.9400570346626153  0.4675238624973533  0.8760889370737711
  0.4336614466078293  0.6376362412457472  0.8335281412594761
  0.0645720703931497  0.2085788295334536  0.3437835092069413
  0.1897470448438924  0.9664731867802946  0.8760901571053740
  0.9346608172019593  0.7820942538699285  0.1242102875720665
  0.6862853666593371  0.7913911114546689  0.3884269791964931
  0.9347423737937669  0.7905798800490422  0.6559073369411632
  0.9411813523849082  0.1122368520606083  0.1666069148825261
  0.4351061765759667  0.2908749765244470  0.6560521852057102
  0.0541437929694928  0.2011125229632499  0.2112785326028625
  0.6789518540270049  0.9512572181051998  0.2112809268323201
  0.1779760720925856  0.6236522641332006  0.2995421414958273
  0.8221460056651755  0.8762659179719360  0.7003875190699356
  0.9468419335174103  0.6264154333389286  0.7004492444725534
  0.1971871881960729  0.1261878100468756  0.7003352101641455
  0.9426749694447016  0.4605579486100178  0.4772841152135771
  0.8133675386539325  0.2085036359147718  0.6115441940008672
  0.1835892673197705  0.6250340703115075  0.4331215619604529
  0.4280163063625923  0.1236721742599654  0.2994906714468787
  0.6781357633588235  0.1237004841687028  0.2994572014943773
  0.5615238107712474  0.5415037765264810  0.3884537473392451
  0.8143746919795901  0.2087066440456443  0.3437893362459047
  0.4397018125907849  0.4674231640028250  0.8761754126797617
  0.5584890452027071  0.8877975654777133  0.8333556705269745
  0.3176972202700146  0.2103952928786740  0.4772986853178495
  0.1926403770825562  0.9606989250939589  0.4774618388866813
  0.0585636691268934  0.8874534060093819  0.8334766642077426
  0.0572596332021517  0.5391735528548073  0.5225114961821612
  0.9426457522475210  0.9605413984151807  0.4772605760601721
  0.0632537967551678  0.7081489393303577  0.6115953262102363
  0.5572359491098006  0.0392002402680095  0.5224531498047541
  0.6953344907765151  0.2990176669839313  0.7887658641812147
  0.8177155593055112  0.3617030696339536  0.1667151595702812
  0.4336399412389228  0.1249170952866371  0.4329364272319640
  0.0678504947160721  0.2105991743066908  0.4774153823691928
  0.3099003619488906  0.0406755148177791  0.6559257204835964
  0.4321717684365780  0.7888477489869213  0.5223256307844669
  0.1837821679668542  0.1375898521678497  0.8335462533906863
  0.1858702923282400  0.2831711117447438  0.1243018895817020
  0.9397725025839083  0.4592086406674192  0.3440078230093973
  0.5667269430103360  0.8627114902027984  0.1664729133567468
  0.3040791424915481  0.7007318811797926  0.2112751356872865
  0.9410334133442083  0.6124633731878512  0.1666090431691387
  0.1883713891039038  0.4586124957130399  0.6115277428966752
  0.0724394929603035  0.8764293697596302  0.7003204717695912
  0.0597731142576182  0.5406392582792339  0.6558923990999760
  0.3077797929237641  0.5254408208848765  0.1240088237237284
  0.9363436419081407  0.7913495048926900  0.3884281428340013
  0.9449571080967163  0.2990873719270489  0.7887654354707369
  0.1847658435712308  0.2905991013594110  0.6558891959825620
  0.9381218857505002  0.9582763677008297  0.6114935638073807
  0.8099452595775183  0.7120771395258934  0.7448937502094710
  0.6908426511317034  0.2875522006082551  0.2552882234786518
  0.0592664168967297  0.7122313532125653  0.7449954404289855
  0.6789715242116048  0.4513240899159807  0.2112650724891771
  0.8178457103975392  0.2106005038895887  0.4774416864620632
  0.5677642403929256  0.7105763169304053  0.4774505372975377
  0.0676612978590897  0.8629771652076855  0.1666609376088443
  0.9322860953706642  0.2888852795988221  0.5224626375264905
  0.6846724496607379  0.7905639396505286  0.6558873189524040
  0.0584614987803140  0.8747847659615279  0.4329871282554687
  0.0681935829343307  0.2243027185682969  0.8759384823919469
  0.8100190917200528  0.0406154011309027  0.6559508075590267
  0.5596323200080375  0.0263248743394051  0.1239285364304843
  0.3087967610021674  0.3750355937971990  0.4328945444400640
  0.3165410514323747  0.3748928576172573  0.5668449478468514
  0.3176247300604838  0.7103290113382709  0.4772909180751741
  0.0572269542597434  0.0391534261003672  0.5225142750662801
  0.3222969062419196  0.8760617509086209  0.7004587106056049
  0.0655877930753228  0.5374400921510557  0.2551850262242402
  0.6834249181004531  0.1389890598858101  0.8338011656712194
  0.8154593857864739  0.0375012302068709  0.2551841251779312
  0.1834429838823116  0.1250966857191628  0.4330791132596391
  0.6973167542632678  0.1263907354698370  0.7004062744002481
  0.1823331354759168  0.2892452654282991  0.5224984864118853
  0.4408746379842858  0.7874580462056497  0.2552219779658083
  0.4412775140115052  0.6104204928576035  0.1664834890847077
  0.0634490998342623  0.2084534933677552  0.6115401357084103
  0.1859341850440526  0.7913279785322579  0.3883262015412782
  0.3069535489794317  0.5388359563348898  0.5224520858641952
  0.8217863493980343  0.3762943725600740  0.7002123857031899
  0.6864130999884926  0.2913216184714129  0.3884261183052326
  0.1915723703687900  0.1249718948384054  0.5668936512682559
  0.6895930311077233  0.9672158415389176  0.8761668752401579
  0.6917683346885511  0.1249280795184607  0.5669301437575014
  0.4396629084858797  0.9587628536360305  0.3439979668998763
  0.1843867738542074  0.9627950486394304  0.7447984785956350
  0.9412360305556899  0.7876084471100516  0.2553038393130505
  0.5586443126501986  0.8749084204552748  0.4330770810835077
  0.3086998090970929  0.8749614923151779  0.4329086151208422
  0.8072272575523765  0.5392912444098106  0.5225340142455842
  0.9291159982477998  0.4516528326880061  0.2112550073279455
  0.3154068881143942  0.5377170844824032  0.2551687357185005
  0.5616789797433526  0.0415509462585895  0.3884396154106331
  0.9381190944963803  0.4582223382589495  0.6115723436718129
  0.0612613893856148  0.0413071058714165  0.3884053675327899
  0.0612092918736712  0.5415256073235757  0.3883564839199923
  0.4359387486576154  0.2911947227876441  0.3883676937528911
  0.6926693534504624  0.4605879887168494  0.4773759224319894
  0.0666758355083675  0.3749907678825654  0.5668874774561768
  0.5536753053114201  0.7010280482090347  0.2111901080286400
  0.9411062564331332  0.2874861853612201  0.2552915830651248
  0.8195478699228065  0.0496264899626507  0.7889846241819364
  0.1898279418933672  0.9588314975001433  0.3440064913629421
  0.5529379264628314  0.8738413238942379  0.2995827580145431
  0.0584330480773153  0.3749648181374771  0.4329345456018188
  0.3147219485049075  0.7087551642971101  0.3439658151236202
  0.3148424764338426  0.2087824831978046  0.3440160564478822
  0.9416738722551300  0.1251315759910216  0.5667908674273489
  0.4385371551022875  0.9585408892776122  0.6115437242344172
  0.5657118720744320  0.0375222865160485  0.2551606821884173
  0.1861257736379392  0.7830412031601967  0.1243262530788812
  0.0657213956642239  0.0374907243402105  0.2552371223937949
  0.6916310642609407  0.6249933770417403  0.5669063102352929
  0.0570361613080712  0.5263688518641981  0.1241464247642730
  0.3070940270546860  0.0385827727772591  0.5223312702144047
  0.6877185584115647  0.2823216046028250  0.1242125998299530
  0.8178808116913430  0.7108702704804555  0.4774540425957305
  0.4334770985098828  0.1376614046874564  0.8335473827906310
  0.3222515794938742  0.3763496769644881  0.7003841429921293
  0.6834739171943701  0.6387292067321084  0.8336087577727490
  0.5597884808588920  0.7120046987999802  0.7449003350597567
  0.9363267383827474  0.2914363506687661  0.3884240368581168
  0.9386891592139174  0.9669822138481351  0.8760441737455500
  0.5630060934314254  0.2080625846652447  0.6114126951684192
  0.8166371831497903  0.8750855707078474  0.5669075900256235
  0.8030906268455456  0.8735726629527585  0.2994480156510418
  0.3155009462822015  0.0377472161541302  0.2551737934355502
  0.4366803892507971  0.2834844061796207  0.1240983650683604
  0.3133988528973063  0.7084459757587056  0.6115533148201557
  0.4335791398635798  0.6250133287803693  0.4329407674294257
  0.9333633255871054  0.6253726582203573  0.4331216949847755
  0.3185757650621915  0.8629128592617982  0.1658541202594167
  0.0707367477404979  0.5496717060024806  0.7886600230897642
  0.9333920726614600  0.1253103241015375  0.4331325020040306
  0.3183100030577764  0.3628490187889650  0.1658456966553258
  0.9329834144369774  0.9618570841717125  0.7447115448675691
  0.8169545034572399  0.2247337773730997  0.8757176553654342
 
  0.00000000E+00  0.00000000E+00  0.00000000E+00
  0.00000000E+00  0.00000000E+00  0.00000000E+00
  0.00000000E+00  0.00000000E+00  0.00000000E+00
  0.00000000E+00  0.00000000E+00  0.00000000E+00
  0.00000000E+00  0.00000000E+00  0.00000000E+00
  0.00000000E+00  0.00000000E+00  0.00000000E+00
  0.00000000E+00  0.00000000E+00  0.00000000E+00
  0.00000000E+00  0.00000000E+00  0.00000000E+00
  0.00000000E+00  0.00000000E+00  0.00000000E+00
  0.00000000E+00  0.00000000E+00  0.00000000E+00
  0.00000000E+00  0.00000000E+00  0.00000000E+00
  0.00000000E+00  0.00000000E+00  0.00000000E+00
  0.00000000E+00  0.00000000E+00  0.00000000E+00
  0.00000000E+00  0.00000000E+00  0.00000000E+00
  0.00000000E+00  0.00000000E+00  0.00000000E+00
  0.00000000E+00  0.00000000E+00  0.00000000E+00
  0.00000000E+00  0.00000000E+00  0.00000000E+00
  0.00000000E+00  0.00000000E+00  0.00000000E+00
  0.00000000E+00  0.00000000E+00  0.00000000E+00
  0.00000000E+00  0.00000000E+00  0.00000000E+00
  0.00000000E+00  0.00000000E+00  0.00000000E+00
  0.00000000E+00  0.00000000E+00  0.00000000E+00
  0.00000000E+00  0.00000000E+00  0.00000000E+00
  0.00000000E+00  0.00000000E+00  0.00000000E+00
  0.00000000E+00  0.00000000E+00  0.00000000E+00
  0.00000000E+00  0.00000000E+00  0.00000000E+00
  0.00000000E+00  0.00000000E+00  0.00000000E+00
  0.00000000E+00  0.00000000E+00  0.00000000E+00
  0.00000000E+00  0.00000000E+00  0.00000000E+00
  0.00000000E+00  0.00000000E+00  0.00000000E+00
  0.00000000E+00  0.00000000E+00  0.00000000E+00
  0.00000000E+00  0.00000000E+00  0.00000000E+00
  0.00000000E+00  0.00000000E+00  0.00000000E+00
  0.00000000E+00  0.00000000E+00  0.00000000E+00
  0.00000000E+00  0.00000000E+00  0.00000000E+00
  0.00000000E+00  0.00000000E+00  0.00000000E+00
  0.00000000E+00  0.00000000E+00  0.00000000E+00
  0.00000000E+00  0.00000000E+00  0.00000000E+00
  0.00000000E+00  0.00000000E+00  0.00000000E+00
  0.00000000E+00  0.00000000E+00  0.00000000E+00
  0.00000000E+00  0.00000000E+00  0.00000000E+00
  0.00000000E+00  0.00000000E+00  0.00000000E+00
  0.00000000E+00  0.00000000E+00  0.00000000E+00
  0.00000000E+00  0.00000000E+00  0.00000000E+00
  0.00000000E+00  0.00000000E+00  0.00000000E+00
  0.00000000E+00  0.00000000E+00  0.00000000E+00
  0.00000000E+00  0.00000000E+00  0.00000000E+00
  0.00000000E+00  0.00000000E+00  0.00000000E+00
  0.00000000E+00  0.00000000E+00  0.00000000E+00
  0.00000000E+00  0.00000000E+00  0.00000000E+00
  0.00000000E+00  0.00000000E+00  0.00000000E+00
  0.00000000E+00  0.00000000E+00  0.00000000E+00
  0.00000000E+00  0.00000000E+00  0.00000000E+00
  0.00000000E+00  0.00000000E+00  0.00000000E+00
  0.00000000E+00  0.00000000E+00  0.00000000E+00
  0.00000000E+00  0.00000000E+00  0.00000000E+00
  0.00000000E+00  0.00000000E+00  0.00000000E+00
  0.00000000E+00  0.00000000E+00  0.00000000E+00
  0.00000000E+00  0.00000000E+00  0.00000000E+00
  0.00000000E+00  0.00000000E+00  0.00000000E+00
  0.00000000E+00  0.00000000E+00  0.00000000E+00
  0.00000000E+00  0.00000000E+00  0.00000000E+00
  0.00000000E+00  0.00000000E+00  0.00000000E+00
  0.00000000E+00  0.00000000E+00  0.00000000E+00
  0.00000000E+00  0.00000000E+00  0.00000000E+00
  0.00000000E+00  0.00000000E+00  0.00000000E+00
  0.00000000E+00  0.00000000E+00  0.00000000E+00
  0.00000000E+00  0.00000000E+00  0.00000000E+00
  0.00000000E+00  0.00000000E+00  0.00000000E+00
  0.00000000E+00  0.00000000E+00  0.00000000E+00
  0.00000000E+00  0.00000000E+00  0.00000000E+00
  0.00000000E+00  0.00000000E+00  0.00000000E+00
  0.00000000E+00  0.00000000E+00  0.00000000E+00
  0.00000000E+00  0.00000000E+00  0.00000000E+00
  0.00000000E+00  0.00000000E+00  0.00000000E+00
  0.00000000E+00  0.00000000E+00  0.00000000E+00
  0.00000000E+00  0.00000000E+00  0.00000000E+00
  0.00000000E+00  0.00000000E+00  0.00000000E+00
  0.00000000E+00  0.00000000E+00  0.00000000E+00
  0.00000000E+00  0.00000000E+00  0.00000000E+00
  0.00000000E+00  0.00000000E+00  0.00000000E+00
  0.00000000E+00  0.00000000E+00  0.00000000E+00
  0.00000000E+00  0.00000000E+00  0.00000000E+00
  0.00000000E+00  0.00000000E+00  0.00000000E+00
  0.00000000E+00  0.00000000E+00  0.00000000E+00
  0.00000000E+00  0.00000000E+00  0.00000000E+00
  0.00000000E+00  0.00000000E+00  0.00000000E+00
  0.00000000E+00  0.00000000E+00  0.00000000E+00
  0.00000000E+00  0.00000000E+00  0.00000000E+00
  0.00000000E+00  0.00000000E+00  0.00000000E+00
  0.00000000E+00  0.00000000E+00  0.00000000E+00
  0.00000000E+00  0.00000000E+00  0.00000000E+00
  0.00000000E+00  0.00000000E+00  0.00000000E+00
  0.00000000E+00  0.00000000E+00  0.00000000E+00
  0.00000000E+00  0.00000000E+00  0.00000000E+00
  0.00000000E+00  0.00000000E+00  0.00000000E+00
  0.00000000E+00  0.00000000E+00  0.00000000E+00
  0.00000000E+00  0.00000000E+00  0.00000000E+00
  0.00000000E+00  0.00000000E+00  0.00000000E+00
  0.00000000E+00  0.00000000E+00  0.00000000E+00
  0.00000000E+00  0.00000000E+00  0.00000000E+00
  0.00000000E+00  0.00000000E+00  0.00000000E+00
  0.00000000E+00  0.00000000E+00  0.00000000E+00
  0.00000000E+00  0.00000000E+00  0.00000000E+00
  0.00000000E+00  0.00000000E+00  0.00000000E+00
  0.00000000E+00  0.00000000E+00  0.00000000E+00
  0.00000000E+00  0.00000000E+00  0.00000000E+00
  0.00000000E+00  0.00000000E+00  0.00000000E+00
  0.00000000E+00  0.00000000E+00  0.00000000E+00
  0.00000000E+00  0.00000000E+00  0.00000000E+00
  0.00000000E+00  0.00000000E+00  0.00000000E+00
  0.00000000E+00  0.00000000E+00  0.00000000E+00
  0.00000000E+00  0.00000000E+00  0.00000000E+00
  0.00000000E+00  0.00000000E+00  0.00000000E+00
  0.00000000E+00  0.00000000E+00  0.00000000E+00
  0.00000000E+00  0.00000000E+00  0.00000000E+00
  0.00000000E+00  0.00000000E+00  0.00000000E+00
  0.00000000E+00  0.00000000E+00  0.00000000E+00
  0.00000000E+00  0.00000000E+00  0.00000000E+00
  0.00000000E+00  0.00000000E+00  0.00000000E+00
  0.00000000E+00  0.00000000E+00  0.00000000E+00
  0.00000000E+00  0.00000000E+00  0.00000000E+00
  0.00000000E+00  0.00000000E+00  0.00000000E+00
  0.00000000E+00  0.00000000E+00  0.00000000E+00
  0.00000000E+00  0.00000000E+00  0.00000000E+00
  0.00000000E+00  0.00000000E+00  0.00000000E+00
  0.00000000E+00  0.00000000E+00  0.00000000E+00
  0.00000000E+00  0.00000000E+00  0.00000000E+00
  0.00000000E+00  0.00000000E+00  0.00000000E+00
  0.00000000E+00  0.00000000E+00  0.00000000E+00
  0.00000000E+00  0.00000000E+00  0.00000000E+00
  0.00000000E+00  0.00000000E+00  0.00000000E+00
  0.00000000E+00  0.00000000E+00  0.00000000E+00
  0.00000000E+00  0.00000000E+00  0.00000000E+00
  0.00000000E+00  0.00000000E+00  0.00000000E+00
  0.00000000E+00  0.00000000E+00  0.00000000E+00
  0.00000000E+00  0.00000000E+00  0.00000000E+00
  0.00000000E+00  0.00000000E+00  0.00000000E+00
  0.00000000E+00  0.00000000E+00  0.00000000E+00
  0.00000000E+00  0.00000000E+00  0.00000000E+00
  0.00000000E+00  0.00000000E+00  0.00000000E+00
  0.00000000E+00  0.00000000E+00  0.00000000E+00
  0.00000000E+00  0.00000000E+00  0.00000000E+00
  0.00000000E+00  0.00000000E+00  0.00000000E+00
  0.00000000E+00  0.00000000E+00  0.00000000E+00
  0.00000000E+00  0.00000000E+00  0.00000000E+00
  0.00000000E+00  0.00000000E+00  0.00000000E+00
  0.00000000E+00  0.00000000E+00  0.00000000E+00
  0.00000000E+00  0.00000000E+00  0.00000000E+00
  0.00000000E+00  0.00000000E+00  0.00000000E+00
  0.00000000E+00  0.00000000E+00  0.00000000E+00
  0.00000000E+00  0.00000000E+00  0.00000000E+00
  0.00000000E+00  0.00000000E+00  0.00000000E+00
  0.00000000E+00  0.00000000E+00  0.00000000E+00
  0.00000000E+00  0.00000000E+00  0.00000000E+00
  0.00000000E+00  0.00000000E+00  0.00000000E+00
  0.00000000E+00  0.00000000E+00  0.00000000E+00
  0.00000000E+00  0.00000000E+00  0.00000000E+00
  0.00000000E+00  0.00000000E+00  0.00000000E+00
  0.00000000E+00  0.00000000E+00  0.00000000E+00
  0.00000000E+00  0.00000000E+00  0.00000000E+00
  0.00000000E+00  0.00000000E+00  0.00000000E+00
  0.00000000E+00  0.00000000E+00  0.00000000E+00
  0.00000000E+00  0.00000000E+00  0.00000000E+00
  0.00000000E+00  0.00000000E+00  0.00000000E+00
  0.00000000E+00  0.00000000E+00  0.00000000E+00
  0.00000000E+00  0.00000000E+00  0.00000000E+00
  0.00000000E+00  0.00000000E+00  0.00000000E+00
  0.00000000E+00  0.00000000E+00  0.00000000E+00
  0.00000000E+00  0.00000000E+00  0.00000000E+00
  0.00000000E+00  0.00000000E+00  0.00000000E+00
  0.00000000E+00  0.00000000E+00  0.00000000E+00
  0.00000000E+00  0.00000000E+00  0.00000000E+00
  0.00000000E+00  0.00000000E+00  0.00000000E+00
  0.00000000E+00  0.00000000E+00  0.00000000E+00
  0.00000000E+00  0.00000000E+00  0.00000000E+00
  0.00000000E+00  0.00000000E+00  0.00000000E+00
  0.00000000E+00  0.00000000E+00  0.00000000E+00
  0.00000000E+00  0.00000000E+00  0.00000000E+00
  0.00000000E+00  0.00000000E+00  0.00000000E+00
  0.00000000E+00  0.00000000E+00  0.00000000E+00
  0.00000000E+00  0.00000000E+00  0.00000000E+00
  0.00000000E+00  0.00000000E+00  0.00000000E+00
  0.00000000E+00  0.00000000E+00  0.00000000E+00
  0.00000000E+00  0.00000000E+00  0.00000000E+00
  0.00000000E+00  0.00000000E+00  0.00000000E+00
  0.00000000E+00  0.00000000E+00  0.00000000E+00
  0.00000000E+00  0.00000000E+00  0.00000000E+00
  0.00000000E+00  0.00000000E+00  0.00000000E+00
  0.00000000E+00  0.00000000E+00  0.00000000E+00
  0.00000000E+00  0.00000000E+00  0.00000000E+00
  0.00000000E+00  0.00000000E+00  0.00000000E+00
  0.00000000E+00  0.00000000E+00  0.00000000E+00
  0.00000000E+00  0.00000000E+00  0.00000000E+00
  0.00000000E+00  0.00000000E+00  0.00000000E+00
  0.00000000E+00  0.00000000E+00  0.00000000E+00
  0.00000000E+00  0.00000000E+00  0.00000000E+00
  0.00000000E+00  0.00000000E+00  0.00000000E+00
  0.00000000E+00  0.00000000E+00  0.00000000E+00
  0.00000000E+00  0.00000000E+00  0.00000000E+00
  0.00000000E+00  0.00000000E+00  0.00000000E+00
  0.00000000E+00  0.00000000E+00  0.00000000E+00
  0.00000000E+00  0.00000000E+00  0.00000000E+00
  0.00000000E+00  0.00000000E+00  0.00000000E+00
  0.00000000E+00  0.00000000E+00  0.00000000E+00
  0.00000000E+00  0.00000000E+00  0.00000000E+00
  0.00000000E+00  0.00000000E+00  0.00000000E+00
  0.00000000E+00  0.00000000E+00  0.00000000E+00
  0.00000000E+00  0.00000000E+00  0.00000000E+00
  0.00000000E+00  0.00000000E+00  0.00000000E+00
  0.00000000E+00  0.00000000E+00  0.00000000E+00
  0.00000000E+00  0.00000000E+00  0.00000000E+00
  0.00000000E+00  0.00000000E+00  0.00000000E+00
  0.00000000E+00  0.00000000E+00  0.00000000E+00
  0.00000000E+00  0.00000000E+00  0.00000000E+00
  0.00000000E+00  0.00000000E+00  0.00000000E+00
  0.00000000E+00  0.00000000E+00  0.00000000E+00
  0.00000000E+00  0.00000000E+00  0.00000000E+00
  0.00000000E+00  0.00000000E+00  0.00000000E+00
  0.00000000E+00  0.00000000E+00  0.00000000E+00
  0.00000000E+00  0.00000000E+00  0.00000000E+00
  0.00000000E+00  0.00000000E+00  0.00000000E+00
  0.00000000E+00  0.00000000E+00  0.00000000E+00
  0.00000000E+00  0.00000000E+00  0.00000000E+00
  0.00000000E+00  0.00000000E+00  0.00000000E+00
  0.00000000E+00  0.00000000E+00  0.00000000E+00
  0.00000000E+00  0.00000000E+00  0.00000000E+00
  0.00000000E+00  0.00000000E+00  0.00000000E+00
  0.00000000E+00  0.00000000E+00  0.00000000E+00
  0.00000000E+00  0.00000000E+00  0.00000000E+00
  0.00000000E+00  0.00000000E+00  0.00000000E+00
  0.00000000E+00  0.00000000E+00  0.00000000E+00
  0.00000000E+00  0.00000000E+00  0.00000000E+00
  0.00000000E+00  0.00000000E+00  0.00000000E+00
  0.00000000E+00  0.00000000E+00  0.00000000E+00
  0.00000000E+00  0.00000000E+00  0.00000000E+00
  0.00000000E+00  0.00000000E+00  0.00000000E+00
  0.00000000E+00  0.00000000E+00  0.00000000E+00
  0.00000000E+00  0.00000000E+00  0.00000000E+00
  0.00000000E+00  0.00000000E+00  0.00000000E+00
  0.00000000E+00  0.00000000E+00  0.00000000E+00
  0.00000000E+00  0.00000000E+00  0.00000000E+00
  0.00000000E+00  0.00000000E+00  0.00000000E+00
  0.00000000E+00  0.00000000E+00  0.00000000E+00
  0.00000000E+00  0.00000000E+00  0.00000000E+00
  0.00000000E+00  0.00000000E+00  0.00000000E+00
  0.00000000E+00  0.00000000E+00  0.00000000E+00